********************************************************************************
Field Output Report, written Tue May 28 19:31:41 2024

Source 1
---------

   ODB: G:/Abaqus_calc_2019/1740/Vel_20/odb/zeides_2a_32_red_500_cal_10_vel_20_fric_0100.odb
   Step: Step-1
   Frame: Increment   3715758: Step Time =   0.4518

Loc 1 : Nodal values from source 1

Output sorted by column "Nodal Label".

Field Output reported at nodes for region: DIE_2A_32_D0_36-1.Region_1
   Computation algorithm: EXTRAPOLATE_COMPUTE_AVERAGE
   Averaged at nodes
   Averaging regions: ODB_REGIONS

      Node Label     COORD.COOR1     COORD.COOR2
                          @Loc 1          @Loc 1
-------------------------------------------------
               1     21.8134E-03     124.181E-03


Field Output reported at nodes for region: DIE_2A_32_D0_36-1.Region_2
   Computation algorithm: EXTRAPOLATE_COMPUTE_AVERAGE
   Averaged at nodes
   Averaging regions: ODB_REGIONS

      Node Label     COORD.COOR1     COORD.COOR2
                          @Loc 1          @Loc 1
-------------------------------------------------
               1     21.8134E-03     124.181E-03


Field Output reported at nodes for part: WIRE-1
   Computation algorithm: EXTRAPOLATE_COMPUTE_AVERAGE
   Averaged at nodes
   Averaging regions: ODB_REGIONS

      Node Label     COORD.COOR1     COORD.COOR2           S.S11           S.S22           S.S33           S.S12         PE.PE11         PE.PE22         PE.PE33         PE.PE12         LE.LE11         LE.LE22         LE.LE33         LE.LE12
                          @Loc 1          @Loc 1          @Loc 1          @Loc 1          @Loc 1          @Loc 1          @Loc 1          @Loc 1          @Loc 1          @Loc 1          @Loc 1          @Loc 1          @Loc 1          @Loc 1
-------------------------------------------------------------------------------------------------------------------------------------------------------------------------------------------------------------------------------------------------
               1     89.5440E-09     60.6014E-03    -56.8087E+06    -173.004E+06    -56.6001E+06     82.6799E+03    -55.4542E-03     110.767E-03    -55.3128E-03     5.66815E-03    -55.4057E-03     110.067E-03    -55.2626E-03     5.64794E-03
               2     17.0347E-03     62.6321E-03    -2.56274E+06     151.343E+06     105.100E+06     557.436E+03    -58.3669E-03     113.732E-03    -55.3646E-03     145.816E-03    -62.5981E-03     118.186E-03    -55.0548E-03     148.996E-03
               3     16.4171E-03     124.545E-03    -6.94512E+06    -12.9230E+06    -21.2686E+06    -10.0197E+06     41.6986E-03     40.7389E-03    -82.4375E-03     827.504E-06     41.7823E-03     40.7840E-03    -82.5150E-03     698.229E-06
               4    -415.610E-09     121.273E-03     49.4360E+06    -1.24567E+06     47.1277E+06    -1.37126E+06    -54.8399E-03     110.455E-03    -55.6153E-03    -3.59887E-03    -54.6676E-03     110.300E-03    -55.4495E-03    -3.62493E-03
               5     82.9672E-09    -131.839E-18    -31.5676E+06    -144.567E+06    -32.1243E+06     290.983E+03    -50.2586E-03     100.488E-03    -50.2299E-03     679.191E-06    -50.1601E-03     99.8580E-03    -50.1351E-03     682.371E-06
               6     16.7528E-03    -131.839E-18     13.1123E+06     119.437E+06     101.973E+06     8.55181E+06    -148.449E-03     214.195E-03    -65.7462E-03     177.740E-03    -150.022E-03     215.928E-03    -65.4285E-03     174.279E-03
               7     851.576E-06     60.6067E-03    -56.4237E+06    -172.171E+06    -55.1711E+06    -53.4026E+03    -55.4511E-03     110.807E-03    -55.3561E-03     9.42621E-03    -55.4050E-03     110.110E-03    -55.3005E-03     9.38976E-03
               8     1.70307E-03     60.6203E-03    -54.9023E+06    -169.567E+06    -51.0302E+06    -181.845E+03    -55.4632E-03     110.871E-03    -55.4081E-03     17.2768E-03    -55.4226E-03     110.182E-03    -55.3378E-03     17.2071E-03
               9     2.55469E-03     60.6416E-03    -52.3712E+06    -165.394E+06    -44.5355E+06    -252.980E+03    -55.5340E-03     110.961E-03    -55.4274E-03     25.4312E-03    -55.5020E-03     110.285E-03    -55.3343E-03     25.3243E-03
              10     3.40622E-03     60.6714E-03    -49.0639E+06    -160.632E+06    -37.3070E+06     30.8105E+03    -55.6496E-03     111.096E-03    -55.4468E-03     33.5109E-03    -55.6273E-03     110.438E-03    -55.3293E-03     33.3666E-03
              11     4.25781E-03     60.7092E-03    -45.2720E+06    -155.211E+06    -29.2616E+06     66.2117E+03    -55.7682E-03     111.235E-03    -55.4669E-03     41.4854E-03    -55.7591E-03     110.599E-03    -55.3225E-03     41.2948E-03
              12     5.10937E-03     60.7549E-03    -41.9243E+06    -147.169E+06    -20.2588E+06    -356.218E+03    -55.9145E-03     111.400E-03    -55.4859E-03     49.2627E-03    -55.9309E-03     110.804E-03    -55.3130E-03     49.0128E-03
              13     5.96110E-03     60.8082E-03    -39.1470E+06    -141.849E+06    -13.5685E+06    -61.1222E+03    -56.1051E-03     111.604E-03    -55.4988E-03     56.8159E-03    -56.1490E-03     111.045E-03    -55.3042E-03     56.5067E-03
              14     6.81255E-03     60.8691E-03    -36.3097E+06    -135.392E+06    -10.1661E+06     487.159E+03    -56.2572E-03     111.749E-03    -55.4921E-03     64.1419E-03    -56.3330E-03     111.245E-03    -55.2939E-03     63.7680E-03
              15     7.66458E-03     60.9369E-03    -33.0945E+06    -123.020E+06    -8.32623E+06     263.102E+03    -56.4854E-03     111.953E-03    -55.4675E-03     71.3023E-03    -56.6084E-03     111.546E-03    -55.2827E-03     70.8414E-03
              16     8.51589E-03     61.0124E-03    -30.0179E+06    -109.325E+06    -6.52671E+06     20.6736E+03    -56.7567E-03     112.203E-03    -55.4458E-03     78.3624E-03    -56.9446E-03     111.915E-03    -55.2764E-03     77.7988E-03
              17     9.36754E-03     61.0942E-03    -27.8713E+06    -94.3270E+06    -5.14897E+06     231.562E+03    -56.8920E-03     112.313E-03    -55.4206E-03     85.6054E-03    -57.1707E-03     112.172E-03    -55.2692E-03     84.9305E-03
              18     10.2198E-03     61.1844E-03    -25.9176E+06    -75.7963E+06    -4.96871E+06     427.929E+03    -57.1454E-03     112.527E-03    -55.3819E-03     93.0630E-03    -57.5476E-03     112.583E-03    -55.2592E-03     92.2571E-03
              19     11.0709E-03     61.2815E-03    -24.4052E+06    -49.5442E+06    -4.16995E+06     475.864E+03    -57.3103E-03     112.647E-03    -55.3367E-03     100.124E-03    -57.8916E-03     112.978E-03    -55.2503E-03     99.1625E-03
              20     11.9226E-03     61.3847E-03    -23.4261E+06    -14.2511E+06    -2.41373E+06     909.386E+03    -57.4041E-03     112.679E-03    -55.2753E-03     111.128E-03    -58.2796E-03     113.428E-03    -55.2327E-03     109.978E-03
              21     12.7751E-03     61.5033E-03    -22.3491E+06     34.3397E+06    -2.35542E+06     820.384E+03    -57.9112E-03     113.081E-03    -55.1698E-03     130.924E-03    -59.3261E-03     114.545E-03    -55.1990E-03     129.508E-03
              22     13.6276E-03     61.6474E-03    -21.1906E+06     79.7957E+06     14.9642E+06     118.547E+03    -60.1772E-03     115.335E-03    -55.1582E-03     167.618E-03    -62.7627E-03     118.086E-03    -55.1683E-03     165.809E-03
              23     14.4781E-03     61.8399E-03    -17.9976E+06     111.570E+06     57.2710E+06     352.792E+03    -65.0024E-03     120.300E-03    -55.2975E-03     235.353E-03    -70.6927E-03     126.156E-03    -55.1468E-03     233.171E-03
              24     15.3337E-03     62.1258E-03    -11.2374E+06     143.133E+06     96.6878E+06    -247.615E+03    -69.5954E-03     124.987E-03    -55.3920E-03     311.674E-03    -81.7355E-03     137.315E-03    -55.0998E-03     310.761E-03
              25     16.1821E-03     62.4792E-03    -4.74389E+06     155.572E+06     108.497E+06    -313.527E+03    -64.8141E-03     120.197E-03    -55.3834E-03     245.313E-03    -75.0809E-03     130.685E-03    -55.0596E-03     247.152E-03
              26     17.0344E-03     63.6945E-03    -3.72840E+06     150.193E+06     103.208E+06     1.52543E+06    -57.2213E-03     112.610E-03    -55.3886E-03     149.783E-03    -61.5685E-03     117.178E-03    -55.0850E-03     153.075E-03
              27     17.0377E-03     64.7557E-03    -1.78553E+06     152.627E+06     105.161E+06    -1.01018E+06    -54.3681E-03     109.778E-03    -55.4101E-03     150.618E-03    -58.7998E-03     114.441E-03    -55.1030E-03     154.162E-03
              28     17.0351E-03     65.8015E-03    -2.44691E+06     152.112E+06     105.342E+06    -1.47800E+06    -56.4631E-03     111.842E-03    -55.3792E-03     149.118E-03    -60.8627E-03     116.468E-03    -55.0695E-03     152.556E-03
              29     17.0356E-03     66.8733E-03    -3.40273E+06     150.921E+06     104.405E+06     1.38016E+06    -56.5992E-03     111.998E-03    -55.3985E-03     146.360E-03    -60.8902E-03     116.510E-03    -55.0904E-03     149.725E-03
              30     17.0353E-03     67.9190E-03    -5.06193E+06     150.852E+06     103.323E+06     543.394E+03    -57.5429E-03     112.917E-03    -55.3739E-03     147.725E-03    -61.8665E-03     117.459E-03    -55.0687E-03     151.034E-03
              31     17.0353E-03     68.9860E-03    -2.90267E+06     152.755E+06     105.459E+06    -122.716E+03    -58.8736E-03     114.211E-03    -55.3376E-03     145.227E-03    -63.1051E-03     118.670E-03    -55.0276E-03     148.360E-03
              32     17.0358E-03     70.0517E-03      462.17E+03     154.776E+06     107.572E+06     695.145E+03    -55.3253E-03     110.737E-03    -55.4118E-03     151.109E-03    -59.7340E-03     115.386E-03    -55.0990E-03     154.550E-03
              33     17.0367E-03     71.1003E-03    -2.36291E+06     153.742E+06     105.978E+06    -552.827E+03    -55.7654E-03     111.174E-03    -55.4081E-03     154.639E-03    -60.3350E-03     115.974E-03    -55.0977E-03     158.145E-03
              34     17.0341E-03     72.1687E-03    -4.34829E+06     153.494E+06     105.403E+06    -24.9314E+03    -56.7130E-03     112.138E-03    -55.4246E-03     151.709E-03    -61.2348E-03     116.883E-03    -55.1139E-03     155.180E-03
              35     17.0354E-03     73.2162E-03    -3.96537E+06     153.765E+06     105.180E+06     1.16769E+06    -56.2235E-03     111.657E-03    -55.4333E-03     150.552E-03    -60.6591E-03     116.319E-03    -55.1246E-03     154.034E-03
              36     17.0355E-03     74.2770E-03    -2.93769E+06     154.477E+06     106.484E+06    -404.577E+03    -57.1195E-03     112.511E-03    -55.3912E-03     147.525E-03    -61.4286E-03     117.049E-03    -55.0785E-03     150.821E-03
              37     17.0353E-03     75.3398E-03    -634.873E+03     154.677E+06     107.446E+06    -105.626E+03    -56.6389E-03     112.035E-03    -55.3963E-03     148.362E-03    -60.9660E-03     116.598E-03    -55.0824E-03     151.703E-03
              38     17.0362E-03     76.3916E-03     176.776E+03     155.536E+06     108.336E+06    -895.975E+03    -55.7606E-03     111.104E-03    -55.3433E-03     148.242E-03    -60.0320E-03     115.614E-03    -55.0274E-03     151.562E-03
              39     17.0398E-03     77.4527E-03    -3.66973E+06     154.656E+06     107.077E+06     882.346E+03    -59.1345E-03     114.488E-03    -55.3532E-03     148.193E-03    -63.4906E-03     119.069E-03    -55.0367E-03     151.431E-03
              40     17.0252E-03     78.5275E-03    -7.12419E+06     151.132E+06     101.801E+06     4.59893E+06    -55.3212E-03     110.926E-03    -55.6051E-03     142.189E-03    -59.6780E-03     115.501E-03    -55.3049E-03     145.696E-03
              41     17.0386E-03     79.5486E-03    -3.02071E+06     154.283E+06     103.987E+06    -1.71621E+06    -50.3129E-03     105.896E-03    -55.5833E-03     140.867E-03    -54.5327E-03     110.355E-03    -55.2827E-03     144.531E-03
              42     17.0363E-03     80.6189E-03    -1.54442E+06     158.468E+06     108.505E+06    -4.16199E+06    -60.1382E-03     115.379E-03    -55.2405E-03     152.540E-03    -64.6537E-03     120.141E-03    -54.9255E-03     155.729E-03
              43     17.0358E-03     81.7222E-03    -4.19371E+06     158.575E+06     107.775E+06     1.73290E+06    -60.7806E-03     116.071E-03    -55.2903E-03     168.811E-03    -65.8950E-03     121.423E-03    -54.9752E-03     172.154E-03
              44     17.0364E-03     82.7483E-03    -1.91921E+06     160.045E+06     108.498E+06     2.43079E+06    -54.1722E-03     109.628E-03    -55.4555E-03     163.329E-03    -59.0526E-03     114.756E-03    -55.1422E-03     167.034E-03
              45     17.0353E-03     83.7961E-03    -2.48274E+06     160.292E+06     108.469E+06     531.993E+03    -57.2323E-03     112.609E-03    -55.3764E-03     146.694E-03    -61.5233E-03     117.146E-03    -55.0629E-03     150.000E-03
              46     17.0353E-03     84.8688E-03    -3.39407E+06     160.674E+06     108.309E+06     229.236E+03    -57.7809E-03     113.158E-03    -55.3773E-03     148.316E-03    -62.1455E-03     117.767E-03    -55.0638E-03     151.579E-03
              47     17.0356E-03     85.9260E-03    -2.83143E+06     161.455E+06     108.685E+06     153.771E+03    -55.5748E-03     110.998E-03    -55.4233E-03     152.840E-03    -60.0986E-03     115.770E-03    -55.1098E-03     156.347E-03
              48     17.0362E-03     86.9766E-03    -1.83822E+06     162.001E+06     109.361E+06     271.973E+03    -55.9515E-03     111.325E-03    -55.3737E-03     148.450E-03    -60.2865E-03     115.912E-03    -55.0591E-03     151.836E-03
              49     17.0371E-03     88.0387E-03    -590.029E+03     162.510E+06     109.950E+06    -195.927E+03    -56.3696E-03     111.702E-03    -55.3323E-03     145.380E-03    -60.5835E-03     116.172E-03    -55.0174E-03     148.622E-03
              50     17.0365E-03     89.0935E-03    -2.62342E+06     161.940E+06     108.992E+06    -830.448E+03    -57.6644E-03     112.974E-03    -55.3099E-03     146.544E-03    -61.9634E-03     117.523E-03    -54.9959E-03     149.763E-03
              51     17.0361E-03     90.1603E-03    -4.01617E+06     161.745E+06     108.287E+06     523.306E+03    -57.4847E-03     112.803E-03    -55.3178E-03     144.764E-03    -61.7576E-03     117.321E-03    -55.0051E-03     148.043E-03
              52     17.0370E-03     91.2106E-03    -2.96147E+06      163.18E+06     109.091E+06     1.25267E+06    -57.3052E-03     112.625E-03    -55.3199E-03     145.999E-03    -61.5653E-03     117.138E-03    -55.0067E-03     149.282E-03
              53     17.0360E-03     92.2802E-03    -3.13257E+06     163.264E+06     108.809E+06     1.24020E+06    -57.1157E-03     112.423E-03    -55.3073E-03     149.479E-03    -61.4796E-03     117.040E-03    -54.9955E-03     152.747E-03
              54     17.0385E-03     93.3377E-03    -3.64341E+06     164.680E+06     109.492E+06     697.437E+03    -55.6267E-03     110.935E-03    -55.3086E-03     153.198E-03    -60.1735E-03     115.737E-03    -54.9946E-03     156.674E-03
              55     17.0373E-03     94.3911E-03    -1.87288E+06     167.525E+06     111.982E+06    -172.686E+03    -54.6359E-03     109.882E-03    -55.2466E-03     151.580E-03    -59.1376E-03     114.648E-03    -54.9269E-03     155.121E-03
              56     17.0432E-03     95.4486E-03    -2.29887E+06     166.074E+06     111.385E+06    -1.95476E+06    -55.8835E-03     111.020E-03    -55.1364E-03     150.680E-03    -60.3639E-03     115.759E-03    -54.8169E-03     154.106E-03
              57     17.0377E-03     96.5074E-03    -4.62640E+06     164.582E+06     110.807E+06     377.543E+03    -58.1853E-03     113.249E-03    -55.0641E-03     151.137E-03    -62.6934E-03     118.005E-03    -54.7420E-03     154.468E-03
              58     17.0439E-03     97.5726E-03    -2.72286E+06     167.448E+06     113.539E+06     2.30703E+06    -55.2171E-03     110.220E-03    -55.0034E-03     154.025E-03    -59.7418E-03     115.001E-03    -54.6746E-03     157.512E-03
              59     17.0469E-03     98.6197E-03    -1.69408E+06     168.871E+06     115.153E+06    -384.718E+03    -54.2372E-03     109.086E-03    -54.8483E-03     154.566E-03    -58.7714E-03     113.880E-03    -54.5150E-03     158.090E-03
              60     17.0470E-03     99.6822E-03    -3.79643E+06     167.189E+06     114.292E+06     331.196E+03    -56.1584E-03     110.812E-03    -54.6537E-03     152.362E-03    -60.6600E-03     115.562E-03    -54.3192E-03     155.776E-03
              61     17.0532E-03     100.735E-03    -2.53401E+06     167.145E+06     115.043E+06     1.28395E+06    -54.8812E-03     109.302E-03    -54.4210E-03     152.489E-03    -59.3273E-03     113.999E-03    -54.0844E-03     155.955E-03
              62     17.0585E-03     101.790E-03    -1.91370E+06     167.015E+06     115.629E+06    -153.076E+03    -55.1399E-03     109.226E-03    -54.0864E-03     148.450E-03    -59.4501E-03     113.787E-03    -53.7476E-03     151.834E-03
              63     17.0633E-03     102.842E-03    -4.13806E+06     164.234E+06     114.522E+06    -175.743E+03    -58.2695E-03     111.959E-03    -53.6895E-03     147.734E-03    -62.5848E-03     116.511E-03    -53.3490E-03     150.931E-03
              64     17.0696E-03     103.914E-03    -2.38591E+06     163.782E+06     116.707E+06     1.15161E+06    -57.5158E-03     110.859E-03    -53.3435E-03     143.730E-03    -61.7002E-03     115.278E-03    -52.9940E-03     146.918E-03
              65     17.0768E-03     104.952E-03    -3.74338E+06     159.284E+06     114.870E+06    -625.960E+03    -63.3023E-03     116.152E-03    -52.8498E-03     140.018E-03    -67.3648E-03     120.436E-03    -52.5010E-03     142.822E-03
              66     17.0786E-03     106.030E-03    -4.62714E+06     156.438E+06     114.385E+06    -192.019E+03    -73.2937E-03     125.623E-03    -52.3296E-03     143.047E-03    -77.5108E-03     130.053E-03    -51.9778E-03     145.215E-03
              67     17.0860E-03     107.136E-03    -1.72183E+06     156.951E+06     116.801E+06     24.3451E+03    -70.4233E-03     122.581E-03    -52.1578E-03     160.550E-03    -75.3832E-03     127.756E-03    -51.7989E-03     163.268E-03
              68     17.0879E-03     108.182E-03    -2.85627E+06     151.854E+06     114.495E+06    -1.86604E+06    -71.2625E-03     123.179E-03    -51.9167E-03     164.742E-03    -76.4370E-03     128.550E-03    -51.5603E-03     167.605E-03
              69     17.0914E-03     109.257E-03    -240.425E+03     146.818E+06     114.295E+06    -1.75734E+06    -80.7455E-03     132.227E-03    -51.4819E-03     152.683E-03    -85.4304E-03     137.102E-03    -51.1230E-03     154.602E-03
              70     17.0946E-03     110.345E-03    -3.51337E+06     139.514E+06     111.571E+06    -3.32295E+06    -89.4845E-03     140.583E-03    -51.0984E-03     149.571E-03    -94.0228E-03     145.280E-03    -50.7377E-03     150.739E-03
              71     17.0958E-03     111.434E-03    -4.54065E+06     130.851E+06     109.443E+06    -2.56972E+06    -102.890E-03     153.562E-03    -50.6718E-03     151.560E-03    -107.405E-03     158.211E-03    -50.3077E-03     151.705E-03
              72     17.0975E-03     112.560E-03    -4.79442E+06     124.050E+06     109.649E+06    -1.31711E+06    -112.512E-03     162.874E-03    -50.3613E-03     159.081E-03    -117.265E-03     167.738E-03    -49.9860E-03     158.382E-03
              73     17.0996E-03     113.687E-03     204.014E+03     119.963E+06     113.193E+06    -1.40751E+06    -114.645E-03     164.860E-03    -50.2148E-03     173.200E-03    -120.009E-03     170.323E-03    -49.8231E-03     172.268E-03
              74     17.1024E-03     114.793E-03    -3.69400E+06     108.999E+06     112.460E+06    -5.17891E+06    -126.331E-03     176.159E-03    -49.8275E-03     181.198E-03    -131.997E-03     181.875E-03    -49.4179E-03     179.156E-03
              75     17.1039E-03     115.942E-03    -2.14709E+06     95.3231E+06     115.191E+06    -3.70605E+06    -146.265E-03     195.568E-03    -49.3029E-03     185.408E-03    -152.009E-03     201.318E-03    -48.8621E-03     181.437E-03
              76     17.1046E-03     117.114E-03    -5.86670E+06     84.3527E+06     119.416E+06    -4.35021E+06    -157.947E-03     206.998E-03    -49.0518E-03     199.770E-03    -164.309E-03     213.304E-03    -48.5686E-03     194.305E-03
              77     17.1049E-03     118.290E-03     -10.967E+03     70.6473E+06     120.571E+06    -3.23780E+06    -160.228E-03     209.245E-03    -49.0165E-03     226.899E-03    -167.704E-03     216.635E-03    -48.5160E-03     220.544E-03
              78     17.1075E-03     119.469E-03     6.74562E+06     80.2465E+06     128.822E+06     9.11925E+06    -162.613E-03     211.641E-03    -49.0276E-03     273.192E-03    -172.150E-03     221.136E-03    -48.5097E-03     265.268E-03
              79     17.1066E-03     120.667E-03    -15.8349E+06     90.0363E+06     107.007E+06    -1.70485E+06    -152.770E-03     202.038E-03    -49.2686E-03     334.417E-03    -164.242E-03     213.490E-03    -48.8411E-03     325.241E-03
              80     17.1131E-03     121.816E-03    -19.9160E+06     42.7038E+06     46.8326E+06    -30.8751E+06    -81.8811E-03     132.750E-03    -50.8692E-03     362.709E-03    -89.7473E-03     140.621E-03    -50.6681E-03     358.110E-03
              81     17.1061E-03     122.728E-03     10.9669E+06     9.86014E+06     38.6890E+06    -10.3113E+06     10.5916E-03     46.9825E-03    -57.5741E-03     235.527E-03     8.70791E-03     48.7771E-03    -57.4109E-03     235.659E-03
              82     16.7700E-03     123.603E-03     18.1316E+06     2.56565E+06     22.3026E+06     7.09568E+06     42.9844E-03     29.6875E-03    -72.6719E-03     57.7123E-03     42.9999E-03     29.6506E-03    -72.5905E-03     57.8211E-03
              83     15.5248E-03     124.156E-03    -1.78196E+06     3.54918E+06     16.8362E+06     3.76797E+06     38.8001E-03     44.8650E-03    -83.6651E-03     11.2574E-03     38.7742E-03     44.8738E-03    -83.5834E-03     11.3059E-03
              84     14.6811E-03     123.784E-03     10.3491E+06     21.9865E+06     72.5003E+06    -3.56582E+06     6.61071E-03     78.3036E-03    -84.9143E-03     7.91704E-03     6.50585E-03     78.2768E-03    -84.5987E-03     7.82545E-03
              85     13.8682E-03     123.390E-03     17.4894E+06    -14.9796E+06     82.9217E+06    -3.53720E+06    -33.6387E-03     117.142E-03    -83.5032E-03    -35.7095E-03    -33.6747E-03     116.866E-03    -83.0922E-03    -35.9264E-03
              86     13.1166E-03     123.032E-03     21.6707E+06    -11.7129E+06     84.5029E+06     8.95337E+06    -48.7699E-03     129.128E-03    -80.3583E-03    -70.7073E-03    -48.8051E-03     128.803E-03    -79.9503E-03    -70.8563E-03
              87     12.3450E-03     122.734E-03     24.0849E+06     8.54823E+06     89.7855E+06     4.43297E+06    -58.5581E-03     135.679E-03    -77.1208E-03    -78.3981E-03    -58.5962E-03     135.452E-03    -76.7191E-03    -78.6323E-03
              88     11.5689E-03     122.480E-03     26.2696E+06     2.79449E+06     92.5270E+06     2.16788E+06    -66.9630E-03     141.093E-03    -74.1301E-03    -78.3001E-03    -66.9801E-03     140.838E-03    -73.7097E-03    -78.5635E-03
              89     10.7852E-03     122.265E-03     34.7919E+06    -208.476E+03     95.3325E+06    -1.47595E+06    -71.2205E-03     142.559E-03    -71.3386E-03    -71.7818E-03    -71.1903E-03     142.293E-03    -70.9121E-03    -72.0621E-03
              90     9.98794E-03     122.085E-03     41.2605E+06    -5.59207E+06     94.4365E+06     2.46061E+06    -73.2127E-03     141.988E-03    -68.7756E-03    -63.7890E-03    -73.1385E-03     141.705E-03    -68.3552E-03    -63.9857E-03
              91     9.18498E-03     121.931E-03     43.3310E+06     2.38431E+06     94.0434E+06     3.20582E+06    -73.0374E-03     139.450E-03    -66.4124E-03    -54.8109E-03    -72.9654E-03     139.218E-03    -66.0085E-03    -54.9613E-03
              92     8.37271E-03     121.800E-03     43.9395E+06     133.655E+03     89.4286E+06     2.86741E+06    -71.3581E-03     135.629E-03    -64.2712E-03    -45.8041E-03    -71.2733E-03     135.404E-03    -63.8880E-03    -45.9226E-03
              93     7.55354E-03     121.689E-03     43.4580E+06     1.29803E+06     83.0651E+06     2.48876E+06    -69.1109E-03     131.458E-03    -62.3473E-03    -38.0590E-03    -69.0219E-03     131.256E-03    -61.9969E-03    -38.1526E-03
              94     6.72861E-03     121.594E-03     42.0631E+06     716.967E+03     77.4485E+06     1.67357E+06    -66.5357E-03     127.187E-03    -60.6509E-03    -31.3683E-03    -66.4448E-03     126.998E-03    -60.3256E-03    -31.4473E-03
              95     5.89781E-03     121.514E-03     41.4542E+06     1.50144E+06     73.6227E+06     195.422E+03    -63.8817E-03     123.064E-03    -59.1825E-03    -25.7170E-03    -63.7896E-03     122.890E-03    -58.8767E-03    -25.7944E-03
              96     5.06308E-03     121.447E-03     41.8591E+06      94.586E+03     66.9770E+06    -979.740E+03    -61.3426E-03     119.274E-03    -57.9317E-03    -20.8373E-03    -61.2370E-03     119.105E-03    -57.6576E-03    -20.9129E-03
              97     4.22410E-03     121.393E-03     42.9014E+06     35.9038E+03     61.4096E+06    -1.25342E+06    -59.1874E-03     116.100E-03    -56.9130E-03    -16.6094E-03    -59.0682E-03     115.939E-03    -56.6682E-03    -16.6744E-03
              98     3.38226E-03     121.349E-03     44.2550E+06     111.245E+03     57.8686E+06    -1.75105E+06    -57.4384E-03     113.561E-03    -56.1228E-03    -13.0939E-03    -57.3074E-03     113.405E-03    -55.8977E-03    -13.1539E-03
              99     2.53809E-03     121.316E-03     45.7937E+06    -260.073E+03     54.0940E+06    -2.14962E+06    -56.1528E-03     111.694E-03    -55.5412E-03    -10.0316E-03    -56.0083E-03     111.540E-03    -55.3367E-03    -10.0871E-03
             100     1.69253E-03     121.292E-03     47.4031E+06    -553.549E+03     50.3957E+06    -2.10309E+06    -55.1604E-03     110.374E-03    -55.2133E-03    -7.09841E-03    -55.0022E-03     110.222E-03    -55.0293E-03    -7.14417E-03
             101     845.528E-06     121.277E-03     48.7926E+06    -974.335E+03     47.9039E+06    -1.64710E+06    -54.7531E-03     110.124E-03    -55.3706E-03    -4.60719E-03    -54.5847E-03     109.971E-03    -55.2004E-03    -4.63960E-03
             102    -216.322E-09     120.212E-03     39.9922E+06    -3.74678E+06     39.7538E+06    -1.32522E+06    -48.8330E-03     98.1800E-03    -49.3470E-03    -1.44671E-03    -48.6913E-03     98.0394E-03    -49.2008E-03    -1.47130E-03
             103     29.0900E-09     119.180E-03     20.9732E+06    -9.96593E+06     21.8810E+06    -2.32385E+06    -38.6645E-03     77.4086E-03    -38.7441E-03     1.08052E-03    -38.5798E-03     77.2938E-03    -38.6506E-03     1.04424E-03
             104     62.0137E-09     118.165E-03    -1.31358E+06    -19.1853E+06    -1.42875E+06    -2.81005E+06    -31.4964E-03     62.8993E-03    -31.4029E-03     1.93782E-03    -31.4745E-03     62.8061E-03    -31.3804E-03     1.89661E-03
             105     22.1573E-09     117.161E-03    -26.7102E+06    -29.3654E+06    -26.0786E+06    -2.70839E+06    -26.5063E-03     52.9259E-03    -26.4196E-03     2.95658E-03    -26.5601E-03     52.8552E-03    -26.4687E-03     2.91865E-03
             106     55.3826E-09     116.165E-03    -55.5981E+06    -40.8412E+06    -54.8384E+06    -3.77909E+06    -23.3755E-03     46.7401E-03    -23.3646E-03     3.93873E-03    -23.5149E-03     46.6960E-03    -23.4990E-03     3.88851E-03
             107    -110.193E-09     115.174E-03    -89.0652E+06    -54.5808E+06    -88.9766E+06    -4.20443E+06    -21.8737E-03     43.8212E-03    -21.9474E-03     4.70633E-03    -22.1109E-03     43.8065E-03    -22.1840E-03     4.65162E-03
             108     26.5512E-09     114.184E-03    -120.480E+06    -66.9912E+06    -120.579E+06    -3.20114E+06    -21.8566E-03     43.7414E-03    -21.8848E-03     5.23189E-03    -22.1869E-03     43.7560E-03    -22.2159E-03     5.19086E-03
             109    -6.05723E-09     113.193E-03    -125.586E+06    -68.8655E+06    -127.715E+06     1.91716E+06    -23.1803E-03     46.2974E-03    -23.1171E-03     5.64239E-03    -23.5233E-03     46.3203E-03    -23.4737E-03     5.66792E-03
             110     59.1259E-09     112.198E-03    -88.0316E+06    -49.9706E+06    -89.2013E+06     8.86982E+06    -25.8170E-03     51.5205E-03    -25.7036E-03     6.13653E-03    -26.0556E-03     51.5273E-03    -25.9495E-03     6.25213E-03
             111     59.2363E-09     111.196E-03    -48.0307E+06    -24.9822E+06    -44.7507E+06     5.84322E+06    -29.3589E-03     58.6663E-03    -29.3073E-03     6.57353E-03    -29.4985E-03     58.6754E-03    -29.4252E-03     6.64967E-03
             112    -64.6781E-09     110.187E-03    -29.2802E+06    -18.9823E+06    -28.1620E+06    -1.97483E+06    -33.2088E-03     66.4239E-03    -33.2152E-03     6.79097E-03    -33.2874E-03     66.4118E-03    -33.2860E-03     6.76522E-03
             113     56.3652E-09     109.169E-03    -20.3047E+06    -27.4014E+06    -21.1251E+06    -2.75632E+06    -37.0195E-03     73.9621E-03    -36.9425E-03     6.83123E-03    -37.0512E-03     73.8848E-03    -36.9790E-03     6.79402E-03
             114     59.9161E-09     108.144E-03    -17.3175E+06    -36.2371E+06    -16.7630E+06    -2.29948E+06    -40.5739E-03     80.9854E-03    -40.4115E-03     6.75916E-03    -40.5842E-03     80.8533E-03    -40.4176E-03     6.72598E-03
             115     94.2553E-09     107.113E-03    -18.6001E+06    -46.8351E+06    -18.4464E+06    -3.78125E+06    -43.7003E-03     87.2870E-03    -43.5868E-03     6.65685E-03    -43.6991E-03     87.1065E-03    -43.5841E-03     6.60200E-03
             116    -67.6279E-09     106.075E-03    -21.7728E+06    -61.0262E+06    -22.0052E+06    -4.17093E+06    -46.3524E-03     92.6713E-03    -46.3189E-03     6.49847E-03    -46.3413E-03     92.4298E-03    -46.3089E-03     6.43608E-03
             117     79.2713E-09     105.032E-03    -25.2960E+06    -74.4765E+06    -25.7902E+06    -3.46246E+06    -48.6244E-03     97.2283E-03    -48.6039E-03     6.30852E-03    -48.6059E-03     96.9302E-03    -48.5882E-03     6.25275E-03
             118    -77.4779E-09     103.985E-03    -29.8464E+06    -85.5911E+06    -29.8653E+06    -2.82293E+06    -50.4802E-03     100.928E-03    -50.4474E-03     6.09644E-03    -50.4624E-03     100.587E-03    -50.4294E-03     6.04660E-03
             119     115.768E-09     102.935E-03    -34.0037E+06    -96.4495E+06    -33.7928E+06    -3.17019E+06    -51.9119E-03     103.759E-03    -51.8472E-03     6.14859E-03    -51.8934E-03     103.375E-03    -51.8270E-03     6.09287E-03
             120    -57.8096E-09     101.882E-03    -38.2590E+06    -108.494E+06    -38.7065E+06    -3.25360E+06    -53.0112E-03     105.913E-03    -52.9021E-03     6.08712E-03    -52.9894E-03     105.483E-03    -52.8828E-03     6.02819E-03
             121     164.791E-09     100.827E-03    -41.6078E+06    -119.723E+06    -41.5309E+06    -2.79734E+06    -53.8144E-03     107.494E-03    -53.6797E-03     5.80939E-03    -53.7890E-03     107.017E-03    -53.6534E-03     5.75480E-03
             122    -56.1469E-09     99.7712E-03    -45.4283E+06    -129.947E+06    -45.5318E+06    -2.89022E+06    -54.3627E-03     108.672E-03    -54.3095E-03     5.72903E-03    -54.3357E-03     108.155E-03    -54.2829E-03     5.67242E-03
             123     22.4669E-09     98.7139E-03    -49.5188E+06    -138.617E+06    -49.9963E+06    -1.88121E+06    -54.7924E-03     109.525E-03    -54.7325E-03     5.63341E-03    -54.7669E-03     108.977E-03    -54.7097E-03     5.58919E-03
             124     93.8037E-09     97.6562E-03    -53.4720E+06    -145.028E+06    -53.1685E+06    -1.49427E+06    -55.1260E-03     110.120E-03    -54.9940E-03     5.64901E-03    -55.1064E-03     109.550E-03    -54.9720E-03     5.60926E-03
             125     3.88159E-09     96.5979E-03    -54.4635E+06    -150.788E+06    -54.5808E+06    -1.63470E+06    -55.3236E-03     110.593E-03    -55.2694E-03     5.70412E-03    -55.2986E-03     109.998E-03    -55.2447E-03     5.66230E-03
             126    -25.0206E-09     95.5389E-03    -56.6102E+06    -157.627E+06    -56.4290E+06    -1.92552E+06    -55.4294E-03     110.825E-03    -55.3954E-03     5.80831E-03    -55.4024E-03     110.201E-03    -55.3669E-03     5.76263E-03
             127     90.8708E-09     94.4800E-03    -58.9787E+06    -166.153E+06    -59.2664E+06    -2.35943E+06    -55.4804E-03     110.847E-03    -55.3668E-03     5.70547E-03    -55.4488E-03     110.188E-03    -55.3367E-03     5.65363E-03
             128     18.8773E-09     93.4221E-03    -60.6242E+06    -172.213E+06    -61.1304E+06    -958.278E+03    -55.4734E-03     110.905E-03    -55.4317E-03     5.59967E-03    -55.4386E-03     110.221E-03    -55.3997E-03     5.56602E-03
             129    -77.2576E-09     92.3623E-03    -61.7979E+06    -174.148E+06    -61.7846E+06    -230.743E+03    -55.4898E-03     110.954E-03    -55.4645E-03     5.60001E-03    -55.4571E-03     110.263E-03    -55.4313E-03     5.57578E-03
             130     164.824E-09     91.3043E-03    -61.3303E+06    -175.037E+06    -61.4092E+06    -127.155E+03    -55.5158E-03     110.889E-03    -55.3733E-03     5.61982E-03    -55.4800E-03     110.192E-03    -55.3376E-03     5.59660E-03
             131    -24.7548E-09     90.2449E-03    -62.0505E+06    -175.942E+06    -61.8913E+06    -367.972E+03    -55.5076E-03     110.904E-03    -55.3963E-03     5.66038E-03    -55.4734E-03     110.204E-03    -55.3607E-03     5.63426E-03
             132     61.5451E-09     89.1869E-03    -62.1198E+06    -177.383E+06    -62.3169E+06    -575.037E+03    -55.5192E-03     110.969E-03    -55.4501E-03     5.56428E-03    -55.4826E-03     110.263E-03    -55.4145E-03     5.53543E-03
             133     3.10479E-09     88.1273E-03    -61.5469E+06    -178.258E+06    -61.5796E+06    -238.761E+03    -55.4784E-03     110.891E-03    -55.4129E-03     5.58563E-03    -55.4387E-03     110.179E-03    -55.3731E-03     5.56119E-03
             134     29.2364E-09     87.0693E-03    -61.6540E+06    -178.994E+06    -61.6901E+06     28.0182E+03    -55.4384E-03     110.810E-03    -55.3721E-03     5.67832E-03    -55.3981E-03     110.095E-03    -55.3316E-03     5.65783E-03
             135     36.3738E-09     86.0100E-03    -61.5684E+06    -178.937E+06    -61.5600E+06     55.2939E+03    -55.4528E-03     110.861E-03    -55.4078E-03     5.68430E-03    -55.4123E-03     110.145E-03    -55.3668E-03     5.66402E-03
             136    -39.7896E-09     84.9520E-03    -61.2059E+06    -178.768E+06    -61.3761E+06    -18.9551E+03    -55.4705E-03     110.926E-03    -55.4560E-03     5.64375E-03    -55.4287E-03     110.211E-03    -55.4149E-03     5.62228E-03
             137     51.5693E-09     83.8924E-03    -61.2063E+06    -178.750E+06    -61.0295E+06     71.9343E+03    -55.5168E-03     110.952E-03    -55.4351E-03     5.67590E-03    -55.4755E-03     110.236E-03    -55.3923E-03     5.65586E-03
             138     63.0566E-09     82.8345E-03    -60.5985E+06    -178.430E+06    -60.7176E+06     138.591E+03    -55.5122E-03     110.938E-03    -55.4262E-03     5.61256E-03    -55.4688E-03     110.223E-03    -55.3831E-03     5.59285E-03
             139    -46.6636E-09     81.7751E-03    -59.8317E+06    -177.592E+06    -59.8513E+06     326.856E+03    -55.4914E-03     110.889E-03    -55.3977E-03     5.61150E-03    -55.4467E-03     110.175E-03    -55.3527E-03     5.59421E-03
             140     175.493E-09     80.7167E-03    -59.1533E+06    -176.807E+06    -58.9917E+06     34.0181E+03    -55.5120E-03     110.908E-03    -55.3957E-03     5.73167E-03    -55.4662E-03     110.195E-03    -55.3485E-03     5.71100E-03
             141    -119.340E-09     79.6578E-03    -58.5561E+06    -176.392E+06    -58.8841E+06     224.391E+03    -55.5335E-03     111.008E-03    -55.4745E-03     5.68143E-03    -55.4855E-03     110.297E-03    -55.4283E-03     5.66302E-03
             142     145.357E-09     78.5990E-03    -58.3891E+06    -175.778E+06    -58.1272E+06     98.1900E+03    -55.5004E-03     110.953E-03    -55.4530E-03     5.66665E-03    -55.4535E-03     110.244E-03    -55.4041E-03     5.64679E-03
             143    -102.390E-09     77.5400E-03    -58.1690E+06    -175.747E+06    -58.3851E+06     152.697E+03    -55.4731E-03     110.838E-03    -55.3647E-03     5.66169E-03    -55.4248E-03     110.129E-03    -55.3174E-03     5.64219E-03
             144     227.142E-09     76.4820E-03    -57.3054E+06    -174.500E+06    -56.9727E+06     124.669E+03    -55.5558E-03     110.930E-03    -55.3738E-03     5.57357E-03    -55.5071E-03     110.223E-03    -55.3225E-03     5.55338E-03
             145    -52.2364E-09     75.4225E-03    -56.9881E+06    -174.364E+06    -57.1672E+06    -311.178E+03    -55.5192E-03     110.944E-03    -55.4247E-03     5.50032E-03    -55.4688E-03     110.238E-03    -55.3751E-03     5.47444E-03
             146     22.5730E-09     74.3645E-03    -57.1238E+06    -174.369E+06    -57.2751E+06     288.632E+03    -55.4044E-03     110.818E-03    -55.4133E-03     5.50811E-03    -55.3545E-03     110.112E-03    -55.3640E-03     5.49049E-03
             147    -23.4859E-09     73.3050E-03    -56.5770E+06    -173.460E+06    -56.2859E+06     216.597E+03    -55.4227E-03     110.795E-03    -55.3723E-03     5.69984E-03    -55.3728E-03     110.092E-03    -55.3202E-03     5.68171E-03
             148     98.5962E-09     72.2470E-03    -56.1612E+06    -173.230E+06    -56.3812E+06     42.7502E+03    -55.4350E-03     110.817E-03    -55.3823E-03     5.65923E-03    -55.3832E-03     110.115E-03    -55.3316E-03     5.63859E-03
             149    -100.979E-09     71.1881E-03    -56.3144E+06    -173.098E+06    -56.2003E+06     31.0861E+03    -55.4439E-03     110.879E-03    -55.4355E-03     5.60927E-03    -55.3934E-03     110.178E-03    -55.3839E-03     5.58831E-03
             150     104.621E-09     70.1294E-03    -56.2351E+06    -173.059E+06    -56.2778E+06    -160.878E+03    -55.4952E-03     110.915E-03    -55.4194E-03     5.60461E-03    -55.4442E-03     110.213E-03    -55.3683E-03     5.58130E-03
             151     6.14688E-09     69.0706E-03    -56.6824E+06    -173.597E+06    -56.9415E+06    -65.7000E+03    -55.4565E-03     110.820E-03    -55.3635E-03     5.61634E-03    -55.4060E-03     110.117E-03    -55.3143E-03     5.59433E-03
             152     24.3651E-09     68.0122E-03    -56.8511E+06    -173.515E+06    -56.7751E+06     73.2918E+03    -55.4630E-03     110.850E-03    -55.3871E-03     5.65368E-03    -55.4137E-03     110.148E-03    -55.3370E-03     5.63335E-03
             153     60.6657E-09     66.9532E-03    -56.6625E+06    -173.330E+06    -56.6727E+06     216.960E+03    -55.5381E-03     110.897E-03    -55.3588E-03     5.65422E-03    -55.4883E-03     110.195E-03    -55.3087E-03     5.63597E-03
             154     145.052E-09     65.8944E-03    -56.1998E+06    -172.700E+06    -55.9635E+06     165.402E+03    -55.4681E-03     110.795E-03    -55.3272E-03     5.64924E-03    -55.4179E-03     110.095E-03    -55.2751E-03     5.63015E-03
             155    -122.619E-09     64.8364E-03    -56.1932E+06    -172.823E+06    -56.2895E+06    -161.244E+03    -55.3956E-03     110.796E-03    -55.4007E-03     5.62830E-03    -55.3447E-03     110.096E-03    -55.3501E-03     5.60480E-03
             156     76.0795E-09     63.7769E-03    -56.1325E+06    -172.787E+06    -56.2588E+06    -45.1467E+03    -55.4972E-03     110.903E-03    -55.4053E-03     5.64352E-03    -55.4461E-03     110.202E-03    -55.3547E-03     5.62158E-03
             157     110.988E-09     62.7189E-03    -56.4500E+06    -172.920E+06    -56.2115E+06    -92.4118E+03    -55.5188E-03     110.911E-03    -55.3921E-03     5.69474E-03    -55.4691E-03     110.210E-03    -55.3406E-03     5.67185E-03
             158    -94.4151E-09     61.6593E-03    -56.5523E+06    -173.113E+06    -56.7858E+06     29.7391E+03    -55.4253E-03     110.833E-03    -55.4081E-03     5.75893E-03    -55.3751E-03     110.133E-03    -55.3590E-03     5.73815E-03
             159     143.887E-09     59.5424E-03    -57.0947E+06    -173.454E+06    -57.2882E+06    -98.0743E+03    -55.4442E-03     110.743E-03    -55.2987E-03     5.67117E-03    -55.3955E-03     110.042E-03    -55.2508E-03     5.64819E-03
             160    -146.183E-09     58.4842E-03    -56.9402E+06    -173.201E+06    -56.8117E+06     108.680E+03    -55.3905E-03     110.787E-03    -55.3967E-03     5.71024E-03    -55.3420E-03     110.087E-03    -55.3471E-03     5.69028E-03
             161     124.452E-09     57.4251E-03    -56.4911E+06    -172.933E+06    -56.5621E+06    -75.6143E+03    -55.4470E-03     110.833E-03    -55.3864E-03     5.70299E-03    -55.3970E-03     110.133E-03    -55.3365E-03     5.68076E-03
             162    -15.0485E-09     56.3669E-03    -56.6009E+06    -172.989E+06    -56.7108E+06     66.4184E+03    -55.4415E-03     110.790E-03    -55.3484E-03     5.61983E-03    -55.3918E-03     110.090E-03    -55.2990E-03     5.59927E-03
             163     48.7510E-09     55.3080E-03    -57.0707E+06    -173.268E+06    -56.8684E+06    -134.649E+03    -55.4169E-03     110.761E-03    -55.3446E-03     5.60284E-03    -55.3689E-03     110.061E-03    -55.2949E-03     5.57995E-03
             164     28.6576E-09     54.2496E-03    -56.9020E+06    -173.505E+06    -57.2850E+06     3.19772E+03    -55.4389E-03     110.813E-03    -55.3738E-03     5.65347E-03    -55.3891E-03     110.111E-03    -55.3261E-03     5.63237E-03
             165    -13.9171E-09     53.1907E-03    -57.1368E+06    -173.437E+06    -56.7983E+06     141.316E+03    -55.4205E-03     110.813E-03    -55.3923E-03     5.67167E-03    -55.3727E-03     110.111E-03    -55.3419E-03     5.65238E-03
             166     36.3539E-09     52.1321E-03    -56.6842E+06    -173.272E+06    -56.9781E+06     12.5065E+03    -55.4054E-03     110.817E-03    -55.4116E-03     5.77178E-03    -55.3554E-03     110.116E-03    -55.3630E-03     5.75069E-03
             167    -87.6044E-09     51.0735E-03    -56.6982E+06    -172.915E+06    -56.4641E+06    -32.0825E+03    -55.4458E-03     110.845E-03    -55.3996E-03     5.58720E-03    -55.3971E-03     110.145E-03    -55.3489E-03     5.56506E-03
             168     206.090E-09     50.0149E-03    -56.9863E+06    -173.302E+06    -57.0759E+06    -252.911E+03    -55.4643E-03     110.815E-03    -55.3506E-03     5.60334E-03    -55.4155E-03     110.114E-03    -55.3021E-03     5.57850E-03
             169    -146.200E-09     48.9561E-03    -56.5813E+06    -173.067E+06    -56.8540E+06     304.438E+03    -55.3964E-03     110.783E-03    -55.3867E-03     5.67174E-03    -55.3463E-03     110.083E-03    -55.3380E-03     5.65454E-03
             170     85.2130E-09     47.8977E-03    -56.5472E+06    -172.815E+06    -56.4008E+06     104.120E+03    -55.3306E-03     110.666E-03    -55.3352E-03     5.62147E-03    -55.2813E-03     109.966E-03    -55.2847E-03     5.60179E-03
             171    -44.8899E-09     46.8390E-03    -56.3239E+06    -172.836E+06    -56.5952E+06     63.3508E+03    -55.3019E-03     110.540E-03    -55.2379E-03     5.66855E-03    -55.2513E-03     109.840E-03    -55.1886E-03     5.64839E-03
             172     96.1498E-09     45.7812E-03    -56.2356E+06    -172.425E+06    -55.9913E+06     82.1289E+03    -55.2491E-03     110.412E-03    -55.1630E-03     5.44913E-03    -55.1994E-03     109.713E-03    -55.1114E-03     5.42887E-03
             173    -11.4902E-09     44.7227E-03    -56.6260E+06    -172.752E+06    -56.6654E+06    -342.496E+03    -55.1229E-03     110.187E-03    -55.0640E-03     5.38862E-03    -55.0738E-03     109.488E-03    -55.0147E-03     5.36286E-03
             174     13.7046E-09     43.6652E-03    -56.7556E+06    -172.904E+06    -56.8292E+06    -126.267E+03    -55.0767E-03     110.106E-03    -55.0290E-03     5.49439E-03    -55.0277E-03     109.406E-03    -54.9802E-03     5.47173E-03
             175     50.7826E-09     42.6068E-03    -56.7201E+06    -172.882E+06    -56.8499E+06     146.992E+03    -55.0295E-03     109.994E-03    -54.9641E-03     5.55995E-03    -54.9804E-03     109.294E-03    -54.9154E-03     5.54094E-03
             176    -19.2287E-09     41.5493E-03    -56.5996E+06    -172.544E+06    -56.5172E+06     102.442E+03    -54.8452E-03     109.666E-03    -54.8206E-03     5.54533E-03    -54.7964E-03     108.968E-03    -54.7709E-03     5.52625E-03
             177     16.5917E-09     40.4922E-03    -56.6084E+06    -172.627E+06    -56.7848E+06     17.5000E+03    -54.7285E-03     109.423E-03    -54.6949E-03     5.43175E-03    -54.6793E-03     108.725E-03    -54.6464E-03     5.41148E-03
             178     28.0746E-09     39.4352E-03    -56.2777E+06    -172.051E+06    -56.1268E+06     205.773E+03    -54.6601E-03     109.224E-03    -54.5639E-03     5.44951E-03    -54.6110E-03     108.527E-03    -54.5135E-03     5.43177E-03
             179     79.4292E-09     38.3779E-03    -56.3820E+06    -172.008E+06    -56.1434E+06    -255.475E+03    -54.4693E-03     108.841E-03    -54.3712E-03     5.52834E-03    -54.4208E-03     108.144E-03    -54.3207E-03     5.50510E-03
             180    -30.8281E-09     37.3222E-03    -57.0500E+06    -172.850E+06    -57.4434E+06     166.013E+03    -54.2482E-03     108.433E-03    -54.1845E-03     5.46671E-03    -54.1999E-03     107.735E-03    -54.1383E-03     5.44908E-03
             181     72.9820E-09     36.2657E-03    -56.9089E+06    -172.217E+06    -56.5431E+06     199.492E+03    -54.0658E-03     108.059E-03    -53.9928E-03     5.24546E-03    -54.0190E-03     107.363E-03    -53.9433E-03     5.22811E-03
             182     1.02216E-09     35.2110E-03    -56.7938E+06    -172.232E+06    -56.8401E+06    -263.842E+03    -53.8498E-03     107.645E-03    -53.7956E-03     5.19224E-03    -53.8019E-03     106.950E-03    -53.7477E-03     5.16911E-03
             183     4.67417E-09     34.1550E-03    -56.7517E+06    -172.053E+06    -56.8756E+06     103.173E+03    -53.6212E-03     107.186E-03    -53.5648E-03     5.23551E-03    -53.5733E-03     106.491E-03    -53.5174E-03     5.21742E-03
             184     72.0897E-09     33.1012E-03    -56.9223E+06    -171.998E+06    -56.9298E+06    -12.8142E+03    -53.2929E-03     106.530E-03    -53.2375E-03     5.10806E-03    -53.2459E-03     105.836E-03    -53.1902E-03     5.08881E-03
             185    -66.1193E-09     32.0471E-03    -56.4873E+06    -171.473E+06    -56.5611E+06     223.598E+03    -52.9822E-03     105.896E-03    -52.9140E-03     5.07270E-03    -52.9342E-03     105.203E-03    -52.8662E-03     5.05704E-03
             186     164.136E-09     30.9942E-03    -56.0423E+06    -170.851E+06    -55.9587E+06     106.581E+03    -52.6847E-03     105.259E-03    -52.5741E-03     4.96318E-03    -52.6363E-03     104.567E-03    -52.5249E-03     4.94620E-03
             187    -83.4937E-09     29.9417E-03    -55.9347E+06    -170.704E+06    -56.0172E+06     171.390E+03    -52.2819E-03     104.471E-03    -52.1891E-03     4.89511E-03    -52.2331E-03     103.780E-03    -52.1405E-03     4.87946E-03
             188     149.816E-09     28.8903E-03    -55.7461E+06    -170.117E+06    -55.5755E+06    -37.2039E+03    -51.8863E-03     103.656E-03    -51.7702E-03     4.76728E-03    -51.8380E-03     102.968E-03    -51.7206E-03     4.74907E-03
             189    -26.1257E-09     27.8397E-03    -56.3666E+06    -170.512E+06    -56.5707E+06    -4.42525E+03    -51.3613E-03     102.609E-03    -51.2481E-03     4.62608E-03    -51.3141E-03     101.921E-03    -51.2019E-03     4.60879E-03
             190     84.2442E-09     26.7902E-03    -56.5448E+06    -170.065E+06    -56.3452E+06     267.992E+03    -50.8056E-03     101.524E-03    -50.7187E-03     4.55994E-03    -50.7603E-03     100.838E-03    -50.6718E-03     4.54709E-03
             191    -741.057E-12     25.7424E-03    -56.5582E+06    -169.769E+06    -56.6227E+06    -28.7412E+03    -50.3566E-03     100.575E-03    -50.2183E-03     4.33993E-03    -50.3114E-03     99.8906E-03    -50.1732E-03     4.32318E-03
             192     145.001E-09     24.6945E-03    -56.6105E+06    -169.340E+06    -56.5904E+06     186.585E+03    -49.8050E-03     99.4546E-03    -49.6495E-03     4.22372E-03    -49.7607E-03     98.7724E-03    -49.6049E-03     4.21023E-03
             193    -30.5447E-09     23.6489E-03    -56.5640E+06    -168.812E+06    -56.4539E+06     63.8752E+03    -49.1360E-03     98.1627E-03    -49.0267E-03     4.06719E-03    -49.0924E-03     97.4829E-03    -48.9822E-03     4.05278E-03
             194     97.2395E-09     22.6042E-03    -56.3354E+06    -168.206E+06    -56.5912E+06     215.434E+03    -48.5207E-03     96.9278E-03    -48.4071E-03     3.91921E-03    -48.4766E-03     96.2509E-03    -48.3645E-03     3.90725E-03
             195     21.2496E-09     21.5608E-03    -55.9672E+06    -166.968E+06    -55.7777E+06     304.578E+03    -47.8954E-03     95.6803E-03    -47.7849E-03     3.76152E-03    -47.8524E-03     95.0078E-03    -47.7405E-03     3.75141E-03
             196     45.7223E-09     20.5190E-03    -55.6355E+06    -165.970E+06    -55.8188E+06     203.521E+03    -47.1859E-03     94.2907E-03    -47.1049E-03     3.56192E-03    -47.1426E-03     93.6228E-03    -47.0626E-03     3.55113E-03
             197     18.8957E-09     19.4782E-03    -55.0228E+06    -164.321E+06    -55.0807E+06     626.132E+03    -46.4623E-03     92.8072E-03    -46.3449E-03     3.32610E-03    -46.4195E-03     92.1455E-03    -46.3022E-03     3.32153E-03
             198     112.980E-09     18.4398E-03    -54.1304E+06    -162.282E+06    -54.0734E+06     576.980E+03    -45.6466E-03     91.1486E-03    -45.5020E-03     3.04157E-03    -45.6036E-03     90.4943E-03    -45.4586E-03     3.03725E-03
             199     470.055E-12     17.4022E-03    -52.9679E+06    -159.996E+06    -53.1011E+06     636.014E+03    -44.6674E-03     89.1644E-03    -44.4970E-03     2.65382E-03    -44.6234E-03     88.5184E-03    -44.4537E-03     2.65120E-03
             200     175.318E-09     16.3683E-03    -51.8115E+06    -157.509E+06    -51.8373E+06     809.038E+03    -43.4733E-03     86.7917E-03    -43.3184E-03     2.32522E-03    -43.4289E-03     86.1546E-03    -43.2741E-03     2.32587E-03
             201    -86.3132E-09     15.3351E-03    -50.1667E+06    -154.145E+06    -50.4893E+06     1.05181E+06    -42.0047E-03     83.8956E-03    -41.8909E-03     1.95868E-03    -41.9589E-03     83.2709E-03    -41.8471E-03     1.96352E-03
             202     189.423E-09     14.3073E-03    -49.0230E+06    -150.667E+06    -48.9494E+06     1.03434E+06    -40.1760E-03     80.2725E-03    -40.0965E-03     1.49482E-03    -40.1318E-03     79.6613E-03    -40.0517E-03     1.50046E-03
             203    -153.780E-09     13.2816E-03    -46.5075E+06    -146.370E+06    -46.6933E+06     1.14310E+06    -38.0879E-03     76.0680E-03    -37.9801E-03     1.07268E-03    -38.0407E-03     75.4713E-03    -37.9339E-03     1.08089E-03
             204     304.486E-09     12.2625E-03    -44.6070E+06    -142.432E+06    -44.4939E+06     1.18656E+06    -35.8941E-03     71.6160E-03    -35.7219E-03     771.781E-06    -35.8463E-03     71.0330E-03    -35.6732E-03     781.220E-06
             205    -153.032E-09     11.2458E-03    -42.4860E+06    -138.621E+06    -42.4283E+06     975.072E+03    -33.7100E-03     67.3046E-03    -33.5946E-03     690.136E-06    -33.6601E-03     66.7346E-03    -33.5441E-03     697.298E-06
             206     204.617E-09     10.2354E-03    -40.6480E+06    -135.344E+06    -40.5674E+06     845.077E+03    -31.8904E-03     63.7195E-03    -31.8291E-03     786.382E-06    -31.8386E-03     63.1606E-03    -31.7768E-03     792.272E-06
             207    -147.790E-09     9.22584E-03    -39.5986E+06    -133.208E+06    -39.1139E+06     329.782E+03    -30.7739E-03     61.4326E-03    -30.6587E-03     1.08885E-03    -30.7220E-03     60.8809E-03    -30.6037E-03     1.08826E-03
             208     297.262E-09     8.21996E-03    -39.5694E+06    -133.154E+06    -39.1362E+06    -279.231E+03    -30.5196E-03     60.9574E-03    -30.4378E-03     1.54273E-03    -30.4676E-03     60.4060E-03    -30.3831E-03     1.53458E-03
             209    -299.927E-09     7.21167E-03    -40.2089E+06    -134.939E+06    -39.9487E+06    -623.256E+03    -31.3818E-03     62.8525E-03    -31.4707E-03     2.08002E-03    -31.3294E-03     62.2941E-03    -31.4165E-03     2.06784E-03
             210     149.943E-09     6.20181E-03    -40.5034E+06    -137.466E+06    -40.3654E+06    -777.598E+03    -33.5427E-03     67.1584E-03    -33.6157E-03     2.44444E-03    -33.4876E-03     66.5882E-03    -33.5595E-03     2.43066E-03
             211    -125.476E-09     5.18486E-03    -40.1033E+06    -140.073E+06    -40.0013E+06    -538.704E+03    -36.6492E-03     73.3069E-03    -36.6577E-03     2.78621E-03    -36.5891E-03     72.7223E-03    -36.5964E-03     2.77598E-03
             212     89.0338E-09     4.16228E-03    -37.8014E+06    -141.505E+06    -37.9805E+06    -333.197E+03    -40.2986E-03     80.6115E-03    -40.3129E-03     2.81164E-03    -40.2279E-03     80.0134E-03    -40.2428E-03     2.80427E-03
             213    -77.0877E-09     3.13070E-03    -35.6880E+06    -142.980E+06    -35.6999E+06    -234.051E+03    -44.0525E-03     88.0643E-03    -44.0118E-03     2.53570E-03    -43.9723E-03     87.4526E-03    -43.9313E-03     2.52985E-03
             214     137.184E-09     2.09231E-03    -33.4083E+06    -143.655E+06    -33.4652E+06    -226.010E+03    -47.2770E-03     94.4752E-03    -47.1983E-03     1.94652E-03    -47.1874E-03     93.8537E-03    -47.1089E-03     1.94106E-03
             215    -61.5436E-09     1.04782E-03    -32.2992E+06    -144.433E+06    -32.4642E+06    -168.963E+03    -49.4698E-03     98.8821E-03    -49.4123E-03     1.07002E-03    -49.3747E-03     98.2539E-03    -49.3184E-03     1.06625E-03
             216     855.499E-06    -131.839E-18    -31.6078E+06    -144.450E+06    -31.8267E+06    -41.4912E+03    -50.2819E-03     100.530E-03    -50.2477E-03     939.081E-06    -50.1842E-03     99.8993E-03    -50.1515E-03     937.249E-06
             217     1.71137E-03    -131.839E-18    -31.3910E+06    -144.260E+06    -31.5634E+06    -311.573E+03    -50.4056E-03     100.698E-03    -50.2929E-03     1.73825E-03    -50.3076E-03     100.068E-03    -50.1960E-03     1.73177E-03
             218     2.56638E-03    -131.839E-18    -30.8319E+06    -144.015E+06    -31.4939E+06    -607.063E+03    -50.6203E-03     100.983E-03    -50.3625E-03     2.51334E-03    -50.5200E-03     100.353E-03    -50.2664E-03     2.50148E-03
             219     3.42216E-03    -131.839E-18    -29.9905E+06    -143.530E+06    -31.2370E+06    -773.822E+03    -50.9562E-03     101.421E-03    -50.4649E-03     3.33628E-03    -50.8528E-03     100.792E-03    -50.3695E-03     3.32103E-03
             220     4.27639E-03    -131.839E-18    -28.9760E+06    -143.253E+06    -31.6298E+06    -955.211E+03    -51.4228E-03     102.025E-03    -50.6022E-03     4.23308E-03    -51.3142E-03     101.397E-03    -50.5107E-03     4.21383E-03
             221     5.13134E-03    -131.839E-18    -27.1961E+06    -143.096E+06    -33.0411E+06    -1.81690E+06    -52.0395E-03     102.815E-03    -50.7754E-03     5.17398E-03    -51.9202E-03     102.187E-03    -50.6937E-03     5.14189E-03
             222     5.98466E-03    -131.839E-18    -24.2872E+06    -142.975E+06    -36.4333E+06    -3.42067E+06    -52.8364E-03     103.820E-03    -50.9835E-03     6.15767E-03    -52.6980E-03     103.193E-03    -50.9231E-03     6.10230E-03
             223     6.83802E-03    -131.839E-18    -19.3602E+06    -136.146E+06    -40.9209E+06    -5.27825E+06    -53.7677E-03     104.989E-03    -51.2217E-03     6.85172E-03    -53.6081E-03     104.396E-03    -51.2008E-03     6.76814E-03
             224     7.69062E-03    -131.839E-18    -13.9163E+06    -120.454E+06    -48.3376E+06    -5.72460E+06    -55.0021E-03     106.490E-03    -51.4877E-03     8.41091E-03    -54.8275E-03     105.978E-03    -51.5345E-03     8.31947E-03
             225     8.53980E-03    -131.839E-18    -8.35843E+06    -97.1299E+06    -54.0854E+06    -6.25255E+06    -56.4337E-03     108.250E-03    -51.8164E-03     9.71114E-03    -56.2570E-03     107.856E-03    -51.9339E-03     9.60708E-03
             226     9.39204E-03    -131.839E-18    -3.18845E+06    -65.1541E+06    -52.3773E+06    -5.97599E+06    -57.9930E-03     110.228E-03    -52.2346E-03     10.8464E-03    -57.8397E-03     109.984E-03    -52.3974E-03     10.7386E-03
             227     10.2371E-03    -131.839E-18     279.717E+03    -22.7350E+06    -44.0498E+06    -4.12101E+06    -60.0895E-03     112.840E-03    -52.7507E-03     13.7579E-03    -59.9934E-03     112.792E-03    -52.9384E-03     13.6614E-03
             228     11.0844E-03    -131.839E-18    -524.126E+03     17.2708E+06    -22.5781E+06     1.46955E+06    -62.6894E-03     116.134E-03    -53.4445E-03     15.8023E-03    -62.6871E-03     116.257E-03    -53.5817E-03     15.7675E-03
             229     11.9271E-03    -131.839E-18    -3.95559E+06     42.3709E+06     2.22165E+06     2.64928E+06    -66.2386E-03     120.552E-03    -54.3130E-03     20.5440E-03    -66.3283E-03     120.771E-03    -54.3576E-03     20.5031E-03
             230     12.7628E-03    -131.839E-18    -3.95813E+06     59.9250E+06     29.2601E+06    -445.373E+03    -70.6767E-03     126.042E-03    -55.3649E-03     25.2429E-03    -70.8345E-03     126.313E-03    -55.2998E-03     25.1229E-03
             231     13.6020E-03    -131.839E-18    -1.87239E+06     71.7347E+06     60.4836E+06     2.63318E+06    -78.3665E-03     135.067E-03    -56.7003E-03     35.2160E-03    -78.5857E-03     135.358E-03    -56.4992E-03     35.0741E-03
             232     14.4176E-03    -131.839E-18     231.470E+03     82.0417E+06     81.0539E+06     1.68429E+06    -92.3675E-03     150.838E-03    -58.4706E-03     60.2463E-03    -92.6444E-03     151.167E-03    -58.1846E-03     59.9932E-03
             233     15.2158E-03    -131.839E-18    -218.519E+03     91.2656E+06     87.1019E+06    -295.447E+03    -108.399E-03     169.220E-03    -60.8214E-03     90.7605E-03    -108.781E-03     169.667E-03    -60.5179E-03     90.1518E-03
             234     16.0053E-03    -131.839E-18     5.76790E+06     106.971E+06     94.1965E+06     4.87086E+06    -132.160E-03     196.106E-03    -63.9464E-03     141.907E-03    -133.176E-03     197.239E-03    -63.6389E-03     139.744E-03
             235     16.8982E-03     1.21928E-03     1.38658E+06     118.966E+06     89.6491E+06     6.19142E+06    -151.049E-03     213.811E-03    -62.7616E-03     182.327E-03    -153.330E-03     216.277E-03    -62.4879E-03     177.951E-03
             236     16.9473E-03     2.43131E-03    -7.95758E+06     119.057E+06     78.8051E+06     7.48193E+06    -156.989E-03     215.401E-03    -58.4119E-03     164.388E-03    -159.761E-03     218.360E-03    -58.1790E-03     159.106E-03
             237     16.9835E-03     3.60694E-03    -3.77493E+06     121.960E+06     81.5497E+06     7.70881E+06    -147.583E-03     204.092E-03    -56.5091E-03     136.918E-03    -150.213E-03     206.896E-03    -56.2727E-03     132.233E-03
             238     17.0019E-03     4.73787E-03    -1.02860E+06     125.622E+06     85.7711E+06     1.86778E+06    -135.239E-03     190.792E-03    -55.5526E-03     117.588E-03    -137.749E-03     193.491E-03    -55.3044E-03     113.667E-03
             239     17.0104E-03     5.88741E-03    -348.749E+03     129.209E+06     91.6440E+06    -662.636E+03    -133.589E-03     188.596E-03    -55.0077E-03     102.444E-03    -135.937E-03     191.138E-03    -54.7363E-03     98.8761E-03
             240     17.0142E-03     7.03612E-03    -2.61275E+06     130.524E+06     93.5482E+06     415.233E+03    -127.153E-03     182.066E-03    -54.9130E-03     106.115E-03    -129.667E-03     184.767E-03    -54.6307E-03     102.977E-03
             241     17.0154E-03     8.17475E-03    -3.76031E+06     131.016E+06     93.2546E+06     1.68269E+06    -115.867E-03     170.948E-03    -55.0809E-03     107.331E-03    -118.454E-03     173.716E-03    -54.7992E-03     104.945E-03
             242     17.0159E-03     9.27985E-03    -2.43399E+06     132.506E+06     93.6375E+06     1.30500E+06    -104.782E-03     160.058E-03    -55.2752E-03     98.7394E-03    -107.185E-03     162.646E-03    -54.9957E-03     97.1675E-03
             243     17.0179E-03     10.3774E-03    -2.71371E+06     132.933E+06     93.8249E+06     206.941E+03    -103.929E-03     159.199E-03    -55.2706E-03     98.5455E-03    -106.324E-03     161.788E-03    -54.9903E-03     97.1445E-03
             244     17.0152E-03     11.5151E-03    -3.62017E+06     134.012E+06     94.7156E+06     1.35868E+06    -100.496E-03     155.852E-03    -55.3568E-03     111.489E-03    -103.232E-03     158.784E-03    -55.0723E-03     110.384E-03
             245     17.0195E-03     12.6230E-03    -2.91882E+06     136.075E+06     95.5890E+06     2.16282E+06    -85.8088E-03     141.432E-03    -55.6234E-03     127.097E-03    -89.0053E-03     144.825E-03    -55.3385E-03     127.036E-03
             246     17.0210E-03     13.6920E-03    -1.43373E+06     138.738E+06     97.1821E+06     1.28295E+06    -78.5582E-03     134.204E-03    -55.6454E-03     129.323E-03    -81.8518E-03     137.702E-03    -55.3586E-03     129.867E-03
             247     17.0245E-03     14.7805E-03    -180.184E+03     141.426E+06     99.0946E+06     234.496E+03    -78.0662E-03     133.574E-03    -55.5077E-03     122.718E-03    -81.2213E-03     136.943E-03    -55.2170E-03     123.359E-03
             248     17.0257E-03     15.8579E-03    -523.463E+03     141.865E+06     99.0177E+06    -803.990E+03    -76.5337E-03     131.946E-03    -55.4122E-03     121.496E-03    -79.6916E-03     135.318E-03    -55.1221E-03     122.306E-03
             249     17.0285E-03     16.9395E-03    -3.71779E+06     139.916E+06     97.1744E+06    -583.569E+03    -78.1176E-03     133.429E-03    -55.3119E-03     122.160E-03    -81.3508E-03     136.865E-03    -55.0235E-03     123.023E-03
             250     17.0256E-03     18.0295E-03    -4.09178E+06     141.361E+06     97.9983E+06     1.19138E+06    -77.1186E-03     132.442E-03    -55.3232E-03     128.539E-03    -80.5753E-03     136.103E-03    -55.0323E-03     129.632E-03
             251     17.0302E-03     19.1165E-03    -1.99536E+06     144.340E+06     99.6350E+06     1.26239E+06    -69.6421E-03     125.072E-03    -55.4296E-03     139.072E-03    -73.4142E-03     129.061E-03    -55.1378E-03     140.761E-03
             252     17.0302E-03     20.1796E-03    -2.65546E+06     144.423E+06     99.7089E+06    -305.194E+03    -66.7662E-03     122.208E-03    -55.4420E-03     142.046E-03    -70.7067E-03     126.363E-03    -55.1491E-03     144.074E-03
             253     17.0297E-03     21.2504E-03    -3.45065E+06     144.176E+06     99.8284E+06     943.336E+03    -68.1572E-03     123.542E-03    -55.3848E-03     139.777E-03    -72.0593E-03     127.654E-03    -55.0897E-03     141.800E-03
             254     17.0321E-03     22.3252E-03    -755.463E+03     146.678E+06     101.617E+06     1.05272E+06    -65.6794E-03     121.021E-03    -55.3417E-03     136.316E-03    -69.4314E-03     124.996E-03    -55.0452E-03     138.423E-03
             255     17.0348E-03     23.3771E-03    -1.41220E+06     146.963E+06     101.844E+06    -986.035E+03    -67.8410E-03     123.095E-03    -55.2539E-03     134.775E-03    -71.5664E-03     127.043E-03    -54.9557E-03     136.771E-03
             256     17.0292E-03     24.4732E-03    -4.82208E+06     143.998E+06     99.4006E+06     1.10693E+06    -67.4956E-03     122.802E-03    -55.3068E-03     137.532E-03    -71.3859E-03     126.901E-03    -55.0116E-03     139.674E-03
             257     17.0346E-03     25.5312E-03    -3.46929E+06     145.695E+06     100.546E+06     1.19180E+06    -61.6444E-03     117.064E-03    -55.4194E-03     142.212E-03    -65.6848E-03     121.319E-03    -55.1229E-03     144.867E-03
             258     17.0321E-03     26.5864E-03    -2.82192E+06     146.944E+06     101.709E+06    -345.868E+03    -63.6871E-03     119.025E-03    -55.3379E-03     141.869E-03    -67.7183E-03     123.275E-03    -55.0384E-03     144.423E-03
             259     17.0338E-03     27.6752E-03    -1.53899E+06      148.62E+06     103.011E+06     539.902E+03    -62.5277E-03     117.848E-03    -55.3202E-03     148.299E-03    -66.8257E-03     122.370E-03    -55.0184E-03     151.003E-03
             260     17.0368E-03     28.7273E-03    -2.44807E+06     149.488E+06     103.071E+06    -1.52002E+06    -60.2189E-03     115.564E-03    -55.3448E-03     155.325E-03    -64.7998E-03     120.368E-03    -55.0427E-03     158.372E-03
             261     17.0320E-03     29.7956E-03    -3.26025E+06     148.477E+06     102.790E+06    -546.823E+03    -61.6771E-03     117.014E-03    -55.3373E-03     149.762E-03    -66.0612E-03     121.616E-03    -55.0339E-03     152.694E-03
             262     17.0362E-03     30.8516E-03    -772.979E+03     149.356E+06     104.037E+06     1.06043E+06    -59.8144E-03     115.164E-03    -55.3498E-03     149.522E-03    -64.1086E-03     119.684E-03    -55.0451E-03     152.503E-03
             263     17.0351E-03     31.9192E-03    -2.69289E+06     148.340E+06     102.623E+06    -51.7962E+03    -59.1218E-03     114.480E-03    -55.3579E-03     149.404E-03    -63.4698E-03     119.047E-03    -55.0560E-03     152.486E-03
             264     17.0335E-03     32.9760E-03    -5.44854E+06     146.982E+06     101.230E+06     318.661E+03    -59.5321E-03     114.918E-03    -55.3859E-03     145.902E-03    -63.7969E-03     119.392E-03    -55.0850E-03     148.999E-03
             265     17.0349E-03     34.0325E-03    -3.13817E+06     147.499E+06     102.140E+06     1.33506E+06    -59.4663E-03     114.831E-03    -55.3649E-03     144.934E-03    -63.6272E-03     119.208E-03    -55.0635E-03     147.964E-03
             266     17.0353E-03     35.1052E-03    -1.41306E+06     149.621E+06     103.588E+06     524.583E+03    -58.7131E-03     114.059E-03    -55.3459E-03     149.662E-03    -63.0540E-03     118.626E-03    -55.0428E-03     152.771E-03
             267     17.0361E-03     36.1607E-03    -2.89377E+06     150.295E+06     103.653E+06    -815.657E+03    -58.3871E-03     113.732E-03    -55.3446E-03     151.468E-03    -62.8466E-03     118.414E-03    -55.0401E-03     154.702E-03
             268     17.0349E-03     37.2215E-03    -2.76325E+06     150.089E+06     103.744E+06    -218.966E+03    -58.7613E-03     114.107E-03    -55.3454E-03     148.204E-03    -63.1122E-03     118.680E-03    -55.0404E-03     151.412E-03
             269     17.0356E-03     38.2820E-03    -3.11387E+06     149.787E+06     103.336E+06     436.184E+03    -57.9803E-03     113.365E-03    -55.3848E-03     149.684E-03    -62.3733E-03     117.979E-03    -55.0808E-03     152.968E-03
             270     17.0342E-03     39.3456E-03    -2.72359E+06     150.430E+06     103.712E+06     538.376E+03    -56.2503E-03     111.679E-03    -55.4286E-03     152.172E-03    -60.7061E-03     116.358E-03    -55.1242E-03     155.602E-03
             271     17.0366E-03     40.3972E-03    -2.24549E+06     150.707E+06     104.017E+06    -469.823E+03    -55.7319E-03     111.149E-03    -55.4175E-03     150.186E-03    -60.1143E-03     115.757E-03    -55.1127E-03     153.614E-03
             272     17.0347E-03     41.4548E-03    -3.21507E+06     149.657E+06     103.350E+06    -464.524E+03    -57.2297E-03     112.617E-03    -55.3870E-03     146.360E-03    -61.5057E-03     117.113E-03    -55.0826E-03     149.661E-03
             273     17.0352E-03     42.5165E-03    -1.96049E+06     150.212E+06     103.909E+06     1.25235E+06    -55.6770E-03     111.071E-03    -55.3942E-03     142.260E-03    -59.7831E-03     115.402E-03    -55.0896E-03     145.556E-03
             274     17.0379E-03     43.5624E-03    -2.11372E+06     149.363E+06     103.381E+06    -771.476E+03    -56.4919E-03     111.842E-03    -55.3504E-03     134.897E-03    -60.3587E-03     115.932E-03    -55.0470E-03     138.009E-03
             275     17.0328E-03     44.6239E-03    -5.05592E+06     146.609E+06     101.433E+06    -1.27756E+06    -62.5865E-03     117.866E-03    -55.2791E-03     135.521E-03    -66.4892E-03     121.977E-03    -54.9772E-03     138.270E-03
             276     17.0347E-03     45.7102E-03    -3.15645E+06     149.063E+06     103.240E+06     2.05283E+06    -59.0500E-03     114.430E-03    -55.3804E-03     151.191E-03    -63.4395E-03     119.039E-03    -55.0758E-03     154.355E-03
             277     17.0369E-03     46.7684E-03    -1.60698E+06     152.131E+06     104.867E+06     1.04967E+06    -51.8611E-03     107.378E-03    -55.5166E-03     161.582E-03    -56.6720E-03     112.420E-03    -55.2105E-03     165.492E-03
             278     17.0347E-03     47.8052E-03    -1.73870E+06     151.557E+06     104.928E+06    -821.339E+03    -54.3047E-03     109.751E-03    -55.4465E-03     151.737E-03    -58.8092E-03     114.484E-03    -55.1391E-03     155.385E-03
             279     17.0365E-03     48.8651E-03    -1.23057E+06     150.504E+06     104.939E+06    -580.275E+03    -57.8036E-03     113.149E-03    -55.3453E-03     144.714E-03    -62.0115E-03     117.582E-03    -55.0371E-03     147.893E-03
             280     17.0353E-03     49.9341E-03    -4.71886E+06     149.069E+06     102.738E+06    -324.044E+03    -57.7715E-03     113.137E-03    -55.3659E-03     151.443E-03    -62.2486E-03     117.829E-03    -55.0615E-03     154.761E-03
             281     17.0349E-03     50.9925E-03    -4.79517E+06     149.146E+06     102.754E+06    -234.382E+03    -56.9758E-03     112.387E-03    -55.4116E-03     153.853E-03    -61.5524E-03     117.178E-03    -55.1071E-03     157.326E-03
             282     17.0354E-03     52.0460E-03    -1.90322E+06     149.536E+06     104.217E+06      62.324E+03    -56.2789E-03     111.691E-03    -55.4120E-03     149.953E-03    -60.6745E-03     116.308E-03    -55.1050E-03     153.387E-03
             283     17.0358E-03     53.1047E-03    -344.961E+03     150.386E+06     105.312E+06     351.035E+03    -56.0557E-03     111.438E-03    -55.3827E-03     147.691E-03    -60.3499E-03     115.960E-03    -55.0737E-03     151.050E-03
             284     17.0368E-03     54.1615E-03    -2.49920E+06     150.249E+06     104.311E+06    -470.429E+03    -57.0731E-03     112.411E-03    -55.3381E-03     149.172E-03    -61.4444E-03     117.005E-03    -55.0308E-03     152.511E-03
             285     17.0357E-03     55.2268E-03    -3.13084E+06     151.476E+06     104.757E+06    -301.583E+03    -56.8958E-03     112.258E-03    -55.3626E-03     150.824E-03    -61.3559E-03     116.941E-03    -55.0539E-03     154.230E-03
             286     17.0358E-03     56.2835E-03    -3.73868E+06     150.828E+06     103.726E+06     461.951E+03    -56.8416E-03     112.250E-03    -55.4080E-03     153.920E-03    -61.4058E-03     117.035E-03    -55.1026E-03     157.380E-03
             287     17.0338E-03     57.3421E-03    -3.42496E+06     150.963E+06     103.752E+06     940.376E+03    -57.2859E-03     112.697E-03    -55.4106E-03     152.302E-03    -61.7774E-03     117.411E-03    -55.1058E-03     155.697E-03
             288     17.0365E-03     58.4005E-03    -1.41573E+06     152.765E+06     105.731E+06     335.774E+03    -56.2681E-03     111.672E-03    -55.4039E-03     151.411E-03    -60.6868E-03     116.322E-03    -55.0947E-03     154.817E-03
             289     17.0355E-03     59.4565E-03    -2.50846E+06     151.728E+06     104.892E+06    -257.658E+03    -56.4288E-03     111.821E-03    -55.3919E-03     148.820E-03    -60.7880E-03     116.406E-03    -55.0838E-03     152.196E-03
             290     17.0350E-03     60.5152E-03    -2.24846E+06     152.010E+06     105.123E+06    -524.077E+03    -56.2700E-03     111.661E-03    -55.3907E-03     146.806E-03    -60.5773E-03     116.195E-03    -55.0823E-03     150.188E-03
             291     17.0371E-03     61.5710E-03    -1.74032E+06     152.404E+06     105.903E+06    -753.029E+03    -56.3520E-03     111.723E-03    -55.3712E-03     146.046E-03    -60.6140E-03     116.213E-03    -55.0601E-03     149.392E-03
             292     851.513E-06     61.6657E-03    -56.0030E+06    -172.061E+06    -55.1043E+06     45.8602E+03    -55.4322E-03     110.845E-03    -55.4130E-03     9.47588E-03    -55.3843E-03     110.148E-03    -55.3578E-03     9.44079E-03
             293     1.70308E-03     61.6787E-03    -54.5969E+06    -169.239E+06    -50.5427E+06    -156.097E+03    -55.4701E-03     110.896E-03    -55.4255E-03     17.2651E-03    -55.4292E-03     110.207E-03    -55.3537E-03     17.1957E-03
             294     2.55461E-03     61.7004E-03    -52.4363E+06    -165.259E+06    -44.2144E+06    -277.295E+03    -55.5469E-03     110.989E-03    -55.4425E-03     25.4535E-03    -55.5158E-03     110.314E-03    -55.3479E-03     25.3464E-03
             295     3.40613E-03     61.7300E-03    -49.4041E+06    -160.514E+06    -36.9933E+06    -661.279E+03    -55.6360E-03     111.095E-03    -55.4594E-03     33.5537E-03    -55.6160E-03     110.437E-03    -55.3400E-03     33.4005E-03
             296     4.25777E-03     61.7678E-03    -45.6793E+06    -155.212E+06    -29.1115E+06    -763.377E+03    -55.7421E-03     111.215E-03    -55.4732E-03     41.5024E-03    -55.7352E-03     110.580E-03    -55.3275E-03     41.3013E-03
             297     5.10948E-03     61.8135E-03    -42.0257E+06    -147.853E+06    -20.6890E+06     215.377E+03    -55.9130E-03     111.399E-03    -55.4865E-03     49.3131E-03    -55.9283E-03     110.801E-03    -55.3146E-03     49.0709E-03
             298     5.96095E-03     61.8670E-03    -38.7821E+06    -142.508E+06    -13.4193E+06     912.600E+03    -56.1054E-03     111.606E-03    -55.5010E-03     56.7842E-03    -56.1468E-03     111.043E-03    -55.3052E-03     56.4877E-03
             299     6.81284E-03     61.9276E-03    -35.3416E+06    -134.824E+06    -9.28168E+06     385.573E+03    -56.3009E-03     111.798E-03    -55.4975E-03     64.0719E-03    -56.3741E-03     111.294E-03    -55.2972E-03     63.6958E-03
             300     7.66410E-03     61.9957E-03    -32.0167E+06    -122.499E+06    -8.06549E+06    -189.866E+03    -56.4912E-03     111.963E-03    -55.4719E-03     71.3653E-03    -56.6100E-03     111.557E-03    -55.2882E-03     70.8985E-03
             301     8.51609E-03     62.0711E-03    -29.7486E+06    -109.931E+06    -6.91653E+06     186.388E+03    -56.7335E-03     112.181E-03    -55.4477E-03     78.5089E-03    -56.9183E-03     111.890E-03    -55.2797E-03     77.9487E-03
             302     9.36767E-03     62.1532E-03    -27.9227E+06    -94.3789E+06    -5.09937E+06     435.277E+03    -57.0786E-03     112.509E-03    -55.4304E-03     85.6847E-03    -57.3592E-03     112.370E-03    -55.2786E-03     85.0083E-03
             303     10.2188E-03     62.2428E-03    -26.2392E+06    -75.5035E+06    -4.90143E+06     434.227E+03    -57.0970E-03     112.494E-03    -55.3973E-03     92.9456E-03    -57.5011E-03     112.551E-03    -55.2743E-03     92.1402E-03
             304     11.0713E-03     62.3403E-03    -24.6460E+06    -50.5611E+06    -4.65145E+06     932.011E+03    -57.0372E-03     112.376E-03    -55.3385E-03     99.9850E-03    -57.6154E-03     112.700E-03    -55.2527E-03     99.0356E-03
             305     11.9234E-03     62.4432E-03    -23.2040E+06    -15.3085E+06    -2.87267E+06     1.11349E+06    -57.4261E-03     112.694E-03    -55.2675E-03     110.922E-03    -58.2965E-03     113.436E-03    -55.2260E-03     109.775E-03
             306     12.7747E-03     62.5624E-03    -21.7887E+06     34.7137E+06    -1.25439E+06     1.11186E+06    -58.3129E-03     113.495E-03    -55.1826E-03     130.584E-03    -59.7317E-03     114.964E-03    -55.2076E-03     129.158E-03
             307     13.6269E-03     62.7045E-03    -20.0602E+06     80.6443E+06     15.9230E+06     1.11765E+06    -60.3623E-03     115.550E-03    -55.1874E-03     167.674E-03    -62.9542E-03     118.311E-03    -55.1956E-03     165.868E-03
             308     14.4790E-03     62.9020E-03    -16.4851E+06     112.751E+06     57.6299E+06    -474.435E+03    -64.8684E-03     120.194E-03    -55.3261E-03     234.471E-03    -70.5250E-03     126.026E-03    -55.1776E-03     232.281E-03
             309     15.3290E-03     63.1784E-03    -10.6439E+06     143.757E+06     97.2306E+06    -1.34614E+06    -69.7223E-03     125.156E-03    -55.4336E-03     309.576E-03    -81.8257E-03     137.450E-03    -55.1404E-03     308.676E-03
             310     16.1875E-03     63.5411E-03    -5.64464E+06     154.782E+06     107.458E+06     334.137E+03    -64.3697E-03     119.791E-03    -55.4216E-03     246.296E-03    -74.6918E-03     130.331E-03    -55.1006E-03     248.221E-03
             311     851.509E-06     62.7240E-03    -55.8535E+06    -171.928E+06    -54.7948E+06    -100.927E+03    -55.4781E-03     110.895E-03    -55.4172E-03     9.42464E-03    -55.4300E-03     110.198E-03    -55.3609E-03     9.38737E-03
             312     1.70305E-03     62.7377E-03    -54.3422E+06    -169.165E+06    -50.5023E+06     25.7744E+03    -55.4669E-03     110.911E-03    -55.4440E-03     17.2633E-03    -55.4248E-03     110.222E-03    -55.3724E-03     17.1962E-03
             313     2.55456E-03     62.7589E-03    -52.0153E+06    -164.880E+06    -43.8107E+06    -172.110E+03    -55.5258E-03     110.977E-03    -55.4512E-03     25.4801E-03    -55.4937E-03     110.302E-03    -55.3558E-03     25.3744E-03
             314     3.40623E-03     62.7888E-03    -49.3202E+06    -159.854E+06    -36.0568E+06    -481.641E+03    -55.6253E-03     111.090E-03    -55.4645E-03     33.5782E-03    -55.6071E-03     110.434E-03    -55.3415E-03     33.4276E-03
             315     4.25778E-03     62.8264E-03    -46.7223E+06    -155.219E+06    -28.5644E+06    -576.785E+03    -55.7679E-03     111.248E-03    -55.4805E-03     41.4761E-03    -55.7670E-03     110.613E-03    -55.3305E-03     41.2770E-03
             316     5.10935E-03     62.8722E-03    -43.4311E+06    -149.545E+06    -21.5634E+06      39.478E+03    -55.9046E-03     111.396E-03    -55.4918E-03     49.2864E-03    -55.9232E-03     110.792E-03    -55.3198E-03     49.0418E-03
             317     5.96112E-03     62.9257E-03    -39.0864E+06    -142.584E+06    -15.4854E+06     421.216E+03    -56.0938E-03     111.588E-03    -55.4944E-03     56.8002E-03    -56.1335E-03     111.028E-03    -55.3084E-03     56.4976E-03
             318     6.81245E-03     62.9863E-03    -34.8828E+06    -133.673E+06    -10.2168E+06    -217.022E+03    -56.3078E-03     111.800E-03    -55.4925E-03     64.1524E-03    -56.3792E-03     111.303E-03    -55.2992E-03     63.7686E-03
             319     7.66444E-03     63.0545E-03    -32.1689E+06    -123.112E+06    -8.05813E+06     64.0504E+03    -56.5064E-03     111.982E-03    -55.4758E-03     71.3768E-03    -56.6252E-03     111.573E-03    -55.2909E-03     70.9131E-03
             320     8.51595E-03     63.1295E-03    -30.1912E+06    -110.377E+06    -7.10969E+06     650.354E+03    -56.7349E-03     112.186E-03    -55.4513E-03     78.5152E-03    -56.9210E-03     111.894E-03    -55.2830E-03     77.9606E-03
             321     9.36760E-03     63.2124E-03    -28.1426E+06    -94.3823E+06    -5.16832E+06     724.029E+03    -57.0024E-03     112.432E-03    -55.4296E-03     85.9694E-03    -57.2834E-03     112.293E-03    -55.2778E-03     85.2994E-03
             322     10.2192E-03     63.3021E-03    -26.4660E+06    -75.1580E+06    -4.95365E+06     773.518E+03    -57.1709E-03     112.566E-03    -55.3953E-03     92.9491E-03    -57.5772E-03     112.626E-03    -55.2727E-03     92.1467E-03
             323     11.0709E-03     63.3975E-03    -25.0063E+06    -51.6002E+06    -5.22839E+06     733.545E+03    -57.2385E-03     112.585E-03    -55.3469E-03     99.8868E-03    -57.8182E-03     112.908E-03    -55.2620E-03     98.9289E-03
             324     11.9226E-03     63.5028E-03    -23.2788E+06    -15.8504E+06    -3.03077E+06     1.17734E+06    -57.4098E-03     112.694E-03    -55.2843E-03     110.440E-03    -58.2751E-03     113.429E-03    -55.2427E-03     109.295E-03
             325     12.7753E-03     63.6198E-03    -21.8896E+06     34.9600E+06    -1.62458E+06     1.10011E+06    -58.4341E-03     113.633E-03    -55.1991E-03     131.025E-03    -59.8581E-03     115.108E-03    -55.2262E-03     129.594E-03
             326     13.6254E-03     63.7663E-03    -19.4091E+06     80.9056E+06     15.0503E+06     334.305E+03    -60.4024E-03     115.605E-03    -55.2025E-03     168.020E-03    -62.9843E-03     118.361E-03    -55.2164E-03     166.210E-03
             327     14.4780E-03     63.9564E-03    -15.2088E+06     114.995E+06     59.4300E+06    -59.6923E+03    -64.9184E-03     120.268E-03    -55.3497E-03     234.885E-03    -70.6118E-03     126.143E-03    -55.1973E-03     232.702E-03
             328     15.3316E-03     64.2431E-03    -12.3432E+06     142.614E+06     96.7724E+06     174.300E+03    -70.7347E-03     126.209E-03    -55.4744E-03     310.561E-03    -82.7561E-03     138.412E-03    -55.1795E-03     309.530E-03
             329     16.1769E-03     64.5917E-03    -6.68856E+06     153.504E+06     106.169E+06    -208.333E+03    -63.7354E-03     119.193E-03    -55.4573E-03     246.598E-03    -73.9615E-03     129.632E-03    -55.1393E-03     248.519E-03
             330     851.452E-06     63.7832E-03    -55.7227E+06    -171.850E+06    -54.7023E+06    -19.6772E+03    -55.4746E-03     110.900E-03    -55.4255E-03     9.40207E-03    -55.4261E-03     110.202E-03    -55.3690E-03     9.36584E-03
             331     1.70297E-03     63.7960E-03    -54.2022E+06    -169.134E+06    -50.5174E+06    -113.308E+03    -55.4645E-03     110.909E-03    -55.4447E-03     17.2963E-03    -55.4218E-03     110.220E-03    -55.3734E-03     17.2274E-03
             332     2.55465E-03     63.8178E-03    -51.8928E+06    -164.692E+06    -43.6036E+06    -67.8494E+03    -55.5318E-03     110.984E-03    -55.4526E-03     25.4766E-03    -55.4997E-03     110.310E-03    -55.3566E-03     25.3722E-03
             333     3.40615E-03     63.8472E-03    -49.2782E+06    -159.992E+06    -36.1454E+06     286.054E+03    -55.6419E-03     111.109E-03    -55.4676E-03     33.5301E-03    -55.6232E-03     110.453E-03    -55.3449E-03     33.3892E-03
             334     4.25776E-03     63.8853E-03    -46.4630E+06    -155.114E+06    -28.4725E+06     498.946E+03    -55.7777E-03     111.263E-03    -55.4858E-03     41.4746E-03    -55.7758E-03     110.629E-03    -55.3359E-03     41.2894E-03
             335     5.10932E-03     63.9307E-03    -43.2753E+06    -149.714E+06    -21.0510E+06    -49.1150E+03    -55.9123E-03     111.413E-03    -55.5003E-03     49.2684E-03    -55.9306E-03     110.807E-03    -55.3257E-03     49.0224E-03
             336     5.96093E-03     63.9843E-03    -39.5194E+06    -142.025E+06    -17.3379E+06     -875.51E+03    -56.0652E-03     111.554E-03    -55.4886E-03     56.8690E-03    -56.1051E-03     110.999E-03    -55.3120E-03     56.5502E-03
             337     6.81285E-03     64.0451E-03    -36.3033E+06    -133.983E+06    -12.4596E+06    -512.414E+03    -56.2944E-03     111.779E-03    -55.4844E-03     64.1604E-03    -56.3691E-03     111.285E-03    -55.2998E-03     63.7731E-03
             338     7.66422E-03     64.1130E-03    -33.5675E+06    -124.211E+06    -8.11552E+06     416.461E+03    -56.5476E-03     112.029E-03    -55.4815E-03     71.3566E-03    -56.6718E-03     111.617E-03    -55.2933E-03     70.8968E-03
             339     8.51583E-03     64.1886E-03    -30.7817E+06    -110.334E+06    -6.99492E+06     633.042E+03    -56.7365E-03     112.194E-03    -55.4575E-03     78.5529E-03    -56.9259E-03     111.903E-03    -55.2878E-03     77.9980E-03
             340     9.36757E-03     64.2707E-03    -28.3660E+06    -94.8606E+06    -5.41811E+06     655.065E+03    -56.8258E-03     112.252E-03    -55.4264E-03     85.8604E-03    -57.1053E-03     112.110E-03    -55.2748E-03     85.1937E-03
             341     10.2198E-03     64.3608E-03    -26.2474E+06    -75.8610E+06    -5.06724E+06     935.012E+03    -57.1970E-03     112.583E-03    -55.3860E-03     93.0100E-03    -57.6007E-03     112.639E-03    -55.2632E-03     92.2101E-03
             342     11.0707E-03     64.4573E-03    -24.6809E+06    -51.0462E+06    -4.68969E+06     830.050E+03    -57.4683E-03     112.817E-03    -55.3488E-03     99.9541E-03    -58.0497E-03     113.143E-03    -55.2624E-03     98.9928E-03
             343     11.9225E-03     64.5607E-03    -22.9483E+06    -15.8738E+06    -3.49523E+06     745.110E+03    -57.4932E-03     112.786E-03    -55.2923E-03     110.852E-03    -58.3594E-03     113.524E-03    -55.2535E-03     109.699E-03
             344     12.7739E-03     64.6788E-03    -20.4667E+06     34.8410E+06    -1.81280E+06     688.940E+03    -58.1753E-03     113.373E-03    -55.1975E-03     131.971E-03    -59.5888E-03     114.843E-03    -55.2274E-03     130.548E-03
             345     13.6276E-03     64.8249E-03    -18.5838E+06     82.6364E+06     18.3251E+06    -75.0978E+03    -60.1557E-03     115.352E-03    -55.1964E-03     168.614E-03    -62.7385E-03     118.109E-03    -55.1977E-03     166.813E-03
             346     14.4784E-03     65.0166E-03    -17.0444E+06     113.357E+06     59.0605E+06     660.718E+03    -65.2120E-03     120.544E-03    -55.3316E-03     235.711E-03    -70.9248E-03     126.427E-03    -55.1760E-03     233.524E-03
             347     15.3296E-03     65.2993E-03    -11.5250E+06     142.510E+06     96.1301E+06     1.84803E+06    -70.2838E-03     125.721E-03    -55.4373E-03     312.020E-03    -82.3293E-03     137.953E-03    -55.1466E-03     311.018E-03
             348     16.1867E-03     65.6589E-03    -4.71166E+06     155.516E+06     108.358E+06     148.594E+03    -64.0813E-03     119.502E-03    -55.4205E-03     246.609E-03    -74.3056E-03     129.947E-03    -55.0974E-03     248.506E-03
             349     851.585E-06     64.8415E-03    -55.6083E+06    -171.852E+06    -54.8371E+06    -163.336E+03    -55.4275E-03     110.833E-03    -55.4055E-03     9.42850E-03    -55.3783E-03     110.135E-03    -55.3499E-03     9.39057E-03
             350     1.70312E-03     64.8550E-03    -54.2967E+06    -169.074E+06    -50.3123E+06    -58.8582E+03    -55.5024E-03     110.929E-03    -55.4267E-03     17.2987E-03    -55.4605E-03     110.240E-03    -55.3544E-03     17.2306E-03
             351     2.55456E-03     64.8762E-03    -52.2270E+06    -165.073E+06    -43.8704E+06     219.528E+03    -55.5658E-03     111.019E-03    -55.4534E-03     25.4608E-03    -55.5345E-03     110.344E-03    -55.3576E-03     25.3601E-03
             352     3.40614E-03     64.9063E-03    -49.2975E+06    -160.531E+06    -36.9299E+06     552.135E+03    -55.6405E-03     111.111E-03    -55.4700E-03     33.5522E-03    -55.6200E-03     110.452E-03    -55.3504E-03     33.4148E-03
             353     4.25771E-03     64.9437E-03    -45.7390E+06    -155.253E+06    -28.9930E+06     630.106E+03    -55.7668E-03     111.252E-03    -55.4848E-03     41.5255E-03    -55.7604E-03     110.616E-03    -55.3383E-03     41.3422E-03
             354     5.10938E-03     64.9897E-03    -41.7094E+06    -148.137E+06    -20.0599E+06    -132.569E+03    -55.9379E-03     111.441E-03    -55.5028E-03     49.2690E-03    -55.9522E-03     110.839E-03    -55.3278E-03     49.0216E-03
             355     5.96101E-03     65.0427E-03    -38.5944E+06    -141.597E+06    -14.7478E+06    -638.234E+03    -56.0979E-03     111.603E-03    -55.5055E-03     56.7724E-03    -56.1377E-03     111.046E-03    -55.3179E-03     56.4558E-03
             356     6.81252E-03     65.1039E-03    -36.1097E+06    -135.367E+06    -11.2378E+06     70.7339E+03    -56.2970E-03     111.797E-03    -55.4998E-03     64.1642E-03    -56.3704E-03     111.294E-03    -55.3074E-03     63.7845E-03
             357     7.66426E-03     65.1719E-03    -33.3454E+06    -124.480E+06    -7.98348E+06     390.519E+03    -56.5159E-03     112.003E-03    -55.4872E-03     71.3697E-03    -56.6388E-03     111.589E-03    -55.2983E-03     70.9097E-03
             358     8.51597E-03     65.2472E-03    -30.5651E+06    -110.403E+06    -6.57691E+06     264.078E+03    -56.6559E-03     112.114E-03    -55.4582E-03     78.5501E-03    -56.8442E-03     111.821E-03    -55.2867E-03     77.9921E-03
             359     9.36761E-03     65.3295E-03    -27.9994E+06    -94.9037E+06    -5.00314E+06     451.085E+03    -56.9447E-03     112.373E-03    -55.4282E-03     85.8858E-03    -57.2235E-03     112.230E-03    -55.2750E-03     85.2142E-03
             360     10.2191E-03     65.4190E-03    -25.8182E+06    -76.5840E+06    -4.90804E+06     482.616E+03    -57.1004E-03     112.489E-03    -55.3884E-03     93.0685E-03    -57.5008E-03     112.540E-03    -55.2644E-03     92.2645E-03
             361     11.0712E-03     65.5169E-03    -23.5066E+06    -51.4928E+06    -4.24926E+06     750.414E+03    -57.1574E-03     112.492E-03    -55.3348E-03     100.088E-03    -57.7300E-03     112.811E-03    -55.2473E-03     99.1336E-03
             362     11.9229E-03     65.6188E-03    -21.6188E+06    -15.2613E+06    -2.50288E+06     301.346E+03    -57.5841E-03     112.855E-03    -55.2710E-03     111.066E-03    -58.4488E-03     113.596E-03    -55.2300E-03     109.904E-03
             363     12.7755E-03     65.7381E-03    -20.5784E+06     35.0594E+06    -621.975E+03     231.556E+03    -58.1217E-03     113.305E-03    -55.1828E-03     131.764E-03    -59.5345E-03     114.771E-03    -55.2069E-03     130.336E-03
             364     13.6263E-03     65.8824E-03    -19.8840E+06     81.6388E+06     18.1597E+06     1.50667E+06    -59.8579E-03     115.027E-03    -55.1691E-03     168.700E-03    -62.4424E-03     117.778E-03    -55.1679E-03     166.930E-03
             365     14.4801E-03     66.0761E-03    -17.3133E+06     113.072E+06     59.0303E+06     1.48355E+06    -65.0586E-03     120.347E-03    -55.2882E-03     236.335E-03    -70.7686E-03     126.226E-03    -55.1319E-03     234.147E-03
             366     15.3315E-03     66.3606E-03    -11.3547E+06     143.907E+06     97.3001E+06    -238.326E+03    -70.4588E-03     125.866E-03    -55.4071E-03     310.183E-03    -82.5088E-03     138.104E-03    -55.1127E-03     309.171E-03
             367     16.1836E-03     66.7088E-03    -5.54040E+06     155.757E+06     108.265E+06     2.10259E+03    -64.3759E-03     119.798E-03    -55.4222E-03     243.217E-03    -74.5592E-03     130.201E-03    -55.0987E-03     245.089E-03
             368     851.556E-06     65.9003E-03    -55.8992E+06    -171.841E+06    -54.4867E+06     95.4941E+03    -55.4704E-03     110.843E-03    -55.3728E-03     9.39897E-03    -55.4232E-03     110.146E-03    -55.3150E-03     9.36448E-03
             369     1.70307E-03     65.9135E-03    -54.4954E+06    -169.332E+06    -50.4956E+06     157.693E+03    -55.4960E-03     110.925E-03    -55.4293E-03     17.2643E-03    -55.4545E-03     110.236E-03    -55.3573E-03     17.1990E-03
             370     2.55456E-03     65.9352E-03    -52.1398E+06    -165.474E+06    -44.5158E+06     343.859E+03    -55.5490E-03     110.998E-03    -55.4485E-03     25.4626E-03    -55.5157E-03     110.321E-03    -55.3556E-03     25.3635E-03
             371     3.40618E-03     65.9646E-03    -49.2014E+06    -160.705E+06    -37.1760E+06     230.675E+03    -55.6434E-03     111.108E-03    -55.4647E-03     33.5942E-03    -55.6218E-03     110.449E-03    -55.3462E-03     33.4527E-03
             372     4.25777E-03     66.0027E-03    -45.5522E+06    -155.065E+06    -28.6874E+06     -9.3105E+03    -55.7923E-03     111.277E-03    -55.4848E-03     41.5473E-03    -55.7857E-03     110.642E-03    -55.3374E-03     41.3557E-03
             373     5.10933E-03     66.0481E-03    -41.9580E+06    -147.277E+06    -19.7605E+06    -187.625E+03    -55.9506E-03     111.457E-03    -55.5061E-03     49.2878E-03    -55.9678E-03     110.859E-03    -55.3305E-03     49.0399E-03
             374     5.96083E-03     66.1019E-03    -38.5920E+06    -142.205E+06    -12.8636E+06     256.775E+03    -56.1341E-03     111.656E-03    -55.5217E-03     56.7755E-03    -56.1758E-03     111.093E-03    -55.3239E-03     56.4699E-03
             375     6.81258E-03     66.1621E-03    -35.5699E+06    -136.089E+06    -9.54163E+06     719.270E+03    -56.3054E-03     111.822E-03    -55.5166E-03     64.2155E-03    -56.3776E-03     111.313E-03    -55.3154E-03     63.8437E-03
             376     7.66420E-03     66.2309E-03    -32.5551E+06    -123.976E+06    -8.00318E+06     282.484E+03    -56.4480E-03     111.937E-03    -55.4889E-03     71.3794E-03    -56.5674E-03     111.524E-03    -55.3020E-03     70.9190E-03
             377     8.51584E-03     66.3055E-03    -29.9799E+06    -110.580E+06    -6.41190E+06     160.506E+03    -56.6483E-03     112.106E-03    -55.4578E-03     78.4316E-03    -56.8337E-03     111.811E-03    -55.2860E-03     77.8718E-03
             378     9.36791E-03     66.3882E-03    -27.7242E+06    -95.2127E+06    -4.86756E+06     342.996E+03    -56.8942E-03     112.319E-03    -55.4253E-03     86.1191E-03    -57.1716E-03     112.175E-03    -55.2713E-03     85.4470E-03
             379     10.2191E-03     66.4788E-03    -25.8685E+06    -76.4903E+06    -4.76645E+06     327.112E+03    -57.0072E-03     112.386E-03    -55.3790E-03     93.1570E-03    -57.4081E-03     112.438E-03    -55.2544E-03     92.3524E-03
             380     11.0714E-03     66.5734E-03    -24.5985E+06    -51.7353E+06    -4.61325E+06     124.609E+03    -57.1141E-03     112.435E-03    -55.3205E-03     100.043E-03    -57.6914E-03     112.754E-03    -55.2329E-03     99.0810E-03
             381     11.9236E-03     66.6793E-03    -23.3707E+06    -15.1012E+06    -2.40917E+06     451.062E+03    -57.5023E-03     112.759E-03    -55.2571E-03     110.794E-03    -58.3740E-03     113.502E-03    -55.2134E-03     109.636E-03
             382     12.7741E-03     66.7956E-03    -23.1085E+06     34.3118E+06    -2.46831E+06     1.01422E+06    -58.1225E-03     113.286E-03    -55.1631E-03     130.982E-03    -59.5450E-03     114.755E-03    -55.1917E-03     129.561E-03
             383     13.6283E-03     66.9409E-03    -21.1977E+06     79.7579E+06     13.8082E+06     1.32108E+06    -60.0539E-03     115.200E-03    -55.1462E-03     168.512E-03    -62.6421E-03     117.956E-03    -55.1621E-03     166.721E-03
             384     14.4789E-03     67.1347E-03    -15.9288E+06     114.862E+06     59.0313E+06     1.38543E+06    -64.5648E-03     119.839E-03    -55.2746E-03     235.266E-03    -70.2386E-03     125.693E-03    -55.1229E-03     233.117E-03
             385     15.3330E-03     67.4182E-03    -10.6929E+06     145.633E+06     99.1882E+06     303.926E+03    -70.3467E-03     125.728E-03    -55.3813E-03     312.247E-03    -82.4704E-03     138.043E-03    -55.0810E-03     311.255E-03
             386     16.1791E-03     67.7751E-03    -6.86710E+06     155.228E+06     107.589E+06     1.53291E+03    -65.3698E-03     120.758E-03    -55.3883E-03     247.216E-03    -75.6780E-03     131.281E-03    -55.0655E-03     249.025E-03
             387     851.484E-06     66.9590E-03    -55.9768E+06    -172.197E+06    -54.9492E+06     360.145E+03    -55.4876E-03     110.886E-03    -55.3988E-03     9.42721E-03    -55.4396E-03     110.188E-03    -55.3427E-03     9.39622E-03
             388     1.70298E-03     66.9723E-03    -54.5247E+06    -169.509E+06    -50.6687E+06     359.048E+03    -55.4518E-03     110.889E-03    -55.4374E-03     17.2942E-03    -55.4098E-03     110.199E-03    -55.3658E-03     17.2317E-03
             389     2.55469E-03     66.9936E-03    -52.1565E+06    -165.500E+06    -44.4514E+06     40.5312E+03    -55.5356E-03     110.979E-03    -55.4429E-03     25.4683E-03    -55.5025E-03     110.302E-03    -55.3496E-03     25.3654E-03
             390     3.40618E-03     67.0235E-03    -48.9723E+06    -160.445E+06    -36.7547E+06    -151.396E+03    -55.6761E-03     111.139E-03    -55.4633E-03     33.5723E-03    -55.6544E-03     110.481E-03    -55.3434E-03     33.4257E-03
             391     4.25774E-03     67.0612E-03    -45.7848E+06    -155.076E+06    -28.4926E+06    -155.256E+03    -55.8008E-03     111.289E-03    -55.4887E-03     41.5344E-03    -55.7956E-03     110.654E-03    -55.3399E-03     41.3407E-03
             392     5.10927E-03     67.1072E-03    -42.5333E+06    -147.659E+06    -20.0862E+06     255.810E+03    -55.9193E-03     111.426E-03    -55.5065E-03     49.3174E-03    -55.9383E-03     110.828E-03    -55.3312E-03     49.0756E-03
             393     5.96105E-03     67.1602E-03    -39.3188E+06    -143.169E+06    -13.5955E+06     773.776E+03    -56.1351E-03     111.654E-03    -55.5186E-03     56.8870E-03    -56.1780E-03     111.088E-03    -55.3220E-03     56.5883E-03
             394     6.81243E-03     67.2214E-03    -35.7907E+06    -135.738E+06    -9.46870E+06     699.829E+03    -56.3211E-03     111.837E-03    -55.5161E-03     64.1915E-03    -56.3953E-03     111.330E-03    -55.3148E-03     63.8190E-03
             395     7.66418E-03     67.2891E-03    -32.7122E+06    -123.317E+06    -7.90635E+06     194.665E+03    -56.4534E-03     111.943E-03    -55.4897E-03     71.3561E-03    -56.5748E-03     111.533E-03    -55.3029E-03     70.8943E-03
             396     8.51609E-03     67.3646E-03    -29.9452E+06    -111.066E+06    -6.76600E+06     57.2866E+03    -56.6597E-03     112.118E-03    -55.4583E-03     78.4904E-03    -56.8441E-03     111.821E-03    -55.2877E-03     77.9287E-03
             397     9.36721E-03     67.4468E-03    -28.0215E+06    -95.7927E+06    -5.27599E+06     526.028E+03    -56.7245E-03     112.144E-03    -55.4194E-03     85.9219E-03    -57.0011E-03     111.996E-03    -55.2663E-03     85.2546E-03
             398     10.2204E-03     67.5366E-03    -26.4651E+06    -76.4555E+06    -4.92966E+06     808.737E+03    -57.0120E-03     112.380E-03    -55.3679E-03     93.0233E-03    -57.4152E-03     112.432E-03    -55.2433E-03     92.2251E-03
             399     11.0711E-03     67.6335E-03    -25.2282E+06    -50.9930E+06    -4.53697E+06     685.731E+03    -57.3474E-03     112.668E-03    -55.3204E-03     99.7888E-03    -57.9317E-03     112.995E-03    -55.2326E-03     98.8265E-03
             400     11.9226E-03     67.7364E-03    -24.7294E+06    -16.2070E+06    -4.19402E+06     853.416E+03    -57.3328E-03     112.588E-03    -55.2555E-03     110.571E-03    -58.2045E-03     113.327E-03    -55.2171E-03     109.422E-03
             401     12.7762E-03     67.8555E-03    -22.5947E+06     33.9288E+06    -3.24309E+06      1.0868E+06    -58.2522E-03     113.414E-03    -55.1614E-03     130.896E-03    -59.6725E-03     114.884E-03    -55.1941E-03     129.469E-03
             402     13.6260E-03     67.9984E-03    -20.1321E+06     80.4172E+06     15.0981E+06     558.111E+03    -60.3795E-03     115.547E-03    -55.1677E-03     168.140E-03    -62.9680E-03     118.306E-03    -55.1796E-03     166.330E-03
             403     14.4791E-03     68.1946E-03    -16.6075E+06     114.229E+06     58.5606E+06    -78.0425E+03    -64.3570E-03     119.656E-03    -55.2985E-03     234.561E-03    -70.0267E-03     125.502E-03    -55.1473E-03     232.412E-03
             404     15.3308E-03     68.4733E-03    -11.2348E+06     145.210E+06     98.0278E+06     1.07642E+06    -69.2201E-03     124.590E-03    -55.3698E-03     311.202E-03    -81.2453E-03     136.806E-03    -55.0739E-03     310.328E-03
             405     16.1941E-03     68.8366E-03    -5.70917E+06     156.147E+06     108.541E+06     1.13001E+06    -65.0846E-03     120.437E-03    -55.3522E-03     245.402E-03    -75.2491E-03     130.821E-03    -55.0276E-03     247.237E-03
             406     851.480E-06     68.0177E-03    -56.3250E+06    -172.659E+06    -55.4255E+06     64.5833E+03    -55.4492E-03     110.853E-03    -55.4038E-03     9.43166E-03    -55.4015E-03     110.153E-03    -55.3489E-03     9.39681E-03
             407     1.70317E-03     68.0309E-03    -54.5035E+06    -169.662E+06    -50.8347E+06     141.063E+03    -55.4727E-03     110.901E-03    -55.4281E-03     17.2730E-03    -55.4302E-03     110.210E-03    -55.3572E-03     17.2076E-03
             408     2.55456E-03     68.0524E-03    -52.1753E+06    -165.124E+06    -43.6542E+06     63.5847E+03    -55.5613E-03     111.011E-03    -55.4492E-03     25.4631E-03    -55.5300E-03     110.334E-03    -55.3524E-03     25.3603E-03
             409     3.40617E-03     68.0822E-03    -49.4687E+06    -160.299E+06    -36.1400E+06    -170.515E+03    -55.6710E-03     111.144E-03    -55.4728E-03     33.5948E-03    -55.6529E-03     110.486E-03    -55.3494E-03     33.4479E-03
             410     4.25765E-03     68.1201E-03    -46.0062E+06    -155.148E+06    -28.4721E+06    -147.085E+03    -55.7677E-03     111.258E-03    -55.4908E-03     41.5267E-03    -55.7635E-03     110.623E-03    -55.3415E-03     41.3333E-03
             411     5.10941E-03     68.1655E-03    -42.2632E+06    -148.852E+06    -20.2610E+06     486.673E+03    -55.9154E-03     111.420E-03    -55.5048E-03     49.3260E-03    -55.9310E-03     110.816E-03    -55.3290E-03     49.0870E-03
             412     5.96090E-03     68.2192E-03    -38.5353E+06    -143.635E+06    -13.4513E+06     1.07995E+06    -56.1158E-03     111.631E-03    -55.5148E-03     56.9028E-03    -56.1543E-03     111.061E-03    -55.3179E-03     56.6083E-03
             413     6.81265E-03     68.2800E-03    -35.1214E+06    -135.030E+06     -8.9239E+06     599.931E+03    -56.3187E-03     111.830E-03    -55.5115E-03     64.1763E-03    -56.3913E-03     111.325E-03    -55.3093E-03     63.8024E-03
             414     7.66425E-03     68.3479E-03    -32.0128E+06    -122.953E+06    -7.16621E+06     173.926E+03    -56.5051E-03     111.995E-03    -55.4895E-03     71.3406E-03    -56.6250E-03     111.585E-03    -55.3006E-03     70.8773E-03
             415     8.51565E-03     68.4232E-03    -30.0608E+06    -111.722E+06    -6.92845E+06     441.147E+03    -56.6259E-03     112.084E-03    -55.4576E-03     78.4558E-03    -56.8097E-03     111.784E-03    -55.2867E-03     77.8991E-03
             416     9.36824E-03     68.5052E-03    -28.1502E+06    -95.7885E+06    -5.30889E+06     744.385E+03    -56.8942E-03     112.319E-03    -55.4250E-03     85.6522E-03    -57.1720E-03     112.172E-03    -55.2718E-03     84.9843E-03
             417     10.2188E-03     68.5950E-03    -26.0410E+06    -76.4032E+06    -4.72726E+06     919.565E+03    -57.0970E-03     112.482E-03    -55.3850E-03     92.8243E-03    -57.4988E-03     112.534E-03    -55.2601E-03     92.0254E-03
             418     11.0714E-03     68.6926E-03    -24.3446E+06    -51.9838E+06    -4.58807E+06     1.42981E+06    -57.1255E-03     112.457E-03    -55.3312E-03     99.7048E-03    -57.7010E-03     112.775E-03    -55.2435E-03     98.7589E-03
             419     11.9233E-03     68.7952E-03    -22.6070E+06    -15.9103E+06    -3.13840E+06     1.42699E+06    -57.5098E-03     112.775E-03    -55.2653E-03     110.338E-03    -58.3732E-03     113.511E-03    -55.2251E-03     109.192E-03
             420     12.7743E-03     68.9127E-03    -21.7086E+06     34.2398E+06    -1.84736E+06     766.204E+03    -58.4776E-03     113.665E-03    -55.1870E-03     131.127E-03    -59.8982E-03     115.135E-03    -55.2144E-03     129.691E-03
             421     13.6270E-03     69.0602E-03    -20.0754E+06     81.1524E+06     17.7682E+06     360.691E+03    -60.2059E-03     115.407E-03    -55.2014E-03     167.909E-03    -62.7960E-03     118.163E-03    -55.2011E-03     166.107E-03
             422     14.4784E-03     69.2499E-03    -17.5458E+06     113.678E+06     59.9462E+06     276.049E+03    -64.8235E-03     120.163E-03    -55.3399E-03     233.644E-03    -70.4926E-03     126.000E-03    -55.1796E-03     231.470E-03
             423     15.3328E-03     69.5338E-03    -13.1557E+06     143.351E+06     96.1833E+06     495.602E+03    -70.3491E-03     125.804E-03    -55.4552E-03     308.725E-03    -82.3624E-03     138.000E-03    -55.1631E-03     307.715E-03
             424     16.1737E-03     69.8860E-03    -4.68746E+06     156.629E+06     108.364E+06     633.953E+03    -63.8396E-03     119.290E-03    -55.4500E-03     246.210E-03    -74.0813E-03     129.756E-03    -55.1285E-03     248.094E-03
             425     851.639E-06     69.0764E-03    -56.1634E+06    -172.513E+06    -55.1971E+06    -128.502E+03    -55.4646E-03     110.859E-03    -55.3946E-03     9.37358E-03    -55.4167E-03     110.160E-03    -55.3390E-03     9.33615E-03
             426     1.70296E-03     69.0896E-03    -54.6948E+06    -169.747E+06    -50.7651E+06    -223.705E+03    -55.4996E-03     110.936E-03    -55.4367E-03     17.2444E-03    -55.4580E-03     110.245E-03    -55.3651E-03     17.1740E-03
             427     2.55463E-03     69.1111E-03    -52.1338E+06    -165.360E+06    -44.0409E+06     118.135E+03    -55.5602E-03     111.018E-03    -55.4582E-03     25.4813E-03    -55.5277E-03     110.342E-03    -55.3631E-03     25.3792E-03
             428     3.40609E-03     69.1409E-03    -49.2461E+06    -160.153E+06    -36.0189E+06     321.015E+03    -55.6298E-03     111.106E-03    -55.4758E-03     33.6067E-03    -55.6109E-03     110.448E-03    -55.3522E-03     33.4663E-03
             429     4.25781E-03     69.1786E-03    -46.3835E+06    -155.242E+06    -28.2573E+06     158.741E+03    -55.7593E-03     111.249E-03    -55.4895E-03     41.5175E-03    -55.7572E-03     110.613E-03    -55.3384E-03     41.3280E-03
             430     5.10930E-03     69.2243E-03    -43.0295E+06    -149.766E+06    -20.7144E+06     354.332E+03    -55.9301E-03     111.433E-03    -55.5031E-03     49.3523E-03    -55.9477E-03     110.826E-03    -55.3271E-03     49.1114E-03
             431     5.96098E-03     69.2779E-03    -38.8919E+06    -143.707E+06    -14.3263E+06     421.769E+03    -56.0995E-03     111.609E-03    -55.5096E-03     56.8995E-03    -56.1383E-03     111.041E-03    -55.3165E-03     56.5969E-03
             432     6.81264E-03     69.3385E-03    -34.7583E+06    -134.591E+06    -9.19654E+06     277.444E+03    -56.2896E-03     111.794E-03    -55.5048E-03     64.1933E-03    -56.3606E-03     111.291E-03    -55.3052E-03     63.8158E-03
             433     7.66416E-03     69.4070E-03    -32.1218E+06    -123.896E+06    -7.17453E+06     864.558E+03    -56.5032E-03     111.989E-03    -55.4853E-03     71.3317E-03    -56.6223E-03     111.575E-03    -55.2950E-03     70.8772E-03
             434     8.51621E-03     69.4815E-03    -30.2050E+06    -111.343E+06    -6.50261E+06     1.15682E+06    -56.7752E-03     112.237E-03    -55.4617E-03     78.3343E-03    -56.9615E-03     111.940E-03    -55.2889E-03     77.7842E-03
             435     9.36713E-03     69.5641E-03    -28.0843E+06    -95.6714E+06    -5.32579E+06     745.930E+03    -57.0098E-03     112.449E-03    -55.4390E-03     85.7348E-03    -57.2877E-03     112.303E-03    -55.2861E-03     85.0654E-03
             436     10.2193E-03     69.6544E-03    -26.4366E+06    -77.4112E+06    -5.46059E+06     925.319E+03    -57.0343E-03     112.433E-03    -55.3986E-03     92.9518E-03    -57.4354E-03     112.481E-03    -55.2753E-03     92.1548E-03
             437     11.0708E-03     69.7499E-03    -24.7739E+06    -52.5523E+06    -4.94294E+06     1.07669E+06    -57.1263E-03     112.468E-03    -55.3420E-03     99.8164E-03    -57.7022E-03     112.784E-03    -55.2545E-03     98.8665E-03
             438     11.9232E-03     69.8543E-03    -22.9095E+06    -16.0125E+06    -3.17223E+06     1.23429E+06    -57.7157E-03     112.998E-03    -55.2827E-03     110.495E-03    -58.5840E-03     113.738E-03    -55.2421E-03     109.341E-03
             439     12.7744E-03     69.9727E-03    -21.4309E+06     35.3151E+06    -1.14866E+06     1.10819E+06    -58.4562E-03     113.667E-03    -55.2107E-03     131.143E-03    -59.8785E-03     115.142E-03    -55.2366E-03     129.714E-03
             440     13.6261E-03     70.1168E-03    -20.2469E+06     81.3209E+06     17.5820E+06     971.790E+03    -60.0962E-03     115.314E-03    -55.2175E-03     167.734E-03    -62.6775E-03     118.061E-03    -55.2182E-03     165.946E-03
             441     14.4789E-03     70.3104E-03    -17.8887E+06     113.308E+06     59.1031E+06     1.44532E+06    -65.4889E-03     120.853E-03    -55.3638E-03     234.766E-03    -71.1808E-03     126.712E-03    -55.2066E-03     232.560E-03
             442     15.3259E-03     70.5923E-03    -12.5811E+06     144.336E+06     96.9777E+06     901.642E+03    -70.4496E-03     125.940E-03    -55.4903E-03     310.991E-03    -82.5430E-03     138.220E-03    -55.1965E-03     310.041E-03
             443     16.1881E-03     70.9500E-03    -5.75801E+06     157.023E+06     108.558E+06    -201.149E+03    -63.5630E-03     119.027E-03    -55.4643E-03     248.967E-03    -73.9377E-03     129.624E-03    -55.1409E-03     250.981E-03
             444     851.377E-06     70.1350E-03    -55.8344E+06    -172.227E+06    -54.8694E+06    -141.944E+03    -55.4754E-03     110.910E-03    -55.4346E-03     9.37784E-03    -55.4267E-03     110.211E-03    -55.3783E-03     9.34017E-03
             445     1.70310E-03     70.1483E-03    -54.5239E+06    -169.642E+06    -50.6753E+06    -76.7717E+03    -55.4842E-03     110.937E-03    -55.4532E-03     17.2763E-03    -55.4421E-03     110.246E-03    -55.3815E-03     17.2078E-03
             446     2.55448E-03     70.1698E-03    -52.3484E+06    -165.702E+06    -44.4795E+06    -96.3779E+03    -55.5342E-03     110.994E-03    -55.4602E-03     25.4929E-03    -55.5017E-03     110.317E-03    -55.3664E-03     25.3880E-03
             447     3.40620E-03     70.1996E-03    -49.2166E+06    -160.696E+06    -36.8361E+06     333.236E+03    -55.6241E-03     111.094E-03    -55.4702E-03     33.5920E-03    -55.6031E-03     110.435E-03    -55.3500E-03     33.4518E-03
             448     4.25772E-03     70.2373E-03    -45.8749E+06    -155.409E+06    -28.6675E+06     812.392E+03    -55.7718E-03     111.257E-03    -55.4851E-03     41.5231E-03    -55.7664E-03     110.620E-03    -55.3366E-03     41.3419E-03
             449     5.10936E-03     70.2831E-03    -42.7755E+06    -150.021E+06    -21.0932E+06     732.078E+03    -55.9247E-03     111.425E-03    -55.5000E-03     49.3273E-03    -55.9401E-03     110.817E-03    -55.3259E-03     49.0912E-03
             450     5.96101E-03     70.3364E-03    -39.7961E+06    -142.938E+06    -16.0324E+06     41.2003E+03    -56.0892E-03     111.588E-03    -55.4992E-03     56.9181E-03    -56.1311E-03     111.028E-03    -55.3144E-03     56.6107E-03
             451     6.81253E-03     70.3975E-03    -37.1234E+06    -135.378E+06    -11.6481E+06     129.675E+03    -56.2652E-03     111.759E-03    -55.4937E-03     64.2064E-03    -56.3432E-03     111.258E-03    -55.3018E-03     63.8276E-03
             452     7.66453E-03     70.4651E-03    -34.0855E+06    -125.027E+06    -7.96015E+06     1.02458E+06    -56.5448E-03     112.029E-03    -55.4843E-03     71.3433E-03    -56.6708E-03     111.613E-03    -55.2934E-03     70.8908E-03
             453     8.51563E-03     70.5408E-03    -30.7308E+06    -110.850E+06    -6.54263E+06     952.808E+03    -56.8390E-03     112.305E-03    -55.4656E-03     78.4666E-03    -57.0286E-03     112.011E-03    -55.2930E-03     77.9136E-03
             454     9.36750E-03     70.6230E-03     -28.675E+06    -96.3595E+06    -5.68269E+06     1.08004E+06    -56.8900E-03     112.330E-03    -55.4403E-03     85.8164E-03    -57.1691E-03     112.182E-03    -55.2874E-03     85.1534E-03
             455     10.2193E-03     70.7124E-03    -27.1822E+06    -77.5687E+06    -5.76159E+06     1.25874E+06    -57.0135E-03     112.407E-03    -55.3935E-03     92.9739E-03    -57.4168E-03     112.455E-03    -55.2704E-03     92.1826E-03
             456     11.0714E-03     70.8092E-03    -25.6204E+06    -52.1371E+06    -5.29989E+06     749.264E+03    -57.3988E-03     112.744E-03    -55.3452E-03     100.117E-03    -57.9832E-03     113.068E-03    -55.2589E-03     99.1549E-03
             457     11.9220E-03     70.9130E-03    -23.7868E+06    -16.3796E+06    -4.54874E+06     370.901E+03    -57.6675E-03     112.956E-03    -55.2889E-03     110.973E-03    -58.5384E-03     113.698E-03    -55.2534E-03     109.809E-03
             458     12.7745E-03     71.0314E-03    -21.8743E+06     34.6540E+06    -2.28136E+06     1.11044E+06    -58.3165E-03     113.526E-03    -55.2096E-03     131.324E-03    -59.7348E-03     114.996E-03    -55.2396E-03     129.900E-03
             459     13.6265E-03     71.1760E-03    -20.6057E+06     80.6236E+06     16.1681E+06     2.37441E+06    -60.2435E-03     115.456E-03    -55.2126E-03     168.201E-03    -62.8235E-03     118.202E-03    -55.2188E-03     166.426E-03
             460     14.4776E-03     71.3687E-03    -17.3318E+06     113.854E+06     57.8846E+06     1.66501E+06    -64.9341E-03     120.272E-03    -55.3381E-03     236.515E-03    -70.6668E-03     126.180E-03    -55.1887E-03     234.348E-03
             461     15.3338E-03     71.6552E-03    -11.1664E+06     145.828E+06     98.2661E+06     213.489E+03    -70.1362E-03     125.586E-03    -55.4497E-03     309.887E-03    -82.1003E-03     137.743E-03    -55.1536E-03     308.888E-03
             462     16.1803E-03     71.9995E-03    -5.96234E+06     157.425E+06     109.280E+06    -48.9518E+03    -64.3475E-03     119.800E-03    -55.4526E-03     245.133E-03    -74.5250E-03     130.199E-03    -55.1258E-03     247.051E-03
             463     851.585E-06     71.1938E-03    -55.7744E+06    -172.172E+06    -54.7510E+06     18.6789E+03    -55.4537E-03     110.892E-03    -55.4381E-03     9.41245E-03    -55.4050E-03     110.193E-03    -55.3814E-03     9.37685E-03
             464     1.70293E-03     71.2069E-03    -54.3908E+06    -169.678E+06    -50.7585E+06     20.2808E+03    -55.4767E-03     110.920E-03    -55.4434E-03     17.3116E-03    -55.4338E-03     110.229E-03    -55.3723E-03     17.2444E-03
             465     2.55466E-03     71.2286E-03    -52.4227E+06    -165.863E+06    -44.5897E+06     190.718E+03    -55.5387E-03     110.992E-03    -55.4528E-03     25.4821E-03    -55.5061E-03     110.313E-03    -55.3593E-03     25.3809E-03
             466     3.40614E-03     71.2581E-03    -49.9029E+06    -161.174E+06    -37.1413E+06     187.921E+03    -55.6388E-03     111.106E-03    -55.4676E-03     33.5987E-03    -55.6201E-03     110.446E-03    -55.3473E-03     33.4567E-03
             467     4.25775E-03     71.2962E-03    -46.3298E+06    -156.094E+06    -29.4975E+06     418.270E+03    -55.7707E-03     111.253E-03    -55.4822E-03     41.5546E-03    -55.7653E-03     110.614E-03    -55.3362E-03     41.3686E-03
             468     5.10938E-03     71.3416E-03    -42.0442E+06    -149.833E+06    -20.8180E+06     603.278E+03    -55.9290E-03     111.429E-03    -55.4996E-03     49.3182E-03    -55.9414E-03     110.820E-03    -55.3255E-03     49.0804E-03
             469     5.96092E-03     71.3953E-03    -38.6284E+06    -143.073E+06    -14.4871E+06     983.214E+03    -56.0736E-03     111.578E-03    -55.5040E-03     56.8489E-03    -56.1117E-03     111.013E-03    -55.3130E-03     56.5537E-03
             470     6.81284E-03     71.4558E-03    -36.1860E+06    -135.953E+06    -10.3997E+06     1.28790E+06    -56.2970E-03     111.796E-03    -55.4987E-03     64.1820E-03    -56.3713E-03     111.289E-03    -55.3011E-03     63.8180E-03
             471     7.66405E-03     71.5243E-03    -33.4954E+06    -124.772E+06    -7.58747E+06     503.890E+03    -56.5634E-03     112.050E-03    -55.4865E-03     71.5047E-03    -56.6874E-03     111.634E-03    -55.2950E-03     71.0459E-03
             472     8.51598E-03     71.5995E-03    -31.0475E+06    -111.755E+06    -6.46960E+06     814.389E+03    -56.7258E-03     112.190E-03    -55.4641E-03     78.5391E-03    -56.9153E-03     111.891E-03    -55.2894E-03     77.9866E-03
             473     9.36763E-03     71.6816E-03    -28.8462E+06     -96.613E+06    -5.03400E+06     1.39027E+06    -56.8947E-03     112.331E-03    -55.4362E-03     85.5643E-03    -57.1751E-03     112.180E-03    -55.2794E-03     84.9046E-03
             474     10.2194E-03     71.7711E-03    -26.5500E+06    -77.2766E+06    -5.01183E+06     1.13507E+06    -57.1293E-03     112.523E-03    -55.3940E-03     92.9080E-03    -57.5317E-03     112.572E-03    -55.2685E-03     92.1123E-03
             475     11.0707E-03     71.8680E-03    -24.4791E+06    -51.9158E+06    -4.38904E+06     934.289E+03    -57.3029E-03     112.650E-03    -55.3466E-03     100.327E-03    -57.8825E-03     112.971E-03    -55.2578E-03     99.3699E-03
             476     11.9232E-03     71.9723E-03    -23.6191E+06    -15.9994E+06    -3.82024E+06     729.957E+03    -57.5678E-03     112.851E-03    -55.2830E-03     111.014E-03    -58.4382E-03     113.592E-03    -55.2447E-03     109.858E-03
             477     12.7747E-03     72.0896E-03    -23.1922E+06     33.0331E+06    -4.14946E+06     1.27223E+06    -58.2927E-03     113.485E-03    -55.1918E-03     131.445E-03    -59.7137E-03     114.952E-03    -55.2269E-03     130.023E-03
             478     13.6265E-03     72.2354E-03    -20.7287E+06     79.7892E+06     14.5399E+06     1.81315E+06    -60.1901E-03     115.382E-03    -55.1915E-03     168.252E-03    -62.7765E-03     118.136E-03    -55.2045E-03     166.467E-03
             479     14.4795E-03     72.4273E-03    -16.1095E+06     115.576E+06     59.5674E+06     1.08572E+06    -64.7523E-03     120.080E-03    -55.3277E-03     235.133E-03    -70.4629E-03     125.971E-03    -55.1740E-03     232.964E-03
             480     15.3298E-03     72.7106E-03    -10.4345E+06     146.762E+06     99.3782E+06     79.3294E+03    -70.5375E-03     125.986E-03    -55.4486E-03     310.171E-03    -82.5528E-03     138.197E-03    -55.1493E-03     309.092E-03
             481     16.1823E-03     73.0676E-03    -5.76601E+06     157.109E+06     108.907E+06     473.386E+03    -64.6833E-03     120.142E-03    -55.4589E-03     246.105E-03    -74.8976E-03     130.578E-03    -55.1338E-03     247.940E-03
             482     851.490E-06     72.2524E-03    -55.8084E+06    -172.391E+06    -54.9651E+06     77.6720E+03    -55.4399E-03     110.838E-03    -55.3979E-03     9.40268E-03    -55.3907E-03     110.138E-03    -55.3418E-03     9.36787E-03
             483     1.70317E-03     72.2658E-03    -54.7065E+06    -169.975E+06    -50.8772E+06     254.075E+03    -55.4810E-03     110.904E-03    -55.4233E-03     17.2772E-03    -55.4390E-03     110.212E-03    -55.3519E-03     17.2131E-03
             484     2.55457E-03     72.2870E-03    -52.5327E+06    -166.068E+06    -44.6690E+06     291.601E+03    -55.5614E-03     111.006E-03    -55.4442E-03     25.4831E-03    -55.5290E-03     110.327E-03    -55.3506E-03     25.3832E-03
             485     3.40616E-03     72.3170E-03    -49.4866E+06    -161.175E+06    -37.2426E+06     324.985E+03    -55.6551E-03     111.120E-03    -55.4651E-03     33.5734E-03    -55.6342E-03     110.459E-03    -55.3459E-03     33.4329E-03
             486     4.25779E-03     72.3545E-03    -46.2741E+06    -156.116E+06    -29.4032E+06    -3.96166E+03    -55.7772E-03     111.261E-03    -55.4837E-03     41.5475E-03    -55.7716E-03     110.622E-03    -55.3373E-03     41.3558E-03
             487     5.10930E-03     72.4007E-03    -42.6605E+06    -149.986E+06    -20.6018E+06    -153.468E+03    -55.9206E-03     111.424E-03    -55.5030E-03     49.3132E-03    -55.9362E-03     110.815E-03    -55.3267E-03     49.0657E-03
             488     5.96106E-03     72.4536E-03    -38.4035E+06    -144.813E+06    -13.1327E+06     915.710E+03    -56.1107E-03     111.627E-03    -55.5161E-03     56.7963E-03    -56.1472E-03     111.051E-03    -55.3161E-03     56.4996E-03
             489     6.81246E-03     72.5148E-03    -34.0240E+06    -135.774E+06    -8.27326E+06     1.41730E+06    -56.3272E-03     111.840E-03    -55.5125E-03     64.1962E-03    -56.3942E-03     111.328E-03    -55.3076E-03     63.8332E-03
             490     7.66443E-03     72.5829E-03    -31.3021E+06    -124.525E+06    -5.88718E+06     1.56970E+06    -56.4959E-03     111.991E-03    -55.4948E-03     71.4116E-03    -56.6116E-03     111.570E-03    -55.2983E-03     70.9670E-03
             491     8.51593E-03     72.6583E-03    -29.7486E+06    -112.809E+06    -5.04418E+06     1.71181E+06    -56.6757E-03     112.143E-03    -55.4676E-03     78.4013E-03    -56.8590E-03     111.835E-03    -55.2862E-03     77.8606E-03
             492     9.36760E-03     72.7403E-03    -27.6694E+06    -96.0120E+06    -4.03447E+06     1.17872E+06    -56.9638E-03     112.400E-03    -55.4359E-03     85.6300E-03    -57.2410E-03     112.250E-03    -55.2768E-03     84.9662E-03
             493     10.2191E-03     72.8299E-03    -25.4880E+06    -77.3176E+06    -3.89022E+06     972.451E+03    -57.1815E-03     112.582E-03    -55.4004E-03     92.9336E-03    -57.5814E-03     112.628E-03    -55.2708E-03     92.1333E-03
             494     11.0713E-03     72.9267E-03    -24.1203E+06    -52.5374E+06    -3.95772E+06     1.15391E+06    -57.2052E-03     112.555E-03    -55.3498E-03     100.155E-03    -57.7810E-03     112.870E-03    -55.2584E-03     99.2036E-03
             495     11.9227E-03     73.0305E-03    -22.8540E+06    -16.0548E+06    -2.11121E+06     1.86718E+06    -57.5349E-03     112.822E-03    -55.2869E-03     110.843E-03    -58.4044E-03     113.559E-03    -55.2410E-03     109.702E-03
             496     12.7747E-03     73.1490E-03    -21.7911E+06     33.5896E+06    -2.44427E+06     2.09098E+06    -58.3391E-03     113.535E-03    -55.1960E-03     130.898E-03    -59.7554E-03     115.000E-03    -55.2253E-03     129.484E-03
             497     13.6270E-03     73.2932E-03    -20.2307E+06     80.1631E+06     14.2706E+06      540.92E+03    -60.1384E-03     115.328E-03    -55.1893E-03     167.924E-03    -62.7243E-03     118.085E-03    -55.2049E-03     166.122E-03
             498     14.4778E-03     73.4869E-03    -16.4094E+06     115.847E+06     59.6922E+06     54.3583E+03    -65.0450E-03     120.380E-03    -55.3353E-03     235.382E-03    -70.7576E-03     126.273E-03    -55.1810E-03     233.171E-03
             499     15.3307E-03     73.7696E-03    -12.0328E+06     146.615E+06     98.7909E+06     1.28797E+06    -70.0128E-03     125.457E-03    -55.4439E-03     311.194E-03    -82.0681E-03     137.703E-03    -55.1451E-03     310.261E-03
             500     16.1845E-03     74.1251E-03    -6.47022E+06     157.337E+06     108.874E+06     713.607E+03    -64.2664E-03     119.691E-03    -55.4249E-03     245.542E-03    -74.4615E-03     130.106E-03    -55.0993E-03     247.455E-03
             501     851.578E-06     73.3113E-03    -56.1668E+06    -172.803E+06    -55.1657E+06     295.473E+03    -55.4370E-03     110.827E-03    -55.3897E-03     9.40028E-03    -55.3887E-03     110.126E-03    -55.3336E-03     9.36836E-03
             502     1.70303E-03     73.3241E-03    -54.8062E+06    -170.360E+06    -51.2367E+06     369.881E+03    -55.4864E-03     110.906E-03    -55.4191E-03     17.2589E-03    -55.4439E-03     110.212E-03    -55.3488E-03     17.1962E-03
             503     2.55465E-03     73.3461E-03    -52.6062E+06    -166.067E+06    -44.4024E+06     320.241E+03    -55.5607E-03     111.005E-03    -55.4448E-03     25.4667E-03    -55.5290E-03     110.326E-03    -55.3498E-03     25.3672E-03
             504     3.40619E-03     73.3754E-03    -49.6500E+06    -161.181E+06    -36.8592E+06     125.424E+03    -55.6694E-03     111.138E-03    -55.4684E-03     33.5740E-03    -55.6499E-03     110.477E-03    -55.3470E-03     33.4307E-03
             505     4.25764E-03     73.4136E-03    -46.3282E+06    -155.899E+06    -28.8338E+06     223.040E+03    -55.7834E-03     111.273E-03    -55.4898E-03     41.5272E-03    -55.7793E-03     110.635E-03    -55.3407E-03     41.3382E-03
             506     5.10941E-03     73.4589E-03    -43.3984E+06    -150.214E+06    -20.5355E+06     315.229E+03    -55.9279E-03     111.437E-03    -55.5092E-03     49.2934E-03    -55.9469E-03     110.828E-03    -55.3311E-03     49.0518E-03
             507     5.96087E-03     73.5127E-03    -39.9490E+06    -145.538E+06    -14.3873E+06    -82.2726E+03    -56.1521E-03     111.673E-03    -55.5209E-03     56.8353E-03    -56.1937E-03     111.098E-03    -55.3238E-03     56.5251E-03
             508     6.81261E-03     73.5732E-03    -36.3537E+06    -136.824E+06    -9.87882E+06     712.097E+03    -56.3438E-03     111.864E-03    -55.5207E-03     64.1712E-03    -56.4187E-03     111.353E-03    -55.3190E-03     63.7984E-03
             509     7.66400E-03     73.6418E-03    -33.1079E+06    -125.792E+06    -6.72995E+06     2.10358E+06    -56.4584E-03     111.964E-03    -55.5053E-03     71.2573E-03    -56.5800E-03     111.541E-03    -55.3085E-03     70.8194E-03
             510     8.51589E-03     73.7167E-03    -30.0462E+06    -112.169E+06    -5.29330E+06     1.99252E+06    -56.6413E-03     112.114E-03    -55.4723E-03     78.3638E-03    -56.8265E-03     111.809E-03    -55.2925E-03     77.8273E-03
             511     9.36773E-03     73.7992E-03    -27.7695E+06    -95.5906E+06    -3.99323E+06     1.39505E+06    -56.9068E-03     112.344E-03    -55.4374E-03     85.6830E-03    -57.1853E-03     112.196E-03    -55.2785E-03     85.0227E-03
             512     10.2194E-03     73.8889E-03    -26.4862E+06    -78.1628E+06    -4.67793E+06     1.22541E+06    -57.1316E-03     112.528E-03    -55.3963E-03     92.9338E-03    -57.5349E-03     112.573E-03    -55.2680E-03     92.1359E-03
             513     11.0707E-03     73.9852E-03    -25.2690E+06    -52.5612E+06    -4.58625E+06     1.48981E+06    -57.4021E-03     112.753E-03    -55.3514E-03     100.164E-03    -57.9845E-03     113.073E-03    -55.2615E-03     99.2117E-03
             514     11.9229E-03     74.0894E-03    -23.7885E+06    -16.7957E+06    -2.48299E+06     1.82444E+06    -57.6647E-03     112.967E-03    -55.3028E-03     110.665E-03    -58.5378E-03     113.704E-03    -55.2563E-03     109.520E-03
             515     12.7745E-03     74.2079E-03    -21.7223E+06     33.7075E+06    -1.51680E+06     1.45187E+06    -58.1868E-03     113.402E-03    -55.2152E-03     130.714E-03    -59.6027E-03     114.865E-03    -55.2401E-03     129.296E-03
             516     13.6258E-03     74.3518E-03    -19.7678E+06     81.5533E+06     16.2397E+06     1.16562E+06    -60.0157E-03     115.217E-03    -55.2013E-03     168.198E-03    -62.6035E-03     117.977E-03    -55.2097E-03     166.409E-03
             517     14.4795E-03     74.5454E-03    -17.8900E+06     114.881E+06     58.4628E+06     1.04891E+06    -64.6237E-03     119.942E-03    -55.3185E-03     235.921E-03    -70.3270E-03     125.820E-03    -55.1668E-03     233.762E-03
             518     15.3310E-03     74.8292E-03    -13.1893E+06     146.430E+06     97.6477E+06     733.851E+03    -70.1748E-03     125.593E-03    -55.4181E-03     310.875E-03    -82.2039E-03     137.812E-03    -55.1231E-03     309.896E-03
             519     16.1830E-03     75.1808E-03    -5.28318E+06     158.547E+06     109.656E+06     274.268E+03    -64.5755E-03     119.995E-03    -55.4195E-03     245.395E-03    -74.7654E-03     130.411E-03    -55.0934E-03     247.247E-03
             520     851.535E-06     74.3695E-03    -56.5161E+06    -173.295E+06    -55.6114E+06     219.905E+03    -55.4371E-03     110.855E-03    -55.4181E-03     9.37681E-03    -55.3892E-03     110.153E-03    -55.3629E-03     9.34378E-03
             521     1.70309E-03     74.3833E-03    -54.8772E+06    -170.486E+06    -51.2200E+06     150.725E+03    -55.4932E-03     110.926E-03    -55.4328E-03     17.2695E-03    -55.4508E-03     110.232E-03    -55.3621E-03     17.2039E-03
             522     2.55459E-03     74.4043E-03    -52.4407E+06    -166.322E+06    -44.7453E+06     317.815E+03    -55.5582E-03     111.011E-03    -55.4527E-03     25.4383E-03    -55.5248E-03     110.331E-03    -55.3593E-03     25.3386E-03
             523     3.40612E-03     74.4345E-03    -49.8388E+06    -161.266E+06    -36.7401E+06     498.779E+03    -55.6554E-03     111.130E-03    -55.4744E-03     33.5752E-03    -55.6369E-03     110.468E-03    -55.3520E-03     33.4368E-03
             524     4.25779E-03     74.4719E-03    -47.0931E+06    -156.410E+06    -29.0360E+06     648.368E+03    -55.7987E-03     111.294E-03    -55.4948E-03     41.5051E-03    -55.7974E-03     110.654E-03    -55.3449E-03     41.3214E-03
             525     5.10922E-03     74.5180E-03    -43.3909E+06    -150.034E+06    -20.7482E+06     731.998E+03    -55.9715E-03     111.488E-03    -55.5164E-03     49.2939E-03    -55.9906E-03     110.880E-03    -55.3396E-03     49.0572E-03
             526     5.96093E-03     74.5712E-03    -40.1815E+06    -145.142E+06    -14.1471E+06     601.148E+03    -56.1564E-03     111.689E-03    -55.5329E-03     56.8384E-03    -56.2002E-03     111.116E-03    -55.3349E-03     56.5368E-03
             527     6.81233E-03     74.6323E-03    -37.6120E+06    -138.863E+06    -11.0075E+06     1.09831E+06    -56.3198E-03     111.848E-03    -55.5286E-03     64.1784E-03    -56.3964E-03     111.330E-03    -55.3277E-03     63.8109E-03
             528     7.66414E-03     74.7003E-03    -34.5410E+06    -126.526E+06    -8.58843E+06     1.38173E+06    -56.4980E-03     112.006E-03    -55.5078E-03     71.2970E-03    -56.6232E-03     111.584E-03    -55.3172E-03     70.8491E-03
             529     8.51583E-03     74.7753E-03    -31.2636E+06    -111.880E+06    -6.22275E+06     1.39673E+06    -56.6571E-03     112.137E-03    -55.4800E-03     78.3338E-03    -56.8475E-03     111.837E-03    -55.3036E-03     77.7893E-03
             530     9.36736E-03     74.8580E-03    -28.8415E+06    -96.1858E+06    -4.79128E+06     1.79159E+06    -56.8219E-03     112.265E-03    -55.4435E-03     85.6629E-03    -57.1034E-03     112.117E-03    -55.2861E-03     85.0090E-03
             531     10.2193E-03     74.9472E-03    -26.9914E+06    -77.9111E+06    -5.02037E+06     1.80677E+06    -57.1655E-03     112.566E-03    -55.4001E-03     92.8306E-03    -57.5710E-03     112.613E-03    -55.2731E-03     92.0397E-03
             532     11.0715E-03     75.0444E-03    -25.7132E+06    -52.6860E+06    -5.16293E+06     1.99717E+06    -57.4514E-03     112.809E-03    -55.3576E-03     100.127E-03    -58.0349E-03     113.129E-03    -55.2697E-03     99.1809E-03
             533     11.9218E-03     75.1488E-03    -24.4957E+06    -16.6930E+06    -3.74091E+06     1.27966E+06    -57.5865E-03     112.890E-03    -55.3038E-03     110.894E-03    -58.4599E-03     113.628E-03    -55.2627E-03     109.746E-03
             534     12.7741E-03     75.2657E-03    -22.8293E+06     33.3512E+06    -2.50101E+06     466.847E+03    -58.1340E-03     113.347E-03    -55.2129E-03     131.003E-03    -59.5532E-03     114.811E-03    -55.2407E-03     129.576E-03
             535     13.6274E-03     75.4107E-03    -20.6117E+06     80.3477E+06     14.7980E+06     1.28516E+06    -59.8994E-03     115.091E-03    -55.1919E-03     168.164E-03    -62.4817E-03     117.843E-03    -55.2046E-03     166.386E-03
             536     14.4780E-03     75.6037E-03    -16.8172E+06     115.582E+06     58.8667E+06     2.09308E+06    -64.4913E-03     119.799E-03    -55.3078E-03     235.204E-03    -70.1615E-03     125.649E-03    -55.1567E-03     233.075E-03
             537     15.3328E-03     75.8860E-03    -12.3715E+06     147.520E+06     98.5862E+06     1.56735E+06    -70.0703E-03     125.474E-03    -55.4034E-03     311.534E-03    -82.1610E-03     137.758E-03    -55.1065E-03     310.576E-03
             538     16.1827E-03     76.2451E-03    -4.95288E+06     158.951E+06     109.932E+06    -5.86362E+03    -64.0542E-03     119.436E-03    -55.3816E-03     246.496E-03    -74.3013E-03     129.911E-03    -55.0552E-03     248.341E-03
             539     851.489E-06     75.4285E-03    -56.6011E+06    -173.460E+06    -55.6559E+06    -73.2985E+03    -55.4796E-03     110.919E-03    -55.4399E-03     9.34994E-03    -55.4319E-03     110.216E-03    -55.3845E-03     9.31288E-03
             540     1.70301E-03     75.4417E-03    -55.2143E+06    -170.693E+06    -51.1923E+06     153.909E+03    -55.4783E-03     110.935E-03    -55.4568E-03     17.2650E-03    -55.4374E-03     110.241E-03    -55.3852E-03     17.1994E-03
             541     2.55453E-03     75.4634E-03    -52.9696E+06    -166.665E+06    -44.8582E+06     199.747E+03    -55.5619E-03     111.028E-03    -55.4662E-03     25.4519E-03    -55.5305E-03     110.347E-03    -55.3720E-03     25.3506E-03
             542     3.40615E-03     75.4929E-03    -49.9607E+06    -162.077E+06    -37.9096E+06     727.239E+03    -55.6689E-03     111.150E-03    -55.4815E-03     33.5425E-03    -55.6481E-03     110.487E-03    -55.3636E-03     33.4068E-03
             543     4.25764E-03     75.5309E-03    -46.4566E+06    -156.499E+06    -29.4744E+06     974.749E+03    -55.8147E-03     111.318E-03    -55.5035E-03     41.4780E-03    -55.8094E-03     110.678E-03    -55.3566E-03     41.2983E-03
             544     5.10927E-03     75.5765E-03    -43.1810E+06    -150.248E+06    -20.4789E+06     850.727E+03    -55.9805E-03     111.510E-03    -55.5292E-03     49.3060E-03    -55.9986E-03     110.901E-03    -55.3511E-03     49.0706E-03
             545     5.96070E-03     75.6302E-03    -39.7217E+06    -146.000E+06    -13.8939E+06     1.59117E+06    -56.1269E-03     111.670E-03    -55.5429E-03     56.8530E-03    -56.1674E-03     111.091E-03    -55.3431E-03     56.5644E-03
             546     6.81250E-03     75.6909E-03    -36.3460E+06    -139.249E+06    -10.4447E+06     1.57562E+06    -56.2915E-03     111.824E-03    -55.5329E-03     64.1713E-03    -56.3620E-03     111.302E-03    -55.3306E-03     63.8101E-03
             547     7.66415E-03     75.7590E-03    -33.2440E+06    -126.332E+06    -8.34526E+06     1.17948E+06    -56.5294E-03     112.038E-03    -55.5084E-03     71.4012E-03    -56.6488E-03     111.615E-03    -55.3188E-03     70.9511E-03
             548     8.51545E-03     75.8344E-03    -30.8518E+06    -112.684E+06    -6.44875E+06     1.33169E+06    -56.7127E-03     112.197E-03    -55.4845E-03     78.3425E-03    -56.9000E-03     111.894E-03    -55.3087E-03     77.7959E-03
             549     9.36766E-03     75.9159E-03    -28.4261E+06    -97.3077E+06    -5.11553E+06     1.56574E+06    -56.9092E-03     112.363E-03    -55.4536E-03     85.6691E-03    -57.1873E-03     112.209E-03    -55.2969E-03     85.0102E-03
             550     10.2192E-03     76.0067E-03    -26.1933E+06     -77.605E+06    -4.64819E+06     2.18929E+06    -57.2128E-03     112.628E-03    -55.4151E-03     93.0576E-03    -57.6153E-03     112.675E-03    -55.2878E-03     92.2722E-03
             551     11.0699E-03     76.1030E-03    -24.3725E+06    -52.8481E+06    -4.57883E+06     2.08805E+06    -57.2026E-03     112.567E-03    -55.3642E-03     100.133E-03    -57.7777E-03     112.881E-03    -55.2751E-03     99.1949E-03
             552     11.9235E-03     76.2072E-03    -22.8498E+06    -15.9865E+06    -3.13296E+06     1.71902E+06    -57.2650E-03     112.552E-03    -55.2872E-03     111.008E-03    -58.1270E-03     113.285E-03    -55.2465E-03     109.876E-03
             553     12.7751E-03     76.3249E-03    -22.8643E+06     34.0981E+06    -2.01625E+06     1.48069E+06    -58.1824E-03     113.370E-03    -55.1880E-03     131.392E-03    -59.6019E-03     114.836E-03    -55.2144E-03     129.981E-03
             554     13.6255E-03     76.4689E-03    -22.0694E+06     79.5305E+06     15.1386E+06     528.666E+03    -59.8213E-03     114.992E-03    -55.1704E-03     168.327E-03    -62.4080E-03     117.738E-03    -55.1780E-03     166.547E-03
             555     14.4801E-03     76.6617E-03    -18.4611E+06     114.602E+06     57.3895E+06     1.25306E+06    -64.8177E-03     120.098E-03    -55.2807E-03     236.436E-03    -70.5042E-03     125.960E-03    -55.1332E-03     234.281E-03
             556     15.3295E-03     76.9453E-03    -11.1771E+06     148.790E+06     98.6376E+06     1.03412E+06    -69.6176E-03     124.988E-03    -55.3701E-03     311.647E-03    -81.6913E-03     137.264E-03    -55.0765E-03     310.791E-03
             557     16.1869E-03     77.3001E-03    -5.05540E+06     160.336E+06     111.025E+06     136.481E+03    -64.7509E-03     120.120E-03    -55.3692E-03     245.350E-03    -75.0084E-03     130.607E-03    -55.0392E-03     247.278E-03
             558     851.410E-06     76.4871E-03    -56.8712E+06    -173.725E+06    -55.7284E+06     161.587E+03    -55.5179E-03     110.936E-03    -55.4182E-03     9.37468E-03    -55.4710E-03     110.232E-03    -55.3625E-03     9.34061E-03
             559     1.70299E-03     76.5005E-03    -55.5976E+06    -171.151E+06    -51.5643E+06     388.519E+03    -55.4979E-03     110.965E-03    -55.4669E-03     17.2890E-03    -55.4577E-03     110.269E-03    -55.3960E-03     17.2264E-03
             560     2.55458E-03     76.5219E-03    -53.5616E+06    -167.047E+06    -44.9783E+06     639.202E+03    -55.5735E-03     111.054E-03    -55.4802E-03     25.4573E-03    -55.5444E-03     110.372E-03    -55.3852E-03     25.3616E-03
             561     3.40600E-03     76.5518E-03    -50.7385E+06    -162.444E+06    -37.9391E+06     386.826E+03    -55.6898E-03     111.187E-03    -55.4975E-03     33.5624E-03    -55.6724E-03     110.523E-03    -55.3781E-03     33.4223E-03
             562     4.25759E-03     76.5895E-03    -47.2101E+06    -157.208E+06    -30.0973E+06     652.614E+03    -55.8143E-03     111.331E-03    -55.5168E-03     41.5414E-03    -55.8109E-03     110.689E-03    -55.3708E-03     41.3577E-03
             563     5.10912E-03     76.6354E-03    -43.6280E+06    -150.928E+06    -21.0416E+06     1.47392E+06    -55.9439E-03     111.481E-03    -55.5370E-03     49.3282E-03    -55.9624E-03     110.870E-03    -55.3601E-03     49.1013E-03
             564     5.96085E-03     76.6888E-03    -40.1955E+06    -146.977E+06    -14.8667E+06     1.54969E+06    -56.0981E-03     111.641E-03    -55.5431E-03     56.8124E-03    -56.1381E-03     111.060E-03    -55.3460E-03     56.5235E-03
             565     6.81244E-03     76.7495E-03    -36.5855E+06    -138.681E+06    -10.3139E+06     1.49215E+06    -56.2960E-03     111.830E-03    -55.5342E-03     64.1867E-03    -56.3686E-03     111.311E-03    -55.3316E-03     63.8245E-03
             566     7.66397E-03     76.8179E-03    -33.6215E+06    -126.427E+06    -8.39652E+06     1.17784E+06    -56.4448E-03     111.951E-03    -55.5057E-03     71.4293E-03    -56.5655E-03     111.527E-03    -55.3156E-03     70.9807E-03
             567     8.51612E-03     76.8929E-03    -30.7953E+06    -113.234E+06    -7.18107E+06     1.21596E+06    -56.7563E-03     112.232E-03    -55.4758E-03     78.5530E-03    -56.9417E-03     111.927E-03    -55.3029E-03     78.0050E-03
             568     9.36704E-03     76.9752E-03    -28.4610E+06    -97.4821E+06    -5.09671E+06     1.46643E+06    -57.1092E-03     112.568E-03    -55.4588E-03     85.7946E-03    -57.3885E-03     112.415E-03    -55.3017E-03     85.1306E-03
             569     10.2188E-03     77.0649E-03    -26.2502E+06    -78.7667E+06    -5.20153E+06     1.54643E+06    -57.0454E-03     112.466E-03    -55.4201E-03     93.1023E-03    -57.4448E-03     112.507E-03    -55.2939E-03     92.3119E-03
             570     11.0717E-03     77.1623E-03    -23.9085E+06    -52.5644E+06    -3.91817E+06     1.82039E+06    -57.0632E-03     112.423E-03    -55.3600E-03     100.097E-03    -57.6372E-03     112.737E-03    -55.2687E-03     99.1575E-03
             571     11.9223E-03     77.2646E-03    -22.6481E+06    -16.7079E+06    -2.36998E+06     2.33241E+06    -57.3472E-03     112.632E-03    -55.2847E-03     110.456E-03    -58.2099E-03     113.362E-03    -55.2394E-03     109.327E-03
             572     12.7751E-03     77.3838E-03    -21.3025E+06     34.1664E+06    -488.698E+03     2.66423E+06    -57.7491E-03     112.927E-03    -55.1779E-03     130.774E-03    -59.1571E-03     114.382E-03    -55.1990E-03     129.388E-03
             573     13.6286E-03     77.5280E-03    -20.6101E+06     81.0739E+06     17.3326E+06     2.64637E+06    -59.9260E-03     115.081E-03    -55.1546E-03     167.643E-03    -62.5112E-03     117.830E-03    -55.1556E-03     165.876E-03
             574     14.4797E-03     77.7185E-03    -17.6434E+06     115.494E+06     58.2436E+06     192.930E+03    -65.1227E-03     120.404E-03    -55.2811E-03     235.085E-03    -70.8209E-03     126.280E-03    -55.1317E-03     232.880E-03
             575     15.3341E-03     78.0078E-03    -10.7856E+06     150.435E+06     99.3351E+06    -2.76709E+06    -71.9231E-03     127.396E-03    -55.4732E-03     306.348E-03    -84.0361E-03     139.717E-03    -55.1790E-03     305.091E-03
             576     16.1841E-03     78.3523E-03    -7.07838E+06     159.682E+06     108.797E+06     752.385E+03    -65.3715E-03     120.963E-03    -55.5917E-03     237.985E-03    -75.6639E-03     131.483E-03    -55.2690E-03     239.690E-03
             577     851.638E-06     77.5461E-03    -57.5304E+06    -174.468E+06    -56.4342E+06     287.215E+03    -55.5013E-03     110.910E-03    -55.4082E-03     9.39726E-03    -55.4556E-03     110.204E-03    -55.3540E-03     9.36497E-03
             578     1.70299E-03     77.5591E-03    -55.9677E+06    -171.662E+06    -52.0579E+06     555.720E+03    -55.5496E-03     111.016E-03    -55.4667E-03     17.2564E-03    -55.5098E-03     110.319E-03    -55.3969E-03     17.1959E-03
             579     2.55443E-03     77.5808E-03    -53.5295E+06    -167.516E+06    -45.6827E+06     737.820E+03    -55.5924E-03     111.084E-03    -55.4916E-03     25.4596E-03    -55.5614E-03     110.401E-03    -55.3995E-03     25.3651E-03
             580     3.40607E-03     77.6104E-03    -50.8691E+06    -162.448E+06    -37.7232E+06     894.136E+03    -55.6740E-03     111.184E-03    -55.5101E-03     33.5761E-03    -55.6575E-03     110.520E-03    -55.3894E-03     33.4426E-03
             581     4.25756E-03     77.6484E-03    -48.3181E+06    -157.939E+06    -30.4411E+06     848.132E+03    -55.7987E-03     111.323E-03    -55.5239E-03     41.5672E-03    -55.7993E-03     110.679E-03    -55.3770E-03     41.3861E-03
             582     5.10917E-03     77.6941E-03    -44.5276E+06    -151.927E+06    -22.5302E+06     1.04504E+06    -55.9301E-03     111.465E-03    -55.5353E-03     49.3337E-03    -55.9494E-03     110.853E-03    -55.3631E-03     49.1015E-03
             583     5.96076E-03     77.7475E-03    -40.1716E+06    -146.991E+06    -15.2894E+06     1.30817E+06    -56.1146E-03     111.658E-03    -55.5436E-03     56.8089E-03    -56.1539E-03     111.077E-03    -55.3486E-03     56.5168E-03
             584     6.81238E-03     77.8083E-03    -36.4274E+06    -138.816E+06    -10.4699E+06     1.13904E+06    -56.2724E-03     111.808E-03    -55.5354E-03     64.1510E-03    -56.3437E-03     111.287E-03    -55.3336E-03     63.7845E-03
             585     7.66426E-03     77.8765E-03    -33.1576E+06    -126.344E+06    -7.92950E+06     1.21350E+06    -56.4695E-03     111.979E-03    -55.5092E-03     71.2669E-03    -56.5887E-03     111.555E-03    -55.3176E-03     70.8177E-03
             586     8.51572E-03     77.9513E-03    -30.8987E+06    -113.910E+06    -7.22226E+06     1.26120E+06    -56.7272E-03     112.206E-03    -55.4788E-03     78.5019E-03    -56.9118E-03     111.897E-03    -55.3049E-03     77.9547E-03
             587     9.36770E-03     78.0348E-03    -28.5207E+06    -97.3027E+06    -5.25510E+06     1.20520E+06    -57.0096E-03     112.463E-03    -55.4536E-03     85.9640E-03    -57.2886E-03     112.311E-03    -55.2975E-03     85.2993E-03
             588     10.2190E-03     78.1235E-03    -26.4902E+06    -78.7699E+06    -5.05958E+06     1.04231E+06    -57.2002E-03     112.620E-03    -55.4198E-03     92.7129E-03    -57.6024E-03     112.663E-03    -55.2925E-03     91.9105E-03
             589     11.0706E-03     78.2199E-03    -24.8635E+06    -53.8815E+06    -5.02856E+06     1.49043E+06    -57.2775E-03     112.650E-03    -55.3727E-03     99.5611E-03    -57.8546E-03     112.962E-03    -55.2837E-03     98.6091E-03
             590     11.9231E-03     78.3248E-03    -22.7550E+06    -17.5668E+06    -2.48715E+06     2.26255E+06    -57.4435E-03     112.757E-03    -55.3134E-03     109.774E-03    -58.3069E-03     113.484E-03    -55.2674E-03     108.637E-03
             591     12.7742E-03     78.4408E-03    -21.3631E+06     32.8552E+06    -2.30075E+06     2.90485E+06    -58.0842E-03     113.300E-03    -55.2161E-03     129.250E-03    -59.4927E-03     114.756E-03    -55.2443E-03     127.846E-03
             592     13.6272E-03     78.5846E-03    -17.7158E+06     82.4264E+06     15.0719E+06     2.38690E+06    -60.5451E-03     115.762E-03    -55.2164E-03     166.240E-03    -63.1255E-03     118.528E-03    -55.2349E-03     164.431E-03
             593     14.4774E-03     78.7819E-03    -12.5503E+06     120.553E+06     63.3145E+06     83.5629E+03    -66.4321E-03     121.873E-03    -55.4405E-03     231.788E-03    -72.1650E-03     127.805E-03    -55.2805E-03     229.461E-03
             594     15.3276E-03     79.0588E-03    -13.3505E+06     149.719E+06     100.287E+06     1.24293E+06    -72.7264E-03     128.401E-03    -55.6750E-03     310.331E-03    -84.9388E-03     140.806E-03    -55.3713E-03     309.077E-03
             595     16.1621E-03     79.4321E-03    -9.59201E+06     157.348E+06     105.657E+06     969.197E+03    -62.6815E-03     118.347E-03    -55.6654E-03     244.079E-03    -72.9648E-03     128.849E-03    -55.3514E-03     245.954E-03
             596     851.410E-06     78.6046E-03    -57.8867E+06    -175.000E+06    -56.9344E+06     238.730E+03    -55.4980E-03     110.962E-03    -55.4638E-03     9.39200E-03    -55.4525E-03     110.255E-03    -55.4108E-03     9.35916E-03
             597     1.70298E-03     78.6181E-03    -56.3396E+06    -172.278E+06    -52.7348E+06     414.626E+03    -55.5298E-03     111.012E-03    -55.4823E-03     17.2529E-03    -55.4899E-03     110.314E-03    -55.4145E-03     17.1906E-03
             598     2.55447E-03     78.6394E-03    -54.0754E+06    -168.018E+06    -46.0347E+06     588.844E+03    -55.6002E-03     111.100E-03    -55.4996E-03     25.4691E-03    -55.5707E-03     110.415E-03    -55.4078E-03     25.3728E-03
             599     3.40594E-03     78.6693E-03      -51.05E+06    -163.361E+06    -38.9540E+06     1.12853E+06    -55.6745E-03     111.187E-03    -55.5129E-03     33.5625E-03    -55.6558E-03     110.520E-03    -55.3968E-03     33.4319E-03
             600     4.25757E-03     78.7071E-03    -47.6146E+06    -157.924E+06    -30.7306E+06     1.39320E+06    -55.7860E-03     111.312E-03    -55.5256E-03     41.5366E-03    -55.7826E-03     110.668E-03    -55.3812E-03     41.3627E-03
             601     5.10916E-03     78.7528E-03    -44.5450E+06    -152.194E+06    -22.3555E+06     908.169E+03    -55.9401E-03     111.480E-03    -55.5395E-03     49.2917E-03    -55.9595E-03     110.865E-03    -55.3660E-03     49.0574E-03
             602     5.96078E-03     78.8062E-03    -40.9127E+06    -147.079E+06    -15.9492E+06     542.641E+03    -56.1174E-03     111.663E-03    -55.5452E-03     56.8291E-03    -56.1593E-03     111.083E-03    -55.3523E-03     56.5272E-03
             603     6.81239E-03     78.8671E-03    -37.0972E+06    -139.077E+06    -11.0938E+06     691.412E+03    -56.3320E-03     111.873E-03    -55.5410E-03     64.0464E-03    -56.4055E-03     111.353E-03    -55.3410E-03     63.6730E-03
             604     7.66400E-03     78.9349E-03    -33.9262E+06    -126.994E+06    -8.36824E+06     1.16918E+06    -56.5720E-03     112.097E-03    -55.5252E-03     71.2221E-03    -56.6941E-03     111.672E-03    -55.3337E-03     70.7703E-03
             605     8.51548E-03     79.0108E-03    -30.8708E+06    -113.402E+06    -7.03871E+06     1.09231E+06    -56.7213E-03     112.221E-03    -55.4993E-03     78.3044E-03    -56.9070E-03     111.915E-03    -55.3253E-03     77.7540E-03
             606     9.36733E-03     79.0922E-03    -28.4979E+06    -98.0834E+06    -5.95249E+06     886.356E+03    -56.8934E-03     112.359E-03    -55.4654E-03     85.6433E-03    -57.1690E-03     112.202E-03    -55.3117E-03     84.9764E-03
             607     10.2194E-03     79.1837E-03    -26.7093E+06    -79.1157E+06    -5.59650E+06     1.21851E+06    -57.4251E-03     112.861E-03    -55.4357E-03     92.5689E-03    -57.8282E-03     112.904E-03    -55.3102E-03     91.7642E-03
             608     11.0701E-03     79.2786E-03    -25.2453E+06    -54.3619E+06    -5.56051E+06     1.22947E+06    -57.6277E-03     113.038E-03    -55.4107E-03     99.2473E-03    -58.2074E-03     113.352E-03    -55.3231E-03     98.2836E-03
             609     11.9213E-03     79.3831E-03    -23.8296E+06    -19.0556E+06    -3.41116E+06     1.91359E+06    -57.6942E-03     113.067E-03    -55.3724E-03     109.366E-03    -58.5604E-03     113.790E-03    -55.3273E-03     108.218E-03
             610     12.7742E-03     79.4995E-03    -20.8717E+06     33.3671E+06    -3.12138E+06     1.56553E+06    -59.0052E-03     114.311E-03    -55.3057E-03     129.306E-03    -60.4224E-03     115.781E-03    -55.3395E-03     127.856E-03
             611     13.6226E-03     79.6459E-03    -17.8090E+06     83.9207E+06     16.4599E+06    -470.403E+03    -61.5795E-03     116.950E-03    -55.3704E-03     166.896E-03    -64.1890E-03     119.746E-03    -55.3840E-03     165.010E-03
             612     14.4755E-03     79.8382E-03    -16.6549E+06     117.810E+06     61.1191E+06     2.41299E+06    -66.7546E-03     122.358E-03    -55.6038E-03     235.493E-03    -72.5203E-03     128.306E-03    -55.4448E-03     233.211E-03
             613     15.3194E-03     80.1301E-03    -12.4507E+06     148.101E+06     98.3387E+06     6.14145E+06    -66.3375E-03     121.954E-03    -55.6166E-03     313.493E-03    -77.9674E-03     133.780E-03    -55.3216E-03     313.048E-03
             614     16.2020E-03     80.4769E-03    -4.98247E+06     161.168E+06     110.336E+06     979.361E+03    -61.1987E-03     116.570E-03    -55.3717E-03     249.746E-03    -71.0381E-03     126.646E-03    -55.0465E-03     252.117E-03
             615     851.442E-06     79.6636E-03    -58.1241E+06    -175.419E+06    -57.3373E+06     138.185E+03    -55.5126E-03     110.996E-03    -55.4836E-03     9.44093E-03    -55.4672E-03     110.288E-03    -55.4317E-03     9.40679E-03
             616     1.70292E-03     79.6767E-03    -56.8090E+06    -172.781E+06    -53.0839E+06     301.787E+03    -55.5144E-03     111.008E-03    -55.4931E-03     17.2895E-03    -55.4757E-03     110.308E-03    -55.4256E-03     17.2257E-03
             617     2.55447E-03     79.6983E-03    -54.6508E+06    -168.803E+06    -46.8009E+06     764.072E+03    -55.5825E-03     111.082E-03    -55.4994E-03     25.4779E-03    -55.5537E-03     110.396E-03    -55.4094E-03     25.3839E-03
             618     3.40598E-03     79.7280E-03    -51.8265E+06    -163.979E+06    -39.4281E+06     756.670E+03    -55.6954E-03     111.209E-03    -55.5138E-03     33.5832E-03    -55.6790E-03     110.541E-03    -55.3980E-03     33.4479E-03
             619     4.25754E-03     79.7657E-03    -48.2313E+06    -158.533E+06    -31.2743E+06     958.822E+03    -55.8152E-03     111.346E-03    -55.5311E-03     41.5197E-03    -55.8133E-03     110.701E-03    -55.3876E-03     41.3400E-03
             620     5.10910E-03     79.8116E-03    -44.1508E+06    -151.886E+06    -22.3077E+06     1.18514E+06    -55.9513E-03     111.499E-03    -55.5477E-03     49.2508E-03    -55.9693E-03     110.886E-03    -55.3750E-03     49.0199E-03
             621     5.96070E-03     79.8649E-03    -41.0064E+06    -146.839E+06    -15.8526E+06     818.364E+03    -56.1469E-03     111.703E-03    -55.5562E-03     56.7429E-03    -56.1897E-03     111.125E-03    -55.3631E-03     56.4441E-03
             622     6.81236E-03     79.9259E-03    -38.1356E+06    -139.436E+06    -11.6015E+06     591.673E+03    -56.4103E-03     111.967E-03    -55.5569E-03     64.0788E-03    -56.4879E-03     111.448E-03    -55.3574E-03     63.7034E-03
             623     7.66364E-03     79.9941E-03    -34.5914E+06    -127.348E+06    -9.34408E+06     269.345E+03    -56.6011E-03     112.144E-03    -55.5428E-03     71.2182E-03    -56.7247E-03     111.720E-03    -55.3547E-03     70.7539E-03
             624     8.51557E-03     80.0690E-03    -31.1697E+06    -113.512E+06    -7.91918E+06     407.949E+03    -56.8150E-03     112.335E-03    -55.5204E-03     78.3280E-03    -57.0010E-03     112.031E-03    -55.3503E-03     77.7677E-03
             625     9.36680E-03     80.1518E-03    -28.7581E+06    -98.2759E+06    -6.33336E+06     899.745E+03    -57.1442E-03     112.647E-03    -55.5024E-03     85.6151E-03    -57.4213E-03     112.491E-03    -55.3498E-03     84.9441E-03
             626     10.2183E-03     80.2413E-03    -26.5849E+06    -79.7501E+06    -6.21498E+06     1.03640E+06    -57.3189E-03     112.793E-03    -55.4745E-03     92.7530E-03    -57.7176E-03     112.833E-03    -55.3514E-03     91.9507E-03
             627     11.0700E-03     80.3398E-03    -24.9813E+06    -55.1320E+06    -5.87343E+06     1.54165E+06    -57.5363E-03     112.975E-03    -55.4392E-03     99.4414E-03    -58.1113E-03     113.283E-03    -55.3524E-03     98.4864E-03
             628     11.9215E-03     80.4406E-03    -23.1203E+06    -18.9780E+06    -4.28987E+06     1.06074E+06    -58.2065E-03     113.612E-03    -55.4050E-03     110.539E-03    -59.0733E-03     114.341E-03    -55.3655E-03     109.370E-03
             629     12.7710E-03     80.5611E-03    -20.9893E+06     34.7458E+06    -640.208E+03    -93.8828E+03    -59.4353E-03     114.812E-03    -55.3765E-03     131.382E-03    -60.8663E-03     116.293E-03    -55.3996E-03     129.902E-03
             630     13.6244E-03     80.7046E-03    -21.6851E+06     82.0029E+06     17.4071E+06     1.90472E+06    -61.6883E-03     117.134E-03    -55.4455E-03     169.539E-03    -64.3257E-03     119.935E-03    -55.4459E-03     167.685E-03
             631     14.4707E-03     80.9029E-03    -20.6228E+06     112.833E+06     55.0107E+06     3.82542E+06    -63.6215E-03     119.161E-03    -55.5397E-03     238.098E-03    -69.2553E-03     124.963E-03    -55.3984E-03     236.087E-03
             632     15.3349E-03     81.1826E-03    -10.2247E+06     149.413E+06     97.9427E+06     1.95180E+06    -64.9302E-03     120.400E-03    -55.4699E-03     303.796E-03    -76.2533E-03     131.934E-03    -55.1821E-03     303.310E-03
             633     16.1833E-03     81.5080E-03    -3.12614E+06     164.957E+06     113.396E+06     1.05381E+06    -63.2917E-03     118.630E-03    -55.3385E-03     247.468E-03    -73.2703E-03     128.856E-03    -55.0062E-03     249.640E-03
             634     851.512E-06     80.7223E-03    -58.7096E+06    -175.867E+06    -57.4797E+06     248.807E+03    -55.5180E-03     110.952E-03    -55.4337E-03     9.45613E-03    -55.4746E-03     110.242E-03    -55.3810E-03     9.42357E-03
             635     1.70296E-03     80.7356E-03    -57.3696E+06    -173.340E+06    -53.4650E+06     472.186E+03    -55.5418E-03     111.023E-03    -55.4813E-03     17.2949E-03    -55.5045E-03     110.322E-03    -55.4141E-03     17.2334E-03
             636     2.55443E-03     80.7570E-03    -54.9610E+06    -169.358E+06    -47.4048E+06     481.369E+03    -55.5948E-03     111.093E-03    -55.4981E-03     25.4626E-03    -55.5658E-03     110.405E-03    -55.4099E-03     25.3649E-03
             637     3.40606E-03     80.7868E-03    -51.9032E+06    -164.207E+06    -39.6104E+06     733.557E+03    -55.7099E-03     111.227E-03    -55.5171E-03     33.5715E-03    -55.6933E-03     110.558E-03    -55.4018E-03     33.4359E-03
             638     4.25744E-03     80.8247E-03    -48.7717E+06    -158.942E+06    -31.5818E+06     692.320E+03    -55.8398E-03     111.378E-03    -55.5381E-03     41.4895E-03    -55.8396E-03     110.732E-03    -55.3948E-03     41.3060E-03
             639     5.10905E-03     80.8702E-03    -45.2173E+06    -152.136E+06    -23.2588E+06     651.366E+03    -55.9868E-03     111.543E-03    -55.5562E-03     49.2882E-03    -56.0084E-03     110.931E-03    -55.3864E-03     49.0503E-03
             640     5.96060E-03     80.9239E-03    -40.7736E+06    -146.798E+06    -15.7927E+06     885.544E+03    -56.2072E-03     111.780E-03    -55.5727E-03     56.7943E-03    -56.2491E-03     111.202E-03    -55.3796E-03     56.4959E-03
             641     6.81200E-03     80.9846E-03    -36.5642E+06    -139.043E+06    -11.3308E+06     398.764E+03    -56.3955E-03     111.968E-03    -55.5723E-03     64.1727E-03    -56.4663E-03     111.448E-03    -55.3743E-03     63.7952E-03
             642     7.66383E-03     81.0531E-03    -33.4605E+06    -126.988E+06    -9.67379E+06    -139.673E+03    -56.6288E-03     112.182E-03    -55.5535E-03     71.3211E-03    -56.7467E-03     111.759E-03    -55.3692E-03     70.8521E-03
             643     8.51501E-03     81.1278E-03    -31.4426E+06    -114.423E+06    -8.82129E+06     152.363E+03    -56.9271E-03     112.464E-03    -55.5365E-03     78.5034E-03    -57.1121E-03     112.156E-03    -55.3691E-03     77.9387E-03
             644     9.36683E-03     81.2109E-03    -28.9148E+06    -98.6340E+06    -6.95596E+06     496.327E+03    -57.1518E-03     112.673E-03    -55.5214E-03     86.0988E-03    -57.4282E-03     112.517E-03    -55.3712E-03     85.4241E-03
             645     10.2177E-03     81.3011E-03    -26.7372E+06    -80.4332E+06    -6.94492E+06     755.376E+03    -57.1771E-03     112.661E-03    -55.4841E-03     93.3298E-03    -57.5739E-03     112.698E-03    -55.3634E-03     92.5285E-03
             646     11.0701E-03     81.3968E-03    -24.4011E+06    -55.7550E+06    -6.45305E+06     902.338E+03    -57.3814E-03     112.814E-03    -55.4324E-03     100.416E-03    -57.9505E-03     113.117E-03    -55.3485E-03     99.4592E-03
             647     11.9213E-03     81.5021E-03    -22.6527E+06    -17.7426E+06    -4.18542E+06     601.065E+03    -58.0950E-03     113.480E-03    -55.3854E-03     111.654E-03    -58.9626E-03     114.217E-03    -55.3477E-03     110.484E-03
             648     12.7739E-03     81.6198E-03    -23.9593E+06     33.2408E+06    -2.74182E+06     1.94278E+06    -59.3427E-03     114.686E-03    -55.3428E-03     133.235E-03    -60.7954E-03     116.179E-03    -55.3700E-03     131.780E-03
             649     13.6218E-03     81.7671E-03    -23.5319E+06     79.2742E+06     13.0218E+06     3.98213E+06    -60.1736E-03     115.520E-03    -55.3464E-03     170.731E-03    -62.7847E-03     118.291E-03    -55.3621E-03     168.976E-03
             650     14.4795E-03     81.9598E-03    -18.2307E+06     115.554E+06     56.0199E+06     2.25877E+06    -61.8147E-03     117.188E-03    -55.3737E-03     233.815E-03    -67.3350E-03     122.892E-03    -55.2347E-03     231.894E-03
             651     15.3324E-03     82.2297E-03    -12.0476E+06     150.511E+06     98.8640E+06    -784.142E+03    -70.0628E-03     125.485E-03    -55.4217E-03     306.229E-03    -82.0366E-03     137.663E-03    -55.1281E-03     305.186E-03
             652     16.1768E-03     82.5892E-03    -5.82045E+06     163.626E+06     111.086E+06     426.482E+03    -65.4325E-03     120.893E-03    -55.4602E-03     251.217E-03    -76.0167E-03     131.716E-03    -55.1336E-03     253.001E-03
             653     851.510E-06     81.7811E-03    -59.3087E+06    -176.651E+06    -58.3581E+06     417.116E+03    -55.4960E-03     110.923E-03    -55.4269E-03     9.43135E-03    -55.4533E-03     110.212E-03    -55.3766E-03     9.40092E-03
             654     1.70299E-03     81.7943E-03    -57.7493E+06    -173.780E+06    -53.8658E+06     505.075E+03    -55.5441E-03     111.015E-03    -55.4708E-03     17.2948E-03    -55.5075E-03     110.313E-03    -55.4044E-03     17.2338E-03
             655     2.55449E-03     81.8159E-03    -55.5810E+06    -169.490E+06    -47.0951E+06     465.037E+03    -55.6316E-03     111.133E-03    -55.5009E-03     25.4701E-03    -55.6060E-03     110.444E-03    -55.4100E-03     25.3721E-03
             656     3.40583E-03     81.8455E-03    -52.6380E+06    -164.760E+06    -39.9901E+06     481.831E+03    -55.7001E-03     111.222E-03    -55.5222E-03     33.6115E-03    -55.6858E-03     110.552E-03    -55.4069E-03     33.4728E-03
             657     4.25755E-03     81.8835E-03    -49.0318E+06    -159.219E+06    -31.9112E+06     754.011E+03    -55.8352E-03     111.375E-03    -55.5398E-03     41.5620E-03    -55.8353E-03     110.728E-03    -55.3974E-03     41.3797E-03
             658     5.10899E-03     81.9291E-03    -45.6977E+06    -152.271E+06    -23.6061E+06     793.647E+03    -56.0190E-03     111.578E-03    -55.5594E-03     49.3762E-03    -56.0422E-03     110.967E-03    -55.3904E-03     49.1403E-03
             659     5.96049E-03     81.9828E-03    -42.2785E+06    -146.191E+06    -18.5096E+06    -192.560E+03    -56.1889E-03     111.754E-03    -55.5649E-03     56.9895E-03    -56.2352E-03     111.185E-03    -55.3842E-03     56.6781E-03
             660     6.81213E-03     82.0435E-03    -38.3681E+06    -138.779E+06    -14.1515E+06    -656.561E+03    -56.3707E-03     111.932E-03    -55.5616E-03     64.3320E-03    -56.4466E-03     111.420E-03    -55.3755E-03     63.9419E-03
             661     7.66360E-03     82.1117E-03    -34.9018E+06    -127.303E+06    -10.8384E+06    -181.608E+03    -56.6181E-03     112.167E-03    -55.5488E-03     71.6439E-03    -56.7410E-03     111.745E-03    -55.3678E-03     71.1757E-03
             662     8.51531E-03     82.1873E-03    -31.7041E+06    -114.384E+06    -9.29622E+06    -274.514E+03    -56.8625E-03     112.391E-03    -55.5283E-03     78.9307E-03    -57.0482E-03     112.085E-03    -55.3629E-03     78.3624E-03
             663     9.36639E-03     82.2696E-03    -29.3388E+06    -99.6984E+06    -8.06998E+06    -137.706E+03    -56.8897E-03     112.386E-03    -55.4963E-03     86.4335E-03    -57.1642E-03     112.226E-03    -55.3495E-03     85.7557E-03
             664     10.2193E-03     82.3596E-03    -26.9962E+06    -81.1268E+06    -7.66428E+06     261.103E+03    -57.0512E-03     112.495E-03    -55.4440E-03     93.6670E-03    -57.4469E-03     112.529E-03    -55.3256E-03     92.8623E-03
             665     11.0702E-03     82.4563E-03    -25.2893E+06    -54.8584E+06    -6.69969E+06     219.829E+03    -57.4124E-03     112.803E-03    -55.3907E-03     101.049E-03    -57.9892E-03     113.115E-03    -55.3080E-03     100.083E-03
             666     11.9224E-03     82.5606E-03    -24.8581E+06    -19.0647E+06    -5.01509E+06     1.56299E+06    -57.8671E-03     113.207E-03    -55.3403E-03     112.238E-03    -58.7480E-03     113.947E-03    -55.3017E-03     111.080E-03
             667     12.7728E-03     82.6798E-03    -23.7357E+06     30.1116E+06    -6.82047E+06     3.84601E+06    -58.4249E-03     113.669E-03    -55.2442E-03     133.610E-03    -59.8634E-03     115.150E-03    -55.2875E-03     132.206E-03
             668     13.6275E-03     82.8272E-03    -21.0515E+06      80.613E+06     11.5351E+06     3.05178E+06    -58.7600E-03     113.948E-03    -55.1879E-03     168.578E-03    -61.3075E-03     116.673E-03    -55.2166E-03     166.882E-03
             669     14.4792E-03     83.0119E-03    -17.1528E+06     118.615E+06     58.7606E+06     962.345E+03    -63.2635E-03     118.518E-03    -55.2541E-03     232.017E-03    -68.8461E-03     124.290E-03    -55.1074E-03     229.961E-03
             670     15.3327E-03     83.2923E-03    -12.4371E+06     150.872E+06     99.2356E+06     351.811E+03    -70.8645E-03     126.213E-03    -55.3484E-03     312.400E-03    -83.1044E-03     138.656E-03    -55.0530E-03     311.309E-03
             671     16.1867E-03     83.6560E-03    -6.03895E+06     163.354E+06     111.033E+06     354.106E+03    -65.6406E-03     121.024E-03    -55.3834E-03     248.375E-03    -76.0883E-03     131.708E-03    -55.0564E-03     250.070E-03
             672     851.469E-06     82.8396E-03    -60.0328E+06    -177.305E+06    -59.0128E+06     250.715E+03    -55.4951E-03     110.941E-03    -55.4463E-03     9.43202E-03    -55.4541E-03     110.229E-03    -55.3972E-03     9.39955E-03
             673     1.70300E-03     82.8533E-03    -58.4360E+06    -174.315E+06    -54.3490E+06     439.247E+03    -55.5228E-03     110.997E-03    -55.4747E-03     17.3249E-03    -55.4881E-03     110.294E-03    -55.4090E-03     17.2633E-03
             674     2.55443E-03     82.8745E-03    -55.8856E+06    -169.868E+06    -47.5436E+06     631.512E+03    -55.6022E-03     111.096E-03    -55.4941E-03     25.5149E-03    -55.5768E-03     110.407E-03    -55.4045E-03     25.4194E-03
             675     3.40605E-03     82.9045E-03    -53.0557E+06    -164.823E+06    -39.8721E+06     595.379E+03    -55.6957E-03     111.210E-03    -55.5147E-03     33.6372E-03    -55.6835E-03     110.540E-03    -55.3981E-03     33.5002E-03
             676     4.25749E-03     82.9420E-03    -50.0264E+06    -159.941E+06    -32.4160E+06     672.904E+03    -55.8300E-03     111.362E-03    -55.5320E-03     41.6603E-03    -55.8332E-03     110.714E-03    -55.3897E-03     41.4776E-03
             677     5.10904E-03     82.9883E-03    -45.8466E+06    -151.638E+06    -25.3295E+06     274.532E+03    -55.9890E-03     111.530E-03    -55.5407E-03     49.4825E-03    -56.0113E-03     110.924E-03    -55.3810E-03     49.2407E-03
             678     5.96066E-03     83.0412E-03    -41.6420E+06    -144.622E+06    -19.2970E+06    -666.617E+03    -56.1441E-03     111.688E-03    -55.5439E-03     57.0569E-03    -56.1882E-03     111.127E-03    -55.3703E-03     56.7400E-03
             679     6.81224E-03     83.1026E-03    -38.3253E+06    -138.986E+06    -14.2592E+06    -1.13858E+06    -56.3339E-03     111.877E-03    -55.5434E-03     64.4685E-03    -56.4090E-03     111.364E-03    -55.3575E-03     64.0731E-03
             680     7.66389E-03     83.1703E-03    -35.0722E+06    -127.671E+06    -11.4395E+06    -1.05279E+06    -56.5375E-03     112.061E-03    -55.5233E-03     71.8903E-03    -56.6597E-03     111.638E-03    -55.3446E-03     71.4123E-03
             681     8.51542E-03     83.2463E-03    -32.1909E+06    -114.537E+06    -10.0178E+06    -874.995E+03    -56.6350E-03     112.124E-03    -55.4889E-03     79.0523E-03    -56.8210E-03     111.818E-03    -55.3263E-03     78.4800E-03
             682     9.36781E-03     83.3282E-03    -29.5007E+06    -99.8728E+06    -8.30744E+06    -759.287E+03    -56.8296E-03     112.278E-03    -55.4488E-03     86.3591E-03    -57.1045E-03     112.118E-03    -55.3027E-03     85.6732E-03
             683     10.2188E-03     83.4181E-03    -27.3666E+06    -80.9478E+06    -7.89291E+06    -385.347E+03    -57.1158E-03     112.517E-03    -55.4008E-03     93.5828E-03    -57.5143E-03     112.553E-03    -55.2832E-03     92.7672E-03
             684     11.0714E-03     83.5152E-03    -25.9480E+06    -56.3507E+06    -7.58143E+06     740.375E+03    -57.3079E-03     112.658E-03    -55.3498E-03     100.791E-03    -57.8854E-03     112.965E-03    -55.2684E-03     99.8311E-03
             685     11.9225E-03     83.6197E-03    -24.5348E+06    -22.3687E+06    -6.33675E+06     2.17196E+06    -57.5089E-03     112.794E-03    -55.2852E-03     112.304E-03    -58.3813E-03     113.518E-03    -55.2488E-03     111.162E-03
             686     12.7753E-03     83.7391E-03    -22.2685E+06     29.7284E+06    -5.94027E+06     2.66501E+06    -57.5248E-03     112.682E-03    -55.1575E-03     132.742E-03    -58.9371E-03     114.138E-03    -55.1981E-03     131.362E-03
             687     13.6272E-03     83.8823E-03    -19.8108E+06     81.7048E+06     11.6229E+06     2.33771E+06    -58.6357E-03     113.710E-03    -55.0744E-03     166.634E-03    -61.1543E-03     116.415E-03    -55.1061E-03     164.939E-03
             688     14.4827E-03     84.0707E-03    -16.8402E+06     119.828E+06     58.0564E+06     1.48338E+06    -64.8020E-03     119.987E-03    -55.1849E-03     233.034E-03    -70.4532E-03     125.835E-03    -55.0439E-03     230.847E-03
             689     15.3320E-03     84.3534E-03    -11.9409E+06     152.184E+06     100.265E+06     692.723E+03    -70.9321E-03     126.276E-03    -55.3439E-03     309.533E-03    -82.9331E-03     138.484E-03    -55.0459E-03     308.438E-03
             690     16.1856E-03     84.7077E-03    -6.28747E+06     163.469E+06     111.109E+06     331.349E+03    -64.9423E-03     120.330E-03    -55.3877E-03     244.503E-03    -75.1108E-03     130.734E-03    -55.0601E-03     246.288E-03
             691     851.462E-06     83.8988E-03    -60.5698E+06    -177.681E+06    -59.3892E+06     137.953E+03    -55.5023E-03     110.957E-03    -55.4548E-03     9.43392E-03    -55.4629E-03     110.244E-03    -55.4063E-03     9.40005E-03
             692     1.70294E-03     83.9116E-03    -58.8968E+06    -174.777E+06    -54.9496E+06     302.959E+03    -55.4964E-03     110.971E-03    -55.4751E-03     17.3425E-03    -55.4625E-03     110.267E-03    -55.4110E-03     17.2792E-03
             693     2.55454E-03     83.9336E-03    -56.3539E+06    -170.308E+06    -48.1632E+06     343.749E+03    -55.5576E-03     111.039E-03    -55.4819E-03     25.5257E-03    -55.5331E-03     110.350E-03    -55.3940E-03     25.4268E-03
             694     3.40603E-03     83.9629E-03    -53.0236E+06    -165.220E+06    -40.5511E+06     636.948E+03    -55.6858E-03     111.182E-03    -55.4962E-03     33.6489E-03    -55.6719E-03     110.511E-03    -55.3825E-03     33.5126E-03
             695     4.25756E-03     84.0012E-03    -49.3418E+06    -159.821E+06    -32.5603E+06     520.958E+03    -55.8165E-03     111.331E-03    -55.5148E-03     41.6816E-03    -55.8163E-03     110.683E-03    -55.3743E-03     41.4970E-03
             696     5.10921E-03     84.0465E-03    -45.8771E+06    -150.222E+06    -25.9525E+06    -547.106E+03    -55.9353E-03     111.452E-03    -55.5171E-03     49.5145E-03    -55.9589E-03     110.855E-03    -55.3625E-03     49.2624E-03
             697     5.96073E-03     84.1006E-03    -42.2460E+06    -143.647E+06    -20.3929E+06    -1.47483E+06    -56.0888E-03     111.603E-03    -55.5145E-03     57.0638E-03    -56.1358E-03     111.049E-03    -55.3469E-03     56.7368E-03
             698     6.81244E-03     84.1607E-03    -38.3584E+06    -138.641E+06    -14.7755E+06    -1.80616E+06    -56.2802E-03     111.793E-03    -55.5131E-03     64.5337E-03    -56.3552E-03     111.283E-03    -55.3303E-03     64.1299E-03
             699     7.66412E-03     84.2297E-03    -35.0743E+06    -127.827E+06    -12.3160E+06    -1.68853E+06    -56.4380E-03     111.925E-03    -55.4866E-03     71.8158E-03    -56.5585E-03     111.502E-03    -55.3120E-03     71.3306E-03
             700     8.51606E-03     84.3044E-03    -32.3163E+06    -114.707E+06    -10.8340E+06    -1.52266E+06    -56.6038E-03     112.054E-03    -55.4499E-03     78.7554E-03    -56.7891E-03     111.748E-03    -55.2909E-03     78.1741E-03
             701     9.36756E-03     84.3869E-03    -29.7898E+06    -99.9785E+06    -9.02439E+06    -1.35468E+06    -56.8654E-03     112.280E-03    -55.4149E-03     86.0944E-03    -57.1407E-03     112.121E-03    -55.2718E-03     85.3995E-03
             702     10.2198E-03     84.4771E-03    -27.6918E+06    -81.7800E+06    -8.87174E+06    -594.604E+03    -57.1482E-03     112.521E-03    -55.3728E-03     93.4970E-03    -57.5460E-03     112.556E-03    -55.2585E-03     92.6780E-03
             703     11.0706E-03     84.5737E-03    -25.9734E+06    -58.6864E+06    -8.89424E+06     459.652E+03    -57.1434E-03     112.463E-03    -55.3193E-03     100.677E-03    -57.7156E-03     112.760E-03    -55.2410E-03     99.7165E-03
             704     11.9234E-03     84.6782E-03    -24.1404E+06    -24.1951E+06    -6.87678E+06     1.68394E+06    -57.0404E-03     112.278E-03    -55.2375E-03     111.885E-03    -57.9006E-03     112.986E-03    -55.2018E-03     110.753E-03
             705     12.7755E-03     84.7964E-03    -22.3120E+06     30.0124E+06    -5.32695E+06     1.80540E+06    -57.2596E-03     112.355E-03    -55.0956E-03     131.197E-03    -58.6565E-03     113.795E-03    -55.1334E-03     129.821E-03
             706     13.6300E-03     84.9397E-03    -20.4291E+06     81.6394E+06     11.2747E+06     1.42274E+06    -59.6633E-03     114.704E-03    -55.0406E-03     165.905E-03    -62.1976E-03     117.423E-03    -55.0730E-03     164.144E-03
             707     14.4801E-03     85.1286E-03    -17.1708E+06     120.421E+06     56.9852E+06     1.67246E+06    -65.8052E-03     121.016E-03    -55.2113E-03     232.834E-03    -71.4687E-03     126.881E-03    -55.0761E-03     230.584E-03
             708     15.3315E-03     85.4162E-03    -11.5091E+06     153.090E+06     100.209E+06     1.40399E+06    -71.3662E-03     126.784E-03    -55.4176E-03     308.309E-03    -83.2916E-03     138.921E-03    -55.1219E-03     307.167E-03
             709     16.1787E-03     85.7641E-03    -5.42964E+06     164.056E+06     111.583E+06     670.775E+03    -64.2885E-03     119.744E-03    -55.4556E-03     246.326E-03    -74.4724E-03     130.168E-03    -55.1277E-03     248.191E-03
             710     851.490E-06     84.9571E-03    -60.7188E+06    -177.866E+06    -59.8806E+06    -8.20317E+03    -55.4709E-03     110.928E-03    -55.4573E-03     9.42706E-03    -55.4312E-03     110.215E-03    -55.4108E-03     9.39120E-03
             711     1.70299E-03     84.9707E-03    -59.1609E+06    -175.013E+06    -55.3272E+06     43.4204E+03    -55.4833E-03     110.944E-03    -55.4606E-03     17.3243E-03    -55.4498E-03     110.239E-03    -55.3976E-03     17.2576E-03
             712     2.55452E-03     84.9919E-03    -56.7416E+06    -170.597E+06    -48.4928E+06     199.458E+03    -55.5449E-03     111.013E-03    -55.4682E-03     25.5534E-03    -55.5214E-03     110.323E-03    -55.3810E-03     25.4528E-03
             713     3.40609E-03     85.0221E-03    -53.5158E+06    -165.391E+06    -40.8063E+06    -48.1864E+03    -55.6562E-03     111.138E-03    -55.4813E-03     33.6897E-03    -55.6441E-03     110.467E-03    -55.3680E-03     33.5448E-03
             714     4.25772E-03     85.0595E-03    -49.3963E+06    -159.331E+06    -32.2198E+06    -369.644E+03    -55.7857E-03     111.284E-03    -55.4984E-03     41.6800E-03    -55.7870E-03     110.638E-03    -55.3569E-03     41.4839E-03
             715     5.10917E-03     85.1057E-03    -45.2017E+06    -148.914E+06    -24.6781E+06    -759.617E+03    -55.8921E-03     111.392E-03    -55.5003E-03     49.4765E-03    -55.9160E-03     110.799E-03    -55.3422E-03     49.2217E-03
             716     5.96102E-03     85.1586E-03    -41.8307E+06    -142.244E+06    -20.1452E+06    -1.83381E+06    -56.0542E-03     111.544E-03    -55.4902E-03     57.0283E-03    -56.1016E-03     110.997E-03    -55.3240E-03     56.6967E-03
             717     6.81264E-03     85.2200E-03    -38.9711E+06    -138.236E+06    -16.2011E+06    -2.44645E+06    -56.2648E-03     111.748E-03    -55.4835E-03     64.4303E-03    -56.3415E-03     111.243E-03    -55.3076E-03     64.0179E-03
             718     7.66435E-03     85.2877E-03    -35.7458E+06    -127.729E+06    -13.5511E+06    -2.59259E+06    -56.4175E-03     111.878E-03    -55.4600E-03     71.5682E-03    -56.5396E-03     111.459E-03    -55.2908E-03     71.0707E-03
             719     8.51603E-03     85.3633E-03    -32.3277E+06    -114.705E+06    -11.9296E+06    -2.53300E+06    -56.6624E-03     112.090E-03    -55.4278E-03     78.7120E-03    -56.8463E-03     111.787E-03    -55.2742E-03     78.1170E-03
             720     9.36774E-03     85.4456E-03    -29.6762E+06    -100.290E+06    -10.0036E+06    -1.95775E+06    -56.9122E-03     112.312E-03    -55.4000E-03     86.0347E-03    -57.1851E-03     112.153E-03    -55.2616E-03     85.3315E-03
             721     10.2193E-03     85.5354E-03    -27.4344E+06    -83.7099E+06    -10.1338E+06    -1.11015E+06    -56.9393E-03     112.293E-03    -55.3533E-03     93.3806E-03    -57.3303E-03     112.318E-03    -55.2428E-03     92.5588E-03
             722     11.0719E-03     85.6330E-03    -25.3765E+06    -60.0389E+06    -9.83304E+06    -128.519E+03    -56.9292E-03     112.214E-03    -55.2850E-03     100.497E-03    -57.4920E-03     112.502E-03    -55.2103E-03     99.5354E-03
             723     11.9236E-03     85.7353E-03    -23.3850E+06    -24.6293E+06    -7.76688E+06     847.062E+03    -57.0209E-03     112.217E-03    -55.1963E-03     111.326E-03    -57.8697E-03     112.918E-03    -55.1655E-03     110.188E-03
             724     12.7765E-03     85.8551E-03    -22.0560E+06     29.1548E+06    -7.09535E+06     1.55588E+06    -57.7442E-03     112.816E-03    -55.0713E-03     130.298E-03    -59.1320E-03     114.249E-03    -55.1171E-03     128.903E-03
             725     13.6279E-03     85.9955E-03    -20.9016E+06     81.9380E+06     12.1860E+06     1.58498E+06    -60.5184E-03     115.589E-03    -55.0704E-03     167.011E-03    -63.0854E-03     118.337E-03    -55.0979E-03     165.211E-03
             726     14.4784E-03     86.1935E-03    -17.6333E+06     120.808E+06     58.0722E+06     1.10644E+06    -65.6607E-03     120.913E-03    -55.2525E-03     235.162E-03    -71.3712E-03     126.822E-03    -55.1118E-03     232.939E-03
             727     15.3292E-03     86.4703E-03    -12.0854E+06     153.226E+06     98.9027E+06     1.15566E+06    -70.6071E-03     126.011E-03    -55.4039E-03     311.199E-03    -82.6652E-03     138.283E-03    -55.1141E-03     310.135E-03
             728     16.1863E-03     86.8299E-03    -5.33036E+06     164.315E+06     111.387E+06     888.954E+03    -64.2361E-03     119.645E-03    -55.4091E-03     246.348E-03    -74.4449E-03     130.095E-03    -55.0827E-03     248.176E-03
             729     851.483E-06     86.0162E-03    -61.0552E+06    -177.908E+06    -59.9196E+06    -45.3161E+03    -55.4555E-03     110.877E-03    -55.4211E-03     9.43166E-03    -55.4174E-03     110.164E-03    -55.3742E-03     9.39544E-03
             730     1.70305E-03     86.0291E-03    -59.4414E+06    -175.032E+06    -55.4128E+06    -162.730E+03    -55.4844E-03     110.925E-03    -55.4410E-03     17.2987E-03    -55.4522E-03     110.222E-03    -55.3781E-03     17.2293E-03
             731     2.55457E-03     86.0509E-03    -56.5737E+06    -170.506E+06    -48.6897E+06    -371.967E+03    -55.5495E-03     111.005E-03    -55.4554E-03     25.5383E-03    -55.5250E-03     110.315E-03    -55.3696E-03     25.4301E-03
             732     3.40617E-03     86.0804E-03    -52.9253E+06    -164.719E+06    -40.3657E+06    -747.306E+03    -55.6433E-03     111.116E-03    -55.4723E-03     33.6628E-03    -55.6299E-03     110.447E-03    -55.3586E-03     33.5086E-03
             733     4.25765E-03     86.1186E-03    -48.9748E+06    -158.584E+06    -31.8653E+06    -1.41906E+06    -55.7468E-03     111.233E-03    -55.4861E-03     41.6300E-03    -55.7476E-03     110.589E-03    -55.3444E-03     41.4203E-03
             734     5.10946E-03     86.1639E-03    -44.4729E+06    -148.188E+06    -24.3956E+06    -1.94578E+06    -55.8823E-03     111.367E-03    -55.4850E-03     49.4022E-03    -55.9041E-03     110.776E-03    -55.3276E-03     49.1318E-03
             735     5.96097E-03     86.2177E-03    -40.5149E+06    -141.423E+06    -19.4572E+06    -1.68632E+06    -56.0871E-03     111.567E-03    -55.4795E-03     56.9243E-03    -56.1302E-03     111.020E-03    -55.3130E-03     56.5937E-03
             736     6.81265E-03     86.2782E-03    -37.6899E+06    -136.863E+06    -16.1678E+06    -2.25671E+06    -56.2587E-03     111.731E-03    -55.4721E-03     64.2501E-03    -56.3311E-03     111.230E-03    -55.2998E-03     63.8397E-03
             737     7.66433E-03     86.3467E-03    -34.8738E+06    -126.568E+06    -14.2123E+06    -3.62153E+06    -56.4255E-03     111.873E-03    -55.4471E-03     71.4661E-03    -56.5440E-03     111.459E-03    -55.2841E-03     70.9549E-03
             738     8.51612E-03     86.4215E-03    -32.1280E+06    -115.216E+06    -13.1124E+06    -3.62287E+06    -56.6217E-03     112.036E-03    -55.4146E-03     78.7442E-03    -56.8016E-03     111.731E-03    -55.2665E-03     78.1364E-03
             739     9.36790E-03     86.5045E-03    -29.3673E+06    -101.099E+06    -11.1605E+06    -2.87733E+06    -56.8061E-03     112.187E-03    -55.3807E-03     86.1698E-03    -57.0740E-03     112.024E-03    -55.2473E-03     85.4577E-03
             740     10.2196E-03     86.5940E-03    -26.7453E+06    -84.6011E+06    -10.8339E+06    -2.34394E+06    -56.8658E-03     112.195E-03    -55.3290E-03     93.2534E-03    -57.2505E-03     112.216E-03    -55.2218E-03     92.4170E-03
             741     11.0718E-03     86.6900E-03    -24.0771E+06    -61.5928E+06    -10.5056E+06    -1.12503E+06    -56.9289E-03     112.189E-03    -55.2598E-03     100.251E-03    -57.4787E-03     112.465E-03    -55.1881E-03     99.2800E-03
             742     11.9240E-03     86.7950E-03    -22.0723E+06    -26.5983E+06    -8.41739E+06     206.487E+03    -57.1823E-03     112.362E-03    -55.1801E-03     110.613E-03    -58.0161E-03     113.048E-03    -55.1516E-03     109.466E-03
             743     12.7760E-03     86.9111E-03    -21.4618E+06     28.0371E+06    -7.93256E+06     1.79168E+06    -58.1607E-03     113.234E-03    -55.0732E-03     130.863E-03    -59.5495E-03     114.669E-03    -55.1224E-03     129.458E-03
             744     13.6274E-03     87.0579E-03    -20.5541E+06     82.7117E+06     10.7982E+06     2.44696E+06    -60.1368E-03     115.200E-03    -55.0627E-03     168.727E-03    -62.7137E-03     117.966E-03    -55.0989E-03     166.962E-03
             745     14.4809E-03     87.2490E-03    -17.6967E+06     121.768E+06     57.9843E+06     1.52982E+06    -64.7478E-03     119.954E-03    -55.2058E-03     236.235E-03    -70.4500E-03     125.857E-03    -55.0668E-03     234.081E-03
             746     15.3350E-03     87.5342E-03    -13.5509E+06     153.111E+06     98.6619E+06     614.376E+03    -70.4439E-03     125.774E-03    -55.3304E-03     310.924E-03    -82.5235E-03     138.063E-03    -55.0395E-03     309.904E-03
             747     16.1822E-03     87.8842E-03    -6.06409E+06     164.268E+06     110.708E+06    -56.7738E+03    -64.5226E-03     119.871E-03    -55.3487E-03     243.899E-03    -74.7042E-03     130.294E-03    -55.0246E-03     245.667E-03
             748     851.579E-06     87.0745E-03    -61.0224E+06    -177.780E+06    -59.9198E+06    -19.1185E+03    -55.4530E-03     110.849E-03    -55.3965E-03     9.41944E-03    -55.4149E-03     110.137E-03    -55.3498E-03     9.38358E-03
             749     1.70303E-03     87.0881E-03    -59.2923E+06    -174.538E+06    -55.2260E+06    -365.014E+03    -55.5004E-03     110.934E-03    -55.4336E-03     17.2718E-03    -55.4684E-03     110.232E-03    -55.3706E-03     17.1995E-03
             750     2.55458E-03     87.1093E-03    -56.7322E+06    -169.628E+06    -48.1620E+06    -949.486E+03    -55.5579E-03     111.015E-03    -55.4575E-03     25.4878E-03    -55.5362E-03     110.330E-03    -55.3701E-03     25.3718E-03
             751     3.40606E-03     87.1394E-03    -53.4443E+06    -164.046E+06    -40.3711E+06    -1.40766E+06    -55.6268E-03     111.100E-03    -55.4729E-03     33.6235E-03    -55.6170E-03     110.435E-03    -55.3594E-03     33.4607E-03
             752     4.25780E-03     87.1769E-03    -49.5346E+06    -156.644E+06    -33.3665E+06    -2.42528E+06    -55.7370E-03     111.212E-03    -55.4755E-03     41.5492E-03    -55.7412E-03     110.582E-03    -55.3434E-03     41.3262E-03
             753     5.10929E-03     87.2229E-03    -45.7026E+06    -147.694E+06    -27.0947E+06    -3.22733E+06    -55.8928E-03     111.365E-03    -55.4725E-03     49.3443E-03    -55.9176E-03     110.782E-03    -55.3275E-03     49.0570E-03
             754     5.96102E-03     87.2761E-03    -41.7420E+06    -142.009E+06    -22.1712E+06    -2.78751E+06    -56.0791E-03     111.548E-03    -55.4693E-03     56.9115E-03    -56.1234E-03     111.005E-03    -55.3137E-03     56.5670E-03
             755     6.81259E-03     87.3372E-03    -37.4779E+06    -134.631E+06    -17.4255E+06    -3.17783E+06    -56.2435E-03     111.705E-03    -55.4617E-03     64.2086E-03    -56.3161E-03     111.217E-03    -55.2993E-03     63.7865E-03
             756     7.66441E-03     87.4049E-03    -34.0624E+06    -124.952E+06    -14.6163E+06    -4.27668E+06    -56.4083E-03     111.848E-03    -55.4394E-03     71.4584E-03    -56.5244E-03     111.442E-03    -55.2819E-03     70.9392E-03
             757     8.51608E-03     87.4805E-03    -31.4441E+06    -115.444E+06    -13.8507E+06    -4.48026E+06    -56.5164E-03     111.919E-03    -55.4022E-03     78.6761E-03    -56.6910E-03     111.612E-03    -55.2584E-03     78.0590E-03
             758     9.36799E-03     87.5625E-03    -29.0208E+06    -101.995E+06    -12.4799E+06    -4.07893E+06    -56.5955E-03     111.949E-03    -55.3531E-03     86.1504E-03    -56.8569E-03     111.781E-03    -55.2255E-03     85.4275E-03
             759     10.2204E-03     87.6526E-03    -26.7214E+06    -85.0670E+06    -11.8992E+06    -3.55312E+06    -56.8896E-03     112.185E-03    -55.2958E-03     93.2804E-03    -57.2710E-03     112.204E-03    -55.1932E-03     92.4298E-03
             760     11.0718E-03     87.7487E-03    -24.9324E+06    -63.0847E+06    -11.7777E+06    -2.53920E+06    -57.0928E-03     112.330E-03    -55.2372E-03     100.316E-03    -57.6433E-03     112.602E-03    -55.1685E-03     99.3247E-03
             761     11.9239E-03     87.8525E-03    -23.4202E+06    -29.4395E+06    -10.2897E+06    -485.825E+03    -57.4048E-03     112.576E-03    -55.1717E-03     110.897E-03    -58.2406E-03     113.254E-03    -55.1465E-03     109.734E-03
             762     12.7758E-03     87.9704E-03    -21.8283E+06     26.1207E+06    -10.2771E+06     1.51544E+06    -58.1821E-03     113.250E-03    -55.0675E-03     131.017E-03    -59.5697E-03     114.682E-03    -55.1251E-03     129.608E-03
             763     13.6290E-03     88.1152E-03    -19.9142E+06     83.0327E+06     7.86723E+06     2.57102E+06    -59.6720E-03     114.711E-03    -55.0386E-03     167.544E-03    -62.2205E-03     117.460E-03    -55.0908E-03     165.801E-03
             764     14.4809E-03     88.3076E-03    -17.2150E+06     122.362E+06     55.5206E+06     2.44684E+06    -64.5582E-03     119.728E-03    -55.1696E-03     235.219E-03    -70.2229E-03     125.605E-03    -55.0445E-03     233.081E-03
             765     15.3313E-03     88.5913E-03    -12.4801E+06     154.175E+06     99.0811E+06     1.18412E+06    -70.1432E-03     125.440E-03    -55.2973E-03     310.756E-03    -82.2142E-03     137.727E-03    -55.0073E-03     309.828E-03
             766     16.1865E-03     88.9471E-03    -5.94568E+06     165.431E+06     111.692E+06    -229.210E+03    -64.7771E-03     120.099E-03    -55.3216E-03     244.184E-03    -75.0041E-03     130.568E-03    -54.9944E-03     246.038E-03
             767     851.478E-06     88.1335E-03    -60.9427E+06    -177.261E+06    -60.0377E+06    -354.090E+03    -55.4704E-03     110.899E-03    -55.4287E-03     9.36746E-03    -55.4325E-03     110.190E-03    -55.3835E-03     9.32706E-03
             768     1.70306E-03     88.1465E-03    -59.2918E+06    -173.966E+06    -55.1197E+06     -538.96E+03    -55.4916E-03     110.944E-03    -55.4523E-03     17.2518E-03    -55.4606E-03     110.245E-03    -55.3897E-03     17.1774E-03
             769     2.55448E-03     88.1683E-03    -56.6702E+06    -168.388E+06    -47.7302E+06    -1.02182E+06    -55.5518E-03     111.020E-03    -55.4679E-03     25.4611E-03    -55.5323E-03     110.340E-03    -55.3802E-03     25.3441E-03
             770     3.40617E-03     88.1977E-03    -53.1656E+06    -162.636E+06    -39.8993E+06    -1.94436E+06    -55.6345E-03     111.115E-03    -55.4809E-03     33.5790E-03    -55.6260E-03     110.457E-03    -55.3675E-03     33.4091E-03
             771     4.25761E-03     88.2358E-03    -49.7725E+06    -154.498E+06    -34.4027E+06    -2.92746E+06    -55.7426E-03     111.219E-03    -55.4759E-03     41.5157E-03    -55.7496E-03     110.600E-03    -55.3518E-03     41.2862E-03
             772     5.10934E-03     88.2812E-03    -46.5347E+06    -146.359E+06    -29.0766E+06    -3.90721E+06    -55.8711E-03     111.339E-03    -55.4682E-03     49.3693E-03    -55.8991E-03     110.767E-03    -55.3339E-03     49.0735E-03
             773     5.96092E-03     88.3350E-03    -42.4568E+06    -141.498E+06    -23.0298E+06    -4.91943E+06    -56.0181E-03     111.483E-03    -55.4654E-03     56.9570E-03    -56.0653E-03     110.944E-03    -55.3138E-03     56.5860E-03
             774     6.81273E-03     88.3955E-03    -37.9558E+06    -133.354E+06    -17.9428E+06    -5.32820E+06    -56.2057E-03     111.658E-03    -55.4519E-03     64.2990E-03    -56.2816E-03     111.177E-03    -55.2933E-03     63.8502E-03
             775     7.66430E-03     88.4638E-03    -34.4331E+06    -124.063E+06    -15.4358E+06    -5.09203E+06    -56.3633E-03     111.788E-03    -55.4246E-03     71.5093E-03    -56.4812E-03     111.388E-03    -55.2720E-03     70.9805E-03
             776     8.51623E-03     88.5386E-03    -31.7168E+06    -114.781E+06    -14.8114E+06    -5.43595E+06    -56.4137E-03     111.795E-03    -55.3809E-03     78.5793E-03    -56.5889E-03     111.493E-03    -55.2425E-03     77.9511E-03
             777     9.36841E-03     88.6208E-03    -28.9918E+06    -102.055E+06    -13.4808E+06    -5.47709E+06    -56.6233E-03     111.954E-03    -55.3304E-03     86.0604E-03    -56.8828E-03     111.787E-03    -55.2078E-03     85.3192E-03
             778     10.2202E-03     88.7106E-03    -26.8748E+06    -85.8692E+06    -13.0312E+06    -4.44226E+06    -56.8819E-03     112.158E-03    -55.2766E-03     93.0930E-03    -57.2599E-03     112.174E-03    -55.1782E-03     92.2322E-03
             779     11.0725E-03     88.8075E-03    -25.2268E+06    -64.4223E+06    -12.9045E+06    -3.34350E+06    -57.1082E-03     112.330E-03    -55.2214E-03     99.9609E-03    -57.6566E-03     112.597E-03    -55.1559E-03     98.9570E-03
             780     11.9243E-03     88.9106E-03     -23.643E+06    -32.4767E+06    -12.7231E+06    -1.66896E+06    -57.5550E-03     112.714E-03    -55.1588E-03     110.893E-03    -58.3850E-03     113.382E-03    -55.1410E-03     109.712E-03
             781     12.7760E-03     89.0297E-03    -22.2714E+06     23.5657E+06    -12.7845E+06     795.026E+03    -58.1350E-03     113.193E-03    -55.0579E-03     130.930E-03    -59.5161E-03     114.616E-03    -55.1237E-03     129.513E-03
             782     13.6267E-03     89.1727E-03    -20.9352E+06     81.6845E+06     4.19371E+06     2.30180E+06    -59.9000E-03     114.927E-03    -55.0271E-03     167.759E-03    -62.4553E-03     117.686E-03    -55.0942E-03     165.997E-03
             783     14.4802E-03     89.3653E-03    -17.0058E+06     122.477E+06     52.1938E+06     1.98517E+06    -64.5158E-03     119.675E-03    -55.1594E-03     235.885E-03    -70.2119E-03     125.594E-03    -55.0514E-03     233.747E-03
             784     15.3342E-03     89.6515E-03    -10.1636E+06     156.277E+06     99.8742E+06     1.07798E+06    -70.1145E-03     125.410E-03    -55.2958E-03     311.167E-03    -82.1692E-03     137.694E-03    -55.0083E-03     310.199E-03
             785     16.1856E-03     90.0022E-03    -5.29169E+06     166.407E+06     112.430E+06     611.360E+03    -65.0211E-03     120.348E-03    -55.3264E-03     243.519E-03    -75.1956E-03     130.768E-03    -54.9979E-03     245.344E-03
             786     851.443E-06     89.1919E-03    -61.5330E+06    -176.417E+06    -60.4433E+06    -704.218E+03    -55.4906E-03     110.952E-03    -55.4618E-03     9.36845E-03    -55.4563E-03     110.249E-03    -55.4189E-03     9.32341E-03
             787     1.70289E-03     89.2055E-03    -59.7552E+06    -173.562E+06    -55.6268E+06    -740.446E+03    -55.4811E-03     110.953E-03    -55.4719E-03     17.2735E-03    -55.4523E-03     110.257E-03    -55.4117E-03     17.1965E-03
             788     2.55458E-03     89.2267E-03    -57.1965E+06    -166.921E+06    -49.4900E+06    -1.20546E+06    -55.5455E-03     111.015E-03    -55.4695E-03     25.4615E-03    -55.5282E-03     110.346E-03    -55.3919E-03     25.3422E-03
             789     3.40597E-03     89.2567E-03    -54.0776E+06    -160.141E+06    -42.8664E+06    -2.67830E+06    -55.6263E-03     111.098E-03    -55.4714E-03     33.5809E-03    -55.6217E-03     110.457E-03    -55.3751E-03     33.4017E-03
             790     4.25768E-03     89.2942E-03    -50.1067E+06    -152.893E+06    -35.6096E+06    -3.82962E+06    -55.7222E-03     111.194E-03    -55.4719E-03     41.5735E-03    -55.7315E-03     110.586E-03    -55.3556E-03     41.3327E-03
             791     5.10926E-03     89.3401E-03    -45.9767E+06    -144.017E+06    -28.0614E+06    -4.73469E+06    -55.8420E-03     111.310E-03    -55.4684E-03     49.3914E-03    -55.8719E-03     110.747E-03    -55.3332E-03     49.0853E-03
             792     5.96105E-03     89.3933E-03    -42.4886E+06    -138.920E+06    -22.1585E+06    -6.21687E+06    -55.9742E-03     111.435E-03    -55.4608E-03     56.9357E-03    -56.0264E-03     110.907E-03    -55.3086E-03     56.5484E-03
             793     6.81274E-03     89.4542E-03    -39.3690E+06    -132.944E+06    -18.6101E+06    -6.88528E+06    -56.1219E-03     111.560E-03    -55.4384E-03     64.3253E-03    -56.2042E-03     111.085E-03    -55.2816E-03     63.8576E-03
             794     7.66466E-03     89.5222E-03    -35.7481E+06    -123.573E+06    -16.8802E+06    -6.84211E+06    -56.2850E-03     111.685E-03    -55.3999E-03     71.4639E-03    -56.4076E-03     111.291E-03    -55.2533E-03     70.9139E-03
             795     8.51650E-03     89.5970E-03    -32.1080E+06    -113.285E+06    -15.5648E+06    -7.04899E+06    -56.5205E-03     111.881E-03    -55.3607E-03     78.3684E-03    -56.6992E-03     111.589E-03    -55.2277E-03     77.7170E-03
             796     9.36835E-03     89.6789E-03    -29.2931E+06    -101.817E+06    -14.2913E+06    -6.91377E+06    -56.7396E-03     112.064E-03    -55.3243E-03     85.8446E-03    -57.0003E-03     111.901E-03    -55.2057E-03     85.0818E-03
             797     10.2201E-03     89.7696E-03    -26.7384E+06    -87.2113E+06    -14.3219E+06    -5.94638E+06    -56.9481E-03     112.226E-03    -55.2783E-03     92.9659E-03    -57.3217E-03     112.237E-03    -55.1847E-03     92.0841E-03
             798     11.0719E-03     89.8649E-03    -24.5513E+06    -66.4173E+06     -14.077E+06    -4.42581E+06    -57.1987E-03     112.428E-03    -55.2296E-03     99.8127E-03    -57.7401E-03     112.687E-03    -55.1680E-03     98.7914E-03
             799     11.9237E-03     89.9702E-03    -22.7842E+06    -34.9627E+06    -13.7389E+06    -2.63622E+06    -57.3382E-03     112.502E-03    -55.1634E-03     110.681E-03    -58.1554E-03     113.154E-03    -55.1483E-03     109.494E-03
             800     12.7757E-03     90.0871E-03    -21.2894E+06     19.4840E+06    -14.8114E+06     238.621E+03    -57.8174E-03     112.858E-03    -55.0409E-03     130.876E-03    -59.1810E-03     114.258E-03    -55.1124E-03     129.461E-03
             801     13.6300E-03     90.2315E-03    -19.5111E+06     80.5831E+06     2.09356E+06     1.96293E+06    -60.0399E-03     115.037E-03    -54.9969E-03     168.473E-03    -62.5978E-03     117.805E-03    -55.0750E-03     166.696E-03
             802     14.4801E-03     90.4250E-03    -16.3178E+06     124.028E+06     51.7233E+06     1.01655E+06    -64.9674E-03     120.123E-03    -55.1556E-03     234.910E-03    -70.6586E-03     126.047E-03    -55.0532E-03     232.738E-03
             803     15.3331E-03     90.7054E-03    -11.3908E+06     156.170E+06     99.4857E+06     599.036E+03    -70.2479E-03     125.567E-03    -55.3192E-03     311.138E-03    -82.3667E-03     137.911E-03    -55.0317E-03     310.113E-03
             804     16.1824E-03     91.0683E-03    -5.72717E+06     166.974E+06     112.214E+06     1.11316E+06    -64.8373E-03     120.177E-03    -55.3394E-03     245.732E-03    -75.0849E-03     130.671E-03    -55.0121E-03     247.520E-03
             805     851.468E-06     90.2511E-03    -61.5497E+06    -175.185E+06    -60.4039E+06    -571.401E+03    -55.5032E-03     110.932E-03    -55.4291E-03     9.40452E-03    -55.4708E-03     110.235E-03    -55.3879E-03     9.36121E-03
             806     1.70303E-03     90.2639E-03    -59.9040E+06    -172.639E+06    -56.1180E+06    -1.07758E+06    -55.5133E-03     110.982E-03    -55.4684E-03     17.2732E-03    -55.4858E-03     110.291E-03    -55.4118E-03     17.1919E-03
             807     2.55439E-03     90.2857E-03    -57.2644E+06    -165.154E+06    -51.0937E+06    -1.92530E+06    -55.5378E-03     111.003E-03    -55.4652E-03     25.4809E-03    -55.5210E-03     110.345E-03    -55.3981E-03     25.3524E-03
             808     3.40613E-03     90.3151E-03    -54.1836E+06    -156.731E+06    -44.8468E+06    -3.62144E+06    -55.5976E-03     111.055E-03    -55.4573E-03     33.5775E-03    -55.5955E-03     110.434E-03    -55.3757E-03     33.3861E-03
             809     4.25768E-03     90.3530E-03    -50.8017E+06    -150.877E+06    -36.2830E+06    -5.22238E+06    -55.7061E-03     111.169E-03    -55.4633E-03     41.5658E-03    -55.7207E-03     110.573E-03    -55.3522E-03     41.3070E-03
             810     5.10937E-03     90.3986E-03    -46.7315E+06    -141.534E+06    -27.7424E+06    -6.21528E+06    -55.8260E-03     111.289E-03    -55.4633E-03     49.3526E-03    -55.8637E-03     110.739E-03    -55.3290E-03     49.0275E-03
             811     5.96102E-03     90.4520E-03    -42.4116E+06    -136.370E+06    -21.6202E+06    -7.03586E+06    -55.9603E-03     111.415E-03    -55.4551E-03     56.8336E-03    -56.0166E-03     110.900E-03    -55.3040E-03     56.4353E-03
             812     6.81284E-03     90.5126E-03    -38.6427E+06    -131.531E+06    -18.4945E+06    -7.82224E+06    -56.0848E-03     111.514E-03    -55.4296E-03     64.1450E-03    -56.1656E-03     111.045E-03    -55.2754E-03     63.6651E-03
             813     7.66471E-03     90.5805E-03    -35.2616E+06    -121.971E+06    -17.3424E+06    -8.78047E+06    -56.2912E-03     111.679E-03    -55.3879E-03     71.2718E-03    -56.4129E-03     111.293E-03    -55.2466E-03     70.6964E-03
             814     8.51654E-03     90.6555E-03    -32.1371E+06    -112.596E+06    -16.2886E+06    -8.92350E+06    -56.6495E-03     112.007E-03    -55.3571E-03     78.3538E-03    -56.8285E-03     111.719E-03    -55.2287E-03     77.6764E-03
             815     9.36788E-03     90.7378E-03    -29.3088E+06    -101.789E+06    -15.1737E+06    -8.60272E+06    -56.7956E-03     112.126E-03    -55.3300E-03     85.5822E-03    -57.0556E-03     111.964E-03    -55.2158E-03     84.7953E-03
             816     10.2203E-03     90.8269E-03    -26.6694E+06    -88.6923E+06    -15.5369E+06    -7.85816E+06    -56.9522E-03     112.238E-03    -55.2862E-03     93.1692E-03    -57.3223E-03     112.244E-03    -55.1966E-03     92.2621E-03
             817     11.0718E-03     90.9249E-03    -24.3908E+06    -68.3060E+06    -15.2430E+06    -6.19827E+06    -57.1496E-03     112.384E-03    -55.2340E-03     100.215E-03    -57.6857E-03     112.635E-03    -55.1759E-03     99.1730E-03
             818     11.9237E-03     91.0271E-03    -22.3339E+06    -37.8364E+06    -14.5402E+06    -3.55119E+06    -57.1430E-03     112.303E-03    -55.1605E-03     110.634E-03    -57.9517E-03     112.941E-03    -55.1459E-03     109.439E-03
             819     12.7768E-03     91.1455E-03    -20.3947E+06     15.7369E+06    -16.4509E+06    -1.05433E+06    -58.0574E-03     113.093E-03    -55.0354E-03     130.774E-03    -59.4116E-03     114.478E-03    -55.1109E-03     129.333E-03
             820     13.6272E-03     91.2889E-03    -18.2975E+06     79.8841E+06     364.683E+03     516.969E+03    -60.2967E-03     115.301E-03    -55.0044E-03     167.472E-03    -62.8403E-03     118.062E-03    -55.0918E-03     165.668E-03
             821     14.4813E-03     91.4844E-03    -15.9389E+06     124.843E+06     51.0430E+06     1.76037E+06    -65.1718E-03     120.354E-03    -55.1825E-03     234.499E-03    -70.8389E-03     126.260E-03    -55.0852E-03     232.312E-03
             822     15.3296E-03     91.7663E-03    -12.2659E+06     156.450E+06     99.1127E+06     1.37845E+06    -69.8723E-03     125.220E-03    -55.3478E-03     310.480E-03    -81.9945E-03     137.567E-03    -55.0613E-03     309.584E-03
             823     16.1891E-03     92.1208E-03    -6.43498E+06     167.507E+06     111.937E+06     892.498E+03    -64.0741E-03     119.418E-03    -55.3437E-03     246.401E-03    -74.3904E-03     129.981E-03    -55.0176E-03     248.326E-03
             824     851.561E-06     91.3094E-03    -60.7266E+06    -173.951E+06    -59.7276E+06    -459.275E+03    -55.5113E-03     110.928E-03    -55.4164E-03     9.37002E-03    -55.4775E-03     110.234E-03    -55.3748E-03     9.32814E-03
             825     1.70289E-03     91.3230E-03    -58.9490E+06    -170.468E+06    -55.4950E+06    -1.65979E+06    -55.5128E-03     110.977E-03    -55.4643E-03     17.2401E-03    -55.4846E-03     110.295E-03    -55.4091E-03     17.1512E-03
             826     2.55455E-03     91.3441E-03    -55.9645E+06    -162.252E+06    -49.7564E+06    -3.45830E+06    -55.5379E-03     111.002E-03    -55.4639E-03     25.4567E-03    -55.5208E-03     110.354E-03    -55.3963E-03     25.3082E-03
             827     3.40603E-03     91.3740E-03    -52.5163E+06    -153.872E+06    -42.5447E+06    -4.57930E+06    -55.6112E-03     111.074E-03    -55.4625E-03     33.5402E-03    -55.6084E-03     110.462E-03    -55.3760E-03     33.3362E-03
             828     4.25768E-03     91.4115E-03    -49.3532E+06    -147.888E+06    -34.3307E+06    -5.66268E+06    -55.7071E-03     111.176E-03    -55.4686E-03     41.4748E-03    -55.7217E-03     110.590E-03    -55.3543E-03     41.2100E-03
             829     5.10932E-03     91.4573E-03    -46.1331E+06    -138.763E+06    -27.5263E+06    -7.17110E+06    -55.8046E-03     111.265E-03    -55.4601E-03     49.2835E-03    -55.8437E-03     110.727E-03    -55.3296E-03     48.9460E-03
             830     5.96105E-03     91.5105E-03    -42.4933E+06    -134.105E+06    -22.4111E+06    -8.43049E+06    -55.9447E-03     111.391E-03    -55.4465E-03     56.7724E-03    -56.0036E-03     110.888E-03    -55.3025E-03     56.3561E-03
             831     6.81278E-03     91.5710E-03    -38.4198E+06    -129.025E+06    -18.9615E+06    -9.44275E+06    -56.1227E-03     111.546E-03    -55.4238E-03     64.0846E-03    -56.2053E-03     111.090E-03    -55.2758E-03     63.5833E-03
             832     7.66457E-03     91.6389E-03    -34.9150E+06    -119.956E+06    -17.8579E+06    -10.1547E+06    -56.3358E-03     111.723E-03    -55.3870E-03     71.3484E-03    -56.4581E-03     111.347E-03    -55.2518E-03     70.7547E-03
             833     8.51623E-03     91.7141E-03    -32.0177E+06    -111.948E+06    -17.1372E+06    -10.6497E+06    -56.5523E-03     111.906E-03    -55.3534E-03     78.6276E-03    -56.7298E-03     111.622E-03    -55.2303E-03     77.9308E-03
             834     9.36831E-03     91.7964E-03    -29.2290E+06    -101.566E+06    -16.0173E+06    -10.4818E+06    -56.8871E-03     112.212E-03    -55.3252E-03     85.7902E-03    -57.1463E-03     112.054E-03    -55.2156E-03     84.9780E-03
             835     10.2196E-03     91.8852E-03    -26.6473E+06    -89.3574E+06    -16.2771E+06    -9.68625E+06    -56.9172E-03     112.203E-03    -55.2855E-03     93.1104E-03    -57.2853E-03     112.206E-03    -55.1987E-03     92.1795E-03
             836     11.0722E-03     91.9831E-03    -24.2117E+06    -70.6466E+06    -16.6342E+06    -8.05878E+06    -56.7788E-03     111.995E-03    -55.2165E-03     100.383E-03    -57.3045E-03     112.232E-03    -55.1621E-03     99.3283E-03
             837     11.9244E-03     92.0855E-03    -22.0100E+06    -41.5796E+06    -16.0942E+06    -5.38975E+06    -57.4531E-03     112.594E-03    -55.1407E-03     110.740E-03    -58.2545E-03     113.216E-03    -55.1290E-03     109.514E-03
             838     12.7757E-03     92.2031E-03    -20.5244E+06     12.8018E+06    -17.8855E+06    -2.44044E+06    -58.6424E-03     113.687E-03    -55.0450E-03     131.165E-03    -59.9989E-03     115.068E-03    -55.1233E-03     129.689E-03
             839     13.6280E-03     92.3498E-03    -20.0531E+06     77.9962E+06    -2.05470E+06    -116.233E+03    -60.5165E-03     115.548E-03    -55.0320E-03     168.243E-03    -63.0747E-03     118.318E-03    -55.1263E-03     166.423E-03
             840     14.4775E-03     92.5406E-03    -17.8342E+06     123.283E+06     46.9714E+06     1.64722E+06    -64.8877E-03     120.082E-03    -55.1941E-03     235.233E-03    -70.5683E-03     126.000E-03    -55.1122E-03     233.066E-03
             841     15.3348E-03     92.8264E-03    -11.5807E+06     156.828E+06     97.3731E+06     2.16619E+06    -69.9247E-03     125.278E-03    -55.3538E-03     309.969E-03    -81.9159E-03     137.503E-03    -55.0775E-03     309.054E-03
             842     16.1790E-03     93.1769E-03    -5.56197E+06     168.913E+06     112.973E+06     1.25566E+06    -63.7536E-03     119.107E-03    -55.3537E-03     247.254E-03    -74.0293E-03     129.635E-03    -55.0257E-03     249.235E-03
             843     851.379E-06     92.3686E-03    -60.9578E+06    -172.247E+06    -60.1067E+06    -912.592E+03    -55.4735E-03     110.937E-03    -55.4633E-03     9.37748E-03    -55.4429E-03     110.253E-03    -55.4257E-03     9.32985E-03
             844     1.70304E-03     92.3815E-03    -58.7126E+06    -166.738E+06    -55.6128E+06    -2.84681E+06    -55.4893E-03     110.950E-03    -55.4606E-03     17.2400E-03    -55.4652E-03     110.287E-03    -55.4118E-03     17.1356E-03
             845     2.55446E-03     92.4031E-03    -56.0082E+06    -158.679E+06    -48.9684E+06    -4.57049E+06    -55.5476E-03     111.010E-03    -55.4628E-03     25.4179E-03    -55.5370E-03     110.380E-03    -55.3963E-03     25.2549E-03
             846     3.40607E-03     92.4325E-03    -53.0727E+06    -151.864E+06    -41.2712E+06    -5.35363E+06    -55.6119E-03     111.082E-03    -55.4703E-03     33.5236E-03    -55.6165E-03     110.479E-03    -55.3795E-03     33.3095E-03
             847     4.25762E-03     92.4704E-03    -49.2595E+06    -144.483E+06    -33.8133E+06    -6.39905E+06    -55.6931E-03     111.162E-03    -55.4692E-03     41.4677E-03    -55.7128E-03     110.592E-03    -55.3573E-03     41.1936E-03
             848     5.10929E-03     92.5157E-03    -45.0453E+06    -135.379E+06    -27.5691E+06    -8.01403E+06    -55.7652E-03     111.217E-03    -55.4521E-03     49.2633E-03    -55.8036E-03     110.695E-03    -55.3283E-03     48.9152E-03
             849     5.96108E-03     92.5691E-03    -41.2657E+06    -131.290E+06    -22.4821E+06    -9.40412E+06    -55.9090E-03     111.342E-03    -55.4334E-03     56.8339E-03    -55.9655E-03     110.852E-03    -55.2956E-03     56.4059E-03
             850     6.81285E-03     92.6295E-03    -38.3455E+06    -126.170E+06    -19.1556E+06    -10.6027E+06    -56.1261E-03     111.536E-03    -55.4101E-03     64.2255E-03    -56.2121E-03     111.094E-03    -55.2673E-03     63.7098E-03
             851     7.66457E-03     92.6975E-03    -35.3340E+06    -117.578E+06    -18.3854E+06    -11.8157E+06    -56.2880E-03     111.659E-03    -55.3715E-03     71.5453E-03    -56.4148E-03     111.297E-03    -55.2417E-03     70.9317E-03
             852     8.51657E-03     92.7724E-03    -32.1890E+06    -110.414E+06    -17.8588E+06    -12.4024E+06    -56.4421E-03     111.773E-03    -55.3306E-03     78.8032E-03    -56.6211E-03     111.497E-03    -55.2132E-03     78.0863E-03
             853     9.36844E-03     92.8546E-03    -29.3240E+06    -101.211E+06    -16.6963E+06    -12.2061E+06    -56.7128E-03     112.004E-03    -55.2914E-03     86.4173E-03    -56.9710E-03     111.847E-03    -55.1856E-03     85.5887E-03
             854     10.2200E-03     92.9449E-03    -26.9217E+06    -89.4811E+06    -17.2547E+06    -11.5599E+06    -56.9119E-03     112.156E-03    -55.2440E-03     93.4391E-03    -57.2798E-03     112.161E-03    -55.1615E-03     92.4860E-03
             855     11.0722E-03     93.0389E-03    -24.6354E+06    -72.7366E+06    -18.0279E+06    -10.1364E+06    -57.0225E-03     112.209E-03    -55.1869E-03     100.430E-03    -57.5466E-03     112.440E-03    -55.1359E-03     99.3443E-03
             856     11.9248E-03     93.1451E-03    -22.3099E+06    -45.1550E+06    -18.0627E+06    -7.93964E+06    -57.6102E-03     112.735E-03    -55.1251E-03     111.340E-03    -58.4065E-03     113.344E-03    -55.1175E-03     110.080E-03
             857     12.7756E-03     93.2627E-03    -20.8971E+06     7.94030E+06    -19.8152E+06    -3.76568E+06    -58.6332E-03     113.668E-03    -55.0343E-03     131.859E-03    -59.9865E-03     115.032E-03    -55.1146E-03     130.367E-03
             858     13.6273E-03     93.4071E-03    -19.9061E+06     74.3881E+06    -5.39728E+06     758.846E+03    -60.2485E-03     115.248E-03    -54.9994E-03     169.009E-03    -62.7887E-03     117.997E-03    -55.1054E-03     167.216E-03
             859     14.4815E-03     93.6019E-03    -17.7443E+06     123.375E+06     43.8268E+06     1.53926E+06    -64.8874E-03     120.031E-03    -55.1436E-03     236.419E-03    -70.5937E-03     125.985E-03    -55.0776E-03     234.255E-03
             860     15.3285E-03     93.8818E-03    -13.9955E+06     156.112E+06     95.0090E+06     951.512E+03    -70.1323E-03     125.441E-03    -55.3089E-03     311.636E-03    -82.1619E-03     137.700E-03    -55.0399E-03     310.628E-03
             861     16.1898E-03     94.2395E-03    -6.90786E+06     168.897E+06     112.394E+06     460.368E+03    -63.2332E-03     118.533E-03    -55.3002E-03     247.303E-03    -73.4821E-03     129.031E-03    -54.9731E-03     249.244E-03
             862     851.530E-06     93.4270E-03    -60.0222E+06    -168.658E+06    -60.0012E+06    -2.07037E+06    -55.4782E-03     110.916E-03    -55.4380E-03     9.40825E-03    -55.4482E-03     110.248E-03    -55.4064E-03     9.34568E-03
             863     1.70293E-03     93.4405E-03    -58.4831E+06    -162.038E+06    -55.8436E+06    -3.95627E+06    -55.4965E-03     110.946E-03    -55.4492E-03     17.2653E-03    -55.4777E-03     110.306E-03    -55.4086E-03     17.1467E-03
             864     2.55450E-03     93.4617E-03    -56.1328E+06    -155.651E+06    -49.0335E+06    -5.09024E+06    -55.5291E-03     110.986E-03    -55.4569E-03     25.4277E-03    -55.5234E-03     110.371E-03    -55.3950E-03     25.2582E-03
             865     3.40602E-03     93.4914E-03    -52.7892E+06    -149.058E+06    -41.1410E+06    -6.05407E+06    -55.5761E-03     111.036E-03    -55.4597E-03     33.5525E-03    -55.5835E-03     110.446E-03    -55.3728E-03     33.3299E-03
             866     4.25768E-03     93.5289E-03     -48.845E+06    -140.605E+06    -33.9805E+06    -7.80622E+06    -55.6373E-03     111.085E-03    -55.4481E-03     41.5372E-03    -55.6602E-03     110.534E-03    -55.3433E-03     41.2458E-03
             867     5.10938E-03     93.5744E-03    -44.7794E+06    -131.829E+06    -27.7177E+06    -9.47623E+06    -55.7229E-03     111.149E-03    -55.4261E-03     49.3223E-03    -55.7647E-03     110.644E-03    -55.3086E-03     48.9561E-03
             868     5.96121E-03     93.6273E-03    -41.2211E+06    -128.821E+06    -22.5870E+06    -10.2036E+06    -55.8632E-03     111.269E-03    -55.4063E-03     56.9464E-03    -55.9227E-03     110.791E-03    -55.2726E-03     56.5094E-03
             869     6.81301E-03     93.6882E-03    -37.6548E+06    -122.522E+06    -18.6648E+06    -11.4871E+06    -56.0193E-03     111.396E-03    -55.3765E-03     64.4011E-03    -56.1075E-03     110.970E-03    -55.2376E-03     63.8764E-03
             870     7.66491E-03     93.7557E-03    -34.5495E+06    -114.289E+06    -17.4578E+06    -13.1969E+06    -56.1918E-03     111.524E-03    -55.3320E-03     71.7174E-03    -56.3203E-03     111.175E-03    -55.2035E-03     71.0884E-03
             871     8.51680E-03     93.8307E-03    -31.9776E+06    -108.622E+06    -17.5134E+06    -13.8918E+06    -56.3317E-03     111.616E-03    -55.2841E-03     79.0479E-03    -56.5122E-03     111.348E-03    -55.1678E-03     78.3148E-03
             872     9.36874E-03     93.9130E-03    -29.4893E+06    -100.541E+06    -17.1854E+06    -14.0850E+06    -56.3869E-03     111.614E-03    -55.2267E-03     86.6626E-03    -56.6441E-03     111.459E-03    -55.1241E-03     85.8175E-03
             873     10.2219E-03     94.0023E-03    -26.7640E+06    -89.7132E+06    -17.8794E+06    -13.6722E+06    -56.8621E-03     112.029E-03    -55.1669E-03     93.9073E-03    -57.2264E-03     112.032E-03    -55.0874E-03     92.9318E-03
             874     11.0728E-03     94.0991E-03    -24.2340E+06    -73.4785E+06    -18.3021E+06    -12.3722E+06    -57.4770E-03     112.607E-03    -55.1303E-03     101.042E-03    -58.0029E-03     112.839E-03    -55.0801E-03     99.9173E-03
             875     11.9236E-03     94.2021E-03    -22.5150E+06    -48.3557E+06    -19.3896E+06    -9.93133E+06    -57.5648E-03     112.649E-03    -55.0838E-03     112.227E-03    -58.3575E-03     113.246E-03    -55.0780E-03     110.944E-03
             876     12.7773E-03     94.3217E-03    -20.7513E+06     913.750E+03    -21.8003E+06    -5.36983E+06    -58.2317E-03     113.210E-03    -54.9779E-03     132.970E-03    -59.5664E-03     114.537E-03    -55.0581E-03     131.475E-03
             877     13.6286E-03     94.4666E-03    -19.0043E+06     69.2270E+06    -9.62776E+06    -38.3727E+03    -60.1383E-03     115.049E-03    -54.9102E-03     169.507E-03    -62.6543E-03     117.771E-03    -55.0312E-03     167.714E-03
             878     14.4801E-03     94.6577E-03    -16.8792E+06     123.662E+06     39.9775E+06     2.93184E+06    -64.6591E-03     119.697E-03    -55.0378E-03     237.038E-03    -70.3419E-03     125.643E-03    -54.9927E-03     234.911E-03
             879     15.3376E-03     94.9454E-03    -13.0622E+06     158.395E+06     95.6372E+06     2.30464E+06    -69.5527E-03     124.750E-03    -55.1973E-03     312.475E-03    -81.5429E-03     136.978E-03    -54.9298E-03     311.561E-03
             880     16.1813E-03     95.2927E-03    -6.36689E+06     169.881E+06     113.357E+06    -396.728E+03    -63.4888E-03     118.673E-03    -55.1839E-03     247.095E-03    -73.6977E-03     129.133E-03    -54.8542E-03     249.043E-03
             881     851.495E-06     94.4861E-03    -58.6074E+06    -162.962E+06    -58.3513E+06    -3.10785E+06    -55.4762E-03     110.871E-03    -55.3944E-03     9.45148E-03    -55.4498E-03     110.227E-03    -55.3649E-03     9.37557E-03
             882     1.70299E-03     94.4991E-03    -57.4468E+06    -157.719E+06    -54.5494E+06    -4.42298E+06    -55.4670E-03     110.894E-03    -55.4265E-03     17.2932E-03    -55.4512E-03     110.272E-03    -55.3873E-03     17.1688E-03
             883     2.55451E-03     94.5205E-03    -55.0757E+06    -152.027E+06    -48.2990E+06    -5.82896E+06    -55.4759E-03     110.903E-03    -55.4268E-03     25.4953E-03    -55.4713E-03     110.303E-03    -55.3680E-03     25.3168E-03
             884     3.40616E-03     94.5500E-03    -51.3874E+06    -145.109E+06    -41.1356E+06    -7.59719E+06    -55.5068E-03     110.923E-03    -55.4161E-03     33.6354E-03    -55.5129E-03     110.351E-03    -55.3369E-03     33.3938E-03
             885     4.25785E-03     94.5875E-03    -47.0816E+06    -136.105E+06    -33.2625E+06    -9.36779E+06    -55.5534E-03     110.951E-03    -55.3980E-03     41.6411E-03    -55.5749E-03     110.419E-03    -55.2987E-03     41.3308E-03
             886     5.10968E-03     94.6328E-03    -43.4522E+06    -129.101E+06    -26.5806E+06    -10.2919E+06    -55.6640E-03     111.040E-03    -55.3759E-03     49.4718E-03    -55.7046E-03     110.545E-03    -55.2586E-03     49.0966E-03
             887     5.96142E-03     94.6859E-03    -40.0199E+06    -125.701E+06    -21.4476E+06    -11.1603E+06    -55.7760E-03     111.128E-03    -55.3517E-03     57.1244E-03    -55.8354E-03     110.661E-03    -55.2187E-03     56.6770E-03
             888     6.81338E-03     94.7463E-03    -36.3353E+06    -118.246E+06    -17.7461E+06    -13.0397E+06    -55.8740E-03     111.185E-03    -55.3106E-03     64.6606E-03    -55.9626E-03     110.776E-03    -55.1752E-03     64.1190E-03
             889     7.66548E-03     94.8141E-03    -32.8816E+06    -111.696E+06    -15.9739E+06    -14.1484E+06    -56.0246E-03     111.284E-03    -55.2592E-03     72.0377E-03    -56.1500E-03     110.942E-03    -55.1294E-03     71.4004E-03
             890     8.51746E-03     94.8890E-03    -30.4696E+06    -106.167E+06    -16.2514E+06    -14.7837E+06    -56.1728E-03     111.373E-03    -55.2002E-03     79.3210E-03    -56.3502E-03     111.112E-03    -55.0833E-03     78.5809E-03
             891     9.37008E-03     94.9705E-03    -28.2385E+06    -98.0933E+06    -16.3987E+06    -15.8670E+06    -56.4165E-03     111.558E-03    -55.1413E-03     86.7636E-03    -56.6716E-03     111.412E-03    -55.0401E-03     85.8968E-03
             892     10.2214E-03     95.0604E-03    -25.9525E+06    -89.3296E+06    -17.6941E+06    -15.7925E+06    -56.7615E-03     111.846E-03    -55.0850E-03     94.3951E-03    -57.1214E-03     111.848E-03    -55.0063E-03     93.3974E-03
             893     11.0742E-03     95.1578E-03    -23.9472E+06    -74.9003E+06    -18.9713E+06    -14.4469E+06    -57.0874E-03     112.120E-03    -55.0324E-03     101.761E-03    -57.6052E-03     112.342E-03    -54.9840E-03     100.623E-03
             894     11.9265E-03     95.2613E-03    -21.9214E+06    -51.6189E+06    -20.0665E+06    -11.6373E+06    -57.5815E-03     112.559E-03    -54.9778E-03     112.881E-03    -58.3661E-03     113.141E-03    -54.9715E-03     111.578E-03
             895     12.7772E-03     95.3788E-03    -20.7695E+06    -6.54027E+06    -24.0303E+06    -6.97893E+06    -58.1892E-03     113.063E-03    -54.8741E-03     133.519E-03    -59.5081E-03     114.355E-03    -54.9547E-03     132.010E-03
             896     13.6309E-03     95.5253E-03    -19.8127E+06     62.8035E+06    -14.5574E+06    -1.35487E+06    -60.1435E-03     114.938E-03    -54.7947E-03     169.991E-03    -62.6564E-03     117.646E-03    -54.9298E-03     168.178E-03
             897     14.4834E-03     95.7174E-03    -17.0039E+06     121.742E+06     32.4899E+06     2.24535E+06    -64.6100E-03     119.517E-03    -54.9070E-03     236.556E-03    -70.2537E-03     125.438E-03    -54.8964E-03     234.420E-03
             898     15.3323E-03     95.9994E-03    -9.57182E+06     161.110E+06     94.5873E+06     2.09125E+06    -68.7764E-03     123.853E-03    -55.0765E-03     311.192E-03    -80.7124E-03     136.052E-03    -54.8232E-03     310.348E-03
             899     16.1970E-03     96.3550E-03    -4.52721E+06     172.119E+06     116.021E+06     840.902E+03    -64.1712E-03     119.265E-03    -55.0938E-03     246.912E-03    -74.3888E-03     129.741E-03    -54.7567E-03     248.871E-03
             900     851.504E-06     95.5447E-03    -56.2441E+06    -156.362E+06    -54.8878E+06    -2.99894E+06    -55.3934E-03     110.786E-03    -55.3922E-03     9.47101E-03    -55.3698E-03     110.166E-03    -55.3584E-03     9.39675E-03
             901     1.70309E-03     95.5578E-03    -54.7624E+06    -153.406E+06    -51.1072E+06    -4.67767E+06    -55.3705E-03     110.750E-03    -55.3792E-03     17.3040E-03    -55.3524E-03     110.141E-03    -55.3329E-03     17.1767E-03
             902     2.55471E-03     95.5791E-03    -52.2977E+06    -146.984E+06    -46.1940E+06    -6.60905E+06    -55.3821E-03     110.738E-03    -55.3558E-03     25.5602E-03    -55.3738E-03     110.156E-03    -55.2978E-03     25.3725E-03
             903     3.40639E-03     95.6085E-03    -49.3314E+06    -139.953E+06    -39.8659E+06    -9.11064E+06    -55.3921E-03     110.725E-03    -55.3325E-03     33.7291E-03    -55.3971E-03     110.173E-03    -55.2574E-03     33.4691E-03
             904     4.25822E-03     95.6459E-03    -46.1883E+06    -132.179E+06    -33.0146E+06    -10.6210E+06    -55.4444E-03     110.750E-03    -55.3056E-03     41.8070E-03    -55.4673E-03     110.235E-03    -55.2120E-03     41.4823E-03
             905     5.11007E-03     95.6912E-03    -42.5656E+06    -126.518E+06    -26.1370E+06    -11.2133E+06    -55.5213E-03     110.801E-03    -55.2794E-03     49.7002E-03    -55.5615E-03     110.316E-03    -55.1649E-03     49.3157E-03
             906     5.96207E-03     95.7442E-03    -38.5930E+06    -121.517E+06    -20.6806E+06    -12.5578E+06    -55.6112E-03     110.855E-03    -55.2442E-03     57.4001E-03    -55.6701E-03     110.406E-03    -55.1154E-03     56.9379E-03
             907     6.81418E-03     95.8043E-03    -35.0858E+06    -113.726E+06    -17.1505E+06    -14.3657E+06    -55.7190E-03     110.913E-03    -55.1936E-03     65.0050E-03    -55.8081E-03     110.523E-03    -55.0636E-03     64.4501E-03
             908     7.66624E-03     95.8722E-03    -32.2240E+06    -109.641E+06    -15.7020E+06    -15.3317E+06    -55.8204E-03     110.957E-03    -55.1363E-03     72.3507E-03    -55.9450E-03     110.623E-03    -55.0091E-03     71.7029E-03
             909     8.51885E-03     95.9465E-03    -29.2036E+06    -103.008E+06    -15.4610E+06    -16.0953E+06    -56.0546E-03     111.126E-03    -55.0716E-03     79.7172E-03    -56.2304E-03     110.877E-03    -54.9572E-03     78.9648E-03
             910     9.37053E-03     96.0288E-03    -26.9014E+06    -95.2230E+06    -15.2725E+06    -16.9239E+06    -56.4187E-03     111.437E-03    -55.0182E-03     87.4844E-03    -56.6727E-03     111.302E-03    -54.9175E-03     86.6075E-03
             911     10.2232E-03     96.1183E-03    -25.3727E+06    -88.1111E+06    -17.1656E+06    -17.0403E+06    -56.6045E-03     111.568E-03    -54.9633E-03     95.2299E-03    -56.9638E-03     111.574E-03    -54.8846E-03     94.2221E-03
             912     11.0752E-03     96.2153E-03    -23.9238E+06    -75.7609E+06    -19.4100E+06    -16.2556E+06    -56.7742E-03     111.672E-03    -54.8980E-03     102.487E-03    -57.2868E-03     111.887E-03    -54.8505E-03     101.337E-03
             913     11.9277E-03     96.3191E-03    -22.3594E+06    -55.4418E+06    -21.5316E+06    -14.1216E+06    -57.3521E-03     112.182E-03    -54.8304E-03     113.393E-03    -58.1291E-03     112.746E-03    -54.8252E-03     112.069E-03
             914     12.7802E-03     96.4386E-03    -20.3805E+06    -13.8942E+06    -25.2329E+06    -8.53380E+06    -58.4599E-03     113.200E-03    -54.7402E-03     133.841E-03    -59.7697E-03     114.461E-03    -54.8167E-03     132.304E-03
             915     13.6314E-03     96.5813E-03    -19.0189E+06     55.7928E+06    -19.7960E+06    -2.05886E+06    -60.3777E-03     115.038E-03    -54.6603E-03     170.730E-03    -62.8763E-03     117.725E-03    -54.8126E-03     168.904E-03
             916     14.4830E-03     96.7780E-03    -15.9712E+06     121.494E+06     26.8924E+06    -357.486E+03    -64.6002E-03     119.374E-03    -54.7738E-03     236.268E-03    -70.2413E-03     125.312E-03    -54.7923E-03     234.105E-03
             917     15.3401E-03     97.0560E-03    -11.7609E+06     160.295E+06     91.0037E+06    -174.537E+03    -69.6546E-03     124.652E-03    -54.9970E-03     309.892E-03    -81.6476E-03     136.908E-03    -54.7574E-03     308.927E-03
             918     16.1830E-03     97.4086E-03    -6.40308E+06     170.901E+06     114.846E+06     1.52228E+06    -63.4651E-03     118.508E-03    -55.0424E-03     247.949E-03    -73.7418E-03     129.035E-03    -54.7067E-03     249.890E-03
             919     851.549E-06     96.6034E-03    -53.9339E+06    -150.127E+06    -52.8758E+06    -2.67742E+06    -55.2870E-03     110.560E-03    -55.2730E-03     9.46516E-03    -55.2637E-03     109.966E-03    -55.2415E-03     9.39544E-03
             920     1.70324E-03     96.6163E-03    -52.2687E+06    -147.866E+06    -48.7913E+06    -5.07302E+06    -55.2402E-03     110.504E-03    -55.2635E-03     17.3765E-03    -55.2211E-03     109.916E-03    -55.2173E-03     17.2448E-03
             921     2.55500E-03     96.6376E-03    -49.6584E+06    -141.124E+06    -43.8249E+06    -7.55160E+06    -55.2147E-03     110.443E-03    -55.2285E-03     25.6489E-03    -55.2051E-03     109.883E-03    -55.1710E-03     25.4503E-03
             922     3.40687E-03     96.6668E-03    -47.1174E+06    -134.663E+06    -37.7125E+06    -9.46933E+06    -55.2318E-03     110.427E-03    -55.1951E-03     33.8801E-03    -55.2363E-03     109.895E-03    -55.1201E-03     33.6175E-03
             923     4.25881E-03     96.7041E-03    -44.5725E+06    -128.163E+06    -31.7718E+06    -11.0417E+06    -55.2687E-03     110.428E-03    -55.1594E-03     42.0237E-03    -55.2908E-03     109.929E-03    -55.0678E-03     41.6963E-03
             924     5.11083E-03     96.7493E-03    -41.3210E+06    -122.904E+06    -26.0700E+06    -12.6226E+06    -55.3074E-03     110.426E-03    -55.1191E-03     49.9616E-03    -55.3462E-03     109.958E-03    -55.0113E-03     49.5626E-03
             925     5.96307E-03     96.8019E-03    -37.4993E+06    -116.748E+06    -20.6034E+06    -14.3366E+06    -55.3868E-03     110.459E-03    -55.0719E-03     57.7492E-03    -55.4466E-03     110.031E-03    -54.9512E-03     57.2686E-03
             926     6.81523E-03     96.8624E-03    -33.8365E+06    -110.088E+06    -16.4201E+06    -15.5489E+06    -55.4731E-03     110.489E-03    -55.0157E-03     65.3999E-03    -55.5614E-03     110.114E-03    -54.8891E-03     64.8353E-03
             927     7.66780E-03     96.9295E-03    -30.7352E+06    -106.501E+06    -14.5473E+06    -16.4679E+06    -55.6375E-03     110.592E-03    -54.9542E-03     72.8926E-03    -55.7598E-03     110.269E-03    -54.8280E-03     72.2363E-03
             928     8.51989E-03     97.0043E-03    -28.2657E+06    -99.9086E+06    -14.5391E+06    -17.5439E+06    -55.8630E-03     110.749E-03    -54.8859E-03     80.5103E-03    -56.0388E-03     110.512E-03    -54.7727E-03     79.7463E-03
             929     9.37286E-03     97.0863E-03    -26.0779E+06    -93.3113E+06    -14.1501E+06    -17.7770E+06    -56.1242E-03     110.951E-03    -54.8267E-03     88.4513E-03    -56.3766E-03     110.820E-03    -54.7244E-03     87.5739E-03
             930     10.2249E-03     97.1761E-03    -24.4000E+06    -86.4921E+06    -16.0420E+06    -17.7385E+06    -56.4324E-03     111.197E-03    -54.7647E-03     96.0725E-03    -56.7894E-03     111.207E-03    -54.6841E-03     95.0642E-03
             931     11.0777E-03     97.2727E-03    -23.2930E+06    -75.5746E+06    -18.7461E+06    -17.2828E+06    -56.7721E-03     111.476E-03    -54.7038E-03     103.709E-03    -57.2837E-03     111.691E-03    -54.6542E-03     102.552E-03
             932     11.9296E-03     97.3775E-03    -22.2131E+06    -57.5550E+06    -21.3884E+06    -15.6401E+06    -57.3299E-03     111.976E-03    -54.6456E-03     114.681E-03    -58.1034E-03     112.528E-03    -54.6369E-03     113.346E-03
             933     12.7821E-03     97.4951E-03    -20.9273E+06    -22.3374E+06    -27.3816E+06    -11.2018E+06    -58.6399E-03     113.206E-03    -54.5656E-03     135.127E-03    -59.9377E-03     114.429E-03    -54.6398E-03     133.561E-03
             934     13.6336E-03     97.6429E-03    -18.5315E+06     49.3214E+06    -24.5387E+06    -5.03373E+06    -60.5594E-03     115.045E-03    -54.4853E-03     171.425E-03    -63.0403E-03     117.706E-03    -54.6526E-03     169.567E-03
             935     14.4872E-03     97.8330E-03    -16.8149E+06     120.491E+06     20.5778E+06    -973.710E+03    -65.0408E-03     119.647E-03    -54.6058E-03     237.272E-03    -70.6949E-03     125.609E-03    -54.6532E-03     235.090E-03
             936     15.3348E-03     98.1165E-03    -14.2646E+06     158.486E+06     86.7027E+06     990.560E+03    -69.9801E-03     124.837E-03    -54.8571E-03     312.180E-03    -82.0080E-03     137.126E-03    -54.6327E-03     311.253E-03
             937     16.1944E-03     98.4699E-03    -6.78488E+06     170.769E+06      114.81E+06     621.380E+03    -62.8260E-03     117.728E-03    -54.9019E-03     249.283E-03    -73.1208E-03     128.272E-03    -54.5657E-03     251.288E-03
             938     851.834E-06     97.6617E-03    -52.7228E+06    -143.914E+06    -52.0310E+06    -2.93645E+06    -55.1017E-03     110.126E-03    -55.0242E-03     9.48671E-03    -55.0826E-03     109.560E-03    -54.9993E-03     9.41424E-03
             939     1.70359E-03     97.6746E-03    -50.7521E+06    -140.905E+06    -47.8005E+06    -5.92966E+06    -55.0422E-03     110.090E-03    -55.0478E-03     17.4600E-03    -55.0269E-03     109.533E-03    -55.0089E-03     17.3184E-03
             940     2.55551E-03     97.6956E-03    -48.2144E+06    -135.098E+06    -41.9323E+06    -8.50250E+06    -54.9946E-03     110.015E-03    -55.0203E-03     25.7785E-03    -54.9891E-03     109.480E-03    -54.9642E-03     25.5694E-03
             941     3.40760E-03     97.7247E-03    -44.9983E+06    -129.839E+06    -35.5703E+06    -10.1674E+06    -54.9988E-03     109.983E-03    -54.9840E-03     34.1020E-03    -55.0026E-03     109.469E-03    -54.9083E-03     33.8331E-03
             942     4.25966E-03     97.7620E-03    -41.3017E+06    -123.194E+06    -29.4003E+06    -11.8299E+06    -55.0070E-03     109.946E-03    -54.9390E-03     42.2751E-03    -55.0230E-03     109.463E-03    -54.8475E-03     41.9412E-03
             943     5.11206E-03     97.8067E-03    -37.8085E+06    -118.214E+06    -23.7367E+06    -13.7169E+06    -55.0265E-03     109.914E-03    -54.8878E-03     50.3213E-03    -55.0574E-03     109.460E-03    -54.7802E-03     49.9129E-03
             944     5.96432E-03     97.8596E-03    -34.6794E+06    -111.998E+06    -18.8312E+06    -15.4754E+06    -55.0614E-03     109.887E-03    -54.8258E-03     58.2589E-03    -55.1155E-03     109.475E-03    -54.7073E-03     57.7703E-03
             945     6.81707E-03     97.9193E-03    -31.6646E+06    -106.792E+06    -14.8232E+06    -16.7954E+06    -55.1524E-03     109.911E-03    -54.7590E-03     66.0223E-03    -55.2355E-03     109.546E-03    -54.6324E-03     65.4495E-03
             946     7.66961E-03     97.9869E-03    -28.7180E+06    -103.235E+06    -12.7047E+06    -17.5104E+06    -55.3442E-03     110.034E-03    -54.6899E-03     73.7381E-03    -55.4621E-03     109.720E-03    -54.5621E-03     73.0775E-03
             947     8.52256E-03     98.0614E-03    -26.4112E+06    -96.4189E+06    -12.6657E+06    -18.3313E+06    -55.5541E-03     110.168E-03    -54.6142E-03     81.4449E-03    -55.7263E-03     109.941E-03    -54.4994E-03     80.6815E-03
             948     9.37495E-03     98.1432E-03    -24.4612E+06    -91.8463E+06    -12.5570E+06    -18.7794E+06    -55.7977E-03     110.346E-03    -54.5486E-03     89.4913E-03    -56.0439E-03     110.216E-03    -54.4427E-03     88.6134E-03
             949     10.2282E-03     98.2334E-03    -22.7465E+06    -85.2476E+06    -14.6550E+06    -18.5377E+06    -56.2056E-03     110.686E-03    -54.4808E-03     97.3628E-03    -56.5554E-03     110.695E-03    -54.3975E-03     96.3576E-03
             950     11.0803E-03     98.3300E-03    -21.2914E+06    -74.7879E+06    -16.8095E+06    -17.7923E+06    -56.6631E-03     111.089E-03    -54.4261E-03     105.013E-03    -57.1666E-03     111.300E-03    -54.3708E-03     103.861E-03
             951     11.9335E-03     98.4348E-03    -20.7214E+06    -58.9476E+06    -19.9034E+06    -15.9367E+06    -57.5476E-03     111.934E-03    -54.3864E-03     116.404E-03    -58.3154E-03     112.477E-03    -54.3703E-03     115.068E-03
             952     12.7846E-03     98.5543E-03    -20.5655E+06    -27.8265E+06    -27.0402E+06    -13.1612E+06    -58.6868E-03     113.014E-03    -54.3271E-03     136.836E-03    -59.9778E-03     114.212E-03    -54.3921E-03     135.255E-03
             953     13.6372E-03     98.7002E-03    -20.0291E+06     41.2537E+06    -30.6179E+06    -8.18740E+06    -60.5945E-03     114.825E-03    -54.2303E-03     173.078E-03    -63.0702E-03     117.465E-03    -54.4142E-03     171.187E-03
             954     14.4878E-03     98.8924E-03    -17.9388E+06     114.867E+06     7.92068E+06    -1.53031E+06    -65.3327E-03     119.656E-03    -54.3229E-03     239.749E-03    -70.9828E-03     125.627E-03    -54.4238E-03     237.555E-03
             955     15.3441E-03     99.1770E-03    -11.8835E+06     159.119E+06     82.0907E+06     765.255E+03    -69.4826E-03     124.079E-03    -54.5966E-03     312.924E-03    -81.5128E-03     136.394E-03    -54.3996E-03     312.057E-03
             956     16.1945E-03     99.5228E-03    -5.75644E+06     172.123E+06     116.265E+06     99.1793E+03    -63.2573E-03     117.944E-03    -54.6867E-03     247.497E-03    -73.5423E-03     128.482E-03    -54.3466E-03     249.500E-03
             957     852.011E-06     98.7195E-03    -49.0513E+06    -136.396E+06    -48.5452E+06    -3.55315E+06    -54.7635E-03     109.500E-03    -54.7369E-03     9.54081E-03    -54.7419E-03     108.961E-03    -54.7107E-03     9.46141E-03
             958     1.70411E-03     98.7324E-03    -47.5800E+06    -133.249E+06    -44.6097E+06    -6.70771E+06    -54.7338E-03     109.468E-03    -54.7343E-03     17.5775E-03    -54.7182E-03     108.940E-03    -54.6952E-03     17.4277E-03
             959     2.55632E-03     98.7531E-03    -45.2225E+06    -128.772E+06    -39.2646E+06    -9.26275E+06    -54.7160E-03     109.428E-03    -54.7117E-03     25.9686E-03    -54.7084E-03     108.916E-03    -54.6557E-03     25.7521E-03
             960     3.40851E-03     98.7822E-03    -42.1424E+06    -124.097E+06    -33.1561E+06    -11.5990E+06    -54.6653E-03     109.341E-03    -54.6753E-03     34.3691E-03    -54.6662E-03     108.848E-03    -54.6001E-03     34.0853E-03
             961     4.26111E-03     98.8191E-03    -38.5063E+06    -118.172E+06    -27.2867E+06    -13.4958E+06    -54.6160E-03     109.234E-03    -54.6178E-03     42.6594E-03    -54.6277E-03     108.768E-03    -54.5270E-03     42.3092E-03
             962     5.11355E-03     98.8640E-03    -34.8293E+06    -113.296E+06    -21.3110E+06    -14.9184E+06    -54.6017E-03     109.153E-03    -54.5509E-03     50.8668E-03    -54.6273E-03     108.714E-03    -54.4427E-03     50.4501E-03
             963     5.96659E-03     98.9161E-03    -31.4950E+06    -107.460E+06    -16.6050E+06    -16.3147E+06    -54.6351E-03     109.107E-03    -54.4723E-03     58.9304E-03    -54.6816E-03     108.709E-03    -54.3538E-03     58.4399E-03
             964     6.81941E-03     98.9761E-03    -28.6926E+06    -102.890E+06    -12.7621E+06    -17.5131E+06    -54.7497E-03     109.144E-03    -54.3942E-03     66.8658E-03    -54.8247E-03     108.789E-03    -54.2672E-03     66.2944E-03
             965     7.67256E-03     99.0432E-03    -26.1305E+06    -99.8716E+06    -10.5743E+06    -18.5218E+06    -54.9118E-03     109.228E-03    -54.3165E-03     74.7526E-03    -55.0223E-03     108.922E-03    -54.1867E-03     74.0916E-03
             966     8.52551E-03     99.1179E-03    -23.6638E+06    -93.4793E+06    -10.6040E+06    -18.9851E+06    -55.1009E-03     109.330E-03    -54.2290E-03     82.6458E-03    -55.2635E-03     109.107E-03    -54.1121E-03     81.8894E-03
             967     9.37896E-03     99.1998E-03    -21.9426E+06    -89.3341E+06    -10.4073E+06    -19.4021E+06    -55.4256E-03     109.582E-03    -54.1561E-03     90.9981E-03    -55.6630E-03     109.454E-03    -54.0468E-03     90.1280E-03
             968     10.2317E-03     99.2896E-03    -20.4023E+06    -83.9944E+06    -12.8685E+06    -19.3340E+06    -55.9126E-03     109.999E-03    -54.0862E-03     99.2140E-03    -56.2511E-03     110.004E-03    -53.9992E-03     98.2167E-03
             969     11.0852E-03     99.3874E-03    -19.4166E+06    -75.1695E+06    -15.8809E+06    -18.3179E+06    -56.6417E-03     110.682E-03    -54.0398E-03     107.009E-03    -57.1351E-03     110.885E-03    -53.9821E-03     105.864E-03
             970     11.9369E-03     99.4917E-03    -18.3866E+06    -59.6918E+06    -18.1295E+06    -16.6542E+06    -57.5045E-03     111.524E-03    -54.0199E-03     118.784E-03    -58.2611E-03     112.056E-03    -53.9973E-03     117.457E-03
             971     12.7895E-03     99.6136E-03    -17.2775E+06    -30.9955E+06    -24.0364E+06    -13.5874E+06    -58.6312E-03     112.611E-03    -53.9797E-03     139.027E-03    -59.9063E-03     113.784E-03    -54.0299E-03     137.457E-03
             972     13.6416E-03     99.7567E-03    -17.3131E+06     33.4135E+06    -30.1408E+06    -8.42533E+06    -60.8340E-03     114.727E-03    -53.8930E-03     175.435E-03    -63.2890E-03     117.327E-03    -54.0671E-03     173.548E-03
             973     14.4951E-03     99.9537E-03    -15.7726E+06     109.567E+06     2.44999E+06    -3.92692E+06    -65.5059E-03     119.480E-03    -53.9740E-03     241.251E-03    -71.1629E-03     125.463E-03    -54.0977E-03     239.033E-03
             974     15.3448E-03     100.232E-03    -11.5328E+06     157.822E+06     76.4818E+06    -1.16289E+06    -70.3073E-03     124.593E-03    -54.2856E-03     312.824E-03    -82.3499E-03     136.933E-03    -54.1153E-03     311.856E-03
             975     16.1995E-03     100.585E-03    -5.75445E+06     171.405E+06     115.574E+06     784.135E+03    -63.4000E-03     117.840E-03    -54.4404E-03     247.505E-03    -73.6489E-03     128.342E-03    -54.1027E-03     249.460E-03
             976     852.398E-06     99.7765E-03    -44.9921E+06    -127.980E+06    -44.5338E+06    -4.12162E+06    -54.3311E-03     108.640E-03    -54.3093E-03     9.64448E-03    -54.3072E-03     108.132E-03    -54.2811E-03     9.55902E-03
             977     1.70492E-03     99.7893E-03    -43.7275E+06    -125.045E+06    -41.1775E+06    -7.12150E+06    -54.3038E-03     108.605E-03    -54.3013E-03     17.7626E-03    -54.2858E-03     108.107E-03    -54.2625E-03     17.6099E-03
             978     2.55733E-03     99.8101E-03    -41.5228E+06    -121.682E+06    -36.3638E+06    -10.2027E+06    -54.2729E-03     108.548E-03    -54.2750E-03     26.2503E-03    -54.2611E-03     108.062E-03    -54.2202E-03     26.0256E-03
             979     3.41008E-03     99.8388E-03    -38.6947E+06    -117.276E+06    -30.6019E+06    -12.7819E+06    -54.1850E-03     108.414E-03    -54.2293E-03     34.7593E-03    -54.1818E-03     107.946E-03    -54.1562E-03     34.4657E-03
             980     4.26281E-03     99.8755E-03    -35.7132E+06    -112.865E+06    -24.9676E+06    -14.8542E+06    -54.0840E-03     108.243E-03    -54.1591E-03     43.1911E-03    -54.0920E-03     107.796E-03    -54.0685E-03     42.8306E-03
             981     5.11621E-03     99.9199E-03    -32.4067E+06    -108.161E+06    -19.8393E+06    -16.5252E+06    -54.0393E-03     108.110E-03    -54.0712E-03     51.5424E-03    -54.0609E-03     107.691E-03    -53.9666E-03     51.1146E-03
             982     5.96928E-03     99.9721E-03    -29.0317E+06    -103.407E+06    -15.2158E+06    -17.5907E+06    -54.0742E-03     108.052E-03    -53.9777E-03     59.8213E-03    -54.1144E-03     107.666E-03    -53.8617E-03     59.3262E-03
             983     6.82285E-03     100.032E-03    -25.9852E+06    -99.0180E+06    -11.4157E+06    -18.2667E+06    -54.1513E-03     108.035E-03    -53.8836E-03     68.0340E-03    -54.2176E-03     107.690E-03    -53.7594E-03     67.4676E-03
             984     7.67631E-03     100.099E-03    -23.2977E+06    -95.7667E+06    -8.64985E+06    -19.3454E+06    -54.2652E-03     108.055E-03    -53.7895E-03     76.2403E-03    -54.3666E-03     107.759E-03    -53.6602E-03     75.5873E-03
             985     8.53016E-03     100.173E-03    -21.3344E+06    -91.8509E+06    -9.31248E+06    -19.5341E+06    -54.5154E-03     108.202E-03    -53.6866E-03     84.4765E-03    -54.6664E-03     107.978E-03    -53.5690E-03     83.7335E-03
             986     9.38381E-03     100.255E-03    -19.6112E+06    -86.1383E+06    -8.88501E+06    -19.7569E+06    -54.9415E-03     108.546E-03    -53.6046E-03     93.0734E-03    -55.1693E-03     108.424E-03    -53.4957E-03     92.2207E-03
             987     10.2377E-03     100.346E-03    -18.2956E+06    -82.6715E+06    -10.9888E+06    -19.9564E+06    -55.6009E-03     109.143E-03    -53.5422E-03     101.643E-03    -55.9294E-03     109.145E-03    -53.4508E-03     100.659E-03
             988     11.0905E-03     100.443E-03    -17.1514E+06    -74.6178E+06    -14.6827E+06    -19.0990E+06    -56.4320E-03     109.935E-03    -53.5035E-03     110.014E-03    -56.9128E-03     110.133E-03    -53.4438E-03     108.882E-03
             989     11.9434E-03     100.550E-03    -15.8904E+06    -60.9420E+06    -16.6373E+06    -17.7181E+06    -57.2362E-03     110.732E-03    -53.4958E-03     121.682E-03    -57.9762E-03     111.247E-03    -53.4675E-03     120.368E-03
             990     12.7963E-03     100.669E-03    -15.1515E+06    -35.6832E+06    -23.5029E+06    -14.5898E+06    -58.7652E-03     112.237E-03    -53.4717E-03     142.374E-03    -60.0260E-03     113.385E-03    -53.5155E-03     140.809E-03
             991     13.6480E-03     100.818E-03    -14.1818E+06     28.2403E+06    -26.5023E+06    -9.29808E+06    -61.5990E-03     115.043E-03    -53.4439E-03     178.123E-03    -64.0553E-03     117.626E-03    -53.5968E-03     176.217E-03
             992     14.4989E-03     101.009E-03    -13.7034E+06     105.122E+06     2.76735E+06    -3.82072E+06    -66.3215E-03     119.891E-03    -53.5691E-03     242.969E-03    -71.9883E-03     125.874E-03    -53.6878E-03     240.740E-03
             993     15.3527E-03     101.296E-03    -12.6603E+06     155.388E+06     71.3439E+06    -593.261E+03    -70.7293E-03     124.624E-03    -53.8946E-03     315.601E-03    -82.8446E-03     137.039E-03    -53.7448E-03     314.652E-03
             994     16.2027E-03     101.640E-03    -6.67265E+06     170.215E+06     113.951E+06     64.0972E+03    -63.6238E-03     117.711E-03    -54.0869E-03     247.135E-03    -73.8732E-03     128.210E-03    -53.7542E-03     249.060E-03
             995     852.910E-06     100.833E-03    -41.2358E+06    -118.730E+06    -40.7787E+06    -4.39848E+06    -53.7785E-03     107.484E-03    -53.7052E-03     9.75313E-03    -53.7547E-03     107.010E-03    -53.6771E-03     9.66558E-03
             996     1.70575E-03     100.845E-03    -39.9994E+06    -116.343E+06    -38.0727E+06    -7.70651E+06    -53.6914E-03     107.404E-03    -53.7128E-03     18.0032E-03    -53.6717E-03     106.940E-03    -53.6764E-03     17.8463E-03
             997     2.55893E-03     100.866E-03    -38.1545E+06    -113.666E+06    -33.5595E+06    -11.0076E+06    -53.6003E-03     107.267E-03    -53.6668E-03     26.6460E-03    -53.5869E-03     106.812E-03    -53.6145E-03     26.4163E-03
             998     3.41207E-03     100.894E-03    -35.7513E+06    -110.239E+06    -28.5373E+06    -13.8192E+06    -53.4988E-03     107.097E-03    -53.5986E-03     35.2878E-03    -53.4933E-03     106.656E-03    -53.5296E-03     34.9881E-03
             999     4.26572E-03     100.931E-03    -32.8157E+06    -106.723E+06    -23.3160E+06    -16.0118E+06    -53.3981E-03     106.911E-03    -53.5127E-03     43.9059E-03    -53.4017E-03     106.487E-03    -53.4270E-03     43.5402E-03
            1000     5.11916E-03     100.975E-03    -29.9270E+06    -102.581E+06    -18.6221E+06    -17.8104E+06    -53.3111E-03     106.721E-03    -53.4096E-03     52.4974E-03    -53.3284E-03     106.322E-03    -53.3106E-03     52.0654E-03
            1001     5.97337E-03     101.027E-03    -27.1409E+06    -99.7172E+06    -14.5633E+06    -18.8637E+06    -53.2565E-03     106.552E-03    -53.2957E-03     61.0885E-03    -53.2908E-03     106.178E-03    -53.1846E-03     60.5933E-03
            1002     6.82743E-03     101.086E-03    -24.2592E+06    -95.0689E+06    -11.2797E+06    -19.5737E+06    -53.2780E-03     106.450E-03    -53.1718E-03     69.6589E-03    -53.3378E-03     106.119E-03    -53.0551E-03     69.0962E-03
            1003     7.68200E-03     101.153E-03    -21.7217E+06    -92.4600E+06    -8.17852E+06    -20.1786E+06    -53.3962E-03     106.451E-03    -53.0546E-03     78.1231E-03    -53.4903E-03     106.163E-03    -52.9300E-03     77.4830E-03
            1004     8.53655E-03     101.227E-03    -19.2507E+06    -89.5726E+06    -7.86633E+06    -20.3806E+06    -53.7375E-03     106.676E-03    -52.9387E-03     86.8728E-03    -53.8775E-03     106.453E-03    -52.8202E-03     86.1459E-03
            1005     9.39082E-03     101.310E-03    -17.3981E+06    -83.3261E+06    -7.64349E+06    -20.3341E+06    -54.3962E-03     107.247E-03    -52.8509E-03     95.9154E-03    -54.6128E-03     107.128E-03    -52.7431E-03     95.0825E-03
            1006     10.2449E-03     101.400E-03    -16.1369E+06    -81.1138E+06    -8.74384E+06    -20.2520E+06    -55.1330E-03     107.936E-03    -52.8032E-03     104.772E-03    -55.4501E-03     107.933E-03    -52.7059E-03     103.813E-03
            1007     11.0987E-03     101.500E-03    -15.2841E+06    -73.9934E+06    -13.3182E+06    -19.6706E+06    -55.8532E-03     108.618E-03    -52.7646E-03     113.654E-03    -56.3187E-03     108.805E-03    -52.7018E-03     112.552E-03
            1008     11.9523E-03     101.605E-03    -15.0695E+06    -61.5330E+06    -15.3580E+06    -18.4775E+06    -57.1941E-03     109.968E-03    -52.7738E-03     125.499E-03    -57.9285E-03     110.475E-03    -52.7396E-03     124.201E-03
            1009     12.8047E-03     101.727E-03    -14.5847E+06    -39.6763E+06    -22.6019E+06    -15.8756E+06    -59.2571E-03     112.056E-03    -52.7991E-03     146.063E-03    -60.5136E-03     113.186E-03    -52.8334E-03     144.495E-03
            1010     13.6570E-03     101.875E-03    -15.1194E+06     21.3491E+06    -26.3000E+06    -10.2805E+06    -62.4012E-03     115.237E-03    -52.8362E-03     182.385E-03    -64.8800E-03     117.815E-03    -52.9767E-03     180.463E-03
            1011     14.5072E-03     102.072E-03    -15.0443E+06     99.2364E+06    -4.07578E+06    -3.68662E+06    -67.4794E-03     120.477E-03    -52.9976E-03     245.954E-03    -73.1633E-03     126.472E-03    -53.1401E-03     243.693E-03
            1012     15.3585E-03     102.350E-03    -10.8062E+06     154.608E+06     65.1972E+06    -77.6757E+03    -70.8759E-03     124.244E-03    -53.3685E-03     316.603E-03    -83.0176E-03     136.708E-03    -53.2510E-03     315.747E-03
            1013     16.2145E-03     102.706E-03    -5.81281E+06     170.817E+06     114.948E+06     162.694E+03    -64.7474E-03     118.398E-03    -53.6505E-03     247.247E-03    -75.0391E-03     128.942E-03    -53.3150E-03     249.188E-03
            1014     853.505E-06     101.887E-03    -37.7509E+06    -108.622E+06    -37.4568E+06    -4.89602E+06    -52.9588E-03     105.874E-03    -52.9155E-03     10.0094E-03    -52.9370E-03     105.442E-03    -52.8905E-03     9.91778E-03
            1015     1.70719E-03     101.900E-03    -36.5848E+06    -107.040E+06    -34.7926E+06    -8.38315E+06    -52.8440E-03     105.743E-03    -52.8988E-03     18.3355E-03    -52.8252E-03     105.315E-03    -52.8645E-03     18.1743E-03
            1016     2.56093E-03     101.920E-03    -34.7524E+06    -105.079E+06    -30.9170E+06    -11.8082E+06    -52.7062E-03     105.536E-03    -52.8301E-03     27.1441E-03    -52.6915E-03     105.115E-03    -52.7819E-03     26.9109E-03
            1017     3.41507E-03     101.948E-03    -32.3845E+06    -102.651E+06    -26.3979E+06    -14.8317E+06    -52.5697E-03     105.308E-03    -52.7385E-03     35.9855E-03    -52.5606E-03     104.896E-03    -52.6747E-03     35.6824E-03
            1018     4.26916E-03     101.984E-03    -29.8449E+06    -100.217E+06    -21.8592E+06    -17.2586E+06    -52.4350E-03     105.064E-03    -52.6294E-03     44.8854E-03    -52.4336E-03     104.665E-03    -52.5502E-03     44.5165E-03
            1019     5.12394E-03     102.028E-03    -27.1480E+06    -97.1046E+06    -17.5162E+06    -18.8380E+06    -52.2957E-03     104.799E-03    -52.5029E-03     53.8018E-03    -52.3061E-03     104.419E-03    -52.4103E-03     53.3731E-03
            1020     5.97861E-03     102.079E-03    -24.4422E+06    -95.4036E+06    -13.4895E+06    -20.0010E+06    -52.1807E-03     104.545E-03    -52.3638E-03     62.6979E-03    -52.2057E-03     104.183E-03    -52.2575E-03     62.2086E-03
            1021     6.83405E-03     102.139E-03    -21.9960E+06    -91.3220E+06    -10.5345E+06    -20.6395E+06    -52.1567E-03     104.367E-03    -52.2107E-03     71.6281E-03    -52.2066E-03     104.045E-03    -52.0991E-03     71.0769E-03
            1022     7.68935E-03     102.205E-03    -19.6007E+06    -88.9566E+06    -7.33302E+06    -21.2108E+06    -52.3540E-03     104.425E-03    -52.0713E-03     80.5119E-03    -52.4376E-03     104.145E-03    -51.9506E-03     79.8872E-03
            1023     8.54477E-03     102.280E-03    -17.5169E+06    -87.5040E+06    -6.65822E+06    -21.4482E+06    -52.7510E-03     104.696E-03    -51.9455E-03     89.6787E-03    -52.8794E-03     104.471E-03    -51.8265E-03     88.9704E-03
            1024     9.40047E-03     102.362E-03    -15.7327E+06    -81.0996E+06    -6.18360E+06    -20.8968E+06    -53.4798E-03     105.329E-03    -51.8489E-03     99.6095E-03    -53.6840E-03     105.207E-03    -51.7395E-03     98.8076E-03
            1025     10.2548E-03     102.455E-03    -14.4661E+06    -79.7308E+06    -6.61898E+06    -20.5346E+06    -54.4333E-03     106.239E-03    -51.8055E-03     108.841E-03    -54.7383E-03     106.229E-03    -51.7021E-03     107.917E-03
            1026     11.1099E-03     102.552E-03    -14.0505E+06    -73.7731E+06    -11.7308E+06    -19.6173E+06    -55.5488E-03     107.336E-03    -51.7876E-03     117.735E-03    -56.0027E-03     107.513E-03    -51.7189E-03     116.668E-03
            1027     11.9638E-03     102.662E-03    -13.8952E+06    -60.5847E+06    -13.0021E+06    -18.4180E+06    -57.2984E-03     109.142E-03    -51.8433E-03     130.137E-03    -58.0269E-03     109.644E-03    -51.8003E-03     128.870E-03
            1028     12.8159E-03     102.784E-03    -14.7475E+06    -42.2967E+06    -20.4522E+06    -16.0030E+06    -59.8983E-03     111.838E-03    -51.9398E-03     150.893E-03    -61.1621E-03     112.959E-03    -51.9594E-03     149.335E-03
            1029     13.6668E-03     102.934E-03    -15.8105E+06     13.3602E+06    -24.4092E+06    -9.70807E+06    -63.2699E-03     115.331E-03    -52.0613E-03     186.963E-03    -65.7588E-03     117.882E-03    -52.1798E-03     185.051E-03
            1030     14.5188E-03     103.132E-03    -15.2236E+06     94.4117E+06    -4.77432E+06    -4.63494E+06    -68.5179E-03     120.800E-03    -52.2820E-03     249.777E-03    -74.2742E-03     126.851E-03    -52.4207E-03     247.478E-03
            1031     15.3677E-03     103.415E-03    -12.5066E+06     152.453E+06     60.5503E+06    -2.81545E+06    -73.7229E-03     126.490E-03    -52.7669E-03     316.816E-03    -85.9543E-03     139.043E-03    -52.6671E-03     315.681E-03
            1032     16.2197E-03     103.756E-03    -6.48548E+06     168.557E+06     113.817E+06    -341.014E+03    -66.5255E-03     119.753E-03    -53.2277E-03     243.832E-03    -76.7727E-03     130.246E-03    -52.8937E-03     245.540E-03
            1033     854.484E-06     102.940E-03    -33.6213E+06    -97.7251E+06    -32.9689E+06    -5.18067E+06    -51.8464E-03     103.688E-03    -51.8418E-03     10.1821E-03    -51.8262E-03     103.297E-03    -51.8162E-03     10.0898E-03
            1034     1.70901E-03     102.952E-03    -32.4754E+06    -97.0907E+06    -31.1288E+06    -9.07233E+06    -51.7104E-03     103.505E-03    -51.7950E-03     18.7213E-03    -51.6906E-03     103.116E-03    -51.7627E-03     18.5565E-03
            1035     2.56380E-03     102.972E-03    -30.9008E+06    -95.7922E+06    -28.2452E+06    -12.7917E+06    -51.5440E-03     103.249E-03    -51.7052E-03     27.7553E-03    -51.5268E-03     102.864E-03    -51.6627E-03     27.5177E-03
            1036     3.41877E-03     103.000E-03    -29.0545E+06    -94.6693E+06    -24.4916E+06    -15.8413E+06    -51.3349E-03     102.925E-03    -51.5902E-03     36.8897E-03    -51.3222E-03     102.544E-03    -51.5333E-03     36.5856E-03
            1037     4.27429E-03     103.036E-03    -26.9121E+06    -93.1197E+06    -20.3928E+06    -18.3321E+06    -51.1280E-03     102.579E-03    -51.4511E-03     46.0853E-03    -51.1223E-03     102.206E-03    -51.3790E-03     45.7184E-03
            1038     5.12985E-03     103.079E-03    -24.5888E+06    -91.8381E+06    -16.7206E+06    -20.1022E+06    -50.9379E-03     102.230E-03    -51.2923E-03     55.3187E-03    -50.9411E-03     101.868E-03    -51.2070E-03     54.8939E-03
            1039     5.98614E-03     103.130E-03    -22.2935E+06    -90.5395E+06    -12.9544E+06    -21.0370E+06    -50.8065E-03     101.930E-03    -51.1230E-03     64.6056E-03    -50.8240E-03     101.584E-03    -51.0242E-03     64.1277E-03
            1040     6.84236E-03     103.189E-03    -20.1149E+06    -87.9203E+06    -10.0245E+06    -21.5791E+06    -50.7876E-03     101.734E-03    -50.9466E-03     74.0057E-03    -50.8275E-03     101.420E-03    -50.8401E-03     73.4720E-03
            1041     7.69921E-03     103.256E-03    -18.1883E+06    -85.4081E+06    -7.10704E+06    -21.8656E+06    -51.0089E-03     101.793E-03    -50.7846E-03     83.5583E-03    -51.0826E-03     101.520E-03    -50.6699E-03     82.9606E-03
            1042     8.55583E-03     103.330E-03    -16.7081E+06    -85.0403E+06    -5.81285E+06    -22.0684E+06    -51.5705E-03     102.223E-03    -50.6526E-03     93.2979E-03    -51.6902E-03     101.998E-03    -50.5341E-03     92.6201E-03
            1043     9.41198E-03     103.413E-03    -15.5487E+06    -79.7030E+06    -6.07965E+06    -21.3078E+06    -52.2773E-03     102.826E-03    -50.5488E-03     103.659E-03    -52.4708E-03     102.699E-03    -50.4411E-03     102.896E-03
            1044     10.2692E-03     103.505E-03    -14.7773E+06    -78.2722E+06    -5.68192E+06    -20.7263E+06    -53.6152E-03     104.131E-03    -50.5156E-03     113.527E-03    -53.9130E-03     104.115E-03    -50.4091E-03     112.646E-03
            1045     11.1234E-03     103.606E-03    -13.9854E+06    -73.5340E+06    -10.4408E+06    -19.6558E+06    -55.5214E-03     106.068E-03    -50.5462E-03     122.767E-03    -55.9714E-03     106.237E-03    -50.4715E-03     121.733E-03
            1046     11.9770E-03     103.715E-03    -13.9370E+06    -60.4623E+06    -11.7595E+06    -18.1613E+06    -57.5784E-03     108.256E-03    -50.6774E-03     135.560E-03    -58.3067E-03     108.754E-03    -50.6283E-03     134.324E-03
            1047     12.8305E-03     103.841E-03    -14.3073E+06    -45.6223E+06    -18.1710E+06    -15.3415E+06    -60.7045E-03     111.576E-03    -50.8712E-03     156.547E-03    -61.9757E-03     112.687E-03    -50.8751E-03     155.009E-03
            1048     13.6812E-03     103.994E-03    -14.1566E+06     7.06696E+06    -20.4512E+06    -9.62194E+06    -64.8834E-03     116.003E-03    -51.1196E-03     191.505E-03    -67.4071E-03     118.561E-03    -51.2116E-03     189.558E-03
            1049     14.5297E-03     104.193E-03    -14.2610E+06     90.8988E+06    -317.599E+03    -4.19335E+06    -69.7256E-03     121.185E-03    -51.4589E-03     252.283E-03    -75.5036E-03     127.236E-03    -51.5716E-03     249.976E-03
            1050     15.3824E-03     104.477E-03    -12.5402E+06     152.717E+06     62.2976E+06    -2.19831E+06    -75.4441E-03     127.463E-03    -52.0190E-03     324.191E-03    -88.1357E-03     140.471E-03    -51.9108E-03     322.968E-03
            1051     16.2202E-03     104.830E-03    -7.20780E+06     166.453E+06     113.442E+06    -1.56392E+06    -70.9068E-03     123.533E-03    -52.6259E-03     248.658E-03    -81.5600E-03     134.423E-03    -52.2896E-03     250.054E-03
            1052     855.607E-06     103.990E-03    -29.4061E+06    -85.9810E+06    -29.1829E+06    -5.31032E+06    -50.3985E-03     100.822E-03    -50.4234E-03     10.3426E-03    -50.3796E-03     100.478E-03    -50.4020E-03     10.2519E-03
            1053     1.71146E-03     104.002E-03    -28.5779E+06    -86.2882E+06    -27.9787E+06    -9.79832E+06    -50.2266E-03     100.574E-03    -50.3477E-03     19.1881E-03    -50.2072E-03     100.228E-03    -50.3210E-03     19.0205E-03
            1054     2.56750E-03     104.022E-03    -27.5547E+06    -86.1272E+06    -25.9585E+06    -13.5690E+06    -50.0165E-03     100.250E-03    -50.2334E-03     28.4808E-03    -49.9990E-03     99.9039E-03    -50.1983E-03     28.2432E-03
            1055     3.42390E-03     104.049E-03    -26.1476E+06    -86.2880E+06    -23.0041E+06    -16.8089E+06    -49.7517E-03     99.8436E-03    -50.0918E-03     37.9048E-03    -49.7372E-03     99.4964E-03    -50.0438E-03     37.6021E-03
            1056     4.28060E-03     104.084E-03    -24.4831E+06    -85.8216E+06    -19.7831E+06    -19.2886E+06    -49.4640E-03     99.3844E-03    -49.9204E-03     47.4472E-03    -49.4551E-03     99.0410E-03    -49.8594E-03     47.0866E-03
            1057     5.13790E-03     104.127E-03    -22.9180E+06    -86.3620E+06    -16.4484E+06    -20.8412E+06    -49.2202E-03     98.9502E-03    -49.7300E-03     57.0712E-03    -49.2194E-03     98.6089E-03    -49.6538E-03     56.6605E-03
            1058     5.99540E-03     104.177E-03    -21.4242E+06    -85.8620E+06    -13.7455E+06    -21.8347E+06    -49.0598E-03     98.5853E-03    -49.5255E-03     66.8316E-03    -49.0728E-03     98.2570E-03    -49.4386E-03     66.3725E-03
            1059     6.85353E-03     104.236E-03    -20.0904E+06    -84.5051E+06    -11.3049E+06    -22.1006E+06    -49.0815E-03     98.4047E-03    -49.3232E-03     76.7992E-03    -49.1167E-03     98.1010E-03    -49.2280E-03     76.2932E-03
            1060     7.71160E-03     104.302E-03    -19.3147E+06    -82.3971E+06    -9.09239E+06    -21.9563E+06    -49.3702E-03     98.5122E-03    -49.1419E-03     86.9921E-03    -49.4412E-03     98.2481E-03    -49.0399E-03     86.4330E-03
            1061     8.56989E-03     104.378E-03    -18.7343E+06    -82.1414E+06    -7.17961E+06    -21.8971E+06    -50.0716E-03     99.0780E-03    -49.0065E-03     97.4591E-03    -50.1914E-03     98.8603E-03    -48.8961E-03     96.8288E-03
            1062     9.42788E-03     104.461E-03    -18.4719E+06    -78.5479E+06    -7.88302E+06    -21.4856E+06    -51.2903E-03     100.214E-03    -48.9232E-03     108.105E-03    -51.4860E-03     100.088E-03    -48.8219E-03     107.383E-03
            1063     10.2844E-03     104.554E-03    -18.0788E+06    -75.7448E+06    -6.41505E+06    -20.6522E+06    -52.8963E-03     101.835E-03    -48.9387E-03     118.631E-03    -53.2001E-03     101.824E-03    -48.8347E-03     117.797E-03
            1064     11.1410E-03     104.658E-03    -17.9986E+06    -74.3888E+06    -10.5169E+06    -20.0481E+06    -55.2081E-03     104.245E-03    -49.0369E-03     128.553E-03    -55.6673E-03     104.407E-03    -48.9555E-03     127.555E-03
            1065     11.9951E-03     104.768E-03    -17.8115E+06    -60.6265E+06    -11.1975E+06    -18.3505E+06    -58.4346E-03     107.706E-03    -49.2711E-03     141.474E-03    -59.1866E-03     108.212E-03    -49.2133E-03     140.251E-03
            1066     12.8463E-03     104.898E-03    -16.9770E+06    -48.6135E+06    -15.3417E+06    -16.1194E+06    -62.2621E-03     111.888E-03    -49.6257E-03     162.168E-03    -63.5697E-03     113.007E-03    -49.6073E-03     160.609E-03
            1067     13.6961E-03     105.054E-03    -16.0074E+06      25.222E+03    -17.3665E+06    -11.1832E+06    -66.6932E-03     116.730E-03    -50.0367E-03     196.331E-03    -69.2745E-03     119.305E-03    -50.1004E-03     194.325E-03
            1068     14.5444E-03     105.257E-03    -14.1955E+06     87.6729E+06    -264.649E+03    -4.69606E+06    -72.4959E-03     123.028E-03    -50.5322E-03     254.351E-03    -78.3562E-03     129.150E-03    -50.6401E-03     251.884E-03
            1069     15.3911E-03     105.536E-03    -10.2949E+06     151.815E+06     61.7165E+06    -1.94536E+06    -75.6528E-03     126.877E-03    -51.2240E-03     321.575E-03    -88.2580E-03     139.804E-03    -51.1206E-03     320.506E-03
            1070     16.2571E-03     105.902E-03    -6.07170E+06     165.374E+06     114.850E+06    -776.749E+03    -74.3500E-03     126.346E-03    -51.9955E-03     247.734E-03    -84.9508E-03     137.180E-03    -51.6523E-03     249.097E-03
            1071     857.219E-06     105.037E-03    -25.3893E+06    -73.7111E+06    -25.9181E+06    -5.79933E+06    -48.5584E-03     97.1342E-03    -48.5759E-03     10.6287E-03    -48.5419E-03     96.8408E-03    -48.5618E-03     10.5355E-03
            1072     1.71459E-03     105.049E-03    -25.2764E+06    -74.8100E+06    -25.1487E+06    -10.2815E+06    -48.3719E-03     96.8703E-03    -48.4984E-03     19.6871E-03    -48.3563E-03     96.5720E-03    -48.4790E-03     19.5205E-03
            1073     2.57224E-03     105.068E-03    -24.7299E+06    -76.2410E+06    -23.9984E+06    -14.1627E+06    -48.0911E-03     96.4590E-03    -48.3680E-03     29.2458E-03    -48.0757E-03     96.1545E-03    -48.3416E-03     29.0118E-03
            1074     3.43028E-03     105.095E-03    -24.1059E+06    -77.4519E+06    -22.6090E+06    -17.3555E+06    -47.7639E-03     95.9590E-03    -48.1951E-03     38.9994E-03    -47.7507E-03     95.6504E-03    -48.1609E-03     38.7053E-03
            1075     4.28880E-03     105.129E-03    -23.7468E+06    -78.9748E+06    -20.8744E+06    -19.5729E+06    -47.4105E-03     95.4014E-03    -47.9909E-03     48.9061E-03    -47.4031E-03     95.0895E-03    -47.9464E-03     48.5623E-03
            1076     5.14781E-03     105.171E-03    -23.4607E+06    -80.9797E+06    -18.8138E+06    -20.7728E+06    -47.0958E-03     94.8608E-03    -47.7649E-03     58.9952E-03    -47.0973E-03     94.5456E-03    -47.7076E-03     58.6116E-03
            1077     6.00732E-03     105.222E-03    -23.4083E+06    -81.2050E+06    -16.9762E+06    -21.5722E+06    -46.9393E-03     94.4675E-03    -47.5282E-03     69.3005E-03    -46.9574E-03     94.1631E-03    -47.4614E-03     68.8767E-03
            1078     6.86715E-03     105.279E-03    -23.6076E+06    -81.5943E+06    -15.3669E+06    -21.6544E+06    -47.0419E-03     94.3474E-03    -47.3055E-03     79.8791E-03    -47.0838E-03     94.0600E-03    -47.2298E-03     79.4164E-03
            1079     7.72718E-03     105.346E-03    -23.9353E+06    -79.7143E+06    -13.3524E+06    -20.9680E+06    -47.5207E-03     94.6410E-03    -47.1203E-03     90.7171E-03    -47.6010E-03     94.3916E-03    -47.0367E-03     90.2129E-03
            1080     8.58701E-03     105.421E-03    -24.9870E+06    -79.6471E+06    -10.9510E+06    -20.5785E+06    -48.5583E-03     95.5664E-03    -47.0081E-03     101.781E-03    -48.6944E-03     95.3625E-03    -46.9111E-03     101.213E-03
            1081     9.44619E-03     105.506E-03    -25.6099E+06    -76.5536E+06    -10.3286E+06    -20.5972E+06    -50.2742E-03     97.2555E-03    -46.9813E-03     113.168E-03    -50.4913E-03     97.1396E-03    -46.8848E-03     112.502E-03
            1082     10.3040E-03     105.601E-03    -25.5519E+06    -73.9733E+06    -8.61757E+06    -20.6849E+06    -52.4646E-03     99.5439E-03    -47.0793E-03     124.047E-03    -52.7944E-03     99.5453E-03    -46.9780E-03     123.251E-03
            1083     11.1606E-03     105.706E-03    -25.1526E+06    -73.5339E+06    -10.6131E+06    -20.4315E+06    -55.4534E-03     102.754E-03    -47.3004E-03     134.478E-03    -55.9435E-03     102.924E-03    -47.2103E-03     133.506E-03
            1084     12.0144E-03     105.823E-03    -23.9275E+06    -60.6703E+06    -10.3425E+06    -19.5740E+06    -59.4608E-03     107.142E-03    -47.6810E-03     147.561E-03    -60.2495E-03     107.660E-03    -47.6101E-03     146.335E-03
            1085     12.8651E-03     105.955E-03    -22.7245E+06    -50.7116E+06    -13.2690E+06    -17.4768E+06    -64.2463E-03     112.466E-03    -48.2199E-03     168.450E-03    -65.6171E-03     113.615E-03    -48.1797E-03     166.846E-03
            1086     13.7130E-03     106.115E-03    -21.3755E+06    -5.66371E+06    -13.4644E+06    -13.8500E+06    -69.5266E-03     118.380E-03    -48.8535E-03     201.230E-03    -72.1900E-03     120.987E-03    -48.8816E-03     199.107E-03
            1087     14.5598E-03     106.320E-03    -17.9481E+06     82.7392E+06     545.977E+03    -9.22746E+06    -76.9991E-03     126.593E-03    -49.5936E-03     256.964E-03    -83.0646E-03     132.887E-03    -49.6849E-03     254.164E-03
            1088     15.4025E-03     106.607E-03    -13.6430E+06     147.383E+06     57.3372E+06    -4.69052E+06    -82.2932E-03     132.931E-03    -50.6381E-03     313.832E-03    -94.6043E-03     145.551E-03    -50.5454E-03     312.012E-03
            1089     16.2344E-03     106.943E-03    -6.79978E+06     161.736E+06     112.313E+06    -1.35308E+06    -76.6080E-03     128.334E-03    -51.7263E-03     247.583E-03    -87.1198E-03     139.071E-03    -51.3894E-03     248.715E-03
            1090     859.207E-06     106.080E-03    -21.9166E+06    -61.0737E+06    -22.2636E+06    -6.10659E+06    -46.2858E-03     92.5814E-03    -46.2956E-03     10.8995E-03    -46.2755E-03     92.3406E-03    -46.2866E-03     10.8065E-03
            1091     1.71846E-03     106.091E-03    -22.2218E+06    -63.1846E+06    -22.5864E+06    -10.3093E+06    -46.0796E-03     92.2950E-03    -46.2154E-03     20.1757E-03    -46.0689E-03     92.0460E-03    -46.2045E-03     20.0166E-03
            1092     2.57810E-03     106.110E-03    -22.6013E+06    -66.2752E+06    -23.1287E+06    -14.2370E+06    -45.7523E-03     91.8204E-03    -46.0681E-03     30.0389E-03    -45.7409E-03     91.5600E-03    -46.0549E-03     29.8159E-03
            1093     3.43818E-03     106.136E-03    -23.3052E+06    -69.2374E+06    -23.6305E+06    -16.9384E+06    -45.3499E-03     91.2179E-03    -45.8680E-03     40.1115E-03    -45.3410E-03     90.9485E-03    -45.8520E-03     39.8394E-03
            1094     4.29883E-03     106.170E-03    -24.3730E+06    -72.6390E+06    -23.6267E+06    -18.5880E+06    -44.9419E-03     90.5740E-03    -45.6321E-03     50.3998E-03    -44.9392E-03     90.2950E-03    -45.6096E-03     50.0905E-03
            1095     5.15995E-03     106.211E-03    -25.8441E+06    -76.0702E+06    -23.2052E+06    -19.4127E+06    -44.6100E-03     89.9863E-03    -45.3763E-03     60.9398E-03    -44.6188E-03     89.7000E-03    -45.3446E-03     60.6009E-03
            1096     6.02176E-03     106.260E-03    -27.8273E+06    -77.4179E+06    -22.1698E+06    -19.3151E+06    -44.5171E-03     89.6394E-03    -45.1224E-03     71.8195E-03    -44.5476E-03     89.3601E-03    -45.0806E-03     71.4577E-03
            1097     6.88364E-03     106.318E-03    -30.3004E+06    -78.6229E+06    -20.3325E+06    -19.1336E+06    -44.8013E-03     89.7059E-03    -44.9046E-03     82.9454E-03    -44.8638E-03     89.4401E-03    -44.8483E-03     82.5526E-03
            1098     7.74570E-03     106.385E-03    -32.2325E+06    -77.5180E+06    -17.7429E+06    -18.9657E+06    -45.6346E-03     90.3858E-03    -44.7512E-03     94.4393E-03    -45.7409E-03     90.1535E-03    -44.6808E-03     94.0020E-03
            1099     8.60710E-03     106.462E-03    -32.4336E+06    -77.1211E+06    -13.8216E+06    -18.8012E+06    -47.1551E-03     91.8572E-03    -44.7021E-03     106.211E-03    -47.3146E-03     91.6675E-03    -44.6123E-03     105.707E-03
            1100     9.46720E-03     106.548E-03    -32.5572E+06    -73.7432E+06    -11.0958E+06    -18.8548E+06    -49.2975E-03     94.0648E-03    -44.7672E-03     118.207E-03    -49.5382E-03     93.9600E-03    -44.6686E-03     117.606E-03
            1101     10.3265E-03     106.646E-03    -32.7002E+06    -71.6406E+06    -9.14338E+06    -19.8679E+06    -52.4126E-03     97.3982E-03    -44.9857E-03     129.624E-03    -52.7721E-03     97.4139E-03    -44.8801E-03     128.872E-03
            1102     11.1821E-03     106.754E-03    -30.9988E+06    -70.4164E+06    -9.62939E+06    -21.5707E+06    -56.3534E-03     101.730E-03    -45.3769E-03     140.849E-03    -56.8789E-03     101.924E-03    -45.2780E-03     139.879E-03
            1103     12.0352E-03     106.875E-03    -28.0303E+06    -60.0601E+06    -8.75419E+06    -21.7542E+06    -60.8188E-03     106.766E-03    -45.9476E-03     154.388E-03    -61.6437E-03     107.304E-03    -45.8636E-03     153.136E-03
            1104     12.8859E-03     107.012E-03    -24.9550E+06    -53.6599E+06    -11.3680E+06    -19.2414E+06    -66.5052E-03     113.195E-03    -46.6895E-03     175.074E-03    -67.9185E-03     114.363E-03    -46.6323E-03     173.413E-03
            1105     13.7316E-03     107.180E-03    -21.6799E+06    -7.38700E+06    -8.08705E+06    -16.1842E+06    -73.7371E-03     121.330E-03    -47.5933E-03     207.222E-03    -76.5085E-03     124.023E-03    -47.5916E-03     204.909E-03
            1106     14.5721E-03     107.388E-03    -18.8989E+06     76.7822E+06     4.77325E+06    -12.6573E+06    -82.4701E-03     131.123E-03    -48.6532E-03     262.432E-03    -88.7566E-03     137.602E-03    -48.7133E-03     259.252E-03
            1107     15.4095E-03     107.682E-03    -13.5618E+06     141.209E+06     57.7967E+06    -6.65812E+06    -88.9164E-03     138.937E-03    -50.0209E-03     320.026E-03    -101.638E-03     151.945E-03    -49.9170E-03     317.450E-03
            1108     16.2484E-03     108.027E-03    -6.03123E+06     159.261E+06     110.732E+06    -2.54163E+06    -80.9303E-03     132.306E-03    -51.3753E-03     253.105E-03    -91.8226E-03     143.421E-03    -51.0438E-03     253.783E-03
            1109     861.420E-06     107.117E-03    -19.0527E+06    -48.7623E+06    -19.2431E+06    -5.68585E+06    -43.5819E-03     87.1554E-03    -43.5735E-03     11.1641E-03    -43.5794E-03     86.9674E-03    -43.5714E-03     11.0809E-03
            1110     1.72318E-03     107.128E-03    -20.1864E+06    -52.0987E+06    -21.2490E+06    -9.66385E+06    -43.3218E-03     86.8101E-03    -43.4884E-03     20.6402E-03    -43.3184E-03     86.6110E-03    -43.4898E-03     20.4973E-03
            1111     2.58516E-03     107.146E-03    -21.9344E+06    -56.7954E+06    -23.6663E+06    -13.2012E+06    -42.9733E-03     86.2935E-03    -43.3202E-03     30.7470E-03    -42.9703E-03     86.0789E-03    -43.3244E-03     30.5493E-03
            1112     3.44767E-03     107.172E-03    -24.1945E+06    -62.2656E+06    -26.4445E+06    -15.3615E+06    -42.5335E-03     85.6330E-03    -43.0995E-03     41.1293E-03    -42.5329E-03     85.4014E-03    -43.1063E-03     40.8940E-03
            1113     4.31071E-03     107.205E-03    -27.3030E+06    -67.8820E+06    -28.6634E+06    -15.8608E+06    -42.1065E-03     84.9495E-03    -42.8430E-03     51.7807E-03    -42.1143E-03     84.7018E-03    -42.8483E-03     51.5280E-03
            1114     5.17448E-03     107.245E-03    -31.4637E+06    -72.3683E+06    -29.2478E+06    -15.5201E+06    -41.8777E-03     84.4603E-03    -42.5825E-03     62.7717E-03    -41.9055E-03     84.2035E-03    -42.5782E-03     62.5091E-03
            1115     6.03837E-03     107.294E-03    -35.6486E+06    -74.7673E+06    -27.8547E+06    -15.0898E+06    -41.9694E-03     84.3200E-03    -42.3506E-03     74.1303E-03    -42.0267E-03     84.0655E-03    -42.3297E-03     73.8534E-03
            1116     6.90271E-03     107.352E-03    -38.4817E+06    -75.4874E+06    -23.8819E+06    -15.1053E+06    -42.6031E-03     84.7881E-03    -42.1851E-03     85.8095E-03    -42.6958E-03     84.5450E-03    -42.1392E-03     85.5026E-03
            1117     7.76633E-03     107.420E-03    -40.0124E+06    -74.2896E+06    -19.4079E+06    -16.0203E+06    -43.8938E-03     86.0071E-03    -42.1133E-03     97.8858E-03    -44.0297E-03     85.7931E-03    -42.0446E-03     97.5222E-03
            1118     8.62917E-03     107.497E-03    -40.4696E+06    -74.0466E+06    -15.3104E+06    -17.3924E+06    -45.8361E-03     87.9988E-03    -42.1628E-03     110.285E-03    -46.0248E-03     87.8251E-03    -42.0733E-03     109.838E-03
            1119     9.49089E-03     107.586E-03    -38.9320E+06    -71.1763E+06    -11.3255E+06    -18.2988E+06    -48.7112E-03     91.0684E-03    -42.3572E-03     122.971E-03    -48.9752E-03     90.9744E-03    -42.2542E-03     122.413E-03
            1120     10.3496E-03     107.688E-03    -35.5929E+06     -66.415E+06    -7.68183E+06    -20.2036E+06    -52.5375E-03     95.2679E-03    -42.7304E-03     135.529E-03    -52.9130E-03     95.3037E-03    -42.6209E-03     134.801E-03
            1121     11.2059E-03     107.801E-03    -32.0147E+06    -65.9716E+06    -7.46161E+06    -23.1969E+06    -57.1515E-03     100.450E-03    -43.2990E-03     147.555E-03    -57.6913E-03     100.664E-03    -43.1942E-03     146.583E-03
            1122     12.0586E-03     107.926E-03    -29.0111E+06    -59.4617E+06    -7.28565E+06    -23.8545E+06    -62.6942E-03     106.769E-03    -44.0749E-03     161.973E-03    -63.5469E-03     107.330E-03    -43.9830E-03     160.683E-03
            1123     12.9061E-03     108.071E-03    -24.5565E+06    -54.7294E+06    -9.57009E+06    -23.4463E+06    -69.4300E-03     114.486E-03    -45.0557E-03     183.333E-03    -70.8968E-03     115.700E-03    -44.9886E-03     181.554E-03
            1124     13.7503E-03     108.244E-03    -18.8090E+06    -10.9501E+06    -4.50774E+06    -19.9344E+06    -77.7313E-03     123.958E-03    -46.2267E-03     216.995E-03    -80.6261E-03     126.761E-03    -46.2061E-03     214.477E-03
            1125     14.5883E-03     108.466E-03    -14.3178E+06     71.4912E+06     10.1372E+06    -13.0843E+06    -87.0690E-03     134.629E-03    -47.5599E-03     271.955E-03    -93.6090E-03     141.344E-03    -47.5921E-03     268.463E-03
            1126     15.4244E-03     108.758E-03    -11.2823E+06     135.100E+06     60.1018E+06    -7.68064E+06    -92.4875E-03     141.638E-03    -49.1506E-03     325.871E-03    -105.610E-03     155.027E-03    -49.0296E-03     322.989E-03
            1127     16.2601E-03     109.107E-03    -5.13930E+06     154.881E+06     109.473E+06    -3.60146E+06    -86.9590E-03     137.722E-03    -50.7628E-03     249.153E-03    -97.8457E-03     148.823E-03    -50.4325E-03     249.247E-03
            1128     864.243E-06     108.149E-03    -17.9858E+06    -37.9512E+06    -18.0528E+06    -4.39890E+06    -40.4506E-03     80.8623E-03    -40.4117E-03     11.3332E-03    -40.4601E-03     80.7247E-03    -40.4208E-03     11.2706E-03
            1129     1.72856E-03     108.159E-03    -20.0125E+06    -42.3228E+06    -21.5421E+06    -8.07158E+06    -40.1548E-03     80.4889E-03    -40.3341E-03     20.9773E-03    -40.1638E-03     80.3381E-03    -40.3514E-03     20.8622E-03
            1130     2.59336E-03     108.177E-03    -23.4595E+06    -49.2621E+06    -26.3917E+06    -10.4761E+06    -39.7799E-03     79.9305E-03    -40.1506E-03     31.2921E-03    -39.7902E-03     79.7583E-03    -40.1772E-03     31.1407E-03
            1131     3.45860E-03     108.202E-03    -28.7677E+06    -57.4537E+06    -31.9445E+06    -11.1993E+06    -39.3702E-03     79.2904E-03    -39.9203E-03     41.9204E-03    -39.3890E-03     79.0949E-03    -39.9550E-03     41.7539E-03
            1132     4.32447E-03     108.234E-03    -35.1357E+06    -65.4735E+06    -35.8670E+06    -10.4531E+06    -39.0790E-03     78.7567E-03    -39.6777E-03     52.8914E-03    -39.1152E-03     78.5389E-03    -39.7111E-03     52.7274E-03
            1133     5.19064E-03     108.274E-03    -41.0931E+06    -70.4420E+06    -35.6306E+06    -9.33185E+06    -39.0719E-03     78.5354E-03    -39.4635E-03     64.2696E-03    -39.1358E-03     78.3059E-03    -39.4799E-03     64.1094E-03
            1134     6.05717E-03     108.323E-03    -45.4087E+06    -71.6984E+06    -31.4158E+06    -9.69386E+06    -39.5304E-03     78.8421E-03    -39.3118E-03     76.0404E-03    -39.6284E-03     78.6150E-03    -39.2990E-03     75.8586E-03
            1135     6.92317E-03     108.381E-03    -47.0816E+06    -71.2617E+06    -25.8332E+06    -11.8645E+06    -40.5933E-03     79.8410E-03    -39.2477E-03     88.3383E-03    -40.7232E-03     79.6252E-03    -39.2053E-03     88.1013E-03
            1136     7.78855E-03     108.450E-03    -46.1044E+06    -70.6117E+06    -19.7664E+06    -13.8808E+06    -42.3194E-03     81.6180E-03    -39.2986E-03     101.012E-03    -42.4799E-03     81.4211E-03    -39.2282E-03     100.707E-03
            1137     8.65273E-03     108.529E-03    -44.1135E+06    -69.0636E+06    -14.4229E+06    -16.0272E+06    -44.8437E-03     84.3302E-03    -39.4865E-03     114.086E-03    -45.0477E-03     84.1741E-03    -39.3945E-03     113.687E-03
            1138     9.51470E-03     108.622E-03    -40.7679E+06    -67.0752E+06    -10.7680E+06    -19.5898E+06    -48.2396E-03     88.0717E-03    -39.8321E-03     127.865E-03    -48.5084E-03     87.9889E-03    -39.7296E-03     127.321E-03
            1139     10.3744E-03     108.728E-03    -35.9261E+06    -60.4492E+06    -7.42134E+06    -22.8880E+06    -52.5553E-03     92.9143E-03    -40.3590E-03     141.715E-03    -52.9329E-03     92.9715E-03    -40.2564E-03     140.982E-03
            1140     11.2307E-03     108.846E-03    -32.1497E+06    -62.0674E+06    -6.70001E+06    -24.6626E+06    -57.9940E-03     99.1011E-03    -41.1072E-03     154.897E-03    -58.5420E-03     99.3346E-03    -41.0040E-03     153.923E-03
            1141     12.0824E-03     108.978E-03    -28.8521E+06    -57.2425E+06    -6.77800E+06    -26.0076E+06    -64.4002E-03     106.483E-03    -42.0824E-03     170.361E-03    -65.2760E-03     107.073E-03    -41.9914E-03     169.035E-03
            1142     12.9301E-03     109.130E-03    -25.1690E+06    -51.3736E+06    -8.47471E+06    -28.2431E+06    -72.1136E-03     115.398E-03    -43.2849E-03     193.535E-03    -73.6579E-03     116.697E-03    -43.2163E-03     191.634E-03
            1143     13.7709E-03     109.313E-03    -20.9691E+06    -18.0480E+06    -4.76298E+06    -25.6758E+06    -81.3714E-03     126.073E-03    -44.7016E-03     228.285E-03    -84.4194E-03     128.998E-03    -44.6688E-03     225.540E-03
            1144     14.6090E-03     109.541E-03    -16.5160E+06     62.4414E+06     9.37325E+06    -16.2304E+06    -91.0227E-03     137.298E-03    -46.2752E-03     280.395E-03    -97.7682E-03     144.181E-03    -46.2949E-03     276.603E-03
            1145     15.4409E-03     109.843E-03    -11.8661E+06     130.932E+06     59.4494E+06    -8.32601E+06    -98.5254E-03     146.673E-03    -48.1478E-03     330.297E-03    -111.897E-03     160.297E-03    -48.0232E-03     326.767E-03
            1146     16.2687E-03     110.190E-03    -6.40049E+06     149.359E+06     106.581E+06    -4.57453E+06    -95.3862E-03     145.534E-03    -50.1479E-03     249.153E-03    -106.338E-03     156.686E-03    -49.8223E-03     248.385E-03
            1147     867.226E-06     109.174E-03    -21.1503E+06    -29.3751E+06    -22.6170E+06    -3.79108E+06    -36.9066E-03     73.8213E-03    -36.9148E-03     11.3987E-03    -36.9376E-03     73.7376E-03    -36.9546E-03     11.3471E-03
            1148     1.73470E-03     109.184E-03    -24.4188E+06    -35.8104E+06    -27.2652E+06    -5.18436E+06    -36.6335E-03     73.4418E-03    -36.8083E-03     21.0967E-03    -36.6652E-03     73.3376E-03    -36.8573E-03     21.0250E-03
            1149     2.60252E-03     109.201E-03    -30.8108E+06    -45.8453E+06    -34.0606E+06    -4.92220E+06    -36.3008E-03     72.9313E-03    -36.6306E-03     31.5296E-03    -36.3405E-03     72.7967E-03    -36.6897E-03     31.4592E-03
            1150     3.47084E-03     109.225E-03    -38.8685E+06    -56.0631E+06    -39.7512E+06    -3.57108E+06    -36.0534E-03     72.4898E-03    -36.4363E-03     42.3239E-03    -36.1113E-03     72.3249E-03    -36.4974E-03     42.2682E-03
            1151     4.33942E-03     109.256E-03    -46.2019E+06    -64.4347E+06    -41.3114E+06    -2.87435E+06    -36.0636E-03     72.3357E-03    -36.2721E-03     53.5830E-03    -36.1453E-03     72.1436E-03    -36.3182E-03     53.5319E-03
            1152     5.20816E-03     109.296E-03    -50.4247E+06    -68.7794E+06    -38.0200E+06    -3.52631E+06    -36.4440E-03     72.6128E-03    -36.1688E-03     65.2609E-03    -36.5487E-03     72.4039E-03    -36.1860E-03     65.1931E-03
            1153     6.07662E-03     109.345E-03    -51.1633E+06    -67.2346E+06    -31.7768E+06    -5.77935E+06    -37.3211E-03     73.4636E-03    -36.1424E-03     77.5153E-03    -37.4477E-03     73.2614E-03    -36.1296E-03     77.4038E-03
            1154     6.94447E-03     109.405E-03    -50.0652E+06    -65.5674E+06    -24.8687E+06    -9.46067E+06    -38.7716E-03     74.9892E-03    -36.2177E-03     90.3531E-03    -38.9182E-03     74.7970E-03    -36.1743E-03     90.1695E-03
            1155     7.81139E-03     109.475E-03    -48.1854E+06    -66.1869E+06    -18.9449E+06    -13.0109E+06    -40.9472E-03     77.3632E-03    -36.4160E-03     103.783E-03    -41.1161E-03     77.1807E-03    -36.3449E-03     103.514E-03
            1156     8.67647E-03     109.558E-03    -44.1999E+06    -62.4892E+06    -13.8525E+06    -16.9479E+06    -43.9123E-03     80.6637E-03    -36.7514E-03     117.851E-03    -44.1164E-03     80.5291E-03    -36.6659E-03     117.468E-03
            1157     9.53945E-03     109.654E-03    -39.6269E+06    -60.3062E+06    -10.1235E+06    -21.3948E+06    -47.6818E-03     84.9315E-03    -37.2497E-03     132.753E-03    -47.9445E-03     84.8689E-03    -37.1555E-03     132.216E-03
            1158     10.3999E-03     109.764E-03    -36.4287E+06    -55.1807E+06    -7.71531E+06    -24.7615E+06    -52.5813E-03     90.5150E-03    -37.9337E-03     147.941E-03    -52.9601E-03     90.5913E-03    -37.8394E-03     147.212E-03
            1159     11.2563E-03     109.889E-03    -32.5349E+06    -58.6508E+06    -6.48853E+06    -27.1605E+06    -58.6250E-03     97.4781E-03    -38.8531E-03     162.579E-03    -59.1792E-03     97.7279E-03    -38.7533E-03     161.593E-03
            1160     12.1078E-03     110.029E-03    -27.8845E+06    -52.7229E+06    -6.06222E+06    -28.7995E+06    -65.8096E-03     105.815E-03    -40.0050E-03     179.502E-03    -66.7083E-03     106.446E-03    -39.9184E-03     178.137E-03
            1161     12.9541E-03     110.189E-03    -24.6289E+06    -46.2963E+06    -6.22508E+06    -30.5101E+06    -74.5854E-03     116.001E-03    -41.4155E-03     203.598E-03    -76.1995E-03     117.383E-03    -41.3438E-03     201.612E-03
            1162     13.7957E-03     110.382E-03    -22.4936E+06    -22.7235E+06    -4.14977E+06    -29.3721E+06    -85.3356E-03     128.416E-03    -43.0809E-03     238.781E-03    -88.5416E-03     131.476E-03    -43.0361E-03     235.807E-03
            1163     14.6273E-03     110.621E-03    -18.3210E+06     49.3069E+06     6.35662E+06    -21.0115E+06    -95.8119E-03     140.739E-03    -44.9267E-03     287.470E-03    -102.670E-03     147.690E-03    -44.9398E-03     283.289E-03
            1164     15.4585E-03     110.927E-03    -11.5150E+06     122.916E+06     58.7041E+06    -11.2762E+06    -104.193E-03     151.285E-03    -47.0915E-03     338.529E-03    -118.014E-03     165.332E-03    -46.9595E-03     334.240E-03
            1165     16.2801E-03     111.292E-03    -6.09824E+06     144.328E+06     106.369E+06    -5.10781E+06    -105.446E-03     154.926E-03    -49.4798E-03     256.625E-03    -116.831E-03     166.496E-03    -49.1484E-03     254.803E-03
            1166     870.509E-06     110.191E-03    -31.7587E+06    -24.1052E+06    -32.5881E+06    -1.82228E+06    -33.1197E-03     66.2841E-03    -33.1643E-03     11.2943E-03    -33.1969E-03     66.2563E-03    -33.2463E-03     11.2704E-03
            1167     1.74128E-03     110.201E-03    -38.0101E+06    -35.4882E+06    -40.6033E+06    -35.7912E+03    -32.9248E-03     65.9755E-03    -33.0507E-03     20.8933E-03    -33.0051E-03     65.9115E-03    -33.1471E-03     20.8925E-03
            1168     2.61230E-03     110.217E-03    -45.8047E+06    -47.9058E+06    -45.9597E+06     3.23656E+06    -32.7800E-03     65.7127E-03    -32.9328E-03     31.3152E-03    -32.8735E-03     65.6058E-03    -33.0267E-03     31.3567E-03
            1169     3.48355E-03     110.240E-03    -52.7866E+06    -57.1677E+06    -47.1251E+06     4.97875E+06    -32.8533E-03     65.6991E-03    -32.8458E-03     42.2542E-03    -32.9666E-03     65.5579E-03    -32.9220E-03     42.3175E-03
            1170     4.35478E-03     110.272E-03    -56.8190E+06    -62.9844E+06    -44.0142E+06     3.84295E+06    -33.2569E-03     66.0762E-03    -32.8193E-03     53.7085E-03    -33.3872E-03     65.9082E-03    -32.8657E-03     53.7546E-03
            1171     5.22572E-03     110.312E-03    -57.7528E+06    -64.9525E+06    -38.9012E+06     217.490E+03    -34.0624E-03     66.9264E-03    -32.8640E-03     65.7415E-03    -34.2043E-03     66.7449E-03    -32.8805E-03     65.7344E-03
            1172     6.09602E-03     110.363E-03    -56.1737E+06    -61.4290E+06    -32.4489E+06    -4.55843E+06    -35.2931E-03     68.2823E-03    -32.9892E-03     78.4659E-03    -35.4471E-03     68.1124E-03    -32.9810E-03     78.3848E-03
            1173     6.96564E-03     110.424E-03    -52.9426E+06    -59.6466E+06    -25.2063E+06    -8.94551E+06    -37.1067E-03     70.3266E-03    -33.2199E-03     91.8998E-03    -37.2691E-03     70.1620E-03    -33.1826E-03     91.7405E-03
            1174     7.83369E-03     110.497E-03    -48.4828E+06    -59.5915E+06    -19.2116E+06    -13.6026E+06    -39.6208E-03     73.1887E-03    -33.5679E-03     106.190E-03    -39.7916E-03     73.0314E-03    -33.5073E-03     105.934E-03
            1175     8.70009E-03     110.583E-03    -44.1514E+06    -54.6349E+06    -14.2591E+06    -18.9500E+06    -42.7806E-03     76.8233E-03    -34.0427E-03     121.215E-03    -42.9840E-03     76.7172E-03    -33.9707E-03     120.833E-03
            1176     9.56432E-03     110.682E-03    -40.0012E+06    -53.3257E+06    -9.93982E+06    -23.4915E+06    -47.0831E-03     81.7681E-03    -34.6850E-03     137.477E-03    -47.3464E-03     81.7290E-03    -34.5994E-03     136.940E-03
            1177     10.4250E-03     110.798E-03    -35.1915E+06    -49.4862E+06    -5.97030E+06    -26.3630E+06    -52.6079E-03     88.1354E-03    -35.5276E-03     154.133E-03    -52.9819E-03     88.2265E-03    -35.4346E-03     153.409E-03
            1178     11.2816E-03     110.930E-03    -30.3170E+06    -52.1724E+06    -4.43783E+06    -30.3194E+06    -59.0152E-03     95.6147E-03    -36.5995E-03     169.883E-03    -59.5668E-03     95.8870E-03    -36.5020E-03     168.881E-03
            1179     12.1341E-03     111.078E-03    -25.3940E+06    -49.9707E+06    -5.06943E+06    -32.6441E+06    -67.0849E-03     104.996E-03    -37.9108E-03     188.656E-03    -67.9916E-03     105.651E-03    -37.8269E-03     187.244E-03
            1180     12.9795E-03     111.250E-03    -21.6905E+06    -44.6605E+06    -3.97626E+06    -31.1392E+06    -77.5186E-03     117.050E-03    -39.5312E-03     214.115E-03    -79.1921E-03     118.501E-03    -39.4549E-03     212.048E-03
            1181     13.8167E-03     111.451E-03    -18.5105E+06    -21.1370E+06    -701.111E+03    -30.8440E+06    -89.4488E-03     130.898E-03    -41.4490E-03     249.825E-03    -92.7871E-03     134.100E-03    -41.3950E-03     246.650E-03
            1182     14.6493E-03     111.707E-03    -13.5208E+06     35.9039E+06     5.21036E+06    -26.0082E+06    -101.676E-03     145.266E-03    -43.5903E-03     295.686E-03    -108.678E-03     152.336E-03    -43.5967E-03     290.977E-03
            1183     15.4730E-03     112.014E-03    -8.34520E+06     109.442E+06     56.5018E+06    -12.8968E+06    -111.553E-03     157.681E-03    -46.1281E-03     341.133E-03    -125.538E-03     171.864E-03    -45.9922E-03     335.895E-03
            1184     16.2990E-03     112.394E-03    -5.55368E+06     139.763E+06     106.775E+06    -3.26680E+06    -113.919E-03     162.867E-03    -48.9472E-03     260.552E-03    -125.524E-03     174.642E-03    -48.6079E-03     257.742E-03
            1185     873.918E-06     111.200E-03    -52.4839E+06    -29.2880E+06    -48.3838E+06     7.28136E+06    -29.3358E-03     58.6484E-03    -29.3126E-03     10.9725E-03    -29.4861E-03     58.6476E-03    -29.4359E-03     11.0677E-03
            1186     1.74786E-03     111.210E-03    -60.9046E+06    -40.9817E+06    -54.7064E+06     9.67729E+06    -29.3485E-03     58.6644E-03    -29.3159E-03     20.3831E-03    -29.5145E-03     58.6263E-03    -29.4417E-03     20.5104E-03
            1187     2.62197E-03     111.226E-03    -65.8203E+06    -52.4867E+06    -56.7165E+06     10.4979E+06    -29.5386E-03     58.8722E-03    -29.3336E-03     30.7128E-03    -29.7092E-03     58.7864E-03    -29.4457E-03     30.8519E-03
            1188     3.49584E-03     111.249E-03    -65.6823E+06    -58.3508E+06    -53.1431E+06     9.45453E+06    -29.9864E-03     59.3889E-03    -29.4026E-03     41.6806E-03    -30.1525E-03     59.2682E-03    -29.4884E-03     41.8066E-03
            1189     4.36936E-03     111.281E-03    -63.1897E+06    -60.5911E+06    -47.1948E+06     6.57834E+06    -30.7508E-03     60.2831E-03    -29.5323E-03     53.3048E-03    -30.9100E-03     60.1391E-03    -29.5888E-03     53.3924E-03
            1190     5.24228E-03     111.323E-03    -59.7667E+06    -58.5211E+06    -40.1466E+06     1.28915E+06    -31.8726E-03     61.6033E-03    -29.7306E-03     65.6765E-03    -32.0293E-03     61.4559E-03    -29.7598E-03     65.6914E-03
            1191     6.11449E-03     111.375E-03    -55.9366E+06    -55.0666E+06    -32.4996E+06    -4.44218E+06    -33.4257E-03     63.4372E-03    -30.0115E-03     78.8158E-03    -33.5836E-03     63.2949E-03    -30.0130E-03     78.7469E-03
            1192     6.98542E-03     111.438E-03    -52.0536E+06    -52.8333E+06    -25.9011E+06    -9.57756E+06    -35.5201E-03     65.9050E-03    -30.3848E-03     92.9435E-03    -35.6810E-03     65.7683E-03    -30.3623E-03     92.7902E-03
            1193     7.85503E-03     111.514E-03    -47.6993E+06    -50.7440E+06    -20.2493E+06    -15.7329E+06    -38.1577E-03     69.0183E-03    -30.8606E-03     108.002E-03    -38.3274E-03     68.8970E-03    -30.8191E-03     107.738E-03
            1194     8.72273E-03     111.603E-03    -42.4175E+06    -47.1708E+06    -13.6067E+06    -20.8936E+06    -41.6463E-03     73.1113E-03    -31.4650E-03     124.042E-03    -41.8417E-03     73.0281E-03    -31.4031E-03     123.658E-03
            1195     9.58798E-03     111.707E-03    -37.2056E+06    -45.3877E+06    -7.65269E+06    -25.5472E+06    -46.4153E-03     78.6520E-03    -32.2367E-03     141.804E-03    -46.6664E-03     78.6322E-03    -32.1552E-03     141.268E-03
            1196     10.4495E-03     111.830E-03    -31.9868E+06    -44.0981E+06    -3.97222E+06    -29.5472E+06    -52.2766E-03     85.4809E-03    -33.2043E-03     159.858E-03    -52.6313E-03     85.5774E-03    -33.1138E-03     159.125E-03
            1197     11.3069E-03     111.968E-03    -27.1932E+06    -43.5312E+06    -1.38077E+06    -32.9547E+06    -59.4763E-03     93.8855E-03    -34.4091E-03     177.332E-03    -60.0228E-03     94.1858E-03    -34.3135E-03     176.318E-03
            1198     12.1582E-03     112.125E-03    -24.2243E+06    -48.0039E+06    -3.63296E+06    -35.3056E+06    -68.5811E-03     104.466E-03    -35.8849E-03     197.814E-03    -69.4978E-03     105.138E-03    -35.7984E-03     196.368E-03
            1199     13.0039E-03     112.308E-03    -20.3550E+06    -45.8302E+06    -2.83143E+06    -34.3716E+06    -80.1724E-03     117.867E-03    -37.6949E-03     225.679E-03    -81.8923E-03     119.363E-03    -37.6131E-03     223.517E-03
            1200     13.8404E-03     112.527E-03    -15.1603E+06    -16.3593E+06     3.76252E+06    -34.2139E+06    -93.8236E-03     133.671E-03    -39.8472E-03     261.550E-03    -97.2663E-03     136.994E-03    -39.7827E-03     258.143E-03
            1201     14.6685E-03     112.788E-03    -12.9307E+06     22.3522E+06     5.81669E+06    -28.2411E+06    -109.360E-03     151.693E-03    -42.3328E-03     306.136E-03    -116.611E-03     158.965E-03    -42.3174E-03     300.759E-03
            1202     15.4865E-03     113.118E-03    -12.6203E+06     91.0226E+06     45.6353E+06    -14.2038E+06    -122.810E-03     168.124E-03    -45.3141E-03     347.390E-03    -136.990E-03     182.454E-03    -45.1996E-03     340.571E-03
            1203     16.2862E-03     113.492E-03    -5.91541E+06     132.767E+06     99.6021E+06    -4.17073E+06    -121.235E-03     169.821E-03    -48.5863E-03     268.466E-03    -133.150E-03     181.899E-03    -48.2722E-03     264.463E-03
            1204     877.160E-06     112.202E-03    -85.4576E+06    -48.3402E+06    -82.2582E+06     12.6062E+06    -25.8888E-03     51.6709E-03    -25.7821E-03     10.3683E-03    -26.1269E-03     51.6719E-03    -25.9994E-03     10.5329E-03
            1205     1.75413E-03     112.212E-03    -80.1848E+06    -49.4851E+06    -70.2460E+06     15.7834E+06    -26.2023E-03     52.1461E-03    -25.9438E-03     19.5588E-03    -26.4295E-03     52.1160E-03    -26.1071E-03     19.7660E-03
            1206     2.63053E-03     112.228E-03    -75.3408E+06    -54.7790E+06    -62.8170E+06     13.2340E+06    -26.7834E-03     52.9107E-03    -26.1273E-03     29.8369E-03    -26.9890E-03     52.8359E-03    -26.2527E-03     30.0130E-03
            1207     3.50661E-03     112.252E-03    -71.0225E+06    -57.9186E+06    -57.9699E+06     9.25321E+06    -27.5650E-03     53.9155E-03    -26.3506E-03     40.7863E-03    -27.7507E-03     53.8112E-03    -26.4534E-03     40.9120E-03
            1208     4.38215E-03     112.286E-03    -65.2474E+06    -56.3609E+06    -51.5078E+06     4.20193E+06    -28.5791E-03     55.2025E-03    -26.6234E-03     52.4541E-03    -28.7473E-03     55.0880E-03    -26.7046E-03     52.5144E-03
            1209     5.25701E-03     112.328E-03    -58.1596E+06    -51.5412E+06    -42.5772E+06    -1.67330E+06    -29.9011E-03     56.8582E-03    -26.9571E-03     64.9764E-03    -30.0545E-03     56.7453E-03    -27.0110E-03     64.9581E-03
            1210     6.13077E-03     112.382E-03    -51.4474E+06    -48.9983E+06    -33.9198E+06    -6.66606E+06    -31.6698E-03     59.0322E-03    -27.3624E-03     78.5089E-03    -31.8088E-03     58.9127E-03    -27.3864E-03     78.4190E-03
            1211     7.00336E-03     112.447E-03    -45.4021E+06    -45.2401E+06    -25.9107E+06    -11.4975E+06    -33.8910E-03     61.7374E-03    -27.8463E-03     93.1744E-03    -34.0245E-03     61.6239E-03    -27.8445E-03     93.0078E-03
            1212     7.87430E-03     112.526E-03    -40.3899E+06    -41.4599E+06    -17.8013E+06    -17.1553E+06    -36.7123E-03     65.1404E-03    -28.4281E-03     108.873E-03    -36.8545E-03     65.0435E-03    -28.3984E-03     108.607E-03
            1213     8.74358E-03     112.619E-03    -36.7678E+06    -39.7787E+06    -10.9827E+06    -22.4396E+06    -40.5880E-03     69.7254E-03    -29.1374E-03     126.075E-03    -40.7585E-03     69.6561E-03    -29.0814E-03     125.693E-03
            1214     9.60944E-03     112.729E-03    -33.1833E+06    -36.5504E+06    -5.42466E+06    -27.2049E+06    -45.5155E-03     75.5198E-03    -30.0043E-03     145.082E-03    -45.7465E-03     75.5192E-03    -29.9304E-03     144.554E-03
            1215     10.4722E-03     112.857E-03    -29.4762E+06    -37.3084E+06    -2.01492E+06    -32.0446E+06    -51.6674E-03     82.7304E-03    -31.0630E-03     164.664E-03    -52.0020E-03     82.8343E-03    -30.9763E-03     163.935E-03
            1216     11.3305E-03     113.004E-03    -26.5329E+06    -37.7392E+06     279.475E+03    -34.5963E+06    -59.6662E-03     92.0341E-03    -32.3679E-03     184.419E-03    -60.2006E-03     92.3405E-03    -32.2733E-03     183.420E-03
            1217     12.1825E-03     113.172E-03    -24.1206E+06    -43.4590E+06    -525.302E+03    -35.8443E+06    -69.9471E-03     103.931E-03    -33.9835E-03     207.366E-03    -70.8714E-03     104.618E-03    -33.8882E-03     205.925E-03
            1218     13.0260E-03     113.365E-03    -21.2126E+06    -42.2654E+06     4.25537E+03    -39.1532E+06    -82.7427E-03     118.701E-03    -35.9582E-03     237.602E-03    -84.5005E-03     120.236E-03    -35.8661E-03     235.340E-03
            1219     13.8627E-03     113.599E-03    -18.3877E+06    -16.7613E+06     4.83188E+06    -38.1226E+06    -98.4004E-03     136.721E-03    -38.3204E-03     274.902E-03    -101.932E-03     140.117E-03    -38.2452E-03     271.256E-03
            1220     14.6862E-03     113.880E-03    -16.9328E+06     6.16376E+06     6.52355E+06    -27.7837E+06    -116.342E-03     157.438E-03    -41.0958E-03     323.132E-03    -123.858E-03     164.901E-03    -41.0476E-03     317.198E-03
            1221     15.4967E-03     114.227E-03    -13.2309E+06     76.5496E+06     40.2934E+06    -15.0060E+06    -131.284E-03     175.615E-03    -44.3312E-03     369.274E-03    -146.232E-03     190.676E-03    -44.2215E-03     361.126E-03
            1222     16.3059E-03     114.621E-03     -6.8704E+06     124.901E+06     93.4496E+06    -7.22844E+06    -131.621E-03     179.570E-03    -47.9494E-03     284.168E-03    -144.249E-03     192.351E-03    -47.6533E-03     278.685E-03
            1223     879.378E-06     113.197E-03    -118.992E+06    -65.0474E+06    -119.495E+06     3.95248E+06    -23.3056E-03     46.4931E-03    -23.1875E-03     9.61746E-03    -23.6330E-03     46.5135E-03    -23.5181E-03     9.66991E-03
            1224     1.75858E-03     113.207E-03    -104.429E+06    -56.8970E+06    -103.031E+06     6.39558E+06    -23.7147E-03     47.0670E-03    -23.3523E-03     18.3243E-03    -24.0047E-03     47.0828E-03    -23.6335E-03     18.4098E-03
            1225     2.63743E-03     113.225E-03    -89.4465E+06    -54.7685E+06    -86.9893E+06     5.37795E+06    -24.4572E-03     48.0491E-03    -23.5919E-03     28.3207E-03    -24.6981E-03     48.0299E-03    -23.8177E-03     28.3950E-03
            1226     3.51538E-03     113.250E-03    -75.9573E+06    -55.0385E+06    -72.1301E+06     1.66102E+06    -25.4802E-03     49.3912E-03    -23.9111E-03     39.2424E-03    -25.6741E-03     49.3290E-03    -24.0818E-03     39.2704E-03
            1227     4.39250E-03     113.285E-03    -64.1846E+06    -49.7817E+06    -58.9087E+06    -3.77052E+06    -26.7109E-03     50.9951E-03    -24.2843E-03     50.9900E-03    -26.8721E-03     50.9224E-03    -24.4136E-03     50.9484E-03
            1228     5.26874E-03     113.329E-03    -55.0748E+06    -46.4492E+06    -48.0933E+06    -7.89529E+06    -28.2160E-03     52.9278E-03    -24.7118E-03     63.6101E-03    -28.3523E-03     52.8429E-03    -24.8051E-03     63.5139E-03
            1229     6.14411E-03     113.385E-03    -48.4340E+06    -42.9894E+06    -38.4183E+06    -11.1740E+06    -30.0552E-03     55.2545E-03    -25.1993E-03     77.3119E-03    -30.1791E-03     55.1651E-03    -25.2588E-03     77.1686E-03
            1230     7.01804E-03     113.453E-03    -42.5136E+06    -37.7925E+06    -27.6944E+06    -15.7489E+06    -32.3149E-03     58.0748E-03    -25.7598E-03     92.1895E-03    -32.4379E-03     57.9929E-03    -25.7819E-03     91.9764E-03
            1231     7.89072E-03     113.534E-03    -36.8800E+06    -34.1411E+06    -17.2200E+06    -19.6614E+06    -35.3816E-03     61.7972E-03    -26.4156E-03     108.590E-03    -35.5105E-03     61.7239E-03    -26.3987E-03     108.305E-03
            1232     8.76050E-03     113.632E-03    -32.0414E+06    -31.8506E+06    -8.97310E+06    -23.5593E+06    -39.4018E-03     66.5949E-03    -27.1931E-03     126.839E-03    -39.5510E-03     66.5434E-03    -27.1453E-03     126.463E-03
            1233     9.62800E-03     113.747E-03    -28.9947E+06    -28.6101E+06    -2.72297E+06    -27.3876E+06    -44.4133E-03     72.5319E-03    -28.1186E-03     146.904E-03    -44.6194E-03     72.5417E-03    -28.0487E-03     146.404E-03
            1234     10.4920E-03     113.881E-03    -28.0142E+06    -28.5793E+06     1.50801E+06    -31.2840E+06    -50.9927E-03     80.2310E-03    -29.2383E-03     168.288E-03    -51.3107E-03     80.3443E-03    -29.1487E-03     167.608E-03
            1235     11.3507E-03     114.037E-03    -27.0805E+06    -33.2340E+06     3.09785E+06    -34.5001E+06    -59.5100E-03     90.1225E-03    -30.6125E-03     190.227E-03    -60.0226E-03     90.4131E-03    -30.5096E-03     189.277E-03
            1236     12.2035E-03     114.215E-03    -24.6014E+06    -37.4949E+06     4.23816E+06    -37.4741E+06    -70.5239E-03     102.834E-03    -32.3098E-03     215.882E-03    -71.4283E-03     103.507E-03    -32.1985E-03     214.466E-03
            1237     13.0485E-03     114.424E-03    -22.8190E+06    -35.4315E+06     4.89580E+06    -40.3090E+06    -84.8197E-03     119.208E-03    -34.3883E-03     249.391E-03    -86.5793E-03     120.749E-03    -34.2793E-03     247.114E-03
            1238     13.8815E-03     114.672E-03    -21.8175E+06    -20.0283E+06     6.67828E+06    -39.2003E+06    -101.802E-03     138.684E-03    -36.8817E-03     290.881E-03    -105.382E-03     142.099E-03    -36.7877E-03     287.115E-03
            1239     14.7060E-03     114.974E-03    -16.8244E+06    -10.5290E+06     9.88251E+06    -31.2501E+06    -119.779E-03     159.557E-03    -39.7777E-03     342.270E-03    -127.330E-03     166.986E-03    -39.6886E-03     336.071E-03
            1240     15.5239E-03     115.340E-03    -9.61399E+06     62.6852E+06     44.8017E+06    -18.1073E+06    -137.054E-03     180.172E-03    -43.1177E-03     389.167E-03    -152.410E-03     195.593E-03    -42.9707E-03     380.000E-03
            1241     16.3241E-03     115.751E-03    -4.27444E+06     116.316E+06     96.9202E+06    -7.38487E+06    -145.791E-03     192.901E-03    -47.1102E-03     296.326E-03    -158.873E-03     206.109E-03    -46.7880E-03     289.021E-03
            1242     880.491E-06     114.188E-03    -118.405E+06    -64.5674E+06    -118.176E+06    -4.90211E+06    -21.9949E-03     43.9129E-03    -21.9179E-03     8.86198E-03    -22.3219E-03     43.9330E-03    -22.2435E-03     8.79927E-03
            1243     1.76081E-03     114.199E-03    -111.910E+06    -56.8930E+06    -111.677E+06    -7.24585E+06    -22.3579E-03     44.3804E-03    -22.0225E-03     16.8059E-03    -22.6729E-03     44.4200E-03    -22.3362E-03     16.7137E-03
            1244     2.64085E-03     114.218E-03    -101.370E+06    -51.4539E+06    -101.308E+06    -9.33192E+06    -22.9577E-03     45.1687E-03    -22.2110E-03     25.9912E-03    -23.2426E-03     45.2048E-03    -22.4959E-03     25.8733E-03
            1245     3.52050E-03     114.244E-03    -88.8017E+06    -49.0842E+06    -89.0670E+06    -12.8637E+06    -23.8472E-03     46.3209E-03    -22.4737E-03     36.3025E-03    -24.0900E-03     46.3323E-03    -22.7191E-03     36.1404E-03
            1246     4.39929E-03     114.281E-03    -76.8693E+06    -42.9037E+06    -78.9066E+06    -16.3468E+06    -25.0551E-03     47.8471E-03    -22.7920E-03     47.8110E-03    -25.2613E-03     47.8568E-03    -23.0129E-03     47.6052E-03
            1247     5.27704E-03     114.327E-03    -65.1919E+06    -41.5147E+06    -66.4689E+06    -19.2937E+06    -26.6494E-03     49.8567E-03    -23.2073E-03     60.5650E-03    -26.8168E-03     49.8380E-03    -23.3849E-03     60.3213E-03
            1248     6.15329E-03     114.384E-03    -52.4116E+06    -38.0964E+06    -49.1543E+06    -21.2432E+06    -28.5766E-03     52.2986E-03    -23.7219E-03     74.4473E-03    -28.7111E-03     52.2542E-03    -23.8365E-03     74.1759E-03
            1249     7.02861E-03     114.455E-03    -41.4904E+06    -32.0870E+06    -32.2958E+06    -22.5011E+06    -31.0160E-03     55.3338E-03    -24.3177E-03     89.5922E-03    -31.1328E-03     55.2831E-03    -24.3725E-03     89.2970E-03
            1250     7.90184E-03     114.539E-03    -34.5805E+06    -29.6868E+06    -18.9541E+06    -23.3080E+06    -34.1626E-03     59.1730E-03    -25.0104E-03     106.492E-03    -34.2777E-03     59.1150E-03    -25.0120E-03     106.170E-03
            1251     8.77337E-03     114.641E-03    -31.1749E+06    -25.3969E+06    -8.60076E+06    -24.3794E+06    -38.0802E-03     63.8932E-03    -25.8130E-03     125.324E-03    -38.2223E-03     63.8596E-03    -25.7740E-03     124.956E-03
            1252     9.64189E-03     114.760E-03    -28.5224E+06    -21.6213E+06     588.543E+03    -27.4438E+06    -43.2654E-03     70.0289E-03    -26.7635E-03     146.481E-03    -43.4619E-03     70.0461E-03    -26.6879E-03     146.012E-03
            1253     10.5066E-03     114.902E-03    -25.4966E+06    -22.2585E+06     7.23556E+06    -29.7391E+06    -50.1497E-03     78.0604E-03    -27.9107E-03     169.555E-03    -50.4370E-03     78.1578E-03    -27.8053E-03     168.940E-03
            1254     11.3668E-03     115.066E-03    -23.1872E+06    -26.0834E+06     11.1492E+06    -32.5830E+06    -58.9967E-03     88.3115E-03    -29.3148E-03     193.721E-03    -59.4597E-03     88.5684E-03    -29.1876E-03     192.857E-03
            1255     12.2199E-03     115.255E-03    -20.5278E+06    -28.4986E+06     13.6848E+06    -38.0696E+06    -70.5409E-03     101.580E-03    -31.0393E-03     222.281E-03    -71.3774E-03     102.205E-03    -30.8998E-03     220.933E-03
            1256     13.0651E-03     115.478E-03    -16.6518E+06    -32.8013E+06     13.9709E+06    -39.1240E+06    -85.5624E-03     118.710E-03    -33.1472E-03     259.016E-03    -87.2057E-03     120.140E-03    -33.0057E-03     256.834E-03
            1257     13.9019E-03     115.746E-03    -13.9651E+06    -19.5743E+06     17.6845E+06    -36.0665E+06    -103.439E-03     139.122E-03    -35.6833E-03     302.339E-03    -106.853E-03     142.370E-03    -35.5463E-03     298.656E-03
            1258     14.7273E-03     116.063E-03    -13.5982E+06    -19.3040E+06     18.7840E+06    -33.1113E+06    -122.982E-03     161.648E-03    -38.6662E-03     351.031E-03    -130.167E-03     168.667E-03    -38.5246E-03     344.701E-03
            1259     15.5410E-03     116.446E-03    -11.4579E+06     42.6039E+06     41.0100E+06    -22.6787E+06    -145.235E-03     187.423E-03    -42.1875E-03     398.991E-03    -160.476E-03     202.665E-03    -42.0276E-03     388.409E-03
            1260     16.3357E-03     116.898E-03    -7.59279E+06     102.496E+06     92.9303E+06    -9.21928E+06    -157.663E-03     204.242E-03    -46.5783E-03     310.403E-03    -171.217E-03     217.875E-03    -46.2512E-03     301.087E-03
            1261     880.608E-06     115.179E-03    -88.0018E+06    -52.9319E+06    -86.2495E+06    -6.84418E+06    -22.0334E-03     44.0136E-03    -21.9802E-03     7.91791E-03    -22.2716E-03     44.0017E-03    -22.2071E-03     7.82886E-03
            1262     1.76096E-03     115.190E-03    -85.6986E+06    -48.1158E+06    -80.9694E+06    -11.6991E+06    -22.4128E-03     44.5052E-03    -22.0923E-03     14.9446E-03    -22.6543E-03     44.5064E-03    -22.3032E-03     14.7924E-03
            1263     2.64097E-03     115.209E-03    -83.3290E+06    -43.1522E+06    -77.1705E+06    -15.9907E+06    -22.8870E-03     45.1485E-03    -22.2615E-03     23.0180E-03    -23.1294E-03     45.1656E-03    -22.4639E-03     22.8102E-03
            1264     3.52063E-03     115.236E-03    -80.8283E+06    -39.4806E+06    -74.8598E+06    -20.6513E+06    -23.4867E-03     45.9395E-03    -22.4528E-03     32.0779E-03    -23.7254E-03     45.9681E-03    -22.6526E-03     31.8101E-03
            1265     4.40005E-03     115.273E-03    -76.6325E+06    -34.5807E+06    -71.8213E+06    -25.3849E+06    -24.3510E-03     47.0303E-03    -22.6793E-03     42.4204E-03    -24.5801E-03     47.0729E-03    -22.8772E-03     42.0920E-03
            1266     5.27875E-03     115.321E-03    -70.4448E+06    -33.2573E+06    -64.0547E+06    -29.8559E+06    -25.5779E-03     48.5645E-03    -22.9866E-03     54.3216E-03    -25.7891E-03     48.5932E-03    -23.1565E-03     53.9361E-03
            1267     6.15660E-03     115.381E-03    -62.9666E+06    -32.8505E+06    -53.6665E+06    -33.0951E+06    -27.2986E-03     50.6795E-03    -23.3809E-03     67.8789E-03    -27.4883E-03     50.6847E-03    -23.5103E-03     67.4511E-03
            1268     7.03260E-03     115.454E-03     -53.485E+06    -28.6986E+06    -44.8636E+06    -33.4616E+06    -29.6965E-03     53.5538E-03    -23.8573E-03     83.4190E-03    -29.8594E-03     53.5551E-03    -23.9624E-03     82.9833E-03
            1269     7.90680E-03     115.542E-03    -42.2552E+06    -27.9720E+06    -30.1587E+06    -32.0980E+06    -32.8577E-03     57.3446E-03    -24.4869E-03     100.914E-03    -32.9927E-03     57.3180E-03    -24.5358E-03     100.487E-03
            1270     8.77872E-03     115.647E-03    -30.8477E+06    -24.3201E+06    -9.99240E+06    -29.2423E+06    -36.8857E-03     62.1654E-03    -25.2797E-03     120.222E-03    -37.0142E-03     62.1273E-03    -25.2497E-03     119.807E-03
            1271     9.64820E-03     115.771E-03    -24.1789E+06    -17.0009E+06     5.63694E+06    -27.0577E+06    -42.1672E-03     68.3865E-03    -26.2193E-03     142.207E-03    -42.3324E-03     68.3896E-03    -26.1314E-03     141.772E-03
            1272     10.5140E-03     115.919E-03    -23.1348E+06    -17.8240E+06     14.6271E+06    -27.4867E+06    -49.0789E-03     76.4345E-03    -27.3555E-03     166.503E-03    -49.3280E-03     76.4964E-03    -27.2230E-03     165.968E-03
            1273     11.3746E-03     116.092E-03    -21.4508E+06    -15.5398E+06     21.3260E+06    -31.9651E+06    -57.9397E-03     86.6756E-03    -28.7358E-03     192.600E-03    -58.3498E-03     86.8936E-03    -28.5756E-03     191.824E-03
            1274     12.2295E-03     116.292E-03    -17.5258E+06    -18.3849E+06     24.9975E+06    -38.4588E+06    -69.9365E-03     100.372E-03    -30.4359E-03     223.812E-03    -70.6691E-03     100.907E-03    -30.2589E-03     222.571E-03
            1275     13.0760E-03     116.529E-03    -14.8288E+06    -33.4000E+06     22.8652E+06    -39.8839E+06    -85.9319E-03     118.476E-03    -32.5445E-03     262.311E-03    -87.3832E-03     119.693E-03    -32.3602E-03     260.259E-03
            1276     13.9116E-03     116.812E-03    -10.3500E+06    -19.9091E+06     26.7348E+06    -38.0236E+06    -105.166E-03     140.290E-03    -35.1244E-03     305.264E-03    -108.224E-03     143.167E-03    -34.9469E-03     301.696E-03
            1277     14.7354E-03     117.151E-03    -3.97278E+06    -27.9337E+06     25.9701E+06    -28.9791E+06    -127.807E-03     166.054E-03    -38.2464E-03     353.208E-03    -134.332E-03     172.396E-03    -38.0703E-03     346.825E-03
            1278     15.5429E-03     117.554E-03    -4.62022E+06     29.1368E+06     38.6425E+06    -15.7911E+06    -152.981E-03     194.932E-03    -41.9508E-03     409.891E-03    -167.765E-03     209.699E-03    -41.7932E-03     398.407E-03
            1279     16.3303E-03     118.043E-03    -3.85697E+06     92.5412E+06     89.3275E+06    -7.09267E+06    -162.999E-03     209.482E-03    -46.4825E-03     333.782E-03    -177.075E-03     223.625E-03    -46.1644E-03     323.221E-03
            1280     879.449E-06     116.170E-03    -55.4752E+06    -39.7644E+06    -53.7679E+06    -6.20412E+06    -23.5094E-03     46.9251E-03    -23.4157E-03     6.65278E-03    -23.6515E-03     46.8847E-03    -23.5465E-03     6.57020E-03
            1281     1.75867E-03     116.182E-03    -54.7197E+06    -36.5259E+06    -50.5959E+06    -10.8684E+06    -23.8683E-03     47.4194E-03    -23.5511E-03     12.5357E-03    -24.0163E-03     47.3898E-03    -23.6718E-03     12.3907E-03
            1282     2.63751E-03     116.201E-03    -52.8751E+06    -32.4230E+06    -45.6068E+06    -15.3609E+06    -24.3661E-03     48.1103E-03    -23.7442E-03     19.2143E-03    -24.5186E-03     48.0917E-03    -23.8485E-03     19.0091E-03
            1283     3.51601E-03     116.229E-03    -50.3841E+06    -27.9285E+06    -39.7210E+06    -20.2746E+06    -24.9328E-03     48.9053E-03    -23.9725E-03     26.7039E-03    -25.0887E-03     48.8979E-03    -24.0576E-03     26.4330E-03
            1284     4.39396E-03     116.267E-03    -49.1388E+06    -23.9803E+06    -34.5483E+06    -25.1298E+06    -25.5277E-03     49.7431E-03    -24.2154E-03     35.2735E-03    -25.6915E-03     49.7470E-03    -24.2821E-03     34.9383E-03
            1285     5.27167E-03     116.316E-03    -49.9725E+06    -22.9498E+06    -32.1807E+06    -29.3259E+06    -26.2421E-03     50.7043E-03    -24.4621E-03     45.2233E-03    -26.4159E-03     50.7120E-03    -24.5173E-03     44.8328E-03
            1286     6.14892E-03     116.376E-03    -51.1137E+06    -23.4248E+06    -31.4815E+06    -33.9850E+06    -27.3195E-03     52.0497E-03    -24.7302E-03     57.0833E-03    -27.5001E-03     52.0566E-03    -24.7796E-03     56.6323E-03
            1287     7.02559E-03     116.451E-03     -50.344E+06    -22.5627E+06    -31.1694E+06    -38.4589E+06    -29.0176E-03     54.0691E-03    -25.0515E-03     71.4020E-03    -29.1970E-03     54.0798E-03    -25.1016E-03     70.8927E-03
            1288     7.90094E-03     116.542E-03    -46.5889E+06    -25.3190E+06    -26.2746E+06    -40.0362E+06    -31.5955E-03     57.0906E-03    -25.4950E-03     88.4432E-03    -31.7618E-03     57.0777E-03    -25.5221E-03     87.9107E-03
            1289     8.77368E-03     116.651E-03    -39.0512E+06    -24.4989E+06    -14.8610E+06    -39.5379E+06    -35.4098E-03     61.5140E-03    -26.1042E-03     108.386E-03    -35.5642E-03     61.4861E-03    -26.0863E-03     107.848E-03
            1290     9.64318E-03     116.779E-03    -27.7843E+06    -21.1854E+06     1.83615E+06    -33.6210E+06    -40.7653E-03     67.6897E-03    -26.9244E-03     131.423E-03    -40.9144E-03     67.6601E-03    -26.8442E-03     130.931E-03
            1291     10.5090E-03     116.933E-03    -17.4164E+06    -15.8661E+06     21.2840E+06    -27.1221E+06    -47.6489E-03     75.6398E-03    -27.9909E-03     156.717E-03    -47.8337E-03     75.6454E-03    -27.8362E-03     156.241E-03
            1292     11.3706E-03     117.113E-03    -13.2449E+06    -4.91434E+06     33.5117E+06    -28.7826E+06    -56.5282E-03     85.8257E-03    -29.2975E-03     184.206E-03    -56.8421E-03     85.9789E-03    -29.1036E-03     183.561E-03
            1293     12.2256E-03     117.324E-03    -15.3012E+06    -8.25620E+06     35.9358E+06    -33.2803E+06    -68.9727E-03     99.9112E-03    -30.9386E-03     217.286E-03    -69.5645E-03     100.317E-03    -30.7247E-03     216.259E-03
            1294     13.0719E-03     117.575E-03    -16.8058E+06    -27.0278E+06     32.2114E+06    -38.8444E+06    -86.0575E-03     119.092E-03    -33.0348E-03     257.583E-03    -87.2504E-03     120.039E-03    -32.8101E-03     255.761E-03
            1295     13.9063E-03     117.877E-03    -18.0015E+06    -22.0134E+06     31.9059E+06    -39.7589E+06    -106.333E-03     141.977E-03    -35.6447E-03     302.334E-03    -108.912E-03     144.326E-03    -35.4272E-03     299.043E-03
            1296     14.7277E-03     118.233E-03    -19.6833E+06    -39.4980E+06     24.9287E+06    -38.2481E+06    -129.911E-03     168.698E-03    -38.7875E-03     356.294E-03    -135.633E-03     174.144E-03    -38.5771E-03     350.094E-03
            1297     15.5344E-03     118.664E-03    -7.70331E+06    -636.905E+03     35.7456E+06    -25.0840E+06    -153.731E-03     196.106E-03    -42.3743E-03     424.448E-03    -167.142E-03     209.389E-03    -42.1834E-03     413.219E-03
            1298     16.3326E-03     119.179E-03     5.38983E+06     76.0012E+06     92.5266E+06    -828.836E+03    -163.571E-03     210.212E-03    -46.6413E-03     367.428E-03    -177.803E-03     224.479E-03    -46.2967E-03     356.329E-03
            1299     876.864E-06     117.166E-03    -26.5313E+06    -28.1040E+06    -25.6604E+06    -5.08545E+06    -26.6179E-03     53.1067E-03    -26.4887E-03     5.05065E-03    -26.6735E-03     53.0414E-03    -26.5378E-03     4.97998E-03
            1300     1.75350E-03     117.178E-03    -25.8121E+06    -25.4118E+06    -22.7780E+06    -9.75254E+06    -26.9790E-03     53.6342E-03    -26.6553E-03     9.51066E-03    -27.0396E-03     53.5777E-03    -26.6949E-03     9.37530E-03
            1301     2.62976E-03     117.198E-03    -24.5263E+06    -21.9372E+06    -17.0576E+06    -14.1052E+06    -27.5497E-03     54.4360E-03    -26.8863E-03     14.4720E-03    -27.6181E-03     54.3875E-03    -26.9042E-03     14.2754E-03
            1302     3.50532E-03     117.227E-03    -23.7090E+06    -17.7595E+06    -11.3364E+06    -17.6735E+06    -28.1799E-03     55.3481E-03    -27.1682E-03     20.0304E-03    -28.2599E-03     55.3123E-03    -27.1648E-03     19.7823E-03
            1303     4.38044E-03     117.265E-03    -23.5114E+06    -14.5970E+06    -7.17226E+06    -20.5568E+06    -28.7751E-03     56.2419E-03    -27.4669E-03     26.4299E-03    -28.8666E-03     56.2173E-03    -27.4475E-03     26.1392E-03
            1304     5.25512E-03     117.314E-03    -22.9332E+06    -13.3033E+06    -3.36100E+06    -23.8005E+06    -29.3587E-03     57.1286E-03    -27.7699E-03     33.9598E-03    -29.4570E-03     57.1062E-03    -27.7342E-03     33.6224E-03
            1305     6.12941E-03     117.375E-03    -22.7229E+06    -12.6698E+06     1.30999E+06    -27.7310E+06    -30.0062E-03     58.0864E-03    -28.0802E-03     43.0291E-03    -30.1135E-03     58.0623E-03    -28.0223E-03     42.6370E-03
            1306     7.00331E-03     117.450E-03    -25.0747E+06    -13.2112E+06     4.16309E+06    -31.3974E+06    -30.8428E-03     59.2389E-03    -28.3961E-03     54.2659E-03    -30.9676E-03     59.2139E-03    -28.3198E-03     53.8244E-03
            1307     7.87640E-03     117.542E-03    -29.3202E+06    -17.4522E+06     2.20390E+06    -35.3355E+06    -32.1767E-03     60.9027E-03    -28.7260E-03     68.4620E-03    -32.3160E-03     60.8679E-03    -28.6472E-03     67.9691E-03
            1308     8.74927E-03     117.652E-03    -33.2197E+06    -18.5588E+06    -162.264E+03    -38.9715E+06    -34.6691E-03     63.7970E-03    -29.1279E-03     86.5470E-03    -34.8260E-03     63.7692E-03    -29.0536E-03     86.0058E-03
            1309     9.61960E-03     117.786E-03    -33.1078E+06    -24.5216E+06     2.78688E+06    -40.1111E+06    -38.8684E-03     68.5770E-03    -29.7086E-03     108.953E-03    -39.0281E-03     68.5236E-03    -29.6111E-03     108.389E-03
            1310     10.4858E-03     117.945E-03    -25.8544E+06    -21.1609E+06     15.8253E+06    -35.9069E+06    -44.9944E-03     75.5283E-03    -30.5338E-03     135.047E-03    -45.1647E-03     75.4861E-03    -30.3865E-03     134.505E-03
            1311     11.3470E-03     118.132E-03    -17.6866E+06    -3.54886E+06     35.2648E+06    -28.8672E+06    -53.9475E-03     85.6146E-03    -31.6671E-03     164.478E-03    -54.1964E-03     85.6868E-03    -31.4600E-03     163.935E-03
            1312     12.2016E-03     118.351E-03    -15.9126E+06    -1.94894E+06     46.4489E+06    -25.2111E+06    -67.3402E-03     100.557E-03    -33.2173E-03     199.507E-03    -67.7790E-03     100.799E-03    -32.9591E-03     198.763E-03
            1313     13.0466E-03     118.616E-03    -19.0702E+06    -7.81095E+06     47.2643E+06    -32.0288E+06    -84.2050E-03     119.457E-03    -35.2520E-03     240.748E-03    -85.0904E-03     120.112E-03    -34.9767E-03     239.349E-03
            1314     13.8805E-03     118.934E-03    -20.4516E+06    -24.2280E+06     43.5178E+06    -35.8431E+06    -103.271E-03     141.045E-03    -37.7742E-03     287.799E-03    -105.131E-03     142.623E-03    -37.4919E-03     285.181E-03
            1315     14.7041E-03     119.308E-03    -17.1783E+06    -28.8078E+06     46.0276E+06    -36.8297E+06    -125.184E-03     165.917E-03    -40.7326E-03     346.177E-03    -129.505E-03     169.945E-03    -40.4358E-03     341.061E-03
            1316     15.5188E-03     119.760E-03    -19.9800E+06    -30.1507E+06     31.2116E+06    -38.6601E+06    -144.080E-03     187.934E-03    -43.8543E-03     415.719E-03    -154.196E-03     197.784E-03    -43.6256E-03     406.499E-03
            1317     16.3296E-03     120.289E-03    -20.5647E+06     24.0518E+06     59.0262E+06    -18.7724E+06    -152.022E-03     199.355E-03    -47.3328E-03     393.272E-03    -164.813E-03     212.001E-03    -47.0428E-03     382.904E-03
            1318     872.631E-06     118.170E-03    -1.19223E+06    -17.8648E+06    -239.734E+03    -4.69022E+06    -31.6602E-03     63.1611E-03    -31.5009E-03     3.17182E-03    -31.6416E-03     63.0726E-03    -31.4744E-03     3.10292E-03
            1319     1.74498E-03     118.182E-03    -848.551E+03    -15.4096E+06     3.09258E+06    -8.35187E+06    -32.1083E-03     63.8348E-03    -31.7265E-03     5.81830E-03    -32.0971E-03     63.7536E-03    -31.6874E-03     5.69460E-03
            1320     2.61666E-03     118.203E-03    -557.833E+03    -13.0025E+06     7.37762E+06    -11.5396E+06    -32.7414E-03     64.7582E-03    -32.0168E-03     8.74559E-03    -32.7394E-03     64.6833E-03    -31.9602E-03     8.57212E-03
            1321     3.48779E-03     118.233E-03     14.1113E+03    -10.1542E+06     11.9284E+06    -14.0091E+06    -33.4761E-03     65.8450E-03    -32.3689E-03     12.0026E-03    -33.4834E-03     65.7783E-03    -32.2946E-03     11.7877E-03
            1322     4.35811E-03     118.272E-03     846.766E+03    -7.41158E+06     17.2062E+06    -16.1374E+06    -34.2569E-03     67.0281E-03    -32.7712E-03     15.8272E-03    -34.2739E-03     66.9681E-03    -32.6757E-03     15.5746E-03
            1323     5.22756E-03     118.321E-03     627.068E+03    -5.63168E+06     22.4919E+06    -18.2994E+06    -35.0162E-03     68.2253E-03    -33.2090E-03     20.4784E-03    -35.0474E-03     68.1693E-03    -33.0893E-03     20.1875E-03
            1324     6.09626E-03     118.382E-03    -1.45281E+06    -5.13155E+06     25.9386E+06    -19.9201E+06    -35.6629E-03     69.3211E-03    -33.6582E-03     26.3015E-03    -35.7137E-03     69.2687E-03    -33.5189E-03     25.9797E-03
            1325     6.96411E-03     118.457E-03    -4.24976E+06    -5.70966E+06     27.8557E+06    -21.3174E+06    -36.1935E-03     70.2964E-03    -34.1029E-03     33.7526E-03    -36.2644E-03     70.2460E-03    -33.9492E-03     33.4043E-03
            1326     7.83215E-03     118.548E-03    -7.36913E+06    -7.73631E+06     29.2527E+06    -23.8786E+06    -36.8384E-03     71.3887E-03    -34.5503E-03     43.4125E-03    -36.9286E-03     71.3346E-03    -34.3821E-03     43.0247E-03
            1327     8.69877E-03     118.659E-03    -11.6644E+06    -10.2027E+06     28.8682E+06    -26.9332E+06    -37.8215E-03     72.8350E-03    -35.0134E-03     56.4127E-03    -37.9332E-03     72.7794E-03    -34.8374E-03     55.9831E-03
            1328     9.56493E-03     118.792E-03    -18.8024E+06    -16.8628E+06     24.6392E+06    -30.0142E+06    -39.5312E-03     75.0503E-03    -35.5191E-03     73.7184E-03    -39.6664E-03     74.9818E-03    -35.3442E-03     73.2508E-03
            1329     10.4302E-03     118.954E-03    -26.5488E+06    -20.2143E+06     22.0603E+06    -33.8685E+06    -42.9599E-03     79.1012E-03    -36.1413E-03     95.9538E-03    -43.1308E-03     79.0375E-03    -35.9632E-03     95.4356E-03
            1330     11.2920E-03     119.145E-03    -28.0930E+06    -10.2807E+06     33.2561E+06    -31.5039E+06    -50.1084E-03     87.1610E-03    -37.0526E-03     124.068E-03    -50.3390E-03     87.1558E-03    -36.8307E-03     123.551E-03
            1331     12.1458E-03     119.375E-03    -20.8672E+06    -2.53755E+06     53.7724E+06    -26.2291E+06    -62.0700E-03     100.495E-03    -38.4248E-03     159.812E-03    -62.3807E-03     100.566E-03    -38.1220E-03     159.245E-03
            1332     12.9871E-03     119.653E-03    -11.2872E+06     5.61478E+06     68.9944E+06    -24.4839E+06    -77.1139E-03     117.384E-03    -40.2703E-03     201.580E-03    -77.6186E-03     117.670E-03    -39.9171E-03     200.727E-03
            1333     13.8216E-03     119.977E-03    -8.57120E+06    -15.2585E+06     60.0548E+06    -26.8205E+06    -94.9017E-03     137.442E-03    -42.5402E-03     247.653E-03    -95.9018E-03     138.183E-03    -42.2054E-03     246.005E-03
            1334     14.6469E-03     120.367E-03    -13.8504E+06    -20.8915E+06     51.7642E+06    -27.8721E+06    -113.742E-03     158.982E-03    -45.2400E-03     299.490E-03    -116.172E-03     161.137E-03    -44.9308E-03     296.175E-03
            1335     15.4622E-03     120.825E-03    -18.9649E+06    -24.4779E+06     47.2322E+06    -24.9528E+06    -126.024E-03     174.157E-03    -48.1338E-03     354.197E-03    -131.586E-03     179.423E-03    -47.8346E-03     348.442E-03
            1336     16.2817E-03     121.348E-03    -19.9301E+06    -4.26997E+06     41.8691E+06    -27.5843E+06    -105.604E-03     155.821E-03    -50.2177E-03     372.089E-03    -113.342E-03     163.378E-03    -49.9733E-03     366.232E-03
            1337     866.499E-06     119.186E-03     20.9225E+06    -9.15475E+06     22.6441E+06    -3.51123E+06    -38.9890E-03     77.8371E-03    -38.8482E-03     1.10283E-03    -38.9071E-03     77.7253E-03    -38.7520E-03     1.04604E-03
            1338     1.73235E-03     119.199E-03     20.8659E+06    -7.71735E+06     24.9513E+06    -5.95213E+06    -39.5980E-03     78.7208E-03    -39.1228E-03     1.37990E-03    -39.5223E-03     78.6130E-03    -39.0171E-03     1.28074E-03
            1339     2.59768E-03     119.221E-03     21.0000E+06    -6.21269E+06     28.5370E+06    -8.26167E+06    -40.2911E-03     79.7885E-03    -39.4974E-03     1.92133E-03    -40.2228E-03     79.6833E-03    -39.3762E-03     1.78024E-03
            1340     3.46204E-03     119.251E-03     21.1035E+06    -4.27390E+06     33.3446E+06    -10.1505E+06    -41.1954E-03     81.1479E-03    -39.9525E-03     2.61130E-03    -41.1373E-03     81.0460E-03    -39.8102E-03     2.43226E-03
            1341     4.32527E-03     119.291E-03     20.6642E+06    -2.60129E+06     38.6078E+06    -11.0965E+06    -42.2294E-03     82.7239E-03    -40.4946E-03     3.62896E-03    -42.1850E-03     82.6244E-03    -40.3277E-03     3.42282E-03
            1342     5.18730E-03     119.341E-03     19.2728E+06    -1.18364E+06     42.7393E+06    -11.0528E+06    -43.3015E-03     84.4078E-03    -41.1063E-03     5.17098E-03    -43.2742E-03     84.3127E-03    -40.9188E-03     4.94944E-03
            1343     6.04788E-03     119.403E-03     17.6163E+06    -928.094E+03     46.1143E+06    -11.1751E+06    -44.3447E-03     86.1219E-03    -41.7772E-03     7.30424E-03    -44.3337E-03     86.0273E-03    -41.5709E-03     7.06400E-03
            1344     6.90763E-03     119.478E-03     15.7210E+06    -866.334E+03     49.8271E+06    -11.8291E+06    -45.3672E-03     87.8738E-03    -42.5066E-03     10.2183E-03    -45.3749E-03     87.7791E-03    -42.2790E-03     9.95137E-03
            1345     7.76504E-03     119.569E-03     12.7735E+06    -1.94503E+06     52.0253E+06    -12.3126E+06    -46.2630E-03     89.5488E-03    -43.2858E-03     14.3578E-03    -46.2918E-03     89.4527E-03    -43.0413E-03     14.0663E-03
            1346     8.62165E-03     119.678E-03     8.36695E+06    -3.57209E+06     52.1434E+06    -13.2485E+06    -46.8079E-03     90.9066E-03    -44.0987E-03     20.3960E-03    -46.8621E-03     90.8119E-03    -43.8449E-03     20.0771E-03
            1347     9.47699E-03     119.809E-03     5.01804E+06    -8.10389E+06     52.1890E+06    -15.0378E+06    -47.0594E-03     92.0015E-03    -44.9421E-03     29.1008E-03    -47.1299E-03     91.8924E-03    -44.6767E-03     28.7490E-03
            1348     10.3309E-03     119.967E-03     2.43097E+06    -11.1220E+06     52.9764E+06    -17.3050E+06    -47.8550E-03     93.6985E-03    -45.8435E-03     41.4810E-03    -47.9416E-03     93.5808E-03    -45.5661E-03     41.0936E-03
            1349     11.1832E-03     120.158E-03     145.219E+03    -9.38723E+06     56.3479E+06    -20.2264E+06    -50.5201E-03     97.4211E-03    -46.9010E-03     60.5325E-03    -50.6333E-03     97.3183E-03    -46.6058E-03     60.1048E-03
            1350     12.0298E-03     120.393E-03     1.51120E+06    -1.63349E+06     70.1134E+06    -21.8293E+06    -55.8122E-03     104.068E-03    -48.2554E-03     88.3328E-03    -55.9633E-03     103.997E-03    -47.9047E-03     87.8792E-03
            1351     12.8740E-03     120.673E-03     5.31078E+06     4.86986E+06     86.3553E+06    -18.5599E+06    -64.6656E-03     114.652E-03    -49.9867E-03     122.155E-03    -64.8787E-03     114.634E-03    -49.5697E-03     121.671E-03
            1352     13.7054E-03     121.008E-03     2.64617E+06    -3.96952E+06     76.2476E+06    -10.7823E+06    -77.9513E-03     130.054E-03    -52.1023E-03     160.789E-03    -78.3323E-03     130.196E-03    -51.7192E-03     160.097E-03
            1353     14.5200E-03     121.401E-03    -3.50378E+06    -12.5007E+06     70.3449E+06    -8.93126E+06    -93.7491E-03     148.557E-03    -54.8079E-03     200.595E-03    -94.6629E-03     149.193E-03    -54.4329E-03     199.101E-03
            1354     15.3278E-03     121.854E-03     8.51423E+06    -12.5747E+06     77.1705E+06    -13.9012E+06    -92.8621E-03     150.402E-03    -57.5396E-03     244.073E-03    -94.7155E-03     152.013E-03    -57.1478E-03     241.595E-03
            1355     16.1316E-03     122.356E-03     16.4560E+06    -1.00215E+06     56.6331E+06    -13.2558E+06    -36.6756E-03     94.8217E-03    -58.1460E-03     252.059E-03    -38.8142E-03     96.8342E-03    -57.8853E-03     250.702E-03
            1356     858.011E-06     120.219E-03     39.8004E+06    -3.18270E+06     40.4500E+06    -2.01663E+06    -49.0072E-03     98.2764E-03    -49.2692E-03    -2.28485E-03    -48.8680E-03     98.1383E-03    -49.1200E-03    -2.32283E-03
            1357     1.71520E-03     120.234E-03     39.2725E+06    -2.54378E+06     42.5694E+06    -3.34584E+06    -49.5676E-03     98.8992E-03    -49.3317E-03    -4.07054E-03    -49.4347E-03     98.7622E-03    -49.1721E-03    -4.13562E-03
            1358     2.57164E-03     120.256E-03     38.4793E+06    -1.77610E+06     46.2978E+06    -4.40858E+06    -50.4288E-03     100.136E-03    -49.7075E-03    -5.90883E-03    -50.3066E-03     99.9987E-03    -49.5292E-03    -5.99903E-03
            1359     3.42698E-03     120.288E-03     37.2723E+06    -791.372E+03     50.6825E+06    -4.84115E+06    -51.5684E-03     101.824E-03    -50.2555E-03    -7.74891E-03    -51.4601E-03     101.686E-03    -50.0549E-03    -7.85717E-03
            1360     4.28088E-03     120.329E-03     35.8852E+06    -464.983E+03     54.5656E+06    -4.68088E+06    -53.0269E-03     103.985E-03    -50.9583E-03    -9.71141E-03    -52.9321E-03     103.845E-03    -50.7368E-03    -9.83166E-03
            1361     5.13289E-03     120.381E-03     35.0870E+06     42.7989E+03     59.1495E+06    -4.04645E+06    -54.7291E-03     106.550E-03    -51.8206E-03    -11.8526E-03    -54.6464E-03     106.406E-03    -51.5758E-03    -11.9809E-03
            1362     5.98303E-03     120.444E-03     34.5510E+06     1.07861E+06     64.9522E+06    -3.47883E+06    -56.6855E-03     109.535E-03    -52.8495E-03    -14.2493E-03    -56.6164E-03     109.387E-03    -52.5764E-03    -14.3894E-03
            1363     6.82976E-03     120.521E-03     33.5824E+06     828.981E+03     69.2394E+06    -2.66401E+06    -58.7397E-03     112.780E-03    -54.0398E-03    -16.8528E-03    -58.6825E-03     112.624E-03    -53.7435E-03    -17.0045E-03
            1364     7.67423E-03     120.612E-03     32.3822E+06     510.753E+03     72.3360E+06    -2.08275E+06    -60.6228E-03     116.006E-03    -55.3833E-03    -19.5732E-03    -60.5773E-03     115.844E-03    -55.0693E-03    -19.7422E-03
            1365     8.51500E-03     120.721E-03     32.0066E+06    -385.667E+03     76.6419E+06    -1.55232E+06    -62.0975E-03     118.975E-03    -56.8778E-03    -22.4141E-03    -62.0611E-03     118.800E-03    -56.5405E-03    -22.6035E-03
            1366     9.35242E-03     120.850E-03     31.2943E+06    -1.11410E+06     80.3129E+06    -2.89554E+06    -62.9761E-03     121.486E-03    -58.5102E-03    -25.0594E-03    -62.9507E-03     121.298E-03    -58.1524E-03    -25.2952E-03
            1367     10.1868E-03     121.004E-03     29.7098E+06    -6.70731E+06     81.8840E+06    -3.73562E+06    -63.0891E-03     123.378E-03    -60.2892E-03    -26.2391E-03    -63.0697E-03     123.157E-03    -59.9131E-03    -26.5142E-03
            1368     11.0154E-03     121.191E-03     29.3175E+06    -2.63390E+06     85.3773E+06    -5.88646E+06    -62.0809E-03     124.302E-03    -62.2209E-03    -23.8624E-03    -62.0805E-03     124.091E-03    -61.8327E-03    -24.1828E-03
            1369     11.8433E-03     121.414E-03     25.0633E+06     1.57508E+06     87.8986E+06    -6.32190E+06    -60.3036E-03     124.650E-03    -64.3462E-03    -17.0426E-03    -60.3409E-03     124.456E-03    -63.9453E-03    -17.3732E-03
            1370     12.6624E-03     121.688E-03     16.3699E+06     5.82211E+06     89.9388E+06    -5.57667E+06    -58.0704E-03     124.790E-03    -66.7194E-03    -4.59260E-03    -58.1685E-03     124.628E-03    -66.3019E-03    -4.91059E-03
            1371     13.4755E-03     122.014E-03     12.5341E+06    -7.40687E+06     84.2053E+06     2.96265E+06    -57.5664E-03     126.971E-03    -69.4043E-03     15.8349E-03    -57.6784E-03     126.771E-03    -68.9907E-03     15.6138E-03
            1372     14.2830E-03     122.403E-03     23.4725E+06    -6.11676E+06     95.0906E+06     5.36577E+06    -57.2505E-03     129.645E-03    -72.3950E-03     50.4352E-03    -57.4250E-03     129.552E-03    -71.9447E-03     50.0465E-03
            1373     15.0603E-03     122.856E-03     21.1012E+06     6.32075E+06     82.2892E+06    -8.45318E+06    -31.8691E-03     106.224E-03    -74.3551E-03     93.9219E-03    -32.1389E-03     106.337E-03    -73.9835E-03     93.3431E-03
            1374     15.9281E-03     123.274E-03     13.1390E+06    -1.78090E+06     36.2666E+06    -3.45201E+06     17.6945E-03     56.0218E-03    -73.7163E-03     86.4758E-03     17.5665E-03     56.0614E-03    -73.5515E-03     86.2899E-03
            1375     16.1865E-03     61.4226E-03    -5.54380E+06     155.515E+06     108.193E+06    -94.6731E+03    -64.4007E-03     119.801E-03    -55.4003E-03     244.944E-03    -74.5653E-03     130.184E-03    -55.0768E-03     246.790E-03
            1376     15.3291E-03     61.0665E-03    -12.4691E+06     142.773E+06     96.6587E+06     292.073E+03    -70.6722E-03     126.069E-03    -55.3964E-03     312.002E-03    -82.7503E-03     138.329E-03    -55.1020E-03     310.961E-03
            1377     14.4802E-03     60.7811E-03    -17.5477E+06     111.831E+06     57.4889E+06     482.737E+03    -64.9581E-03     120.232E-03    -55.2741E-03     235.347E-03    -70.6718E-03     126.114E-03    -55.1233E-03     233.151E-03
            1378     13.6270E-03     60.5888E-03    -21.4262E+06     79.2166E+06     14.0318E+06     524.004E+03    -59.6653E-03     114.813E-03    -55.1477E-03     167.464E-03    -62.2272E-03     117.539E-03    -55.1613E-03     165.691E-03
            1379     12.7750E-03     60.4453E-03    -23.5261E+06     34.3231E+06    -3.53582E+06    -354.393E+03    -57.9583E-03     113.132E-03    -55.1738E-03     131.472E-03    -59.3837E-03     114.606E-03    -55.2071E-03     130.038E-03
            1380     11.9228E-03     60.3264E-03    -23.4272E+06    -14.0816E+06    -3.40870E+06    -248.452E+03    -57.5236E-03     112.798E-03    -55.2740E-03     111.173E-03    -58.3979E-03     113.549E-03    -55.2367E-03     110.006E-03
            1381     11.0711E-03     60.2222E-03    -24.3578E+06    -50.3875E+06    -4.71108E+06     386.323E+03    -57.4100E-03     112.741E-03    -55.3310E-03     100.047E-03    -57.9898E-03     113.069E-03    -55.2461E-03     99.0822E-03
            1382     10.2194E-03     60.1255E-03    -26.1360E+06    -75.4825E+06    -4.97917E+06     458.683E+03    -57.1568E-03     112.529E-03    -55.3722E-03     92.9519E-03    -57.5607E-03     112.587E-03    -55.2498E-03     92.1459E-03
            1383     9.36785E-03     60.0361E-03    -28.1464E+06    -93.6435E+06    -4.82954E+06     409.726E+03    -56.8731E-03     112.285E-03    -55.4118E-03     85.8259E-03    -57.1543E-03     112.148E-03    -55.2593E-03     85.1551E-03
            1384     8.51614E-03     59.9531E-03    -30.9054E+06    -109.274E+06    -6.77801E+06     375.472E+03    -56.6925E-03     112.132E-03    -55.4394E-03     78.3569E-03    -56.8843E-03     111.846E-03    -55.2701E-03     77.7986E-03
            1385     7.66431E-03     59.8787E-03    -33.5315E+06    -123.490E+06    -8.39661E+06     414.477E+03    -56.4653E-03     111.931E-03    -55.4655E-03     71.2580E-03    -56.5897E-03     111.522E-03    -55.2798E-03     70.7990E-03
            1386     6.81273E-03     59.8102E-03    -36.0914E+06    -134.429E+06    -10.9459E+06     49.8226E+03    -56.2733E-03     111.757E-03    -55.4832E-03     64.1755E-03    -56.3484E-03     111.258E-03    -55.2907E-03     63.7958E-03
            1387     5.96102E-03     59.7495E-03    -38.9745E+06    -141.178E+06    -14.9640E+06    -799.292E+03    -56.0887E-03     111.576E-03    -55.4873E-03     56.7797E-03    -56.1306E-03     111.022E-03    -55.3009E-03     56.4612E-03
            1388     5.10946E-03     59.6962E-03    -42.7400E+06    -148.273E+06    -20.7136E+06    -450.699E+03    -55.9220E-03     111.405E-03    -55.4829E-03     49.2355E-03    -55.9403E-03     110.805E-03    -55.3095E-03     48.9842E-03
            1389     4.25782E-03     59.6505E-03    -46.5771E+06    -155.323E+06    -28.9546E+06     207.783E+03    -55.7820E-03     111.245E-03    -55.4630E-03     41.4838E-03    -55.7797E-03     110.610E-03    -55.3150E-03     41.2951E-03
            1390     3.40631E-03     59.6127E-03    -49.5432E+06    -160.325E+06    -36.7084E+06     164.718E+03    -55.6317E-03     111.072E-03    -55.4404E-03     33.5284E-03    -55.6130E-03     110.415E-03    -55.3197E-03     33.3861E-03
            1391     2.55464E-03     59.5832E-03    -52.3881E+06    -165.236E+06    -44.2942E+06     136.986E+03    -55.5231E-03     110.943E-03    -55.4197E-03     25.4482E-03    -55.4917E-03     110.267E-03    -55.3256E-03     25.3466E-03
            1392     1.70314E-03     59.5614E-03    -54.9072E+06    -169.605E+06    -51.1580E+06    -18.5193E+03    -55.4621E-03     110.859E-03    -55.3968E-03     17.2884E-03    -55.4213E-03     110.169E-03    -55.3271E-03     17.2210E-03
            1393     851.557E-06     59.5484E-03    -56.4701E+06    -172.416E+06    -55.6900E+06    -68.1224E+03    -55.4384E-03     110.780E-03    -55.3416E-03     9.42807E-03    -55.3914E-03     110.082E-03    -55.2882E-03     9.39128E-03
            1394     16.1793E-03     60.3617E-03    -5.89022E+06     155.274E+06     107.730E+06    -1.96616E+03    -64.5572E-03     119.971E-03    -55.4137E-03     244.565E-03    -74.7431E-03     130.375E-03    -55.0917E-03     246.403E-03
            1395     15.3336E-03     60.0071E-03    -12.0140E+06     142.752E+06     96.5749E+06     689.732E+03    -70.7406E-03     126.139E-03    -55.3988E-03     311.507E-03    -82.8020E-03     138.385E-03    -55.1055E-03     310.459E-03
            1396     14.4798E-03     59.7226E-03    -17.2393E+06     111.654E+06     57.1974E+06     729.122E+03    -64.7266E-03     120.007E-03    -55.2804E-03     235.667E-03    -70.4286E-03     125.878E-03    -55.1313E-03     233.494E-03
            1397     13.6272E-03     59.5321E-03    -20.2959E+06     80.3810E+06     15.4433E+06     435.981E+03    -59.6631E-03     114.833E-03    -55.1702E-03     168.140E-03    -62.2321E-03     117.571E-03    -55.1801E-03     166.368E-03
            1398     12.7742E-03     59.3858E-03    -21.5730E+06     35.4051E+06    -1.85044E+06    -249.527E+03    -58.2797E-03     113.469E-03    -55.1896E-03     131.828E-03    -59.7055E-03     114.950E-03    -55.2189E-03     130.385E-03
            1399     11.9230E-03     59.2680E-03    -23.9373E+06    -15.2878E+06    -4.01652E+06    -490.264E+03    -57.7458E-03     113.013E-03    -55.2676E-03     111.113E-03    -58.6217E-03     113.762E-03    -55.2308E-03     109.936E-03
            1400     11.0713E-03     59.1630E-03    -25.3593E+06    -51.0286E+06    -5.27877E+06     92.0384E+03    -57.2845E-03     112.605E-03    -55.3207E-03     100.071E-03    -57.8672E-03     112.932E-03    -55.2363E-03     99.1049E-03
            1401     10.2196E-03     59.0673E-03    -26.4828E+06    -75.2182E+06    -5.08868E+06     442.240E+03    -57.1083E-03     112.476E-03    -55.3679E-03     92.8353E-03    -57.5133E-03     112.535E-03    -55.2459E-03     92.0304E-03
            1402     9.36775E-03     58.9768E-03    -28.5634E+06    -93.8513E+06    -5.23832E+06     512.028E+03    -56.9259E-03     112.331E-03    -55.4056E-03     85.8275E-03    -57.2086E-03     112.195E-03    -55.2543E-03     85.1570E-03
            1403     8.51610E-03     58.8950E-03    -30.7565E+06    -109.122E+06    -6.68565E+06     575.772E+03    -56.6367E-03     112.071E-03    -55.4343E-03     78.3374E-03    -56.8276E-03     111.785E-03    -55.2649E-03     77.7831E-03
            1404     7.66436E-03     58.8196E-03    -33.4410E+06    -123.037E+06    -8.29914E+06     434.500E+03    -56.4728E-03     111.935E-03    -55.4620E-03     71.2472E-03    -56.5978E-03     111.528E-03    -55.2766E-03     70.7879E-03
            1405     6.81280E-03     58.7518E-03    -36.4613E+06    -133.137E+06    -12.3046E+06    -420.801E+03    -56.2904E-03     111.760E-03    -55.4695E-03     64.1395E-03    -56.3674E-03     111.271E-03    -55.2851E-03     63.7531E-03
            1406     5.96111E-03     58.6908E-03    -39.7737E+06    -141.314E+06    -17.0447E+06    -765.927E+03    -56.0760E-03     111.547E-03    -55.4715E-03     56.7992E-03    -56.1186E-03     110.997E-03    -55.2941E-03     56.4813E-03
            1407     5.10942E-03     58.6375E-03    -43.1974E+06    -149.512E+06    -21.6569E+06    -290.509E+03    -55.9207E-03     111.395E-03    -55.4739E-03     49.2143E-03    -55.9381E-03     110.791E-03    -55.3027E-03     48.9651E-03
            1408     4.25791E-03     58.5918E-03    -46.4275E+06    -155.232E+06    -29.0367E+06    -83.6564E+03    -55.7480E-03     111.206E-03    -55.4581E-03     41.4830E-03    -55.7449E-03     110.571E-03    -55.3108E-03     41.2906E-03
            1409     3.40621E-03     58.5542E-03    -49.7438E+06    -160.405E+06    -36.8959E+06    -59.8445E+03    -55.6190E-03     111.059E-03    -55.4404E-03     33.5571E-03    -55.6009E-03     110.402E-03    -55.3202E-03     33.4120E-03
            1410     2.55471E-03     58.5244E-03    -52.5846E+06    -165.196E+06    -44.3072E+06     86.3562E+03    -55.5323E-03     110.953E-03    -55.4205E-03     25.4712E-03    -55.5019E-03     110.278E-03    -55.3262E-03     25.3690E-03
            1411     1.70310E-03     58.5030E-03    -54.7788E+06    -169.471E+06    -51.0100E+06     205.098E+03    -55.4490E-03     110.849E-03    -55.4004E-03     17.2944E-03    -55.4079E-03     110.160E-03    -55.3303E-03     17.2299E-03
            1412     851.570E-06     58.4896E-03    -56.4101E+06    -172.289E+06    -55.3563E+06     126.739E+03    -55.4009E-03     110.796E-03    -55.3948E-03     9.43597E-03    -55.3544E-03     110.098E-03    -55.3400E-03     9.40179E-03
            1413     16.1877E-03     59.3034E-03    -5.65221E+06     154.752E+06     107.407E+06     158.319E+03    -64.5087E-03     119.927E-03    -55.4186E-03     246.074E-03    -74.7626E-03     130.399E-03    -55.0977E-03     247.931E-03
            1414     15.3299E-03     58.9488E-03    -12.3581E+06     142.104E+06     95.7936E+06     861.760E+03    -70.2803E-03     125.702E-03    -55.4218E-03     311.842E-03    -82.3574E-03     137.962E-03    -55.1310E-03     310.857E-03
            1415     14.4780E-03     58.6634E-03    -17.1162E+06     112.293E+06     58.2909E+06     242.541E+03    -64.5900E-03     119.920E-03    -55.3305E-03     235.710E-03    -70.2835E-03     125.783E-03    -55.1771E-03     233.554E-03
            1416     13.6261E-03     58.4737E-03    -19.3859E+06     81.1210E+06     16.8824E+06    -385.427E+03    -60.3281E-03     115.534E-03    -55.2063E-03     168.290E-03    -62.9190E-03     118.296E-03    -55.2114E-03     166.474E-03
            1417     12.7749E-03     58.3270E-03    -21.3902E+06     35.7039E+06    -845.525E+03     347.145E+03    -58.6263E-03     113.820E-03    -55.1932E-03     131.605E-03    -60.0562E-03     115.303E-03    -55.2182E-03     130.157E-03
            1418     11.9231E-03     58.2086E-03    -22.9272E+06    -14.9565E+06    -2.58455E+06     499.696E+03    -57.6089E-03     112.873E-03    -55.2644E-03     110.945E-03    -58.4807E-03     113.618E-03    -55.2224E-03     109.784E-03
            1419     11.0714E-03     58.1049E-03    -24.7319E+06    -51.2303E+06    -5.22101E+06     58.9547E+03    -57.3246E-03     112.639E-03    -55.3146E-03     100.074E-03    -57.9044E-03     112.965E-03    -55.2306E-03     99.1063E-03
            1420     10.2195E-03     58.0082E-03    -26.7643E+06    -75.7513E+06    -5.60704E+06     196.964E+03    -57.1225E-03     112.481E-03    -55.3580E-03     92.7777E-03    -57.5273E-03     112.538E-03    -55.2374E-03     91.9694E-03
            1421     9.36799E-03     57.9184E-03    -28.4260E+06    -94.1190E+06    -5.49566E+06     323.440E+03    -56.8604E-03     112.258E-03    -55.3974E-03     85.6931E-03    -57.1417E-03     112.120E-03    -55.2472E-03     85.0203E-03
            1422     8.51613E-03     57.8362E-03    -30.2551E+06    -109.194E+06    -6.48627E+06     362.144E+03    -56.6389E-03     112.069E-03    -55.4297E-03     78.3422E-03    -56.8278E-03     111.781E-03    -55.2600E-03     77.7847E-03
            1423     7.66451E-03     57.7611E-03    -32.2812E+06    -122.228E+06    -7.68897E+06     163.812E+03    -56.4608E-03     111.919E-03    -55.4578E-03     71.3391E-03    -56.5820E-03     111.514E-03    -55.2722E-03     70.8767E-03
            1424     6.81273E-03     57.6929E-03    -35.0243E+06    -132.776E+06    -10.8375E+06    -11.0301E+03    -56.2847E-03     111.756E-03    -55.4712E-03     64.1475E-03    -56.3572E-03     111.264E-03    -55.2821E-03     63.7663E-03
            1425     5.96113E-03     57.6323E-03    -38.9032E+06    -141.460E+06    -15.6491E+06     130.686E+03    -56.0936E-03     111.567E-03    -55.4735E-03     56.8179E-03    -56.1337E-03     111.012E-03    -55.2902E-03     56.5117E-03
            1426     5.10958E-03     57.5787E-03    -42.9998E+06    -149.427E+06    -21.8822E+06    -257.339E+03    -55.8853E-03     111.355E-03    -55.4701E-03     49.2721E-03    -55.9013E-03     110.752E-03    -55.3005E-03     49.0240E-03
            1427     4.25783E-03     57.5334E-03    -46.6002E+06    -155.629E+06    -29.5888E+06    -298.286E+03    -55.7364E-03     111.195E-03    -55.4585E-03     41.5199E-03    -55.7328E-03     110.559E-03    -55.3132E-03     41.3249E-03
            1428     3.40625E-03     57.4953E-03    -49.6688E+06    -160.422E+06    -37.1412E+06    -57.3803E+03    -55.6231E-03     111.066E-03    -55.4431E-03     33.5759E-03    -55.6043E-03     110.409E-03    -55.3242E-03     33.4309E-03
            1429     2.55463E-03     57.4659E-03    -52.6111E+06    -165.422E+06    -44.7210E+06    -21.7534E+03    -55.5267E-03     110.952E-03    -55.4250E-03     25.4601E-03    -55.4956E-03     110.276E-03    -55.3325E-03     25.3565E-03
            1430     1.70310E-03     57.4442E-03    -54.8898E+06    -169.425E+06    -50.8550E+06     92.3118E+03    -55.4468E-03     110.860E-03    -55.4128E-03     17.2828E-03    -55.4066E-03     110.170E-03    -55.3418E-03     17.2168E-03
            1431     851.491E-06     57.4312E-03    -56.0609E+06    -171.991E+06    -55.0408E+06     30.2042E+03    -55.4291E-03     110.827E-03    -55.3975E-03     9.44288E-03    -55.3817E-03     110.129E-03    -55.3420E-03     9.40761E-03
            1432     16.1781E-03     58.2427E-03    -5.71283E+06     153.755E+06     106.848E+06     809.446E+03    -64.3778E-03     119.810E-03    -55.4327E-03     246.753E-03    -74.5908E-03     130.239E-03    -55.1131E-03     248.610E-03
            1433     15.3316E-03     57.8884E-03    -11.9562E+06     142.143E+06     95.7242E+06     497.695E+03    -70.0719E-03     125.511E-03    -55.4392E-03     309.782E-03    -82.0729E-03     137.696E-03    -55.1493E-03     308.781E-03
            1434     14.4785E-03     57.6079E-03    -16.3014E+06     113.403E+06     58.4872E+06    -757.405E+03    -64.6380E-03     119.978E-03    -55.3397E-03     234.869E-03    -70.3317E-03     125.846E-03    -55.1881E-03     232.693E-03
            1435     13.6258E-03     57.4122E-03    -19.7447E+06     80.4335E+06     15.8275E+06    -481.553E+03    -60.5300E-03     115.731E-03    -55.2013E-03     168.090E-03    -63.1222E-03     118.493E-03    -55.2102E-03     166.258E-03
            1436     12.7754E-03     57.2684E-03    -20.9677E+06     34.9638E+06    -1.13478E+06     358.736E+03    -58.6590E-03     113.841E-03    -55.1816E-03     130.994E-03    -60.0835E-03     115.318E-03    -55.2076E-03     129.544E-03
            1437     11.9230E-03     57.1504E-03    -22.3089E+06    -14.7278E+06    -2.30361E+06     766.872E+03    -57.6099E-03     112.860E-03    -55.2501E-03     110.752E-03    -58.4800E-03     113.605E-03    -55.2079E-03     109.593E-03
            1438     11.0712E-03     57.0456E-03    -24.4816E+06    -50.9730E+06    -5.11703E+06     599.446E+03    -57.2491E-03     112.550E-03    -55.3010E-03     99.7870E-03    -57.8265E-03     112.874E-03    -55.2171E-03     98.8277E-03
            1439     10.2200E-03     56.9497E-03    -26.1938E+06    -75.6578E+06    -5.36219E+06     79.4460E+03    -57.0553E-03     112.405E-03    -55.3492E-03     92.7776E-03    -57.4575E-03     112.461E-03    -55.2284E-03     91.9690E-03
            1440     9.36785E-03     56.8598E-03    -27.9640E+06    -93.9598E+06    -5.49791E+06     183.270E+03    -56.8012E-03     112.194E-03    -55.3927E-03     85.7584E-03    -57.0803E-03     112.056E-03    -55.2434E-03     85.0848E-03
            1441     8.51620E-03     56.7776E-03    -30.1107E+06    -109.109E+06    -7.01205E+06     85.9932E+03    -56.6009E-03     112.029E-03    -55.4282E-03     78.5580E-03    -56.7884E-03     111.743E-03    -55.2614E-03     77.9979E-03
            1442     7.66440E-03     56.7024E-03    -32.7791E+06    -122.063E+06    -7.93532E+06    -122.101E+03    -56.4753E-03     111.936E-03    -55.4605E-03     71.4646E-03    -56.5989E-03     111.533E-03    -55.2756E-03     70.9987E-03
            1443     6.81276E-03     56.6344E-03    -35.8055E+06    -133.199E+06    -10.9989E+06     139.661E+03    -56.2916E-03     111.766E-03    -55.4748E-03     64.2026E-03    -56.3671E-03     111.274E-03    -55.2847E-03     63.8238E-03
            1444     5.96117E-03     56.5734E-03    -38.6948E+06    -141.436E+06    -15.5118E+06     487.400E+03    -56.0706E-03     111.549E-03    -55.4782E-03     56.8240E-03    -56.1099E-03     110.994E-03    -55.2946E-03     56.5228E-03
            1445     5.10936E-03     56.5204E-03    -42.2689E+06    -148.827E+06    -21.1024E+06     512.776E+03    -55.8941E-03     111.373E-03    -55.4786E-03     49.3046E-03    -55.9085E-03     110.770E-03    -55.3070E-03     49.0664E-03
            1446     4.25781E-03     56.4744E-03    -46.4010E+06    -155.362E+06    -29.2852E+06    -10.8669E+03    -55.7593E-03     111.223E-03    -55.4640E-03     41.5028E-03    -55.7556E-03     110.588E-03    -55.3179E-03     41.3116E-03
            1447     3.40624E-03     56.4370E-03    -50.0521E+06    -160.711E+06    -37.2637E+06    -230.104E+03    -55.6242E-03     111.071E-03    -55.4463E-03     33.5709E-03    -55.6067E-03     110.413E-03    -55.3271E-03     33.4236E-03
            1448     2.55465E-03     56.4070E-03    -52.7380E+06    -165.447E+06    -44.5788E+06    -137.266E+03    -55.5218E-03     110.952E-03    -55.4302E-03     25.4434E-03    -55.4914E-03     110.276E-03    -55.3367E-03     25.3382E-03
            1449     1.70307E-03     56.3858E-03    -54.7698E+06    -169.429E+06    -50.9238E+06    -213.584E+03    -55.4643E-03     110.878E-03    -55.4141E-03     17.2661E-03    -55.4233E-03     110.189E-03    -55.3436E-03     17.1960E-03
            1450     851.560E-06     56.3723E-03    -56.1785E+06    -172.078E+06    -55.1787E+06    -52.3626E+03    -55.4446E-03     110.822E-03    -55.3773E-03     9.42268E-03    -55.3974E-03     110.125E-03    -55.3223E-03     9.38627E-03
            1451     16.1876E-03     57.1851E-03    -5.65866E+06     154.045E+06     107.201E+06     365.548E+03    -64.6742E-03     120.110E-03    -55.4356E-03     246.720E-03    -74.9048E-03     130.556E-03    -55.1147E-03     248.623E-03
            1452     15.3307E-03     56.8310E-03    -10.7149E+06     143.614E+06     97.3754E+06    -215.961E+03    -70.2072E-03     125.637E-03    -55.4299E-03     309.464E-03    -82.1985E-03     137.818E-03    -55.1358E-03     308.478E-03
            1453     14.4784E-03     56.5486E-03    -15.7502E+06     113.502E+06     57.7920E+06     76.4156E+03    -65.0769E-03     120.380E-03    -55.3027E-03     234.906E-03    -70.7729E-03     126.255E-03    -55.1555E-03     232.703E-03
            1454     13.6277E-03     56.3537E-03    -19.3766E+06     79.7436E+06     13.8355E+06    -38.9049E+03    -60.1444E-03     115.301E-03    -55.1570E-03     168.031E-03    -62.7210E-03     118.052E-03    -55.1754E-03     166.222E-03
            1455     12.7744E-03     56.2095E-03    -21.8044E+06     33.6128E+06    -3.33700E+06     236.317E+03    -58.3280E-03     113.489E-03    -55.1613E-03     131.173E-03    -59.7477E-03     114.961E-03    -55.1951E-03     129.733E-03
            1456     11.9239E-03     56.0908E-03    -23.2704E+06    -15.1460E+06    -3.13855E+06     711.823E+03    -57.7317E-03     112.974E-03    -55.2418E-03     110.776E-03    -58.6079E-03     113.722E-03    -55.2018E-03     109.612E-03
            1457     11.0721E-03     55.9881E-03    -24.1447E+06    -49.5957E+06    -4.56571E+06     487.729E+03    -57.1379E-03     112.433E-03    -55.2951E-03     100.103E-03    -57.7158E-03     112.762E-03    -55.2110E-03     99.1464E-03
            1458     10.2193E-03     55.8905E-03    -25.4665E+06    -75.5094E+06    -5.30731E+06     272.244E+03    -56.9493E-03     112.302E-03    -55.3522E-03     93.1022E-03    -57.3479E-03     112.357E-03    -55.2323E-03     92.2989E-03
            1459     9.36807E-03     55.8017E-03    -27.4664E+06    -93.9577E+06    -5.59692E+06     133.810E+03    -56.7938E-03     112.196E-03    -55.4020E-03     85.8551E-03    -57.0703E-03     112.057E-03    -55.2539E-03     85.1813E-03
            1460     8.51593E-03     55.7189E-03    -29.8247E+06    -108.969E+06    -7.12864E+06     262.054E+03    -56.6512E-03     112.088E-03    -55.4371E-03     78.7527E-03    -56.8372E-03     111.802E-03    -55.2715E-03     78.1952E-03
            1461     7.66431E-03     55.6438E-03    -32.5764E+06    -122.062E+06    -7.99692E+06     344.641E+03    -56.5257E-03     111.992E-03    -55.4661E-03     71.4186E-03    -56.6482E-03     111.589E-03    -55.2818E-03     70.9580E-03
            1462     6.81276E-03     55.5754E-03    -35.8216E+06    -133.312E+06    -10.9127E+06     226.069E+03    -56.2795E-03     111.760E-03    -55.4800E-03     64.1192E-03    -56.3548E-03     111.266E-03    -55.2893E-03     63.7418E-03
            1463     5.96096E-03     55.5152E-03    -39.4919E+06    -141.893E+06    -15.7785E+06     431.828E+03    -56.0715E-03     111.556E-03    -55.4842E-03     56.7841E-03    -56.1137E-03     111.000E-03    -55.3001E-03     56.4820E-03
            1464     5.10946E-03     55.4614E-03    -42.8775E+06    -148.208E+06    -20.9469E+06     458.881E+03    -55.9165E-03     111.399E-03    -55.4828E-03     49.2509E-03    -55.9351E-03     110.800E-03    -55.3105E-03     49.0116E-03
            1465     4.25786E-03     55.4161E-03    -45.9630E+06    -154.975E+06    -28.7674E+06     279.854E+03    -55.7618E-03     111.229E-03    -55.4667E-03     41.4725E-03    -55.7571E-03     110.594E-03    -55.3192E-03     41.2847E-03
            1466     3.40620E-03     55.3781E-03    -49.3060E+06    -160.525E+06    -37.1258E+06     38.3811E+03    -55.6316E-03     111.078E-03    -55.4464E-03     33.5463E-03    -55.6108E-03     110.420E-03    -55.3278E-03     33.4024E-03
            1467     2.55465E-03     55.3486E-03    -52.5262E+06    -165.435E+06    -44.5477E+06    -286.333E+03    -55.5314E-03     110.960E-03    -55.4286E-03     25.4362E-03    -55.5001E-03     110.284E-03    -55.3353E-03     25.3290E-03
            1468     1.70309E-03     55.3269E-03    -54.9232E+06    -169.610E+06    -51.0726E+06    -199.000E+03    -55.4702E-03     110.878E-03    -55.4076E-03     17.2661E-03    -55.4295E-03     110.188E-03    -55.3374E-03     17.1961E-03
            1469     851.573E-06     55.3138E-03    -56.4473E+06    -172.316E+06    -55.3829E+06    -151.360E+03    -55.4319E-03     110.802E-03    -55.3704E-03     9.39242E-03    -55.3854E-03     110.104E-03    -55.3156E-03     9.35473E-03
            1470     16.1791E-03     56.1230E-03    -5.46566E+06     154.365E+06     107.366E+06    -296.696E+03    -64.5592E-03     119.992E-03    -55.4329E-03     246.911E-03    -74.8344E-03     130.485E-03    -55.1120E-03     248.804E-03
            1471     15.3308E-03     55.7729E-03    -10.6765E+06     143.372E+06     97.3247E+06    -526.715E+03    -70.5227E-03     125.940E-03    -55.4171E-03     309.222E-03    -82.5135E-03     138.119E-03    -55.1229E-03     308.189E-03
            1472     14.4803E-03     55.4879E-03    -16.3141E+06     112.975E+06     57.7634E+06     458.825E+03    -65.0859E-03     120.367E-03    -55.2809E-03     235.004E-03    -70.7717E-03     126.228E-03    -55.1322E-03     232.812E-03
            1473     13.6272E-03     55.2971E-03    -20.0667E+06     79.5460E+06     13.8487E+06     1.00847E+06    -60.0176E-03     115.157E-03    -55.1394E-03     168.399E-03    -62.5962E-03     117.907E-03    -55.1564E-03     166.614E-03
            1474     12.7755E-03     55.1503E-03    -22.4366E+06     33.5617E+06    -4.38547E+06     455.475E+03    -58.0604E-03     113.213E-03    -55.1527E-03     131.850E-03    -59.4786E-03     114.684E-03    -55.1908E-03     130.424E-03
            1475     11.9228E-03     55.0320E-03    -23.1803E+06    -14.9336E+06    -4.12564E+06    -184.728E+03    -57.4183E-03     112.674E-03    -55.2555E-03     111.101E-03    -58.2889E-03     113.421E-03    -55.2208E-03     109.936E-03
            1476     11.0709E-03     54.9293E-03    -24.0147E+06    -49.5705E+06    -4.56240E+06     333.650E+03    -57.2771E-03     112.600E-03    -55.3227E-03     100.336E-03    -57.8568E-03     112.932E-03    -55.2388E-03     99.3732E-03
            1477     10.2198E-03     54.8323E-03    -25.9323E+06    -75.4262E+06    -5.60835E+06     387.267E+03    -57.0033E-03     112.377E-03    -55.3742E-03     93.2595E-03    -57.4044E-03     112.435E-03    -55.2553E-03     92.4568E-03
            1478     9.36735E-03     54.7428E-03    -27.8568E+06    -93.8749E+06    -5.67203E+06     130.702E+03    -56.8868E-03     112.308E-03    -55.4209E-03     86.0262E-03    -57.1656E-03     112.171E-03    -55.2727E-03     85.3513E-03
            1479     8.51599E-03     54.6604E-03    -29.8376E+06    -108.895E+06    -6.89103E+06     333.878E+03    -56.8210E-03     112.267E-03    -55.4457E-03     78.6668E-03    -57.0084E-03     111.982E-03    -55.2790E-03     78.1069E-03
            1480     7.66445E-03     54.5847E-03    -32.0175E+06    -121.731E+06    -7.72248E+06     200.041E+03    -56.5062E-03     111.972E-03    -55.4662E-03     71.3086E-03    -56.6266E-03     111.569E-03    -55.2819E-03     70.8466E-03
            1481     6.81267E-03     54.5172E-03    -34.8210E+06    -134.012E+06    -9.01719E+06     748.688E+03    -56.2760E-03     111.766E-03    -55.4904E-03     64.0557E-03    -56.3481E-03     111.265E-03    -55.2907E-03     63.6846E-03
            1482     5.96112E-03     54.4561E-03    -38.6192E+06    -141.634E+06    -13.6033E+06     1.09810E+06    -56.0927E-03     111.586E-03    -55.4937E-03     56.7642E-03    -56.1342E-03     111.027E-03    -55.3004E-03     56.4703E-03
            1483     5.10945E-03     54.4030E-03    -42.8040E+06    -147.292E+06    -20.6481E+06     299.410E+03    -55.9026E-03     111.385E-03    -55.4827E-03     49.2634E-03    -55.9226E-03     110.790E-03    -55.3103E-03     49.0223E-03
            1484     4.25775E-03     54.3572E-03    -46.4650E+06    -155.186E+06    -28.7670E+06    -128.074E+03    -55.7623E-03     111.231E-03    -55.4685E-03     41.4880E-03    -55.7599E-03     110.596E-03    -55.3199E-03     41.2949E-03
            1485     3.40628E-03     54.3196E-03    -49.4591E+06    -160.220E+06    -36.4989E+06     105.121E+03    -55.6338E-03     111.083E-03    -55.4493E-03     33.5348E-03    -55.6152E-03     110.426E-03    -55.3278E-03     33.3916E-03
            1486     2.55464E-03     54.2898E-03    -52.4181E+06    -165.317E+06    -44.3073E+06     88.0932E+03    -55.5359E-03     110.964E-03    -55.4279E-03     25.4481E-03    -55.5045E-03     110.288E-03    -55.3338E-03     25.3458E-03
            1487     1.70313E-03     54.2684E-03    -55.0479E+06    -169.764E+06    -51.1241E+06    -119.262E+03    -55.4556E-03     110.865E-03    -55.4092E-03     17.2669E-03    -55.4153E-03     110.175E-03    -55.3388E-03     17.1979E-03
            1488     851.524E-06     54.2551E-03    -56.5380E+06    -172.552E+06    -55.6294E+06    -55.4180E+03    -55.4246E-03     110.812E-03    -55.3879E-03     9.41992E-03    -55.3779E-03     110.114E-03    -55.3339E-03     9.38349E-03
            1489     16.1860E-03     55.0659E-03    -6.09782E+06     154.378E+06     107.343E+06    -387.963E+03    -64.2057E-03     119.599E-03    -55.3938E-03     245.724E-03    -74.3878E-03     129.997E-03    -55.0721E-03     247.636E-03
            1490     15.3324E-03     54.7129E-03    -11.9439E+06     142.525E+06     96.0737E+06    -433.599E+03    -69.8920E-03     125.296E-03    -55.4039E-03     309.887E-03    -81.8430E-03     137.432E-03    -55.1129E-03     308.917E-03
            1491     14.4785E-03     54.4306E-03    -17.5954E+06     112.025E+06     56.7655E+06     308.401E+03    -64.9137E-03     120.212E-03    -55.2986E-03     235.796E-03    -70.6059E-03     126.075E-03    -55.1517E-03     233.619E-03
            1492     13.6271E-03     54.2373E-03    -20.9652E+06     79.7841E+06     15.0159E+06     931.857E+03    -60.2583E-03     115.427E-03    -55.1682E-03     168.826E-03    -62.8470E-03     118.181E-03    -55.1785E-03     167.033E-03
            1493     12.7751E-03     54.0923E-03    -21.9035E+06     35.2733E+06    -2.10630E+06     180.127E+03    -58.1419E-03     113.317E-03    -55.1749E-03     131.847E-03    -59.5633E-03     114.792E-03    -55.2048E-03     130.416E-03
            1494     11.9226E-03     53.9743E-03    -23.6257E+06    -15.0836E+06    -4.30819E+06    -369.020E+03    -57.2804E-03     112.553E-03    -55.2728E-03     111.143E-03    -58.1491E-03     113.297E-03    -55.2382E-03     109.982E-03
            1495     11.0710E-03     53.8693E-03    -25.3713E+06    -51.2128E+06    -5.82500E+06    -65.2134E+03    -57.1758E-03     112.524E-03    -55.3479E-03     99.9258E-03    -57.7564E-03     112.849E-03    -55.2660E-03     98.9594E-03
            1496     10.2189E-03     53.7744E-03    -26.4432E+06    -74.7836E+06    -5.37573E+06      268.19E+03    -57.1454E-03     112.546E-03    -55.4009E-03     93.0938E-03    -57.5513E-03     112.608E-03    -55.2810E-03     92.2859E-03
            1497     9.36748E-03     53.6838E-03    -28.2387E+06    -93.4929E+06    -5.50635E+06     226.340E+03    -57.1142E-03     112.546E-03    -55.4321E-03     86.0677E-03    -57.3970E-03     112.413E-03    -55.2831E-03     85.3898E-03
            1498     8.51610E-03     53.6012E-03    -30.4626E+06    -108.871E+06    -7.12273E+06     46.4010E+03    -56.8146E-03     112.260E-03    -55.4455E-03     78.4042E-03    -57.0048E-03     111.976E-03    -55.2790E-03     77.8400E-03
            1499     7.66436E-03     53.5265E-03    -33.2595E+06    -121.712E+06    -8.24874E+06     147.800E+03    -56.4684E-03     111.935E-03    -55.4669E-03     71.3379E-03    -56.5941E-03     111.535E-03    -55.2835E-03     70.8760E-03
            1500     6.81269E-03     53.4582E-03    -36.4563E+06    -135.130E+06    -9.88646E+06     591.176E+03    -56.2848E-03     111.778E-03    -55.4931E-03     64.1436E-03    -56.3623E-03     111.275E-03    -55.2937E-03     63.7704E-03
            1501     5.96108E-03     53.3977E-03    -39.4038E+06    -140.984E+06    -14.3225E+06     939.383E+03    -56.0879E-03     111.581E-03    -55.4932E-03     56.7896E-03    -56.1332E-03     111.028E-03    -55.3032E-03     56.4937E-03
            1502     5.10936E-03     53.3442E-03    -42.4484E+06    -146.075E+06    -21.0342E+06     485.740E+03    -55.9109E-03     111.392E-03    -55.4814E-03     49.2861E-03    -55.9303E-03     110.803E-03    -55.3132E-03     49.0474E-03
            1503     4.25790E-03     53.2986E-03    -46.0836E+06    -155.185E+06    -28.9281E+06    -26.4074E+03    -55.7684E-03     111.238E-03    -55.4695E-03     41.4763E-03    -55.7639E-03     110.603E-03    -55.3223E-03     41.2845E-03
            1504     3.40616E-03     53.2609E-03    -49.7558E+06    -160.411E+06    -36.6522E+06    -80.4571E+03    -55.6302E-03     111.082E-03    -55.4521E-03     33.5495E-03    -55.6126E-03     110.425E-03    -55.3306E-03     33.4041E-03
            1505     2.55468E-03     53.2312E-03    -52.6184E+06    -165.281E+06    -44.1057E+06     53.1331E+03    -55.5281E-03     110.963E-03    -55.4348E-03     25.4655E-03    -55.4981E-03     110.287E-03    -55.3394E-03     25.3628E-03
            1506     1.70305E-03     53.2098E-03    -54.8125E+06    -169.673E+06    -51.0571E+06     83.8713E+03    -55.4609E-03     110.879E-03    -55.4178E-03     17.2613E-03    -55.4196E-03     110.189E-03    -55.3476E-03     17.1950E-03
            1507     851.522E-06     53.1965E-03    -56.4753E+06    -172.506E+06    -55.4335E+06     68.4262E+03    -55.4314E-03     110.833E-03    -55.4015E-03     9.41263E-03    -55.3847E-03     110.134E-03    -55.3467E-03     9.37771E-03
            1508     16.1844E-03     54.0110E-03    -5.53100E+06     154.975E+06     107.673E+06     4.37443E+03    -64.0123E-03     119.395E-03    -55.3825E-03     246.989E-03    -74.2625E-03     129.863E-03    -55.0609E-03     248.963E-03
            1509     15.3294E-03     53.6535E-03    -12.0379E+06     142.941E+06     96.2389E+06     407.842E+03    -69.5556E-03     124.978E-03    -55.4225E-03     311.756E-03    -81.6075E-03     137.216E-03    -55.1311E-03     310.893E-03
            1510     14.4786E-03     53.3720E-03    -17.4653E+06     111.564E+06     57.6057E+06     387.855E+03    -64.9579E-03     120.296E-03    -55.3378E-03     235.472E-03    -70.6385E-03     126.143E-03    -55.1862E-03     233.297E-03
            1511     13.6263E-03     53.1777E-03    -20.4163E+06     80.0727E+06     16.0423E+06    -10.2797E+03    -60.2526E-03     115.458E-03    -55.2057E-03     168.492E-03    -62.8408E-03     118.212E-03    -55.2120E-03     166.683E-03
            1512     12.7744E-03     53.0343E-03    -22.1137E+06     35.4838E+06    -1.58955E+06    -15.5831E+03    -58.4304E-03     113.632E-03    -55.2019E-03     131.735E-03    -59.8593E-03     115.113E-03    -55.2293E-03     130.291E-03
            1513     11.9232E-03     52.9150E-03    -23.4219E+06    -14.8204E+06    -3.31600E+06     259.426E+03    -57.6046E-03     112.885E-03    -55.2802E-03     110.949E-03    -58.4779E-03     113.632E-03    -55.2413E-03     109.785E-03
            1514     11.0708E-03     52.8118E-03    -25.1314E+06    -51.1937E+06    -5.60121E+06    -151.569E+03    -57.0321E-03     112.377E-03    -55.3447E-03     99.6640E-03    -57.6094E-03     112.699E-03    -55.2621E-03     98.7005E-03
            1515     10.2189E-03     52.7149E-03    -26.8054E+06    -75.0139E+06    -5.46424E+06    -68.6506E+03    -57.1758E-03     112.577E-03    -55.4008E-03     93.0114E-03    -57.5831E-03     112.638E-03    -55.2805E-03     92.1982E-03
            1516     9.36775E-03     52.6246E-03    -28.5014E+06    -93.6754E+06    -5.65191E+06     135.225E+03    -57.1074E-03     112.537E-03    -55.4296E-03     85.8458E-03    -57.3912E-03     112.403E-03    -55.2807E-03     85.1656E-03
            1517     8.51597E-03     52.5427E-03    -30.8033E+06    -109.050E+06    -7.27779E+06     140.742E+03    -56.7012E-03     112.150E-03    -55.4484E-03     78.3419E-03    -56.8919E-03     111.865E-03    -55.2820E-03     77.7809E-03
            1518     7.66427E-03     52.4677E-03    -33.3059E+06    -121.922E+06    -8.30587E+06     359.377E+03    -56.4916E-03     111.966E-03    -55.4748E-03     71.3698E-03    -56.6174E-03     111.565E-03    -55.2912E-03     70.9099E-03
            1519     6.81266E-03     52.3995E-03    -36.2184E+06    -135.504E+06    -10.2301E+06     470.010E+03    -56.2945E-03     111.793E-03    -55.4985E-03     64.1355E-03    -56.3697E-03     111.288E-03    -55.3007E-03     63.7607E-03
            1520     5.96095E-03     52.3390E-03    -39.6075E+06    -140.626E+06    -15.3946E+06     452.398E+03    -56.0938E-03     111.588E-03    -55.4946E-03     56.8009E-03    -56.1390E-03     111.038E-03    -55.3102E-03     56.4989E-03
            1521     5.10947E-03     52.2855E-03    -43.1242E+06    -145.333E+06    -21.6060E+06     247.804E+03    -55.9227E-03     111.408E-03    -55.4848E-03     49.3051E-03    -55.9458E-03     110.824E-03    -55.3195E-03     49.0633E-03
            1522     4.25771E-03     52.2400E-03    -46.3765E+06    -155.083E+06    -28.5927E+06    -2.53416E+03    -55.7704E-03     111.248E-03    -55.4773E-03     41.4898E-03    -55.7679E-03     110.613E-03    -55.3281E-03     41.2985E-03
            1523     3.40626E-03     52.2022E-03    -49.4459E+06    -160.414E+06    -36.8076E+06    -80.6760E+03    -55.6338E-03     111.091E-03    -55.4576E-03     33.5465E-03    -55.6144E-03     110.434E-03    -55.3373E-03     33.4011E-03
            1524     2.55458E-03     52.1726E-03    -52.4803E+06    -165.481E+06    -44.5404E+06    -9.25973E+03    -55.5313E-03     110.972E-03    -55.4411E-03     25.4637E-03    -55.4996E-03     110.296E-03    -55.3478E-03     25.3603E-03
            1525     1.70306E-03     52.1510E-03    -54.8574E+06    -169.593E+06    -50.9253E+06     149.775E+03    -55.4766E-03     110.902E-03    -55.4258E-03     17.2549E-03    -55.4358E-03     110.212E-03    -55.3550E-03     17.1896E-03
            1526     851.576E-06     52.1379E-03    -56.2095E+06    -172.268E+06    -55.2820E+06     126.748E+03    -55.4293E-03     110.844E-03    -55.4147E-03     9.43424E-03    -55.3819E-03     110.146E-03    -55.3598E-03     9.40002E-03
            1527     16.1826E-03     52.9513E-03    -4.91729E+06     154.661E+06     107.223E+06     413.348E+03    -63.9882E-03     119.408E-03    -55.4202E-03     245.706E-03    -74.2320E-03     129.873E-03    -55.1012E-03     247.596E-03
            1528     15.3318E-03     52.5976E-03    -12.0193E+06     142.968E+06     96.1936E+06     362.069E+03    -70.1763E-03     125.617E-03    -55.4404E-03     311.525E-03    -82.2881E-03     137.914E-03    -55.1493E-03     310.555E-03
            1529     14.4780E-03     52.3113E-03    -16.7648E+06     111.872E+06     59.1348E+06    -111.214E+03    -64.8848E-03     120.228E-03    -55.3429E-03     234.936E-03    -70.5811E-03     126.090E-03    -55.1851E-03     232.750E-03
            1530     13.6264E-03     52.1206E-03    -19.8254E+06     80.3056E+06     16.4646E+06    -327.215E+03    -60.1027E-03     115.311E-03    -55.2085E-03     167.695E-03    -62.6775E-03     118.053E-03    -55.2138E-03     165.887E-03
            1531     12.7741E-03     51.9742E-03    -21.2804E+06     34.8061E+06    -1.92064E+06     103.240E+03    -58.4018E-03     113.607E-03    -55.2050E-03     131.463E-03    -59.8249E-03     115.083E-03    -55.2342E-03     130.017E-03
            1532     11.9228E-03     51.8561E-03    -22.6800E+06    -14.7374E+06    -2.73022E+06     395.098E+03    -57.6401E-03     112.926E-03    -55.2857E-03     110.594E-03    -58.5116E-03     113.672E-03    -55.2451E-03     109.428E-03
            1533     11.0713E-03     51.7537E-03    -24.3000E+06    -49.9760E+06    -4.54483E+06     336.655E+03    -57.3482E-03     112.685E-03    -55.3367E-03     99.8540E-03    -57.9276E-03     113.014E-03    -55.2517E-03     98.8894E-03
            1534     10.2195E-03     51.6560E-03    -26.5043E+06    -75.3999E+06    -5.41069E+06     112.661E+03    -57.1182E-03     112.499E-03    -55.3807E-03     93.1688E-03    -57.5235E-03     112.558E-03    -55.2600E-03     92.3589E-03
            1535     9.36754E-03     51.5658E-03    -28.6001E+06    -93.9829E+06    -5.76655E+06     39.1528E+03    -56.8051E-03     112.230E-03    -55.4246E-03     85.7950E-03    -57.0868E-03     112.093E-03    -55.2757E-03     85.1195E-03
            1536     8.51585E-03     51.4842E-03    -30.5496E+06    -109.211E+06    -7.12902E+06     106.451E+03    -56.6889E-03     112.148E-03    -55.4586E-03     78.4041E-03    -56.8782E-03     111.861E-03    -55.2916E-03     77.8428E-03
            1537     7.66425E-03     51.4087E-03    -33.1826E+06    -122.282E+06    -8.40682E+06     359.295E+03    -56.5195E-03     112.004E-03    -55.4847E-03     71.3627E-03    -56.6440E-03     111.601E-03    -55.3013E-03     70.9024E-03
            1538     6.81258E-03     51.3410E-03    -36.2631E+06    -135.469E+06    -10.4868E+06     537.659E+03    -56.3118E-03     111.818E-03    -55.5058E-03     64.1401E-03    -56.3868E-03     111.313E-03    -55.3093E-03     63.7666E-03
            1539     5.96102E-03     51.2801E-03    -39.4488E+06    -140.349E+06    -15.4671E+06     341.242E+03    -56.1174E-03     111.618E-03    -55.5006E-03     56.8064E-03    -56.1621E-03     111.069E-03    -55.3172E-03     56.5029E-03
            1540     5.10925E-03     51.2270E-03    -42.5843E+06    -144.913E+06    -21.2764E+06     22.3287E+03    -55.9283E-03     111.419E-03    -55.4909E-03     49.2618E-03    -55.9497E-03     110.837E-03    -55.3254E-03     49.0172E-03
            1541     4.25781E-03     51.1812E-03    -46.0415E+06    -155.037E+06    -28.4868E+06    -190.863E+03    -55.7753E-03     111.259E-03    -55.4833E-03     41.4446E-03    -55.7713E-03     110.623E-03    -55.3342E-03     41.2510E-03
            1542     3.40612E-03     51.1436E-03    -49.5578E+06    -160.598E+06    -36.9682E+06    -21.6922E+03    -55.6396E-03     111.103E-03    -55.4635E-03     33.5210E-03    -55.6201E-03     110.445E-03    -55.3436E-03     33.3765E-03
            1543     2.55461E-03     51.1138E-03    -52.5453E+06    -165.454E+06    -44.4906E+06     167.032E+03    -55.5478E-03     110.993E-03    -55.4455E-03     25.4540E-03    -55.5165E-03     110.317E-03    -55.3519E-03     25.3529E-03
            1544     1.70308E-03     51.0924E-03    -54.9240E+06    -169.536E+06    -50.8982E+06     49.8346E+03    -55.4736E-03     110.903E-03    -55.4293E-03     17.2480E-03    -55.4333E-03     110.213E-03    -55.3583E-03     17.1814E-03
            1545     851.464E-06     51.0792E-03    -56.3485E+06    -172.113E+06    -55.0913E+06    -61.2185E+03    -55.4423E-03     110.853E-03    -55.4110E-03     9.37594E-03    -55.3961E-03     110.156E-03    -55.3552E-03     9.33925E-03
            1546     16.1833E-03     51.8938E-03    -5.08649E+06     154.635E+06     107.482E+06     658.747E+03    -64.6308E-03     120.067E-03    -55.4366E-03     245.946E-03    -74.8036E-03     130.459E-03    -55.1160E-03     247.768E-03
            1547     15.3297E-03     51.5369E-03    -11.5572E+06     143.569E+06     96.6557E+06     444.191E+03    -70.5394E-03     125.967E-03    -55.4274E-03     310.706E-03    -82.5431E-03     138.159E-03    -55.1355E-03     309.632E-03
            1548     14.4795E-03     51.2539E-03    -16.6402E+06     112.460E+06     58.2635E+06    -554.027E+03    -64.7203E-03     120.036E-03    -55.3160E-03     235.112E-03    -70.4287E-03     125.916E-03    -55.1636E-03     232.927E-03
            1549     13.6266E-03     51.0615E-03    -19.6887E+06     80.2665E+06     15.5386E+06    -348.695E+03    -60.1644E-03     115.349E-03    -55.1848E-03     167.971E-03    -62.7402E-03     118.095E-03    -55.1949E-03     166.159E-03
            1550     12.7755E-03     50.9157E-03    -21.6173E+06     33.9223E+06    -3.25180E+06     21.7305E+03    -58.2450E-03     113.429E-03    -55.1842E-03     131.399E-03    -59.6652E-03     114.902E-03    -55.2183E-03     129.957E-03
            1551     11.9224E-03     50.7979E-03    -23.0704E+06    -15.1917E+06    -3.87550E+06     389.325E+03    -57.4065E-03     112.685E-03    -55.2781E-03     110.481E-03    -58.2723E-03     113.426E-03    -55.2419E-03     109.325E-03
            1552     11.0708E-03     50.6937E-03    -24.5548E+06    -49.8612E+06    -4.66196E+06     589.325E+03    -57.3684E-03     112.710E-03    -55.3413E-03     100.160E-03    -57.9500E-03     113.041E-03    -55.2567E-03     99.1980E-03
            1553     10.2198E-03     50.5977E-03    -26.1152E+06    -74.8316E+06    -4.90161E+06     385.208E+03    -57.1670E-03     112.552E-03    -55.3853E-03     93.3576E-03    -57.5731E-03     112.614E-03    -55.2634E-03     92.5496E-03
            1554     9.36757E-03     50.5077E-03    -28.2080E+06    -93.5936E+06    -5.39071E+06     237.810E+03    -56.7939E-03     112.222E-03    -55.4284E-03     86.0078E-03    -57.0741E-03     112.086E-03    -55.2788E-03     85.3367E-03
            1555     8.51574E-03     50.4250E-03    -30.6250E+06    -109.387E+06    -7.28097E+06     12.1137E+03    -56.6732E-03     112.137E-03    -55.4638E-03     78.4595E-03    -56.8620E-03     111.850E-03    -55.2972E-03     77.8980E-03
            1556     7.66415E-03     50.3503E-03    -32.9506E+06    -122.576E+06    -8.32258E+06     172.149E+03    -56.5362E-03     112.027E-03    -55.4911E-03     71.2185E-03    -56.6590E-03     111.622E-03    -55.3072E-03     70.7561E-03
            1557     6.81248E-03     50.2820E-03    -35.5667E+06    -135.243E+06    -9.88383E+06     424.029E+03    -56.3400E-03     111.851E-03    -55.5111E-03     64.0727E-03    -56.4126E-03     111.346E-03    -55.3128E-03     63.6977E-03
            1558     5.96090E-03     50.2216E-03    -38.6106E+06    -139.749E+06    -14.8785E+06     83.3615E+03    -56.1450E-03     111.646E-03    -55.5014E-03     56.6822E-03    -56.1871E-03     111.098E-03    -55.3171E-03     56.3750E-03
            1559     5.10943E-03     50.1681E-03    -41.9627E+06    -144.904E+06    -21.3467E+06    -49.9627E+03    -55.9253E-03     111.413E-03    -55.4877E-03     49.1733E-03    -55.9434E-03     110.830E-03    -55.3234E-03     48.9279E-03
            1560     4.25771E-03     50.1226E-03    -45.7125E+06    -155.252E+06    -28.8654E+06     310.897E+03    -55.7706E-03     111.250E-03    -55.4799E-03     41.3872E-03    -55.7640E-03     110.614E-03    -55.3329E-03     41.2002E-03
            1561     3.40618E-03     50.0849E-03    -49.4452E+06    -160.542E+06    -36.9534E+06     371.123E+03    -55.6575E-03     111.117E-03    -55.4597E-03     33.4609E-03    -55.6376E-03     110.459E-03    -55.3399E-03     33.3215E-03
            1562     2.55461E-03     50.0551E-03    -52.5750E+06    -165.277E+06    -44.2891E+06     89.8172E+03    -55.5455E-03     110.984E-03    -55.4388E-03     25.3817E-03    -55.5149E-03     110.309E-03    -55.3443E-03     25.2796E-03
            1563     1.70304E-03     50.0338E-03    -54.7608E+06    -169.366E+06    -50.8796E+06    -50.7426E+03    -55.4648E-03     110.885E-03    -55.4203E-03     17.2128E-03    -55.4239E-03     110.196E-03    -55.3497E-03     17.1449E-03
            1564     851.587E-06     50.0205E-03    -56.2812E+06    -172.223E+06    -55.4419E+06    -128.516E+03    -55.4539E-03     110.835E-03    -55.3816E-03     9.37744E-03    -55.4066E-03     110.138E-03    -55.3275E-03     9.33993E-03
            1565     16.1818E-03     50.8303E-03    -6.68964E+06     154.245E+06     107.047E+06    -239.912E+03    -64.9610E-03     120.389E-03    -55.4279E-03     246.452E-03    -75.1309E-03     130.772E-03    -55.1066E-03     248.314E-03
            1566     15.3336E-03     50.4807E-03    -10.9757E+06     144.119E+06     97.6597E+06     9.97933E+03    -70.3497E-03     125.760E-03    -55.4102E-03     309.327E-03    -82.2353E-03     137.835E-03    -55.1150E-03     308.294E-03
            1567     14.4781E-03     50.1951E-03    -15.8878E+06     112.938E+06     57.7034E+06     223.969E+03    -64.5689E-03     119.867E-03    -55.2982E-03     235.863E-03    -70.2610E-03     125.736E-03    -55.1504E-03     233.702E-03
            1568     13.6270E-03     50.0024E-03    -20.0582E+06     79.3779E+06     13.5446E+06     180.077E+03    -60.1293E-03     115.302E-03    -55.1730E-03     168.506E-03    -62.7132E-03     118.058E-03    -55.1913E-03     166.701E-03
            1569     12.7743E-03     49.8573E-03    -22.5388E+06     33.8027E+06    -4.44411E+06     440.120E+03    -58.2232E-03     113.403E-03    -55.1798E-03     131.601E-03    -59.6438E-03     114.876E-03    -55.2184E-03     130.169E-03
            1570     11.9234E-03     49.7392E-03    -23.9952E+06    -14.7218E+06    -4.41046E+06     344.887E+03    -57.3894E-03     112.669E-03    -55.2791E-03     111.044E-03    -58.2584E-03     113.413E-03    -55.2450E-03     109.890E-03
            1571     11.0710E-03     49.6357E-03    -25.1293E+06    -50.3528E+06    -5.21867E+06     105.123E+03    -57.1771E-03     112.530E-03    -55.3533E-03     100.364E-03    -57.7590E-03     112.859E-03    -55.2699E-03     99.3994E-03
            1572     10.2185E-03     49.5381E-03    -26.2566E+06    -75.0765E+06    -5.28994E+06     240.788E+03    -57.1976E-03     112.602E-03    -55.4047E-03     93.1865E-03    -57.6026E-03     112.663E-03    -55.2842E-03     92.3769E-03
            1573     9.36767E-03     49.4493E-03    -28.2142E+06    -93.2972E+06    -5.34030E+06     347.864E+03    -57.0613E-03     112.497E-03    -55.4361E-03     85.8217E-03    -57.3428E-03     112.363E-03    -55.2866E-03     85.1474E-03
            1574     8.51582E-03     49.3663E-03    -30.6283E+06    -108.943E+06    -7.16685E+06     300.193E+03    -56.7171E-03     112.174E-03    -55.4565E-03     78.3807E-03    -56.9062E-03     111.888E-03    -55.2900E-03     77.8236E-03
            1575     7.66420E-03     49.2914E-03    -33.5110E+06    -122.769E+06    -8.54548E+06     224.458E+03    -56.5145E-03     111.996E-03    -55.4814E-03     71.0559E-03    -56.6389E-03     111.590E-03    -55.2975E-03     70.5950E-03
            1576     6.81265E-03     49.2234E-03    -36.7556E+06    -134.778E+06    -11.4285E+06    -27.6478E+03    -56.3482E-03     111.841E-03    -55.4932E-03     63.9378E-03    -56.4249E-03     111.342E-03    -55.3016E-03     63.5570E-03
            1577     5.96108E-03     49.1626E-03    -39.6095E+06    -139.358E+06    -16.7337E+06    -388.353E+03    -56.1161E-03     111.597E-03    -55.4807E-03     56.5842E-03    -56.1609E-03     111.055E-03    -55.3049E-03     56.2716E-03
            1578     5.10938E-03     49.1095E-03    -42.8473E+06    -145.720E+06    -22.1395E+06     20.4775E+03    -55.9196E-03     111.393E-03    -55.4737E-03     49.0690E-03    -55.9397E-03     110.808E-03    -55.3110E-03     48.8246E-03
            1579     4.25779E-03     49.0639E-03    -46.2513E+06    -155.368E+06    -28.9227E+06     507.227E+03    -55.7784E-03     111.243E-03    -55.4643E-03     41.3102E-03    -55.7742E-03     110.607E-03    -55.3166E-03     41.1258E-03
            1580     3.40624E-03     49.0261E-03    -49.2732E+06    -160.096E+06    -36.4765E+06     408.346E+03    -55.6499E-03     111.090E-03    -55.4401E-03     33.3656E-03    -55.6305E-03     110.433E-03    -55.3189E-03     33.2266E-03
            1581     2.55469E-03     48.9966E-03    -52.0935E+06    -164.893E+06    -43.9894E+06     177.314E+03    -55.5278E-03     110.943E-03    -55.4150E-03     25.3076E-03    -55.4958E-03     110.268E-03    -55.3203E-03     25.2067E-03
            1582     1.70314E-03     48.9750E-03    -54.6267E+06    -169.423E+06    -51.0276E+06     90.2735E+03    -55.4402E-03     110.835E-03    -55.3945E-03     17.1752E-03    -55.3984E-03     110.145E-03    -55.3247E-03     17.1092E-03
            1583     851.502E-06     48.9620E-03    -56.1799E+06    -172.171E+06    -55.3407E+06     204.591E+03    -55.3989E-03     110.786E-03    -55.3874E-03     9.39534E-03    -55.3513E-03     110.089E-03    -55.3330E-03     9.36236E-03
            1584     16.1848E-03     49.7708E-03    -6.00333E+06     154.158E+06     107.123E+06    -477.099E+03    -64.4801E-03     119.874E-03    -55.3934E-03     245.967E-03    -74.6793E-03     130.288E-03    -55.0726E-03     247.905E-03
            1585     15.3299E-03     49.4208E-03    -10.5004E+06     143.701E+06     97.5362E+06    -318.953E+03    -69.7125E-03     125.117E-03    -55.4041E-03     309.430E-03    -81.6587E-03     137.253E-03    -55.1096E-03     308.533E-03
            1586     14.4800E-03     49.1382E-03    -16.2358E+06     112.344E+06     57.9361E+06       835.7E+03    -64.6296E-03     119.941E-03    -55.3116E-03     236.261E-03    -70.3149E-03     125.800E-03    -55.1612E-03     234.098E-03
            1587     13.6262E-03     48.9431E-03    -20.4098E+06     79.5619E+06     14.5787E+06     1.51761E+06    -59.9790E-03     115.176E-03    -55.1965E-03     169.393E-03    -62.5726E-03     117.937E-03    -55.2094E-03     167.612E-03
            1588     12.7751E-03     48.7991E-03    -22.7449E+06     35.1805E+06    -3.57681E+06     710.763E+03    -58.2153E-03     113.425E-03    -55.2096E-03     131.563E-03    -59.6363E-03     114.900E-03    -55.2455E-03     130.136E-03
            1589     11.9218E-03     48.6804E-03    -23.6521E+06    -14.3527E+06    -4.36617E+06    -173.005E+03    -57.5107E-03     112.815E-03    -55.3040E-03     111.527E-03    -58.3810E-03     113.563E-03    -55.2708E-03     110.363E-03
            1590     11.0706E-03     48.5768E-03    -24.7091E+06    -50.6776E+06    -5.43785E+06    -164.955E+03    -57.5025E-03     112.866E-03    -55.3633E-03     100.344E-03    -58.0830E-03     113.194E-03    -55.2812E-03     99.3700E-03
            1591     10.2194E-03     48.4800E-03    -26.6602E+06    -75.5129E+06    -5.92422E+06     165.146E+03    -57.2773E-03     112.675E-03    -55.3976E-03     92.7680E-03    -57.6813E-03     112.733E-03    -55.2791E-03     91.9571E-03
            1592     9.36727E-03     48.3895E-03    -28.4647E+06    -93.5621E+06    -5.64493E+06     324.303E+03    -57.0480E-03     112.473E-03    -55.4252E-03     85.4680E-03    -57.3292E-03     112.338E-03    -55.2765E-03     84.7936E-03
            1593     8.51626E-03     48.3081E-03    -30.6588E+06    -108.638E+06    -6.97990E+06     556.884E+03    -56.8099E-03     112.250E-03    -55.4404E-03     78.1383E-03    -57.0000E-03     111.966E-03    -55.2733E-03     77.5830E-03
            1594     7.66435E-03     48.2325E-03    -33.2041E+06    -122.723E+06    -8.56627E+06     500.901E+03    -56.5151E-03     111.972E-03    -55.4568E-03     71.0650E-03    -56.6376E-03     111.566E-03    -55.2735E-03     70.6086E-03
            1595     6.81280E-03     48.1648E-03    -35.9343E+06    -134.040E+06    -11.1899E+06    -62.5041E+03    -56.3201E-03     111.787E-03    -55.4669E-03     63.7997E-03    -56.3940E-03     111.290E-03    -55.2764E-03     63.4189E-03
            1596     5.96111E-03     48.1040E-03    -39.4069E+06    -139.658E+06    -16.0341E+06    -386.268E+03    -56.0980E-03     111.556E-03    -55.4584E-03     56.4618E-03    -56.1421E-03     111.011E-03    -55.2790E-03     56.1497E-03
            1597     5.10954E-03     48.0509E-03    -42.9482E+06    -146.460E+06    -21.6194E+06    -18.5076E+03    -55.9293E-03     111.376E-03    -55.4471E-03     48.9179E-03    -55.9494E-03     110.787E-03    -55.2806E-03     48.6730E-03
            1598     4.25800E-03     48.0051E-03    -46.2720E+06    -155.032E+06    -28.7007E+06     112.765E+03    -55.7695E-03     111.197E-03    -55.4276E-03     41.1824E-03    -55.7662E-03     110.562E-03    -55.2793E-03     40.9930E-03
            1599     3.40638E-03     47.9677E-03    -49.2936E+06    -159.960E+06    -36.3481E+06    -2.85559E+03    -55.5999E-03     111.001E-03    -55.4010E-03     33.2715E-03    -55.5809E-03     110.344E-03    -55.2793E-03     33.1275E-03
            1600     2.55476E-03     47.9378E-03    -52.1256E+06    -164.862E+06    -43.8126E+06     245.186E+03    -55.4889E-03     110.866E-03    -55.3771E-03     25.2421E-03    -55.4573E-03     110.191E-03    -55.2816E-03     25.1421E-03
            1601     1.70317E-03     47.9167E-03    -54.5236E+06    -169.168E+06    -50.4551E+06     309.348E+03    -55.4117E-03     110.766E-03    -55.3539E-03     17.1142E-03    -55.3706E-03     110.077E-03    -55.2819E-03     17.0510E-03
            1602     851.606E-06     47.9032E-03    -56.0478E+06    -171.909E+06    -54.8847E+06     161.901E+03    -55.3547E-03     110.694E-03    -55.3390E-03     9.33707E-03    -55.3075E-03     109.997E-03    -55.2829E-03     9.30364E-03
            1603     16.1849E-03     48.7200E-03    -5.18116E+06     153.999E+06     107.145E+06    -476.426E+03    -64.1150E-03     119.496E-03    -55.3810E-03     244.881E-03    -74.3114E-03     129.910E-03    -55.0611E-03     246.764E-03
            1604     15.3317E-03     48.3596E-03    -12.2173E+06     142.231E+06     95.5838E+06    -75.7834E+03    -69.0953E-03     124.522E-03    -55.4263E-03     311.684E-03    -81.1756E-03     136.786E-03    -55.1369E-03     310.811E-03
            1605     14.4780E-03     48.0811E-03    -18.0641E+06     111.405E+06     57.2542E+06     610.178E+03    -64.7787E-03     120.142E-03    -55.3636E-03     236.825E-03    -70.4827E-03     126.012E-03    -55.2126E-03     234.649E-03
            1606     13.6260E-03     47.8844E-03    -20.8769E+06     80.2386E+06     16.7576E+06     957.368E+03    -60.2949E-03     115.545E-03    -55.2503E-03     170.160E-03    -62.9025E-03     118.315E-03    -55.2526E-03     168.357E-03
            1607     12.7734E-03     47.7396E-03    -21.2890E+06     36.4612E+06    -1.09289E+06     370.619E+03    -58.4702E-03     113.717E-03    -55.2469E-03     131.322E-03    -59.8891E-03     115.193E-03    -55.2744E-03     129.884E-03
            1608     11.9225E-03     47.6228E-03    -22.8391E+06    -14.4275E+06    -4.17655E+06     101.042E+03    -57.8772E-03     113.188E-03    -55.3107E-03     110.869E-03    -58.7453E-03     113.936E-03    -55.2776E-03     109.699E-03
            1609     11.0706E-03     47.5162E-03    -25.0762E+06    -51.1036E+06    -5.83919E+06     222.545E+03    -57.5853E-03     112.936E-03    -55.3507E-03     99.9245E-03    -58.1644E-03     113.262E-03    -55.2694E-03     98.9552E-03
            1610     10.2196E-03     47.4215E-03    -26.8373E+06    -75.2205E+06    -5.80143E+06     112.338E+03    -57.3980E-03     112.773E-03    -55.3753E-03     92.5492E-03    -57.8036E-03     112.833E-03    -55.2563E-03     91.7355E-03
            1611     9.36805E-03     47.3310E-03    -28.5854E+06    -93.8029E+06    -5.90068E+06     293.779E+03    -57.0037E-03     112.399E-03    -55.3957E-03     85.3943E-03    -57.2843E-03     112.263E-03    -55.2478E-03     84.7209E-03
            1612     8.51599E-03     47.2489E-03    -30.4865E+06    -108.813E+06    -7.17486E+06     451.015E+03    -56.7596E-03     112.172E-03    -55.4120E-03     77.9392E-03    -56.9477E-03     111.886E-03    -55.2459E-03     77.3835E-03
            1613     7.66478E-03     47.1741E-03    -32.7449E+06    -122.194E+06    -8.21545E+06     179.023E+03    -56.5770E-03     112.002E-03    -55.4251E-03     70.9255E-03    -56.6987E-03     111.598E-03    -55.2415E-03     70.4640E-03
            1614     6.81299E-03     47.1059E-03    -35.2837E+06    -133.453E+06    -10.8278E+06    -193.648E+03    -56.3110E-03     111.738E-03    -55.4273E-03     63.6468E-03    -56.3828E-03     111.242E-03    -55.2368E-03     63.2645E-03
            1615     5.96149E-03     47.0455E-03    -38.2467E+06    -140.017E+06    -14.9968E+06    -51.3106E+03    -56.1081E-03     111.525E-03    -55.4166E-03     56.2743E-03    -56.1473E-03     110.975E-03    -55.2331E-03     55.9664E-03
            1616     5.10983E-03     46.9920E-03    -41.9596E+06    -146.759E+06    -20.4581E+06     231.808E+03    -55.9077E-03     111.307E-03    -55.3995E-03     48.7901E-03    -55.9241E-03     110.713E-03    -55.2281E-03     48.5486E-03
            1617     4.25822E-03     46.9468E-03    -45.7837E+06    -154.514E+06    -28.3928E+06     56.4558E+03    -55.7127E-03     111.085E-03    -55.3727E-03     41.0407E-03    -55.7080E-03     110.452E-03    -55.2242E-03     40.8508E-03
            1618     3.40657E-03     46.9089E-03    -49.3925E+06    -160.204E+06    -36.6480E+06    -58.3049E+03    -55.5477E-03     110.892E-03    -55.3444E-03     33.1985E-03    -55.5283E-03     110.235E-03    -55.2237E-03     33.0541E-03
            1619     2.55493E-03     46.8796E-03    -52.3605E+06    -164.993E+06    -43.9121E+06     22.5074E+03    -55.4335E-03     110.754E-03    -55.3205E-03     25.1716E-03    -55.4027E-03     110.079E-03    -55.2249E-03     25.0690E-03
            1620     1.70328E-03     46.8579E-03    -54.4697E+06    -168.932E+06    -50.1739E+06     39.8793E+03    -55.3557E-03     110.653E-03    -55.2970E-03     17.0746E-03    -55.3150E-03     109.964E-03    -55.2239E-03     17.0082E-03
            1621     851.684E-06     46.8450E-03    -55.8084E+06    -171.748E+06    -54.7965E+06     79.8818E+03    -55.3155E-03     110.577E-03    -55.2615E-03     9.34327E-03    -55.2675E-03     109.880E-03    -55.2055E-03     9.30882E-03
            1622     16.1839E-03     47.6595E-03    -5.87004E+06     154.147E+06     106.817E+06    -214.743E+03    -63.6047E-03     119.111E-03    -55.5059E-03     248.682E-03    -73.9213E-03     129.644E-03    -55.1868E-03     250.604E-03
            1623     15.3293E-03     47.3056E-03    -13.4365E+06     141.317E+06     94.6489E+06     696.666E+03    -70.6958E-03     126.238E-03    -55.5424E-03     313.824E-03    -82.8029E-03     138.525E-03    -55.2546E-03     312.736E-03
            1624     14.4762E-03     47.0191E-03    -18.1735E+06     111.562E+06     58.0540E+06     48.3843E+03    -65.6122E-03     121.046E-03    -55.4333E-03     237.038E-03    -71.3605E-03     126.957E-03    -55.2785E-03     234.810E-03
            1625     13.6256E-03     46.8264E-03    -20.1626E+06     80.1908E+06     16.7470E+06    -895.888E+03    -60.8619E-03     116.134E-03    -55.2725E-03     168.341E-03    -63.4574E-03     118.894E-03    -55.2758E-03     166.491E-03
            1626     12.7738E-03     46.6806E-03    -21.7452E+06     35.3197E+06    -2.16980E+06     228.847E+03    -58.7404E-03     113.975E-03    -55.2345E-03     130.982E-03    -60.1604E-03     115.449E-03    -55.2651E-03     129.533E-03
            1627     11.9229E-03     46.5619E-03    -23.4747E+06    -13.9933E+06    -3.38441E+06     934.404E+03    -58.0966E-03     113.382E-03    -55.2850E-03     110.206E-03    -58.9713E-03     114.133E-03    -55.2476E-03     109.038E-03
            1628     11.0716E-03     46.4594E-03    -24.8123E+06    -50.4756E+06    -5.44651E+06     303.833E+03    -57.4622E-03     112.776E-03    -55.3136E-03     99.6974E-03    -58.0404E-03     113.102E-03    -55.2316E-03     98.7323E-03
            1629     10.2192E-03     46.3608E-03    -25.9673E+06    -75.4277E+06    -5.45756E+06     103.884E+03    -57.2827E-03     112.627E-03    -55.3444E-03     92.3803E-03    -57.6826E-03     112.683E-03    -55.2247E-03     91.5696E-03
            1630     9.36832E-03     46.2730E-03    -27.9417E+06    -93.5261E+06    -5.53400E+06     195.128E+03    -57.0950E-03     112.456E-03    -55.3615E-03     85.0202E-03    -57.3738E-03     112.320E-03    -55.2131E-03     84.3428E-03
            1631     8.51668E-03     46.1900E-03    -30.2759E+06    -108.998E+06    -7.42046E+06     214.593E+03    -56.7564E-03     112.124E-03    -55.3676E-03     77.9013E-03    -56.9425E-03     111.837E-03    -55.2028E-03     77.3433E-03
            1632     7.66490E-03     46.1153E-03    -32.5061E+06    -121.594E+06    -8.12384E+06     34.4831E+03    -56.5711E-03     111.947E-03    -55.3762E-03     70.6442E-03    -56.6925E-03     111.545E-03    -55.1934E-03     70.1803E-03
            1633     6.81350E-03     46.0474E-03    -35.7103E+06    -133.282E+06    -11.1429E+06    -101.868E+03    -56.3223E-03     111.693E-03    -55.3703E-03     63.4530E-03    -56.3957E-03     111.198E-03    -55.1810E-03     63.0721E-03
            1634     5.96179E-03     45.9868E-03    -39.4524E+06    -140.456E+06    -16.5693E+06     165.847E+03    -56.0681E-03     111.417E-03    -55.3486E-03     56.1823E-03    -56.1102E-03     110.868E-03    -55.1706E-03     55.8778E-03
            1635     5.11021E-03     45.9337E-03    -42.7029E+06    -146.473E+06    -21.5113E+06     46.9726E+03    -55.8418E-03     111.172E-03    -55.3299E-03     48.6802E-03    -55.8607E-03     110.581E-03    -55.1631E-03     48.4370E-03
            1636     4.25851E-03     45.8882E-03    -45.7493E+06    -154.691E+06    -28.6767E+06     92.6495E+03    -55.6411E-03     110.948E-03    -55.3067E-03     40.9645E-03    -55.6355E-03     110.314E-03    -55.1595E-03     40.7756E-03
            1637     3.40680E-03     45.8508E-03    -49.0096E+06    -160.023E+06    -36.6776E+06     236.614E+03    -55.4982E-03     110.776E-03    -55.2773E-03     33.1408E-03    -55.4771E-03     110.119E-03    -55.1575E-03     33.0005E-03
            1638     2.55512E-03     45.8210E-03    -52.0479E+06    -164.848E+06    -44.0853E+06    -109.078E+03    -55.3703E-03     110.620E-03    -55.2500E-03     25.1276E-03    -55.3379E-03     109.946E-03    -55.1559E-03     25.0237E-03
            1639     1.70341E-03     45.7999E-03    -54.3852E+06    -169.106E+06    -50.8019E+06    -118.327E+03    -55.2844E-03     110.510E-03    -55.2251E-03     17.0539E-03    -55.2421E-03     109.821E-03    -55.1551E-03     16.9858E-03
            1640     851.639E-06     45.7864E-03    -55.8138E+06    -171.666E+06    -54.7971E+06     2.09640E+03    -55.2519E-03     110.441E-03    -55.1889E-03     9.23597E-03    -55.2040E-03     109.744E-03    -55.1330E-03     9.20051E-03
            1641     16.1725E-03     46.5897E-03    -5.61760E+06     153.793E+06     106.335E+06     1.02337E+06    -62.6655E-03     118.260E-03    -55.5943E-03     249.573E-03    -72.9310E-03     128.743E-03    -55.2775E-03     251.624E-03
            1642     15.3266E-03     46.2465E-03    -12.2693E+06     141.702E+06     95.5456E+06     181.086E+03    -71.9292E-03     127.528E-03    -55.5989E-03     308.051E-03    -83.8325E-03     139.614E-03    -55.3089E-03     306.882E-03
            1643     14.4771E-03     45.9578E-03    -16.6000E+06     112.293E+06     58.7422E+06    -853.027E+03    -66.0833E-03     121.490E-03    -55.4063E-03     233.907E-03    -71.8027E-03     127.378E-03    -55.2513E-03     231.624E-03
            1644     13.6262E-03     45.7671E-03    -20.3029E+06     79.3877E+06     15.2393E+06    -464.813E+03    -60.6436E-03     115.857E-03    -55.2139E-03     166.689E-03    -63.2188E-03     118.598E-03    -55.2233E-03     164.857E-03
            1645     12.7750E-03     45.6214E-03    -22.5603E+06     34.2804E+06    -3.76350E+06     108.649E+03    -58.7215E-03     113.897E-03    -55.1750E-03     130.637E-03    -60.1445E-03     115.372E-03    -55.2108E-03     129.186E-03
            1646     11.9230E-03     45.5029E-03    -22.9459E+06    -14.0506E+06    -3.66909E+06     117.042E+03    -57.8054E-03     113.040E-03    -55.2347E-03     109.922E-03    -58.6726E-03     113.787E-03    -55.1994E-03     108.753E-03
            1647     11.0717E-03     45.3998E-03    -23.6551E+06    -49.3971E+06    -4.38577E+06     453.708E+03    -57.5408E-03     112.811E-03    -55.2702E-03     99.3076E-03    -58.1175E-03     113.141E-03    -55.1862E-03     98.3406E-03
            1648     10.2206E-03     45.3032E-03    -25.7521E+06    -75.6990E+06    -5.68827E+06     334.768E+03    -57.1779E-03     112.473E-03    -55.2947E-03     92.2956E-03    -57.5748E-03     112.526E-03    -55.1760E-03     91.4907E-03
            1649     9.36836E-03     45.2131E-03    -27.8304E+06    -93.7208E+06    -5.59197E+06     125.965E+03    -57.0277E-03     112.343E-03    -55.3157E-03     84.8765E-03    -57.3047E-03     112.205E-03    -55.1674E-03     84.1997E-03
            1650     8.51716E-03     45.1321E-03    -29.6929E+06    -108.173E+06    -6.83233E+06     131.255E+03    -56.8777E-03     112.192E-03    -55.3143E-03     77.6717E-03    -57.0636E-03     111.908E-03    -55.1486E-03     77.1097E-03
            1651     7.66556E-03     45.0562E-03    -32.1680E+06    -121.359E+06    -8.25890E+06    -159.482E+03    -56.5068E-03     111.818E-03    -55.3112E-03     70.5511E-03    -56.6258E-03     111.416E-03    -55.1299E-03     70.0867E-03
            1652     6.81392E-03     44.9891E-03    -34.9786E+06    -134.250E+06    -9.46385E+06     498.824E+03    -56.2776E-03     111.592E-03    -55.3142E-03     63.3267E-03    -56.3481E-03     111.089E-03    -55.1161E-03     62.9542E-03
            1653     5.96227E-03     44.9283E-03    -38.6838E+06    -140.080E+06    -15.2101E+06     891.538E+03    -56.0201E-03     111.306E-03    -55.2860E-03     56.0905E-03    -56.0606E-03     110.756E-03    -55.1029E-03     55.7962E-03
            1654     5.11056E-03     44.8753E-03    -42.7524E+06    -145.614E+06    -22.3803E+06     85.2336E+03    -55.7527E-03     111.009E-03    -55.2568E-03     48.5962E-03    -55.7714E-03     110.424E-03    -55.0956E-03     48.3547E-03
            1655     4.25876E-03     44.8300E-03    -46.4337E+06    -155.211E+06    -29.1033E+06    -231.130E+03    -55.5873E-03     110.826E-03    -55.2388E-03     40.9566E-03    -55.5836E-03     110.191E-03    -55.0919E-03     40.7645E-03
            1656     3.40707E-03     44.7923E-03     -49.329E+06    -159.825E+06    -36.4688E+06    -36.3915E+03    -55.4403E-03     110.648E-03    -55.2073E-03     33.0863E-03    -55.4212E-03     109.992E-03    -55.0863E-03     32.9432E-03
            1657     2.55529E-03     44.7630E-03    -52.0622E+06    -164.760E+06    -44.0919E+06     68.1863E+03    -55.3087E-03     110.483E-03    -55.1740E-03     25.0613E-03    -55.2764E-03     109.809E-03    -55.0801E-03     24.9601E-03
            1658     1.70352E-03     44.7415E-03    -54.5047E+06    -169.069E+06    -50.7189E+06     60.3745E+03    -55.2260E-03     110.366E-03    -55.1403E-03     16.9956E-03    -55.1844E-03     109.678E-03    -55.0697E-03     16.9302E-03
            1659     851.870E-06     44.7285E-03    -56.0331E+06    -171.739E+06    -55.0078E+06    -166.813E+03    -55.1605E-03     110.254E-03    -55.0937E-03     9.15792E-03    -55.1133E-03     109.558E-03    -55.0385E-03     9.12034E-03
            1660     16.1866E-03     45.5427E-03    -5.09169E+06     154.531E+06     107.472E+06     1.09226E+06    -64.6447E-03     120.046E-03    -55.4013E-03     245.393E-03    -74.8287E-03     130.449E-03    -55.0806E-03     247.317E-03
            1661     15.3304E-03     45.1799E-03    -9.92829E+06     143.973E+06     97.3335E+06    -128.382E+03    -69.4843E-03     124.882E-03    -55.3974E-03     306.652E-03    -81.4207E-03     137.011E-03    -55.1051E-03     305.785E-03
            1662     14.4812E-03     44.9025E-03    -16.2299E+06     111.686E+06      57.177E+06     243.925E+03    -64.9675E-03     120.241E-03    -55.2733E-03     232.459E-03    -70.6000E-03     126.046E-03    -55.1258E-03     230.257E-03
            1663     13.6271E-03     44.7074E-03    -20.6280E+06     79.4612E+06     14.7763E+06     472.857E+03    -60.1806E-03     115.304E-03    -55.1238E-03     167.531E-03    -62.7627E-03     118.052E-03    -55.1352E-03     165.730E-03
            1664     12.7759E-03     44.5623E-03    -21.9267E+06     34.6196E+06    -3.50239E+06    -578.662E+03    -58.5166E-03     113.622E-03    -55.1049E-03     130.320E-03    -59.9335E-03     115.094E-03    -55.1408E-03     128.865E-03
            1665     11.9242E-03     44.4450E-03    -22.7899E+06    -14.6065E+06    -4.54890E+06    -475.802E+03    -57.6419E-03     112.810E-03    -55.1685E-03     109.879E-03    -58.5025E-03     113.551E-03    -55.1370E-03     108.708E-03
            1666     11.0724E-03     44.3402E-03    -24.6327E+06    -50.2446E+06    -5.19980E+06     342.731E+03    -57.3457E-03     112.561E-03    -55.2150E-03     99.0765E-03    -57.9227E-03     112.887E-03    -55.1324E-03     98.1123E-03
            1667     10.2207E-03     44.2448E-03    -26.1844E+06    -74.8914E+06    -5.72157E+06     488.971E+03    -57.1814E-03     112.424E-03    -55.2424E-03     92.1842E-03    -57.5817E-03     112.482E-03    -55.1244E-03     91.3812E-03
            1668     9.36915E-03     44.1549E-03    -27.7658E+06    -93.4042E+06    -5.58896E+06     173.945E+03    -57.0130E-03     112.273E-03    -55.2595E-03     85.0850E-03    -57.2892E-03     112.135E-03    -55.1118E-03     84.4115E-03
            1669     8.51759E-03     44.0725E-03    -30.1138E+06    -108.240E+06    -7.04678E+06    -12.8254E+03    -56.8148E-03     112.071E-03    -55.2567E-03     77.4638E-03    -57.0017E-03     111.788E-03    -55.0914E-03     76.9009E-03
            1670     7.66614E-03     43.9986E-03    -33.0833E+06    -121.126E+06    -8.43116E+06     196.864E+03    -56.4959E-03     111.747E-03    -55.2508E-03     70.5159E-03    -56.6192E-03     111.347E-03    -55.0694E-03     70.0574E-03
            1671     6.81423E-03     43.9302E-03    -36.4626E+06    -135.276E+06    -10.5468E+06     282.632E+03    -56.2152E-03     111.464E-03    -55.2485E-03     63.3516E-03    -56.2897E-03     110.959E-03    -55.0522E-03     62.9782E-03
            1672     5.96274E-03     43.8702E-03    -39.0548E+06    -139.773E+06    -15.2489E+06     616.734E+03    -55.9600E-03     111.181E-03    -55.2210E-03     55.9910E-03    -56.0024E-03     110.633E-03    -55.0380E-03     55.6944E-03
            1673     5.11081E-03     43.8171E-03    -41.9530E+06    -144.758E+06    -21.6442E+06     649.097E+03    -55.7177E-03     110.907E-03    -55.1897E-03     48.5288E-03    -55.7345E-03     110.324E-03    -55.0272E-03     48.2957E-03
            1674     4.25911E-03     43.7718E-03    -45.7255E+06    -154.867E+06    -28.9402E+06     96.4304E+03    -55.5458E-03     110.710E-03    -55.1637E-03     40.8517E-03    -55.5391E-03     110.075E-03    -55.0176E-03     40.6647E-03
            1675     3.40728E-03     43.7342E-03    -49.5247E+06    -160.085E+06    -36.7805E+06    -222.501E+03    -55.3784E-03     110.505E-03    -55.1263E-03     32.9768E-03    -55.3593E-03     109.848E-03    -55.0063E-03     32.8320E-03
            1676     2.55552E-03     43.7049E-03    -52.5394E+06    -164.811E+06    -43.9439E+06    -48.4533E+03    -55.2399E-03     110.329E-03    -55.0894E-03     24.9776E-03    -55.2101E-03     109.655E-03    -54.9940E-03     24.8754E-03
            1677     1.70375E-03     43.6835E-03    -54.7620E+06    -168.939E+06    -50.4386E+06    -15.5314E+03    -55.1142E-03     110.173E-03    -55.0589E-03     16.9671E-03    -55.0745E-03     109.486E-03    -54.9867E-03     16.9010E-03
            1678     851.831E-06     43.6704E-03    -56.2530E+06    -171.892E+06    -55.2062E+06    -133.972E+03    -55.0628E-03     110.101E-03    -55.0378E-03     9.20769E-03    -55.0161E-03     109.404E-03    -54.9830E-03     9.17079E-03
            1679     16.1918E-03     44.4935E-03    -5.76583E+06     154.723E+06     107.643E+06    -588.745E+03    -66.8993E-03     122.156E-03    -55.2564E-03     244.684E-03    -77.2706E-03     132.744E-03    -54.9341E-03     246.385E-03
            1680     15.3363E-03     44.1257E-03    -10.2470E+06     144.323E+06     97.9941E+06     1.42139E+06    -69.0866E-03     124.334E-03    -55.2474E-03     315.290E-03    -81.4292E-03     136.868E-03    -54.9518E-03     314.503E-03
            1681     14.4791E-03     43.8431E-03    -16.0567E+06     111.854E+06     58.0265E+06     1.87152E+06    -64.3726E-03     119.562E-03    -55.1891E-03     234.713E-03    -69.9948E-03     125.356E-03    -55.0379E-03     232.593E-03
            1682     13.6291E-03     43.6494E-03    -19.0554E+06     80.9032E+06     15.5978E+06     457.367E+03    -60.2333E-03     115.292E-03    -55.0584E-03     168.284E-03    -62.8187E-03     118.051E-03    -55.0701E-03     166.477E-03
            1683     12.7763E-03     43.5037E-03    -21.2827E+06     35.4613E+06    -3.14040E+06     81.2053E+03    -58.2050E-03     113.253E-03    -55.0479E-03     130.758E-03    -59.6153E-03     114.723E-03    -55.0841E-03     129.324E-03
            1684     11.9249E-03     43.3858E-03    -23.8563E+06    -15.1932E+06    -4.79419E+06     59.0213E+03    -57.6197E-03     112.743E-03    -55.1229E-03     110.503E-03    -58.4865E-03     113.485E-03    -55.0903E-03     109.340E-03
            1685     11.0732E-03     43.2824E-03    -25.4912E+06    -50.8723E+06    -6.01873E+06    -68.4631E+03    -57.3485E-03     112.514E-03    -55.1652E-03     99.3248E-03    -57.9268E-03     112.838E-03    -55.0845E-03     98.3578E-03
            1686     10.2211E-03     43.1859E-03    -26.4591E+06    -74.1767E+06    -5.49522E+06     210.119E+03    -57.1830E-03     112.374E-03    -55.1911E-03     92.1207E-03    -57.5850E-03     112.435E-03    -55.0726E-03     91.3153E-03
            1687     9.36983E-03     43.0961E-03    -28.2920E+06    -93.4083E+06    -6.03293E+06     93.7096E+03    -56.9816E-03     112.184E-03    -55.2027E-03     85.0747E-03    -57.2589E-03     112.047E-03    -55.0564E-03     84.4022E-03
            1688     8.51803E-03     43.0144E-03    -30.6305E+06    -108.874E+06    -7.47861E+06     113.019E+03    -56.6989E-03     111.902E-03    -55.2029E-03     77.5194E-03    -56.8853E-03     111.615E-03    -55.0380E-03     76.9626E-03
            1689     7.66626E-03     42.9396E-03    -32.9479E+06    -121.207E+06    -8.22715E+06     493.915E+03    -56.5013E-03     111.700E-03    -55.1982E-03     70.3676E-03    -56.6238E-03     111.299E-03    -55.0158E-03     69.9131E-03
            1690     6.81494E-03     42.8723E-03    -35.7644E+06    -134.888E+06    -10.4208E+06     265.568E+03    -56.2060E-03     111.393E-03    -55.1872E-03     63.2395E-03    -56.2772E-03     110.889E-03    -54.9918E-03     62.8669E-03
            1691     5.96285E-03     42.8118E-03    -39.1881E+06    -140.105E+06    -15.5675E+06    -14.8271E+03    -55.9232E-03     111.077E-03    -55.1542E-03     55.8809E-03    -55.9650E-03     110.528E-03    -54.9721E-03     55.5775E-03
            1692     5.11133E-03     42.7590E-03    -42.4064E+06    -144.548E+06    -21.2352E+06     262.387E+03    -55.7209E-03     110.838E-03    -55.1168E-03     48.3935E-03    -55.7407E-03     110.255E-03    -54.9519E-03     48.1559E-03
            1693     4.25945E-03     42.7137E-03    -45.5493E+06    -154.367E+06    -28.3948E+06     555.705E+03    -55.5078E-03     110.585E-03    -55.0777E-03     40.6889E-03    -55.5015E-03     109.952E-03    -54.9298E-03     40.5085E-03
            1694     3.40767E-03     42.6763E-03    -49.0123E+06    -159.878E+06    -36.6499E+06     315.428E+03    -55.2930E-03     110.324E-03    -55.0315E-03     32.8336E-03    -55.2717E-03     109.668E-03    -54.9119E-03     32.6963E-03
            1695     2.55577E-03     42.6469E-03    -52.2786E+06    -164.785E+06    -44.1703E+06    -134.702E+03    -55.1198E-03     110.117E-03    -54.9973E-03     24.9080E-03    -55.0883E-03     109.443E-03    -54.9035E-03     24.8053E-03
            1696     1.70383E-03     42.6258E-03    -54.6909E+06    -169.113E+06    -50.9873E+06    -181.150E+03    -55.0034E-03     109.983E-03    -54.9795E-03     16.9135E-03    -54.9623E-03     109.295E-03    -54.9099E-03     16.8456E-03
            1697     851.815E-06     42.6127E-03    -56.1580E+06    -171.872E+06    -55.2956E+06     68.5535E+03    -54.9936E-03     109.964E-03    -54.9708E-03     9.23595E-03    -54.9464E-03     109.268E-03    -54.9166E-03     9.20193E-03
            1698     16.1812E-03     43.4286E-03    -6.57232E+06     152.979E+06     105.572E+06    -906.571E+03    -65.6089E-03     120.959E-03    -55.3497E-03     242.759E-03    -75.9062E-03     131.470E-03    -55.0341E-03     244.396E-03
            1699     15.3312E-03     43.0682E-03    -13.0849E+06     141.677E+06     95.8290E+06    -515.002E+03    -71.3330E-03     126.645E-03    -55.3122E-03     315.054E-03    -83.6942E-03     139.185E-03    -55.0195E-03     313.974E-03
            1700     14.4821E-03     42.7854E-03    -16.1107E+06     112.403E+06     59.3841E+06     430.742E+03    -64.8921E-03     120.083E-03    -55.1907E-03     236.549E-03    -70.5869E-03     125.947E-03    -55.0334E-03     234.380E-03
            1701     13.6286E-03     42.5898E-03    -18.6369E+06     81.1272E+06     16.6931E+06     1.15571E+06    -60.3512E-03     115.398E-03    -55.0469E-03     168.987E-03    -62.9373E-03     118.158E-03    -55.0541E-03     167.188E-03
            1702     12.7773E-03     42.4465E-03    -21.2685E+06     36.0157E+06    -1.69686E+06     1.34134E+06    -58.3149E-03     113.348E-03    -55.0332E-03     131.392E-03    -59.7310E-03     114.822E-03    -55.0631E-03     129.973E-03
            1703     11.9243E-03     42.3268E-03    -23.2353E+06    -14.5333E+06    -3.60136E+06     800.334E+03    -57.6354E-03     112.738E-03    -55.1021E-03     110.695E-03    -58.5012E-03     113.480E-03    -55.0654E-03     109.544E-03
            1704     11.0731E-03     42.2235E-03    -24.6717E+06    -50.4117E+06    -5.43307E+06     10.1877E+03    -57.4860E-03     112.620E-03    -55.1341E-03     99.3356E-03    -58.0603E-03     112.944E-03    -55.0524E-03     98.3696E-03
            1705     10.2222E-03     42.1274E-03    -26.5885E+06    -74.8035E+06    -5.65443E+06    -184.269E+03    -57.2841E-03     112.431E-03    -55.1472E-03     92.2998E-03    -57.6863E-03     112.490E-03    -55.0285E-03     91.4879E-03
            1706     9.37000E-03     42.0378E-03    -28.4652E+06    -93.2995E+06    -6.03629E+06     152.197E+03    -56.9470E-03     112.099E-03    -55.1520E-03     84.9830E-03    -57.2243E-03     111.962E-03    -55.0056E-03     84.3134E-03
            1707     8.51844E-03     41.9559E-03    -30.2701E+06    -108.868E+06    -7.40740E+06     105.734E+03    -56.7002E-03     111.848E-03    -55.1482E-03     77.4312E-03    -56.8841E-03     111.560E-03    -54.9835E-03     76.8763E-03
            1708     7.66696E-03     41.8813E-03    -32.8795E+06    -121.835E+06    -8.47014E+06     236.907E+03    -56.4634E-03     111.602E-03    -55.1390E-03     70.1934E-03    -56.5837E-03     111.198E-03    -54.9570E-03     69.7369E-03
            1709     6.81500E-03     41.8139E-03    -35.9571E+06    -134.256E+06    -10.1405E+06     516.556E+03    -56.2139E-03     111.336E-03    -55.1225E-03     62.9911E-03    -56.2871E-03     110.835E-03    -54.9264E-03     62.6222E-03
            1710     5.96362E-03     41.7538E-03    -39.4915E+06    -139.699E+06    -15.3404E+06     66.6600E+03    -55.9362E-03     111.014E-03    -55.0774E-03     55.6873E-03    -55.9801E-03     110.466E-03    -54.8943E-03     55.3855E-03
            1711     5.11160E-03     41.7009E-03    -43.0108E+06    -144.891E+06    -21.6785E+06    -222.564E+03    -55.6703E-03     110.698E-03    -55.0274E-03     48.2171E-03    -55.6917E-03     110.115E-03    -54.8633E-03     47.9742E-03
            1712     4.25995E-03     41.6558E-03    -46.2170E+06    -154.542E+06    -28.4673E+06     61.3609E+03    -55.4365E-03     110.420E-03    -54.9831E-03     40.5332E-03    -55.4330E-03     109.786E-03    -54.8344E-03     40.3471E-03
            1713     3.40801E-03     41.6186E-03    -49.0402E+06    -159.452E+06    -36.1896E+06     282.309E+03    -55.1835E-03     110.119E-03    -54.9359E-03     32.7360E-03    -55.1635E-03     109.464E-03    -54.8146E-03     32.5993E-03
            1714     2.55600E-03     41.5893E-03    -51.8429E+06    -164.550E+06    -44.0980E+06      318.13E+03    -55.0160E-03     109.918E-03    -54.9022E-03     24.8377E-03    -54.9827E-03     109.245E-03    -54.8089E-03     24.7415E-03
            1715     1.70394E-03     41.5682E-03    -54.5416E+06    -169.133E+06    -51.0873E+06     204.995E+03    -54.9487E-03     109.822E-03    -54.8734E-03     16.8185E-03    -54.9066E-03     109.134E-03    -54.8045E-03     16.7558E-03
            1716     852.077E-06     41.5550E-03    -56.2027E+06    -171.784E+06    -55.2188E+06     98.3366E+03    -54.8879E-03     109.728E-03    -54.8398E-03     9.17975E-03    -54.8411E-03     109.032E-03    -54.7853E-03     9.14645E-03
            1717     16.1823E-03     42.3630E-03    -5.22330E+06     153.657E+06     106.598E+06     408.241E+03    -64.7344E-03     120.141E-03    -55.4069E-03     241.826E-03    -74.8528E-03     130.478E-03    -55.0891E-03     243.561E-03
            1718     15.3340E-03     42.0103E-03    -11.8849E+06     141.831E+06     95.1117E+06    -1.06816E+06    -71.2710E-03     126.631E-03    -55.3605E-03     310.901E-03    -83.3784E-03     138.924E-03    -55.0734E-03     309.777E-03
            1719     14.4791E-03     41.7256E-03    -17.7394E+06     110.923E+06     57.5735E+06    -1.10241E+06    -65.2947E-03     120.510E-03    -55.2157E-03     236.712E-03    -71.0333E-03     126.413E-03    -55.0629E-03     234.487E-03
            1720     13.6284E-03     41.5319E-03    -20.6549E+06     79.5396E+06     16.6747E+06     318.904E+03    -60.4486E-03     115.516E-03    -55.0675E-03     168.887E-03    -63.0371E-03     118.265E-03    -55.0695E-03     167.078E-03
            1721     12.7760E-03     41.3866E-03    -21.4376E+06     35.9284E+06    -1.03055E+06     1.20065E+06    -58.6719E-03     113.709E-03    -55.0373E-03     131.420E-03    -60.0936E-03     115.185E-03    -55.0635E-03     129.988E-03
            1722     11.9260E-03     41.2688E-03    -22.0034E+06    -13.0756E+06    -2.39472E+06     1.14489E+06    -57.8541E-03     112.938E-03    -55.0841E-03     110.622E-03    -58.7190E-03     113.686E-03    -55.0453E-03     109.470E-03
            1723     11.0736E-03     41.1647E-03    -23.6821E+06    -50.1699E+06    -4.94967E+06     495.877E+03    -57.4499E-03     112.557E-03    -55.1068E-03     99.4797E-03    -58.0191E-03     112.878E-03    -55.0244E-03     98.5227E-03
            1724     10.2217E-03     41.0685E-03    -25.7008E+06    -75.1606E+06    -5.34132E+06     144.764E+03    -57.4138E-03     112.528E-03    -55.1139E-03     92.1285E-03    -57.8115E-03     112.583E-03    -54.9944E-03     91.3189E-03
            1725     9.37078E-03     40.9795E-03    -27.8708E+06    -92.6842E+06    -5.31358E+06     403.364E+03    -57.1001E-03     112.203E-03    -55.1030E-03     84.6854E-03    -57.3759E-03     112.066E-03    -54.9547E-03     84.0177E-03
            1726     8.51907E-03     40.8974E-03    -30.5390E+06    -108.724E+06    -7.60030E+06     166.123E+03    -56.7109E-03     111.793E-03    -55.0826E-03     77.2528E-03    -56.8952E-03     111.505E-03    -54.9186E-03     76.6997E-03
            1727     7.66727E-03     40.8231E-03    -32.9192E+06    -122.458E+06    -8.67032E+06     96.8191E+03    -56.4595E-03     111.525E-03    -55.0656E-03     69.9660E-03    -56.5781E-03     111.117E-03    -54.8837E-03     69.5091E-03
            1728     6.81583E-03     40.7557E-03    -35.6326E+06    -133.967E+06    -10.0611E+06     343.564E+03    -56.2068E-03     111.246E-03    -55.0391E-03     62.6977E-03    -56.2784E-03     110.745E-03    -54.8435E-03     62.3274E-03
            1729     5.96393E-03     40.6957E-03    -38.5970E+06    -138.951E+06    -14.1720E+06     44.0908E+03    -55.9027E-03     110.891E-03    -54.9880E-03     55.4201E-03    -55.9445E-03     110.343E-03    -54.8014E-03     55.1189E-03
            1730     5.11234E-03     40.6431E-03    -42.1303E+06    -145.287E+06    -20.8369E+06    -21.9543E+03    -55.5899E-03     110.522E-03    -54.9317E-03     48.0236E-03    -55.6072E-03     109.934E-03    -54.7641E-03     47.7846E-03
            1731     4.26027E-03     40.5980E-03     -45.962E+06    -154.528E+06    -28.8516E+06    -112.776E+03    -55.3108E-03     110.193E-03    -54.8825E-03     40.3582E-03    -55.3053E-03     109.560E-03    -54.7360E-03     40.1712E-03
            1732     3.40831E-03     40.5611E-03    -49.4263E+06    -159.697E+06    -36.5293E+06    -84.4465E+03    -55.1030E-03     109.940E-03    -54.8366E-03     32.5977E-03    -55.0840E-03     109.284E-03    -54.7160E-03     32.4570E-03
            1733     2.55623E-03     40.5319E-03    -52.3347E+06    -164.571E+06    -43.8619E+06     402.795E+03    -54.9598E-03     109.753E-03    -54.7930E-03     24.7196E-03    -54.9292E-03     109.079E-03    -54.6978E-03     24.6250E-03
            1734     1.70428E-03     40.5107E-03    -54.5026E+06    -168.631E+06    -50.2819E+06     434.139E+03    -54.8387E-03     109.590E-03    -54.7512E-03     16.7650E-03    -54.7982E-03     108.903E-03    -54.6791E-03     16.7058E-03
            1735     852.129E-06     40.4977E-03    -55.9933E+06    -171.527E+06    -55.0190E+06     176.096E+03    -54.7557E-03     109.469E-03    -54.7129E-03     9.13327E-03    -54.7085E-03     108.773E-03    -54.6581E-03     9.10117E-03
            1736     16.1859E-03     41.3044E-03    -5.21088E+06     153.964E+06     107.119E+06     173.266E+03    -64.7732E-03     120.179E-03    -55.4059E-03     244.234E-03    -74.9266E-03     130.550E-03    -55.0860E-03     246.066E-03
            1737     15.3299E-03     40.9511E-03    -10.6501E+06     143.022E+06     96.6908E+06     906.433E+03    -70.7508E-03     126.135E-03    -55.3845E-03     311.459E-03    -82.8038E-03     138.378E-03    -55.0930E-03     310.427E-03
            1738     14.4809E-03     40.6661E-03    -16.9245E+06     111.295E+06     57.4561E+06     215.143E+03    -65.7072E-03     120.947E-03    -55.2399E-03     236.251E-03    -71.4367E-03     126.845E-03    -55.0895E-03     234.011E-03
            1739     13.6284E-03     40.4737E-03    -21.0319E+06     78.7357E+06     14.8193E+06    -602.707E+03    -60.7526E-03     115.816E-03    -55.0630E-03     168.257E-03    -63.3395E-03     118.564E-03    -55.0725E-03     166.422E-03
            1740     12.7772E-03     40.3274E-03    -22.1768E+06     35.3979E+06    -2.89061E+06    -187.823E+03    -58.6500E-03     113.672E-03    -55.0216E-03     131.265E-03    -60.0709E-03     115.148E-03    -55.0553E-03     129.817E-03
            1741     11.9247E-03     40.2095E-03    -22.7390E+06    -13.4700E+06    -3.78618E+06     475.104E+03    -57.9529E-03     113.019E-03    -55.0665E-03     110.575E-03    -58.8196E-03     113.769E-03    -55.0329E-03     109.412E-03
            1742     11.0739E-03     40.1065E-03    -23.8990E+06    -49.7042E+06     -5.0699E+06     958.400E+03    -57.7710E-03     112.846E-03    -55.0755E-03     99.3826E-03    -58.3437E-03     113.173E-03    -54.9942E-03     98.4243E-03
            1743     10.2226E-03     40.0095E-03    -25.7983E+06    -74.8533E+06    -5.41236E+06     863.820E+03    -57.4739E-03     112.538E-03    -55.0638E-03     91.6734E-03    -57.8700E-03     112.592E-03    -54.9449E-03     90.8746E-03
            1744     9.37112E-03     39.9207E-03    -28.0439E+06    -93.0127E+06    -5.47911E+06     527.605E+03    -57.1415E-03     112.184E-03    -55.0425E-03     84.2786E-03    -57.4167E-03     112.045E-03    -54.8943E-03     83.6121E-03
            1745     8.51968E-03     39.8394E-03    -30.2426E+06    -107.815E+06    -6.89665E+06     557.176E+03    -56.8011E-03     111.811E-03    -55.0096E-03     76.9713E-03    -56.9858E-03     111.525E-03    -54.8439E-03     76.4229E-03
            1746     7.66815E-03     39.7647E-03    -33.2294E+06    -122.466E+06    -8.75055E+06     225.283E+03    -56.4767E-03     111.452E-03    -54.9756E-03     69.7385E-03    -56.5960E-03     111.044E-03    -54.7936E-03     69.2844E-03
            1747     6.81641E-03     39.6977E-03    -36.0519E+06    -133.688E+06    -11.7584E+06    -276.289E+03    -56.1647E-03     111.095E-03    -54.9300E-03     62.4216E-03    -56.2356E-03     110.597E-03    -54.7427E-03     62.0449E-03
            1748     5.96475E-03     39.6378E-03    -38.8997E+06    -138.943E+06    -16.5500E+06    -199.648E+03    -55.8087E-03     110.679E-03    -54.8701E-03     55.1532E-03    -55.8480E-03     110.135E-03    -54.6950E-03     54.8506E-03
            1749     5.11271E-03     39.5854E-03    -42.1799E+06    -145.697E+06    -21.4395E+06     178.084E+03    -55.4856E-03     110.306E-03    -54.8208E-03     47.7500E-03    -55.5013E-03     109.717E-03    -54.6555E-03     47.5148E-03
            1750     4.26080E-03     39.5407E-03    -45.7154E+06    -154.158E+06    -28.5433E+06     309.600E+03    -55.2195E-03     109.991E-03    -54.7712E-03     40.1097E-03    -55.2135E-03     109.358E-03    -54.6241E-03     39.9291E-03
            1751     3.40864E-03     39.5037E-03    -49.4158E+06    -159.903E+06    -36.8760E+06     191.443E+03    -55.0268E-03     109.742E-03    -54.7148E-03     32.3880E-03    -55.0068E-03     109.085E-03    -54.5956E-03     32.2515E-03
            1752     2.55668E-03     39.4745E-03    -52.4502E+06    -164.592E+06    -44.0662E+06    -12.3720E+03    -54.8518E-03     109.514E-03    -54.6617E-03     24.5574E-03    -54.8214E-03     108.840E-03    -54.5674E-03     24.4580E-03
            1753     1.70441E-03     39.4537E-03    -54.5144E+06    -168.465E+06    -50.2872E+06     12.9635E+03    -54.6843E-03     109.307E-03    -54.6224E-03     16.6651E-03    -54.6441E-03     108.621E-03    -54.5506E-03     16.6009E-03
            1754     852.175E-06     39.4405E-03    -55.8204E+06    -171.112E+06    -54.5598E+06     167.199E+03    -54.6379E-03     109.225E-03    -54.5867E-03     9.09559E-03    -54.5911E-03     108.531E-03    -54.5305E-03     9.06357E-03
            1755     16.1803E-03     40.2447E-03    -6.23657E+06     152.977E+06     105.912E+06    -249.836E+03    -64.4938E-03     119.936E-03    -55.4422E-03     245.679E-03    -74.6882E-03     130.344E-03    -55.1254E-03     247.496E-03
            1756     15.3324E-03     39.8915E-03    -12.2340E+06     141.678E+06     95.7455E+06     42.2249E+03    -71.3158E-03     126.730E-03    -55.4144E-03     310.546E-03    -83.3498E-03     138.946E-03    -55.1234E-03     309.424E-03
            1757     14.4785E-03     39.6064E-03    -15.9695E+06     112.122E+06     58.5006E+06     435.059E+03    -65.8809E-03     121.128E-03    -55.2471E-03     235.622E-03    -71.6021E-03     127.021E-03    -55.0941E-03     233.373E-03
            1758     13.6286E-03     39.4135E-03    -19.1887E+06     79.8576E+06     15.1818E+06     487.212E+03    -60.9330E-03     115.984E-03    -55.0509E-03     167.830E-03    -63.5146E-03     118.737E-03    -55.0630E-03     165.998E-03
            1759     12.7770E-03     39.2692E-03    -22.0943E+06     35.1745E+06    -3.89577E+06    -115.421E+03    -58.8422E-03     113.834E-03    -54.9922E-03     130.826E-03    -60.2598E-03     115.310E-03    -55.0306E-03     129.373E-03
            1760     11.9255E-03     39.1510E-03    -24.2509E+06    -14.3577E+06    -5.05324E+06     60.6777E+03    -58.0956E-03     113.118E-03    -55.0229E-03     109.931E-03    -58.9639E-03     113.864E-03    -54.9921E-03     108.760E-03
            1761     11.0743E-03     39.0462E-03    -25.7560E+06    -49.7892E+06    -5.95687E+06     644.282E+03    -57.8720E-03     112.889E-03    -55.0172E-03     98.6301E-03    -58.4501E-03     113.216E-03    -54.9375E-03     97.6665E-03
            1762     10.2235E-03     38.9514E-03    -26.8411E+06    -74.5421E+06    -5.94834E+06     623.503E+03    -57.4911E-03     112.484E-03    -54.9929E-03     91.2032E-03    -57.8900E-03     112.540E-03    -54.8756E-03     90.4031E-03
            1763     9.37175E-03     38.8620E-03    -28.1264E+06    -92.7636E+06    -5.66493E+06     519.152E+03    -57.1006E-03     112.066E-03    -54.9651E-03     83.9924E-03    -57.3747E-03     111.927E-03    -54.8181E-03     83.3280E-03
            1764     8.52046E-03     38.7809E-03    -30.3196E+06    -108.115E+06    -7.15724E+06     621.894E+03    -56.8709E-03     111.793E-03    -54.9220E-03     76.6361E-03    -57.0546E-03     111.506E-03    -54.7570E-03     76.0884E-03
            1765     7.66886E-03     38.7068E-03    -32.6626E+06    -121.435E+06    -8.46688E+06     459.960E+03    -56.5044E-03     111.376E-03    -54.8714E-03     69.3805E-03    -56.6217E-03     110.971E-03    -54.6903E-03     68.9308E-03
            1766     6.81723E-03     38.6396E-03    -35.8657E+06    -133.469E+06    -11.7832E+06     60.8392E+03    -56.0807E-03     110.896E-03    -54.8156E-03     62.0993E-03    -56.1500E-03     110.399E-03    -54.6290E-03     61.7294E-03
            1767     5.96536E-03     38.5804E-03    -39.7893E+06    -139.286E+06    -17.7125E+06     102.064E+03    -55.7260E-03     110.472E-03    -54.7465E-03     54.8374E-03    -55.7669E-03     109.929E-03    -54.5754E-03     54.5404E-03
            1768     5.11345E-03     38.5279E-03    -43.2957E+06    -145.605E+06    -22.8476E+06    -23.8139E+03    -55.3949E-03     110.083E-03    -54.6881E-03     47.4298E-03    -55.4139E-03     109.498E-03    -54.5285E-03     47.1934E-03
            1769     4.26131E-03     38.4835E-03    -46.4295E+06    -154.557E+06    -28.6155E+06     101.789E+03    -55.1397E-03     109.774E-03    -54.6346E-03     39.8334E-03    -55.1363E-03     109.140E-03    -54.4863E-03     39.6511E-03
            1770     3.40930E-03     38.4465E-03    -49.3665E+06    -159.362E+06    -36.2788E+06     233.158E+03    -54.9018E-03     109.471E-03    -54.5688E-03     32.1728E-03    -54.8830E-03     108.816E-03    -54.4476E-03     32.0377E-03
            1771     2.55693E-03     38.4177E-03    -52.1727E+06    -164.420E+06    -44.1938E+06    -120.579E+03    -54.6952E-03     109.205E-03    -54.5096E-03     24.3541E-03    -54.6633E-03     108.532E-03    -54.4165E-03     24.2539E-03
            1772     1.70472E-03     38.3967E-03    -54.5794E+06    -168.632E+06    -50.7806E+06    -205.509E+03    -54.5558E-03     109.018E-03    -54.4626E-03     16.4958E-03    -54.5149E-03     108.332E-03    -54.3929E-03     16.4291E-03
            1773     852.374E-06     38.3840E-03    -56.0185E+06    -171.222E+06    -54.8913E+06    -238.932E+03    -54.4856E-03     108.892E-03    -54.4066E-03     9.04583E-03    -54.4392E-03     108.198E-03    -54.3515E-03     9.00887E-03
            1774     16.1829E-03     39.1825E-03    -5.86833E+06     153.492E+06     106.380E+06     213.537E+03    -64.7456E-03     120.194E-03    -55.4480E-03     246.329E-03    -74.9746E-03     130.638E-03    -55.1302E-03     248.151E-03
            1775     15.3302E-03     38.8317E-03    -11.8739E+06     141.690E+06     95.4312E+06    -413.201E+03    -71.5855E-03     126.982E-03    -55.3968E-03     309.207E-03    -83.6004E-03     139.181E-03    -55.1079E-03     308.058E-03
            1776     14.4813E-03     38.5472E-03    -17.0663E+06     111.060E+06     57.5146E+06    -467.094E+03    -65.9385E-03     121.147E-03    -55.2084E-03     234.103E-03    -71.6307E-03     127.006E-03    -55.0571E-03     231.830E-03
            1777     13.6286E-03     38.3544E-03    -20.2724E+06     79.3506E+06     15.3690E+06     339.286E+03    -60.6474E-03     115.662E-03    -55.0144E-03     166.878E-03    -63.2126E-03     118.392E-03    -55.0232E-03     165.060E-03
            1778     12.7775E-03     38.2098E-03    -21.9178E+06     35.5473E+06    -2.57773E+06     1.11094E+06    -59.1155E-03     114.068E-03    -54.9521E-03     130.537E-03    -60.5330E-03     115.541E-03    -54.9848E-03     129.091E-03
            1779     11.9271E-03     38.0914E-03    -23.6938E+06    -13.7191E+06    -3.72226E+06     689.142E+03    -58.4332E-03     113.389E-03    -54.9554E-03     109.691E-03    -59.3039E-03     114.137E-03    -54.9198E-03     108.518E-03
            1780     11.0757E-03     37.9883E-03    -25.2047E+06    -49.5913E+06    -5.69640E+06     78.9925E+03    -57.6876E-03     112.621E-03    -54.9332E-03     98.2303E-03    -58.2594E-03     112.944E-03    -54.8532E-03     97.2664E-03
            1781     10.2239E-03     37.8919E-03    -26.3226E+06    -74.3832E+06    -6.05705E+06     134.334E+03    -57.4008E-03     112.311E-03    -54.9102E-03     90.9375E-03    -57.7949E-03     112.365E-03    -54.7945E-03     90.1350E-03
            1782     9.37297E-03     37.8044E-03    -28.2672E+06    -92.8723E+06    -6.05102E+06     436.275E+03    -57.2267E-03     112.099E-03    -54.8719E-03     83.6625E-03    -57.4999E-03     111.959E-03    -54.7265E-03     82.9968E-03
            1783     8.52107E-03     37.7222E-03    -30.3193E+06    -108.256E+06    -7.59996E+06     466.755E+03    -56.8622E-03     111.674E-03    -54.8121E-03     76.2302E-03    -57.0434E-03     111.386E-03    -54.6491E-03     75.6828E-03
            1784     7.66995E-03     37.6487E-03    -32.5490E+06    -121.062E+06    -8.42901E+06     304.365E+03    -56.4528E-03     111.205E-03    -54.7525E-03     68.8420E-03    -56.5689E-03     110.801E-03    -54.5719E-03     68.3922E-03
            1785     6.81806E-03     37.5822E-03    -35.4378E+06    -133.615E+06    -9.84505E+06     662.081E+03    -56.0268E-03     110.723E-03    -54.6962E-03     61.7162E-03    -56.0958E-03     110.220E-03    -54.5003E-03     61.3559E-03
            1786     5.96619E-03     37.5227E-03    -38.7082E+06    -139.081E+06    -15.2158E+06     718.669E+03    -55.6576E-03     110.275E-03    -54.6171E-03     54.4215E-03    -55.6965E-03     109.727E-03    -54.4354E-03     54.1340E-03
            1787     5.11417E-03     37.4709E-03    -42.5593E+06    -144.954E+06    -22.0313E+06     293.453E+03    -55.3178E-03     109.855E-03    -54.5373E-03     47.0437E-03    -55.3348E-03     109.270E-03    -54.3755E-03     46.8125E-03
            1788     4.26210E-03     37.4264E-03    -46.4021E+06    -154.638E+06    -28.7691E+06    -222.159E+03    -55.0109E-03     109.481E-03    -54.4699E-03     39.5543E-03    -55.0067E-03     108.846E-03    -54.3222E-03     39.3692E-03
            1789     3.40974E-03     37.3899E-03    -49.6295E+06    -159.340E+06    -36.2598E+06    -306.443E+03    -54.7434E-03     109.142E-03    -54.3988E-03     31.9040E-03    -54.7258E-03     108.488E-03    -54.2771E-03     31.7630E-03
            1790     2.55751E-03     37.3610E-03    -52.3970E+06    -164.360E+06    -44.1052E+06    -79.1307E+03    -54.5329E-03     108.867E-03    -54.3346E-03     24.1605E-03    -54.5022E-03     108.195E-03    -54.2408E-03     24.0616E-03
            1791     1.70500E-03     37.3403E-03    -54.6562E+06    -168.661E+06    -50.9178E+06    -131.037E+03    -54.3931E-03     108.671E-03    -54.2778E-03     16.3731E-03    -54.3523E-03     107.985E-03    -54.2086E-03     16.3079E-03
            1792     852.583E-06     37.3273E-03    -56.2710E+06    -171.593E+06    -55.5489E+06    -7.82603E+03    -54.2916E-03     108.510E-03    -54.2180E-03     8.95955E-03    -54.2449E-03     107.815E-03    -54.1653E-03     8.92589E-03
            1793     16.1833E-03     38.1279E-03    -5.11838E+06     154.102E+06     107.034E+06     254.288E+03    -65.4232E-03     120.811E-03    -55.3878E-03     245.919E-03    -75.6486E-03     131.255E-03    -55.0686E-03     247.675E-03
            1794     15.3324E-03     37.7686E-03    -11.0115E+06     142.370E+06     96.3371E+06     246.818E+03    -71.1605E-03     126.491E-03    -55.3302E-03     309.215E-03    -83.1633E-03     138.680E-03    -55.0390E-03     308.103E-03
            1795     14.4813E-03     37.4884E-03    -17.4963E+06     110.613E+06     57.0705E+06     357.248E+03    -65.6840E-03     120.837E-03    -55.1526E-03     233.338E-03    -71.3376E-03     126.655E-03    -55.0023E-03     231.101E-03
            1796     13.6304E-03     37.2961E-03    -21.3544E+06     78.7491E+06     14.8390E+06     372.257E+03    -60.7417E-03     115.701E-03    -54.9594E-03     167.454E-03    -63.3146E-03     118.435E-03    -54.9684E-03     165.636E-03
            1797     12.7783E-03     37.1507E-03    -22.8996E+06     35.3357E+06    -3.30947E+06     291.962E+03    -59.2017E-03     114.090E-03    -54.8879E-03     130.898E-03    -60.6239E-03     115.566E-03    -54.9225E-03     129.440E-03
            1798     11.9271E-03     37.0312E-03    -23.0057E+06    -13.3894E+06    -3.97912E+06     130.330E+03    -58.4135E-03     113.297E-03    -54.8839E-03     109.303E-03    -59.2782E-03     114.044E-03    -54.8510E-03     108.125E-03
            1799     11.0767E-03     36.9300E-03    -23.7045E+06    -49.1604E+06    -4.97361E+06     326.776E+03    -57.7626E-03     112.619E-03    -54.8567E-03     97.9775E-03    -58.3276E-03     112.940E-03    -54.7759E-03     97.0168E-03
            1800     10.2250E-03     36.8339E-03    -25.9881E+06    -74.5986E+06    -6.06712E+06     417.932E+03    -57.4993E-03     112.318E-03    -54.8190E-03     90.9634E-03    -57.8902E-03     112.370E-03    -54.7035E-03     90.1656E-03
            1801     9.37343E-03     36.7451E-03    -27.7292E+06    -92.8447E+06    -5.81989E+06     286.125E+03    -57.3560E-03     112.118E-03    -54.7618E-03     83.2111E-03    -57.6258E-03     111.976E-03    -54.6161E-03     82.5433E-03
            1802     8.52285E-03     36.6645E-03    -29.8016E+06    -108.028E+06    -7.00916E+06     528.195E+03    -56.8570E-03     111.541E-03    -54.6845E-03     75.6059E-03    -57.0353E-03     111.251E-03    -54.5197E-03     75.0610E-03
            1803     7.67064E-03     36.5908E-03    -32.9900E+06    -121.133E+06    -8.43139E+06     769.192E+03    -56.3388E-03     110.953E-03    -54.6140E-03     68.4255E-03    -56.4557E-03     110.547E-03    -54.4327E-03     67.9848E-03
            1804     6.81915E-03     36.5247E-03    -36.3210E+06    -133.501E+06    -10.2494E+06     536.802E+03    -56.0073E-03     110.552E-03    -54.5442E-03     61.1917E-03    -56.0795E-03     110.051E-03    -54.3492E-03     60.8309E-03
            1805     5.96721E-03     36.4656E-03    -39.5310E+06    -138.948E+06    -15.3133E+06     492.859E+03    -55.5698E-03     110.020E-03    -54.4500E-03     53.9635E-03    -55.6121E-03     109.473E-03    -54.2677E-03     53.6748E-03
            1806     5.11516E-03     36.4139E-03    -42.4299E+06    -144.268E+06    -21.4012E+06     369.742E+03    -55.1815E-03     109.542E-03    -54.3601E-03     46.6408E-03    -55.1992E-03     108.959E-03    -54.1964E-03     46.4123E-03
            1807     4.26283E-03     36.3699E-03    -45.7192E+06    -154.145E+06    -28.4899E+06    -33.5965E+03    -54.8551E-03     109.137E-03    -54.2823E-03     39.2075E-03    -54.8482E-03     108.504E-03    -54.1349E-03     39.0261E-03
            1808     3.41054E-03     36.3333E-03    -49.3707E+06    -159.605E+06    -36.8603E+06    -256.228E+03    -54.5614E-03     108.765E-03    -54.2033E-03     31.6359E-03    -54.5411E-03     108.109E-03    -54.0846E-03     31.4968E-03
            1809     2.55789E-03     36.3049E-03    -52.4870E+06    -164.575E+06    -44.5025E+06    -191.721E+03    -54.3482E-03     108.485E-03    -54.1366E-03     23.9700E-03    -54.3170E-03     107.812E-03    -54.0444E-03     23.8706E-03
            1810     1.70539E-03     36.2840E-03    -54.8342E+06    -168.748E+06    -51.0295E+06     77.2062E+03    -54.1875E-03     108.268E-03    -54.0805E-03     16.2280E-03    -54.1473E-03     107.582E-03    -54.0114E-03     16.1662E-03
            1811     852.653E-06     36.2716E-03    -56.4532E+06    -171.478E+06    -55.2875E+06     187.761E+03    -54.0936E-03     108.118E-03    -54.0241E-03     8.79226E-03    -54.0483E-03     107.424E-03    -53.9700E-03     8.76124E-03
            1812     16.1861E-03     37.0673E-03    -5.30600E+06     153.777E+06     106.895E+06     195.308E+03    -66.1053E-03     121.435E-03    -55.3300E-03     245.658E-03    -76.2785E-03     131.826E-03    -55.0108E-03     247.318E-03
            1813     15.3342E-03     36.7118E-03    -11.4878E+06     141.773E+06     95.6209E+06     758.379E+03    -70.7666E-03     126.035E-03    -55.2688E-03     310.364E-03    -82.7216E-03     138.176E-03    -54.9796E-03     309.254E-03
            1814     14.4816E-03     36.4280E-03    -17.1933E+06     110.848E+06     57.4445E+06     988.603E+03    -65.2920E-03     120.416E-03    -55.1244E-03     234.272E-03    -70.9407E-03     126.231E-03    -54.9730E-03     232.085E-03
            1815     13.6296E-03     36.2377E-03    -20.2067E+06     79.6658E+06     16.4533E+06     578.339E+03    -61.4759E-03     116.402E-03    -54.9259E-03     167.660E-03    -64.0625E-03     119.152E-03    -54.9298E-03     165.814E-03
            1816     12.7795E-03     36.0901E-03    -21.7380E+06     35.7734E+06    -2.22933E+06    -363.582E+03    -59.4281E-03     114.246E-03    -54.8177E-03     130.305E-03    -60.8436E-03     115.718E-03    -54.8492E-03     128.833E-03
            1817     11.9288E-03     35.9734E-03    -23.4072E+06    -14.1521E+06    -4.61155E+06    -306.874E+03    -58.0921E-03     112.898E-03    -54.8058E-03     108.732E-03    -58.9467E-03     113.633E-03    -54.7744E-03     107.563E-03
            1818     11.0766E-03     35.8702E-03    -25.3092E+06    -49.7533E+06    -5.93073E+06     451.226E+03    -57.8938E-03     112.671E-03    -54.7773E-03     97.5713E-03    -58.4628E-03     112.991E-03    -54.6981E-03     96.6115E-03
            1819     10.2261E-03     35.7759E-03    -26.5822E+06    -73.7039E+06    -5.92389E+06     467.642E+03    -57.8174E-03     112.531E-03    -54.7136E-03     90.5110E-03    -58.2129E-03     112.588E-03    -54.5978E-03     89.7090E-03
            1820     9.37525E-03     35.6861E-03    -28.4469E+06    -92.9571E+06    -6.13560E+06     187.718E+03    -57.3329E-03     111.964E-03    -54.6312E-03     82.7813E-03    -57.6035E-03     111.822E-03    -54.4859E-03     82.1153E-03
            1821     8.52346E-03     35.6067E-03    -30.5899E+06    -108.469E+06    -7.31780E+06     464.256E+03    -56.8398E-03     111.381E-03    -54.5410E-03     74.9736E-03    -57.0198E-03     111.088E-03    -54.3759E-03     74.4290E-03
            1822     7.67226E-03     35.5334E-03    -32.4906E+06    -120.702E+06    -8.28139E+06     702.651E+03    -56.3694E-03     110.820E-03    -54.4502E-03     67.9161E-03    -56.4837E-03     110.414E-03    -54.2695E-03     67.4757E-03
            1823     6.82026E-03     35.4672E-03    -35.0783E+06    -133.399E+06    -9.83069E+06     771.026E+03    -55.8917E-03     110.256E-03    -54.3646E-03     60.6299E-03    -55.9574E-03     109.752E-03    -54.1695E-03     60.2746E-03
            1824     5.96845E-03     35.4088E-03    -38.6363E+06    -138.457E+06    -14.6717E+06     564.145E+03    -55.4467E-03     109.708E-03    -54.2611E-03     53.4892E-03    -55.4855E-03     109.160E-03    -54.0776E-03     53.2033E-03
            1825     5.11609E-03     35.3574E-03    -42.4720E+06    -143.845E+06    -21.3245E+06     128.883E+03    -55.0226E-03     109.183E-03    -54.1600E-03     46.2669E-03    -55.0407E-03     108.601E-03    -53.9965E-03     46.0373E-03
            1826     4.26383E-03     35.3135E-03    -46.0799E+06    -153.978E+06    -28.3721E+06     74.4242E+03    -54.6692E-03     108.745E-03    -54.0757E-03     38.8440E-03    -54.6642E-03     108.112E-03    -53.9275E-03     38.6658E-03
            1827     3.41111E-03     35.2775E-03    -49.4148E+06    -159.531E+06    -36.8629E+06     48.4337E+03    -54.3787E-03     108.367E-03    -53.9879E-03     31.3498E-03    -54.3584E-03     107.712E-03    -53.8693E-03     31.2161E-03
            1828     2.55857E-03     35.2489E-03    -52.5051E+06    -164.834E+06    -44.9604E+06     83.3855E+03    -54.1363E-03     108.049E-03    -53.9126E-03     23.6890E-03    -54.1040E-03     107.375E-03    -53.8222E-03     23.5941E-03
            1829     1.70570E-03     35.2286E-03    -54.9797E+06    -168.759E+06    -51.0760E+06     120.072E+03    -53.9495E-03     107.809E-03    -53.8599E-03     16.0587E-03    -53.9099E-03     107.124E-03    -53.7909E-03     15.9980E-03
            1830     852.943E-06     35.2157E-03    -56.2920E+06    -171.207E+06    -55.1800E+06    -95.1235E+03    -53.8661E-03     107.684E-03    -53.8178E-03     8.71740E-03    -53.8206E-03     106.991E-03    -53.7639E-03     8.68306E-03
            1831     16.1843E-03     36.0059E-03    -6.20155E+06     152.965E+06     106.034E+06     128.447E+03    -65.9756E-03     121.306E-03    -55.3305E-03     246.150E-03    -76.1121E-03     131.656E-03    -55.0132E-03     247.863E-03
            1832     15.3338E-03     35.6526E-03    -11.8181E+06     141.503E+06     95.5221E+06     932.832E+03    -71.1325E-03     126.394E-03    -55.2617E-03     309.583E-03    -83.0112E-03     138.456E-03    -54.9721E-03     308.489E-03
            1833     14.4809E-03     35.3712E-03    -16.1142E+06     111.554E+06     58.6326E+06     718.698E+03    -65.9327E-03     121.022E-03    -55.0893E-03     234.516E-03    -71.5865E-03     126.845E-03    -54.9345E-03     232.287E-03
            1834     13.6311E-03     35.1748E-03    -19.1725E+06     80.0829E+06     16.8654E+06     212.969E+03    -61.6690E-03     116.528E-03    -54.8587E-03     166.739E-03    -64.2387E-03     119.265E-03    -54.8627E-03     164.878E-03
            1835     12.7811E-03     35.0321E-03    -21.2125E+06     35.7612E+06    -1.86490E+06     494.774E+03    -59.3412E-03     114.081E-03    -54.7402E-03     129.514E-03    -60.7474E-03     115.545E-03    -54.7706E-03     128.060E-03
            1836     11.9290E-03     34.9142E-03    -23.6228E+06    -14.4584E+06    -4.19273E+06     889.551E+03    -58.3126E-03     113.030E-03    -54.7169E-03     108.466E-03    -59.1671E-03     113.761E-03    -54.6827E-03     107.310E-03
            1837     11.0785E-03     34.8123E-03    -25.5076E+06    -49.3056E+06    -5.69843E+06     218.685E+03    -58.0730E-03     112.735E-03    -54.6622E-03     97.0156E-03    -58.6425E-03     113.056E-03    -54.5822E-03     96.0502E-03
            1838     10.2274E-03     34.7158E-03    -27.0058E+06    -73.3946E+06    -5.93369E+06     127.163E+03    -57.8164E-03     112.394E-03    -54.5780E-03     89.6899E-03    -58.2119E-03     112.451E-03    -54.4620E-03     88.8850E-03
            1839     9.37632E-03     34.6290E-03    -29.0565E+06    -93.3813E+06    -6.51400E+06     267.662E+03    -57.2986E-03     111.780E-03    -54.4809E-03     82.0572E-03    -57.5690E-03     111.634E-03    -54.3360E-03     81.3945E-03
            1840     8.52504E-03     34.5482E-03    -31.1057E+06    -108.429E+06    -7.82719E+06     59.6692E+03    -56.8241E-03     111.198E-03    -54.3737E-03     74.3863E-03    -57.0042E-03     110.905E-03    -54.2105E-03     73.8389E-03
            1841     7.67357E-03     34.4761E-03    -33.5827E+06    -120.954E+06    -9.07505E+06     280.776E+03    -56.3286E-03     110.593E-03    -54.2645E-03     67.2479E-03    -56.4456E-03     110.188E-03    -54.0858E-03     66.8039E-03
            1842     6.82185E-03     34.4103E-03    -36.5109E+06    -133.375E+06    -11.8434E+06     528.703E+03    -55.7499E-03     109.909E-03    -54.1588E-03     60.2091E-03    -55.8186E-03     109.409E-03    -53.9717E-03     59.8540E-03
            1843     5.96949E-03     34.3523E-03    -39.1078E+06    -137.888E+06    -16.3400E+06     357.333E+03    -55.2904E-03     109.336E-03    -54.0456E-03     53.0441E-03    -55.3291E-03     108.794E-03    -53.8707E-03     52.7584E-03
            1844     5.11738E-03     34.3010E-03    -42.0859E+06    -143.745E+06    -21.2951E+06     322.582E+03    -54.8684E-03     108.810E-03    -53.9418E-03     45.8021E-03    -54.8841E-03     108.228E-03    -53.7788E-03     45.5771E-03
            1845     4.26462E-03     34.2579E-03    -45.8107E+06    -153.737E+06    -28.3834E+06     312.547E+03    -54.4966E-03     108.341E-03    -53.8447E-03     38.4398E-03    -54.4902E-03     107.709E-03    -53.6973E-03     38.2664E-03
            1846     3.41210E-03     34.2216E-03    -49.5274E+06    -159.519E+06    -36.9257E+06     356.378E+03    -54.1733E-03     107.919E-03    -53.7456E-03     30.9761E-03    -54.1532E-03     107.264E-03    -53.6271E-03     30.8476E-03
            1847     2.55914E-03     34.1939E-03    -52.6354E+06    -164.580E+06    -44.7236E+06     314.004E+03    -53.8947E-03     107.558E-03    -53.6637E-03     23.4204E-03    -53.8636E-03     106.886E-03    -53.5723E-03     23.3296E-03
            1848     1.70620E-03     34.1732E-03    -54.8251E+06    -168.558E+06    -51.1808E+06     21.4545E+03    -53.6904E-03     107.299E-03    -53.6088E-03     15.8762E-03    -53.6501E-03     106.614E-03    -53.5408E-03     15.8151E-03
            1849     852.997E-06     34.1611E-03    -56.2682E+06    -171.207E+06    -55.4894E+06     2.13392E+03    -53.6092E-03     107.186E-03    -53.5770E-03     8.67426E-03    -53.5631E-03     106.494E-03    -53.5246E-03     8.64174E-03
            1850     16.1841E-03     34.9420E-03    -5.67025E+06     152.495E+06     105.451E+06     348.268E+03    -65.7139E-03     121.047E-03    -55.3330E-03     244.607E-03    -75.8055E-03     131.354E-03    -55.0186E-03     246.327E-03
            1851     15.3331E-03     34.5955E-03    -11.7934E+06     141.730E+06     96.1075E+06    -191.353E+03    -71.7667E-03     127.015E-03    -55.2482E-03     308.491E-03    -83.6845E-03     139.115E-03    -54.9561E-03     307.370E-03
            1852     14.4840E-03     34.3091E-03    -15.9031E+06     111.734E+06     59.5000E+06     107.685E+03    -66.8958E-03     121.916E-03    -55.0199E-03     233.895E-03    -72.5657E-03     127.753E-03    -54.8614E-03     231.577E-03
            1853     13.6333E-03     34.1170E-03    -19.5024E+06     79.2786E+06     15.2318E+06     839.399E+03    -61.3076E-03     116.061E-03    -54.7535E-03     166.335E-03    -63.8630E-03     118.785E-03    -54.7640E-03     164.498E-03
            1854     12.7805E-03     33.9722E-03    -22.0131E+06     35.5152E+06    -3.18720E+06     1.22845E+06    -59.2528E-03     113.895E-03    -54.6422E-03     128.846E-03    -60.6557E-03     115.355E-03    -54.6777E-03     127.405E-03
            1855     11.9310E-03     33.8554E-03    -23.1218E+06    -13.0970E+06    -3.27086E+06     913.106E+03    -58.6791E-03     113.285E-03    -54.6059E-03     107.905E-03    -59.5354E-03     114.022E-03    -54.5698E-03     106.739E-03
            1856     11.0802E-03     33.7527E-03    -24.1511E+06    -48.5926E+06    -4.79055E+06     334.546E+03    -58.2582E-03     112.777E-03    -54.5192E-03     96.6401E-03    -58.8228E-03     113.098E-03    -54.4377E-03     95.6734E-03
            1857     10.2293E-03     33.6583E-03    -26.2587E+06    -73.9332E+06    -5.65205E+06     490.357E+03    -57.7473E-03     112.164E-03    -54.4165E-03     89.0894E-03    -58.1351E-03     112.212E-03    -54.2995E-03     88.2938E-03
            1858     9.37803E-03     33.5701E-03    -28.2997E+06    -93.0408E+06    -6.12186E+06     348.064E+03    -57.2666E-03     111.573E-03    -54.3062E-03     81.3473E-03    -57.5317E-03     111.425E-03    -54.1608E-03     80.6887E-03
            1859     8.52683E-03     33.4912E-03    -30.6534E+06    -108.432E+06    -7.69341E+06     202.638E+03    -56.7228E-03     110.908E-03    -54.1854E-03     73.8062E-03    -56.8985E-03     110.613E-03    -54.0222E-03     73.2649E-03
            1860     7.67505E-03     33.4184E-03    -33.2941E+06    -121.515E+06    -9.13647E+06     424.427E+03    -56.1630E-03     110.231E-03    -54.0683E-03     66.6778E-03    -56.2758E-03     109.821E-03    -53.8896E-03     66.2398E-03
            1861     6.82303E-03     33.3542E-03    -36.0644E+06    -132.765E+06    -11.8129E+06     324.940E+03    -55.6855E-03     109.634E-03    -53.9484E-03     59.6301E-03    -55.7517E-03     109.135E-03    -53.7626E-03     59.2749E-03
            1862     5.97105E-03     33.2957E-03    -39.2750E+06    -137.624E+06    -16.4706E+06    -64.6524E+03    -55.1538E-03     108.972E-03    -53.8181E-03     52.5073E-03    -55.1924E-03     108.430E-03    -53.6439E-03     52.2191E-03
            1863     5.11837E-03     33.2457E-03    -42.4591E+06    -144.087E+06    -21.5177E+06     31.0413E+03    -54.6986E-03     108.399E-03    -53.7002E-03     45.2773E-03    -54.7146E-03     107.815E-03    -53.5373E-03     45.0509E-03
            1864     4.26594E-03     33.2020E-03    -45.7102E+06    -153.891E+06    -28.6878E+06     686.220E+03    -54.3026E-03     107.890E-03    -53.5876E-03     37.9791E-03    -54.2945E-03     107.257E-03    -53.4417E-03     37.8125E-03
            1865     3.41292E-03     33.1671E-03    -49.1694E+06    -159.155E+06    -36.8331E+06     839.864E+03    -53.9212E-03     107.401E-03    -53.4802E-03     30.6120E-03    -53.8996E-03     106.747E-03    -53.3623E-03     30.4916E-03
            1866     2.55986E-03     33.1386E-03    -52.2245E+06    -163.991E+06    -44.4107E+06     375.703E+03    -53.6339E-03     107.029E-03    -53.3950E-03     23.1566E-03    -53.6019E-03     106.358E-03    -53.3035E-03     23.0681E-03
            1867     1.70664E-03     33.1191E-03    -54.7186E+06    -168.304E+06    -51.1376E+06     284.188E+03    -53.4463E-03     106.775E-03    -53.3286E-03     15.6912E-03    -53.4058E-03     106.091E-03    -53.2609E-03     15.6344E-03
            1868     853.383E-06     33.1061E-03    -56.3677E+06    -171.043E+06    -55.3952E+06     201.352E+03    -53.3376E-03     106.607E-03    -53.2692E-03     8.56560E-03    -53.2924E-03     105.915E-03    -53.2164E-03     8.53621E-03
            1869     16.1867E-03     33.8916E-03    -5.40766E+06     153.329E+06     106.381E+06     538.451E+03    -66.8535E-03     122.182E-03    -55.3285E-03     243.712E-03    -76.9611E-03     132.506E-03    -55.0111E-03     245.240E-03
            1870     15.3333E-03     33.5296E-03    -11.2285E+06     142.646E+06     96.2896E+06    -440.476E+03    -72.3594E-03     127.555E-03    -55.1954E-03     309.056E-03    -84.3537E-03     139.736E-03    -54.9045E-03     307.788E-03
            1871     14.4848E-03     33.2502E-03    -17.3210E+06     110.306E+06     57.4529E+06    -230.562E+03    -66.7868E-03     121.731E-03    -54.9444E-03     233.218E-03    -72.4399E-03     127.548E-03    -54.7920E-03     230.895E-03
            1872     13.6331E-03     33.0574E-03    -20.6901E+06     78.8854E+06     15.8769E+06     784.758E+03    -61.6956E-03     116.368E-03    -54.6727E-03     166.305E-03    -64.2662E-03     119.099E-03    -54.6777E-03     164.452E-03
            1873     12.7841E-03     32.9135E-03    -21.3721E+06     36.3137E+06    -1.95601E+06     842.370E+03    -59.5785E-03     114.108E-03    -54.5293E-03     128.446E-03    -60.9782E-03     115.566E-03    -54.5607E-03     126.992E-03
            1874     11.9321E-03     32.7959E-03    -22.2369E+06    -12.7180E+06    -3.84193E+06     465.111E+03    -58.6743E-03     113.138E-03    -54.4638E-03     107.668E-03    -59.5209E-03     113.872E-03    -54.4323E-03     106.501E-03
            1875     11.0816E-03     32.6939E-03    -24.0751E+06    -49.0639E+06    -5.32013E+06     885.141E+03    -58.3166E-03     112.682E-03    -54.3659E-03     96.0941E-03    -58.8750E-03     112.997E-03    -54.2864E-03     95.1379E-03
            1876     10.2310E-03     32.5996E-03    -25.9043E+06    -73.4831E+06    -5.40841E+06     985.358E+03    -57.8012E-03     112.047E-03    -54.2459E-03     88.4574E-03    -58.1851E-03     112.094E-03    -54.1288E-03     87.6710E-03
            1877     9.37993E-03     32.5127E-03    -28.1889E+06    -92.4600E+06    -5.91736E+06     752.670E+03    -57.1588E-03     111.280E-03    -54.1210E-03     80.9884E-03    -57.4212E-03     111.131E-03    -53.9756E-03     80.3413E-03
            1878     8.52838E-03     32.4334E-03    -30.6337E+06    -108.463E+06    -7.69750E+06     487.303E+03    -56.6295E-03     110.620E-03    -53.9901E-03     73.2914E-03    -56.8028E-03     110.321E-03    -53.8269E-03     72.7584E-03
            1879     7.67661E-03     32.3624E-03    -33.1071E+06    -121.551E+06    -9.00327E+06     326.134E+03    -56.1165E-03     109.974E-03    -53.8571E-03     66.0514E-03    -56.2266E-03     109.561E-03    -53.6779E-03     65.6158E-03
            1880     6.82478E-03     32.2971E-03    -35.8416E+06    -132.250E+06    -11.1054E+06     281.334E+03    -55.5724E-03     109.292E-03    -53.7201E-03     58.9325E-03    -55.6377E-03     108.793E-03    -53.5319E-03     58.5801E-03
            1881     5.97240E-03     32.2406E-03    -38.9487E+06    -137.180E+06    -16.2015E+06     54.7688E+03    -55.0281E-03     108.597E-03    -53.5687E-03     51.8603E-03    -55.0650E-03     108.055E-03    -53.3943E-03     51.5765E-03
            1882     5.11997E-03     32.1898E-03    -42.7346E+06    -144.741E+06    -22.5739E+06     228.699E+03    -54.4971E-03     107.927E-03    -53.4302E-03     44.7386E-03    -54.5111E-03     107.341E-03    -53.2712E-03     44.5179E-03
            1883     4.26698E-03     32.1477E-03    -46.4220E+06    -154.221E+06    -29.1454E+06     595.284E+03    -54.0464E-03     107.358E-03    -53.3112E-03     37.5105E-03    -54.0401E-03     106.724E-03    -53.1660E-03     37.3455E-03
            1884     3.41391E-03     32.1121E-03    -49.3424E+06    -158.690E+06    -36.4071E+06     612.453E+03    -53.6708E-03     106.869E-03    -53.1978E-03     30.2131E-03    -53.6510E-03     106.216E-03    -53.0782E-03     30.0917E-03
            1885     2.56062E-03     32.0849E-03    -52.1158E+06    -163.590E+06    -44.0218E+06     664.767E+03    -53.3680E-03     106.469E-03    -53.1011E-03     22.8170E-03    -53.3364E-03     105.799E-03    -53.0084E-03     22.7336E-03
            1886     1.70711E-03     32.0646E-03    -54.5449E+06    -167.814E+06    -50.6048E+06     496.180E+03    -53.1599E-03     106.184E-03    -53.0238E-03     15.4786E-03    -53.1199E-03     105.501E-03    -52.9544E-03     15.4255E-03
            1887     853.673E-06     32.0526E-03    -56.0114E+06    -170.497E+06    -54.9517E+06     251.029E+03    -53.0311E-03     105.983E-03    -52.9520E-03     8.44617E-03    -52.9855E-03     105.293E-03    -52.8984E-03     8.41796E-03
            1888     16.1821E-03     32.8236E-03    -6.22084E+06     153.286E+06     106.492E+06     38.4124E+03    -67.6206E-03     122.947E-03    -55.3265E-03     242.667E-03    -77.6805E-03     133.220E-03    -55.0072E-03     244.118E-03
            1889     15.3377E-03     32.4719E-03    -10.7238E+06     142.854E+06     96.5572E+06     507.511E+03    -72.6951E-03     127.850E-03    -55.1548E-03     308.378E-03    -84.5809E-03     139.925E-03    -54.8636E-03     307.047E-03
            1890     14.4840E-03     32.1898E-03    -16.6718E+06     110.197E+06     57.3653E+06     495.044E+03    -66.7449E-03     121.638E-03    -54.8928E-03     233.504E-03    -72.3832E-03     127.442E-03    -54.7416E-03     231.210E-03
            1891     13.6354E-03     31.9968E-03    -19.8071E+06     79.0467E+06     16.2613E+06     38.1194E+03    -62.2222E-03     116.828E-03    -54.6053E-03     165.913E-03    -64.7830E-03     119.551E-03    -54.6099E-03     164.033E-03
            1892     12.7840E-03     31.8540E-03    -21.5795E+06     36.3412E+06    -2.63072E+06     567.951E+03    -60.0633E-03     114.483E-03    -54.4195E-03     128.501E-03    -61.4625E-03     115.942E-03    -54.4540E-03     127.034E-03
            1893     11.9344E-03     31.7373E-03    -23.4326E+06    -12.8820E+06    -4.91084E+06     1.00732E+06    -58.9792E-03     113.297E-03    -54.3175E-03     107.246E-03    -59.8272E-03     114.030E-03    -54.2894E-03     106.082E-03
            1894     11.0836E-03     31.6348E-03    -25.1202E+06    -49.0283E+06    -5.97967E+06     1.01365E+06    -58.1965E-03     112.398E-03    -54.2016E-03     95.4994E-03    -58.7519E-03     112.708E-03    -54.1240E-03     94.5545E-03
            1895     10.2328E-03     31.5416E-03    -26.5169E+06    -73.4992E+06    -5.80445E+06     957.698E+03    -57.6993E-03     111.775E-03    -54.0758E-03     87.9291E-03    -58.0816E-03     111.819E-03    -53.9598E-03     87.1485E-03
            1896     9.38151E-03     31.4551E-03    -28.2638E+06    -92.0556E+06    -5.83254E+06     1.07892E+06    -57.2190E-03     111.155E-03    -53.9359E-03     80.4216E-03    -57.4798E-03     111.005E-03    -53.7906E-03     79.7819E-03
            1897     8.52995E-03     31.3767E-03    -30.6523E+06    -107.802E+06    -7.67258E+06     744.806E+03    -56.6640E-03     110.442E-03    -53.7783E-03     72.4808E-03    -56.8357E-03     110.145E-03    -53.6159E-03     71.9547E-03
            1898     7.67860E-03     31.3052E-03    -33.6472E+06    -121.492E+06    -9.22544E+06     574.916E+03    -56.0423E-03     109.663E-03    -53.6212E-03     65.2214E-03    -56.1526E-03     109.250E-03    -53.4424E-03     64.7930E-03
            1899     6.82639E-03     31.2419E-03    -36.7978E+06    -131.412E+06    -12.5428E+06     73.9292E+03    -55.4412E-03     108.899E-03    -53.4576E-03     58.2546E-03    -55.5087E-03     108.406E-03    -53.2764E-03     57.9036E-03
            1900     5.97411E-03     31.1845E-03    -39.6280E+06    -137.428E+06    -17.0970E+06    -268.196E+03    -54.8531E-03     108.145E-03    -53.2922E-03     51.1347E-03    -54.8905E-03     107.604E-03    -53.1209E-03     50.8504E-03
            1901     5.12134E-03     31.1356E-03    -42.4430E+06    -145.563E+06    -22.0635E+06     475.393E+03    -54.2852E-03     107.429E-03    -53.1439E-03     44.0758E-03    -54.2965E-03     106.837E-03    -52.9816E-03     43.8614E-03
            1902     4.26826E-03     31.0930E-03    -45.7089E+06    -153.726E+06    -29.2048E+06     629.839E+03    -53.8058E-03     106.810E-03    -53.0047E-03     36.9174E-03    -53.7960E-03     106.177E-03    -52.8615E-03     36.7553E-03
            1903     3.41500E-03     31.0585E-03    -49.2253E+06    -158.646E+06    -36.6122E+06     451.326E+03    -53.3890E-03     106.268E-03    -52.8793E-03     29.6859E-03    -53.3681E-03     105.616E-03    -52.7609E-03     29.5644E-03
            1904     2.56141E-03     31.0310E-03    -52.1406E+06    -163.209E+06    -43.6004E+06     476.277E+03    -53.0667E-03     105.841E-03    -52.7746E-03     22.4742E-03    -53.0361E-03     105.173E-03    -52.6803E-03     22.3900E-03
            1905     1.70784E-03     31.0115E-03    -54.2207E+06    -167.288E+06    -50.1280E+06     345.987E+03    -52.8271E-03     105.518E-03    -52.6905E-03     15.2229E-03    -52.7869E-03     104.836E-03    -52.6199E-03     15.1688E-03
            1906     853.792E-06     30.9992E-03    -55.5841E+06    -170.012E+06    -54.5662E+06     207.887E+03    -52.6986E-03     105.313E-03    -52.6143E-03     8.27787E-03    -52.6521E-03     104.624E-03    -52.5600E-03     8.24956E-03
            1907     16.1875E-03     31.7576E-03    -6.01349E+06     152.108E+06     105.288E+06     12.9606E+03    -66.9048E-03     122.216E-03    -55.3115E-03     243.811E-03    -76.9852E-03     132.510E-03    -54.9969E-03     245.368E-03
            1908     15.3337E-03     31.4136E-03    -11.4380E+06     141.951E+06     96.2363E+06     88.6728E+03    -73.1795E-03     128.326E-03    -55.1462E-03     307.352E-03    -85.0418E-03     140.372E-03    -54.8543E-03     306.054E-03
            1909     14.4861E-03     31.1271E-03    -15.3199E+06     111.141E+06     59.7642E+06     376.917E+03    -67.4650E-03     122.314E-03    -54.8491E-03     232.454E-03    -73.0791E-03     128.095E-03    -54.6892E-03     230.103E-03
            1910     13.6351E-03     30.9381E-03    -19.2604E+06     78.2087E+06     15.3255E+06     827.730E+03    -62.1622E-03     116.684E-03    -54.5214E-03     165.236E-03    -64.6977E-03     119.384E-03    -54.5302E-03     163.377E-03
            1911     12.7857E-03     30.7930E-03    -22.4041E+06     36.0534E+06    -3.55544E+06     1.31720E+06    -60.4651E-03     114.782E-03    -54.3169E-03     127.895E-03    -61.8619E-03     116.238E-03    -54.3545E-03     126.427E-03
            1912     11.9360E-03     30.6777E-03    -23.7972E+06    -11.8628E+06    -3.99451E+06     1.28275E+06    -59.2237E-03     113.412E-03    -54.1887E-03     106.444E-03    -60.0711E-03     114.145E-03    -54.1569E-03     105.282E-03
            1913     11.0856E-03     30.5769E-03    -24.9174E+06    -48.3724E+06    -5.91173E+06     847.812E+03    -58.2501E-03     112.295E-03    -54.0446E-03     95.1998E-03    -58.8012E-03     112.603E-03    -53.9679E-03     94.2577E-03
            1914     10.2342E-03     30.4836E-03    -26.4845E+06    -73.9119E+06    -6.25376E+06     795.486E+03    -57.8377E-03     111.733E-03    -53.8954E-03     87.3501E-03    -58.2150E-03     111.772E-03    -53.7811E-03     86.5699E-03
            1915     9.38328E-03     30.3975E-03    -28.2200E+06    -92.0940E+06    -6.02971E+06     975.735E+03    -57.3736E-03     111.097E-03    -53.7233E-03     79.2889E-03    -57.6307E-03     110.944E-03    -53.5790E-03     78.6490E-03
            1916     8.53254E-03     30.3195E-03    -30.4097E+06    -107.135E+06    -7.49578E+06     1.13468E+06    -56.5961E-03     110.133E-03    -53.5371E-03     71.5062E-03    -56.7642E-03     109.835E-03    -53.3751E-03     70.9908E-03
            1917     7.68035E-03     30.2497E-03    -32.8981E+06    -121.108E+06    -9.04062E+06     780.929E+03    -55.9505E-03     109.309E-03    -53.3585E-03     64.4212E-03    -56.0556E-03     108.894E-03    -53.1804E-03     64.0001E-03
            1918     6.82840E-03     30.1858E-03    -35.4900E+06    -130.374E+06    -11.8513E+06     118.344E+03    -55.3234E-03     108.496E-03    -53.1729E-03     57.3177E-03    -55.3851E-03     108.004E-03    -52.9916E-03     56.9712E-03
            1919     5.97592E-03     30.1302E-03    -38.8405E+06    -137.841E+06    -16.2027E+06    -232.823E+03    -54.6387E-03     107.630E-03    -52.9915E-03     50.2740E-03    -54.6714E-03     107.083E-03    -52.8163E-03     49.9942E-03
            1920     5.12295E-03     30.0810E-03    -42.4711E+06    -146.481E+06    -21.4343E+06     158.356E+03    -54.0752E-03     106.900E-03    -52.8250E-03     43.3109E-03    -54.0853E-03     106.302E-03    -52.6582E-03     43.0953E-03
            1921     4.26987E-03     30.0395E-03    -45.7999E+06    -153.327E+06    -28.9799E+06     730.236E+03    -53.5379E-03     106.200E-03    -52.6618E-03     36.2264E-03    -53.5288E-03     105.568E-03    -52.5180E-03     36.0683E-03
            1922     3.41619E-03     30.0051E-03    -48.8875E+06    -158.232E+06    -36.4188E+06     563.669E+03    -53.0627E-03     105.584E-03    -52.5216E-03     29.1583E-03    -53.0405E-03     104.933E-03    -52.4034E-03     29.0406E-03
            1923     2.56242E-03     29.9783E-03    -51.7480E+06    -162.969E+06    -43.7306E+06     208.189E+03    -52.7106E-03     105.119E-03    -52.4087E-03     22.0619E-03    -52.6781E-03     104.451E-03    -52.3160E-03     21.9758E-03
            1924     1.70825E-03     29.9588E-03    -54.0137E+06    -167.033E+06    -50.1104E+06     128.676E+03    -52.4669E-03     104.788E-03    -52.3210E-03     14.9378E-03    -52.4259E-03     104.107E-03    -52.2510E-03     14.8821E-03
            1925     854.356E-06     29.9469E-03    -55.4047E+06    -169.645E+06    -54.2958E+06     141.010E+03    -52.3327E-03     104.570E-03    -52.2369E-03     8.13086E-03    -52.2861E-03     103.882E-03    -52.1820E-03     8.10228E-03
            1926     16.1821E-03     30.7039E-03    -4.99398E+06     152.623E+06     105.962E+06     335.312E+03    -67.6284E-03     122.908E-03    -55.2799E-03     243.259E-03    -77.6645E-03     133.161E-03    -54.9641E-03     244.650E-03
            1927     15.3355E-03     30.3436E-03    -11.8830E+06     141.376E+06     94.9295E+06    -735.895E+03    -73.0153E-03     128.095E-03    -55.0792E-03     304.709E-03    -84.7914E-03     140.055E-03    -54.7923E-03     303.322E-03
            1928     14.4878E-03     30.0704E-03    -17.3111E+06     109.325E+06     57.5215E+06    -131.083E+03    -67.2657E-03     122.038E-03    -54.7722E-03     231.090E-03    -72.8205E-03     127.753E-03    -54.6180E-03     228.750E-03
            1929     13.6370E-03     29.8765E-03    -20.6812E+06     77.4904E+06     15.7542E+06     1.34279E+06    -62.5996E-03     117.038E-03    -54.4381E-03     165.462E-03    -65.1442E-03     119.738E-03    -54.4417E-03     163.590E-03
            1930     12.7875E-03     29.7334E-03    -21.7925E+06     36.4257E+06    -2.99839E+06     1.37852E+06    -60.4307E-03     114.642E-03    -54.2112E-03     127.493E-03    -61.8156E-03     116.087E-03    -54.2474E-03     126.032E-03
            1931     11.9371E-03     29.6180E-03    -22.8401E+06    -11.1552E+06    -4.57621E+06     1.06254E+06    -59.2820E-03     113.348E-03    -54.0662E-03     105.871E-03    -60.1172E-03     114.076E-03    -54.0398E-03     104.711E-03
            1932     11.0867E-03     29.5187E-03    -24.5056E+06    -47.8362E+06    -5.80601E+06     1.08317E+06    -58.8002E-03     112.691E-03    -53.8910E-03     94.2817E-03    -59.3494E-03     113.000E-03    -53.8151E-03     93.3329E-03
            1933     10.2367E-03     29.4253E-03    -26.3759E+06    -73.8312E+06    -6.39058E+06     846.195E+03    -58.2266E-03     111.913E-03    -53.6864E-03     86.3652E-03    -58.6004E-03     111.950E-03    -53.5731E-03     85.5829E-03
            1934     9.38629E-03     29.3399E-03    -28.3086E+06    -92.2218E+06    -6.39846E+06     929.597E+03    -57.2913E-03     110.769E-03    -53.4778E-03     78.1799E-03    -57.5433E-03     110.612E-03    -53.3350E-03     77.5462E-03
            1935     8.53417E-03     29.2635E-03    -30.2312E+06    -107.093E+06    -7.66767E+06     1.06269E+06    -56.5581E-03     109.828E-03    -53.2696E-03     70.6629E-03    -56.7219E-03     109.526E-03    -53.1088E-03     70.1520E-03
            1936     7.68277E-03     29.1933E-03    -32.4741E+06    -120.010E+06    -8.69572E+06     806.590E+03    -55.9252E-03     108.987E-03    -53.0618E-03     63.3449E-03    -56.0278E-03     108.573E-03    -52.8842E-03     62.9281E-03
            1937     6.83069E-03     29.1310E-03    -35.7220E+06    -129.828E+06    -11.8816E+06     357.788E+03    -55.1111E-03     107.961E-03    -52.8500E-03     56.2309E-03    -55.1725E-03     107.469E-03    -52.6694E-03     55.8926E-03
            1938     5.97787E-03     29.0758E-03    -39.1880E+06    -137.925E+06    -16.5874E+06     272.530E+03    -54.4339E-03     107.081E-03    -52.6473E-03     49.3934E-03    -54.4663E-03     106.533E-03    -52.4734E-03     49.1239E-03
            1939     5.12495E-03     29.0273E-03    -42.8754E+06    -146.878E+06    -22.1067E+06     381.569E+03    -53.8054E-03     106.264E-03    -52.4587E-03     42.4407E-03    -53.8149E-03     105.664E-03    -52.2940E-03     42.2315E-03
            1940     4.27133E-03     28.9865E-03    -46.2764E+06    -153.206E+06    -28.9452E+06     234.502E+03    -53.2082E-03     105.490E-03    -52.2820E-03     35.5045E-03    -53.2010E-03     104.859E-03    -52.1375E-03     35.3430E-03
            1941     3.41760E-03     28.9526E-03    -49.0939E+06    -157.812E+06    -36.0927E+06     139.406E+03    -52.7299E-03     104.856E-03    -52.1263E-03     28.5668E-03    -52.7094E-03     104.206E-03    -52.0067E-03     28.4459E-03
            1942     2.56340E-03     28.9262E-03    -51.7325E+06    -162.766E+06    -43.7473E+06     194.023E+03    -52.3385E-03     104.333E-03    -51.9941E-03     21.5581E-03    -52.3058E-03     103.665E-03    -51.9018E-03     21.4736E-03
            1943     1.70916E-03     28.9070E-03    -53.9900E+06    -166.911E+06    -50.3335E+06     100.053E+03    -52.0468E-03     103.942E-03    -51.8957E-03     14.5733E-03    -52.0054E-03     103.263E-03    -51.8270E-03     14.5183E-03
            1944     854.454E-06     28.8953E-03    -55.3694E+06    -169.430E+06    -54.4392E+06    -34.4108E+03    -51.9030E-03     103.716E-03    -51.8130E-03     7.92246E-03    -51.8564E-03     103.029E-03    -51.7592E-03     7.89219E-03
            1945     16.1892E-03     29.6336E-03    -4.71995E+06     153.410E+06     106.959E+06     47.6486E+03    -68.6663E-03     123.913E-03    -55.2472E-03     243.481E-03    -78.5984E-03     134.063E-03    -54.9280E-03     244.786E-03
            1946     15.3410E-03     29.2904E-03    -10.5840E+06     141.993E+06     96.0136E+06     1.14352E+06    -73.0043E-03     128.033E-03    -55.0283E-03     305.975E-03    -84.6412E-03     139.858E-03    -54.7388E-03     304.563E-03
            1947     14.4855E-03     29.0069E-03    -17.4611E+06     108.717E+06     56.4565E+06     1.51504E+06    -67.6014E-03     122.317E-03    -54.7154E-03     232.145E-03    -73.1651E-03     128.041E-03    -54.5655E-03     229.826E-03
            1948     13.6385E-03     28.8159E-03    -21.0234E+06     76.8435E+06     14.9150E+06     726.864E+03    -63.1732E-03     117.528E-03    -54.3546E-03     164.860E-03    -65.7089E-03     120.218E-03    -54.3610E-03     162.958E-03
            1949     12.7882E-03     28.6738E-03    -22.4085E+06     36.7462E+06    -3.40622E+06     653.595E+03    -60.5907E-03     114.687E-03    -54.0960E-03     126.361E-03    -61.9648E-03     116.122E-03    -54.1338E-03     124.892E-03
            1950     11.9383E-03     28.5585E-03    -24.1636E+06    -11.1015E+06    -5.44098E+06     965.552E+03    -59.5856E-03     113.506E-03    -53.9207E-03     104.773E-03    -60.4175E-03     114.229E-03    -53.8968E-03     103.612E-03
            1951     11.0890E-03     28.4593E-03    -25.4722E+06    -48.1256E+06    -6.48981E+06     880.713E+03    -59.2358E-03     112.938E-03    -53.7018E-03     92.9996E-03    -59.7838E-03     113.243E-03    -53.6276E-03     92.0432E-03
            1952     10.2393E-03     28.3666E-03    -26.4644E+06    -73.3361E+06    -6.53902E+06     986.299E+03    -58.2948E-03     111.751E-03    -53.4564E-03     85.0763E-03    -58.6649E-03     111.786E-03    -53.3443E-03     84.2992E-03
            1953     9.38791E-03     28.2837E-03    -28.2124E+06    -91.7706E+06    -6.42948E+06     846.024E+03    -57.3734E-03     110.589E-03    -53.2161E-03     77.2241E-03    -57.6212E-03     110.430E-03    -53.0743E-03     76.5944E-03
            1954     8.53708E-03     28.2069E-03    -30.1127E+06    -106.750E+06    -7.70085E+06     825.491E+03    -56.6839E-03     109.651E-03    -52.9673E-03     69.4522E-03    -56.8448E-03     109.349E-03    -52.8073E-03     68.9403E-03
            1955     7.68553E-03     28.1377E-03    -32.4752E+06    -119.675E+06    -8.86970E+06     866.194E+03    -55.7333E-03     108.458E-03    -52.7251E-03     62.0618E-03    -55.8330E-03     108.044E-03    -52.5488E-03     61.6518E-03
            1956     6.83295E-03     28.0769E-03    -35.3925E+06    -129.342E+06    -11.9574E+06     972.919E+03    -54.9251E-03     107.415E-03    -52.4901E-03     55.2046E-03    -54.9834E-03     106.923E-03    -52.3110E-03     54.8790E-03
            1957     5.98029E-03     28.0216E-03    -39.1348E+06    -137.746E+06    -16.7105E+06     915.625E+03    -54.2030E-03     106.466E-03    -52.2625E-03     48.3553E-03    -54.2336E-03     105.917E-03    -52.0896E-03     48.0984E-03
            1958     5.12695E-03     27.9747E-03    -42.5753E+06    -146.238E+06    -21.8433E+06     412.164E+03    -53.4794E-03     105.533E-03    -52.0536E-03     41.4847E-03    -53.4875E-03     104.934E-03    -51.8890E-03     41.2798E-03
            1959     4.27324E-03     27.9340E-03    -45.8228E+06    -152.957E+06    -29.0996E+06    -88.9275E+03    -52.8738E-03     104.730E-03    -51.8565E-03     34.6934E-03    -52.8637E-03     104.099E-03    -51.7138E-03     34.5307E-03
            1960     3.41907E-03     27.9011E-03    -49.1530E+06    -157.925E+06    -36.6892E+06    -103.753E+03    -52.3511E-03     104.031E-03    -51.6801E-03     27.8647E-03    -52.3295E-03     103.381E-03    -51.5633E-03     27.7431E-03
            1961     2.56468E-03     27.8748E-03    -52.0532E+06    -162.734E+06    -44.1294E+06      55.248E+03    -51.9329E-03     103.462E-03    -51.5289E-03     21.0411E-03    -51.9011E-03     102.795E-03    -51.4381E-03     20.9565E-03
            1962     1.70990E-03     27.8563E-03    -54.2278E+06    -166.703E+06    -50.4221E+06     112.327E+03    -51.6049E-03     103.013E-03    -51.4083E-03     14.1773E-03    -51.5647E-03     102.335E-03    -51.3400E-03     14.1238E-03
            1963     855.085E-06     27.8446E-03    -55.7498E+06    -169.443E+06    -54.8350E+06     74.5961E+03    -51.4108E-03     102.713E-03    -51.3025E-03     7.69783E-03    -51.3654E-03     102.028E-03    -51.2502E-03     7.66977E-03
            1964     16.1844E-03     28.5732E-03    -6.08826E+06     151.955E+06     105.085E+06    -300.185E+03    -67.9805E-03     123.252E-03    -55.2710E-03     245.044E-03    -77.8741E-03     133.358E-03    -54.9571E-03     246.445E-03
            1965     15.3319E-03     28.2235E-03    -12.2537E+06     140.161E+06     95.2114E+06     1.11958E+06    -73.9916E-03     129.040E-03    -55.0482E-03     304.419E-03    -85.5094E-03     140.736E-03    -54.7576E-03     302.972E-03
            1966     14.4902E-03     27.9470E-03    -16.5000E+06     110.104E+06     59.3262E+06     1.70241E+06    -68.7195E-03     123.396E-03    -54.6767E-03     230.903E-03    -74.2791E-03     129.116E-03    -54.5158E-03     228.508E-03
            1967     13.6385E-03     27.7541E-03    -19.9540E+06     78.1302E+06     16.5600E+06     1.56943E+06    -63.5735E-03     117.826E-03    -54.2523E-03     163.194E-03    -66.0768E-03     120.488E-03    -54.2539E-03     161.296E-03
            1968     12.7909E-03     27.6133E-03    -22.9199E+06     36.4603E+06    -3.83591E+06     812.868E+03    -61.2447E-03     115.182E-03    -53.9376E-03     124.488E-03    -62.6057E-03     116.603E-03    -53.9764E-03     123.011E-03
            1969     11.9412E-03     27.4998E-03    -23.7949E+06    -11.2922E+06    -5.68816E+06     882.863E+03    -59.9568E-03     113.664E-03    -53.7075E-03     103.207E-03    -60.7754E-03     114.375E-03    -53.6851E-03     102.044E-03
            1970     11.0917E-03     27.3987E-03    -24.7994E+06    -48.2993E+06    -6.44406E+06     929.887E+03    -58.9652E-03     112.430E-03    -53.4651E-03     91.6454E-03    -59.4994E-03     112.724E-03    -53.3914E-03     90.7028E-03
            1971     10.2413E-03     27.3100E-03    -26.5919E+06    -72.7767E+06    -6.48277E+06     734.659E+03    -58.3535E-03     111.557E-03    -53.2032E-03     83.5725E-03    -58.7196E-03     111.589E-03    -53.0915E-03     82.7959E-03
            1972     9.39092E-03     27.2260E-03    -28.3305E+06    -91.2129E+06    -6.37862E+06     724.616E+03    -57.6614E-03     110.579E-03    -52.9177E-03     75.7452E-03    -57.9074E-03     110.419E-03    -52.7763E-03     75.1135E-03
            1973     8.54029E-03     27.1505E-03    -30.4963E+06    -106.729E+06    -7.77574E+06     707.679E+03    -56.5332E-03     109.161E-03    -52.6279E-03     67.9529E-03    -56.6919E-03     108.855E-03    -52.4678E-03     67.4457E-03
            1974     7.68802E-03     27.0837E-03    -32.9588E+06    -119.758E+06    -9.20839E+06     807.517E+03    -55.5609E-03     107.921E-03    -52.3597E-03     60.9822E-03    -55.6594E-03     107.504E-03    -52.1843E-03     60.5777E-03
            1975     6.83579E-03     27.0222E-03    -35.9259E+06    -129.858E+06    -12.3334E+06     1.40613E+06    -54.7770E-03     106.872E-03    -52.0949E-03     54.0280E-03    -54.8347E-03     106.377E-03    -51.9162E-03     53.7124E-03
            1976     5.98286E-03     26.9692E-03    -39.0627E+06    -136.526E+06    -17.2866E+06     1.42931E+06    -53.8998E-03     105.734E-03    -51.8346E-03     47.2080E-03    -53.9292E-03     105.191E-03    -51.6665E-03     46.9626E-03
            1977     5.12921E-03     26.9221E-03    -42.5307E+06    -145.046E+06    -22.7781E+06     331.761E+03    -53.1509E-03     104.753E-03    -51.6018E-03     40.5355E-03    -53.1580E-03     104.160E-03    -51.4437E-03     40.3337E-03
            1978     4.27526E-03     26.8829E-03    -45.9457E+06    -153.045E+06    -29.5786E+06    -12.0372E+03    -52.5001E-03     103.887E-03    -51.3865E-03     33.8243E-03    -52.4890E-03     103.255E-03    -51.2459E-03     33.6661E-03
            1979     3.42078E-03     26.8501E-03    -49.2916E+06    -157.937E+06    -37.1979E+06     122.628E+03    -51.9255E-03     103.115E-03    -51.1898E-03     27.1700E-03    -51.9032E-03     102.465E-03    -51.0753E-03     27.0542E-03
            1980     2.56592E-03     26.8248E-03    -52.2740E+06    -162.782E+06    -44.7414E+06     82.1601E+03    -51.4624E-03     102.485E-03    -51.0224E-03     20.4661E-03    -51.4305E-03     101.819E-03    -50.9342E-03     20.3840E-03
            1981     1.71086E-03     26.8062E-03    -54.5816E+06    -166.637E+06    -50.8445E+06     99.7924E+03    -51.1087E-03     101.998E-03    -50.8898E-03     13.8047E-03    -51.0697E-03     101.322E-03    -50.8232E-03     13.7523E-03
            1982     855.506E-06     26.7953E-03    -56.0376E+06    -169.170E+06    -54.9041E+06     171.968E+03    -50.8887E-03     101.664E-03    -50.7756E-03     7.52020E-03    -50.8450E-03     100.980E-03    -50.7236E-03     7.49430E-03
            1983     16.1833E-03     27.5051E-03    -5.24211E+06     151.982E+06     105.306E+06     732.331E+03    -68.3803E-03     123.602E-03    -55.2218E-03     239.667E-03    -78.1130E-03     133.551E-03    -54.9080E-03     241.015E-03
            1984     15.3419E-03     27.1652E-03    -12.3710E+06     139.987E+06     94.4867E+06     511.191E+03    -73.5407E-03     128.512E-03    -54.9718E-03     302.257E-03    -85.0042E-03     140.155E-03    -54.6844E-03     300.874E-03
            1985     14.4872E-03     26.8815E-03    -17.8854E+06     108.987E+06     58.7774E+06     223.207E+03    -69.4051E-03     123.984E-03    -54.5784E-03     229.435E-03    -74.9258E-03     129.657E-03    -54.4166E-03     226.959E-03
            1986     13.6428E-03     26.6943E-03    -20.1998E+06     78.3809E+06     17.6739E+06     1.07887E+06    -64.2220E-03     118.324E-03    -54.1020E-03     161.402E-03    -66.7170E-03     120.974E-03    -54.0980E-03     159.475E-03
            1987     12.7924E-03     26.5517E-03    -21.0639E+06     37.3226E+06    -2.60020E+06     1.67914E+06    -61.6296E-03     115.362E-03    -53.7320E-03     123.209E-03    -62.9760E-03     116.773E-03    -53.7685E-03     121.736E-03
            1988     11.9452E-03     26.4395E-03    -22.9457E+06    -10.6064E+06    -5.20218E+06     1.48286E+06    -60.0485E-03     113.512E-03    -53.4637E-03     101.973E-03    -60.8569E-03     114.217E-03    -53.4411E-03     100.820E-03
            1989     11.0947E-03     26.3420E-03    -24.9147E+06    -47.7947E+06    -6.46355E+06     1.02975E+06    -59.0271E-03     112.219E-03    -53.1915E-03     90.5231E-03    -59.5562E-03     112.508E-03    -53.1184E-03     89.5870E-03
            1990     10.2442E-03     26.2512E-03    -26.7438E+06    -72.6942E+06    -6.64036E+06     777.126E+03    -58.4846E-03     111.378E-03    -52.8939E-03     82.1408E-03    -58.8451E-03     111.405E-03    -52.7829E-03     81.3690E-03
            1991     9.39484E-03     26.1688E-03    -28.7525E+06    -91.1074E+06    -6.66638E+06     845.346E+03    -57.4939E-03     110.070E-03    -52.5765E-03     74.0921E-03    -57.7364E-03     109.907E-03    -52.4360E-03     73.4689E-03
            1992     8.54287E-03     26.0960E-03    -31.2033E+06    -106.809E+06    -8.14370E+06     751.091E+03    -56.3552E-03     108.619E-03    -52.2643E-03     66.6215E-03    -56.5126E-03     108.311E-03    -52.1049E-03     66.1223E-03
            1993     7.69120E-03     26.0286E-03    -33.9352E+06    -119.912E+06    -9.48542E+06     992.363E+03    -55.4788E-03     107.444E-03    -51.9656E-03     59.7003E-03    -55.5788E-03     107.026E-03    -51.7899E-03     59.3030E-03
            1994     6.83883E-03     25.9693E-03    -36.7457E+06    -130.370E+06    -12.8667E+06     1.27470E+06    -54.5128E-03     106.180E-03    -51.6675E-03     52.7740E-03    -54.5704E-03     105.682E-03    -51.4895E-03     52.4629E-03
            1995     5.98545E-03     25.9167E-03    -39.4464E+06    -135.484E+06    -18.1207E+06     1.20533E+06    -53.6164E-03     104.992E-03    -51.3760E-03     46.1098E-03    -53.6463E-03     104.454E-03    -51.2130E-03     45.8666E-03
            1996     5.13181E-03     25.8710E-03    -42.3935E+06    -143.797E+06    -23.4793E+06     749.821E+03    -52.8046E-03     103.920E-03    -51.1154E-03     39.4955E-03    -52.8104E-03     103.333E-03    -50.9629E-03     39.3037E-03
            1997     4.27737E-03     25.8322E-03    -46.0947E+06    -153.166E+06    -30.0431E+06     346.199E+03    -52.0751E-03     102.956E-03    -50.8813E-03     32.9201E-03    -52.0630E-03     102.324E-03    -50.7426E-03     32.7704E-03
            1998     3.42257E-03     25.8004E-03    -49.5109E+06    -157.754E+06    -37.3439E+06     357.163E+03    -51.4540E-03     102.123E-03    -50.6687E-03     26.4285E-03    -51.4323E-03     101.473E-03    -50.5549E-03     26.3188E-03
            1999     2.56738E-03     25.7754E-03    -52.4408E+06    -162.632E+06    -45.0271E+06     299.159E+03    -50.9323E-03     101.424E-03    -50.4920E-03     19.9024E-03    -50.9007E-03     100.760E-03    -50.4053E-03     19.8255E-03
            2000     1.71172E-03     25.7578E-03    -54.6917E+06    -166.476E+06    -51.2291E+06     206.178E+03    -50.5461E-03     100.914E-03    -50.3678E-03     13.4584E-03    -50.5071E-03     100.238E-03    -50.3032E-03     13.4091E-03
            2001     855.887E-06     25.7466E-03    -56.0784E+06    -168.908E+06    -55.2271E+06     91.7643E+03    -50.3719E-03     100.641E-03    -50.2693E-03     7.31201E-03    -50.3283E-03     99.9591E-03    -50.2192E-03     7.28574E-03
            2002     16.1963E-03     26.4563E-03    -5.59569E+06     151.528E+06     105.105E+06     857.767E+03    -70.2939E-03     125.501E-03    -55.2067E-03     241.499E-03    -80.1285E-03     135.549E-03    -54.8928E-03     242.545E-03
            2003     15.3342E-03     26.0982E-03    -10.8757E+06     141.452E+06     96.0505E+06     1.70898E+06    -75.3798E-03     130.267E-03    -54.8868E-03     305.682E-03    -87.0473E-03     142.119E-03    -54.5959E-03     304.054E-03
            2004     14.4939E-03     25.8205E-03    -15.7872E+06     109.470E+06     58.8086E+06     711.669E+03    -69.9481E-03     124.369E-03    -54.4207E-03     227.277E-03    -75.4187E-03     130.001E-03    -54.2625E-03     224.780E-03
            2005     13.6430E-03     25.6304E-03    -19.9769E+06     76.9822E+06     15.4550E+06     889.159E+03    -64.4713E-03     118.365E-03    -53.8936E-03     159.776E-03    -66.9397E-03     120.991E-03    -53.8990E-03     157.840E-03
            2006     12.7976E-03     25.4919E-03    -22.2718E+06     37.7273E+06    -3.76666E+06     1.99214E+06    -61.6142E-03     115.115E-03    -53.5007E-03     121.732E-03    -62.9502E-03     116.517E-03    -53.5420E-03     120.269E-03
            2007     11.9463E-03     25.3799E-03    -23.7587E+06    -9.48156E+06    -5.50960E+06     1.67708E+06    -60.1196E-03     113.331E-03    -53.2114E-03     100.813E-03    -60.9239E-03     114.033E-03    -53.1907E-03     99.6674E-03
            2008     11.0979E-03     25.2832E-03    -25.1835E+06    -47.4399E+06    -6.92050E+06     1.08268E+06    -59.5379E-03     112.430E-03    -52.8920E-03     89.2747E-03    -60.0631E-03     112.717E-03    -52.8213E-03     88.3351E-03
            2009     10.2491E-03     25.1933E-03    -26.7361E+06    -72.5755E+06    -6.92356E+06     1.05492E+06    -58.3720E-03     110.923E-03    -52.5506E-03     80.9594E-03    -58.7249E-03     110.943E-03    -52.4412E-03     80.2008E-03
            2010     9.39721E-03     25.1133E-03    -28.7861E+06    -91.2631E+06    -6.88534E+06     1.04566E+06    -57.2283E-03     109.444E-03    -52.2160E-03     72.7406E-03    -57.4643E-03     109.274E-03    -52.0764E-03     72.1306E-03
            2011     8.54647E-03     25.0404E-03    -30.9717E+06    -106.308E+06    -8.04136E+06     1.17968E+06    -56.3461E-03     108.222E-03    -51.8763E-03     65.1833E-03    -56.4993E-03     107.912E-03    -51.7175E-03     64.6946E-03
            2012     7.69469E-03     24.9750E-03    -33.9149E+06    -119.906E+06    -9.82618E+06     1.22394E+06    -55.2469E-03     106.789E-03    -51.5423E-03     58.3261E-03    -55.3428E-03     106.368E-03    -51.3684E-03     57.9390E-03
            2013     6.84163E-03     24.9167E-03    -36.7070E+06    -130.109E+06    -13.1163E+06     994.213E+03    -54.2598E-03     105.477E-03    -51.2172E-03     51.5804E-03    -54.3147E-03     104.978E-03    -51.0409E-03     51.2723E-03
            2014     5.98850E-03     24.8651E-03    -39.4701E+06    -135.015E+06    -18.2602E+06     830.345E+03    -53.3300E-03     104.226E-03    -50.8959E-03     44.8715E-03    -53.3585E-03     103.688E-03    -50.7342E-03     44.6289E-03
            2015     5.13434E-03     24.8206E-03    -42.6329E+06    -143.423E+06    -23.4247E+06     1.00468E+06    -52.4107E-03     103.020E-03    -50.6095E-03     38.4175E-03    -52.4170E-03     102.434E-03    -50.4569E-03     38.2340E-03
            2016     4.27971E-03     24.7827E-03    -45.9676E+06    -152.611E+06    -29.6944E+06     953.447E+03    -51.6300E-03     101.985E-03    -50.3548E-03     32.0133E-03    -51.6177E-03     101.354E-03    -50.2154E-03     31.8758E-03
            2017     3.42448E-03     24.7517E-03    -49.5017E+06    -157.570E+06    -37.5586E+06     665.494E+03    -50.9321E-03     101.059E-03    -50.1266E-03     25.6490E-03    -50.9097E-03     100.410E-03    -50.0141E-03     25.5467E-03
            2018     2.56867E-03     24.7275E-03    -52.4114E+06    -162.275E+06    -45.1260E+06     490.159E+03    -50.3787E-03     100.326E-03    -49.9470E-03     19.3106E-03    -50.3470E-03     99.6627E-03    -49.8613E-03     19.2386E-03
            2019     1.71265E-03     24.7101E-03    -54.6401E+06    -166.054E+06    -51.2275E+06     337.071E+03    -50.0043E-03     99.8262E-03    -49.8219E-03     13.0320E-03    -49.9656E-03     99.1525E-03    -49.7580E-03     12.9859E-03
            2020     856.325E-06     24.6995E-03    -56.1289E+06    -168.499E+06    -55.1706E+06     243.826E+03    -49.8336E-03     99.5450E-03    -49.7114E-03     7.09395E-03    -49.7909E-03     98.8649E-03    -49.6616E-03     7.07050E-03
            2021     16.1727E-03     25.3821E-03    -6.31390E+06     150.406E+06     104.017E+06     258.338E+03    -71.5656E-03     126.808E-03    -55.2424E-03     238.151E-03    -81.2920E-03     136.744E-03    -54.9312E-03     238.932E-03
            2022     15.3448E-03     25.0321E-03    -11.2269E+06     141.013E+06     95.9542E+06    -343.864E+03    -77.5652E-03     132.361E-03    -54.7960E-03     300.399E-03    -89.0855E-03     144.063E-03    -54.5044E-03     298.451E-03
            2023     14.4934E-03     24.7584E-03    -15.7008E+06     109.465E+06     59.3096E+06     1.53502E+06    -70.0617E-03     124.294E-03    -54.2326E-03     225.554E-03    -75.4799E-03     129.873E-03    -54.0720E-03     223.069E-03
            2024     13.6488E-03     24.5682E-03    -19.8280E+06     77.3020E+06     16.5091E+06     2.67570E+06    -64.4980E-03     118.182E-03    -53.6843E-03     158.880E-03    -66.9304E-03     120.771E-03    -53.6851E-03     156.977E-03
            2025     12.7981E-03     24.4314E-03    -22.1474E+06     37.7905E+06    -3.73655E+06     1.81745E+06    -61.7970E-03     115.058E-03    -53.2614E-03     120.067E-03    -63.1093E-03     116.437E-03    -53.3028E-03     118.609E-03
            2026     11.9511E-03     24.3211E-03    -23.2598E+06    -9.13166E+06    -5.98264E+06     1.55506E+06    -60.4872E-03     113.413E-03    -52.9262E-03     99.3930E-03    -61.2782E-03     114.107E-03    -52.9091E-03     98.2460E-03
            2027     11.1018E-03     24.2233E-03    -24.8544E+06    -46.5037E+06    -6.68720E+06     1.54207E+06    -59.3068E-03     111.886E-03    -52.5790E-03     87.9245E-03    -59.8207E-03     112.166E-03    -52.5090E-03     87.0051E-03
            2028     10.2513E-03     24.1372E-03    -26.4675E+06    -72.2707E+06    -7.10813E+06     1.16778E+06    -58.3209E-03     110.539E-03    -52.2178E-03     79.7817E-03    -58.6659E-03     110.554E-03    -52.1102E-03     79.0337E-03
            2029     9.40140E-03     24.0572E-03    -28.1785E+06    -90.9728E+06    -6.77655E+06     1.25067E+06    -57.3332E-03     109.181E-03    -51.8477E-03     71.5502E-03    -57.5616E-03     109.006E-03    -51.7088E-03     70.9486E-03
            2030     8.55011E-03     23.9856E-03    -30.6480E+06    -106.379E+06    -8.50512E+06     1.53994E+06    -56.1519E-03     107.622E-03    -51.4704E-03     63.8243E-03    -56.2980E-03     107.307E-03    -51.3142E-03     63.3490E-03
            2031     7.69766E-03     23.9223E-03    -33.1595E+06    -119.427E+06    -10.0999E+06     1.54102E+06    -55.0932E-03     106.199E-03    -51.1059E-03     57.0122E-03    -55.1821E-03     105.776E-03    -50.9352E-03     56.6363E-03
            2032     6.84512E-03     23.8644E-03    -36.2011E+06    -129.453E+06    -13.2753E+06     1.24117E+06    -54.0404E-03     104.787E-03    -50.7464E-03     50.2184E-03    -54.0907E-03     104.288E-03    -50.5726E-03     49.9199E-03
            2033     5.99143E-03     23.8146E-03    -39.5856E+06    -134.928E+06    -18.7600E+06     1.04479E+06    -52.9593E-03     103.356E-03    -50.3964E-03     43.6062E-03    -52.9857E-03     102.817E-03    -50.2372E-03     43.3728E-03
            2034     5.13707E-03     23.7710E-03    -42.8881E+06    -143.328E+06    -24.0675E+06     1.08534E+06    -52.0189E-03     102.105E-03    -50.0858E-03     37.3107E-03    -52.0242E-03     101.519E-03    -49.9361E-03     37.1334E-03
            2035     4.28201E-03     23.7342E-03    -46.1597E+06    -152.274E+06    -29.9004E+06     1.16035E+06    -51.1559E-03     100.968E-03    -49.8116E-03     31.0015E-03    -51.1437E-03     100.338E-03    -49.6734E-03     30.8710E-03
            2036     3.42632E-03     23.7042E-03    -49.3295E+06    -156.852E+06    -37.2401E+06     1.03612E+06    -50.4171E-03     99.9866E-03    -49.5695E-03     24.8028E-03    -50.3948E-03     99.3403E-03    -49.4567E-03     24.7087E-03
            2037     2.57023E-03     23.6806E-03    -52.3297E+06    -161.788E+06    -45.0714E+06     717.932E+03    -49.8526E-03     99.2257E-03    -49.3731E-03     18.6318E-03    -49.8210E-03     98.5646E-03    -49.2879E-03     18.5650E-03
            2038     1.71363E-03     23.6638E-03    -54.5831E+06    -165.501E+06    -51.0776E+06     509.138E+03    -49.4613E-03     98.6860E-03    -49.2247E-03     12.5670E-03    -49.4231E-03     98.0146E-03    -49.1609E-03     12.5247E-03
            2039     856.984E-06     23.6532E-03    -56.0192E+06    -167.926E+06    -55.0418E+06     226.591E+03    -49.2258E-03     98.3198E-03    -49.0940E-03     6.81726E-03    -49.1835E-03     97.6421E-03    -49.0444E-03     6.79445E-03
            2040     16.1980E-03     24.3122E-03    -5.44432E+06     151.096E+06     104.977E+06     327.441E+03    -72.6393E-03     127.731E-03    -55.0912E-03     234.080E-03    -82.2320E-03     137.536E-03    -54.7775E-03     234.880E-03
            2041     15.3414E-03     23.9695E-03    -10.9045E+06     140.938E+06     95.7574E+06     493.046E+03    -76.1627E-03     130.791E-03    -54.6288E-03     299.236E-03    -87.5499E-03     142.362E-03    -54.3385E-03     297.535E-03
            2042     14.4985E-03     23.6934E-03    -17.8077E+06     107.556E+06     58.9164E+06     1.46373E+06    -70.7115E-03     124.791E-03    -54.0795E-03     225.140E-03    -76.0483E-03     130.276E-03    -53.9151E-03     222.610E-03
            2043     13.6492E-03     23.5073E-03    -19.8809E+06     77.3369E+06     18.2255E+06     1.75566E+06    -64.8291E-03     118.324E-03    -53.4950E-03     157.516E-03    -67.2383E-03     120.884E-03    -53.4872E-03     155.600E-03
            2044     12.8032E-03     23.3707E-03    -21.1981E+06     38.5441E+06    -3.81548E+06     2.36136E+06    -62.1432E-03     115.164E-03    -53.0212E-03     119.571E-03    -63.4359E-03     116.530E-03    -53.0654E-03     118.124E-03
            2045     11.9544E-03     23.2603E-03    -22.9773E+06    -8.20157E+06    -6.44830E+06     2.19169E+06    -60.6733E-03     113.321E-03    -52.6476E-03     98.6329E-03    -61.4556E-03     114.011E-03    -52.6347E-03     97.4979E-03
            2046     11.1050E-03     23.1672E-03    -24.2075E+06    -45.5982E+06    -6.55157E+06     1.61450E+06    -59.3019E-03     111.575E-03    -52.2726E-03     86.8101E-03    -59.8046E-03     111.849E-03    -52.2042E-03     85.9021E-03
            2047     10.2549E-03     23.0794E-03    -25.8508E+06    -71.8295E+06    -7.37869E+06     1.59421E+06    -58.3587E-03     110.238E-03    -51.8795E-03     78.4166E-03    -58.6929E-03     110.247E-03    -51.7748E-03     77.6832E-03
            2048     9.40482E-03     23.0015E-03    -28.1668E+06    -91.4804E+06    -7.63869E+06     1.64318E+06    -57.2529E-03     108.729E-03    -51.4758E-03     69.9982E-03    -57.4728E-03     108.546E-03    -51.3405E-03     69.4108E-03
            2049     8.55312E-03     22.9324E-03    -30.4951E+06    -106.254E+06    -8.92151E+06     1.83813E+06    -56.0994E-03     107.164E-03    -51.0647E-03     62.5266E-03    -56.2396E-03     106.845E-03    -50.9111E-03     62.0633E-03
            2050     7.70137E-03     22.8690E-03    -32.9634E+06    -118.584E+06    -10.3563E+06     1.90271E+06    -55.0031E-03     105.662E-03    -50.6585E-03     55.4697E-03    -55.0882E-03     105.239E-03    -50.4905E-03     55.1051E-03
            2051     6.84842E-03     22.8137E-03    -35.9807E+06    -128.920E+06    -13.5003E+06     1.72829E+06    -53.7408E-03     104.005E-03    -50.2639E-03     48.7331E-03    -53.7875E-03     103.505E-03    -50.0922E-03     48.4482E-03
            2052     5.99439E-03     22.7648E-03    -39.1400E+06    -134.555E+06    -19.0440E+06     1.58802E+06    -52.6255E-03     102.511E-03    -49.8855E-03     42.3213E-03    -52.6477E-03     101.972E-03    -49.7289E-03     42.1013E-03
            2053     5.13982E-03     22.7224E-03    -42.5308E+06    -143.014E+06    -24.5424E+06     1.50603E+06    -51.6172E-03     101.164E-03    -49.5467E-03     36.0039E-03    -51.6191E-03     100.578E-03    -49.4004E-03     35.8372E-03
            2054     4.28442E-03     22.6870E-03    -46.0555E+06    -151.824E+06    -30.2912E+06     1.35392E+06    -50.6835E-03     99.9331E-03    -49.2496E-03     29.8937E-03    -50.6698E-03     99.3048E-03    -49.1141E-03     29.7700E-03
            2055     3.42836E-03     22.6576E-03    -49.3905E+06    -156.258E+06    -37.2626E+06     1.16957E+06    -49.9139E-03     98.9014E-03    -48.9875E-03     23.8721E-03    -49.8921E-03     98.2576E-03    -48.8756E-03     23.7830E-03
            2056     2.57172E-03     22.6350E-03    -52.1850E+06    -161.039E+06    -44.8769E+06     981.996E+03    -49.3103E-03     98.0789E-03    -48.7686E-03     17.9408E-03    -49.2790E-03     97.4207E-03    -48.6838E-03     17.8800E-03
            2057     1.71482E-03     22.6185E-03    -54.4179E+06    -164.853E+06    -51.0309E+06     677.875E+03    -48.8601E-03     97.4622E-03    -48.6021E-03     12.1237E-03    -48.8220E-03     96.7936E-03    -48.5393E-03     12.0854E-03
            2058     857.439E-06     22.6085E-03    -55.8392E+06    -167.273E+06    -55.0159E+06     378.826E+03    -48.5922E-03     97.0625E-03    -48.4703E-03     6.56073E-03    -48.5500E-03     96.3878E-03    -48.4218E-03     6.54082E-03
            2059     16.1886E-03     23.2569E-03    -5.35697E+06     149.772E+06     103.820E+06     176.873E+03    -73.5284E-03     128.547E-03    -55.0190E-03     235.336E-03    -83.0475E-03     138.279E-03    -54.7093E-03     235.931E-03
            2060     15.3447E-03     22.9011E-03    -11.3265E+06     139.100E+06     94.9490E+06     2.18653E+06    -76.9384E-03     131.475E-03    -54.5362E-03     301.295E-03    -88.2970E-03     143.012E-03    -54.2468E-03     299.477E-03
            2061     14.4978E-03     22.6293E-03    -15.5563E+06     108.305E+06     60.2457E+06     1.58334E+06    -71.0079E-03     124.971E-03    -53.9631E-03     223.593E-03    -76.2827E-03     130.400E-03    -53.7964E-03     221.061E-03
            2062     13.6536E-03     22.4449E-03    -19.9873E+06     76.1018E+06     17.2108E+06     1.55531E+06    -65.4603E-03     118.791E-03    -53.3305E-03     156.416E-03    -67.8466E-03     121.326E-03    -53.3258E-03     154.480E-03
            2063     12.8045E-03     22.3099E-03    -22.4343E+06     38.9712E+06    -5.31430E+06     2.66683E+06    -62.4468E-03     115.255E-03    -52.8084E-03     118.832E-03    -63.7320E-03     116.615E-03    -52.8589E-03     117.388E-03
            2064     11.9565E-03     22.2008E-03    -22.8958E+06    -6.95380E+06    -7.76906E+06     1.83606E+06    -60.7977E-03     113.198E-03    -52.3999E-03     97.3856E-03    -61.5658E-03     113.882E-03    -52.3954E-03     96.2542E-03
            2065     11.1081E-03     22.1087E-03    -23.9220E+06    -45.5639E+06    -7.41533E+06     1.87547E+06    -59.8401E-03     111.820E-03    -51.9803E-03     85.4980E-03    -60.3333E-03     112.088E-03    -51.9166E-03     84.5918E-03
            2066     10.2592E-03     22.0229E-03    -26.0905E+06    -71.8233E+06    -8.17169E+06     2.22047E+06    -58.5047E-03     110.037E-03    -51.5322E-03     76.9178E-03    -58.8312E-03     110.040E-03    -51.4311E-03     76.1992E-03
            2067     9.40782E-03     21.9471E-03     -28.012E+06    -91.1947E+06    -7.97381E+06     2.13805E+06    -57.1759E-03     108.267E-03    -51.0907E-03     68.2859E-03    -57.3879E-03     108.079E-03    -50.9577E-03     67.7148E-03
            2068     8.55700E-03     21.8781E-03    -30.1235E+06    -105.849E+06    -9.00075E+06     2.32289E+06    -56.0988E-03     106.739E-03    -50.6401E-03     60.6753E-03    -56.2322E-03     106.416E-03    -50.4879E-03     60.2255E-03
            2069     7.70492E-03     21.8172E-03    -32.9537E+06    -118.181E+06    -11.0021E+06     2.24653E+06    -54.7474E-03     104.941E-03    -50.1934E-03     53.6749E-03    -54.8277E-03     104.517E-03    -50.0293E-03     53.3236E-03
            2070     6.85155E-03     21.7634E-03    -35.8652E+06    -128.279E+06    -14.0650E+06     2.15305E+06    -53.4950E-03     103.262E-03    -49.7666E-03     47.0909E-03    -53.5381E-03     102.763E-03    -49.5989E-03     46.8187E-03
            2071     5.99770E-03     21.7156E-03    -39.1218E+06    -134.054E+06    -19.3061E+06     2.16988E+06    -52.3037E-03     101.659E-03    -49.3550E-03     40.7282E-03    -52.3237E-03     101.120E-03    -49.2004E-03     40.5224E-03
            2072     5.14269E-03     21.6751E-03    -42.4713E+06    -142.356E+06    -24.6554E+06     2.00225E+06    -51.1737E-03     100.161E-03    -48.9876E-03     34.5822E-03    -51.1743E-03     99.5774E-03    -48.8429E-03     34.4280E-03
            2073     4.28687E-03     21.6405E-03    -45.7501E+06    -151.085E+06    -30.3880E+06     1.74455E+06    -50.2162E-03     98.8812E-03    -48.6650E-03     28.6727E-03    -50.2008E-03     98.2552E-03    -48.5315E-03     28.5588E-03
            2074     3.43044E-03     21.6124E-03    -48.9917E+06    -155.559E+06    -37.5541E+06     1.43597E+06    -49.3835E-03     97.7610E-03    -48.3776E-03     22.8731E-03    -49.3596E-03     97.1199E-03    -48.2687E-03     22.7913E-03
            2075     2.57339E-03     21.5904E-03    -51.9284E+06    -160.323E+06    -45.0140E+06     1.22205E+06    -48.7185E-03     96.8606E-03    -48.1421E-03     17.1799E-03    -48.6864E-03     96.2055E-03    -48.0594E-03     17.1251E-03
            2076     1.71580E-03     21.5747E-03    -54.1290E+06    -164.005E+06    -50.9586E+06     938.680E+03    -48.2232E-03     96.1939E-03    -47.9707E-03     11.5844E-03    -48.1848E-03     95.5289E-03    -47.9092E-03     11.5514E-03
            2077     857.984E-06     21.5650E-03    -55.5350E+06    -166.271E+06    -54.6335E+06     486.887E+03    -47.9587E-03     95.8024E-03    -47.8437E-03     6.28796E-03    -47.9169E-03     95.1316E-03    -47.7952E-03     6.27050E-03
            2078     16.1864E-03     22.1748E-03    -5.15422E+06     149.077E+06     103.333E+06     627.211E+03    -74.0678E-03     129.150E-03    -55.0822E-03     231.946E-03    -83.3407E-03     138.634E-03    -54.7742E-03     232.343E-03
            2079     15.3472E-03     21.8405E-03    -12.0031E+06     138.252E+06     94.0303E+06    -51.4444E+03    -78.6692E-03     133.182E-03    -54.5124E-03     297.614E-03    -89.8124E-03     144.501E-03    -54.2253E-03     295.492E-03
            2080     14.5006E-03     21.5630E-03    -16.9941E+06     107.427E+06     59.3615E+06     1.70188E+06    -71.3294E-03     125.196E-03    -53.8662E-03     223.238E-03    -76.6152E-03     130.630E-03    -53.7005E-03     220.681E-03
            2081     13.6530E-03     21.3825E-03    -20.9626E+06     76.0255E+06     18.0850E+06     2.89131E+06    -66.1388E-03     119.338E-03    -53.1991E-03     154.678E-03    -68.4873E-03     121.830E-03    -53.1885E-03     152.747E-03
            2082     12.8081E-03     21.2478E-03    -22.1913E+06     39.6005E+06    -4.39900E+06     1.58393E+06    -63.1766E-03     115.787E-03    -52.6105E-03     116.348E-03    -64.4440E-03     117.129E-03    -52.6577E-03     114.875E-03
            2083     11.9599E-03     21.1427E-03    -23.1761E+06    -7.00768E+06    -8.83603E+06     1.77870E+06    -61.1159E-03     113.250E-03    -52.1341E-03     95.1705E-03    -61.8647E-03     113.917E-03    -52.1345E-03     94.0451E-03
            2084     11.1112E-03     21.0489E-03    -25.1279E+06    -45.6964E+06    -8.81012E+06     2.42937E+06    -59.8506E-03     111.526E-03    -51.6753E-03     83.6563E-03    -60.3349E-03     111.784E-03    -51.6166E-03     82.7685E-03
            2085     10.2619E-03     20.9673E-03    -26.2839E+06    -71.2523E+06    -8.70379E+06     2.39894E+06    -58.8009E-03     109.985E-03    -51.1845E-03     74.9496E-03    -59.1205E-03     109.984E-03    -51.0866E-03     74.2371E-03
            2086     9.41230E-03     20.8919E-03    -28.0732E+06    -90.4767E+06    -8.24883E+06     2.62042E+06    -57.4600E-03     108.140E-03    -50.6800E-03     66.4286E-03    -57.6663E-03     107.949E-03    -50.5493E-03     65.8689E-03
            2087     8.56101E-03     20.8251E-03    -30.5155E+06    -105.650E+06    -9.93435E+06     2.69077E+06    -55.8740E-03     106.052E-03    -50.1784E-03     58.6147E-03    -56.0017E-03     105.726E-03    -50.0306E-03     58.1812E-03
            2088     7.70840E-03     20.7662E-03    -32.8203E+06    -118.041E+06    -11.6971E+06     2.55936E+06    -54.5356E-03     104.235E-03    -49.6992E-03     51.7126E-03    -54.6096E-03     103.807E-03    -49.5390E-03     51.3747E-03
            2089     6.85537E-03     20.7133E-03    -35.6396E+06    -127.914E+06    -14.5032E+06     2.82094E+06    -53.2359E-03     102.471E-03    -49.2352E-03     45.0709E-03    -53.2740E-03     101.971E-03    -49.0705E-03     44.8156E-03
            2090     6.00102E-03     20.6679E-03    -38.9532E+06    -133.437E+06    -19.5437E+06     2.79472E+06    -51.8897E-03     100.681E-03    -48.7913E-03     38.9247E-03    -51.9066E-03     100.143E-03    -48.6391E-03     38.7350E-03
            2091     5.14562E-03     20.6283E-03    -42.1545E+06    -141.445E+06    -24.6594E+06     2.37578E+06    -50.7312E-03     99.1280E-03    -48.3968E-03     33.0161E-03    -50.7296E-03     98.5462E-03    -48.2539E-03     32.8733E-03
            2092     4.28961E-03     20.5953E-03    -45.3962E+06    -150.222E+06    -30.5210E+06     2.09871E+06    -49.6965E-03     97.7440E-03    -48.0475E-03     27.2795E-03    -49.6791E-03     97.1207E-03    -47.9165E-03     27.1758E-03
            2093     3.43257E-03     20.5682E-03    -48.6396E+06    -154.707E+06    -37.6216E+06     1.91811E+06    -48.8091E-03     96.5487E-03    -47.7396E-03     21.7567E-03    -48.7838E-03     95.9106E-03    -47.6328E-03     21.6856E-03
            2094     2.57505E-03     20.5472E-03    -51.4751E+06    -159.334E+06    -44.9761E+06     1.64629E+06    -48.1041E-03     95.5915E-03    -47.4875E-03     16.2921E-03    -48.0707E-03     94.9402E-03    -47.4067E-03     16.2460E-03
            2095     1.71698E-03     20.5322E-03    -53.7005E+06    -162.776E+06    -50.4994E+06     1.18843E+06    -47.5833E-03     94.8853E-03    -47.3020E-03     10.9605E-03    -47.5450E-03     94.2249E-03    -47.2406E-03     10.9328E-03
            2096     858.580E-06     20.5228E-03    -55.0854E+06    -165.019E+06    -54.2420E+06     577.773E+03    -47.2808E-03     94.4465E-03    -47.1657E-03     5.94440E-03    -47.2390E-03     93.7807E-03    -47.1178E-03     5.92922E-03
            2097     16.1905E-03     21.1082E-03    -5.23304E+06     149.734E+06     104.061E+06     968.558E+03    -74.6001E-03     129.714E-03    -55.1144E-03     232.387E-03    -83.8241E-03     139.150E-03    -54.8036E-03     232.785E-03
            2098     15.3436E-03     20.7680E-03    -11.4464E+06     138.268E+06     94.1896E+06     1.32868E+06    -79.0281E-03     133.538E-03    -54.5096E-03     295.027E-03    -89.9857E-03     144.672E-03    -54.2225E-03     292.878E-03
            2099     14.5010E-03     20.5007E-03    -18.3349E+06     105.720E+06     58.8747E+06     2.06333E+06    -73.0169E-03     126.808E-03    -53.7914E-03     220.944E-03    -78.2208E-03     132.152E-03    -53.6238E-03     218.287E-03
            2100     13.6568E-03     20.3167E-03    -20.7745E+06     77.5059E+06     18.1073E+06     1.85640E+06    -66.9431E-03     119.971E-03    -53.0275E-03     151.909E-03    -69.2470E-03     122.423E-03    -53.0192E-03     149.945E-03
            2101     12.8102E-03     20.1867E-03    -22.3062E+06     39.9149E+06    -6.26299E+06     1.73361E+06    -63.6880E-03     116.054E-03    -52.3661E-03     113.531E-03    -64.9246E-03     117.372E-03    -52.4229E-03     112.060E-03
            2102     11.9638E-03     20.0820E-03    -24.2603E+06    -6.87150E+06    -9.90214E+06     2.39184E+06    -61.5732E-03     113.409E-03    -51.8353E-03     92.9780E-03    -62.3101E-03     114.064E-03    -51.8397E-03     91.8628E-03
            2103     11.1153E-03     19.9926E-03    -25.1697E+06    -45.1403E+06    -9.25149E+06     2.35425E+06    -60.0223E-03     111.346E-03    -51.3238E-03     81.3393E-03    -60.4928E-03     111.594E-03    -51.2681E-03     80.4599E-03
            2104     10.2657E-03     19.9098E-03    -26.5561E+06    -71.5585E+06    -9.75981E+06     2.46077E+06    -58.8745E-03     109.659E-03    -50.7847E-03     72.4335E-03    -59.1815E-03     109.646E-03    -50.6913E-03     71.7329E-03
            2105     9.41631E-03     19.8369E-03    -28.3679E+06    -90.7019E+06    -9.26221E+06     2.91578E+06    -57.4607E-03     107.694E-03    -50.2330E-03     63.7745E-03    -57.6570E-03     107.494E-03    -50.1067E-03     63.2299E-03
            2106     8.56494E-03     19.7735E-03    -30.5244E+06    -104.988E+06    -10.3358E+06     3.11381E+06    -55.8579E-03     105.540E-03    -49.6816E-03     56.2536E-03    -55.9789E-03     105.209E-03    -49.5367E-03     55.8357E-03
            2107     7.71276E-03     19.7148E-03    -33.0901E+06    -117.432E+06    -12.5121E+06     3.05460E+06    -54.3525E-03     103.503E-03    -49.1500E-03     49.3651E-03    -54.4217E-03     103.074E-03    -48.9943E-03     49.0445E-03
            2108     6.85934E-03     19.6649E-03    -35.8525E+06    -127.926E+06    -15.1822E+06     3.12929E+06    -52.8426E-03     101.491E-03    -48.6488E-03     42.7569E-03    -52.8761E-03     100.988E-03    -48.4873E-03     42.5167E-03
            2109     6.00450E-03     19.6208E-03    -38.4163E+06    -132.400E+06    -19.7933E+06     3.18268E+06    -51.4713E-03     99.6437E-03    -48.1724E-03     36.8472E-03    -51.4834E-03     99.1068E-03    -48.0237E-03     36.6717E-03
            2110     5.14908E-03     19.5829E-03    -41.4290E+06    -140.569E+06    -25.0605E+06     2.98226E+06    -50.2238E-03     97.9698E-03    -47.7461E-03     31.0819E-03    -50.2169E-03     97.3896E-03    -47.6075E-03     30.9548E-03
            2111     4.29228E-03     19.5513E-03    -44.9593E+06    -149.265E+06    -30.6711E+06     2.78417E+06    -49.1121E-03     96.4853E-03    -47.3733E-03     25.6423E-03    -49.0921E-03     95.8649E-03    -47.2450E-03     25.5539E-03
            2112     3.43498E-03     19.5254E-03    -48.2966E+06    -153.660E+06    -37.6140E+06     2.41929E+06    -48.1779E-03     95.2235E-03    -47.0456E-03     20.3942E-03    -48.1514E-03     94.5892E-03    -46.9409E-03     20.3346E-03
            2113     2.57680E-03     19.5054E-03    -51.0159E+06    -158.062E+06    -44.7242E+06     1.98908E+06    -47.4352E-03     94.2116E-03    -46.7763E-03     15.2455E-03    -47.4012E-03     93.5650E-03    -46.6968E-03     15.2075E-03
            2114     1.71823E-03     19.4909E-03    -53.0093E+06    -161.164E+06    -49.9084E+06     1.43724E+06    -46.8856E-03     93.4608E-03    -46.5752E-03     10.2573E-03    -46.8468E-03     92.8063E-03    -46.5141E-03     10.2353E-03
            2115     859.224E-06     19.4823E-03    -54.4923E+06    -163.404E+06    -53.5506E+06     858.235E+03    -46.5574E-03     92.9758E-03    -46.4185E-03     5.56817E-03    -46.5159E-03     92.3162E-03    -46.3703E-03     5.55797E-03
            2116     16.1855E-03     20.0351E-03    -5.72687E+06     147.986E+06     102.417E+06     949.837E+03    -75.0802E-03     130.239E-03    -55.1588E-03     232.904E-03    -84.2515E-03     139.618E-03    -54.8530E-03     233.162E-03
            2117     15.3456E-03     19.7015E-03    -11.0555E+06     137.347E+06      94.546E+06     2.75890E+06    -81.0027E-03     135.489E-03    -54.4866E-03     291.109E-03    -91.7667E-03     146.428E-03    -54.1970E-03     288.783E-03
            2118     14.5027E-03     19.4299E-03    -14.9954E+06     107.050E+06     61.3355E+06     2.43150E+06    -74.2416E-03     127.893E-03    -53.6518E-03     215.683E-03    -79.2858E-03     133.087E-03    -53.4786E-03     212.971E-03
            2119     13.6597E-03     19.2539E-03    -18.9420E+06     76.8555E+06     17.7332E+06     2.17511E+06    -67.5313E-03     120.322E-03    -52.7912E-03     148.241E-03    -69.7718E-03     122.717E-03    -52.7865E-03     146.272E-03
            2120     12.8142E-03     19.1239E-03    -21.8790E+06     40.3689E+06    -6.69253E+06     3.05084E+06    -63.8209E-03     115.899E-03    -52.0778E-03     110.352E-03    -65.0169E-03     117.180E-03    -52.1381E-03     108.914E-03
            2121     11.9670E-03     19.0225E-03    -23.0532E+06    -5.71881E+06    -9.89717E+06     2.65959E+06    -61.8891E-03     113.390E-03    -51.5009E-03     90.2602E-03    -62.6005E-03     114.028E-03    -51.5087E-03     89.1563E-03
            2122     11.1196E-03     18.9341E-03    -24.2821E+06    -45.1701E+06    -9.90995E+06     2.41523E+06    -60.6683E-03     111.586E-03    -50.9178E-03     78.8954E-03    -61.1203E-03     111.820E-03    -50.8666E-03     78.0176E-03
            2123     10.2716E-03     18.8541E-03    -26.2164E+06    -71.6936E+06    -10.6733E+06     3.02924E+06    -58.9494E-03     109.258E-03    -50.3084E-03     69.6381E-03    -59.2386E-03     109.230E-03    -50.2198E-03     68.9593E-03
            2124     9.42056E-03     18.7833E-03    -28.1103E+06    -90.7406E+06    -10.1985E+06     3.36770E+06    -57.2804E-03     106.991E-03    -49.7105E-03     60.7774E-03    -57.4616E-03     106.780E-03    -49.5892E-03     60.2561E-03
            2125     8.56988E-03     18.7208E-03    -30.1158E+06    -104.374E+06    -10.7550E+06     3.58047E+06    -55.8547E-03     104.963E-03    -49.1085E-03     53.1570E-03    -55.9651E-03     104.627E-03    -48.9672E-03     52.7571E-03
            2126     7.71768E-03     18.6655E-03    -32.6647E+06    -116.834E+06    -12.9945E+06     3.66114E+06    -54.0933E-03     102.613E-03    -48.5196E-03     46.3356E-03    -54.1533E-03     102.180E-03    -48.3678E-03     46.0366E-03
            2127     6.86356E-03     18.6171E-03    -35.2088E+06    -127.226E+06    -15.8307E+06     3.39984E+06    -52.4521E-03     100.424E-03    -47.9715E-03     40.0188E-03    -52.4770E-03     99.9178E-03    -47.8151E-03     39.7950E-03
            2128     6.00901E-03     18.5748E-03    -38.0748E+06    -131.841E+06    -20.5556E+06     3.43927E+06    -50.9850E-03     98.4392E-03    -47.4543E-03     34.2119E-03    -50.9912E-03     97.9020E-03    -47.3107E-03     34.0505E-03
            2129     5.15264E-03     18.5390E-03    -41.0499E+06    -139.802E+06    -25.6766E+06     3.75609E+06    -49.6090E-03     96.6036E-03    -46.9946E-03     28.7757E-03    -49.5978E-03     96.0248E-03    -46.8607E-03     28.6681E-03
            2130     4.29573E-03     18.5086E-03    -44.2220E+06    -148.000E+06    -30.7786E+06     3.60749E+06    -48.4453E-03     95.0411E-03    -46.5958E-03     23.6396E-03    -48.4217E-03     94.4243E-03    -46.4709E-03     23.5692E-03
            2131     3.43759E-03     18.4842E-03    -47.4234E+06    -152.157E+06    -37.5808E+06     3.12092E+06    -47.4458E-03     93.6905E-03    -46.2448E-03     18.7396E-03    -47.4161E-03     93.0614E-03    -46.1433E-03     18.6948E-03
            2132     2.57894E-03     18.4649E-03    -50.1860E+06    -156.421E+06    -44.4378E+06     2.41781E+06    -46.6502E-03     92.6101E-03    -45.9600E-03     13.9847E-03    -46.6143E-03     91.9696E-03    -45.8826E-03     13.9565E-03
            2133     1.71958E-03     18.4516E-03    -52.2587E+06    -159.351E+06    -49.2400E+06     1.68582E+06    -46.0660E-03     91.8182E-03    -45.7521E-03     9.38739E-03    -46.0268E-03     91.1705E-03    -45.6915E-03     9.37129E-03
            2134     859.887E-06     18.4430E-03    -53.5754E+06    -161.447E+06    -52.7417E+06     961.046E+03    -45.7411E-03     91.3253E-03    -45.5842E-03     5.08694E-03    -45.6990E-03     90.6729E-03    -45.5362E-03     5.07946E-03
            2135     16.1848E-03     18.9625E-03    -5.66745E+06     146.646E+06     101.745E+06     1.18772E+06    -77.1152E-03     132.197E-03    -55.0815E-03     228.799E-03    -86.0459E-03     141.333E-03    -54.7772E-03     228.768E-03
            2136     15.3467E-03     18.6247E-03    -11.2057E+06     136.741E+06     93.9220E+06     646.839E+03    -81.7289E-03     136.027E-03    -54.2981E-03     284.772E-03    -92.2220E-03     146.693E-03    -54.0105E-03     282.295E-03
            2137     14.5082E-03     18.3656E-03    -15.0189E+06     106.421E+06     59.9419E+06     1.58833E+06    -74.2682E-03     127.658E-03    -53.3899E-03     210.441E-03    -79.1451E-03     132.686E-03    -53.2227E-03     207.724E-03
            2138     13.6633E-03     18.1870E-03    -18.1637E+06     75.1100E+06     19.2327E+06     3.70570E+06    -67.5446E-03     120.050E-03    -52.5052E-03     144.821E-03    -69.7055E-03     122.357E-03    -52.4916E-03     142.896E-03
            2139     12.8190E-03     18.0632E-03    -20.3024E+06     41.3307E+06    -4.22074E+06     4.01128E+06    -64.2225E-03     115.969E-03    -51.7463E-03     107.151E-03    -65.3758E-03     117.209E-03    -51.7978E-03     105.735E-03
            2140     11.9720E-03     17.9626E-03    -22.2626E+06    -4.71234E+06    -11.1176E+06     3.49524E+06    -62.3764E-03     113.463E-03    -51.0867E-03     87.3996E-03    -63.0586E-03     114.082E-03    -51.1032E-03     86.3141E-03
            2141     11.1248E-03     17.8753E-03    -24.3944E+06    -45.0366E+06    -11.2665E+06     3.41122E+06    -60.9093E-03     111.347E-03    -50.4376E-03     75.5319E-03    -61.3391E-03     111.563E-03    -50.3933E-03     74.6812E-03
            2142     10.2762E-03     17.7984E-03    -25.8432E+06    -70.7190E+06    -11.1667E+06     3.56603E+06    -59.2617E-03     109.020E-03    -49.7582E-03     66.1764E-03    -59.5330E-03     108.981E-03    -49.6740E-03     65.5190E-03
            2143     9.42708E-03     17.7303E-03    -27.6183E+06    -90.5004E+06    -11.0812E+06     3.94820E+06    -57.4797E-03     106.557E-03    -49.0771E-03     57.4053E-03    -57.6442E-03     106.334E-03    -48.9613E-03     56.9067E-03
            2144     8.57569E-03     17.6689E-03    -29.7752E+06    -104.359E+06    -12.1025E+06     4.02536E+06    -55.5941E-03     103.999E-03    -48.4049E-03     49.4476E-03    -55.6894E-03     103.653E-03    -48.2709E-03     49.0727E-03
            2145     7.72308E-03     17.6171E-03    -31.6784E+06    -116.087E+06    -13.6678E+06     4.03176E+06    -53.8088E-03     101.569E-03    -47.7602E-03     42.6318E-03    -53.8557E-03     101.131E-03    -47.6142E-03     42.3533E-03
            2146     6.86952E-03     17.5701E-03    -34.4845E+06    -126.423E+06    -16.4484E+06     4.29134E+06    -52.0276E-03     99.1809E-03    -47.1534E-03     36.6324E-03    -52.0432E-03     98.6731E-03    -47.0023E-03     36.4343E-03
            2147     6.01384E-03     17.5306E-03    -37.6788E+06    -131.405E+06    -21.5530E+06     4.31058E+06    -50.3381E-03     96.9257E-03    -46.5876E-03     31.0976E-03    -50.3373E-03     96.3872E-03    -46.4502E-03     30.9603E-03
            2148     5.15744E-03     17.4960E-03    -40.7616E+06    -139.025E+06    -26.4803E+06     4.34121E+06    -48.8939E-03     94.9845E-03    -46.0906E-03     26.0459E-03    -48.8783E-03     94.4075E-03    -45.9623E-03     25.9560E-03
            2149     4.29952E-03     17.4678E-03    -43.6706E+06    -146.572E+06    -31.0466E+06     4.26351E+06    -47.6248E-03     93.2851E-03    -45.6603E-03     21.2816E-03    -47.5982E-03     92.6732E-03    -45.5397E-03     21.2279E-03
            2150     3.44095E-03     17.4443E-03    -46.5705E+06    -150.281E+06    -37.2374E+06     3.83807E+06    -46.5510E-03     91.8383E-03    -45.2873E-03     16.8160E-03    -46.5192E-03     91.2156E-03    -45.1880E-03     16.7866E-03
            2151     2.58136E-03     17.4267E-03    -49.1368E+06    -154.194E+06    -43.5793E+06     3.03295E+06    -45.7031E-03     90.6915E-03    -44.9884E-03     12.5222E-03    -45.6658E-03     90.0588E-03    -44.9115E-03     12.5064E-03
            2152     1.72129E-03     17.4136E-03    -51.1737E+06    -157.181E+06    -48.3779E+06     2.00159E+06    -45.0992E-03     89.8691E-03    -44.7700E-03     8.39734E-03    -45.0587E-03     89.2292E-03    -44.7097E-03     8.38815E-03
            2153     860.769E-06     17.4060E-03    -52.5563E+06    -159.281E+06    -51.7809E+06     1.07503E+06    -44.7623E-03     89.3509E-03    -44.5886E-03     4.50978E-03    -44.7195E-03     88.7063E-03    -44.5404E-03     4.50527E-03
            2154     16.1969E-03     17.8952E-03    -4.71983E+06     146.941E+06     102.875E+06     996.977E+03    -80.6241E-03     135.505E-03    -54.8806E-03     223.720E-03    -89.2891E-03     144.377E-03    -54.5724E-03     223.405E-03
            2155     15.3544E-03     17.5543E-03    -8.99612E+06     137.187E+06     94.8550E+06     1.33523E+06    -80.9131E-03     134.925E-03    -54.0116E-03     283.823E-03    -91.1747E-03     145.366E-03    -53.7232E-03     281.405E-03
            2156     14.5112E-03     17.2972E-03    -15.9303E+06     104.360E+06     57.3500E+06     2.32930E+06    -74.1354E-03     127.238E-03    -53.1028E-03     208.179E-03    -78.8557E-03     132.106E-03    -52.9442E-03     205.496E-03
            2157     13.6689E-03     17.1240E-03    -20.4377E+06     74.4568E+06     15.8377E+06     3.34975E+06    -68.1853E-03     120.357E-03    -52.1721E-03     142.202E-03    -70.2896E-03     122.608E-03    -52.1713E-03     140.269E-03
            2158     12.8226E-03     17.0003E-03    -22.3364E+06     41.8101E+06    -6.19884E+06     4.43409E+06    -65.0096E-03     116.350E-03    -51.3402E-03     104.151E-03    -66.1294E-03     117.557E-03    -51.3995E-03     102.742E-03
            2159     11.9783E-03     16.9021E-03    -23.9966E+06    -3.40266E+06    -11.9219E+06     4.47486E+06    -63.1928E-03     113.782E-03    -50.5894E-03     83.8924E-03    -63.8550E-03     114.382E-03    -50.6093E-03     82.8241E-03
            2160     11.1314E-03     16.8180E-03    -24.9468E+06    -43.9307E+06    -12.4491E+06     3.88394E+06    -61.2505E-03     111.095E-03    -49.8444E-03     71.5181E-03    -61.6563E-03     111.293E-03    -49.8068E-03     70.6932E-03
            2161     10.2831E-03     16.7429E-03    -25.9483E+06    -70.8831E+06    -12.7139E+06     3.91092E+06    -59.5910E-03     108.667E-03    -49.0760E-03     61.9441E-03    -59.8396E-03     108.609E-03    -48.9992E-03     61.3105E-03
            2162     9.43399E-03     16.6764E-03    -27.3485E+06    -90.2738E+06    -12.6281E+06     4.20730E+06    -57.7187E-03     106.013E-03    -48.2948E-03     52.7918E-03    -57.8639E-03     105.778E-03    -48.1874E-03     52.3152E-03
            2163     8.58315E-03     16.6199E-03    -28.8008E+06    -103.654E+06    -13.2621E+06     4.52339E+06    -55.4773E-03     103.005E-03    -47.5279E-03     44.8963E-03    -55.5545E-03     102.651E-03    -47.4022E-03     44.5482E-03
            2164     7.73044E-03     16.5684E-03    -31.3507E+06    -115.902E+06    -14.8540E+06     4.97543E+06    -53.3649E-03     100.173E-03    -46.8085E-03     38.2133E-03    -53.3995E-03     99.7284E-03    -46.6692E-03     37.9660E-03
            2165     6.87606E-03     16.5257E-03    -34.1757E+06    -125.762E+06    -17.2230E+06     5.26609E+06    -51.4077E-03     97.5481E-03    -46.1404E-03     32.4672E-03    -51.4150E-03     97.0377E-03    -45.9946E-03     32.2980E-03
            2166     6.02034E-03     16.4873E-03    -36.9533E+06    -130.404E+06    -22.1769E+06     5.33938E+06    -49.5801E-03     95.0988E-03    -45.5187E-03     27.4047E-03    -49.5717E-03     94.5607E-03    -45.3869E-03     27.2941E-03
            2167     5.16291E-03     16.4556E-03    -39.9389E+06    -137.919E+06    -27.0352E+06     5.33136E+06    -47.9690E-03     92.9455E-03    -44.9765E-03     22.7754E-03    -47.9472E-03     92.3707E-03    -44.8538E-03     22.7093E-03
            2168     4.30454E-03     16.4285E-03    -43.1522E+06    -144.866E+06    -31.2152E+06     4.97668E+06    -46.5852E-03     91.1002E-03    -44.5150E-03     18.5549E-03    -46.5564E-03     90.4944E-03    -44.3985E-03     18.5192E-03
            2169     3.44483E-03     16.4071E-03    -45.9540E+06    -148.105E+06    -36.8644E+06     4.25084E+06    -45.4356E-03     89.5570E-03    -44.1214E-03     14.6102E-03    -45.4033E-03     88.9427E-03    -44.0244E-03     14.5926E-03
            2170     2.58442E-03     16.3900E-03    -48.2024E+06    -151.748E+06    -42.6053E+06     3.38319E+06    -44.5465E-03     88.3566E-03    -43.8101E-03     10.8779E-03    -44.5090E-03     87.7327E-03    -43.7332E-03     10.8713E-03
            2171     1.72329E-03     16.3784E-03    -49.9983E+06    -154.533E+06    -47.3041E+06     2.39394E+06    -43.9161E-03     87.4997E-03    -43.5836E-03     7.29648E-03    -43.8749E-03     86.8694E-03    -43.5236E-03     7.29543E-03
            2172     861.758E-06     16.3706E-03    -51.2574E+06    -156.673E+06    -50.6492E+06     1.31031E+06    -43.5689E-03     86.9735E-03    -43.4047E-03     3.92929E-03    -43.5250E-03     86.3384E-03    -43.3564E-03     3.92949E-03
            2173     16.1938E-03     16.8160E-03    -5.43869E+06     145.764E+06     101.514E+06    -148.865E+03    -82.3570E-03     137.177E-03    -54.8195E-03     220.330E-03    -90.8494E-03     145.873E-03    -54.5154E-03     219.730E-03
            2174     15.3558E-03     16.4876E-03    -10.1794E+06     135.620E+06     94.3158E+06     2.13443E+06    -82.6198E-03     136.481E-03    -53.8611E-03     283.782E-03    -92.7527E-03     146.786E-03    -53.5714E-03     281.182E-03
            2175     14.5141E-03     16.2276E-03    -16.2010E+06     103.729E+06     58.2694E+06     4.28575E+06    -75.2561E-03     128.127E-03    -52.8707E-03     206.581E-03    -79.8605E-03     132.873E-03    -52.7063E-03     203.878E-03
            2176     13.6720E-03     16.0585E-03    -21.3409E+06     75.0205E+06     14.2196E+06     4.36700E+06    -69.9104E-03     121.727E-03    -51.8161E-03     138.306E-03    -71.9395E-03     123.905E-03    -51.8229E-03     136.348E-03
            2177     12.8303E-03     15.9378E-03    -23.6989E+06     41.9482E+06    -9.23860E+06     4.24489E+06    -66.4094E-03     117.248E-03    -50.8391E-03     99.8899E-03    -67.4789E-03     118.410E-03    -50.9118E-03     98.4699E-03
            2178     11.9848E-03     15.8408E-03    -23.3297E+06    -1.93018E+06    -12.4527E+06     4.15922E+06    -63.9948E-03     113.966E-03    -49.9711E-03     79.3058E-03    -64.6142E-03     114.532E-03    -49.9967E-03     78.2509E-03
            2179     11.1392E-03     15.7608E-03    -23.5771E+06    -42.9045E+06    -12.6712E+06     3.99021E+06    -62.2506E-03     111.349E-03    -49.0981E-03     66.5350E-03    -62.6223E-03     111.521E-03    -49.0651E-03     65.7239E-03
            2180     10.2922E-03     15.6871E-03    -24.7844E+06    -70.9725E+06    -13.6347E+06     4.27851E+06    -60.1390E-03     108.328E-03    -48.1892E-03     56.4180E-03    -60.3571E-03     108.246E-03    -48.1185E-03     55.8088E-03
            2181     9.44305E-03     15.6247E-03    -26.2023E+06    -90.2114E+06    -13.2078E+06     4.77226E+06    -57.7214E-03     105.012E-03    -47.2905E-03     46.7885E-03    -57.8409E-03     104.757E-03    -47.1878E-03     46.3441E-03
            2182     8.59249E-03     15.5697E-03    -28.3675E+06    -103.593E+06    -14.0200E+06     5.34909E+06    -55.2681E-03     101.688E-03    -46.4195E-03     39.1098E-03    -55.3287E-03     101.321E-03    -46.2983E-03     38.7940E-03
            2183     7.73971E-03     15.5234E-03    -30.6528E+06    -115.484E+06    -15.0665E+06     6.07606E+06    -52.7862E-03     98.3961E-03    -45.6099E-03     32.9393E-03    -52.8077E-03     97.9427E-03    -45.4733E-03     32.7273E-03
            2184     6.88475E-03     15.4817E-03    -33.1916E+06    -124.582E+06    -16.8291E+06     6.19944E+06    -50.5634E-03     95.4342E-03    -44.8709E-03     27.6027E-03    -50.5612E-03     94.9209E-03    -44.7262E-03     27.4634E-03
            2185     6.02824E-03     15.4472E-03    -35.8937E+06    -129.440E+06    -21.0587E+06     6.04377E+06    -48.5699E-03     92.7631E-03    -44.1932E-03     23.0231E-03    -48.5546E-03     92.2219E-03    -44.0587E-03     22.9362E-03
            2186     5.17014E-03     15.4168E-03    -38.6318E+06    -136.686E+06    -25.6504E+06     6.43224E+06    -46.7717E-03     90.3766E-03    -43.6049E-03     19.0442E-03    -46.7441E-03     89.8009E-03    -43.4789E-03     19.0045E-03
            2187     4.31042E-03     15.3923E-03    -41.5281E+06    -142.249E+06    -30.4451E+06     5.97772E+06    -45.2696E-03     88.3761E-03    -43.1066E-03     15.4398E-03    -45.2356E-03     87.7780E-03    -42.9923E-03     15.4265E-03
            2188     3.44977E-03     15.3718E-03    -44.4382E+06    -145.634E+06    -36.2890E+06     4.76982E+06    -44.0639E-03     86.7542E-03    -42.6904E-03     12.1208E-03    -44.0274E-03     86.1481E-03    -42.5962E-03     12.1171E-03
            2189     2.58808E-03     15.3567E-03    -46.8804E+06    -149.074E+06    -41.8411E+06     3.80427E+06    -43.1326E-03     85.4959E-03    -42.3632E-03     8.98481E-03    -43.0929E-03     84.8816E-03    -42.2883E-03     8.98877E-03
            2190     1.72576E-03     15.3451E-03    -48.7918E+06    -151.665E+06    -46.2458E+06     2.70546E+06    -42.4606E-03     84.5907E-03    -42.1301E-03     6.00990E-03    -42.4188E-03     83.9712E-03    -42.0706E-03     6.01625E-03
            2191     862.987E-06     15.3388E-03    -49.9244E+06    -153.614E+06    -49.4984E+06     1.58325E+06    -42.1000E-03     84.0637E-03    -41.9637E-03     3.24750E-03    -42.0556E-03     83.4401E-03    -41.9160E-03     3.25298E-03
            2192     16.1905E-03     15.7355E-03    -5.56874E+06     144.378E+06     100.209E+06     215.157E+03    -82.8686E-03     137.758E-03    -54.8894E-03     215.474E-03    -91.0216E-03     146.113E-03    -54.5896E-03     214.605E-03
            2193     15.3559E-03     15.4114E-03    -13.4993E+06     131.896E+06     90.9143E+06     1.81283E+06    -85.4336E-03     139.240E-03    -53.8062E-03     277.221E-03    -95.2155E-03     149.179E-03    -53.5233E-03     274.244E-03
            2194     14.5184E-03     15.1606E-03    -17.5468E+06     102.322E+06     59.1040E+06     3.73522E+06    -78.1636E-03     130.797E-03    -52.6329E-03     202.938E-03    -82.6584E-03     135.421E-03    -52.4603E-03     200.063E-03
            2195     13.6784E-03     14.9890E-03    -19.4455E+06     75.8591E+06     17.8099E+06     5.15435E+06    -72.3662E-03     123.754E-03    -51.3875E-03     133.279E-03    -74.2894E-03     125.826E-03    -51.3803E-03     131.276E-03
            2196     12.8375E-03     14.8738E-03    -20.2972E+06     43.7672E+06    -8.53683E+06     4.56372E+06    -68.2385E-03     118.444E-03    -50.2054E-03     93.3973E-03    -69.2298E-03     119.544E-03    -50.2821E-03     91.9684E-03
            2197     11.9945E-03     14.7811E-03    -21.5839E+06    -1.42231E+06    -14.1816E+06     4.08812E+06    -65.3644E-03     114.519E-03    -49.1546E-03     73.3629E-03    -65.9308E-03     115.045E-03    -49.1921E-03     72.3155E-03
            2198     11.1498E-03     14.7012E-03    -23.0971E+06    -42.3111E+06    -13.3368E+06     4.53354E+06    -63.3409E-03     111.458E-03    -48.1167E-03     60.0120E-03    -63.6780E-03     111.602E-03    -48.0885E-03     59.2226E-03
            2199     10.3040E-03     14.6330E-03    -24.4824E+06    -70.1178E+06    -13.9764E+06     5.00727E+06    -60.7905E-03     107.829E-03    -47.0384E-03     49.2137E-03    -60.9826E-03     107.726E-03    -46.9712E-03     48.6339E-03
            2200     9.45577E-03     14.5731E-03    -26.3934E+06    -90.5743E+06    -14.1686E+06     5.49288E+06    -57.6160E-03     103.610E-03    -45.9939E-03     39.8544E-03    -57.7150E-03     103.335E-03    -45.8952E-03     39.4465E-03
            2201     8.60448E-03     14.5229E-03    -27.9105E+06    -103.700E+06    -14.4608E+06     6.08675E+06    -54.6571E-03     99.6727E-03    -45.0156E-03     32.5564E-03    -54.7008E-03     99.2913E-03    -44.8970E-03     32.2763E-03
            2202     7.75113E-03     14.4788E-03    -29.7422E+06    -115.195E+06    -15.2748E+06     6.85894E+06    -52.0195E-03     96.1318E-03    -44.1123E-03     26.8698E-03    -52.0270E-03     95.6691E-03    -43.9785E-03     26.6898E-03
            2203     6.89579E-03     14.4415E-03    -32.2286E+06    -122.858E+06    -16.3631E+06     7.04418E+06    -49.4760E-03     92.7671E-03    -43.2912E-03     22.1705E-03    -49.4655E-03     92.2536E-03    -43.1481E-03     22.0614E-03
            2204     6.03811E-03     14.4087E-03    -34.9652E+06    -128.517E+06    -19.8473E+06     6.85695E+06    -47.2054E-03     89.7627E-03    -42.5573E-03     18.2244E-03    -47.1840E-03     89.2185E-03    -42.4195E-03     18.1646E-03
            2205     5.17874E-03     14.3818E-03    -37.6840E+06    -135.576E+06    -24.3944E+06     7.04408E+06    -45.2896E-03     87.2127E-03    -41.9230E-03     14.8994E-03    -45.2578E-03     86.6363E-03    -41.7938E-03     14.8807E-03
            2206     4.31793E-03     14.3586E-03    -40.2510E+06    -139.279E+06    -29.2739E+06     6.73905E+06    -43.6635E-03     85.0482E-03    -41.3846E-03     11.9986E-03    -43.6273E-03     84.4593E-03    -41.2707E-03     12.0057E-03
            2207     3.45572E-03     14.3405E-03    -42.8728E+06    -142.753E+06    -35.2494E+06     5.70949E+06    -42.3812E-03     83.3226E-03    -40.9414E-03     9.35579E-03    -42.3415E-03     82.7259E-03    -40.8485E-03     9.37217E-03
            2208     2.59269E-03     14.3258E-03    -45.3524E+06    -145.961E+06    -40.7909E+06      4.4609E+06    -41.4017E-03     81.9969E-03    -40.5951E-03     6.90725E-03    -41.3598E-03     81.3938E-03    -40.5217E-03     6.92533E-03
            2209     1.72886E-03     14.3161E-03    -47.2295E+06    -148.391E+06    -44.9882E+06     3.19185E+06    -40.7092E-03     81.0545E-03    -40.3452E-03     4.61247E-03    -40.6660E-03     80.4469E-03    -40.2865E-03     4.62879E-03
            2210     864.535E-06     14.3092E-03    -48.4957E+06    -150.096E+06    -47.9395E+06     1.79773E+06    -40.3049E-03     80.4747E-03    -40.1698E-03     2.49095E-03    -40.2606E-03     79.8642E-03    -40.1215E-03     2.50118E-03
            2211     16.1909E-03     14.6499E-03    -4.71806E+06     143.583E+06     100.266E+06     1.62692E+06    -84.4150E-03     139.357E-03    -54.9416E-03     213.223E-03    -92.2723E-03     147.416E-03    -54.6416E-03     212.109E-03
            2212     15.3573E-03     14.3368E-03    -12.2480E+06     131.341E+06     91.0512E+06     2.86256E+06    -88.6500E-03     142.362E-03    -53.7119E-03     271.542E-03    -98.0280E-03     151.899E-03    -53.4293E-03     268.199E-03
            2213     14.5214E-03     14.0849E-03    -16.7602E+06     101.281E+06     59.5261E+06     2.72315E+06    -82.4552E-03     134.745E-03    -52.2896E-03     196.157E-03    -86.7710E-03     139.189E-03    -52.1145E-03     192.999E-03
            2214     13.6869E-03     13.9196E-03    -18.9884E+06     74.2809E+06     18.0251E+06     3.63059E+06    -75.2323E-03     126.007E-03    -50.7744E-03     125.425E-03    -77.0377E-03     127.957E-03    -50.7644E-03     123.334E-03
            2215     12.8481E-03     13.8079E-03    -20.5037E+06     44.5771E+06    -9.15815E+06     5.05098E+06    -70.3895E-03     119.743E-03    -49.3538E-03     85.1525E-03    -71.3117E-03     120.778E-03    -49.4345E-03     83.7149E-03
            2216     12.0074E-03     13.7195E-03    -21.7925E+06     167.895E+03    -15.3060E+06     5.44028E+06    -67.1730E-03     115.249E-03    -48.0764E-03     65.5384E-03    -67.6987E-03     115.743E-03    -48.1216E-03     64.5050E-03
            2217     11.1643E-03     13.6433E-03    -23.4746E+06    -42.0113E+06    -14.6229E+06     5.47544E+06    -64.2151E-03     111.052E-03    -46.8364E-03     52.5639E-03    -64.5194E-03     111.166E-03    -46.8146E-03     51.8077E-03
            2218     10.3190E-03     13.5780E-03    -25.3050E+06    -69.9273E+06    -14.9679E+06     6.01883E+06    -60.9634E-03     106.557E-03    -45.5937E-03     41.2948E-03    -61.1325E-03     106.432E-03    -45.5304E-03     40.7564E-03
            2219     9.47079E-03     13.5243E-03    -26.6681E+06    -89.5246E+06    -15.0243E+06     6.14144E+06    -57.3233E-03     101.729E-03    -44.4061E-03     32.4785E-03    -57.4055E-03     101.443E-03    -44.3128E-03     32.1075E-03
            2220     8.61944E-03     13.4776E-03    -28.3133E+06    -103.393E+06    -15.3699E+06     6.41301E+06    -53.9400E-03     97.2471E-03    -43.3071E-03     25.9570E-03    -53.9719E-03     96.8563E-03    -43.1930E-03     25.7082E-03
            2221     7.76543E-03     13.4377E-03    -29.9580E+06    -115.124E+06    -16.1929E+06     7.25106E+06    -50.9104E-03     93.2140E-03    -42.3036E-03     20.6473E-03    -50.9086E-03     92.7443E-03    -42.1742E-03     20.4961E-03
            2222     6.90890E-03     13.4035E-03    -31.7221E+06    -121.287E+06    -17.1490E+06     7.59055E+06    -48.0890E-03     89.4884E-03    -41.3994E-03     16.5656E-03    -48.0709E-03     88.9769E-03    -41.2632E-03     16.4835E-03
            2223     6.05008E-03     13.3746E-03    -34.0772E+06    -127.281E+06    -19.8896E+06     7.68261E+06    -45.5950E-03     86.1995E-03    -40.6046E-03     13.4008E-03    -45.5667E-03     85.6561E-03    -40.4701E-03     13.3680E-03
            2224     5.18931E-03     13.3495E-03    -36.7723E+06    -134.070E+06    -24.1955E+06     7.67486E+06    -43.4946E-03     83.4168E-03    -39.9221E-03     10.7636E-03    -43.4581E-03     82.8437E-03    -39.7954E-03     10.7660E-03
            2225     4.32680E-03     13.3293E-03    -39.4426E+06    -136.596E+06    -28.9126E+06     7.27211E+06    -41.7630E-03     81.1088E-03    -39.3458E-03     8.64113E-03    -41.7256E-03     80.5301E-03    -39.2351E-03     8.66504E-03
            2226     3.46309E-03     13.3122E-03    -41.8725E+06    -139.523E+06    -34.2073E+06     6.36801E+06    -40.3773E-03     79.2557E-03    -38.8785E-03     6.72393E-03    -40.3378E-03     78.6712E-03    -38.7865E-03     6.75627E-03
            2227     2.59813E-03     13.2997E-03    -43.8683E+06    -142.443E+06    -39.3467E+06     5.04884E+06    -39.3462E-03     77.8641E-03    -38.5179E-03     4.98115E-03    -39.3037E-03     77.2739E-03    -38.4445E-03     5.01209E-03
            2228     1.73253E-03     13.2900E-03    -45.4515E+06    -144.614E+06    -43.2225E+06     3.52941E+06    -38.6393E-03     76.8971E-03    -38.2577E-03     3.34909E-03    -38.5951E-03     76.3030E-03    -38.1983E-03     3.37308E-03
            2229     866.468E-06     13.2848E-03    -46.3386E+06    -145.960E+06    -45.7861E+06     1.94435E+06    -38.2231E-03     76.2887E-03    -38.0656E-03     1.80859E-03    -38.1772E-03     75.6925E-03    -38.0157E-03     1.82249E-03
            2230     16.1895E-03     13.5699E-03    -4.88609E+06     142.228E+06     99.5370E+06     2.30220E+06    -88.1033E-03     143.093E-03    -54.9902E-03     214.620E-03    -95.8418E-03     151.030E-03    -54.6916E-03     212.944E-03
            2231     15.3572E-03     13.2520E-03    -10.6386E+06     132.160E+06     92.8067E+06     2.93286E+06    -94.7677E-03     148.251E-03    -53.4835E-03     263.160E-03    -103.763E-03     157.409E-03    -53.1957E-03     259.113E-03
            2232     14.5318E-03     13.0059E-03    -15.2512E+06     101.492E+06     61.0472E+06     2.57490E+06    -86.4780E-03     138.184E-03    -51.7064E-03     184.076E-03    -90.5142E-03     142.351E-03    -51.5262E-03     180.692E-03
            2233     13.6985E-03     12.8481E-03     -19.394E+06     71.9675E+06     16.6862E+06     3.86478E+06    -77.8245E-03     127.720E-03    -49.8955E-03     115.053E-03    -79.5005E-03     129.535E-03    -49.8883E-03     112.919E-03
            2234     12.8629E-03     12.7403E-03    -21.9493E+06     44.0888E+06    -11.2232E+06     5.43910E+06    -72.4549E-03     120.683E-03    -48.2279E-03     76.2135E-03    -73.3089E-03     121.649E-03    -48.3161E-03     74.7729E-03
            2235     12.0240E-03     12.6574E-03    -22.7745E+06     2.28640E+06    -16.5962E+06     6.06594E+06    -68.6315E-03     115.356E-03    -46.7243E-03     57.4107E-03    -69.1195E-03     115.820E-03    -46.7776E-03     56.3942E-03
            2236     11.1822E-03     12.5855E-03    -23.6169E+06    -41.5583E+06    -15.7919E+06     6.59539E+06    -64.8249E-03     110.112E-03    -45.2874E-03     44.7532E-03    -65.0969E-03     110.200E-03    -45.2718E-03     44.0368E-03
            2237     10.3370E-03     12.5258E-03    -24.8780E+06    -69.5644E+06    -15.3422E+06     6.93212E+06    -60.6224E-03     104.517E-03    -43.8948E-03     33.6150E-03    -60.7643E-03     104.369E-03    -43.8346E-03     33.1247E-03
            2238     9.48825E-03     12.4769E-03    -26.4192E+06    -88.0321E+06    -14.8180E+06     7.07867E+06    -56.6922E-03     99.2786E-03    -42.5863E-03     25.4548E-03    -56.7596E-03     98.9830E-03    -42.4945E-03     25.1257E-03
            2239     8.63651E-03     12.4353E-03    -28.4354E+06    -102.705E+06    -15.3447E+06     7.02325E+06    -53.0312E-03     94.4042E-03    -41.3730E-03     19.7544E-03    -53.0538E-03     94.0061E-03    -41.2595E-03     19.5394E-03
            2240     7.78169E-03     12.3995E-03    -30.2225E+06    -114.578E+06    -16.3699E+06     7.18685E+06    -49.5333E-03     89.8068E-03    -40.2735E-03     15.1763E-03    -49.5259E-03     89.3330E-03    -40.1454E-03     15.0474E-03
            2241     6.92380E-03     12.3696E-03    -31.8421E+06    -120.330E+06    -17.9120E+06     7.76873E+06    -46.4431E-03     85.7374E-03    -39.2943E-03     11.8579E-03    -46.4212E-03     85.2272E-03    -39.1632E-03     11.7968E-03
            2242     6.06362E-03     12.3436E-03    -33.8700E+06    -126.131E+06    -20.2638E+06     8.30450E+06    -43.7652E-03     82.2088E-03    -38.4437E-03     9.38348E-03    -43.7341E-03     81.6684E-03    -38.3130E-03     9.37296E-03
            2243     5.20106E-03     12.3222E-03    -36.3344E+06    -131.996E+06    -23.5608E+06     8.31533E+06    -41.4758E-03     79.1976E-03    -37.7218E-03     7.53985E-03    -41.4392E-03     78.6316E-03    -37.5955E-03     7.56157E-03
            2244     4.33684E-03     12.3036E-03    -38.6653E+06    -133.793E+06    -28.1250E+06     7.56140E+06    -39.6191E-03     76.7369E-03    -37.1178E-03     6.07191E-03    -39.5821E-03     76.1689E-03    -37.0084E-03     6.10762E-03
            2245     3.47101E-03     12.2892E-03    -40.5607E+06    -136.219E+06    -33.1174E+06     6.49004E+06    -38.1684E-03     74.8039E-03    -36.6355E-03     4.80162E-03    -38.1283E-03     74.2319E-03    -36.5447E-03     4.84131E-03
            2246     2.60422E-03     12.2773E-03    -42.2104E+06    -138.622E+06    -37.5634E+06     5.22610E+06    -37.1017E-03     73.3723E-03    -36.2706E-03     3.63354E-03    -37.0588E-03     72.7960E-03    -36.1962E-03     3.67074E-03
            2247     1.73656E-03     12.2694E-03    -43.4360E+06    -140.532E+06    -41.0787E+06     3.52404E+06    -36.3753E-03     72.3899E-03    -36.0145E-03     2.47779E-03    -36.3299E-03     71.8101E-03    -35.9532E-03     2.50416E-03
            2248     868.341E-06     12.2638E-03    -44.2234E+06    -141.875E+06    -43.5440E+06     1.88274E+06    -35.9934E-03     71.8106E-03    -35.8171E-03     1.33452E-03    -35.9460E-03     71.2285E-03    -35.7650E-03     1.34883E-03
            2249     16.1828E-03     12.4732E-03    -5.14347E+06     140.834E+06     99.0806E+06     2.14741E+06    -94.4263E-03     149.210E-03    -54.7833E-03     207.261E-03    -101.766E-03     156.744E-03    -54.4846E-03     204.917E-03
            2250     15.3704E-03     12.1593E-03    -9.59702E+06     132.452E+06     93.6939E+06     1.90601E+06    -98.9267E-03     151.853E-03    -52.9263E-03     250.059E-03    -107.388E-03     160.479E-03    -52.6360E-03     245.538E-03
            2251     14.5445E-03     11.9274E-03    -14.6325E+06     100.479E+06     62.2563E+06     2.95798E+06    -89.4260E-03     140.276E-03    -50.8504E-03     172.527E-03    -93.1970E-03     144.173E-03    -50.6636E-03     169.017E-03
            2252     13.7151E-03     11.7726E-03    -18.5597E+06     70.6143E+06     18.8414E+06     5.48069E+06    -80.1389E-03     128.926E-03    -48.7875E-03     105.407E-03    -81.6846E-03     130.604E-03    -48.7688E-03     103.274E-03
            2253     12.8809E-03     11.6740E-03    -20.7293E+06     44.7267E+06    -10.7643E+06     6.55639E+06    -73.8773E-03     120.766E-03    -46.8883E-03     67.9943E-03    -74.6547E-03     121.660E-03    -46.9770E-03     66.5884E-03
            2254     12.0427E-03     11.5942E-03    -22.6864E+06     3.10018E+06    -18.5259E+06     6.84610E+06    -69.5256E-03     114.708E-03    -45.1827E-03     50.3753E-03    -69.9694E-03     115.137E-03    -45.2470E-03     49.3967E-03
            2255     11.2019E-03     11.5294E-03    -24.0019E+06    -40.3488E+06    -16.8426E+06     7.75881E+06    -64.9404E-03     108.525E-03    -43.5843E-03     37.4915E-03    -65.1850E-03     108.591E-03    -43.5752E-03     36.8242E-03
            2256     10.3565E-03     11.4757E-03    -25.5612E+06    -68.1797E+06    -15.8559E+06     7.89018E+06    -60.0599E-03     102.124E-03    -42.0643E-03     27.3027E-03    -60.1861E-03     101.964E-03    -42.0077E-03     26.8619E-03
            2257     9.50720E-03     11.4327E-03    -27.1589E+06    -87.0520E+06    -15.0120E+06     7.65036E+06    -55.7038E-03     96.3608E-03    -40.6570E-03     19.9595E-03    -55.7635E-03     96.0590E-03    -40.5664E-03     19.6686E-03
            2258     8.65454E-03     11.3955E-03    -28.4957E+06    -101.601E+06    -14.8049E+06     7.60120E+06    -51.6443E-03     91.0129E-03    -39.3687E-03     14.9444E-03    -51.6615E-03     90.6115E-03    -39.2540E-03     14.7626E-03
            2259     7.79824E-03     11.3656E-03    -30.4114E+06    -113.779E+06    -15.4456E+06     7.45944E+06    -47.9334E-03     86.1462E-03    -38.2129E-03     11.3439E-03    -47.9247E-03     85.6707E-03    -38.0810E-03     11.2384E-03
            2260     6.93908E-03     11.3391E-03    -32.4781E+06    -119.889E+06    -17.7233E+06     7.81026E+06    -44.6445E-03     81.8295E-03    -37.1850E-03     8.80238E-03    -44.6239E-03     81.3194E-03    -37.0527E-03     8.75697E-03
            2261     6.07699E-03     11.3176E-03    -34.4520E+06    -125.146E+06    -20.6141E+06     8.50051E+06    -41.7910E-03     78.0903E-03    -36.2992E-03     6.99262E-03    -41.7623E-03     77.5546E-03    -36.1709E-03     6.99583E-03
            2262     5.21282E-03     11.2985E-03    -36.3397E+06    -129.494E+06    -22.5095E+06     8.28685E+06    -39.4092E-03     74.9708E-03    -35.5616E-03     5.77014E-03    -39.3770E-03     74.4150E-03    -35.4337E-03     5.79953E-03
            2263     4.34656E-03     11.2833E-03    -38.0912E+06    -130.682E+06    -26.3518E+06     7.15830E+06    -37.4683E-03     72.4181E-03    -34.9498E-03     4.82339E-03    -37.4351E-03     71.8619E-03    -34.8368E-03     4.85969E-03
            2264     3.47891E-03     11.2700E-03    -39.5932E+06    -133.057E+06    -31.4775E+06     6.04255E+06    -35.9934E-03     70.4583E-03    -34.4648E-03     3.94812E-03    -35.9553E-03     69.8982E-03    -34.3719E-03     3.98599E-03
            2265     2.61002E-03     11.2603E-03    -40.6880E+06    -134.822E+06    -35.3064E+06     4.70763E+06    -34.9171E-03     69.0218E-03    -34.1047E-03     3.08960E-03    -34.8752E-03     68.4589E-03    -34.0268E-03     3.12277E-03
            2266     1.74042E-03     11.2525E-03    -41.5796E+06    -136.634E+06    -38.7965E+06     3.18662E+06    -34.2011E-03     68.0552E-03    -33.8541E-03     2.16050E-03    -34.1554E-03     67.4890E-03    -33.7897E-03     2.18417E-03
            2267     870.391E-06     11.2485E-03    -42.2843E+06    -138.169E+06    -41.5777E+06     1.72256E+06    -33.8193E-03     67.4934E-03    -33.6741E-03     1.18115E-03    -33.7704E-03     66.9242E-03    -33.6203E-03     1.19424E-03
            2268     16.2111E-03     11.3856E-03    -4.24985E+06     139.970E+06     99.4400E+06     1.19936E+06    -102.175E-03     156.483E-03    -54.3079E-03     200.449E-03    -109.227E-03     163.731E-03    -54.0075E-03     197.481E-03
            2269     15.3804E-03     11.0694E-03    -8.25112E+06     131.630E+06     94.0707E+06     2.32797E+06    -101.016E-03     153.178E-03    -52.1611E-03     247.227E-03    -109.262E-03     161.588E-03    -51.8697E-03     242.503E-03
            2270     14.5593E-03     10.8417E-03    -14.2952E+06     98.7544E+06     63.5026E+06     4.35191E+06    -92.6847E-03     142.562E-03    -49.8776E-03     163.498E-03    -96.2069E-03     146.202E-03    -49.6825E-03     159.878E-03
            2271     13.7328E-03     10.6984E-03    -18.2156E+06     69.2470E+06     21.9171E+06     5.84562E+06    -82.4559E-03     130.022E-03    -47.5664E-03     95.9498E-03    -83.8662E-03     131.552E-03    -47.5308E-03     93.8218E-03
            2272     12.8994E-03     10.6062E-03    -20.3663E+06     44.3958E+06    -10.4740E+06     7.91181E+06    -74.9087E-03     120.353E-03    -45.4440E-03     60.4252E-03    -75.6149E-03     121.176E-03    -45.5312E-03     59.0756E-03
            2273     12.0627E-03     10.5328E-03    -22.5583E+06     4.51669E+06    -19.9475E+06     9.58684E+06    -69.5518E-03     113.131E-03    -43.5794E-03     44.0016E-03    -69.9531E-03     113.527E-03    -43.6530E-03     43.1092E-03
            2274     11.2213E-03     10.4743E-03    -25.3439E+06    -38.0998E+06    -17.5082E+06     9.34029E+06    -64.3427E-03     106.223E-03    -41.8805E-03     31.4226E-03    -64.5694E-03     106.276E-03    -41.8760E-03     30.8226E-03
            2275     10.3754E-03     10.4289E-03    -26.9305E+06    -66.1545E+06    -16.0538E+06     8.25346E+06    -59.0657E-03     99.3512E-03    -40.2855E-03     22.4615E-03    -59.1860E-03     99.1883E-03    -40.2308E-03     22.0625E-03
            2276     9.52542E-03     10.3903E-03    -27.9112E+06    -85.8964E+06    -14.5602E+06     7.67508E+06    -54.1999E-03     93.0346E-03    -38.8347E-03     16.5586E-03    -54.2569E-03     92.7302E-03    -38.7425E-03     16.2997E-03
            2277     8.67101E-03     10.3607E-03    -29.4414E+06    -100.546E+06    -13.7926E+06     7.75460E+06    -49.9138E-03     87.4453E-03    -37.5315E-03     12.4157E-03    -49.9342E-03     87.0445E-03    -37.4120E-03     12.2592E-03
            2278     7.81325E-03     10.3342E-03    -31.0871E+06    -112.335E+06    -13.9713E+06     7.72279E+06    -46.1067E-03     82.4802E-03    -36.3735E-03     9.70288E-03    -46.1035E-03     82.0085E-03    -36.2354E-03     9.61761E-03
            2279     6.95237E-03     10.3136E-03    -33.0020E+06    -119.423E+06    -15.3656E+06     7.66409E+06    -42.7772E-03     78.1328E-03    -35.3556E-03     7.83777E-03    -42.7624E-03     77.6215E-03    -35.2114E-03     7.80217E-03
            2280     6.08874E-03     10.2948E-03    -34.6396E+06    -124.023E+06    -18.0909E+06     7.86560E+06    -39.9131E-03     74.3912E-03    -34.4781E-03     6.63203E-03    -39.8903E-03     73.8576E-03    -34.3385E-03     6.63522E-03
            2281     5.22268E-03     10.2799E-03    -36.0244E+06    -126.682E+06    -20.3977E+06     7.29584E+06    -37.5382E-03     71.2848E-03    -33.7466E-03     5.75893E-03    -37.5116E-03     70.7396E-03    -33.6127E-03     5.78109E-03
            2282     4.35482E-03     10.2663E-03    -37.4515E+06    -127.808E+06    -24.1830E+06     6.11018E+06    -35.6352E-03     68.7796E-03    -33.1445E-03     5.04091E-03    -35.6061E-03     68.2339E-03    -33.0258E-03     5.06735E-03
            2283     3.48539E-03     10.2558E-03    -38.6182E+06    -129.944E+06    -29.0365E+06     4.77785E+06    -34.1753E-03     66.8423E-03    -32.6671E-03     4.26962E-03    -34.1403E-03     66.2930E-03    -32.5678E-03     4.29365E-03
            2284     2.61496E-03     10.2467E-03    -39.4319E+06    -131.667E+06    -32.9896E+06     3.47959E+06    -33.1147E-03     65.4253E-03    -32.3106E-03     3.40692E-03    -33.0745E-03     64.8732E-03    -32.2274E-03     3.42585E-03
            2285     1.74370E-03     10.2407E-03    -40.1375E+06    -133.585E+06    -36.9339E+06     2.40838E+06    -32.4050E-03     64.4649E-03    -32.0600E-03     2.41304E-03    -32.3591E-03     63.9092E-03    -31.9928E-03     2.42766E-03
            2286     871.920E-06     10.2362E-03    -40.5364E+06    -134.899E+06    -39.6311E+06     1.35992E+06    -32.0113E-03     63.9061E-03    -31.8948E-03     1.33559E-03    -31.9612E-03     63.3480E-03    -31.8386E-03     1.34456E-03
            2287     16.2040E-03     10.2929E-03    -4.93703E+06     138.081E+06     97.6648E+06     187.230E+03    -109.137E-03     163.185E-03    -54.0482E-03     197.248E-03    -116.102E-03     170.341E-03    -53.7529E-03     193.358E-03
            2288     15.3913E-03     9.97294E-03    -10.0073E+06     128.711E+06     92.6880E+06     2.09065E+06    -108.696E-03     160.213E-03    -51.5172E-03     244.924E-03    -116.818E-03     168.489E-03    -51.2259E-03     239.319E-03
            2289     14.5741E-03     9.75297E-03    -14.6212E+06     97.7814E+06     65.0036E+06     4.60805E+06    -96.0169E-03     144.902E-03    -48.8854E-03     152.354E-03    -99.2311E-03     148.226E-03    -48.6809E-03     148.658E-03
            2290     13.7501E-03     9.62185E-03    -18.6066E+06     67.8871E+06     22.4195E+06     6.47206E+06    -84.1736E-03     130.502E-03    -46.3286E-03     86.5055E-03    -85.4414E-03     131.882E-03    -46.2880E-03     84.4364E-03
            2291     12.9196E-03     9.53881E-03    -22.3304E+06     41.8572E+06    -11.4616E+06     10.1619E+06    -75.5765E-03     119.608E-03    -44.0313E-03     53.4138E-03    -76.2214E-03     120.357E-03    -44.1169E-03     52.1483E-03
            2292     12.0817E-03     9.47369E-03    -25.0947E+06     6.41196E+06    -20.0323E+06     12.4676E+06    -68.6514E-03     110.722E-03    -42.0711E-03     38.7819E-03    -69.0291E-03     111.093E-03    -42.1441E-03     37.9981E-03
            2293     11.2391E-03     9.42216E-03    -26.8755E+06    -33.9155E+06    -16.8907E+06     10.5947E+06    -62.7414E-03     103.092E-03    -40.3507E-03     27.6049E-03    -62.9609E-03     103.146E-03    -40.3471E-03     27.0811E-03
            2294     10.3924E-03     9.38382E-03    -28.4259E+06    -63.4927E+06    -14.7628E+06     8.24646E+06    -57.2516E-03     96.0297E-03    -38.7781E-03     19.8603E-03    -57.3741E-03     95.8693E-03    -38.7186E-03     19.5036E-03
            2295     9.53976E-03     9.35328E-03    -29.6285E+06    -84.3021E+06    -12.9903E+06     7.22185E+06    -52.2119E-03     89.5821E-03    -37.3701E-03     15.5114E-03    -52.2772E-03     89.2810E-03    -37.2699E-03     15.2777E-03
            2296     8.68393E-03     9.32763E-03    -30.3215E+06    -99.7021E+06    -11.2683E+06     7.05495E+06    -47.9183E-03     84.0472E-03    -36.1289E-03     12.3610E-03    -47.9460E-03     83.6463E-03    -35.9967E-03     12.2172E-03
            2297     7.82440E-03     9.30799E-03    -31.4545E+06    -110.645E+06    -11.1495E+06     7.19275E+06    -44.1835E-03     79.2203E-03    -35.0368E-03     10.4468E-03    -44.1882E-03     78.7531E-03    -34.8865E-03     10.3693E-03
            2298     6.96164E-03     9.29019E-03    -32.8821E+06    -118.426E+06    -12.0014E+06     6.80032E+06    -41.0119E-03     75.1016E-03    -34.0898E-03     9.18413E-03    -41.0030E-03     74.5906E-03    -33.9304E-03     9.14686E-03
            2299     6.09649E-03     9.27646E-03    -34.4027E+06    -122.726E+06    -14.0965E+06     6.48659E+06    -38.3773E-03     71.6504E-03    -33.2730E-03     8.23747E-03    -38.3615E-03     71.1177E-03    -33.1157E-03     8.22863E-03
            2300     5.22915E-03     9.26352E-03    -35.7977E+06    -123.739E+06    -17.0785E+06     5.57871E+06    -36.1710E-03     68.7496E-03    -32.5786E-03     7.48104E-03    -36.1527E-03     68.2145E-03    -32.4326E-03     7.48472E-03
            2301     4.36008E-03     9.25334E-03    -36.8311E+06    -125.189E+06    -21.2123E+06     4.05226E+06    -34.4060E-03     66.4080E-03    -32.0020E-03     6.65455E-03    -34.3823E-03     65.8706E-03    -31.8731E-03     6.65666E-03
            2302     3.48963E-03     9.24389E-03    -37.6104E+06    -127.427E+06    -26.4768E+06     2.83323E+06    -33.0237E-03     64.5586E-03    -31.5350E-03     5.68740E-03    -32.9912E-03     64.0170E-03    -31.4281E-03     5.68783E-03
            2303     2.61808E-03     9.23701E-03    -38.4955E+06    -129.587E+06    -31.2043E+06     1.86377E+06    -31.9962E-03     63.1730E-03    -31.1768E-03     4.53424E-03    -31.9570E-03     62.6275E-03    -31.0891E-03     4.53335E-03
            2304     1.74581E-03     9.23111E-03    -39.1372E+06    -131.552E+06    -35.4388E+06     1.14962E+06    -31.2784E-03     62.1983E-03    -30.9199E-03     3.18676E-03    -31.2326E-03     61.6492E-03    -30.8495E-03     3.18578E-03
            2305     873.063E-06     9.22816E-03    -39.4635E+06    -132.822E+06    -38.2590E+06     592.803E+03    -30.8804E-03     61.6179E-03    -30.7375E-03     1.78497E-03    -30.8299E-03     61.0667E-03    -30.6789E-03     1.78438E-03
            2306     16.2017E-03     9.17339E-03    -5.77899E+06     136.889E+06     96.4624E+06     688.562E+03    -115.131E-03     169.005E-03    -53.8740E-03     189.217E-03    -121.660E-03     175.719E-03    -53.5818E-03     184.559E-03
            2307     15.4017E-03     8.86396E-03    -11.3600E+06     126.234E+06      91.214E+06     701.457E+03    -116.196E-03     167.112E-03    -50.9161E-03     229.281E-03    -123.650E-03     174.713E-03    -50.6266E-03     222.936E-03
            2308     14.5906E-03     8.66533E-03    -15.8715E+06     94.7861E+06     63.9908E+06     3.71071E+06    -98.6760E-03     146.588E-03    -47.9116E-03     139.277E-03    -101.560E-03     149.570E-03    -47.7061E-03     135.588E-03
            2309     13.7663E-03     8.54348E-03    -20.9577E+06     64.0938E+06     22.3090E+06     8.79692E+06    -84.4903E-03     129.677E-03    -45.1864E-03     76.9635E-03    -85.6116E-03     130.889E-03    -45.1374E-03     75.0501E-03
            2310     12.9353E-03     8.47206E-03    -25.3093E+06     38.8927E+06    -7.85204E+06     13.2255E+06    -74.5639E-03     117.412E-03    -42.8476E-03     47.7652E-03    -75.1572E-03     118.077E-03    -42.9065E-03     46.6504E-03
            2311     12.0976E-03     8.41734E-03    -28.1162E+06     9.58565E+06    -15.5085E+06     14.2331E+06    -66.9874E-03     107.880E-03    -40.8929E-03     36.0485E-03    -67.3619E-03     108.235E-03    -40.9435E-03     35.3677E-03
            2312     11.2530E-03     8.37358E-03    -30.2381E+06    -28.2398E+06    -14.6805E+06     11.3859E+06    -60.2372E-03     99.4666E-03    -39.2294E-03     26.6009E-03    -60.4685E-03     99.5337E-03    -39.2180E-03     26.1564E-03
            2313     10.4026E-03     8.34287E-03    -31.0960E+06    -59.8917E+06    -11.8256E+06     7.73861E+06    -54.6850E-03     92.4680E-03    -37.7830E-03     20.2574E-03    -54.8232E-03     92.3181E-03    -37.7102E-03     19.9423E-03
            2314     9.54918E-03     8.31838E-03    -31.5555E+06    -81.9408E+06    -9.24575E+06     5.77938E+06    -49.9456E-03     86.4570E-03    -36.5115E-03     16.9328E-03    -50.0271E-03     86.1630E-03    -36.3931E-03     16.7102E-03
            2315     8.69069E-03     8.29926E-03    -32.1965E+06    -99.0786E+06    -7.72881E+06     5.22136E+06    -45.7567E-03     81.1665E-03    -35.4098E-03     14.8754E-03    -45.7995E-03     80.7660E-03    -35.2581E-03     14.7290E-03
            2316     7.82929E-03     8.28328E-03    -32.6588E+06    -109.726E+06    -7.84365E+06     5.17163E+06    -42.4188E-03     76.8736E-03    -34.4547E-03     13.4995E-03    -42.4364E-03     76.4086E-03    -34.2875E-03     13.4085E-03
            2317     6.96525E-03     8.27069E-03    -33.4561E+06    -117.162E+06    -9.33306E+06     5.07813E+06    -39.6560E-03     73.2824E-03    -33.6265E-03     12.4747E-03    -39.6566E-03     72.7756E-03    -33.4547E-03     12.4226E-03
            2318     6.09890E-03     8.25901E-03    -34.4643E+06    -120.915E+06    -10.6716E+06     4.24868E+06    -37.3772E-03     70.2922E-03    -32.9150E-03     11.5370E-03    -37.3700E-03     69.7645E-03    -32.7431E-03     11.5037E-03
            2319     5.23089E-03     8.24996E-03    -35.1969E+06    -120.984E+06    -13.2280E+06     2.69420E+06    -35.5239E-03     67.8211E-03    -32.2972E-03     10.6102E-03    -35.5128E-03     67.2940E-03    -32.1368E-03     10.5792E-03
            2320     4.36129E-03     8.24098E-03    -35.9434E+06    -123.289E+06    -18.5946E+06     1.29795E+06    -33.9874E-03     65.7518E-03    -31.7644E-03     9.44267E-03    -33.9662E-03     65.2193E-03    -31.6265E-03     9.41089E-03
            2321     3.49053E-03     8.23430E-03    -36.9711E+06    -126.046E+06    -24.3908E+06     548.961E+03    -32.7517E-03     64.0738E-03    -31.3221E-03     8.03364E-03    -32.7213E-03     63.5354E-03    -31.2077E-03     8.00585E-03
            2322     2.61879E-03     8.22785E-03    -37.9966E+06    -128.436E+06    -29.4780E+06    -19.3553E+03    -31.7812E-03     62.7529E-03    -30.9717E-03     6.36232E-03    -31.7437E-03     62.2101E-03    -30.8778E-03     6.33816E-03
            2323     1.74631E-03     8.22388E-03    -38.8614E+06    -130.954E+06    -34.5093E+06    -417.935E+03    -31.0841E-03     61.7931E-03    -30.7090E-03     4.44844E-03    -31.0392E-03     61.2454E-03    -30.6354E-03     4.42798E-03
            2324     873.243E-06     8.22053E-03    -39.3971E+06    -132.549E+06    -37.8375E+06    -381.259E+03    -30.6634E-03     61.1829E-03    -30.5195E-03     2.49931E-03    -30.6135E-03     60.6324E-03    -30.4593E-03     2.48658E-03
            2325     16.2145E-03     8.04610E-03    -4.39568E+06     137.042E+06     97.7614E+06     1.68590E+06    -121.952E-03     175.441E-03    -53.4895E-03     185.762E-03    -128.020E-03     181.698E-03    -53.1930E-03     180.669E-03
            2326     15.4128E-03     7.75430E-03    -9.48978E+06     125.299E+06     91.2070E+06     2.08926E+06    -118.463E-03     168.685E-03    -50.2225E-03     212.904E-03    -125.106E-03     175.479E-03    -49.9344E-03     206.595E-03
            2327     14.6020E-03     7.56997E-03    -17.9854E+06     88.8089E+06     61.3531E+06     5.69720E+06    -99.2756E-03     146.321E-03    -47.0449E-03     124.076E-03    -101.786E-03     148.909E-03    -46.8409E-03     120.587E-03
            2328     13.7820E-03     7.46868E-03    -24.9774E+06     58.1904E+06     24.9009E+06     11.9551E+06    -82.5315E-03     126.844E-03    -44.3126E-03     68.0224E-03    -83.5076E-03     127.869E-03    -44.2362E-03     66.3708E-03
            2329     12.9467E-03     7.40945E-03    -29.7250E+06     37.1427E+06    -1.81908E+06     15.8191E+06    -71.5820E-03     113.665E-03    -42.0834E-03     45.3760E-03    -72.1450E-03     114.261E-03    -42.1033E-03     44.4507E-03
            2330     12.1057E-03     7.36182E-03    -32.5663E+06     14.1451E+06    -9.80339E+06     15.2716E+06    -64.2766E-03     104.540E-03    -40.2632E-03     35.6831E-03    -64.6643E-03     104.892E-03    -40.2855E-03     35.1092E-03
            2331     11.2590E-03     7.33020E-03    -33.5705E+06    -19.9290E+06    -8.11347E+06     10.5409E+06    -57.3927E-03     96.1533E-03    -38.7606E-03     27.5196E-03    -57.6492E-03     96.2444E-03    -38.7236E-03     27.1317E-03
            2332     10.4067E-03     7.30448E-03    -33.3469E+06    -55.4916E+06    -6.13557E+06     5.26971E+06    -51.6473E-03     89.1659E-03    -37.5186E-03     23.3773E-03    -51.8067E-03     89.0284E-03    -37.4205E-03     23.0791E-03
            2333     9.54961E-03     7.28698E-03    -32.8664E+06    -80.4962E+06    -3.60375E+06     3.06050E+06    -47.4173E-03     83.8935E-03    -36.4762E-03     20.9454E-03    -47.5143E-03     83.5990E-03    -36.3299E-03     20.7189E-03
            2334     8.68981E-03     7.27266E-03    -33.0302E+06    -97.8378E+06    -1.78998E+06     2.39948E+06    -43.9296E-03     79.5158E-03    -35.5861E-03     19.6031E-03    -43.9874E-03     79.1145E-03    -35.4053E-03     19.4384E-03
            2335     7.82673E-03     7.26116E-03    -33.6036E+06    -109.549E+06    -2.10544E+06     2.06909E+06    -41.1202E-03     75.9408E-03    -34.8206E-03     18.4897E-03    -41.1520E-03     75.4707E-03    -34.6235E-03     18.3698E-03
            2336     6.96186E-03     7.25110E-03    -33.7815E+06    -116.093E+06    -4.23344E+06     1.85102E+06    -38.9335E-03     73.0866E-03    -34.1531E-03     17.3590E-03    -38.9456E-03     72.5791E-03    -33.9570E-03     17.2717E-03
            2337     6.09510E-03     7.24322E-03    -33.8314E+06    -118.513E+06    -6.62472E+06     456.084E+03    -37.1632E-03     70.7326E-03    -33.5694E-03     16.2222E-03    -37.1629E-03     70.2108E-03    -33.3816E-03     16.1439E-03
            2338     5.22694E-03     7.23522E-03    -34.1162E+06    -119.555E+06    -10.5512E+06    -1.03995E+06    -35.7163E-03     68.7682E-03    -33.0518E-03     14.7496E-03    -35.7062E-03     68.2431E-03    -32.8818E-03     14.6729E-03
            2339     4.35777E-03     7.22931E-03    -35.0544E+06    -122.700E+06    -17.0091E+06    -1.45207E+06    -34.4951E-03     67.0877E-03    -32.5926E-03     13.0099E-03    -34.4729E-03     66.5547E-03    -32.4489E-03     12.9446E-03
            2340     3.48748E-03     7.22314E-03     -36.307E+06    -125.697E+06    -22.8688E+06    -1.79772E+06    -33.4562E-03     65.6596E-03    -32.2035E-03     10.9833E-03    -33.4253E-03     65.1198E-03    -32.0829E-03     10.9269E-03
            2341     2.61645E-03     7.21901E-03    -37.6358E+06    -128.544E+06    -28.3334E+06    -2.03730E+06    -32.6141E-03     64.5006E-03    -31.8865E-03     8.64156E-03    -32.5765E-03     63.9550E-03    -31.7872E-03     8.59286E-03
            2342     1.74465E-03     7.21502E-03    -38.8763E+06    -131.846E+06    -34.3647E+06    -1.77826E+06    -31.9859E-03     63.6262E-03    -31.6403E-03     6.01956E-03    -31.9400E-03     63.0738E-03    -31.5646E-03     5.98270E-03
            2343     872.571E-06     7.21328E-03    -39.8079E+06    -134.109E+06    -38.4918E+06    -1.08946E+06    -31.5523E-03     63.0563E-03    -31.5039E-03     3.36533E-03    -31.5014E-03     62.4994E-03    -31.4442E-03     3.34415E-03
            2344     16.2216E-03     6.92202E-03    -4.38677E+06     134.977E+06     96.3236E+06     1.38007E+06    -128.837E-03     181.973E-03    -53.1360E-03     181.396E-03    -134.441E-03     187.765E-03    -52.8438E-03     175.928E-03
            2345     15.4233E-03     6.63772E-03    -10.2256E+06     121.420E+06     88.8584E+06     5.35310E+06    -119.176E-03     168.817E-03    -49.6403E-03     200.886E-03    -125.097E-03     174.879E-03    -49.3573E-03     194.821E-03
            2346     14.6159E-03     6.47808E-03    -19.4261E+06     83.1036E+06     61.8400E+06     11.1080E+06    -96.5034E-03     142.983E-03    -46.4801E-03     109.907E-03    -98.6076E-03     145.140E-03    -46.2633E-03     106.885E-03
            2347     13.7864E-03     6.39753E-03    -27.6001E+06     53.4942E+06     29.9612E+06     15.5978E+06    -78.5022E-03     122.426E-03    -43.9235E-03     61.7770E-03    -79.3452E-03     123.276E-03    -43.8112E-03     60.4553E-03
            2348     12.9497E-03     6.35018E-03    -32.8446E+06     37.0062E+06     5.74229E+06     17.3729E+06    -67.8930E-03     109.815E-03    -41.9216E-03     45.3968E-03    -68.4352E-03     110.356E-03    -41.8990E-03     44.6474E-03
            2349     12.1054E-03     6.31125E-03    -34.3631E+06     21.5863E+06    -587.547E+03     14.1262E+06    -60.2518E-03     100.606E-03    -40.3543E-03     37.2435E-03    -60.6487E-03     100.961E-03    -40.3388E-03     36.7634E-03
            2350     11.2560E-03     6.28745E-03    -33.4217E+06    -10.1887E+06     2.37123E+06     6.87499E+06    -53.8264E-03     92.9685E-03    -39.1421E-03     31.4104E-03    -54.1004E-03     93.0818E-03    -39.0670E-03     31.0463E-03
            2351     10.4004E-03     6.27117E-03    -32.8135E+06    -51.1772E+06     3.15354E+06     1.45102E+06    -48.8741E-03     87.0622E-03    -38.1881E-03     29.2358E-03    -49.0471E-03     86.9285E-03    -38.0505E-03     28.9317E-03
            2352     9.54115E-03     6.25667E-03    -32.9149E+06    -79.7461E+06     4.24346E+06    -635.033E+03    -45.2044E-03     82.6272E-03    -37.4228E-03     27.3810E-03    -45.3126E-03     82.3236E-03    -37.2382E-03     27.1363E-03
            2353     8.67943E-03     6.24735E-03    -33.0533E+06    -97.4690E+06     4.99301E+06    -1.43051E+06    -42.6777E-03     79.4626E-03    -36.7849E-03     26.0884E-03    -42.7460E-03     79.0533E-03    -36.5706E-03     25.8908E-03
            2354     7.81610E-03     6.23834E-03    -33.0023E+06    -109.098E+06     4.29917E+06    -1.97983E+06    -40.6625E-03     76.8961E-03    -36.2336E-03     24.8899E-03    -40.7015E-03     76.4182E-03    -36.0060E-03     24.7280E-03
            2355     6.95066E-03     6.23168E-03    -32.9754E+06    -115.133E+06     1.02516E+06    -3.11570E+06    -39.1209E-03     74.8629E-03    -35.7421E-03     23.3413E-03    -39.1383E-03     74.3514E-03    -35.5222E-03     23.1967E-03
            2356     6.08447E-03     6.22470E-03    -32.6169E+06    -117.106E+06    -3.79561E+06    -4.31002E+06    -37.9378E-03     73.2310E-03    -35.2932E-03     21.4705E-03    -37.9378E-03     72.7103E-03    -35.0950E-03     21.3351E-03
            2357     5.21728E-03     6.21959E-03    -33.0692E+06    -119.990E+06    -9.84650E+06    -4.62479E+06    -36.8958E-03     71.7811E-03    -34.8853E-03     19.2422E-03    -36.8810E-03     71.2511E-03    -34.7126E-03     19.1227E-03
            2358     4.34911E-03     6.21404E-03    -33.9466E+06    -123.518E+06    -16.5567E+06    -4.33572E+06    -35.9905E-03     70.5101E-03    -34.5196E-03     16.6863E-03    -35.9623E-03     69.9705E-03    -34.3740E-03     16.5864E-03
            2359     3.48038E-03     6.21030E-03    -35.1140E+06    -126.564E+06    -22.3025E+06    -3.97125E+06    -35.1845E-03     69.3905E-03    -34.2060E-03     13.9077E-03    -35.1473E-03     68.8435E-03    -34.0831E-03     13.8257E-03
            2360     2.61083E-03     6.20623E-03    -36.8519E+06    -130.172E+06    -28.4913E+06    -3.38437E+06    -34.5181E-03     68.4640E-03    -33.9460E-03     10.8294E-03    -34.4740E-03     67.9091E-03    -33.8463E-03     10.7652E-03
            2361     1.74098E-03     6.20404E-03    -38.7322E+06    -134.102E+06    -34.9280E+06    -2.38162E+06    -34.0116E-03     67.7570E-03    -33.7454E-03     7.48495E-03    -33.9610E-03     67.1936E-03    -33.6695E-03     7.44168E-03
            2362     870.429E-06     6.20192E-03    -40.0927E+06    -136.665E+06    -39.0579E+06    -1.26792E+06    -33.6699E-03     67.3091E-03    -33.6392E-03     4.11823E-03    -33.6160E-03     66.7405E-03    -33.5782E-03     4.09550E-03
            2363     16.2238E-03     5.78645E-03    -4.38231E+06     131.446E+06     92.3524E+06     2.65066E+06    -133.383E-03     186.497E-03    -53.1142E-03     176.115E-03    -138.425E-03     191.727E-03    -52.8367E-03     170.507E-03
            2364     15.4291E-03     5.52040E-03    -13.4291E+06     113.423E+06     82.9203E+06     9.41487E+06    -118.844E-03     168.350E-03    -49.5060E-03     189.870E-03    -123.979E-03     173.606E-03    -49.2364E-03     184.228E-03
            2365     14.6137E-03     5.38968E-03    -20.8747E+06     77.0803E+06     62.5639E+06     15.3819E+06    -92.3709E-03     138.849E-03    -46.4778E-03     96.7889E-03    -94.0674E-03     140.569E-03    -46.2464E-03     94.3246E-03
            2366     13.7850E-03     5.33248E-03    -26.1289E+06     52.8488E+06     40.2816E+06     18.4338E+06    -73.4008E-03     117.622E-03    -44.2214E-03     57.7838E-03    -74.1239E-03     118.326E-03    -44.0587E-03     56.7835E-03
            2367     12.9432E-03     5.29212E-03    -29.2412E+06     41.6048E+06     22.5774E+06     16.4501E+06    -62.8911E-03     105.474E-03    -42.5824E-03     48.9218E-03    -63.4071E-03     105.970E-03    -42.4874E-03     48.3232E-03
            2368     12.0959E-03     5.26595E-03    -29.4971E+06     31.5901E+06     16.4075E+06     9.75808E+06    -55.6449E-03     97.0258E-03    -41.3809E-03     42.3826E-03    -56.0338E-03     97.3758E-03    -41.3019E-03     41.9553E-03
            2369     11.2396E-03     5.24923E-03    -28.9770E+06    -2.44023E+06     15.7841E+06     2.55829E+06    -50.0677E-03     90.6060E-03    -40.5383E-03     38.5862E-03    -50.3382E-03     90.7200E-03    -40.4139E-03     38.2392E-03
            2370     10.3827E-03     5.23644E-03    -30.0546E+06    -48.2540E+06     14.4353E+06    -1.90326E+06    -46.7346E-03     86.6626E-03    -39.9280E-03     37.1010E-03    -46.9094E-03     86.5180E-03    -39.7423E-03     36.7943E-03
            2371     9.52244E-03     5.22862E-03    -31.4727E+06    -78.3841E+06     14.1786E+06    -4.51265E+06    -44.2268E-03     83.6695E-03    -39.4427E-03     35.4279E-03    -44.3416E-03     83.3532E-03    -39.2125E-03     35.1585E-03
            2372     8.65993E-03     5.21969E-03    -31.6592E+06    -97.4892E+06     13.5960E+06    -6.24283E+06    -42.4801E-03     81.5243E-03    -39.0443E-03     33.6960E-03    -42.5519E-03     81.0981E-03    -38.7890E-03     33.4546E-03
            2373     7.79639E-03     5.21450E-03    -31.5804E+06    -108.959E+06     9.33635E+06    -7.40556E+06    -41.4449E-03     80.1222E-03    -38.6772E-03     31.3999E-03    -41.4830E-03     79.6339E-03    -38.4268E-03     31.1793E-03
            2374     6.93243E-03     5.20802E-03    -31.1085E+06    -114.467E+06     3.06595E+06    -8.55287E+06    -40.5522E-03     78.8761E-03    -38.3239E-03     28.9743E-03    -40.5633E-03     78.3610E-03    -38.0975E-03     28.7677E-03
            2375     6.06756E-03     5.20361E-03    -31.2058E+06    -118.221E+06    -4.22135E+06    -8.84836E+06    -39.7945E-03     77.7858E-03    -37.9914E-03     26.0853E-03    -39.7845E-03     77.2570E-03    -37.7958E-03     25.8978E-03
            2376     5.20211E-03     5.19861E-03    -31.4431E+06    -122.101E+06    -11.2671E+06    -8.03722E+06    -39.1204E-03     76.8040E-03    -37.6836E-03     22.9743E-03    -39.0919E-03     76.2623E-03    -37.5173E-03     22.8156E-03
            2377     4.33629E-03     5.19525E-03    -32.2452E+06    -125.891E+06    -17.8374E+06    -6.81748E+06    -38.4839E-03     75.8875E-03    -37.4035E-03     19.5969E-03    -38.4416E-03     75.3347E-03    -37.2634E-03     19.4687E-03
            2378     3.46966E-03     5.19156E-03    -33.7557E+06    -129.253E+06    -23.4229E+06    -5.31145E+06    -37.8898E-03     75.0508E-03    -37.1610E-03     16.0500E-03    -37.8402E-03     74.4895E-03    -37.0418E-03     15.9533E-03
            2379     2.60282E-03     5.18923E-03    -35.8486E+06    -133.078E+06    -29.4031E+06    -3.57965E+06    -37.3806E-03     74.3399E-03    -36.9593E-03     12.3376E-03    -37.3260E-03     73.7699E-03    -36.8614E-03     12.2728E-03
            2380     1.73527E-03     5.18688E-03    -38.0128E+06    -136.891E+06    -35.1910E+06    -2.13469E+06    -37.0143E-03     73.8156E-03    -36.8013E-03     8.40859E-03    -36.9559E-03     73.2374E-03    -36.7236E-03     8.36960E-03
            2381     867.891E-06     5.18596E-03    -39.4869E+06    -139.183E+06    -38.6839E+06    -1.05351E+06    -36.7574E-03     73.4536E-03    -36.6962E-03     4.59597E-03    -36.6976E-03     72.8708E-03    -36.6305E-03     4.57659E-03
            2382     16.2156E-03     4.63999E-03    -6.60135E+06     124.845E+06     85.1634E+06     5.68707E+06    -136.418E-03     190.011E-03    -53.5922E-03     174.596E-03    -140.868E-03     194.636E-03    -53.3379E-03     168.940E-03
            2383     15.4188E-03     4.40285E-03    -14.0659E+06     105.769E+06     77.8441E+06     11.8726E+06    -117.668E-03     167.611E-03    -49.9423E-03     166.449E-03    -121.748E-03     171.800E-03    -49.6860E-03     161.382E-03
            2384     14.6070E-03     4.30425E-03    -18.5728E+06     72.9074E+06     63.6903E+06     16.2144E+06    -84.3428E-03     131.523E-03    -47.1800E-03     81.0147E-03    -85.5813E-03     132.776E-03    -46.9403E-03     79.1942E-03
            2385     13.7705E-03     4.27162E-03    -21.3370E+06     55.4569E+06     52.4636E+06     17.1233E+06    -66.1535E-03     111.600E-03    -45.4463E-03     61.1137E-03    -66.7835E-03     112.201E-03    -45.2335E-03     60.3778E-03
            2386     12.9226E-03     4.24119E-03    -21.0251E+06     50.3429E+06     42.1239E+06     12.1030E+06    -57.6349E-03     101.939E-03    -44.3042E-03     57.3814E-03    -58.1125E-03     102.400E-03    -44.1361E-03     56.8836E-03
            2387     12.0687E-03     4.22172E-03    -21.1099E+06     39.9753E+06     32.2691E+06     5.22618E+06    -51.6989E-03     95.2118E-03    -43.5129E-03     51.1892E-03    -52.0538E-03     95.5411E-03    -43.3789E-03     50.8082E-03
            2388     11.2140E-03     4.21264E-03    -23.3937E+06     2.10827E+06     26.7684E+06     186.013E+03    -48.1787E-03     91.1992E-03    -43.0205E-03     48.0377E-03    -48.4302E-03     91.2977E-03    -42.8558E-03     47.7206E-03
            2389     10.3528E-03     4.20212E-03    -26.3265E+06    -45.6367E+06     23.2658E+06    -4.15497E+06    -46.0799E-03     88.7775E-03    -42.6976E-03     45.4174E-03    -46.2421E-03     88.6165E-03    -42.4769E-03     45.1255E-03
            2390     9.49291E-03     4.19593E-03    -27.9267E+06    -75.7985E+06     21.9998E+06    -8.35937E+06    -45.0259E-03     87.4603E-03    -42.4345E-03     42.4942E-03    -45.1310E-03     87.1329E-03    -42.1741E-03     42.2034E-03
            2391     8.63172E-03     4.19036E-03    -29.0048E+06    -97.0165E+06     19.1857E+06    -11.7566E+06    -44.2874E-03     86.4702E-03    -42.1828E-03     39.2883E-03    -44.3498E-03     86.0287E-03    -41.9041E-03     38.9951E-03
            2392     7.77029E-03     4.18418E-03    -29.0255E+06    -109.529E+06     11.0947E+06    -13.5596E+06    -43.6528E-03     85.5656E-03    -41.9128E-03     35.6907E-03    -43.6760E-03     85.0639E-03    -41.6564E-03     35.4062E-03
            2393     6.90841E-03     4.18035E-03    -28.2710E+06    -116.104E+06     729.370E+03    -13.6654E+06    -43.2189E-03     84.8518E-03    -41.6329E-03     32.0825E-03    -43.2074E-03     84.3246E-03    -41.4199E-03     31.8210E-03
            2394     6.04611E-03     4.17557E-03    -28.1804E+06    -121.544E+06    -8.13673E+06    -12.4542E+06    -42.6920E-03     84.0605E-03    -41.3684E-03     28.3828E-03    -42.6546E-03     83.5141E-03    -41.1920E-03     28.1573E-03
            2395     5.18353E-03     4.17255E-03    -28.9926E+06    -126.223E+06    -15.4153E+06    -10.3015E+06    -42.2168E-03     83.3431E-03    -41.1264E-03     24.5699E-03    -42.1628E-03     82.7818E-03    -40.9784E-03     24.3882E-03
            2396     4.32027E-03     4.16904E-03    -30.5158E+06    -130.009E+06    -21.0093E+06    -7.77030E+06    -41.7532E-03     82.6603E-03    -40.9071E-03     20.6416E-03    -41.6910E-03     82.0880E-03    -40.7794E-03     20.5053E-03
            2397     3.45701E-03     4.16697E-03    -32.6028E+06    -133.327E+06    -25.6477E+06    -5.26988E+06    -41.3040E-03     82.0170E-03    -40.7131E-03     16.6845E-03    -41.2391E-03     81.4364E-03    -40.6007E-03     16.5909E-03
            2398     2.59295E-03     4.16466E-03    -34.7518E+06    -136.600E+06    -30.3425E+06    -3.11128E+06    -40.9078E-03     81.4541E-03    -40.5463E-03     12.6694E-03    -40.8411E-03     80.8660E-03    -40.4496E-03     12.6120E-03
            2399     1.72905E-03     4.16334E-03    -36.4745E+06    -139.344E+06    -34.5024E+06    -1.57493E+06    -40.5859E-03     81.0025E-03    -40.4166E-03     8.58879E-03    -40.5172E-03     80.4085E-03    -40.3341E-03     8.55780E-03
            2400     864.441E-06     4.16224E-03    -37.6068E+06    -141.114E+06    -37.2646E+06    -669.590E+03    -40.3758E-03     80.7133E-03    -40.3375E-03     4.67398E-03    -40.3059E-03     80.1159E-03    -40.2647E-03     4.65994E-03
            2401     16.1935E-03     3.47393E-03    -6.92504E+06     118.483E+06     80.9968E+06     8.01086E+06    -139.532E-03     194.003E-03    -54.4709E-03     161.245E-03    -143.017E-03     197.655E-03    -54.2277E-03     155.885E-03
            2402     15.4149E-03     3.27918E-03    -10.4959E+06     97.9434E+06     75.4904E+06     11.5676E+06    -105.934E-03     156.963E-03    -51.0287E-03     134.485E-03    -108.665E-03     159.801E-03    -50.7780E-03     130.653E-03
            2403     14.5855E-03     3.24275E-03    -12.8334E+06     71.4458E+06     67.4414E+06     15.3080E+06    -71.3332E-03     120.301E-03    -48.9680E-03     79.7698E-03    -72.2039E-03     121.190E-03    -48.7158E-03     78.6377E-03
            2404     13.7334E-03     3.21229E-03    -13.5290E+06     61.9247E+06     63.1795E+06     11.8253E+06    -59.9771E-03     107.892E-03    -47.9147E-03     74.1546E-03    -60.5265E-03     108.430E-03    -47.6690E-03     73.5742E-03
            2405     12.8856E-03     3.19092E-03    -13.2955E+06     57.2348E+06     50.3499E+06     6.07599E+06    -55.0348E-03     102.222E-03    -47.1869E-03     66.9178E-03    -55.4414E-03     102.639E-03    -46.9988E-03     66.4792E-03
            2406     12.0304E-03     3.18126E-03    -15.3921E+06     43.9889E+06     33.0289E+06     3.50061E+06    -51.0454E-03     97.7080E-03    -46.6627E-03     59.6961E-03    -51.3431E-03     98.0108E-03    -46.5390E-03     59.3884E-03
            2407     11.1712E-03     3.16940E-03    -18.8038E+06     5.37278E+06     23.9657E+06    -169.896E+03    -49.4400E-03     95.7979E-03    -46.3579E-03     54.4334E-03    -49.6477E-03     95.8875E-03    -46.2186E-03     54.1721E-03
            2408     10.3163E-03     3.16565E-03    -21.4228E+06    -41.0562E+06     18.8750E+06    -6.04371E+06    -48.7157E-03     94.8476E-03    -46.1319E-03     49.0633E-03    -48.8370E-03     94.6910E-03    -45.9469E-03     48.7913E-03
            2409     9.45668E-03     3.15737E-03    -23.0436E+06    -72.2850E+06     14.5979E+06    -12.0915E+06    -48.0644E-03     93.9726E-03    -45.9082E-03     44.1155E-03    -48.1276E-03     93.6538E-03    -45.6970E-03     43.8097E-03
            2410     8.59995E-03     3.15294E-03    -23.4244E+06    -96.0440E+06     9.76512E+06    -16.6824E+06    -47.6946E-03     93.3731E-03    -45.6785E-03     39.3564E-03    -47.7082E-03     92.9332E-03    -45.4564E-03     39.0245E-03
            2411     7.74126E-03     3.14881E-03    -23.2426E+06    -111.373E+06     2.24073E+06    -18.2732E+06    -47.2012E-03     92.6267E-03    -45.4255E-03     35.1676E-03    -47.1741E-03     92.1140E-03    -45.2191E-03     34.8413E-03
            2412     6.88258E-03     3.14412E-03    -23.8698E+06    -120.953E+06    -7.51117E+06    -16.8449E+06    -46.6728E-03     91.8401E-03    -45.1673E-03     30.8299E-03    -46.6160E-03     91.2900E-03    -44.9949E-03     30.5422E-03
            2413     6.02358E-03     3.14163E-03    -25.0177E+06    -127.185E+06    -15.6308E+06    -13.4998E+06    -46.2109E-03     91.1378E-03    -44.9268E-03     26.8567E-03    -46.1359E-03     90.5667E-03    -44.7843E-03     26.6283E-03
            2414     5.16384E-03     3.13808E-03    -27.2646E+06    -131.854E+06    -21.3330E+06    -9.98475E+06    -45.7302E-03     90.4424E-03    -44.7123E-03     22.9430E-03    -45.6491E-03     89.8573E-03    -44.5882E-03     22.7729E-03
            2415     4.30421E-03     3.13629E-03    -29.5478E+06    -135.094E+06    -25.1562E+06    -6.91394E+06    -45.2896E-03     89.8130E-03    -44.5234E-03     19.0601E-03    -45.2081E-03     89.2190E-03    -44.4104E-03     18.9398E-03
            2416     3.44363E-03     3.13406E-03    -31.6206E+06    -137.583E+06    -28.0882E+06    -4.30634E+06    -44.8976E-03     89.2544E-03    -44.3568E-03     15.2850E-03    -44.8175E-03     88.6541E-03    -44.2519E-03     15.2068E-03
            2417     2.58338E-03     3.13288E-03    -33.3314E+06    -139.731E+06    -30.9651E+06    -2.40465E+06    -44.5375E-03     88.7517E-03    -44.2142E-03     11.5555E-03    -44.4580E-03     88.1466E-03    -44.1181E-03     11.5089E-03
            2418     1.72218E-03     3.13169E-03    -34.5791E+06    -141.400E+06    -33.3961E+06    -1.18333E+06    -44.2441E-03     88.3530E-03    -44.1089E-03     7.83034E-03    -44.1644E-03     87.7443E-03    -44.0207E-03     7.80530E-03
            2419     861.260E-06     3.13121E-03    -35.2889E+06    -142.412E+06    -34.9049E+06    -456.298E+03    -44.0860E-03     88.1262E-03    -44.0402E-03     4.24940E-03    -44.0059E-03     87.5155E-03    -43.9570E-03     4.23851E-03
            2420     16.1988E-03     2.29448E-03    -4.84560E+06     112.673E+06     80.9907E+06     8.47129E+06    -133.320E-03     189.867E-03    -56.5469E-03     162.166E-03    -135.944E-03     192.660E-03    -56.2983E-03     157.734E-03
            2421     15.3775E-03     2.20376E-03    -4.73652E+06     91.0754E+06     77.8524E+06     11.7906E+06    -88.9598E-03     142.693E-03    -53.7328E-03     129.417E-03    -90.5848E-03     144.408E-03    -53.4687E-03     127.173E-03
            2422     14.5261E-03     2.17823E-03    -6.74374E+06     73.8903E+06     73.7509E+06     10.5235E+06    -66.2791E-03     118.640E-03    -52.3606E-03     95.6266E-03    -66.9197E-03     119.303E-03    -52.0892E-03     94.8812E-03
            2423     13.6845E-03     2.15480E-03    -6.63841E+06     68.3491E+06     68.3081E+06     5.26895E+06    -62.0888E-03     113.649E-03    -51.5598E-03     83.3007E-03    -62.5246E-03     114.103E-03    -51.3078E-03     82.8087E-03
            2424     12.8310E-03     2.13849E-03    -8.22204E+06     60.3208E+06     47.7965E+06     3.72560E+06    -58.1816E-03     109.033E-03    -50.8512E-03     67.5403E-03    -58.4904E-03     109.386E-03    -50.6878E-03     67.2164E-03
            2425     11.9809E-03     2.13087E-03    -10.4000E+06     44.6753E+06     20.3704E+06     3.18805E+06    -55.7160E-03     105.972E-03    -50.2560E-03     57.1194E-03    -55.9272E-03     106.244E-03    -50.2038E-03     56.9007E-03
            2426     11.1302E-03     2.12355E-03    -12.4552E+06     9.20121E+06     2.52200E+06     155.392E+03    -54.4048E-03     104.220E-03    -49.8156E-03     49.2589E-03    -54.5250E-03     104.320E-03    -49.7983E-03     49.0706E-03
            2427     10.2754E-03     2.11623E-03    -14.1307E+06    -34.1739E+06    -5.60806E+06    -6.76387E+06    -53.5818E-03     103.049E-03    -49.4668E-03     42.2926E-03    -53.6209E-03     102.931E-03    -49.4247E-03     42.0623E-03
            2428     9.42508E-03     2.11280E-03    -14.5775E+06    -68.0677E+06    -11.7962E+06    -13.8533E+06    -52.6585E-03     101.792E-03    -49.1340E-03     37.0396E-03    -52.6331E-03     101.507E-03    -49.0731E-03     36.7514E-03
            2429     8.56883E-03     2.10795E-03    -15.4175E+06    -95.5513E+06    -16.4459E+06    -17.5261E+06    -51.7020E-03     100.535E-03    -48.8334E-03     32.3393E-03    -51.6285E-03     100.115E-03    -48.7547E-03     32.0286E-03
            2430     7.71515E-03     2.10430E-03    -17.8081E+06    -115.193E+06    -19.8024E+06    -17.9608E+06    -51.0035E-03     99.5615E-03    -48.5580E-03     28.1955E-03    -50.9050E-03     99.0475E-03    -48.4642E-03     27.8973E-03
            2431     6.85959E-03     2.10210E-03    -20.8111E+06    -127.674E+06    -22.6873E+06    -15.3179E+06    -50.2480E-03     98.5471E-03    -48.2991E-03     24.5325E-03    -50.1396E-03     97.9766E-03    -48.1972E-03     24.2835E-03
            2432     6.00336E-03     2.09889E-03    -23.9690E+06    -134.435E+06    -25.1218E+06    -11.1168E+06    -49.5721E-03     97.6360E-03    -48.0638E-03     21.0368E-03    -49.4645E-03     97.0381E-03    -47.9597E-03     20.8531E-03
            2433     5.14714E-03     2.09753E-03    -26.6871E+06    -137.339E+06    -27.0989E+06    -7.40684E+06    -48.9643E-03     96.8190E-03    -47.8547E-03     17.8149E-03    -48.8619E-03     96.2122E-03    -47.7523E-03     17.6882E-03
            2434     4.28965E-03     2.09538E-03    -29.1783E+06    -139.634E+06    -28.9591E+06    -4.86257E+06    -48.4475E-03     96.1234E-03    -47.6759E-03     14.7564E-03    -48.3507E-03     95.5107E-03    -47.5759E-03     14.6700E-03
            2435     3.43263E-03     2.09451E-03    -30.9104E+06    -140.987E+06    -30.0901E+06    -2.99973E+06    -48.0302E-03     95.5585E-03    -47.5283E-03     11.7863E-03    -47.9379E-03     94.9425E-03    -47.4295E-03     11.7300E-03
            2436     2.57438E-03     2.09337E-03    -32.1216E+06    -142.056E+06    -31.2464E+06    -1.67649E+06    -47.6942E-03     95.1035E-03    -47.4093E-03     8.87331E-03    -47.6043E-03     94.4852E-03    -47.3129E-03     8.83924E-03
            2437     1.71668E-03     2.09292E-03    -32.8065E+06    -142.851E+06    -32.3119E+06    -882.024E+03    -47.4552E-03     94.7744E-03    -47.3192E-03     5.99317E-03    -47.3657E-03     94.1544E-03    -47.2261E-03     5.97376E-03
            2438     858.244E-06     2.09239E-03    -33.3003E+06    -143.475E+06    -33.1757E+06    -426.684E+03    -47.3178E-03     94.5576E-03    -47.2398E-03     3.26938E-03    -47.2285E-03     93.9364E-03    -47.1493E-03     3.25963E-03
            2439     16.0976E-03     1.14670E-03     177.667E+03     107.572E+06     87.0321E+06     6.48152E+06    -128.955E-03     189.988E-03    -61.0334E-03     159.051E-03    -130.665E-03     191.838E-03    -60.7544E-03     156.032E-03
            2440     15.2869E-03     1.12549E-03    -946.311E+03     90.0395E+06     83.9651E+06     6.13569E+06    -95.7711E-03     154.031E-03    -58.2596E-03     114.777E-03    -96.5774E-03     154.906E-03    -57.9690E-03     113.671E-03
            2441     14.4592E-03     1.10422E-03    -1.31370E+06     79.7351E+06     79.8048E+06     4.01523E+06    -80.2790E-03     136.765E-03    -56.4856E-03     82.4077E-03    -80.6855E-03     137.212E-03    -56.2003E-03     81.9454E-03
            2442     13.6199E-03     1.08131E-03    -3.33130E+06     70.7245E+06     64.0301E+06     2.27516E+06    -72.1467E-03     127.306E-03    -55.1595E-03     59.8059E-03    -72.4390E-03     127.650E-03    -54.9370E-03     59.5128E-03
            2443     12.7861E-03     1.07699E-03    -5.11844E+06     60.4974E+06     37.1295E+06     1.94788E+06    -66.2237E-03     120.300E-03    -54.0762E-03     44.3172E-03    -66.4297E-03     120.593E-03    -53.9709E-03     44.1383E-03
            2444     11.9412E-03     1.06897E-03    -4.98303E+06     43.6606E+06     7.86756E+06     2.80744E+06    -62.7919E-03     115.976E-03    -53.1841E-03     35.7581E-03    -62.9142E-03     116.212E-03    -53.2009E-03     35.6515E-03
            2445     11.0957E-03     1.06536E-03    -4.84726E+06     14.0249E+06    -17.9498E+06     919.404E+03    -60.2777E-03     112.724E-03    -52.4459E-03     29.4347E-03    -60.3103E-03     112.840E-03    -52.5490E-03     29.3424E-03
            2446     10.2500E-03     1.06118E-03    -4.36600E+06    -26.1729E+06    -33.0480E+06    -5.30542E+06    -58.1085E-03     109.980E-03    -51.8716E-03     24.8347E-03    -58.0533E-03     109.912E-03    -51.9926E-03     24.6878E-03
            2447     9.39774E-03     1.05836E-03    -6.09940E+06    -65.6541E+06    -40.5461E+06    -9.91386E+06    -56.5471E-03     107.960E-03    -51.4130E-03     20.9786E-03    -56.4293E-03     107.705E-03    -51.5117E-03     20.7922E-03
            2448     8.54967E-03     1.05623E-03    -10.2245E+06    -96.4482E+06    -43.6814E+06    -11.2634E+06    -55.1218E-03     106.148E-03    -51.0259E-03     18.3118E-03    -54.9737E-03     105.747E-03    -51.0896E-03     18.1209E-03
            2449     7.69613E-03     1.05430E-03    -15.1285E+06    -118.939E+06    -41.1724E+06    -10.9216E+06    -53.8593E-03     104.574E-03    -50.7148E-03     15.6975E-03    -53.7054E-03     104.063E-03    -50.7262E-03     15.5215E-03
            2450     6.84354E-03     1.05234E-03    -20.1347E+06    -133.821E+06    -36.7049E+06    -9.17250E+06    -52.8753E-03     103.327E-03    -50.4522E-03     13.4841E-03    -52.7305E-03     102.742E-03    -50.4125E-03     13.3377E-03
            2451     5.99002E-03     1.05152E-03    -24.0316E+06    -140.439E+06    -33.0496E+06    -6.30382E+06    -51.9679E-03     102.185E-03    -50.2168E-03     11.6034E-03    -51.8378E-03     101.566E-03    -50.1436E-03     11.5003E-03
            2452     5.13504E-03     1.05005E-03    -26.9847E+06    -141.568E+06    -31.4892E+06    -3.75963E+06    -51.2276E-03     101.235E-03    -50.0076E-03     9.79335E-03    -51.1125E-03     100.613E-03    -49.9206E-03     9.72795E-03
            2453     4.28044E-03     1.04957E-03    -28.9014E+06    -142.331E+06    -31.0541E+06    -2.31020E+06    -50.6347E-03     100.468E-03    -49.8332E-03     8.07887E-03    -50.5284E-03     99.8435E-03    -49.7402E-03     8.03598E-03
            2454     3.42430E-03     1.04867E-03    -30.3630E+06    -143.020E+06    -31.1379E+06    -1.52821E+06    -50.1796E-03     99.8747E-03    -49.6951E-03     6.43183E-03    -50.0793E-03     99.2489E-03    -49.5994E-03     6.40221E-03
            2455     2.56895E-03     1.04840E-03    -31.1949E+06    -143.456E+06    -31.3338E+06    -982.061E+03    -49.8598E-03     99.4492E-03    -49.5893E-03     4.81625E-03    -49.7626E-03     98.8226E-03    -49.4928E-03     4.79634E-03
            2456     1.71244E-03     1.04800E-03    -31.7300E+06    -143.861E+06    -31.7380E+06    -500.315E+03    -49.6347E-03     99.1464E-03    -49.5117E-03     3.27754E-03    -49.5389E-03     98.5190E-03    -49.4158E-03     3.26645E-03
            2457     856.461E-06     1.04788E-03    -32.0622E+06    -144.209E+06    -32.2048E+06    -232.501E+03    -49.5122E-03     98.9582E-03    -49.4460E-03     1.78725E-03    -49.4168E-03     98.3303E-03    -49.3514E-03     1.78174E-03


