********************************************************************************
Field Output Report, written Tue May 28 19:54:29 2024

Source 1
---------

   ODB: G:/Abaqus_calc_2019/1740/Vel_20/odb/zeides_2a_40_red_250_cal_10_vel_20_fric_0100.odb
   Step: Step-1
   Frame: Increment   3312642: Step Time =   0.4185

Loc 1 : Nodal values from source 1

Output sorted by column "Nodal Label".

Field Output reported at nodes for region: DIE_2A_40_D0_36-1.Region_1
   Computation algorithm: EXTRAPOLATE_COMPUTE_AVERAGE
   Averaged at nodes
   Averaging regions: ODB_REGIONS

      Node Label     COORD.COOR1     COORD.COOR2
                          @Loc 1          @Loc 1
-------------------------------------------------
               1     23.5525E-03     117.153E-03


Field Output reported at nodes for region: DIE_2A_40_D0_36-1.Region_2
   Computation algorithm: EXTRAPOLATE_COMPUTE_AVERAGE
   Averaged at nodes
   Averaging regions: ODB_REGIONS

      Node Label     COORD.COOR1     COORD.COOR2
                          @Loc 1          @Loc 1
-------------------------------------------------
               1     23.5525E-03     117.153E-03


Field Output reported at nodes for part: WIRE-1
   Computation algorithm: EXTRAPOLATE_COMPUTE_AVERAGE
   Averaged at nodes
   Averaging regions: ODB_REGIONS

      Node Label     COORD.COOR1     COORD.COOR2           S.S11           S.S22           S.S33           S.S12         PE.PE11         PE.PE22         PE.PE33         PE.PE12         LE.LE11         LE.LE22         LE.LE33         LE.LE12
                          @Loc 1          @Loc 1          @Loc 1          @Loc 1          @Loc 1          @Loc 1          @Loc 1          @Loc 1          @Loc 1          @Loc 1          @Loc 1          @Loc 1          @Loc 1          @Loc 1
-------------------------------------------------------------------------------------------------------------------------------------------------------------------------------------------------------------------------------------------------
               1    -223.930E-09     57.5016E-03    -24.7485E+06    -115.788E+06    -24.9559E+06     108.260E+03    -27.4626E-03     54.9249E-03    -27.4623E-03     3.29461E-03    -27.3823E-03     54.4182E-03    -27.3833E-03     3.29433E-03
               2     17.5160E-03     59.2950E-03    -4.20009E+06     195.228E+06     122.826E+06     111.972E+03    -47.8227E-03     75.4303E-03    -27.6075E-03     378.907E-03    -69.9318E-03     97.8613E-03    -27.2704E-03     395.161E-03
               3     17.1134E-03     117.256E-03    -4.91972E+06    -4.55654E+06    -15.5570E+06    -7.62991E+06     21.7667E-03     22.7799E-03    -44.5466E-03     3.01082E-03     21.7974E-03     22.8129E-03    -44.6106E-03     2.91236E-03
               4    -900.604E-09     115.316E-03     38.1214E+06    -1.87385E+06     37.0004E+06    -1.29691E+06    -30.1383E-03     61.1764E-03    -31.0381E-03    -1.11320E-03    -30.0003E-03     61.0564E-03    -30.9057E-03    -1.13099E-03
               5     222.083E-09    -13.8778E-18    -13.7260E+06    -93.0022E+06    -13.7088E+06    -562.868E+03    -19.1723E-03     38.2585E-03    -19.0862E-03     46.7986E-06    -19.0857E-03     37.8335E-03    -18.9999E-03     39.5370E-06
               6     17.3976E-03    -13.8778E-18     15.0538E+06     105.144E+06     89.5728E+06     7.63317E+06    -101.897E-03     132.750E-03    -30.8531E-03     112.408E-03    -102.721E-03     133.764E-03    -30.5795E-03     110.978E-03
               7     875.766E-06     57.5041E-03    -24.6449E+06    -115.464E+06    -24.3434E+06     58.9853E+03    -27.4715E-03     54.9359E-03    -27.4644E-03     5.62614E-03    -27.3922E-03     54.4299E-03    -27.3830E-03     5.62403E-03
               8     1.75131E-03     57.5120E-03    -24.2075E+06    -114.686E+06    -22.8879E+06     78.7334E+03    -27.4876E-03     54.9565E-03    -27.4689E-03     10.4612E-03    -27.4096E-03     54.4518E-03    -27.3819E-03     10.4568E-03
               9     2.62718E-03     57.5240E-03    -23.2665E+06    -113.244E+06    -20.2968E+06     37.9066E+03    -27.5104E-03     54.9862E-03    -27.4758E-03     15.5513E-03    -27.4341E-03     54.4841E-03    -27.3794E-03     15.5432E-03
              10     3.50268E-03     57.5415E-03    -22.1105E+06    -111.415E+06    -16.8546E+06     45.4193E+03    -27.5390E-03     55.0229E-03    -27.4838E-03     20.7412E-03    -27.4654E-03     54.5241E-03    -27.3745E-03     20.7298E-03
              11     4.37864E-03     57.5634E-03    -20.6212E+06    -109.304E+06    -12.8426E+06     145.464E+03    -27.5867E-03     55.0790E-03    -27.4923E-03     26.0055E-03    -27.5157E-03     54.5841E-03    -27.3682E-03     25.9912E-03
              12     5.25409E-03     57.5910E-03    -19.0703E+06    -107.486E+06    -9.08915E+06     149.883E+03    -27.6409E-03     55.1397E-03    -27.4989E-03     31.2960E-03    -27.5721E-03     54.6480E-03    -27.3608E-03     31.2767E-03
              13     6.13020E-03     57.6229E-03    -17.3158E+06    -103.422E+06    -5.75974E+06     234.810E+03    -27.7182E-03     55.2173E-03    -27.4990E-03     36.6451E-03    -27.6540E-03     54.7411E-03    -27.3528E-03     36.6206E-03
              14     7.00560E-03     57.6606E-03    -15.7663E+06    -98.9129E+06    -3.53479E+06     419.274E+03    -27.8128E-03     55.3065E-03    -27.4937E-03     42.0543E-03    -27.7544E-03     54.8513E-03    -27.3451E-03     42.0244E-03
              15     7.88177E-03     57.7028E-03    -14.4264E+06    -94.6329E+06    -2.55430E+06     548.776E+03    -27.9297E-03     55.4133E-03    -27.4836E-03     47.4720E-03    -27.8777E-03     54.9816E-03    -27.3382E-03     47.4338E-03
              16     8.75718E-03     57.7510E-03    -13.3105E+06    -88.6645E+06    -1.85177E+06     573.346E+03    -28.0665E-03     55.5377E-03    -27.4712E-03     52.9979E-03    -28.0265E-03     55.1410E-03    -27.3326E-03     52.9476E-03
              17     9.63329E-03     57.8037E-03    -12.4534E+06    -82.3577E+06    -2.25039E+06     777.535E+03    -28.2164E-03     55.6708E-03    -27.4545E-03     58.5301E-03    -28.1920E-03     55.3164E-03    -27.3282E-03     58.4669E-03
              18     10.5089E-03     57.8624E-03    -11.6874E+06    -75.0454E+06    -6.10569E+06     848.846E+03    -28.3502E-03     55.7696E-03    -27.4194E-03     63.6779E-03    -28.3440E-03     55.4733E-03    -27.3242E-03     63.5956E-03
              19     11.3852E-03     57.9247E-03    -11.4639E+06    -59.0628E+06    -7.55430E+06     1.04840E+06    -28.4507E-03     55.8331E-03    -27.3823E-03     69.6743E-03    -28.4909E-03     55.6447E-03    -27.3179E-03     69.5696E-03
              20     12.2589E-03     57.9954E-03    -10.9482E+06    -36.5810E+06    -5.73927E+06     1.14952E+06    -28.4338E-03     55.7788E-03    -27.3450E-03     75.0392E-03    -28.5408E-03     55.7337E-03    -27.3048E-03     74.9106E-03
              21     13.1390E-03     58.0687E-03    -11.3026E+06    -21.6574E+06    -13.3080E+06     929.839E+03    -28.5866E-03     55.8584E-03    -27.2718E-03     78.7771E-03    -28.7666E-03     55.9599E-03    -27.2906E-03     78.6099E-03
              22     14.0095E-03     58.1447E-03    -11.2069E+06     13.2094E+06    -26.3455E+06     357.664E+03    -29.5818E-03     56.7296E-03    -27.1477E-03     101.567E-03    -30.0212E-03     57.2525E-03    -27.2824E-03     101.323E-03
              23     14.8882E-03     58.2641E-03    -10.6831E+06     67.7254E+06    -15.8328E+06     721.504E+03    -35.5430E-03     62.6564E-03    -27.1135E-03     186.394E-03    -37.4617E-03     64.8236E-03    -27.2753E-03     186.085E-03
              24     15.7679E-03     58.5016E-03    -9.14793E+06     132.410E+06     45.0159E+06     1.20715E+06    -47.5619E-03     74.8779E-03    -27.3160E-03     326.337E-03    -57.9059E-03     85.5289E-03    -27.2696E-03     327.446E-03
              25     16.6397E-03     58.9073E-03    -5.75211E+06     183.968E+06     106.285E+06     436.730E+03    -51.1039E-03     78.6462E-03    -27.5423E-03     390.597E-03    -70.9120E-03     98.7787E-03    -27.2692E-03     399.993E-03
              26     17.5155E-03     60.2985E-03    -3.05062E+06     196.586E+06     123.759E+06     1.41203E+06    -44.7087E-03     72.3824E-03    -27.6737E-03     382.849E-03    -67.1197E-03     95.1217E-03    -27.3356E-03     399.755E-03
              27     17.5177E-03     61.2886E-03    -2.12700E+06     197.699E+06     124.557E+06     789.117E+03    -45.0827E-03     72.7047E-03    -27.6220E-03     382.945E-03    -67.4197E-03     95.3748E-03    -27.2828E-03     399.713E-03
              28     17.5168E-03     62.2985E-03    -2.12099E+06     197.753E+06     124.977E+06    -983.189E+03    -47.4860E-03     75.0564E-03    -27.5703E-03     382.579E-03    -69.8436E-03     97.7459E-03    -27.2291E-03     398.873E-03
              29     17.5158E-03     63.2945E-03    -2.94791E+06     196.877E+06     124.422E+06    -574.345E+03    -47.6184E-03     75.2022E-03    -27.5838E-03     378.535E-03    -69.7066E-03     97.6179E-03    -27.2428E-03     394.825E-03
              30     17.5166E-03     64.2926E-03    -4.54969E+06     195.240E+06     122.565E+06     146.222E+03    -47.5707E-03     75.1542E-03    -27.5835E-03     375.175E-03    -69.3894E-03     97.2945E-03    -27.2472E-03     391.458E-03
              31     17.5150E-03     65.3009E-03    -3.66251E+06     196.959E+06     123.658E+06     686.231E+03    -47.7105E-03     75.2940E-03    -27.5834E-03     377.278E-03    -69.7454E-03     97.6565E-03    -27.2454E-03     393.592E-03
              32     17.5177E-03     66.3018E-03    -3.27622E+06     198.304E+06     124.348E+06     672.881E+03    -46.9186E-03     74.5063E-03    -27.5877E-03     382.229E-03    -69.2102E-03     97.1297E-03    -27.2488E-03     398.664E-03
              33     17.5164E-03     67.3058E-03    -2.58964E+06     199.719E+06     125.264E+06     670.344E+03    -46.9066E-03     74.4931E-03    -27.5865E-03     382.419E-03    -69.2352E-03     97.1583E-03    -27.2461E-03     398.849E-03
              34     17.5165E-03     68.3012E-03    -2.42071E+06     200.146E+06     125.582E+06    -516.787E+03    -46.7518E-03     74.3532E-03    -27.6014E-03     377.815E-03    -68.8511E-03     96.7903E-03    -27.2602E-03     394.281E-03
              35     17.5156E-03     69.3019E-03    -2.48607E+06     199.989E+06     125.372E+06    -940.125E+03    -47.7441E-03     75.3298E-03    -27.5857E-03     376.775E-03    -69.7837E-03     97.7071E-03    -27.2453E-03     393.130E-03
              36     17.5163E-03     70.3096E-03    -3.37104E+06     199.620E+06     124.575E+06     329.751E+03    -47.9495E-03     75.5337E-03    -27.5842E-03     379.110E-03    -70.1051E-03     98.0247E-03    -27.2459E-03     395.368E-03
              37     17.5160E-03     71.3111E-03    -2.83000E+06     200.237E+06     125.033E+06     225.980E+03    -46.3619E-03     73.9918E-03    -27.6299E-03     383.220E-03    -68.8251E-03     96.7932E-03    -27.2910E-03     399.808E-03
              38     17.5166E-03     72.3112E-03    -4.14128E+06     199.168E+06     124.224E+06    -456.791E+03    -46.5254E-03     74.1667E-03    -27.6414E-03     384.354E-03    -69.0903E-03     97.0637E-03    -27.3030E-03     400.941E-03
              39     17.5149E-03     73.3107E-03    -4.77114E+06     198.620E+06     123.211E+06     1.08149E+06    -46.7074E-03     74.3327E-03    -27.6253E-03     380.720E-03    -68.9274E-03     96.8836E-03    -27.2903E-03     397.181E-03
              40     17.5175E-03     74.3072E-03    -1.88827E+06     201.333E+06     125.537E+06     69.1055E+03    -46.8936E-03     74.4916E-03    -27.5980E-03     379.598E-03    -68.9705E-03     96.9125E-03    -27.2595E-03     395.966E-03
              41     17.5156E-03     75.3160E-03    -4.24178E+06     199.581E+06     123.915E+06    -696.287E+03    -47.6784E-03     75.2674E-03    -27.5890E-03     380.909E-03    -69.8800E-03     97.8031E-03    -27.2527E-03     397.147E-03
              42     17.5161E-03     76.3140E-03    -3.82355E+06     199.780E+06     123.888E+06     1.33153E+06    -47.1237E-03     74.7175E-03    -27.5938E-03     381.905E-03    -69.4111E-03     97.3414E-03    -27.2585E-03     398.310E-03
              43     17.5177E-03     77.3143E-03    -1.90605E+06     201.033E+06     125.036E+06     168.347E+03    -46.9615E-03     74.5290E-03    -27.5675E-03     382.501E-03    -69.2544E-03     97.1662E-03    -27.2311E-03     398.868E-03
              44     17.5163E-03     78.3211E-03    -3.71374E+06     199.842E+06     123.832E+06    -482.162E+03    -46.6861E-03     74.2849E-03    -27.5988E-03     380.835E-03    -68.9879E-03     96.9239E-03    -27.2640E-03     397.306E-03
              45     17.5152E-03     79.3107E-03    -4.04942E+06     199.854E+06     123.422E+06     856.574E+03    -46.9846E-03     74.5821E-03    -27.5975E-03     380.083E-03    -69.1859E-03     97.1206E-03    -27.2643E-03     396.554E-03
              46     17.5183E-03     80.3212E-03    -2.39245E+06     201.451E+06     124.343E+06     90.4898E+03    -47.6789E-03     75.2188E-03    -27.5399E-03     379.989E-03    -69.7597E-03     97.6457E-03    -27.2068E-03     396.176E-03
              47     17.5160E-03     81.3207E-03    -3.83167E+06     200.940E+06     123.713E+06    -775.446E+03    -47.6176E-03     75.1889E-03    -27.5713E-03     379.968E-03    -69.8375E-03     97.7498E-03    -27.2386E-03     396.237E-03
              48     17.5152E-03     82.3215E-03    -3.28158E+06     201.636E+06     123.981E+06     1.15496E+06    -46.4777E-03     74.0831E-03    -27.6054E-03     378.847E-03    -68.5633E-03     96.5133E-03    -27.2731E-03     395.303E-03
              49     17.5186E-03     83.3187E-03    -3.00913E+06     202.146E+06     124.025E+06     144.846E+03    -46.1490E-03     73.7183E-03    -27.5692E-03     377.983E-03    -68.0738E-03     95.9904E-03    -27.2379E-03     394.450E-03
              50     17.5155E-03     84.3242E-03    -3.30389E+06     202.089E+06     123.905E+06    -861.236E+03    -47.4833E-03     75.0219E-03    -27.5387E-03     379.380E-03    -69.5474E-03     97.4325E-03    -27.2074E-03     395.598E-03
              51     17.5183E-03     85.3266E-03    -2.48301E+06     202.385E+06     124.113E+06    -105.129E+03    -46.8385E-03     74.3838E-03    -27.5453E-03     379.928E-03    -68.9973E-03     96.8924E-03    -27.2146E-03     396.282E-03
              52     17.5164E-03     86.3235E-03    -3.95168E+06     202.210E+06     123.330E+06     622.420E+03    -46.9626E-03     74.4976E-03    -27.5349E-03     379.924E-03    -69.1557E-03     97.0369E-03    -27.2058E-03     396.392E-03
              53     17.5178E-03     87.3305E-03    -3.82023E+06     203.500E+06     124.431E+06     547.315E+03    -47.5937E-03     75.1119E-03    -27.5182E-03     382.070E-03    -69.8893E-03     97.7555E-03    -27.1856E-03     398.329E-03
              54     17.5179E-03     88.3310E-03    -2.02082E+06     204.551E+06     125.408E+06     1.12908E+06    -45.7177E-03     73.2224E-03    -27.5047E-03     383.700E-03    -68.0454E-03     95.9055E-03    -27.1713E-03     400.217E-03
              55     17.5210E-03     89.3262E-03    -1.82958E+06     206.347E+06     126.518E+06     731.630E+03    -46.2534E-03     73.6968E-03    -27.4435E-03     382.949E-03    -68.5373E-03     96.3400E-03    -27.1074E-03     399.418E-03
              56     17.5178E-03     90.3320E-03    -1.90271E+06     208.381E+06     127.717E+06     326.406E+03    -48.0746E-03     75.4862E-03    -27.4117E-03     380.436E-03    -70.3800E-03     98.1544E-03    -27.0725E-03     396.668E-03
              57     17.5194E-03     91.3313E-03    -3.63128E+06     207.762E+06     126.403E+06     12.8486E+03    -46.7242E-03     74.1488E-03    -27.4246E-03     379.827E-03    -69.0403E-03     96.8231E-03    -27.0886E-03     396.356E-03
              58     17.5205E-03     92.3300E-03    -4.48105E+06     207.677E+06     126.394E+06     527.455E+03    -46.7533E-03     74.1095E-03    -27.3562E-03     380.282E-03    -68.8795E-03     96.5906E-03    -27.0189E-03     396.667E-03
              59     17.5219E-03     93.3343E-03    -4.12876E+06     208.130E+06     127.551E+06     317.747E+03    -48.4267E-03     75.6937E-03    -27.2670E-03     378.613E-03    -70.4029E-03     98.0242E-03    -26.9251E-03     394.634E-03
              60     17.5211E-03     94.3368E-03    -3.69880E+06     208.576E+06     128.876E+06     834.599E+03    -46.2456E-03     73.4859E-03    -27.2403E-03     378.301E-03    -68.2851E-03     95.8790E-03    -26.8930E-03     394.803E-03
              61     17.5270E-03     95.3339E-03    -936.793E+03     209.350E+06     131.095E+06     630.201E+03    -43.0154E-03     70.1800E-03    -27.1646E-03     379.656E-03    -65.0196E-03     92.5440E-03    -26.8113E-03     396.593E-03
              62     17.5277E-03     96.3305E-03    -3.34941E+06     206.251E+06     130.360E+06    -1.68393E+06    -45.5890E-03     72.5683E-03    -26.9792E-03     378.295E-03    -67.4877E-03     94.8093E-03    -26.6217E-03     394.798E-03
              63     17.5287E-03     97.3340E-03    -4.04278E+06     205.154E+06     131.170E+06     3.86837E+03    -49.4607E-03     76.2585E-03    -26.7978E-03     374.881E-03    -71.2852E-03     98.4166E-03    -26.4336E-03     390.875E-03
              64     17.5311E-03     98.3407E-03    -3.62487E+06     204.526E+06     132.367E+06     10.5917E+03    -49.4440E-03     76.1353E-03    -26.6913E-03     375.414E-03    -71.4026E-03     98.4232E-03    -26.3208E-03     391.500E-03
              65     17.5330E-03     99.3448E-03    -3.29907E+06     203.124E+06     132.502E+06    -389.530E+03    -49.5638E-03     76.1370E-03    -26.5732E-03     379.236E-03    -71.8229E-03     98.7213E-03    -26.2005E-03     395.417E-03
              66     17.5358E-03     100.351E-03    -2.65441E+06     201.892E+06     133.073E+06    -1.08496E+06    -50.6731E-03     77.1049E-03    -26.4318E-03     378.880E-03    -72.8717E-03     99.6248E-03    -26.0554E-03     394.794E-03
              67     17.5363E-03     101.353E-03    -2.98310E+06     198.329E+06     131.955E+06    -447.953E+03    -49.9333E-03     76.2756E-03    -26.3423E-03     373.493E-03    -71.6866E-03     98.3396E-03    -25.9658E-03     389.332E-03
              68     17.5385E-03     102.354E-03    -5.16577E+06     193.045E+06     129.100E+06    -1.53047E+06    -50.9181E-03     77.1382E-03    -26.2201E-03     370.362E-03    -72.4133E-03     98.9261E-03    -25.8470E-03     385.943E-03
              69     17.5392E-03     103.361E-03    -2.23477E+06     190.543E+06     130.171E+06    -1.26968E+06    -53.6077E-03     79.6585E-03    -26.0508E-03     369.341E-03    -74.8445E-03     101.187E-03    -25.6730E-03     384.119E-03
              70     17.5429E-03     104.375E-03    -2.10955E+06     185.651E+06     129.671E+06    -3.59365E+06    -53.7839E-03     79.7178E-03    -25.9339E-03     368.212E-03    -74.8845E-03     101.094E-03    -25.5517E-03     382.661E-03
              71     17.5426E-03     105.374E-03    -2.07415E+06     179.016E+06     129.043E+06    -3.35309E+06    -56.8802E-03     82.6596E-03    -25.7794E-03     366.120E-03    -77.8989E-03     103.933E-03    -25.3908E-03     380.136E-03
              72     17.5447E-03     106.397E-03    -4.92286E+06     170.501E+06     127.835E+06    -3.32065E+06    -64.8860E-03     90.4399E-03    -25.5539E-03     372.652E-03    -86.3539E-03     112.127E-03    -25.1548E-03     385.278E-03
              73     17.5450E-03     107.433E-03    -3.90158E+06     163.172E+06     129.920E+06    -1.45101E+06    -68.4808E-03     93.9130E-03    -25.4322E-03     382.867E-03    -90.5403E-03     116.162E-03    -25.0136E-03     394.622E-03
              74     17.5485E-03     108.445E-03    -3.55617E+06     158.008E+06     133.025E+06    -183.331E+03    -68.6456E-03     93.9930E-03    -25.3473E-03     385.235E-03    -90.5069E-03     116.016E-03    -24.9062E-03     396.577E-03
              75     17.5493E-03     109.465E-03    -1.60453E+06     156.314E+06     136.905E+06      893.53E+03    -74.8063E-03     99.9170E-03    -25.1107E-03     387.300E-03    -96.2397E-03     121.504E-03    -24.6505E-03     397.058E-03
              76     17.5526E-03     110.507E-03    -8.85566E+06     143.971E+06     135.250E+06    -6.07225E+06    -80.5084E-03     105.413E-03    -24.9046E-03     392.999E-03    -101.616E-03     126.610E-03    -24.4242E-03     400.593E-03
              77     17.5534E-03     111.536E-03    -857.349E+03     125.370E+06     129.368E+06    -5.95069E+06    -79.4294E-03     104.280E-03    -24.8508E-03     398.294E-03    -99.8077E-03     124.725E-03    -24.3845E-03     404.482E-03
              78     17.5557E-03     112.557E-03     797.764E+03     125.129E+06     118.162E+06     1.70798E+06    -76.2253E-03     101.065E-03    -24.8400E-03     401.997E-03    -94.8476E-03     119.792E-03    -24.4318E-03     406.510E-03
              79     17.5558E-03     113.578E-03    -20.9548E+06     100.577E+06     73.1435E+06    -18.5809E+06    -61.9025E-03     86.8715E-03    -24.9690E-03     396.353E-03    -76.0925E-03     101.135E-03    -24.7187E-03     399.253E-03
              80     17.5614E-03     114.542E-03    -7.62630E+06     43.7117E+06     25.7572E+06    -36.2200E+06    -15.3809E-03     41.2075E-03    -25.8265E-03     352.599E-03    -22.0471E-03     47.9555E-03    -25.7501E-03     354.513E-03
              81     17.5564E-03     115.413E-03     15.6287E+06     10.1848E+06     24.9800E+06    -10.0457E+06     26.0724E-03     3.49060E-03    -29.5630E-03     212.984E-03     24.8173E-03     4.74930E-03    -29.4755E-03     213.808E-03
              82     17.3443E-03     116.305E-03     12.4219E+06     1.24554E+06     12.7533E+06     6.36671E+06     27.7668E-03     10.7945E-03    -38.5613E-03     56.0352E-03     27.7787E-03     10.7787E-03    -38.5174E-03     56.1382E-03
              83     16.2068E-03     117.003E-03     1.23622E+06     1.56108E+06     20.3309E+06     2.45967E+06     19.0825E-03     26.3981E-03    -45.4806E-03     9.59583E-03     19.0624E-03     26.3801E-03    -45.3830E-03     9.62749E-03
              84     15.3331E-03     116.755E-03     10.6281E+06     16.9221E+06     67.1531E+06     -1.8692E+06    -4.29455E-03     50.8956E-03    -46.6011E-03     17.4969E-03    -4.38170E-03     50.8518E-03    -46.3052E-03     17.4621E-03
              85     14.4919E-03     116.507E-03     16.1040E+06    -11.0367E+06     65.6811E+06    -4.34745E+06    -36.7061E-03     82.7596E-03    -46.0536E-03     2.63330E-03    -36.7294E-03     82.5630E-03    -45.7325E-03     2.52297E-03
              86     13.6777E-03     116.285E-03     22.0798E+06    -11.5160E+06     60.7892E+06     3.41578E+06    -49.9092E-03     94.2076E-03    -44.2984E-03    -19.9505E-03    -49.8953E-03     93.9990E-03    -44.0098E-03    -19.9970E-03
              87     12.8610E-03     116.109E-03     23.7680E+06     4.65080E+06     66.9853E+06     2.96939E+06    -51.4572E-03     93.8586E-03    -42.4014E-03    -26.2090E-03    -51.4598E-03     93.7234E-03    -42.1076E-03    -26.2555E-03
              88     12.0330E-03     115.968E-03     23.0075E+06     651.654E+03     67.0854E+06     2.27729E+06    -51.0050E-03     91.7120E-03    -40.7070E-03    -24.7854E-03    -50.9989E-03     91.5662E-03    -40.4059E-03    -24.8256E-03
              89     11.1972E-03     115.853E-03     25.4747E+06     565.039E+03     67.4940E+06    -1.60818E+06    -49.9784E-03     89.1466E-03    -39.1683E-03    -21.5739E-03    -49.9569E-03     89.0018E-03    -38.8685E-03    -21.6516E-03
              90     10.3554E-03     115.757E-03     27.0419E+06    -2.57497E+06     69.3566E+06    -537.768E+03    -48.2968E-03     86.0513E-03    -37.7545E-03    -17.7201E-03    -48.2636E-03     85.8897E-03    -37.4432E-03    -17.7724E-03
              91     9.50824E-03     115.674E-03     27.4361E+06     1.73932E+06     68.2621E+06    -368.308E+03    -45.7793E-03     82.2127E-03    -36.4334E-03    -14.1078E-03    -45.7479E-03     82.0760E-03    -36.1344E-03    -14.1483E-03
              92     8.65684E-03     115.603E-03     27.6749E+06    -679.928E+03     64.5966E+06    -951.202E+03    -43.0233E-03     78.2758E-03    -35.2525E-03    -11.0947E-03    -42.9811E-03     78.1336E-03    -34.9686E-03    -11.1351E-03
              93     7.80073E-03     115.543E-03     28.5347E+06     554.976E+03     62.5967E+06    -1.41584E+06    -40.3727E-03     74.5993E-03    -34.2266E-03    -8.81212E-03    -40.3245E-03     74.4662E-03    -33.9558E-03    -8.85230E-03
              94     6.94147E-03     115.492E-03     29.8068E+06    -227.507E+03     58.4343E+06    -1.85299E+06    -38.0285E-03     71.3694E-03    -33.3409E-03    -7.06094E-03    -37.9664E-03     71.2373E-03    -33.0916E-03    -7.10190E-03
              95     6.07889E-03     115.449E-03     31.9532E+06     536.406E+03     54.0933E+06    -2.38787E+06    -35.9885E-03     68.5809E-03    -32.5924E-03    -5.65316E-03    -35.9101E-03     68.4563E-03    -32.3690E-03    -5.69725E-03
              96     5.21429E-03     115.413E-03     34.5308E+06    -1.13695E+06     51.7347E+06    -2.08216E+06    -34.3255E-03     66.3151E-03    -31.9895E-03    -4.51431E-03    -34.2282E-03     66.1821E-03    -31.7793E-03    -4.55150E-03
              97     4.34737E-03     115.383E-03     35.9399E+06    -332.142E+03     49.2967E+06    -1.05389E+06    -33.0267E-03     64.5288E-03    -31.5021E-03    -3.60703E-03    -32.9197E-03     64.4016E-03    -31.3072E-03    -3.62859E-03
              98     3.47943E-03     115.359E-03     36.3012E+06     59.2328E+03     44.2320E+06    -818.134E+03    -32.0178E-03     63.1269E-03    -31.1091E-03    -2.86606E-03    -31.9022E-03     63.0087E-03    -30.9407E-03    -2.88267E-03
              99     2.61010E-03     115.340E-03     36.8546E+06     38.7186E+03     41.4511E+06    -1.07172E+06    -31.2755E-03     62.1038E-03    -30.8284E-03    -2.22093E-03    -31.1530E-03     61.9888E-03    -30.6746E-03    -2.23919E-03
             100     1.74048E-03     115.327E-03     37.4802E+06    -460.587E+03     39.6809E+06    -960.151E+03    -30.7650E-03     61.4254E-03    -30.6605E-03    -1.60243E-03    -30.6360E-03     61.3096E-03    -30.5157E-03    -1.61775E-03
             101     869.847E-06     115.319E-03     37.8505E+06    -455.621E+03     37.5932E+06    -1.01775E+06    -30.3497E-03     61.1688E-03    -30.8192E-03    -1.19404E-03    -30.2158E-03     61.0556E-03    -30.6854E-03    -1.20880E-03
             102     120.590E-09     114.307E-03     33.5134E+06    -2.09418E+06     33.0347E+06    -730.928E+03    -27.5165E-03     55.3030E-03    -27.7864E-03    -76.6946E-06    -27.3949E-03     55.1949E-03    -27.6668E-03    -87.2865E-06
             103     200.325E-09     113.312E-03     22.1965E+06    -5.25062E+06     22.6355E+06    -969.863E+03    -22.7990E-03     45.3665E-03    -22.5675E-03     1.02252E-03    -22.7136E-03     45.2748E-03    -22.4789E-03     1.00876E-03
             104    -103.479E-09     112.324E-03     5.40213E+06    -10.6838E+06     5.81319E+06    -1.47101E+06    -19.2842E-03     38.4657E-03    -19.1815E-03     1.50245E-03    -19.2504E-03     38.3959E-03    -19.1447E-03     1.48241E-03
             105     194.891E-09     111.341E-03    -17.1843E+06    -17.8357E+06    -16.1220E+06    -2.91218E+06    -16.9379E-03     33.8437E-03    -16.9058E-03     2.04715E-03    -16.9747E-03     33.8029E-03    -16.9356E-03     2.00882E-03
             106    -218.033E-09     110.362E-03    -40.6632E+06    -28.0840E+06    -40.9643E+06    -3.36339E+06    -15.5588E-03     31.1546E-03    -15.5958E-03     2.45958E-03    -15.6620E-03     31.1327E-03    -15.7009E-03     2.41569E-03
             107     169.729E-09     109.384E-03    -65.0169E+06    -38.3544E+06    -64.6847E+06    -3.10962E+06    -14.9841E-03     29.9765E-03    -14.9924E-03     2.81725E-03    -15.1597E-03     29.9729E-03    -15.1659E-03     2.77682E-03
             108    -135.812E-09     108.408E-03     -89.381E+06    -49.2565E+06    -89.3687E+06    -3.34146E+06    -14.9093E-03     29.8353E-03    -14.9260E-03     3.05614E-03    -15.1551E-03     29.8483E-03    -15.1719E-03     3.01284E-03
             109     68.0870E-09     107.430E-03    -105.220E+06    -56.7713E+06    -106.181E+06    -1.29936E+06    -15.2036E-03     30.4566E-03    -15.2530E-03     3.21811E-03    -15.4933E-03     30.4793E-03    -15.5490E-03     3.20125E-03
             110    -103.639E-09     106.453E-03    -87.7569E+06    -53.8207E+06    -89.4677E+06     3.28610E+06    -15.8946E-03     31.8255E-03    -15.9309E-03     3.29138E-03    -16.1256E-03     31.8134E-03    -16.1730E-03     3.33378E-03
             111     50.4316E-09     105.473E-03    -53.3882E+06    -36.1337E+06    -53.8563E+06     7.28415E+06    -16.9187E-03     33.8408E-03    -16.9221E-03     3.36650E-03    -17.0552E-03     33.8157E-03    -17.0616E-03     3.46054E-03
             112    -13.7450E-09     104.491E-03    -31.3141E+06    -13.2330E+06    -30.2324E+06     6.45175E+06    -18.1369E-03     36.2578E-03    -18.1209E-03     3.49078E-03    -18.2304E-03     36.2809E-03    -18.2075E-03     3.57409E-03
             113     12.3376E-09     103.506E-03    -17.0198E+06     2.38348E+06    -15.8265E+06     2.85934E+06    -19.4584E-03     38.9139E-03    -19.4555E-03     3.59990E-03    -19.5240E-03     38.9734E-03    -19.5134E-03     3.63677E-03
             114     2.47840E-09     102.519E-03    -7.41052E+06     6.97257E+06    -6.91707E+06    -69.2129E+03    -20.7941E-03     41.5959E-03    -20.8018E-03     3.65738E-03    -20.8313E-03     41.6516E-03    -20.8358E-03     3.65631E-03
             115    -30.7430E-09     101.528E-03    -382.367E+03     5.15673E+06    -310.906E+03    -1.10813E+06    -22.0473E-03     44.0993E-03    -22.0520E-03     3.65659E-03    -22.0563E-03     44.1262E-03    -22.0605E-03     3.64195E-03
             116     46.0246E-09     100.537E-03     3.18590E+06    -421.479E+03     3.58779E+06    -2.17569E+06    -23.1721E-03     46.3450E-03    -23.1729E-03     3.61707E-03    -23.1608E-03     46.3332E-03    -23.1590E-03     3.58844E-03
             117    -63.6863E-09     99.5418E-03     5.62368E+06    -7.98013E+06     5.24513E+06    -2.40527E+06    -24.1560E-03     48.3103E-03    -24.1543E-03     3.58933E-03    -24.1239E-03     48.2547E-03    -24.1246E-03     3.55753E-03
             118     74.5097E-09     98.5469E-03     4.98455E+06    -16.0076E+06     5.21394E+06    -2.36766E+06    -24.9687E-03     49.9308E-03    -24.9621E-03     3.57778E-03    -24.9281E-03     49.8361E-03    -24.9201E-03     3.54629E-03
             119    -76.8407E-09     97.5482E-03     3.45394E+06    -24.6881E+06     3.43303E+06    -2.67221E+06    -25.6081E-03     51.2129E-03    -25.6048E-03     3.53653E-03    -25.5601E-03     51.0796E-03    -25.5568E-03     3.50094E-03
             120     79.2972E-09     96.5510E-03     985.762E+03    -33.9143E+06     914.680E+03    -2.72476E+06    -26.1224E-03     52.2563E-03    -26.1339E-03     3.48252E-03    -26.0696E-03     52.0841E-03    -26.0816E-03     3.44607E-03
             121    -108.186E-09     95.5502E-03    -1.88621E+06    -42.1894E+06    -2.24109E+06    -2.15503E+06    -26.5693E-03     53.0867E-03    -26.5173E-03     3.48429E-03    -26.5143E-03     52.8819E-03    -26.4646E-03     3.45507E-03
             122     218.734E-09     94.5513E-03    -6.08568E+06    -49.5238E+06    -5.83141E+06    -2.07519E+06    -26.8812E-03     53.6498E-03    -26.7686E-03     3.46369E-03    -26.8313E-03     53.4196E-03    -26.7172E-03     3.43542E-03
             123    -134.648E-09     93.5496E-03    -9.55515E+06    -56.7914E+06    -9.73949E+06    -2.13719E+06    -27.0347E-03     54.0511E-03    -27.0164E-03     3.41786E-03    -26.9860E-03     53.7952E-03    -26.9689E-03     3.38869E-03
             124     75.2101E-09     92.5500E-03    -13.5230E+06    -63.8792E+06    -13.4938E+06    -2.12248E+06    -27.1364E-03     54.3646E-03    -27.2282E-03     3.33641E-03    -27.0918E-03     54.0845E-03    -27.1834E-03     3.30738E-03
             125    -181.251E-09     91.5477E-03    -16.9954E+06    -70.8961E+06    -17.1530E+06    -1.99554E+06    -27.2835E-03     54.6004E-03    -27.3168E-03     3.35649E-03    -27.2409E-03     54.2956E-03    -27.2751E-03     3.32906E-03
             126     222.091E-09     90.5475E-03    -20.2005E+06    -77.4290E+06    -20.1529E+06    -1.90623E+06    -27.3840E-03     54.7595E-03    -27.3755E-03     3.40549E-03    -27.3435E-03     54.4311E-03    -27.3347E-03     3.37915E-03
             127    -252.867E-09     89.5450E-03    -21.9334E+06    -83.4110E+06    -22.2543E+06    -1.50166E+06    -27.4278E-03     54.8622E-03    -27.4344E-03     3.43200E-03    -27.3842E-03     54.5094E-03    -27.3930E-03     3.41086E-03
             128     262.966E-09     88.5446E-03    -24.5906E+06    -88.6648E+06    -24.3292E+06    -1.55159E+06    -27.4614E-03     54.9312E-03    -27.4698E-03     3.42631E-03    -27.4205E-03     54.5590E-03    -27.4272E-03     3.40451E-03
             129    -290.157E-09     87.5422E-03    -25.8932E+06    -93.9099E+06    -26.1733E+06    -1.44654E+06    -27.5000E-03     54.9666E-03    -27.4666E-03     3.42352E-03    -27.4554E-03     54.5727E-03    -27.4237E-03     3.40311E-03
             130     367.390E-09     86.5415E-03    -27.0306E+06    -97.8840E+06    -26.9839E+06    -932.583E+03    -27.5091E-03     54.9892E-03    -27.4801E-03     3.42981E-03    -27.4632E-03     54.5783E-03    -27.4339E-03     3.41602E-03
             131    -398.685E-09     85.5394E-03    -28.3317E+06    -101.209E+06    -28.2844E+06    -1.07152E+06    -27.4739E-03     55.0066E-03    -27.5327E-03     3.36938E-03    -27.4278E-03     54.5829E-03    -27.4863E-03     3.35376E-03
             132     322.218E-09     84.5385E-03    -28.5566E+06    -104.402E+06    -28.7533E+06    -948.295E+03    -27.5118E-03     55.0219E-03    -27.5102E-03     3.32255E-03    -27.4615E-03     54.5832E-03    -27.4611E-03     3.30854E-03
             133    -250.243E-09     83.5365E-03    -28.8989E+06    -107.738E+06    -28.8092E+06    -905.351E+03    -27.5162E-03     55.0132E-03    -27.4970E-03     3.37558E-03    -27.4627E-03     54.5584E-03    -27.4429E-03     3.36214E-03
             134     207.599E-09     82.5356E-03    -28.0212E+06    -110.636E+06    -28.1534E+06    -913.180E+03    -27.4950E-03     55.0335E-03    -27.5386E-03     3.37255E-03    -27.4338E-03     54.5620E-03    -27.4783E-03     3.35900E-03
             135    -248.039E-09     81.5337E-03    -29.0683E+06    -112.543E+06    -29.4942E+06    -38.8836E+03    -27.5089E-03     55.0299E-03    -27.5211E-03     3.40240E-03    -27.4483E-03     54.5523E-03    -27.4632E-03     3.40021E-03
             136     256.960E-09     80.5324E-03    -30.3937E+06    -112.983E+06    -29.7698E+06    -280.809E+03    -27.5355E-03     54.9953E-03    -27.4598E-03     3.39326E-03    -27.4805E-03     54.5178E-03    -27.4007E-03     3.38792E-03
             137    -131.586E-09     79.5312E-03    -28.7615E+06    -115.248E+06    -29.0062E+06     -844.25E+03    -27.5424E-03     55.0096E-03    -27.4672E-03     3.37541E-03    -27.4771E-03     54.5173E-03    -27.4034E-03     3.36277E-03
             138     130.034E-09     78.5296E-03    -27.1986E+06    -116.765E+06    -27.3974E+06    -212.658E+03    -27.5177E-03     55.0703E-03    -27.5526E-03     3.35821E-03    -27.4447E-03     54.5658E-03    -27.4808E-03     3.35369E-03
             139    -197.013E-09     77.5283E-03    -27.5417E+06    -117.573E+06    -27.4571E+06    -282.851E+03    -27.5024E-03     55.0839E-03    -27.5815E-03     3.32861E-03    -27.4298E-03     54.5759E-03    -27.5083E-03     3.32323E-03
             140     121.403E-09     76.5265E-03    -26.8234E+06    -118.052E+06    -27.0393E+06     5.39144E+03    -27.5636E-03     55.0926E-03    -27.5291E-03     3.40306E-03    -27.4873E-03     54.5807E-03    -27.4542E-03     3.40145E-03
             141     6.78653E-09     75.5253E-03    -27.3159E+06    -118.405E+06    -27.0395E+06    -93.8809E+03    -27.5636E-03     55.0582E-03    -27.4947E-03     3.44517E-03    -27.4893E-03     54.5452E-03    -27.4186E-03     3.44218E-03
             142    -16.6545E-09     74.5237E-03    -27.2161E+06    -118.756E+06    -27.3724E+06    -53.1774E+03    -27.5221E-03     55.0237E-03    -27.5016E-03     3.45287E-03    -27.4463E-03     54.5092E-03    -27.4268E-03     3.45045E-03
             143     55.2732E-09     73.5225E-03    -27.0822E+06    -118.625E+06    -27.0921E+06     68.1346E+03    -27.5151E-03     55.0212E-03    -27.5061E-03     3.36246E-03    -27.4393E-03     54.5068E-03    -27.4302E-03     3.36160E-03
             144    -83.3214E-09     72.5211E-03    -26.8087E+06    -118.394E+06    -26.7946E+06     111.037E+03    -27.4944E-03     55.0188E-03    -27.5245E-03     3.33097E-03    -27.4179E-03     54.5047E-03    -27.4479E-03     3.33073E-03
             145     53.6804E-09     71.5197E-03    -26.4887E+06    -118.092E+06    -26.5333E+06    -9.77428E+03    -27.5143E-03     55.0192E-03    -27.5049E-03     3.31747E-03    -27.4370E-03     54.5057E-03    -27.4279E-03     3.31573E-03
             146    -13.1322E-09     70.5183E-03    -26.6452E+06    -118.140E+06    -26.5734E+06     128.410E+03    -27.5226E-03     54.9814E-03    -27.4587E-03     3.34768E-03    -27.4460E-03     54.4680E-03    -27.3817E-03     3.34770E-03
             147     80.1399E-09     69.5169E-03    -26.5406E+06    -118.046E+06    -26.4776E+06    -185.411E+03    -27.4761E-03     54.9584E-03    -27.4823E-03     3.34751E-03    -27.3992E-03     54.4452E-03    -27.4051E-03     3.34341E-03
             148    -162.509E-09     68.5158E-03    -26.2008E+06    -117.921E+06    -26.5139E+06     187.670E+03    -27.4604E-03     54.9635E-03    -27.5031E-03     3.29833E-03    -27.3820E-03     54.4505E-03    -27.4267E-03     3.29908E-03
             149     161.573E-09     67.5141E-03    -26.0057E+06    -117.449E+06    -25.7387E+06    -4.49809E+03    -27.4646E-03     54.9670E-03    -27.5024E-03     3.34380E-03    -27.3870E-03     54.4549E-03    -27.4231E-03     3.34204E-03
             150    -228.918E-09     66.5131E-03    -25.5672E+06    -117.286E+06    -25.8742E+06     124.775E+03    -27.4349E-03     54.9415E-03    -27.5066E-03     3.33750E-03    -27.3552E-03     54.4298E-03    -27.4288E-03     3.33743E-03
             151     162.148E-09     65.5115E-03    -25.4644E+06    -116.836E+06    -25.1905E+06     106.141E+03    -27.4934E-03     54.9552E-03    -27.4618E-03     3.34783E-03    -27.4148E-03     54.4446E-03    -27.3814E-03     3.34754E-03
             152    -41.9664E-09     64.5104E-03    -25.0469E+06    -116.599E+06    -25.3265E+06    -31.9318E+03    -27.5076E-03     54.9585E-03    -27.4510E-03     3.38251E-03    -27.4270E-03     54.4488E-03    -27.3722E-03     3.38030E-03
             153     12.5354E-09     63.5088E-03    -25.3090E+06    -116.442E+06    -24.9687E+06     125.369E+03    -27.4737E-03     54.9604E-03    -27.4867E-03     3.43650E-03    -27.3953E-03     54.4513E-03    -27.4060E-03     3.43640E-03
             154    -7.35115E-09     62.5075E-03    -24.8735E+06    -116.293E+06    -25.2244E+06    -73.8381E+03    -27.4622E-03     54.9301E-03    -27.4679E-03     3.40390E-03    -27.3814E-03     54.4214E-03    -27.3893E-03     3.40122E-03
             155    -16.9723E-09     61.5064E-03    -25.1003E+06    -116.198E+06    -24.9016E+06     291.677E+03    -27.4544E-03     54.9026E-03    -27.4482E-03     3.40282E-03    -27.3753E-03     54.3943E-03    -27.3678E-03     3.40485E-03
             156     49.0822E-09     60.5049E-03    -24.6559E+06    -115.747E+06    -24.6528E+06    -155.727E+03    -27.4594E-03     54.9259E-03    -27.4665E-03     3.42568E-03    -27.3792E-03     54.4189E-03    -27.3862E-03     3.42191E-03
             157    -98.9138E-09     59.5038E-03    -24.9541E+06    -115.979E+06    -25.0060E+06     131.115E+03    -27.4740E-03     54.9168E-03    -27.4428E-03     3.39030E-03    -27.3944E-03     54.4095E-03    -27.3635E-03     3.39029E-03
             158     197.644E-09     58.5022E-03    -25.0186E+06    -115.894E+06    -24.8778E+06    -69.1277E+03    -27.4735E-03     54.9036E-03    -27.4301E-03     3.36028E-03    -27.3945E-03     54.3966E-03    -27.3502E-03     3.35770E-03
             159     243.479E-09     56.4994E-03    -24.7629E+06    -115.566E+06    -24.5212E+06    -17.7719E+03    -27.5005E-03     54.9693E-03    -27.4688E-03     3.34350E-03    -27.4212E-03     54.4631E-03    -27.3879E-03     3.34159E-03
             160    -209.989E-09     55.4988E-03    -24.6389E+06    -115.658E+06    -24.8873E+06     74.1334E+03    -27.4807E-03     54.9556E-03    -27.4749E-03     3.39560E-03    -27.4001E-03     54.4493E-03    -27.3959E-03     3.39483E-03
             161     178.639E-09     54.4966E-03    -24.7130E+06    -115.394E+06    -24.3951E+06     53.3599E+03    -27.4445E-03     54.9099E-03    -27.4654E-03     3.43750E-03    -27.3654E-03     54.4043E-03    -27.3842E-03     3.43645E-03
             162    -185.651E-09     53.4963E-03    -24.5535E+06    -115.516E+06    -24.9223E+06    -96.3695E+03    -27.4258E-03     54.8571E-03    -27.4313E-03     3.37817E-03    -27.3449E-03     54.3514E-03    -27.3528E-03     3.37517E-03
             163     173.522E-09     52.4943E-03    -24.6988E+06    -115.346E+06    -24.4609E+06     148.687E+03    -27.4522E-03     54.8333E-03    -27.3812E-03     3.28410E-03    -27.3730E-03     54.3281E-03    -27.3004E-03     3.28435E-03
             164    -39.3078E-09     51.4939E-03    -24.4439E+06    -115.233E+06    -24.5931E+06    -85.7388E+03    -27.4233E-03     54.8235E-03    -27.4002E-03     3.28335E-03    -27.3428E-03     54.3186E-03    -27.3206E-03     3.28060E-03
             165    -61.1545E-09     50.4919E-03    -24.3653E+06    -115.003E+06    -24.3714E+06     214.214E+03    -27.3786E-03     54.8254E-03    -27.4467E-03     3.24395E-03    -27.2984E-03     54.3212E-03    -27.3665E-03     3.24514E-03
             166     37.4533E-09     49.4914E-03    -24.5173E+06    -115.010E+06    -24.4299E+06    -143.835E+03    -27.3823E-03     54.7948E-03    -27.4125E-03     3.26163E-03    -27.3027E-03     54.2909E-03    -27.3323E-03     3.25815E-03
             167    -70.4942E-09     48.4895E-03    -24.6155E+06    -115.154E+06    -24.8078E+06     52.3364E+03    -27.3649E-03     54.7629E-03    -27.3980E-03     3.34362E-03    -27.2851E-03     54.2590E-03    -27.3194E-03     3.34262E-03
             168     38.2784E-09     47.4891E-03    -24.7761E+06    -115.096E+06    -24.6007E+06    -66.9496E+03    -27.3541E-03     54.7431E-03    -27.3890E-03     3.28728E-03    -27.2755E-03     54.2393E-03    -27.3091E-03     3.28479E-03
             169    -70.0748E-09     46.4874E-03    -24.6930E+06    -115.204E+06    -24.9712E+06     25.9759E+03    -27.3551E-03     54.6915E-03    -27.3365E-03     3.24099E-03    -27.2753E-03     54.1877E-03    -27.2585E-03     3.23971E-03
             170     126.544E-09     45.4869E-03    -24.9229E+06    -115.142E+06    -24.6980E+06    -52.9887E+03    -27.3282E-03     54.6634E-03    -27.3352E-03     3.35350E-03    -27.2501E-03     54.1598E-03    -27.2556E-03     3.35111E-03
             171    -197.875E-09     44.4852E-03    -24.6602E+06    -115.110E+06    -24.9646E+06    -44.2833E+03    -27.2451E-03     54.5687E-03    -27.3236E-03     3.31194E-03    -27.1653E-03     54.0653E-03    -27.2458E-03     3.30968E-03
             172     123.111E-09     43.4851E-03    -24.8394E+06    -114.988E+06    -24.7037E+06     145.142E+03    -27.2253E-03     54.4624E-03    -27.2370E-03     3.25832E-03    -27.1470E-03     53.9594E-03    -27.1578E-03     3.25863E-03
             173    -72.1263E-09     42.4835E-03    -24.5410E+06    -114.726E+06    -24.6164E+06     9.26903E+03    -27.2093E-03     54.3744E-03    -27.1651E-03     3.20938E-03    -27.1300E-03     53.8722E-03    -27.0862E-03     3.20794E-03
             174     93.0882E-09     41.4836E-03    -24.7233E+06    -114.754E+06    -24.5989E+06     9.60192E+03    -27.1389E-03     54.2470E-03    -27.1081E-03     3.17052E-03    -27.0605E-03     53.7449E-03    -27.0289E-03     3.16912E-03
             175    -63.2851E-09     40.4823E-03    -24.6331E+06    -114.674E+06    -24.7811E+06    -58.3040E+03    -27.0471E-03     54.0918E-03    -27.0447E-03     3.16983E-03    -26.9681E-03     53.5902E-03    -26.9666E-03     3.16749E-03
             176     31.4977E-09     39.4827E-03    -24.7771E+06    -114.636E+06    -24.7702E+06     94.4666E+03    -26.9404E-03     53.9261E-03    -26.9857E-03     3.20702E-03    -26.8621E-03     53.4249E-03    -26.9074E-03     3.20664E-03
             177    -83.7297E-09     38.4816E-03    -24.5354E+06    -114.350E+06    -24.6358E+06    -22.0484E+03    -26.8470E-03     53.7381E-03    -26.8911E-03     3.17300E-03    -26.7681E-03     53.2378E-03    -26.8129E-03     3.17121E-03
             178     52.8813E-09     37.4825E-03    -24.7428E+06    -114.389E+06    -24.7961E+06     102.463E+03    -26.7258E-03     53.4872E-03    -26.7614E-03     3.08880E-03    -26.6477E-03     52.9872E-03    -26.6837E-03     3.08864E-03
             179    -89.4927E-09     36.4819E-03    -24.7116E+06    -114.139E+06    -24.6402E+06    -1.29039E+03    -26.6120E-03     53.2448E-03    -26.6328E-03     3.02774E-03    -26.5344E-03     52.7458E-03    -26.5546E-03     3.02631E-03
             180     86.3007E-09     35.4834E-03    -24.5275E+06    -113.912E+06    -24.7575E+06     34.3270E+03    -26.4817E-03     52.9842E-03    -26.5025E-03     2.94056E-03    -26.4033E-03     52.4863E-03    -26.4255E-03     2.93961E-03
             181    -126.019E-09     34.4832E-03    -24.6583E+06    -113.624E+06    -24.4632E+06     23.0237E+03    -26.3083E-03     52.6689E-03    -26.3606E-03     2.91393E-03    -26.2313E-03     52.1722E-03    -26.2824E-03     2.91285E-03
             182     72.2206E-09     33.4852E-03    -24.4250E+06    -113.400E+06    -24.7466E+06     83.3674E+03    -26.1396E-03     52.3123E-03    -26.1727E-03     3.04347E-03    -26.0614E-03     51.8167E-03    -26.0966E-03     3.04311E-03
             183    -84.3719E-09     32.4854E-03    -24.2896E+06    -112.768E+06    -24.0520E+06     227.828E+03    -25.9411E-03     51.8749E-03    -25.9339E-03     3.14623E-03    -25.8641E-03     51.3813E-03    -25.8554E-03     3.14767E-03
             184     107.293E-09     31.4887E-03    -24.4008E+06    -112.822E+06    -24.5667E+06     25.9566E+03    -25.6688E-03     51.3344E-03    -25.6656E-03     3.09074E-03    -25.5916E-03     50.8415E-03    -25.5895E-03     3.08964E-03
             185    -130.908E-09     30.4901E-03    -24.2373E+06    -112.316E+06    -24.2998E+06     375.545E+03    -25.3758E-03     50.7700E-03    -25.3942E-03     2.91918E-03    -25.2989E-03     50.2790E-03    -25.3177E-03     2.92273E-03
             186     117.497E-09     29.4947E-03    -23.9336E+06    -111.562E+06    -23.7522E+06     61.7963E+03    -25.0639E-03     50.1898E-03    -25.1259E-03     2.79590E-03    -24.9873E-03     49.7013E-03    -25.0482E-03     2.79544E-03
             187    -214.513E-09     28.4968E-03    -23.4014E+06    -110.887E+06    -23.7574E+06     225.711E+03    -24.7317E-03     49.5269E-03    -24.7951E-03     2.79204E-03    -24.6535E-03     49.0410E-03    -24.7192E-03     2.79365E-03
             188     192.575E-09     27.5028E-03    -23.2363E+06    -110.055E+06    -23.0073E+06     176.796E+03    -24.4015E-03     48.8008E-03    -24.3993E-03     2.77512E-03    -24.3248E-03     48.3177E-03    -24.3211E-03     2.77611E-03
             189    -167.634E-09     26.5065E-03    -22.9324E+06    -109.457E+06    -23.2903E+06     236.710E+03    -23.9996E-03     47.9901E-03    -23.9905E-03     2.66330E-03    -23.9218E-03     47.5100E-03    -23.9150E-03     2.66521E-03
             190     151.422E-09     25.5141E-03    -22.7099E+06    -108.321E+06    -22.4984E+06     383.745E+03    -23.5274E-03     47.0810E-03    -23.5536E-03     2.47369E-03    -23.4513E-03     46.6051E-03    -23.4761E-03     2.47763E-03
             191    -181.657E-09     24.5197E-03    -22.4101E+06    -107.542E+06    -22.5541E+06     276.658E+03    -23.0325E-03     46.0733E-03    -23.0408E-03     2.40457E-03    -22.9559E-03     45.6010E-03    -22.9652E-03     2.40719E-03
             192     192.983E-09     23.5289E-03    -21.9166E+06    -106.303E+06    -22.0500E+06     561.711E+03    -22.4619E-03     44.9528E-03    -22.4909E-03     2.37187E-03    -22.3854E-03     44.4852E-03    -22.4152E-03     2.37816E-03
             193    -259.337E-09     22.5371E-03    -21.5139E+06    -105.063E+06    -21.4015E+06     284.781E+03    -21.8496E-03     43.7691E-03    -21.9195E-03     2.19189E-03    -21.7737E-03     43.3061E-03    -21.8429E-03     2.19468E-03
             194     201.736E-09     21.5486E-03    -20.9369E+06    -103.848E+06    -21.2788E+06     371.446E+03    -21.2442E-03     42.5454E-03    -21.3012E-03     1.99410E-03    -21.1674E-03     42.0875E-03    -21.2266E-03     1.99810E-03
             195    -250.120E-09     20.5593E-03    -20.3860E+06    -102.248E+06    -20.3043E+06     583.223E+03    -20.6272E-03     41.2628E-03    -20.6356E-03     1.90920E-03    -20.5514E-03     40.8107E-03    -20.5593E-03     1.91600E-03
             196     283.146E-09     19.5729E-03    -19.6062E+06    -100.555E+06    -19.7035E+06     472.757E+03    -19.9619E-03     39.8500E-03    -19.8881E-03     1.78131E-03    -19.8855E-03     39.4043E-03    -19.8124E-03     1.78673E-03
             197    -188.354E-09     18.5868E-03    -19.0032E+06    -98.6446E+06    -18.8155E+06     671.995E+03    -19.2429E-03     38.3797E-03    -19.1368E-03     1.58975E-03    -19.1676E-03     37.9415E-03    -19.0603E-03     1.59780E-03
             198     281.929E-09     17.6033E-03    -17.9162E+06    -96.4530E+06    -17.7280E+06     601.167E+03    -18.5546E-03     36.9771E-03    -18.4226E-03     1.38736E-03    -18.4786E-03     36.5467E-03    -18.3454E-03     1.39462E-03
             199    -140.818E-09     16.6199E-03    -16.4928E+06    -93.8137E+06    -16.8781E+06     933.834E+03    -17.7846E-03     35.4831E-03    -17.6985E-03     1.14069E-03    -17.7066E-03     35.0625E-03    -17.6229E-03     1.15233E-03
             200     147.207E-09     15.6394E-03    -14.8125E+06    -90.0196E+06    -14.8839E+06     1.25255E+06    -17.0053E-03     34.0241E-03    -17.0188E-03     938.918E-06    -16.9272E-03     33.6172E-03    -16.9412E-03     954.723E-06
             201    -178.607E-09     14.6589E-03    -11.7952E+06    -85.5413E+06    -12.2280E+06     1.27721E+06    -16.3179E-03     32.6799E-03    -16.3620E-03     849.172E-06    -16.2350E-03     32.2871E-03    -16.2820E-03     865.308E-06
             202     126.594E-09     13.6804E-03    -7.99261E+06    -80.7203E+06    -7.90684E+06     1.43166E+06    -15.5697E-03     31.0972E-03    -15.5275E-03     834.337E-06    -15.4811E-03     30.7167E-03    -15.4384E-03     852.517E-06
             203     1.16452E-09     12.7030E-03    -7.01773E+06    -77.5592E+06    -6.68815E+06     792.623E+03    -14.6698E-03     29.2128E-03    -14.5430E-03     717.047E-06    -14.5826E-03     28.8450E-03    -14.4538E-03     727.040E-06
             204     99.6746E-09     11.7288E-03    -8.67058E+06    -75.5148E+06    -8.67511E+06     433.298E+03    -13.7158E-03     27.3310E-03    -13.6153E-03     473.976E-06    -13.6370E-03     26.9788E-03    -13.5366E-03     479.335E-06
             205    -22.0602E-09     10.7549E-03    -11.3835E+06    -74.6738E+06    -11.2038E+06     71.8727E+03    -12.8721E-03     25.7257E-03    -12.8537E-03     404.301E-06    -12.8043E-03     25.3853E-03    -12.7849E-03     404.953E-06
             206    -21.0195E-09     9.78365E-03    -13.3876E+06    -74.5928E+06    -13.3155E+06    -68.3635E+03    -12.3972E-03     24.7528E-03    -12.3557E-03     500.920E-06    -12.3365E-03     24.4187E-03    -12.2947E-03     499.748E-06
             207     138.391E-09     8.81163E-03    -14.6117E+06    -75.4798E+06    -13.9444E+06     -398.37E+03    -12.3980E-03     24.7046E-03    -12.3066E-03     716.669E-06    -12.3412E-03     24.3688E-03    -12.2457E-03     711.244E-06
             208    -86.0178E-09     7.84049E-03    -13.5600E+06    -76.9683E+06    -13.4336E+06    -590.160E+03    -12.8226E-03     25.6562E-03    -12.8336E-03     922.455E-06    -12.7591E-03     25.3107E-03    -12.7695E-03     914.589E-06
             209     15.0774E-09     6.86661E-03    -11.3815E+06    -79.0307E+06    -11.3237E+06    -736.407E+03    -13.7180E-03     27.4802E-03    -13.7622E-03     1.04685E-03    -13.6437E-03     27.1181E-03    -13.6877E-03     1.03712E-03
             210    -22.4258E-09     5.89181E-03    -9.48584E+06    -81.5354E+06    -9.57090E+06    -866.629E+03    -14.8528E-03     29.7460E-03    -14.8932E-03     1.16219E-03    -14.7679E-03     29.3660E-03    -14.8090E-03     1.15081E-03
             211    -43.2541E-09     4.91345E-03    -9.75451E+06    -84.2915E+06    -9.70407E+06    -804.233E+03    -16.0082E-03     32.0195E-03    -16.0113E-03     1.12742E-03    -15.9205E-03     31.6264E-03    -15.9234E-03     1.11690E-03
             212     103.492E-09     3.93429E-03    -10.8401E+06    -86.7556E+06    -10.6607E+06    -694.318E+03    -17.0423E-03     34.0875E-03    -17.0451E-03     1.00892E-03    -16.9550E-03     33.6850E-03    -16.9569E-03     999.831E-06
             213    -167.065E-09     2.95215E-03    -11.7201E+06    -89.1428E+06    -11.8715E+06    -749.742E+03    -17.9235E-03     35.8823E-03    -17.9587E-03     813.652E-06    -17.8354E-03     35.4710E-03    -17.8719E-03     803.840E-06
             214     166.042E-09     1.96920E-03    -12.7528E+06    -91.2898E+06    -12.9566E+06    -492.313E+03    -18.6280E-03     37.2437E-03    -18.6157E-03     576.591E-06    -18.5402E-03     36.8248E-03    -18.5296E-03     570.168E-06
             215    -146.330E-09     984.663E-06    -13.8309E+06    -92.7865E+06    -13.5848E+06    -322.620E+03    -19.0362E-03     38.0194E-03    -18.9832E-03     290.383E-06    -18.9506E-03     37.5955E-03    -18.8966E-03     286.225E-06
             216     883.003E-06    -13.8778E-18    -13.6601E+06    -92.9923E+06    -13.6255E+06    -394.636E+03    -19.2353E-03     38.3714E-03    -19.1361E-03     232.893E-06    -19.1487E-03     37.9461E-03    -19.0495E-03     227.788E-06
             217     1.76567E-03    -13.8778E-18    -13.1257E+06    -92.6422E+06    -13.1138E+06    -418.425E+03    -19.4344E-03     38.6709E-03    -19.2364E-03     473.578E-06    -19.3467E-03     38.2457E-03    -19.1486E-03     468.134E-06
             218     2.64851E-03    -13.8778E-18    -12.2773E+06    -92.2637E+06    -12.6924E+06    -603.457E+03    -19.7651E-03     39.1194E-03    -19.3543E-03     693.739E-06    -19.6743E-03     38.6943E-03    -19.2661E-03     685.862E-06
             219     3.53036E-03    -13.8778E-18    -11.4503E+06    -92.2345E+06    -12.7961E+06    -652.567E+03    -20.2211E-03     39.7296E-03    -19.5085E-03     1.01921E-03    -20.1261E-03     39.3036E-03    -19.4221E-03     1.01068E-03
             220     4.41245E-03    -13.8778E-18    -10.5344E+06    -92.7547E+06    -13.9771E+06    -1.00509E+06    -20.8219E-03     40.5218E-03    -19.6998E-03     1.32764E-03    -20.7198E-03     40.0935E-03    -19.6200E-03     1.31452E-03
             221     5.29326E-03    -13.8778E-18    -8.92128E+06    -92.9357E+06    -15.1193E+06    -1.63536E+06    -21.5589E-03     41.4928E-03    -19.9339E-03     1.67809E-03    -21.4468E-03     41.0630E-03    -19.8618E-03     1.65677E-03
             222     6.17398E-03    -13.8778E-18    -6.91401E+06    -93.3358E+06    -17.1170E+06    -1.95942E+06    -22.3986E-03     42.6040E-03    -20.2054E-03     2.10836E-03    -22.2730E-03     42.1721E-03    -20.1456E-03     2.08275E-03
             223     7.05320E-03    -13.8778E-18    -3.98748E+06    -94.2749E+06    -23.2352E+06    -3.52787E+06    -23.4239E-03     43.9224E-03    -20.4985E-03     2.57903E-03    -23.2734E-03     43.4905E-03    -20.4722E-03     2.53300E-03
             224     7.93244E-03    -13.8778E-18     14.0889E+03    -90.2667E+06    -30.3578E+06    -4.25647E+06    -24.4939E-03     45.3129E-03    -20.8190E-03     2.95053E-03    -24.3189E-03     44.9056E-03    -20.8399E-03     2.89499E-03
             225     8.80933E-03    -13.8778E-18     3.98822E+06    -79.2784E+06    -34.8773E+06    -4.19035E+06    -25.7720E-03     46.9561E-03    -21.1841E-03     4.05953E-03    -25.5866E-03     46.6045E-03    -21.2493E-03     4.00423E-03
             226     9.68620E-03    -13.8778E-18     6.76322E+06    -61.5216E+06    -36.6866E+06    -3.72302E+06    -27.0910E-03     48.6890E-03    -21.5980E-03     4.50715E-03    -26.9148E-03     48.4249E-03    -21.7020E-03     4.45759E-03
             227     10.5611E-03    -13.8778E-18     9.29747E+06    -34.9705E+06    -32.5287E+06    -3.21087E+06    -28.5188E-03     50.5885E-03    -22.0697E-03     5.66831E-03    -28.3745E-03     50.4475E-03    -22.1951E-03     5.62405E-03
             228     11.4349E-03    -13.8778E-18     10.0753E+06    -3.24462E+06    -24.1034E+06    -1.38754E+06    -30.1265E-03     52.7280E-03    -22.6015E-03     6.95912E-03    -30.0367E-03     52.7323E-03    -22.7319E-03     6.93780E-03
             229     12.3061E-03    -13.8778E-18     8.75265E+06     23.7166E+06    -6.88168E+06     603.004E+03    -31.8147E-03     55.0470E-03    -23.2323E-03     8.90666E-03    -31.7957E-03     55.1634E-03    -23.3138E-03     8.90859E-03
             230     13.1773E-03    -13.8778E-18     4.92569E+06     37.1368E+06     12.5876E+06     1.81751E+06    -34.1454E-03     58.1029E-03    -23.9575E-03     11.2890E-03    -34.1936E-03     58.2639E-03    -23.9555E-03     11.3039E-03
             231     14.0433E-03    -13.8778E-18     7.32525E+06     48.9771E+06     31.6966E+06    -1.80361E+06    -38.0326E-03     62.8211E-03    -24.7885E-03     15.7547E-03    -38.1144E-03     63.0111E-03    -24.7116E-03     15.7162E-03
             232     14.9066E-03    -13.8778E-18     11.7012E+06     65.5909E+06      60.333E+06    -432.538E+03    -47.4042E-03     73.3559E-03    -25.9517E-03     35.7744E-03    -47.5314E-03     73.5790E-03    -25.7621E-03     35.7585E-03
             233     15.7362E-03    -13.8778E-18     4.82721E+06     68.6334E+06     70.6147E+06     5.71036E+06    -55.9164E-03     83.3631E-03    -27.4467E-03     49.8888E-03    -56.1086E-03     83.6099E-03    -27.2001E-03     49.8986E-03
             234     16.5960E-03    -13.8778E-18     7.27617E+06     84.7134E+06     77.3304E+06     6.35411E+06    -79.7458E-03     109.291E-03    -29.5450E-03     80.4125E-03    -80.2649E-03     109.926E-03    -29.2917E-03     79.6656E-03
             235     17.4591E-03     1.14063E-03    -3.39388E+06     106.919E+06     80.4591E+06     4.80769E+06    -115.491E-03     145.007E-03    -29.5161E-03     157.201E-03    -117.500E-03     147.189E-03    -29.2639E-03     154.572E-03
             236     17.4706E-03     2.29941E-03    -5.51792E+06     118.667E+06     72.1529E+06     12.2163E+06    -116.925E-03     144.567E-03    -27.6427E-03     208.437E-03    -120.779E-03     148.643E-03    -27.4460E-03     205.267E-03
             237     17.5139E-03     3.38644E-03     6.13025E+06     136.790E+06     82.4085E+06     9.58448E+06    -102.626E-03     129.379E-03    -26.7530E-03     257.752E-03    -109.103E-03     136.143E-03    -26.5482E-03     255.637E-03
             238     17.5078E-03     4.48308E-03    -6.21716E+06     144.703E+06     93.0139E+06    -1.53169E+06    -108.389E-03     134.610E-03    -26.2213E-03     292.445E-03    -117.234E-03     143.700E-03    -25.9571E-03     290.242E-03
             239     17.5121E-03     5.57507E-03    -6.64692E+06     151.268E+06     98.8682E+06     2.94831E+06    -104.802E-03     131.073E-03    -26.2712E-03     298.079E-03    -115.004E-03     141.504E-03    -25.9866E-03     297.139E-03
             240     17.5137E-03     6.60286E-03    -3.98408E+06     157.662E+06     102.782E+06     3.90076E+06    -96.2887E-03     122.688E-03    -26.3989E-03     311.499E-03    -107.692E-03     134.340E-03    -26.1079E-03     312.257E-03
             241     17.5140E-03     7.68943E-03    -4.42074E+06     160.112E+06     103.646E+06     2.68896E+06    -96.8572E-03     123.194E-03    -26.3372E-03     317.448E-03    -109.122E-03     135.717E-03    -26.0447E-03     318.678E-03
             242     17.5158E-03     8.73275E-03    -1.54870E+06     164.279E+06     104.948E+06     1.10956E+06    -90.6892E-03     117.103E-03    -26.4138E-03     325.596E-03    -103.929E-03     130.614E-03    -26.1251E-03     328.110E-03
             243     17.5175E-03     9.77662E-03    -2.15330E+06     166.620E+06     106.141E+06     1.01728E+06    -88.7455E-03     115.230E-03    -26.4841E-03     328.251E-03    -102.795E-03     129.557E-03    -26.1919E-03     331.696E-03
             244     17.5106E-03     10.8361E-03    -1.50968E+06     169.487E+06     107.184E+06     1.45132E+06    -84.5485E-03     111.207E-03    -26.6584E-03     327.102E-03    -99.2107E-03     126.154E-03    -26.3661E-03     331.595E-03
             245     17.5165E-03     11.8514E-03    -2.70933E+06     170.526E+06     106.480E+06     564.849E+03    -80.1660E-03     106.875E-03    -26.7089E-03     330.662E-03    -95.2701E-03     122.267E-03    -26.4199E-03     336.241E-03
             246     17.5157E-03     12.9085E-03    -3.48890E+06     172.292E+06     107.838E+06    -597.819E+03    -83.4795E-03     110.087E-03    -26.6078E-03     335.096E-03    -99.1913E-03     126.091E-03    -26.3134E-03     340.671E-03
             247     17.5138E-03     13.9562E-03    -2.42091E+06     176.586E+06     110.532E+06    -275.566E+03    -80.0982E-03     106.880E-03    -26.7821E-03     339.366E-03    -96.7520E-03     123.832E-03    -26.4820E-03     345.986E-03
             248     17.5126E-03     14.9780E-03    -4.07613E+06     177.943E+06     110.661E+06     1.02858E+06    -75.9118E-03     102.890E-03    -26.9778E-03     347.043E-03    -93.5235E-03     120.798E-03    -26.6766E-03     355.042E-03
             249     17.5118E-03     16.0237E-03    -3.91713E+06     178.769E+06     111.542E+06     315.076E+03    -74.5603E-03     101.635E-03    -27.0745E-03     351.411E-03    -92.6913E-03     120.064E-03    -26.7703E-03     359.852E-03
             250     17.5112E-03     17.0483E-03    -3.80915E+06     178.089E+06     111.088E+06     436.892E+03    -69.2990E-03     96.5156E-03    -27.2165E-03     353.320E-03    -87.7097E-03     115.222E-03    -26.9138E-03     362.834E-03
             251     17.5124E-03     18.0627E-03    -3.90411E+06     178.607E+06     111.988E+06    -299.342E+03    -67.3963E-03     94.6410E-03    -27.2448E-03     350.865E-03    -85.7994E-03     113.340E-03    -26.9381E-03     361.045E-03
             252     17.5114E-03     19.0955E-03    -1.18017E+06     181.985E+06     115.632E+06     449.537E+03    -66.8910E-03     94.1389E-03    -27.2480E-03     353.037E-03    -85.6448E-03     113.200E-03    -26.9320E-03     363.566E-03
             253     17.5138E-03     20.1205E-03    -2.11837E+06     182.059E+06     115.214E+06     136.057E+03    -63.6685E-03     90.9860E-03    -27.3174E-03     360.810E-03    -83.2451E-03     110.867E-03    -27.0023E-03     372.223E-03
             254     17.5121E-03     21.1367E-03    -2.63491E+06     182.120E+06     115.484E+06     145.354E+03    -61.2993E-03     88.6705E-03    -27.3712E-03     366.078E-03    -81.3431E-03     109.017E-03    -27.0540E-03     378.107E-03
             255     17.5147E-03     22.1574E-03    -2.01639E+06     183.280E+06     116.552E+06     471.642E+03    -59.3422E-03     86.7527E-03    -27.4105E-03     370.210E-03    -79.7715E-03     107.488E-03    -27.0906E-03     382.783E-03
             256     17.5129E-03     23.1678E-03    -1.46261E+06     184.285E+06     117.282E+06    -200.678E+03    -57.0155E-03     84.4665E-03    -27.4509E-03     371.009E-03    -77.6228E-03     105.382E-03    -27.1296E-03     384.165E-03
             257     17.5153E-03     24.1769E-03    -4.20643E+06     183.520E+06     116.225E+06     172.155E+03    -56.2624E-03     83.7246E-03    -27.4622E-03     371.095E-03    -76.9870E-03     104.749E-03    -27.1411E-03     384.615E-03
             258     17.5128E-03     25.1922E-03    -3.02174E+06     184.945E+06     117.371E+06     1.06616E+06    -54.9814E-03     82.4629E-03    -27.4815E-03     371.582E-03    -75.8969E-03     103.684E-03    -27.1584E-03     385.548E-03
             259     17.5163E-03     26.1962E-03    -2.12237E+06     186.308E+06     118.230E+06     66.9398E+03    -53.1572E-03     80.6704E-03    -27.5132E-03     374.547E-03    -74.3954E-03     102.220E-03    -27.1892E-03     388.947E-03
             260     17.5133E-03     27.2111E-03    -4.41653E+06     186.255E+06     117.610E+06     367.520E+03    -53.3171E-03     80.8476E-03    -27.5305E-03     377.354E-03    -74.8920E-03     102.727E-03    -27.2062E-03     391.924E-03
             261     17.5149E-03     28.2131E-03    -3.16669E+06     187.626E+06     118.590E+06     1.58485E+06    -51.5735E-03     79.1291E-03    -27.5556E-03     375.097E-03    -72.9672E-03     100.834E-03    -27.2302E-03     389.992E-03
             262     17.5156E-03     29.2161E-03    -4.16201E+06     186.754E+06     117.531E+06    -675.116E+03    -50.9139E-03     78.4448E-03    -27.5308E-03     373.651E-03    -72.1563E-03     99.9946E-03    -27.2079E-03     388.629E-03
             263     17.5150E-03     30.2252E-03    -4.87965E+06     186.131E+06     117.266E+06    -816.842E+03    -52.6292E-03     80.1333E-03    -27.5042E-03     371.543E-03    -73.8106E-03     101.618E-03    -27.1806E-03     386.320E-03
             264     17.5138E-03     31.2317E-03    -2.30034E+06     188.985E+06     119.725E+06     1.17124E+06    -50.8458E-03     78.3759E-03    -27.5301E-03     373.754E-03    -72.2114E-03     100.057E-03    -27.2022E-03     388.966E-03
             265     17.5189E-03     32.2392E-03    -2.22971E+06     189.485E+06     120.048E+06      99.695E+03    -49.2333E-03     76.7783E-03    -27.5450E-03     379.891E-03    -71.1268E-03     98.9884E-03    -27.2163E-03     395.534E-03
             266     17.5131E-03     33.2459E-03    -2.69629E+06     189.194E+06     119.909E+06    -271.179E+03    -47.9911E-03     75.5690E-03    -27.5779E-03     381.095E-03    -70.0757E-03     97.9680E-03    -27.2488E-03     397.023E-03
             267     17.5196E-03     34.2380E-03    -1.09988E+06     190.885E+06     121.327E+06     1.02729E+06    -47.7527E-03     75.3092E-03    -27.5565E-03     382.854E-03    -69.9089E-03     97.7876E-03    -27.2250E-03     398.880E-03
             268     17.5149E-03     35.2522E-03    -3.15667E+06     190.341E+06     120.519E+06    -488.066E+03    -50.3080E-03     77.8354E-03    -27.5274E-03     382.776E-03    -72.6718E-03     100.514E-03    -27.1962E-03     398.501E-03
             269     17.5151E-03     36.2504E-03    -4.07647E+06     189.264E+06     120.034E+06    -84.7027E+03    -48.9558E-03     76.5540E-03    -27.5982E-03     378.354E-03    -71.0770E-03     98.9847E-03    -27.2666E-03     394.299E-03
             270     17.5158E-03     37.2450E-03    -2.42947E+06     189.150E+06     120.138E+06     487.282E+03    -48.3255E-03     75.9115E-03    -27.5861E-03     375.716E-03    -70.0116E-03     97.9123E-03    -27.2561E-03     391.647E-03
             271     17.5157E-03     38.2577E-03    -2.95385E+06     190.386E+06     120.713E+06    -1.19972E+06    -50.0158E-03     77.5803E-03    -27.5646E-03     375.003E-03    -71.7065E-03     99.5865E-03    -27.2328E-03     390.640E-03
             272     17.5135E-03     39.2597E-03    -4.10826E+06     191.246E+06     120.716E+06     816.215E+03    -48.2314E-03     75.8490E-03    -27.6176E-03     378.669E-03    -70.2026E-03     98.1345E-03    -27.2854E-03     394.725E-03
             273     17.5184E-03     40.2617E-03    -2.69490E+06     192.661E+06     121.538E+06     1.70150E+06    -45.7167E-03     73.3349E-03    -27.6183E-03     380.418E-03    -67.7067E-03     95.6468E-03    -27.2860E-03     396.826E-03
             274     17.5158E-03     41.2598E-03    -3.35515E+06     192.246E+06     121.346E+06    -749.127E+03    -47.0077E-03     74.5873E-03    -27.5796E-03     380.087E-03    -69.1384E-03     97.0366E-03    -27.2467E-03     396.407E-03
             275     17.5163E-03     42.2650E-03    -3.10053E+06     192.537E+06     121.819E+06    -338.919E+03    -48.3059E-03     75.8485E-03    -27.5426E-03     381.683E-03    -70.5774E-03     98.4393E-03    -27.2082E-03     397.822E-03
             276     17.5186E-03     43.2685E-03    -2.36586E+06     193.335E+06     122.686E+06     400.757E+03    -48.0925E-03     75.6345E-03    -27.5420E-03     383.502E-03    -70.5050E-03     98.3692E-03    -27.2055E-03     399.708E-03
             277     17.5145E-03     44.2701E-03    -2.87729E+06     192.955E+06     121.934E+06    -101.902E+03    -47.3256E-03     74.9154E-03    -27.5898E-03     376.613E-03    -69.5043E-03     97.4153E-03    -27.2557E-03     393.006E-03
             278     17.5162E-03     45.2580E-03    -2.37777E+06     193.483E+06     122.063E+06     619.341E+03    -47.0972E-03     74.6753E-03    -27.5781E-03     373.851E-03    -69.0719E-03     96.9747E-03    -27.2449E-03     390.405E-03
             279     17.5174E-03     46.2793E-03    -3.91330E+06     193.125E+06     121.322E+06     344.821E+03    -49.1919E-03     76.7138E-03    -27.5219E-03     383.770E-03    -71.6955E-03     99.5376E-03    -27.1897E-03     399.910E-03
             280     17.5162E-03     47.2833E-03    -4.50798E+06     193.344E+06     121.665E+06    -215.443E+03    -48.7490E-03     76.3278E-03    -27.5787E-03     386.457E-03    -71.5187E-03     99.4152E-03    -27.2442E-03     402.604E-03
             281     17.5149E-03     48.2720E-03    -2.49905E+06     194.056E+06     123.088E+06     160.372E+03    -46.3121E-03     73.9659E-03    -27.6538E-03     379.931E-03    -68.6343E-03     96.6111E-03    -27.3161E-03     396.572E-03
             282     17.5163E-03     49.2766E-03    -2.50933E+06     192.960E+06     122.014E+06    -1.18572E+06    -45.8642E-03     73.5038E-03    -27.6396E-03     376.620E-03    -67.7863E-03     95.7483E-03    -27.3057E-03     393.159E-03
             283     17.5157E-03     50.2729E-03    -4.57195E+06     192.486E+06     120.940E+06     186.571E+03    -47.9330E-03     75.5251E-03    -27.5921E-03     377.443E-03    -69.8105E-03     97.7191E-03    -27.2599E-03     393.585E-03
             284     17.5155E-03     51.2850E-03    -4.97076E+06     193.963E+06     121.712E+06     1.47437E+06    -48.1692E-03     75.7675E-03    -27.5983E-03     378.949E-03    -70.2203E-03     98.1367E-03    -27.2638E-03     395.111E-03
             285     17.5161E-03     52.2814E-03    -3.32834E+06     195.804E+06     122.861E+06     823.983E+03    -46.8292E-03     74.4428E-03    -27.6136E-03     382.638E-03    -69.1857E-03     97.1263E-03    -27.2784E-03     399.129E-03
             286     17.5173E-03     53.2859E-03    -1.75325E+06     197.132E+06     124.114E+06     526.196E+03    -46.0184E-03     73.6126E-03    -27.5942E-03     382.627E-03    -68.3239E-03     96.2518E-03    -27.2570E-03     399.149E-03
             287     17.5172E-03     54.2825E-03    -2.41488E+06     196.899E+06     123.977E+06    -224.636E+03    -46.5177E-03     74.0965E-03    -27.5788E-03     382.222E-03    -68.8609E-03     96.7707E-03    -27.2409E-03     398.729E-03
             288     17.5162E-03     55.2853E-03    -2.54423E+06     197.195E+06     124.483E+06     68.3692E+03    -47.9144E-03     75.4793E-03    -27.5650E-03     380.878E-03    -70.2309E-03     98.1259E-03    -27.2248E-03     397.190E-03
             289     17.5165E-03     56.2873E-03    -2.39601E+06     197.150E+06     124.371E+06    -18.9112E+03    -46.5515E-03     74.1428E-03    -27.5913E-03     377.342E-03    -68.5918E-03     96.5140E-03    -27.2519E-03     393.793E-03
             290     17.5165E-03     57.2811E-03    -3.81468E+06     195.732E+06     122.772E+06    -710.236E+03    -47.1527E-03     74.7334E-03    -27.5807E-03     375.820E-03    -69.0481E-03     96.9542E-03    -27.2451E-03     392.191E-03
             291     17.5154E-03     58.2905E-03    -4.52161E+06     195.117E+06     122.461E+06    -680.308E+03    -49.6595E-03     77.2004E-03    -27.5409E-03     375.429E-03    -71.5495E-03     99.4121E-03    -27.2049E-03     391.416E-03
             292     875.644E-06     58.5057E-03    -24.8194E+06    -115.639E+06    -24.4521E+06     56.9287E+03    -27.4757E-03     54.9196E-03    -27.4439E-03     5.64178E-03    -27.3968E-03     54.4130E-03    -27.3624E-03     5.63963E-03
             293     1.75147E-03     58.5131E-03    -24.2032E+06    -114.665E+06    -22.7734E+06     36.7679E+03    -27.4869E-03     54.9500E-03    -27.4630E-03     10.4476E-03    -27.4091E-03     54.4452E-03    -27.3755E-03     10.4426E-03
             294     2.62698E-03     58.5256E-03    -23.3622E+06    -113.279E+06    -20.1947E+06     1.95323E+03    -27.5037E-03     54.9752E-03    -27.4715E-03     15.5443E-03    -27.4280E-03     54.4729E-03    -27.3743E-03     15.5358E-03
             295     3.50292E-03     58.5426E-03    -22.1253E+06    -111.461E+06    -16.7998E+06     22.4602E+03    -27.5396E-03     55.0192E-03    -27.4796E-03     20.7320E-03    -27.4660E-03     54.5202E-03    -27.3699E-03     20.7203E-03
             296     4.37840E-03     58.5649E-03    -20.6791E+06    -109.478E+06    -12.9807E+06     94.3973E+03    -27.5843E-03     55.0726E-03    -27.4882E-03     25.9829E-03    -27.5132E-03     54.5770E-03    -27.3644E-03     25.9679E-03
             297     5.25444E-03     58.5920E-03    -19.0287E+06    -107.526E+06    -9.09573E+06     206.942E+03    -27.6499E-03     55.1462E-03    -27.4962E-03     31.2544E-03    -27.5809E-03     54.6542E-03    -27.3582E-03     31.2358E-03
             298     6.12985E-03     58.6244E-03    -17.5859E+06    -103.630E+06    -6.07182E+06     279.054E+03    -27.7338E-03     55.2316E-03    -27.4978E-03     36.6110E-03    -27.6702E-03     54.7553E-03    -27.3524E-03     36.5870E-03
             299     7.00597E-03     58.6617E-03    -15.9890E+06    -99.1071E+06    -3.84795E+06     389.676E+03    -27.8432E-03     55.3387E-03    -27.4955E-03     41.9958E-03    -27.7852E-03     54.8832E-03    -27.3478E-03     41.9654E-03
             300     7.88134E-03     58.7043E-03    -14.4992E+06    -94.7904E+06    -2.76755E+06     519.841E+03    -27.9765E-03     55.4662E-03    -27.4897E-03     47.4250E-03    -27.9244E-03     55.0341E-03    -27.3451E-03     47.3863E-03
             301     8.75742E-03     58.7521E-03    -13.3348E+06    -88.9001E+06    -1.88147E+06     723.662E+03    -28.0950E-03     55.5766E-03    -27.4816E-03     52.8937E-03    -28.0548E-03     55.1789E-03    -27.3428E-03     52.8451E-03
             302     9.63291E-03     58.8052E-03    -12.2735E+06    -82.8534E+06    -2.38760E+06     799.128E+03    -28.2036E-03     55.6682E-03    -27.4646E-03     58.3479E-03    -28.1774E-03     55.3112E-03    -27.3386E-03     58.2849E-03
             303     10.5090E-03     58.8635E-03    -11.6814E+06    -75.3196E+06    -6.37764E+06     832.507E+03    -28.4381E-03     55.8692E-03    -27.4311E-03     63.5958E-03    -28.4313E-03     55.5720E-03    -27.3369E-03     63.5128E-03
             304     11.3839E-03     58.9265E-03    -10.8126E+06    -58.8708E+06    -7.19298E+06     856.082E+03    -28.5718E-03     55.9744E-03    -27.4027E-03     69.6443E-03    -28.6098E-03     55.7859E-03    -27.3376E-03     69.5363E-03
             305     12.2617E-03     58.9965E-03    -10.3569E+06    -37.7456E+06    -6.00202E+06     1.19646E+06    -28.5676E-03     55.9395E-03    -27.3719E-03     74.8871E-03    -28.6699E-03     55.8884E-03    -27.3322E-03     74.7580E-03
             306     13.1344E-03     59.0688E-03    -9.66422E+06    -20.2048E+06    -11.7105E+06     1.23164E+06    -28.6038E-03     55.9097E-03    -27.3059E-03     78.8304E-03    -28.7801E-03     56.0139E-03    -27.3211E-03     78.6669E-03
             307     14.0140E-03     59.1489E-03    -11.3679E+06     13.9183E+06    -26.0391E+06     325.366E+03    -29.6105E-03     56.7890E-03    -27.1785E-03     101.551E-03    -30.0498E-03     57.3129E-03    -27.3124E-03     101.308E-03
             308     14.8892E-03     59.2611E-03    -12.8636E+06     67.0381E+06    -15.5077E+06    -792.475E+03    -36.5654E-03     63.7442E-03    -27.1787E-03     186.115E-03    -38.5126E-03     65.9286E-03    -27.3348E-03     185.752E-03
             309     15.7583E-03     59.5086E-03    -10.6707E+06     132.237E+06     45.6013E+06     107.226E+03    -48.6462E-03     76.0869E-03    -27.4407E-03     325.485E-03    -58.9664E-03     86.7064E-03    -27.3889E-03     326.532E-03
             310     16.6358E-03     59.9010E-03    -6.23277E+06     183.483E+06     105.491E+06     1.46596E+06    -49.7494E-03     77.3965E-03    -27.6471E-03     391.805E-03    -69.6580E-03     97.6286E-03    -27.3767E-03     401.520E-03
             311     875.748E-06     59.5068E-03    -24.7036E+06    -115.614E+06    -24.4037E+06    -18.0187E+03    -27.4740E-03     54.9261E-03    -27.4520E-03     5.64464E-03    -27.3946E-03     54.4194E-03    -27.3706E-03     5.64151E-03
             312     1.75132E-03     59.5145E-03    -24.1754E+06    -114.751E+06    -22.8274E+06     2.98705E+03    -27.4756E-03     54.9385E-03    -27.4629E-03     10.4307E-03    -27.3974E-03     54.4333E-03    -27.3756E-03     10.4252E-03
             313     2.62721E-03     59.5267E-03    -23.2861E+06    -113.264E+06    -20.0860E+06     51.4636E+03    -27.5029E-03     54.9722E-03    -27.4693E-03     15.5312E-03    -27.4269E-03     54.4697E-03    -27.3717E-03     15.5234E-03
             314     3.50271E-03     59.5440E-03    -22.1896E+06    -111.527E+06    -16.7824E+06     65.0921E+03    -27.5442E-03     55.0226E-03    -27.4784E-03     20.7116E-03    -27.4709E-03     54.5233E-03    -27.3685E-03     20.7004E-03
             315     4.37865E-03     59.5662E-03    -20.7918E+06    -109.543E+06    -13.0087E+06     90.7223E+03    -27.5937E-03     55.0824E-03    -27.4887E-03     25.9491E-03    -27.5230E-03     54.5868E-03    -27.3648E-03     25.9341E-03
             316     5.25411E-03     59.5933E-03    -19.2169E+06    -107.768E+06    -9.32520E+06     177.615E+03    -27.6688E-03     55.1672E-03    -27.4984E-03     31.2361E-03    -27.6000E-03     54.6747E-03    -27.3609E-03     31.2170E-03
             317     6.13015E-03     59.6257E-03    -17.4655E+06    -103.760E+06    -6.27595E+06     375.251E+03    -27.7597E-03     55.2621E-03    -27.5024E-03     36.5811E-03    -27.6951E-03     54.7853E-03    -27.3580E-03     36.5583E-03
             318     7.00554E-03     59.6630E-03    -16.0198E+06    -99.3124E+06    -4.08210E+06     417.139E+03    -27.8779E-03     55.3811E-03    -27.5032E-03     42.0005E-03    -27.8194E-03     54.9251E-03    -27.3564E-03     41.9704E-03
             319     7.88157E-03     59.7058E-03    -14.7307E+06    -95.1162E+06    -2.97194E+06     530.552E+03    -28.0136E-03     55.5147E-03    -27.5011E-03     47.4216E-03    -27.9619E-03     55.0816E-03    -27.3567E-03     47.3829E-03
             320     8.75696E-03     59.7533E-03    -13.4087E+06    -88.9445E+06    -1.95763E+06     639.940E+03    -28.1358E-03     55.6316E-03    -27.4958E-03     52.8905E-03    -28.0958E-03     55.2339E-03    -27.3571E-03     52.8406E-03
             321     9.63289E-03     59.8067E-03    -12.4873E+06    -83.1857E+06    -2.62655E+06     811.821E+03    -28.2765E-03     55.7589E-03    -27.4824E-03     58.3305E-03    -28.2507E-03     55.4011E-03    -27.3568E-03     58.2673E-03
             322     10.5084E-03     59.8645E-03    -11.6083E+06    -75.3752E+06    -6.35308E+06     849.188E+03    -28.4431E-03     55.8942E-03    -27.4512E-03     63.7281E-03    -28.4357E-03     55.5965E-03    -27.3568E-03     63.6456E-03
             323     11.3848E-03     59.9285E-03    -11.5180E+06    -59.1375E+06    -7.64647E+06     771.894E+03    -28.6666E-03     56.0907E-03    -27.4241E-03     69.4263E-03    -28.7070E-03     55.9024E-03    -27.3599E-03     69.3168E-03
             324     12.2588E-03     59.9967E-03    -10.9335E+06    -38.0410E+06    -6.15414E+06     660.297E+03    -28.7291E-03     56.1321E-03    -27.4029E-03     74.7243E-03    -28.8344E-03     56.0813E-03    -27.3627E-03     74.5869E-03
             325     13.1368E-03     60.0725E-03    -10.1270E+06    -20.3785E+06    -11.9377E+06     664.616E+03    -28.8370E-03     56.1850E-03    -27.3480E-03     78.6331E-03    -29.0162E-03     56.2905E-03    -27.3634E-03     78.4595E-03
             326     14.0107E-03     60.1456E-03    -10.0753E+06     14.4760E+06    -24.9379E+06     732.524E+03    -29.9643E-03     57.2048E-03    -27.2404E-03     100.884E-03    -30.4004E-03     57.7288E-03    -27.3715E-03     100.640E-03
             327     14.8845E-03     60.2690E-03    -11.5531E+06     68.0280E+06    -13.8797E+06     187.489E+03    -36.5918E-03     63.8351E-03    -27.2433E-03     188.329E-03    -38.5644E-03     66.0484E-03    -27.3946E-03     187.985E-03
             328     15.7637E-03     60.5083E-03    -12.3973E+06     131.305E+06     44.1758E+06     357.279E+03    -47.7251E-03     75.1781E-03    -27.4530E-03     328.050E-03    -58.0708E-03     85.8179E-03    -27.4045E-03     329.222E-03
             329     16.6381E-03     60.9086E-03    -6.90221E+06     182.894E+06     104.368E+06     896.387E+03    -49.1263E-03     76.7338E-03    -27.6074E-03     391.977E-03    -68.9920E-03     96.9216E-03    -27.3408E-03     401.730E-03
             330     875.639E-06     60.5083E-03    -24.6323E+06    -115.591E+06    -24.2603E+06     3.28570E+03    -27.4621E-03     54.9259E-03    -27.4638E-03     5.66824E-03    -27.3826E-03     54.4190E-03    -27.3817E-03     5.66535E-03
             331     1.75145E-03     60.5157E-03    -24.1726E+06    -114.785E+06    -22.7428E+06     6.19958E+03    -27.4823E-03     54.9467E-03    -27.4644E-03     10.4278E-03    -27.4042E-03     54.4412E-03    -27.3766E-03     10.4224E-03
             332     2.62701E-03     60.5281E-03    -23.3052E+06    -113.417E+06    -20.2276E+06     64.5453E+03    -27.5093E-03     54.9811E-03    -27.4718E-03     15.5181E-03    -27.4330E-03     54.4781E-03    -27.3747E-03     15.5104E-03
             333     3.50288E-03     60.5453E-03    -22.1467E+06    -111.601E+06    -16.8376E+06     185.694E+03    -27.5476E-03     55.0293E-03    -27.4817E-03     20.6936E-03    -27.4739E-03     54.5296E-03    -27.3719E-03     20.6840E-03
             334     4.37841E-03     60.5674E-03    -20.8301E+06    -109.624E+06    -13.0448E+06     186.272E+03    -27.6088E-03     55.1020E-03    -27.4932E-03     25.9416E-03    -27.5382E-03     54.6061E-03    -27.3693E-03     25.9278E-03
             335     5.25435E-03     60.5948E-03    -19.2834E+06    -107.881E+06    -9.42845E+06     176.847E+03    -27.6870E-03     55.1917E-03    -27.5047E-03     31.2345E-03    -27.6182E-03     54.6988E-03    -27.3675E-03     31.2154E-03
             336     6.12979E-03     60.6268E-03    -17.7154E+06    -104.165E+06    -6.60426E+06     294.046E+03    -27.7792E-03     55.2892E-03    -27.5100E-03     36.5983E-03    -27.7147E-03     54.8112E-03    -27.3663E-03     36.5744E-03
             337     7.00578E-03     60.6646E-03    -16.2073E+06    -99.5469E+06    -4.17614E+06     641.993E+03    -27.8926E-03     55.4054E-03    -27.5127E-03     42.0474E-03    -27.8346E-03     54.9485E-03    -27.3658E-03     42.0202E-03
             338     7.88118E-03     60.7069E-03    -14.8522E+06    -95.2707E+06    -3.16257E+06     594.251E+03    -28.0262E-03     55.5365E-03    -27.5103E-03     47.4915E-03    -27.9746E-03     55.1031E-03    -27.3664E-03     47.4536E-03
             339     8.75713E-03     60.7551E-03    -13.6855E+06    -89.0900E+06    -2.34365E+06     557.076E+03    -28.1667E-03     55.6719E-03    -27.5052E-03     52.9586E-03    -28.1273E-03     55.2744E-03    -27.3679E-03     52.9078E-03
             340     9.63267E-03     60.8077E-03    -12.4929E+06    -83.0617E+06    -2.54506E+06     739.064E+03    -28.3299E-03     55.8259E-03    -27.4960E-03     58.4512E-03    -28.3044E-03     55.4686E-03    -27.3702E-03     58.3870E-03
             341     10.5084E-03     60.8665E-03    -11.9772E+06    -75.9236E+06    -6.79370E+06     769.001E+03    -28.5089E-03     55.9761E-03    -27.4672E-03     63.8092E-03    -28.5020E-03     55.6769E-03    -27.3738E-03     63.7253E-03
             342     11.3837E-03     60.9291E-03    -11.2494E+06    -58.9631E+06    -7.37510E+06     859.786E+03    -28.6468E-03     56.0885E-03    -27.4417E-03     69.8419E-03    -28.6863E-03     55.9001E-03    -27.3767E-03     69.7342E-03
             343     12.2600E-03     61.0002E-03    -10.9983E+06    -38.1258E+06    -6.45606E+06     740.303E+03    -28.8396E-03     56.2588E-03    -27.4192E-03     75.0957E-03    -28.9451E-03     56.2087E-03    -27.3803E-03     74.9587E-03
             344     13.1348E-03     61.0705E-03    -11.5481E+06    -21.3515E+06    -13.7330E+06     552.712E+03    -29.1697E-03     56.5415E-03    -27.3718E-03     79.5488E-03    -29.3532E-03     56.6481E-03    -27.3927E-03     79.3719E-03
             345     14.0094E-03     61.1536E-03    -11.7771E+06     15.3184E+06    -26.2739E+06     756.937E+03    -29.9911E-03     57.2621E-03    -27.2711E-03     102.328E-03    -30.4408E-03     57.8007E-03    -27.4076E-03     102.084E-03
             346     14.8884E-03     61.2633E-03    -13.5295E+06     67.9578E+06    -16.3662E+06     1.62471E+06    -35.7564E-03     62.9954E-03    -27.2390E-03     189.599E-03    -37.7201E-03     65.1999E-03    -27.3997E-03     189.299E-03
             347     15.7609E-03     61.5176E-03    -12.7807E+06     130.707E+06     41.5705E+06     1.03861E+06    -46.1617E-03     73.5440E-03    -27.3822E-03     327.019E-03    -56.3964E-03     84.0768E-03    -27.3454E-03     328.314E-03
             348     16.6415E-03     61.8999E-03    -6.26230E+06     183.560E+06     103.999E+06    -615.471E+03    -49.4616E-03     76.9911E-03    -27.5295E-03     389.958E-03    -69.2466E-03     97.1039E-03    -27.2666E-03     399.555E-03
             349     875.740E-06     61.5095E-03    -24.7728E+06    -115.754E+06    -24.2571E+06     144.073E+03    -27.4703E-03     54.9251E-03    -27.4548E-03     5.66069E-03    -27.3912E-03     54.4176E-03    -27.3724E-03     5.65962E-03
             350     1.75136E-03     61.5171E-03    -24.2319E+06    -114.815E+06    -22.6062E+06     121.100E+03    -27.4936E-03     54.9608E-03    -27.4672E-03     10.4316E-03    -27.4159E-03     54.4551E-03    -27.3786E-03     10.4276E-03
             351     2.62712E-03     61.5294E-03    -23.4255E+06    -113.513E+06    -20.1725E+06     110.800E+03    -27.5162E-03     54.9935E-03    -27.4773E-03     15.5176E-03    -27.4404E-03     54.4901E-03    -27.3796E-03     15.5105E-03
             352     3.50272E-03     61.5465E-03    -22.2093E+06    -111.805E+06    -17.0354E+06     150.990E+03    -27.5568E-03     55.0436E-03    -27.4868E-03     20.7052E-03    -27.4828E-03     54.5433E-03    -27.3776E-03     20.6951E-03
             353     4.37856E-03     61.5689E-03    -20.7191E+06    -109.728E+06    -13.1321E+06     269.521E+03    -27.6187E-03     55.1178E-03    -27.4991E-03     25.9534E-03    -27.5472E-03     54.6213E-03    -27.3756E-03     25.9406E-03
             354     5.25408E-03     61.5959E-03    -19.1395E+06    -107.803E+06    -9.29214E+06     185.117E+03    -27.6954E-03     55.2072E-03    -27.5118E-03     31.2580E-03    -27.6263E-03     54.7143E-03    -27.3742E-03     31.2391E-03
             355     6.12999E-03     61.6285E-03    -17.4220E+06    -104.660E+06    -5.66964E+06     307.184E+03    -27.7890E-03     55.3107E-03    -27.5218E-03     36.6426E-03    -27.7236E-03     54.8285E-03    -27.3731E-03     36.6189E-03
             356     7.00547E-03     61.6656E-03    -15.8255E+06    -100.148E+06    -3.43764E+06     725.454E+03    -27.8912E-03     55.4143E-03    -27.5230E-03     42.0907E-03    -27.8315E-03     54.9528E-03    -27.3721E-03     42.0647E-03
             357     7.88142E-03     61.7087E-03    -14.4929E+06    -94.9094E+06    -2.76891E+06     731.971E+03    -28.0273E-03     55.5437E-03    -27.5164E-03     47.5607E-03    -27.9749E-03     55.1110E-03    -27.3716E-03     47.5247E-03
             358     8.75691E-03     61.7560E-03    -13.3672E+06    -89.1108E+06    -1.83712E+06     569.759E+03    -28.1936E-03     55.7067E-03    -27.5131E-03     53.0289E-03    -28.1533E-03     55.3079E-03    -27.3737E-03     52.9782E-03
             359     9.63261E-03     61.8097E-03    -12.3898E+06    -83.4378E+06    -2.46154E+06     629.652E+03    -28.3482E-03     55.8520E-03    -27.5039E-03     58.5056E-03    -28.3218E-03     55.4926E-03    -27.3772E-03     58.4399E-03
             360     10.5084E-03     61.8674E-03    -11.7646E+06    -75.6352E+06    -6.32554E+06     795.034E+03    -28.4319E-03     55.9046E-03    -27.4727E-03     64.0148E-03    -28.4249E-03     55.6057E-03    -27.3776E-03     63.9318E-03
             361     11.3840E-03     61.9317E-03    -11.7771E+06    -59.7885E+06    -7.54275E+06     826.441E+03    -28.5010E-03     55.9383E-03    -27.4373E-03     70.0772E-03    -28.5414E-03     55.7465E-03    -27.3712E-03     69.9700E-03
             362     12.2601E-03     61.9995E-03    -11.6750E+06    -38.5526E+06    -6.39883E+06     824.491E+03    -28.8659E-03     56.2761E-03    -27.4102E-03     75.8674E-03    -28.9749E-03     56.2254E-03    -27.3694E-03     75.7312E-03
             363     13.1347E-03     62.0765E-03    -11.2654E+06    -20.8113E+06    -12.7914E+06     779.194E+03    -28.9567E-03     56.3141E-03    -27.3574E-03     80.1992E-03    -29.1415E-03     56.4221E-03    -27.3748E-03     80.0268E-03
             364     14.0129E-03     62.1497E-03    -13.2786E+06     14.7474E+06    -27.3604E+06     1.37681E+06    -29.9817E-03     57.2248E-03    -27.2430E-03     102.854E-03    -30.4400E-03     57.7676E-03    -27.3820E-03     102.618E-03
             365     14.8839E-03     62.2718E-03    -14.5355E+06     67.1010E+06    -20.1786E+06     2.16594E+06    -35.1929E-03     62.3780E-03    -27.1850E-03     188.790E-03    -37.1230E-03     64.5531E-03    -27.3621E-03     188.518E-03
             366     15.7654E-03     62.5100E-03    -10.6077E+06     132.008E+06     41.2193E+06     310.733E+03    -46.3532E-03     73.6818E-03    -27.3285E-03     327.426E-03    -56.6555E-03     84.2955E-03    -27.2985E-03     328.623E-03
             367     16.6404E-03     62.9081E-03    -5.32357E+06     184.727E+06     105.660E+06    -1.04662E+06    -50.5797E-03     78.0990E-03    -27.5193E-03     389.739E-03    -70.3411E-03     98.1909E-03    -27.2511E-03     399.214E-03
             368     875.686E-06     62.5108E-03    -24.8154E+06    -115.991E+06    -24.5656E+06     109.518E+03    -27.4710E-03     54.9390E-03    -27.4680E-03     5.66865E-03    -27.3914E-03     54.4309E-03    -27.3867E-03     5.66715E-03
             369     1.75138E-03     62.5184E-03    -24.2964E+06    -115.022E+06    -22.7733E+06     225.906E+03    -27.4903E-03     54.9621E-03    -27.4718E-03     10.4328E-03    -27.4124E-03     54.4557E-03    -27.3837E-03     10.4302E-03
             370     2.62706E-03     62.5306E-03    -23.4374E+06    -113.546E+06    -20.0790E+06     244.810E+03    -27.5224E-03     55.0037E-03    -27.4812E-03     15.5236E-03    -27.4468E-03     54.5000E-03    -27.3830E-03     15.5183E-03
             371     3.50278E-03     62.5480E-03    -22.3452E+06    -111.836E+06    -16.8417E+06     167.785E+03    -27.5672E-03     55.0599E-03    -27.4927E-03     20.7179E-03    -27.4941E-03     54.5593E-03    -27.3823E-03     20.7080E-03
             372     4.37840E-03     62.5700E-03    -20.8194E+06    -109.868E+06    -13.2084E+06     77.8177E+03    -27.6198E-03     55.1240E-03    -27.5042E-03     25.9795E-03    -27.5485E-03     54.6270E-03    -27.3807E-03     25.9643E-03
             373     5.25423E-03     62.5975E-03    -19.1182E+06    -107.844E+06    -9.30999E+06     211.822E+03    -27.6976E-03     55.2137E-03    -27.5161E-03     31.2880E-03    -27.6282E-03     54.7206E-03    -27.3786E-03     31.2695E-03
             374     6.12978E-03     62.6295E-03    -17.6913E+06    -105.140E+06    -5.88750E+06     453.004E+03    -27.7868E-03     55.3123E-03    -27.5255E-03     36.6725E-03    -27.7218E-03     54.8283E-03    -27.3768E-03     36.6508E-03
             375     7.00565E-03     62.6674E-03    -16.1134E+06    -100.534E+06    -3.50522E+06     619.346E+03    -27.8923E-03     55.4191E-03    -27.5268E-03     42.1217E-03    -27.8333E-03     54.9562E-03    -27.3752E-03     42.0943E-03
             376     7.88121E-03     62.7095E-03    -14.5512E+06    -94.9216E+06    -2.49348E+06     763.463E+03    -28.0246E-03     55.5453E-03    -27.5206E-03     47.6176E-03    -27.9729E-03     55.1121E-03    -27.3744E-03     47.5821E-03
             377     8.75698E-03     62.7582E-03    -13.2960E+06    -89.1327E+06    -1.37347E+06     725.797E+03    -28.1601E-03     55.6759E-03    -27.5159E-03     53.1301E-03    -28.1200E-03     55.2763E-03    -27.3742E-03     53.0816E-03
             378     9.63266E-03     62.8105E-03    -12.3392E+06    -83.8550E+06    -2.12817E+06     679.657E+03    -28.2955E-03     55.7977E-03    -27.5023E-03     58.6978E-03    -28.2687E-03     55.4356E-03    -27.3734E-03     58.6330E-03
             379     10.5081E-03     62.8696E-03    -11.7673E+06    -75.9438E+06    -6.32780E+06     952.188E+03    -28.3577E-03     55.8219E-03    -27.4642E-03     63.9234E-03    -28.3502E-03     55.5213E-03    -27.3686E-03     63.8428E-03
             380     11.3847E-03     62.9315E-03    -11.5824E+06    -59.5742E+06    -7.15527E+06     932.975E+03    -28.5069E-03     55.9346E-03    -27.4278E-03     70.0355E-03    -28.5476E-03     55.7435E-03    -27.3604E-03     69.9290E-03
             381     12.2595E-03     63.0032E-03    -11.2664E+06    -38.4025E+06    -5.98035E+06     903.490E+03    -28.6183E-03     56.0113E-03    -27.3930E-03     75.9404E-03    -28.7252E-03     55.9593E-03    -27.3509E-03     75.8072E-03
             382     13.1372E-03     63.0751E-03    -11.7920E+06    -20.8645E+06    -12.7471E+06     1.24818E+06    -28.7551E-03     56.0817E-03    -27.3266E-03     79.8133E-03    -28.9415E-03     56.1892E-03    -27.3430E-03     79.6483E-03
             383     14.0096E-03     63.1549E-03    -12.6343E+06     12.9062E+06    -27.3896E+06     1.86934E+06    -29.5370E-03     56.7307E-03    -27.1937E-03     103.474E-03    -29.9854E-03     57.2595E-03    -27.3311E-03     103.252E-03
             384     14.8895E-03     63.2707E-03    -10.2644E+06     68.3662E+06    -17.2694E+06     1.04375E+06    -34.9433E-03     62.0692E-03    -27.1260E-03     187.873E-03    -36.8506E-03     64.2329E-03    -27.2966E-03     187.586E-03
             385     15.7646E-03     63.5099E-03    -7.78675E+06     135.085E+06     45.1577E+06    -299.355E+03    -47.3680E-03     74.6643E-03    -27.2963E-03     328.116E-03    -57.7672E-03     85.3845E-03    -27.2551E-03     329.221E-03
             386     16.6395E-03     63.9133E-03    -6.04287E+06     184.144E+06     105.860E+06    -140.673E+03    -51.2796E-03     78.7937E-03    -27.5141E-03     390.551E-03    -71.0117E-03     98.8511E-03    -27.2431E-03     399.957E-03
             387     875.645E-06     63.5122E-03    -24.9936E+06    -116.181E+06    -24.6599E+06     45.4633E+03    -27.4733E-03     54.9535E-03    -27.4802E-03     5.67675E-03    -27.3942E-03     54.4448E-03    -27.3988E-03     5.67443E-03
             388     1.75140E-03     63.5196E-03    -24.3623E+06    -115.302E+06    -23.1628E+06     133.328E+03    -27.4893E-03     54.9654E-03    -27.4760E-03     10.4381E-03    -27.4108E-03     54.4582E-03    -27.3893E-03     10.4344E-03
             389     2.62705E-03     63.5321E-03    -23.4646E+06    -113.778E+06    -20.3336E+06     320.938E+03    -27.5239E-03     55.0076E-03    -27.4837E-03     15.5360E-03    -27.4477E-03     54.5032E-03    -27.3864E-03     15.5316E-03
             390     3.50275E-03     63.5492E-03    -22.2690E+06    -111.750E+06    -16.6360E+06     308.694E+03    -27.5658E-03     55.0618E-03    -27.4959E-03     20.7341E-03    -27.4928E-03     54.5612E-03    -27.3848E-03     20.7261E-03
             391     4.37846E-03     63.5716E-03    -21.0165E+06    -109.775E+06    -12.8430E+06     145.513E+03    -27.6233E-03     55.1316E-03    -27.5084E-03     25.9973E-03    -27.5536E-03     54.6349E-03    -27.3829E-03     25.9830E-03
             392     5.25411E-03     63.5985E-03    -19.6251E+06    -108.267E+06    -9.56831E+06     251.720E+03    -27.6952E-03     55.2136E-03    -27.5184E-03     31.3117E-03    -27.6274E-03     54.7195E-03    -27.3808E-03     31.2937E-03
             393     6.12989E-03     63.6313E-03    -17.8503E+06    -105.426E+06    -5.97211E+06     533.115E+03    -27.7849E-03     55.3123E-03    -27.5274E-03     36.6915E-03    -27.7202E-03     54.8273E-03    -27.3785E-03     36.6708E-03
             394     7.00554E-03     63.6682E-03    -16.1826E+06    -100.688E+06    -3.46305E+06     566.986E+03    -27.8933E-03     55.4220E-03    -27.5287E-03     42.1565E-03    -27.8345E-03     54.9584E-03    -27.3766E-03     42.1285E-03
             395     7.88127E-03     63.7116E-03    -14.7714E+06    -95.1852E+06    -2.59432E+06     704.579E+03    -27.9989E-03     55.5195E-03    -27.5206E-03     47.6588E-03    -27.9477E-03     55.0856E-03    -27.3742E-03     47.6227E-03
             396     8.75702E-03     63.7588E-03    -13.5158E+06    -89.4452E+06    -1.51062E+06     823.205E+03    -28.0971E-03     55.6085E-03    -27.5114E-03     53.1571E-03    -28.0575E-03     55.2078E-03    -27.3696E-03     53.1100E-03
             397     9.63277E-03     63.8127E-03    -12.4380E+06    -83.8801E+06    -2.06293E+06     799.237E+03    -28.1863E-03     55.6773E-03    -27.4910E-03     58.6296E-03    -28.1598E-03     55.3149E-03    -27.3616E-03     58.5669E-03
             398     10.5090E-03     63.8700E-03    -11.6251E+06    -76.6770E+06    -6.38422E+06     930.256E+03    -28.4226E-03     55.8744E-03    -27.4517E-03     64.0124E-03    -28.4135E-03     55.5703E-03    -27.3556E-03     63.9310E-03
             399     11.3835E-03     63.9341E-03    -11.2368E+06    -59.2887E+06    -6.94421E+06     1.10753E+06    -28.6036E-03     56.0255E-03    -27.4219E-03     70.0167E-03    -28.6437E-03     55.8353E-03    -27.3543E-03     69.9118E-03
             400     12.2610E-03     64.0028E-03    -11.2825E+06    -37.8333E+06    -5.60543E+06     1.22515E+06    -28.6339E-03     56.0272E-03    -27.3933E-03     75.5250E-03    -28.7423E-03     55.9775E-03    -27.3501E-03     75.3954E-03
             401     13.1347E-03     64.0783E-03    -11.2631E+06    -22.3157E+06    -13.0676E+06     1.47309E+06    -28.5496E-03     55.8700E-03    -27.3205E-03     79.4163E-03    -28.7308E-03     55.9699E-03    -27.3371E-03     79.2553E-03
             402     14.0142E-03     64.1542E-03    -10.6306E+06     13.6072E+06    -25.6536E+06     699.363E+03    -29.0508E-03     56.2258E-03    -27.1750E-03     101.693E-03    -29.4828E-03     56.7428E-03    -27.3076E-03     101.461E-03
             403     14.8887E-03     64.2715E-03    -10.0154E+06     69.5521E+06    -15.1000E+06    -572.418E+03    -35.2916E-03     62.4051E-03    -27.1135E-03     186.356E-03    -37.2066E-03     64.5753E-03    -27.2753E-03     186.028E-03
             404     15.7639E-03     64.5133E-03    -9.15899E+06     134.230E+06     44.7458E+06     143.097E+03    -47.5926E-03     74.8925E-03    -27.2999E-03     327.277E-03    -57.9398E-03     85.5539E-03    -27.2575E-03     328.412E-03
             405     16.6428E-03     64.9124E-03    -6.08800E+06     184.410E+06     105.684E+06     930.558E+03    -50.9976E-03     78.5159E-03    -27.5183E-03     390.683E-03    -70.7674E-03     98.6122E-03    -27.2484E-03     400.162E-03
             406     875.728E-06     64.5134E-03    -25.0264E+06    -116.291E+06    -24.6846E+06     36.5706E+03    -27.4962E-03     54.9616E-03    -27.4654E-03     5.65607E-03    -27.4171E-03     54.4524E-03    -27.3839E-03     5.65362E-03
             407     1.75130E-03     64.5211E-03    -24.6051E+06    -115.488E+06    -23.1898E+06     74.5231E+03    -27.4937E-03     54.9745E-03    -27.4808E-03     10.4460E-03    -27.4161E-03     54.4667E-03    -27.3936E-03     10.4415E-03
             408     2.62709E-03     64.5333E-03    -23.6039E+06    -114.043E+06    -20.6563E+06     155.801E+03    -27.5207E-03     55.0068E-03    -27.4861E-03     15.5461E-03    -27.4444E-03     54.5017E-03    -27.3898E-03     15.5396E-03
             409     3.50273E-03     64.5507E-03    -22.3213E+06    -111.932E+06    -16.8379E+06     355.922E+03    -27.5652E-03     55.0624E-03    -27.4972E-03     20.7373E-03    -27.4919E-03     54.5613E-03    -27.3867E-03     20.7299E-03
             410     4.37846E-03     64.5727E-03    -21.0040E+06    -109.888E+06    -12.8614E+06     586.050E+03    -27.6250E-03     55.1349E-03    -27.5099E-03     25.9950E-03    -27.5550E-03     54.6376E-03    -27.3844E-03     25.9863E-03
             411     5.25414E-03     64.6003E-03    -19.6908E+06    -108.366E+06    -9.52746E+06     513.244E+03    -27.6946E-03     55.2148E-03    -27.5202E-03     31.3031E-03    -27.6270E-03     54.7202E-03    -27.3822E-03     31.2885E-03
             412     6.12987E-03     64.6321E-03    -18.1164E+06    -105.617E+06    -6.28547E+06     328.698E+03    -27.7829E-03     55.3104E-03    -27.5275E-03     36.7150E-03    -27.7187E-03     54.8252E-03    -27.3795E-03     36.6917E-03
             413     7.00553E-03     64.6702E-03    -16.3445E+06    -100.929E+06    -3.95558E+06     543.647E+03    -27.8799E-03     55.4067E-03    -27.5268E-03     42.1693E-03    -27.8209E-03     54.9428E-03    -27.3765E-03     42.1410E-03
             414     7.88134E-03     64.7122E-03    -14.8627E+06    -95.4323E+06    -2.93653E+06     686.295E+03    -27.9809E-03     55.4985E-03    -27.5176E-03     47.6386E-03    -27.9293E-03     55.0639E-03    -27.3724E-03     47.6022E-03
             415     8.75701E-03     64.7609E-03    -13.5024E+06    -89.4979E+06    -1.56102E+06     699.945E+03    -28.0839E-03     55.5920E-03    -27.5081E-03     53.0709E-03    -28.0441E-03     55.1910E-03    -27.3666E-03     53.0222E-03
             416     9.63292E-03     64.8131E-03    -12.3461E+06    -84.2087E+06    -2.18945E+06     798.333E+03    -28.1904E-03     55.6783E-03    -27.4878E-03     58.4027E-03    -28.1629E-03     55.3143E-03    -27.3588E-03     58.3397E-03
             417     10.5084E-03     64.8721E-03    -11.7833E+06    -76.7991E+06    -6.49693E+06     830.189E+03    -28.3787E-03     55.8264E-03    -27.4477E-03     63.9465E-03    -28.3699E-03     55.5219E-03    -27.3517E-03     63.8641E-03
             418     11.3852E-03     64.9351E-03    -11.1827E+06    -59.8373E+06    -7.24353E+06     982.078E+03    -28.7275E-03     56.1480E-03    -27.4204E-03     69.9930E-03    -28.7665E-03     55.9558E-03    -27.3537E-03     69.8857E-03
             419     12.2588E-03     65.0051E-03    -10.4225E+06    -38.1159E+06    -5.40350E+06     1.43385E+06    -28.7078E-03     56.1079E-03    -27.4001E-03     75.3444E-03    -28.8123E-03     56.0557E-03    -27.3567E-03     75.2167E-03
             420     13.1370E-03     65.0786E-03    -10.4444E+06    -21.6415E+06    -12.4506E+06     1.13217E+06    -28.5428E-03     55.8730E-03    -27.3301E-03     79.2714E-03    -28.7204E-03     55.9727E-03    -27.3458E-03     79.1070E-03
             421     14.0099E-03     65.1555E-03    -10.2810E+06     14.2895E+06    -25.6174E+06     76.8017E+03    -29.4576E-03     56.6525E-03    -27.1949E-03     101.273E-03    -29.8924E-03     57.1758E-03    -27.3288E-03     101.026E-03
             422     14.8873E-03     65.2721E-03    -11.9891E+06     68.6170E+06    -17.1001E+06    -335.076E+03    -35.7065E-03     62.8575E-03    -27.1510E-03     186.727E-03    -37.6386E-03     65.0402E-03    -27.3186E-03     186.400E-03
             423     15.7646E-03     65.5148E-03    -11.0149E+06     133.060E+06     43.2169E+06     405.433E+03    -47.3429E-03     74.6899E-03    -27.3470E-03     326.442E-03    -57.6582E-03     85.3131E-03    -27.3079E-03     327.595E-03
             424     16.6370E-03     65.9128E-03    -5.55173E+06     185.416E+06     106.546E+06     883.110E+03    -50.2445E-03     77.7907E-03    -27.5462E-03     391.594E-03    -70.0983E-03     97.9740E-03    -27.2742E-03     401.142E-03
             425     875.606E-06     65.5149E-03    -25.2272E+06    -116.548E+06    -24.7723E+06     149.046E+03    -27.4888E-03     54.9582E-03    -27.4694E-03     5.63671E-03    -27.4102E-03     54.4482E-03    -27.3877E-03     5.63576E-03
             426     1.75143E-03     65.5223E-03    -24.7082E+06    -115.554E+06    -23.0611E+06     202.973E+03    -27.4977E-03     54.9790E-03    -27.4813E-03     10.4580E-03    -27.4206E-03     54.4709E-03    -27.3932E-03     10.4551E-03
             427     2.62699E-03     65.5348E-03    -23.9727E+06    -114.155E+06    -20.4752E+06     150.081E+03    -27.5267E-03     55.0163E-03    -27.4895E-03     15.5546E-03    -27.4524E-03     54.5109E-03    -27.3916E-03     15.5480E-03
             428     3.50278E-03     65.5518E-03    -22.7925E+06    -112.410E+06    -17.2503E+06     334.010E+03    -27.5674E-03     55.0668E-03    -27.4994E-03     20.7475E-03    -27.4952E-03     54.5646E-03    -27.3896E-03     20.7398E-03
             429     4.37837E-03     65.5743E-03    -21.2252E+06    -110.319E+06    -13.3614E+06     673.833E+03    -27.6214E-03     55.1321E-03    -27.5107E-03     25.9992E-03    -27.5512E-03     54.6337E-03    -27.3868E-03     25.9918E-03
             430     5.25418E-03     65.6012E-03    -19.4194E+06    -108.193E+06    -9.36001E+06     655.775E+03    -27.6974E-03     55.2195E-03    -27.5221E-03     31.3081E-03    -27.6289E-03     54.7252E-03    -27.3839E-03     31.2952E-03
             431     6.12977E-03     65.6340E-03    -17.8569E+06    -105.576E+06    -6.15480E+06      462.94E+03    -27.7785E-03     55.3074E-03    -27.5290E-03     36.7119E-03    -27.7133E-03     54.8219E-03    -27.3808E-03     36.6903E-03
             432     7.00564E-03     65.6710E-03    -16.4108E+06    -101.318E+06    -4.31323E+06     428.080E+03    -27.8722E-03     55.3981E-03    -27.5259E-03     42.1590E-03    -27.8125E-03     54.9329E-03    -27.3768E-03     42.1292E-03
             433     7.88121E-03     65.7143E-03    -14.8532E+06    -95.5416E+06    -3.18191E+06     568.377E+03    -27.9918E-03     55.5087E-03    -27.5169E-03     47.6117E-03    -27.9397E-03     55.0739E-03    -27.3727E-03     47.5737E-03
             434     8.75710E-03     65.7615E-03    -13.5864E+06    -89.6809E+06    -1.70985E+06     649.669E+03    -28.0947E-03     55.6039E-03    -27.5092E-03     53.0086E-03    -28.0548E-03     55.2024E-03    -27.3680E-03     52.9591E-03
             435     9.63265E-03     65.8152E-03    -12.4526E+06    -84.2825E+06    -2.34841E+06     570.617E+03    -28.2882E-03     55.7816E-03    -27.4935E-03     58.4222E-03    -28.2611E-03     55.4180E-03    -27.3649E-03     58.3558E-03
             436     10.5087E-03     65.8726E-03    -11.4674E+06    -76.7110E+06    -6.29404E+06     667.107E+03    -28.4353E-03     55.8958E-03    -27.4605E-03     63.7888E-03    -28.4255E-03     55.5912E-03    -27.3641E-03     63.7039E-03
             437     11.3835E-03     65.9370E-03    -10.5342E+06    -59.9672E+06    -6.96198E+06     632.494E+03    -28.5154E-03     55.9421E-03    -27.4267E-03     70.1903E-03    -28.5507E-03     55.7473E-03    -27.3593E-03     70.0802E-03
             438     12.2608E-03     66.0067E-03    -9.38463E+06    -39.4626E+06    -5.92924E+06     611.013E+03    -28.7303E-03     56.1256E-03    -27.3953E-03     75.3274E-03    -28.8265E-03     56.0656E-03    -27.3542E-03     75.1894E-03
             439     13.1348E-03     66.0791E-03    -8.39606E+06    -20.5682E+06    -11.7385E+06     1.06030E+06    -28.6976E-03     56.0297E-03    -27.3321E-03     79.2141E-03    -28.8670E-03     56.1303E-03    -27.3488E-03     79.0485E-03
             440     14.0132E-03     66.1582E-03    -10.0627E+06     15.0269E+06    -25.3457E+06     424.179E+03    -29.6587E-03     56.8663E-03    -27.2076E-03     101.905E-03    -30.0984E-03     57.3972E-03    -27.3415E-03     101.662E-03
             441     14.8878E-03     66.2723E-03    -12.0844E+06     68.4775E+06    -17.0248E+06     415.921E+03    -35.9658E-03     63.1386E-03    -27.1728E-03     187.773E-03    -37.8992E-03     65.3215E-03    -27.3397E-03     187.452E-03
             442     15.7606E-03     66.5185E-03    -11.3709E+06     132.997E+06     42.4419E+06     727.410E+03    -47.2016E-03     74.5614E-03    -27.3599E-03     327.519E-03    -57.5437E-03     85.2122E-03    -27.3240E-03     328.718E-03
             443     16.6424E-03     66.9110E-03    -6.62743E+06     184.615E+06     105.235E+06     404.851E+03    -50.0811E-03     77.6260E-03    -27.5449E-03     391.991E-03    -69.9864E-03     97.8580E-03    -27.2768E-03     401.574E-03
             444     875.771E-06     66.5160E-03    -25.4037E+06    -116.855E+06    -25.0918E+06     155.897E+03    -27.4631E-03     54.9547E-03    -27.4916E-03     5.63657E-03    -27.3845E-03     54.4439E-03    -27.4108E-03     5.63570E-03
             445     1.75129E-03     66.5237E-03    -24.8985E+06    -115.853E+06    -23.2804E+06     346.917E+03    -27.5005E-03     54.9810E-03    -27.4805E-03     10.4508E-03    -27.4237E-03     54.4720E-03    -27.3928E-03     10.4498E-03
             446     2.62712E-03     66.5359E-03    -24.1265E+06    -114.317E+06    -20.4561E+06     541.195E+03    -27.5299E-03     55.0209E-03    -27.4910E-03     15.5578E-03    -27.4561E-03     54.5149E-03    -27.3925E-03     15.5563E-03
             447     3.50265E-03     66.5534E-03    -23.1366E+06    -112.671E+06    -17.3638E+06     454.848E+03    -27.5692E-03     55.0704E-03    -27.5012E-03     20.7568E-03    -27.4981E-03     54.5675E-03    -27.3911E-03     20.7507E-03
             448     4.37851E-03     66.5754E-03    -21.5090E+06    -110.543E+06    -13.5965E+06     344.187E+03    -27.6245E-03     55.1366E-03    -27.5121E-03     26.0171E-03    -27.5551E-03     54.6378E-03    -27.3886E-03     26.0054E-03
             449     5.25405E-03     66.6029E-03    -19.6552E+06    -108.369E+06    -9.48372E+06     489.075E+03    -27.6987E-03     55.2228E-03    -27.5241E-03     31.3199E-03    -27.6310E-03     54.7281E-03    -27.3859E-03     31.3049E-03
             450     6.12992E-03     66.6349E-03    -17.8996E+06    -105.623E+06    -5.94997E+06     678.776E+03    -27.7799E-03     55.3121E-03    -27.5322E-03     36.6887E-03    -27.7152E-03     54.8261E-03    -27.3828E-03     36.6699E-03
             451     7.00544E-03     66.6728E-03    -16.4005E+06    -101.284E+06    -4.01848E+06     518.033E+03    -27.8788E-03     55.4085E-03    -27.5297E-03     42.1496E-03    -27.8194E-03     54.9430E-03    -27.3791E-03     42.1209E-03
             452     7.88138E-03     66.7151E-03    -15.0812E+06    -95.7919E+06    -3.42503E+06     449.077E+03    -27.9783E-03     55.4965E-03    -27.5182E-03     47.6092E-03    -27.9266E-03     55.0611E-03    -27.3745E-03     47.5698E-03
             453     8.75686E-03     66.7635E-03    -13.6562E+06    -89.8043E+06    -1.87089E+06     488.172E+03    -28.1320E-03     55.6434E-03    -27.5114E-03     53.0418E-03    -28.0921E-03     55.2416E-03    -27.3707E-03     52.9902E-03
             454     9.63295E-03     66.8158E-03    -12.4488E+06    -83.8972E+06    -2.12266E+06     446.846E+03    -28.3288E-03     55.8286E-03    -27.4998E-03     58.5501E-03    -28.3026E-03     55.4665E-03    -27.3707E-03     58.4821E-03
             455     10.5079E-03     66.8752E-03    -11.5713E+06    -76.9616E+06    -6.29499E+06     339.981E+03    -28.4386E-03     55.9066E-03    -27.4679E-03     63.9158E-03    -28.4290E-03     55.6009E-03    -27.3710E-03     63.8266E-03
             456     11.3847E-03     66.9372E-03    -11.1790E+06    -60.3648E+06    -7.30827E+06     410.365E+03    -28.4732E-03     55.9046E-03    -27.4314E-03     70.1539E-03    -28.5103E-03     55.7089E-03    -27.3642E-03     70.0413E-03
             457     12.2598E-03     67.0084E-03    -11.2515E+06    -38.7962E+06    -5.76600E+06     38.9882E+03    -28.6437E-03     56.0420E-03    -27.3983E-03     75.4221E-03    -28.7501E-03     55.9874E-03    -27.3545E-03     75.2775E-03
             458     13.1362E-03     67.0817E-03    -10.6476E+06    -22.3744E+06    -12.2103E+06    -113.478E+03    -28.8478E-03     56.1867E-03    -27.3389E-03     78.8241E-03    -29.0265E-03     56.2836E-03    -27.3521E-03     78.6405E-03
             459     14.0107E-03     67.1571E-03    -10.1003E+06     14.9759E+06    -20.8477E+06     1.28044E+06    -29.6125E-03     56.8501E-03    -27.2375E-03     101.861E-03    -30.0593E-03     57.3747E-03    -27.3488E-03     101.628E-03
             460     14.8863E-03     67.2774E-03    -11.3218E+06     69.4734E+06    -13.5004E+06     2.42277E+06    -35.1572E-03     62.3275E-03    -27.1702E-03     187.970E-03    -37.0747E-03     64.4905E-03    -27.3220E-03     187.696E-03
             461     15.7667E-03     67.5163E-03    -11.6392E+06     132.479E+06     40.7738E+06     1.23958E+06    -47.4252E-03     74.7400E-03    -27.3148E-03     328.202E-03    -57.8098E-03     85.4353E-03    -27.2862E-03     329.342E-03
             462     16.6376E-03     67.9163E-03    -6.68606E+06     185.440E+06     105.363E+06    -335.599E+03    -50.8099E-03     78.3440E-03    -27.5340E-03     390.688E-03    -70.6643E-03     98.5274E-03    -27.2664E-03     400.203E-03
             463     875.584E-06     67.5175E-03    -25.8091E+06    -117.205E+06    -25.3600E+06     168.748E+03    -27.4738E-03     54.9653E-03    -27.4914E-03     5.63520E-03    -27.3963E-03     54.4536E-03    -27.4109E-03     5.63449E-03
             464     1.75143E-03     67.5250E-03    -25.2193E+06    -116.320E+06    -23.7907E+06     378.282E+03    -27.4979E-03     54.9813E-03    -27.4834E-03     10.4531E-03    -27.4213E-03     54.4712E-03    -27.3971E-03     10.4525E-03
             465     2.62695E-03     67.5374E-03    -24.2177E+06    -114.823E+06    -21.1504E+06     595.490E+03    -27.5276E-03     55.0177E-03    -27.4901E-03     15.5597E-03    -27.4525E-03     54.5104E-03    -27.3943E-03     15.5589E-03
             466     3.50283E-03     67.5546E-03    -22.8585E+06    -112.556E+06    -17.2452E+06     644.493E+03    -27.5733E-03     55.0756E-03    -27.5023E-03     20.7555E-03    -27.5012E-03     54.5728E-03    -27.3922E-03     20.7518E-03
             467     4.37831E-03     67.5769E-03    -21.6390E+06    -110.519E+06    -13.3469E+06     388.063E+03    -27.6315E-03     55.1470E-03    -27.5155E-03     26.0179E-03    -27.5631E-03     54.6482E-03    -27.3906E-03     26.0067E-03
             468     5.25420E-03     67.6041E-03    -20.1959E+06    -108.785E+06    -9.79926E+06     465.558E+03    -27.6995E-03     55.2260E-03    -27.5265E-03     31.3217E-03    -27.6335E-03     54.7305E-03    -27.3884E-03     31.3064E-03
             469     6.12969E-03     67.6366E-03    -18.4406E+06    -105.821E+06    -6.01491E+06     586.472E+03    -27.7879E-03     55.3239E-03    -27.5360E-03     36.6921E-03    -27.7255E-03     54.8378E-03    -27.3859E-03     36.6720E-03
             470     7.00565E-03     67.6738E-03    -16.5630E+06    -101.088E+06    -3.65100E+06     543.497E+03    -27.8744E-03     55.4091E-03    -27.5347E-03     42.1445E-03    -27.8167E-03     54.9443E-03    -27.3823E-03     42.1161E-03
             471     7.88108E-03     67.7169E-03    -15.0015E+06    -95.9777E+06    -3.28277E+06     416.563E+03    -27.9768E-03     55.4985E-03    -27.5217E-03     47.5783E-03    -27.9247E-03     55.0619E-03    -27.3772E-03     47.5384E-03
             472     8.75726E-03     67.7642E-03    -13.8000E+06    -89.7973E+06    -2.12042E+06     387.551E+03    -28.1393E-03     55.6522E-03    -27.5129E-03     53.1352E-03    -28.0997E-03     55.2510E-03    -27.3733E-03     53.0824E-03
             473     9.63228E-03     67.8182E-03    -12.7342E+06    -84.1295E+06    -2.46233E+06     421.359E+03    -28.2677E-03     55.7664E-03    -27.4987E-03     58.6162E-03    -28.2419E-03     55.4039E-03    -27.3706E-03     58.5482E-03
             474     10.5090E-03     67.8755E-03    -12.4298E+06    -76.8652E+06    -6.86050E+06     383.933E+03    -28.4696E-03     55.9343E-03    -27.4647E-03     63.8984E-03    -28.4636E-03     55.6313E-03    -27.3695E-03     63.8096E-03
             475     11.3837E-03     67.9396E-03    -12.2979E+06    -60.3010E+06    -7.71172E+06     343.258E+03    -28.6169E-03     56.0537E-03    -27.4368E-03     69.9260E-03    -28.6597E-03     55.8611E-03    -27.3701E-03     69.8112E-03
             476     12.2598E-03     68.0090E-03    -11.7061E+06    -38.3794E+06    -5.92355E+06     392.778E+03    -28.5399E-03     55.9452E-03    -27.4053E-03     75.4858E-03    -28.6484E-03     55.8931E-03    -27.3623E-03     75.3466E-03
             477     13.1358E-03     68.0829E-03    -12.8147E+06    -22.9359E+06    -14.0311E+06     310.368E+03    -28.5584E-03     55.8859E-03    -27.3275E-03     79.3852E-03    -28.7437E-03     55.9850E-03    -27.3458E-03     79.2098E-03
             478     14.0112E-03     68.1606E-03    -13.4829E+06     12.7503E+06    -23.7778E+06     1.42698E+06    -29.4527E-03     56.6617E-03    -27.2090E-03     102.767E-03    -29.9052E-03     57.1805E-03    -27.3268E-03     102.539E-03
             479     14.8893E-03     68.2750E-03    -11.9850E+06     69.6357E+06    -13.7088E+06     1.84967E+06    -35.3135E-03     62.4651E-03    -27.1516E-03     187.238E-03    -37.2388E-03     64.6348E-03    -27.3037E-03     186.948E-03
             480     15.7629E-03     68.5187E-03    -9.89963E+06     134.095E+06     41.8408E+06     1.25795E+06    -47.3545E-03     74.6569E-03    -27.3024E-03     328.094E-03    -57.7344E-03     85.3564E-03    -27.2733E-03     329.236E-03
             481     16.6418E-03     68.9201E-03    -5.46148E+06     186.402E+06     105.558E+06     328.724E+03    -51.0513E-03     78.5672E-03    -27.5159E-03     391.466E-03    -70.8631E-03     98.7153E-03    -27.2505E-03     400.949E-03
             482     875.748E-06     68.5187E-03    -26.0681E+06    -117.594E+06    -25.8714E+06     175.045E+03    -27.4756E-03     54.9684E-03    -27.4928E-03     5.62363E-03    -27.3980E-03     54.4559E-03    -27.4139E-03     5.62302E-03
             483     1.75127E-03     68.5264E-03    -25.5401E+06    -116.717E+06    -24.2741E+06     244.919E+03    -27.5018E-03     54.9865E-03    -27.4847E-03     10.4658E-03    -27.4255E-03     54.4755E-03    -27.3998E-03     10.4634E-03
             484     2.62713E-03     68.5387E-03    -24.4425E+06    -115.095E+06    -21.4650E+06     263.193E+03    -27.5345E-03     55.0275E-03    -27.4929E-03     15.5636E-03    -27.4597E-03     54.5195E-03    -27.3979E-03     15.5585E-03
             485     3.50261E-03     68.5560E-03    -22.9979E+06    -112.925E+06    -17.6272E+06     465.032E+03    -27.5772E-03     55.0825E-03    -27.5053E-03     20.7568E-03    -27.5047E-03     54.5786E-03    -27.3964E-03     20.7508E-03
             486     4.37852E-03     68.5782E-03    -21.4914E+06    -110.656E+06    -13.4469E+06     860.745E+03    -27.6331E-03     55.1519E-03    -27.5187E-03     26.0069E-03    -27.5637E-03     54.6523E-03    -27.3943E-03     26.0018E-03
             487     5.25398E-03     68.6055E-03    -20.2325E+06    -108.924E+06    -9.84576E+06     754.188E+03    -27.7044E-03     55.2344E-03    -27.5301E-03     31.3119E-03    -27.6382E-03     54.7383E-03    -27.3920E-03     31.3003E-03
             488     6.12994E-03     68.6378E-03    -18.6256E+06    -105.747E+06    -6.24307E+06     485.488E+03    -27.7862E-03     55.3245E-03    -27.5383E-03     36.7080E-03    -27.7245E-03     54.8394E-03    -27.3892E-03     36.6867E-03
             489     7.00531E-03     68.6755E-03    -16.8527E+06    -101.114E+06    -3.97177E+06     314.668E+03    -27.8775E-03     55.4141E-03    -27.5366E-03     42.1202E-03    -27.8207E-03     54.9501E-03    -27.3854E-03     42.0888E-03
             490     7.88147E-03     68.7178E-03    -15.1532E+06    -95.9081E+06    -3.50401E+06     236.919E+03    -28.0105E-03     55.5360E-03    -27.5255E-03     47.5874E-03    -27.9589E-03     55.1003E-03    -27.3820E-03     47.5451E-03
             491     8.75659E-03     68.7662E-03    -13.7648E+06    -90.0893E+06    -2.46149E+06     389.908E+03    -28.0970E-03     55.6127E-03    -27.5157E-03     53.0870E-03    -28.0562E-03     55.2104E-03    -27.3774E-03     53.0343E-03
             492     9.63324E-03     68.8189E-03    -12.7693E+06    -84.2251E+06    -2.82235E+06     403.588E+03    -28.2796E-03     55.7791E-03    -27.4995E-03     58.5297E-03    -28.2534E-03     55.4168E-03    -27.3729E-03     58.4613E-03
             493     10.5079E-03     68.8776E-03    -11.8751E+06    -76.7024E+06    -6.80243E+06     462.369E+03    -28.4780E-03     55.9450E-03    -27.4670E-03     63.9106E-03    -28.4696E-03     55.6419E-03    -27.3725E-03     63.8228E-03
             494     11.3841E-03     68.9410E-03    -11.7470E+06    -60.1970E+06    -8.05641E+06     710.224E+03    -28.5235E-03     55.9569E-03    -27.4334E-03     70.0360E-03    -28.5630E-03     55.7643E-03    -27.3694E-03     69.9265E-03
             495     12.2600E-03     69.0101E-03    -11.8472E+06    -38.8541E+06    -7.06524E+06     685.243E+03    -28.3995E-03     55.7904E-03    -27.3909E-03     75.6503E-03    -28.5062E-03     55.7376E-03    -27.3527E-03     75.5157E-03
             496     13.1356E-03     69.0847E-03    -11.1311E+06    -22.9064E+06    -13.7403E+06     967.766E+03    -28.3249E-03     55.6294E-03    -27.3045E-03     79.4505E-03    -28.5015E-03     55.7251E-03    -27.3239E-03     79.2855E-03
             497     14.0141E-03     69.1592E-03    -11.9640E+06     12.4687E+06    -26.5748E+06     883.623E+03    -29.5653E-03     56.7346E-03    -27.1694E-03     101.948E-03    -30.0054E-03     57.2536E-03    -27.3030E-03     101.711E-03
             498     14.8867E-03     69.2801E-03    -12.8551E+06     68.5963E+06    -17.4089E+06     105.365E+03    -35.7727E-03     62.9033E-03    -27.1306E-03     187.070E-03    -37.7137E-03     65.0926E-03    -27.2985E-03     186.749E-03
             499     15.7636E-03     69.5177E-03    -9.77901E+06     135.335E+06     43.0506E+06     653.086E+03    -47.3336E-03     74.6493E-03    -27.3157E-03     327.987E-03    -57.7094E-03     85.3460E-03    -27.2825E-03     329.138E-03
             500     16.6412E-03     69.9194E-03    -5.35592E+06     187.060E+06     106.017E+06     903.414E+03    -50.8985E-03     78.4212E-03    -27.5227E-03     391.866E-03    -70.7430E-03     98.6034E-03    -27.2561E-03     401.321E-03
             501     875.609E-06     69.5201E-03    -26.3357E+06    -117.816E+06    -26.0854E+06    -38.1737E+03    -27.4888E-03     54.9715E-03    -27.4827E-03     5.63917E-03    -27.4120E-03     54.4587E-03    -27.4041E-03     5.63578E-03
             502     1.75143E-03     69.5277E-03    -25.6744E+06    -116.826E+06    -24.3729E+06     44.0794E+03    -27.5144E-03     55.0032E-03    -27.4889E-03     10.4600E-03    -27.4385E-03     54.4921E-03    -27.4041E-03     10.4551E-03
             503     2.62692E-03     69.5401E-03    -24.7549E+06    -115.260E+06    -21.5056E+06     95.4638E+03    -27.5414E-03     55.0415E-03    -27.5001E-03     15.5658E-03    -27.4678E-03     54.5333E-03    -27.4046E-03     15.5585E-03
             504     3.50279E-03     69.5573E-03    -23.5372E+06    -113.401E+06    -18.0110E+06     295.033E+03    -27.5819E-03     55.0936E-03    -27.5117E-03     20.7601E-03    -27.5109E-03     54.5887E-03    -27.4032E-03     20.7519E-03
             505     4.37825E-03     69.5796E-03    -21.8000E+06    -111.320E+06    -14.2445E+06     632.826E+03    -27.6345E-03     55.1568E-03    -27.5224E-03     26.0020E-03    -27.5645E-03     54.6556E-03    -27.4006E-03     25.9939E-03
             506     5.25420E-03     69.6069E-03    -19.7122E+06    -108.789E+06    -9.86454E+06     863.921E+03    -27.7076E-03     55.2419E-03    -27.5343E-03     31.3102E-03    -27.6390E-03     54.7458E-03    -27.3973E-03     31.3000E-03
             507     6.12959E-03     69.6392E-03    -18.0323E+06    -105.431E+06    -6.35746E+06     522.820E+03    -27.7860E-03     55.3269E-03    -27.5409E-03     36.6852E-03    -27.7217E-03     54.8427E-03    -27.3937E-03     36.6643E-03
             508     7.00571E-03     69.6767E-03    -16.3484E+06    -100.884E+06    -4.21409E+06     118.418E+03    -27.9027E-03     55.4422E-03    -27.5394E-03     42.1223E-03    -27.8435E-03     54.9789E-03    -27.3905E-03     42.0883E-03
             509     7.88088E-03     69.7195E-03    -14.9387E+06    -96.0398E+06    -3.58953E+06     97.2435E+03    -28.0181E-03     55.5492E-03    -27.5311E-03     47.5868E-03    -27.9652E-03     55.1128E-03    -27.3882E-03     47.5425E-03
             510     8.75723E-03     69.7673E-03    -13.6723E+06    -90.3448E+06    -2.97150E+06     202.195E+03    -28.1317E-03     55.6527E-03    -27.5210E-03     53.0001E-03    -28.0895E-03     55.2499E-03    -27.3850E-03     52.9447E-03
             511     9.63217E-03     69.8203E-03    -12.2900E+06    -84.3722E+06    -3.14174E+06     353.695E+03    -28.2434E-03     55.7475E-03    -27.5041E-03     58.6508E-03    -28.2141E-03     55.3842E-03    -27.3797E-03     58.5820E-03
             512     10.5085E-03     69.8794E-03    -11.7346E+06    -77.2451E+06    -7.45229E+06     500.065E+03    -28.3314E-03     55.7939E-03    -27.4625E-03     64.0120E-03    -28.3203E-03     55.4885E-03    -27.3707E-03     63.9256E-03
             513     11.3844E-03     69.9414E-03    -11.0594E+06    -60.5451E+06    -8.28702E+06     749.379E+03    -28.4452E-03     55.8662E-03    -27.4210E-03     70.0026E-03    -28.4803E-03     55.6711E-03    -27.3586E-03     69.8941E-03
             514     12.2599E-03     70.0126E-03    -10.6360E+06    -39.1017E+06    -6.83136E+06     1.14313E+06    -28.4821E-03     55.8634E-03    -27.3813E-03     74.9228E-03    -28.5827E-03     55.8072E-03    -27.3433E-03     74.7933E-03
             515     13.1376E-03     70.0832E-03    -11.5376E+06    -22.6477E+06    -13.7952E+06     950.973E+03    -28.6941E-03     56.0064E-03    -27.3123E-03     78.7542E-03    -28.8739E-03     56.1048E-03    -27.3317E-03     78.5858E-03
             516     14.0098E-03     70.1643E-03    -11.3897E+06     12.5656E+06    -26.1933E+06     236.796E+03    -29.4877E-03     56.6764E-03    -27.1886E-03     101.780E-03    -29.9277E-03     57.1965E-03    -27.3213E-03     101.536E-03
             517     14.8891E-03     70.2775E-03    -11.4069E+06     68.8184E+06    -17.0844E+06     18.0366E+03    -35.8485E-03     62.9950E-03    -27.1466E-03     187.039E-03    -37.7825E-03     65.1824E-03    -27.3152E-03     186.705E-03
             518     15.7650E-03     70.5230E-03    -11.5698E+06     135.040E+06     42.0440E+06     203.514E+03    -47.8890E-03     75.2472E-03    -27.3583E-03     325.492E-03    -58.1649E-03     85.8395E-03    -27.3271E-03     326.580E-03
             519     16.6379E-03     70.9186E-03    -6.80458E+06     186.724E+06     105.502E+06     245.175E+03    -50.2476E-03     77.8285E-03    -27.5810E-03     391.218E-03    -70.1471E-03     98.0609E-03    -27.3143E-03     400.788E-03
             520     875.730E-06     70.5215E-03    -26.4056E+06    -117.756E+06    -25.9292E+06    -33.7583E+03    -27.5177E-03     54.9954E-03    -27.4777E-03     5.63810E-03    -27.4415E-03     54.4827E-03    -27.3983E-03     5.63478E-03
             521     1.75124E-03     70.5290E-03    -25.8527E+06    -116.889E+06    -24.3363E+06    -62.8372E+03    -27.5194E-03     55.0195E-03    -27.5001E-03     10.4578E-03    -27.4443E-03     54.5082E-03    -27.4148E-03     10.4514E-03
             522     2.62708E-03     70.5414E-03    -24.9624E+06    -115.518E+06    -21.7645E+06     132.760E+03    -27.5460E-03     55.0543E-03    -27.5083E-03     15.5682E-03    -27.4727E-03     54.5455E-03    -27.4134E-03     15.5614E-03
             523     3.50256E-03     70.5587E-03    -23.7665E+06    -113.712E+06    -18.4521E+06     272.854E+03    -27.5838E-03     55.1016E-03    -27.5178E-03     20.7625E-03    -27.5129E-03     54.5961E-03    -27.4107E-03     20.7539E-03
             524     4.37845E-03     70.5810E-03    -22.1710E+06    -111.480E+06    -14.4761E+06     154.008E+03    -27.6407E-03     55.1695E-03    -27.5288E-03     26.0219E-03    -27.5720E-03     54.6683E-03    -27.4074E-03     26.0076E-03
             525     5.25389E-03     70.6082E-03    -20.2268E+06    -109.290E+06    -10.4887E+06     298.305E+03    -27.7079E-03     55.2471E-03    -27.5391E-03     31.3192E-03    -27.6403E-03     54.7501E-03    -27.4038E-03     31.3017E-03
             526     6.12991E-03     70.6407E-03    -18.0868E+06    -104.902E+06    -7.02620E+06     402.743E+03    -27.7990E-03     55.3423E-03    -27.5433E-03     36.6863E-03    -27.7347E-03     54.8618E-03    -27.4001E-03     36.6638E-03
             527     7.00518E-03     70.6780E-03    -16.4848E+06    -100.604E+06    -5.22665E+06    -10.6110E+03    -27.9046E-03     55.4453E-03    -27.5407E-03     42.1497E-03    -27.8449E-03     54.9851E-03    -27.3971E-03     42.1140E-03
             528     7.88138E-03     70.7210E-03    -15.0015E+06    -96.2698E+06    -4.41159E+06    -17.8977E+03    -28.0179E-03     55.5512E-03    -27.5333E-03     47.5803E-03    -27.9637E-03     55.1148E-03    -27.3940E-03     47.5346E-03
             529     8.75651E-03     70.7685E-03    -13.6725E+06    -90.2861E+06    -3.26633E+06     8.95986E+03    -28.1351E-03     55.6597E-03    -27.5246E-03     53.0954E-03    -28.0926E-03     55.2576E-03    -27.3902E-03     53.0375E-03
             530     9.63281E-03     70.8222E-03    -12.7879E+06    -84.8588E+06    -3.91664E+06     47.2112E+03    -28.2239E-03     55.7296E-03    -27.5057E-03     58.5590E-03    -28.1952E-03     55.3657E-03    -27.3837E-03     58.4862E-03
             531     10.5086E-03     70.8795E-03    -11.4816E+06    -77.1313E+06    -7.21950E+06     191.265E+03    -28.3206E-03     55.7867E-03    -27.4661E-03     63.7116E-03    -28.3086E-03     55.4811E-03    -27.3737E-03     63.6211E-03
             532     11.3840E-03     70.9442E-03    -10.7650E+06    -61.1606E+06    -8.24783E+06     198.469E+03    -28.4705E-03     55.8962E-03    -27.4257E-03     69.6271E-03    -28.5030E-03     55.6972E-03    -27.3626E-03     69.5114E-03
             533     12.2607E-03     71.0119E-03    -10.3116E+06    -40.4477E+06    -7.23743E+06     730.274E+03    -28.8172E-03     56.2146E-03    -27.3974E-03     74.8553E-03    -28.9147E-03     56.1528E-03    -27.3600E-03     74.7181E-03
             534     13.1337E-03     71.0875E-03    -9.04957E+06    -21.9188E+06    -12.6627E+06     1.38190E+06    -28.8430E-03     56.1878E-03    -27.3448E-03     78.8196E-03    -29.0141E-03     56.2857E-03    -27.3632E-03     78.6556E-03
             535     14.0134E-03     71.1623E-03    -9.96422E+06     13.1678E+06    -26.1347E+06     771.901E+03    -29.6333E-03     56.8585E-03    -27.2251E-03     101.163E-03    -30.0633E-03     57.3756E-03    -27.3605E-03     100.924E-03
             536     14.8872E-03     71.2808E-03    -12.1202E+06      67.843E+06    -18.0205E+06     539.161E+03    -36.3250E-03     63.5230E-03    -27.1981E-03     187.344E-03    -38.2695E-03     65.7177E-03    -27.3690E-03     187.006E-03
             537     15.7591E-03     71.5251E-03    -10.3415E+06     136.094E+06     42.5040E+06     731.578E+03    -47.5662E-03     74.9750E-03    -27.4088E-03     326.217E-03    -57.8434E-03     85.5753E-03    -27.3786E-03     327.383E-03
             538     16.6382E-03     71.9176E-03    -6.14534E+06     187.437E+06     105.423E+06    -37.1039E+03    -49.8285E-03     77.4325E-03    -27.6040E-03     391.737E-03    -69.7665E-03     97.7084E-03    -27.3398E-03     401.388E-03
             539     875.586E-06     71.5228E-03    -26.4029E+06    -117.800E+06    -25.9531E+06     99.4167E+03    -27.5113E-03     55.0176E-03    -27.5063E-03     5.63275E-03    -27.4350E-03     54.5047E-03    -27.4270E-03     5.63117E-03
             540     1.75137E-03     71.5304E-03    -26.0029E+06    -116.946E+06    -24.3061E+06     125.887E+03    -27.5251E-03     55.0358E-03    -27.5106E-03     10.4682E-03    -27.4508E-03     54.5244E-03    -27.4249E-03     10.4643E-03
             541     2.62689E-03     71.5427E-03    -25.1277E+06    -115.682E+06    -22.0021E+06     61.1515E+03    -27.5508E-03     55.0670E-03    -27.5162E-03     15.5685E-03    -27.4778E-03     54.5579E-03    -27.4220E-03     15.5607E-03
             542     3.50272E-03     71.5601E-03    -23.6899E+06    -113.795E+06    -18.7811E+06     32.9805E+03    -27.5892E-03     55.1129E-03    -27.5237E-03     20.7664E-03    -27.5172E-03     54.6073E-03    -27.4183E-03     20.7547E-03
             543     4.37822E-03     71.5823E-03    -22.1512E+06    -111.436E+06    -14.5822E+06     28.4804E+03    -27.6431E-03     55.1780E-03    -27.5349E-03     26.0275E-03    -27.5742E-03     54.6772E-03    -27.4141E-03     26.0116E-03
             544     5.25411E-03     71.6098E-03    -20.5239E+06    -109.528E+06    -10.7756E+06    -37.2217E+03    -27.7199E-03     55.2651E-03    -27.5452E-03     31.3230E-03    -27.6530E-03     54.7678E-03    -27.4105E-03     31.3011E-03
             545     6.12951E-03     71.6418E-03    -18.7581E+06    -104.851E+06    -8.37338E+06    -102.698E+03    -27.8008E-03     55.3452E-03    -27.5445E-03     36.7140E-03    -27.7379E-03     54.8679E-03    -27.4071E-03     36.6850E-03
             546     7.00558E-03     71.6798E-03    -16.9139E+06    -100.187E+06    -6.05096E+06    -183.484E+03    -27.8985E-03     55.4411E-03    -27.5426E-03     42.1556E-03    -27.8403E-03     54.9848E-03    -27.4031E-03     42.1177E-03
             547     7.88086E-03     71.7220E-03    -15.3403E+06    -96.4688E+06    -4.87324E+06    -367.825E+03    -28.0108E-03     55.5473E-03    -27.5365E-03     47.5972E-03    -27.9574E-03     55.1111E-03    -27.3987E-03     47.5470E-03
             548     8.75706E-03     71.7705E-03    -13.8850E+06    -90.2364E+06    -3.49974E+06    -386.339E+03    -28.1389E-03     55.6668E-03    -27.5279E-03     53.0353E-03    -28.0972E-03     55.2656E-03    -27.3944E-03     52.9722E-03
             549     9.63249E-03     71.8227E-03    -12.4776E+06    -84.4473E+06    -3.44911E+06    -332.104E+03    -28.2944E-03     55.8088E-03    -27.5144E-03     58.4483E-03    -28.2656E-03     55.4458E-03    -27.3911E-03     58.3702E-03
             550     10.5077E-03     71.8822E-03    -11.9203E+06    -77.7794E+06    -7.91508E+06    -238.609E+03    -28.4224E-03     55.9007E-03    -27.4783E-03     63.6816E-03    -28.4109E-03     55.5938E-03    -27.3878E-03     63.5849E-03
             551     11.3844E-03     71.9436E-03    -11.7023E+06    -61.8221E+06    -9.06300E+06    -140.633E+03    -28.5528E-03     55.9970E-03    -27.4442E-03     69.6369E-03    -28.5879E-03     55.7973E-03    -27.3829E-03     69.5163E-03
             552     12.2589E-03     72.0156E-03    -10.9150E+06    -40.2908E+06    -7.03892E+06    -88.0144E+03    -28.6849E-03     56.1007E-03    -27.4158E-03     75.3978E-03    -28.7858E-03     56.0402E-03    -27.3768E-03     75.2512E-03
             553     13.1371E-03     72.0872E-03    -9.98780E+06    -23.1435E+06    -12.7570E+06     337.778E+03    -29.0300E-03     56.3937E-03    -27.3637E-03     79.0779E-03    -29.2043E-03     56.4874E-03    -27.3795E-03     78.8983E-03
             554     14.0091E-03     72.1653E-03    -10.1192E+06     13.5017E+06    -22.8980E+06     1.91795E+06    -30.2081E-03     57.4868E-03    -27.2787E-03     101.697E-03    -30.6514E-03     58.0084E-03    -27.3981E-03     101.464E-03
             555     14.8849E-03     72.2823E-03    -11.2131E+06     68.0589E+06    -17.3296E+06     2.05335E+06    -35.6423E-03     62.8712E-03    -27.2288E-03     188.735E-03    -37.5827E-03     65.0636E-03    -27.3979E-03     188.448E-03
             556     15.7653E-03     72.5273E-03    -9.38857E+06     135.977E+06     41.8169E+06    -295.551E+03    -46.9299E-03     74.3162E-03    -27.3863E-03     327.509E-03    -57.2537E-03     84.9682E-03    -27.3608E-03     328.690E-03
             557     16.6401E-03     72.9205E-03    -5.82767E+06     188.573E+06     107.273E+06    -253.468E+03    -50.1916E-03     77.7764E-03    -27.5848E-03     390.615E-03    -70.0198E-03     97.9423E-03    -27.3134E-03     400.180E-03
             558     875.688E-06     72.5243E-03    -26.5895E+06    -118.076E+06    -26.2655E+06     143.552E+03    -27.5106E-03     55.0292E-03    -27.5186E-03     5.64246E-03    -27.4344E-03     54.5156E-03    -27.4401E-03     5.64141E-03
             559     1.75125E-03     72.5318E-03    -25.9964E+06    -117.086E+06    -24.5803E+06     251.958E+03    -27.5326E-03     55.0484E-03    -27.5158E-03     10.4742E-03    -27.4576E-03     54.5367E-03    -27.4313E-03     10.4719E-03
             560     2.62700E-03     72.5443E-03    -25.1496E+06    -115.484E+06    -21.7424E+06     107.768E+03    -27.5594E-03     55.0835E-03    -27.5241E-03     15.5714E-03    -27.4871E-03     54.5751E-03    -27.4289E-03     15.5642E-03
             561     3.50255E-03     72.5614E-03    -23.9927E+06    -113.645E+06    -18.4304E+06    -230.603E+03    -27.5968E-03     55.1301E-03    -27.5333E-03     20.7716E-03    -27.5271E-03     54.6252E-03    -27.4259E-03     20.7565E-03
             562     4.37834E-03     72.5839E-03    -22.1997E+06    -111.504E+06    -14.7341E+06    -277.662E+03    -27.6493E-03     55.1913E-03    -27.5420E-03     26.0298E-03    -27.5803E-03     54.6904E-03    -27.4218E-03     26.0100E-03
             563     5.25388E-03     72.6109E-03    -20.2113E+06    -109.406E+06    -10.8423E+06    -276.149E+03    -27.7248E-03     55.2763E-03    -27.5515E-03     31.3399E-03    -27.6564E-03     54.7792E-03    -27.4178E-03     31.3150E-03
             564     6.12976E-03     72.6437E-03    -18.3912E+06    -104.699E+06    -8.40299E+06    -464.503E+03    -27.8076E-03     55.3580E-03    -27.5504E-03     36.7077E-03    -27.7432E-03     54.8809E-03    -27.4139E-03     36.6740E-03
             565     7.00519E-03     72.6806E-03    -16.7780E+06    -100.064E+06    -6.06858E+06    -553.879E+03    -27.8959E-03     55.4442E-03    -27.5483E-03     42.1570E-03    -27.8373E-03     54.9884E-03    -27.4092E-03     42.1143E-03
             566     7.88121E-03     72.7241E-03    -15.1960E+06    -96.2848E+06    -4.48436E+06    -684.215E+03    -28.0300E-03     55.5742E-03    -27.5443E-03     47.5738E-03    -27.9767E-03     55.1382E-03    -27.4050E-03     47.5194E-03
             567     8.75660E-03     72.7710E-03    -13.8685E+06    -90.1717E+06    -3.84823E+06    -772.188E+03    -28.1672E-03     55.7013E-03    -27.5341E-03     53.0464E-03    -28.1250E-03     55.3009E-03    -27.4025E-03     52.9782E-03
             568     9.63224E-03     72.8254E-03    -12.8566E+06    -84.6715E+06    -4.19628E+06    -580.590E+03    -28.2672E-03     55.7861E-03    -27.5189E-03     58.4966E-03    -28.2388E-03     55.4236E-03    -27.3985E-03     58.4155E-03
             569     10.5088E-03     72.8820E-03    -12.0225E+06    -77.9244E+06    -8.28887E+06    -435.600E+03    -28.4577E-03     55.9412E-03    -27.4835E-03     63.8832E-03    -28.4461E-03     55.6343E-03    -27.3945E-03     63.7839E-03
             570     11.3830E-03     72.9472E-03    -11.6013E+06    -61.9564E+06    -9.52538E+06    -165.018E+03    -28.6151E-03     56.0663E-03    -27.4512E-03     69.8857E-03    -28.6493E-03     55.8669E-03    -27.3921E-03     69.7643E-03
             571     12.2605E-03     73.0144E-03    -11.2998E+06    -40.2311E+06    -7.93393E+06    -195.871E+03    -28.7385E-03     56.1628E-03    -27.4243E-03     75.3301E-03    -28.8398E-03     56.1042E-03    -27.3892E-03     75.1818E-03
             572     13.1342E-03     73.0908E-03    -11.9983E+06    -23.7673E+06    -15.2026E+06     90.7155E+03    -28.9365E-03     56.3022E-03    -27.3656E-03     79.3874E-03    -29.1164E-03     56.3992E-03    -27.3898E-03     79.2059E-03
             573     14.0116E-03     73.1670E-03    -12.4210E+06     11.6555E+06    -25.2778E+06     1.11112E+06    -29.8633E-03     57.1307E-03    -27.2674E-03     102.666E-03    -30.3144E-03     57.6524E-03    -27.3927E-03     102.427E-03
             574     14.8875E-03     73.2844E-03    -10.3337E+06     70.6789E+06    -13.5378E+06     598.692E+03    -35.6007E-03     62.8301E-03    -27.2294E-03     187.701E-03    -37.5323E-03     65.0152E-03    -27.3846E-03     187.388E-03
             575     15.7620E-03     73.5248E-03    -10.9595E+06     136.145E+06     42.3721E+06     307.445E+03    -46.7648E-03     74.1438E-03    -27.3790E-03     326.617E-03    -57.0639E-03     84.7645E-03    -27.3487E-03     327.802E-03
             576     16.6381E-03     73.9255E-03    -7.58225E+06     186.505E+06     104.564E+06     527.568E+03    -49.9591E-03     77.5130E-03    -27.5539E-03     390.754E-03    -69.7033E-03     97.5892E-03    -27.2905E-03     400.297E-03
             577     875.627E-06     73.5256E-03    -26.8674E+06    -118.300E+06    -26.5371E+06     82.2789E+03    -27.5235E-03     55.0342E-03    -27.5107E-03     5.66031E-03    -27.4480E-03     54.5203E-03    -27.4329E-03     5.65845E-03
             578     1.75130E-03     73.5333E-03    -26.1811E+06    -117.259E+06    -24.8121E+06     64.3451E+03    -27.5411E-03     55.0605E-03    -27.5195E-03     10.4757E-03    -27.4664E-03     54.5486E-03    -27.4355E-03     10.4710E-03
             579     2.62692E-03     73.5455E-03    -25.0671E+06    -115.421E+06    -21.7259E+06     131.830E+03    -27.5667E-03     55.0964E-03    -27.5296E-03     15.5826E-03    -27.4942E-03     54.5881E-03    -27.4346E-03     15.5757E-03
             580     3.50260E-03     73.5630E-03    -23.8679E+06    -113.168E+06    -17.8400E+06    -43.5885E+03    -27.6055E-03     55.1471E-03    -27.5416E-03     20.7735E-03    -27.5367E-03     54.6436E-03    -27.4321E-03     20.7608E-03
             581     4.37821E-03     73.5850E-03    -22.5274E+06    -111.192E+06    -14.5733E+06    -594.313E+03    -27.6569E-03     55.2068E-03    -27.5498E-03     26.0472E-03    -27.5903E-03     54.7077E-03    -27.4288E-03     26.0233E-03
             582     5.25396E-03     73.6127E-03    -20.7133E+06    -109.295E+06    -11.5884E+06    -800.315E+03    -27.7267E-03     55.2820E-03    -27.5553E-03     31.3553E-03    -27.6599E-03     54.7873E-03    -27.4247E-03     31.3235E-03
             583     6.12952E-03     73.6446E-03    -18.7668E+06    -104.406E+06    -8.56344E+06    -892.271E+03    -27.8098E-03     55.3660E-03    -27.5561E-03     36.7291E-03    -27.7475E-03     54.8912E-03    -27.4204E-03     36.6898E-03
             584     7.00536E-03     73.6827E-03    -16.8209E+06    -99.9549E+06    -6.23606E+06    -1.02730E+06    -27.9107E-03     55.4649E-03    -27.5542E-03     42.1483E-03    -27.8522E-03     55.0099E-03    -27.4160E-03     42.0994E-03
             585     7.88091E-03     73.7246E-03    -15.2936E+06    -96.2618E+06    -5.26887E+06    -952.239E+03    -28.0350E-03     55.5825E-03    -27.5475E-03     47.6437E-03    -27.9811E-03     55.1479E-03    -27.4121E-03     47.5859E-03
             586     8.75661E-03     73.7737E-03    -14.0369E+06    -89.9556E+06    -4.52094E+06    -983.593E+03    -28.1430E-03     55.6790E-03    -27.5360E-03     53.0782E-03    -28.1010E-03     55.2809E-03    -27.4078E-03     53.0075E-03
             587     9.63274E-03     73.8253E-03    -12.7559E+06    -84.7872E+06    -4.79081E+06    -1.05446E+06    -28.2906E-03     55.8112E-03    -27.5206E-03     58.4831E-03    -28.2607E-03     55.4489E-03    -27.4031E-03     58.3957E-03
             588     10.5074E-03     73.8852E-03    -11.7335E+06    -78.0627E+06    -8.76721E+06    -790.458E+03    -28.4011E-03     55.8849E-03    -27.4838E-03     63.8184E-03    -28.3868E-03     55.5773E-03    -27.3975E-03     63.7150E-03
             589     11.3849E-03     73.9467E-03    -10.9709E+06    -62.2123E+06    -9.88818E+06    -467.970E+03    -28.6256E-03     56.0750E-03    -27.4494E-03     69.9259E-03    -28.6558E-03     55.8741E-03    -27.3928E-03     69.8006E-03
             590     12.2585E-03     74.0183E-03    -10.9945E+06    -40.7121E+06    -8.62296E+06    -14.3767E+03    -28.8523E-03     56.2774E-03    -27.4251E-03     75.7325E-03    -28.9516E-03     56.2182E-03    -27.3933E-03     75.5853E-03
             591     13.1356E-03     74.0907E-03    -10.8901E+06    -24.2825E+06    -15.0745E+06     96.2729E+03    -28.8277E-03     56.1961E-03    -27.3684E-03     79.6776E-03    -29.0020E-03     56.2893E-03    -27.3928E-03     79.4969E-03
             592     14.0111E-03     74.1687E-03    -10.9394E+06     11.3575E+06    -27.6831E+06    -624.695E+03    -29.6952E-03     56.9438E-03    -27.2486E-03     101.844E-03    -30.1319E-03     57.4623E-03    -27.3876E-03     101.585E-03
             593     14.8864E-03     74.2858E-03    -13.6773E+06     69.1326E+06    -17.1215E+06     530.498E+03    -35.6204E-03     62.8303E-03    -27.2100E-03     187.386E-03    -37.5522E-03     65.0087E-03    -27.3760E-03     187.071E-03
             594     15.7616E-03     74.5286E-03    -11.6487E+06     137.384E+06     42.9966E+06     1.83405E+06    -46.6571E-03     74.0264E-03    -27.3693E-03     327.055E-03    -56.9687E-03     84.6597E-03    -27.3366E-03     328.296E-03
             595     16.6428E-03     74.9214E-03    -5.78154E+06     188.542E+06     104.881E+06     420.369E+03    -50.1731E-03     77.7118E-03    -27.5386E-03     391.281E-03    -69.9833E-03     97.8666E-03    -27.2792E-03     400.800E-03
             596     875.640E-06     74.5271E-03    -27.0100E+06    -118.342E+06    -26.6996E+06    -78.3310E+03    -27.5310E-03     55.0414E-03    -27.5104E-03     5.69255E-03    -27.4558E-03     54.5277E-03    -27.4332E-03     5.68860E-03
             597     1.75129E-03     74.5345E-03    -26.3071E+06    -117.191E+06    -24.7688E+06    -153.473E+03    -27.5498E-03     55.0747E-03    -27.5249E-03     10.4746E-03    -27.4759E-03     54.5632E-03    -27.4407E-03     10.4670E-03
             598     2.62690E-03     74.5471E-03    -25.1188E+06    -115.498E+06    -21.9915E+06    -198.403E+03    -27.5721E-03     55.1066E-03    -27.5346E-03     15.5844E-03    -27.4993E-03     54.5984E-03    -27.4406E-03     15.5733E-03
             599     3.50259E-03     74.5641E-03    -23.3775E+06    -112.888E+06    -17.9795E+06    -199.364E+03    -27.6120E-03     55.1576E-03    -27.5455E-03     20.7824E-03    -27.5410E-03     54.6549E-03    -27.4379E-03     20.7677E-03
             600     4.37822E-03     74.5868E-03    -21.7178E+06    -110.429E+06    -13.9081E+06    -468.697E+03    -27.6676E-03     55.2243E-03    -27.5567E-03     26.0394E-03    -27.5990E-03     54.7269E-03    -27.4346E-03     26.0171E-03
             601     5.25389E-03     74.6136E-03    -20.1720E+06    -108.776E+06    -11.1687E+06    -1.16567E+06    -27.7299E-03     55.2916E-03    -27.5616E-03     31.3627E-03    -27.6618E-03     54.7981E-03    -27.4305E-03     31.3262E-03
             602     6.12958E-03     74.6465E-03    -18.3152E+06    -104.093E+06    -8.65668E+06    -1.47682E+06    -27.8095E-03     55.3690E-03    -27.5595E-03     36.7619E-03    -27.7452E-03     54.8952E-03    -27.4253E-03     36.7152E-03
             603     7.00524E-03     74.6835E-03    -16.7468E+06    -100.066E+06    -6.52707E+06    -1.29851E+06    -27.9176E-03     55.4748E-03    -27.5572E-03     42.1988E-03    -27.8582E-03     55.0196E-03    -27.4204E-03     42.1465E-03
             604     7.88088E-03     74.7270E-03    -15.3983E+06    -96.0837E+06    -6.01515E+06    -1.28654E+06    -28.0134E-03     55.5601E-03    -27.5467E-03     47.6723E-03    -27.9591E-03     55.1275E-03    -27.4151E-03     47.6103E-03
             605     8.75686E-03     74.7739E-03    -13.9659E+06    -89.7723E+06    -5.14497E+06    -1.36206E+06    -28.1374E-03     55.6710E-03    -27.5336E-03     53.1147E-03    -28.0943E-03     55.2746E-03    -27.4090E-03     53.0392E-03
             606     9.63189E-03     74.8282E-03    -12.8051E+06    -84.8315E+06    -5.38081E+06    -1.45272E+06    -28.2631E-03     55.7803E-03    -27.5171E-03     58.6042E-03    -28.2325E-03     55.4186E-03    -27.4024E-03     58.5120E-03
             607     10.5088E-03     74.8851E-03    -12.1075E+06    -78.3558E+06    -9.58739E+06    -1.33837E+06    -28.4653E-03     55.9464E-03    -27.4811E-03     63.9634E-03    -28.4515E-03     55.6393E-03    -27.3978E-03     63.8525E-03
             608     11.3828E-03     74.9495E-03    -11.6848E+06    -62.5013E+06    -10.5316E+06    -1.10131E+06    -28.6604E-03     56.1121E-03    -27.4517E-03     70.0381E-03    -28.6932E-03     55.9120E-03    -27.3968E-03     69.9042E-03
             609     12.2605E-03     75.0186E-03    -10.7460E+06    -41.0628E+06    -8.41673E+06    -557.186E+03    -28.7689E-03     56.1977E-03    -27.4287E-03     75.4635E-03    -28.8663E-03     56.1356E-03    -27.3957E-03     75.3098E-03
             610     13.1353E-03     75.0930E-03    -9.86383E+06    -24.3710E+06    -14.1032E+06    -363.258E+03    -28.8980E-03     56.2722E-03    -27.3742E-03     79.3538E-03    -29.0677E-03     56.3612E-03    -27.3951E-03     79.1667E-03
             611     14.0102E-03     75.1705E-03    -11.6424E+06     11.1933E+06    -28.2553E+06     311.830E+03    -29.6339E-03     56.8827E-03    -27.2488E-03     102.407E-03    -30.0730E-03     57.4022E-03    -27.3894E-03     102.162E-03
             612     14.8866E-03     75.2868E-03    -12.8763E+06     67.5902E+06    -22.0217E+06     1.56996E+06    -35.0620E-03     62.2317E-03    -27.1698E-03     187.436E-03    -36.9672E-03     64.3951E-03    -27.3592E-03     187.153E-03
             613     15.7662E-03     75.5284E-03    -9.77999E+06     137.440E+06     41.1913E+06     397.097E+03    -46.8789E-03     74.2138E-03    -27.3349E-03     326.180E-03    -57.1575E-03     84.8261E-03    -27.3140E-03     327.332E-03
             614     16.6368E-03     75.9246E-03      -5.575E+06     189.592E+06     106.909E+06     129.591E+03    -50.5397E-03     78.0831E-03    -27.5434E-03     391.443E-03    -70.3894E-03     98.2761E-03    -27.2757E-03     400.943E-03
             615     875.669E-06     75.5284E-03    -26.9332E+06    -118.041E+06    -26.4876E+06    -210.623E+03    -27.5526E-03     55.0654E-03    -27.5128E-03     5.69658E-03    -27.4778E-03     54.5528E-03    -27.4350E-03     5.69092E-03
             616     1.75122E-03     75.5362E-03    -26.2286E+06    -117.008E+06    -24.8172E+06    -313.970E+03    -27.5495E-03     55.0832E-03    -27.5337E-03     10.4734E-03    -27.4754E-03     54.5726E-03    -27.4501E-03     10.4638E-03
             617     2.62694E-03     75.5483E-03    -25.1952E+06    -115.182E+06    -21.9218E+06    -505.147E+03    -27.5772E-03     55.1185E-03    -27.5414E-03     15.5895E-03    -27.5053E-03     54.6119E-03    -27.4475E-03     15.5744E-03
             618     3.50249E-03     75.5659E-03    -23.7457E+06    -112.664E+06    -18.7473E+06    -815.123E+03    -27.6136E-03     55.1617E-03    -27.5481E-03     20.7948E-03    -27.5436E-03     54.6618E-03    -27.4441E-03     20.7722E-03
             619     4.37824E-03     75.5879E-03    -21.6254E+06    -109.838E+06    -15.0203E+06    -1.04195E+06    -27.6635E-03     55.2184E-03    -27.5549E-03     26.0614E-03    -27.5937E-03     54.7255E-03    -27.4394E-03     26.0317E-03
             620     5.25381E-03     75.6155E-03    -19.5273E+06    -107.709E+06    -11.3183E+06    -1.48137E+06    -27.7308E-03     55.2926E-03    -27.5618E-03     31.3720E-03    -27.6608E-03     54.8037E-03    -27.4339E-03     31.3314E-03
             621     6.12958E-03     75.6474E-03    -18.2083E+06    -104.154E+06    -9.39778E+06    -1.59963E+06    -27.7973E-03     55.3548E-03    -27.5575E-03     36.7871E-03    -27.7312E-03     54.8816E-03    -27.4271E-03     36.7388E-03
             622     7.00520E-03     75.6856E-03    -16.9614E+06    -99.9417E+06    -7.47075E+06    -1.48941E+06    -27.8914E-03     55.4430E-03    -27.5516E-03     42.2575E-03    -27.8318E-03     54.9900E-03    -27.4194E-03     42.2028E-03
             623     7.88109E-03     75.7275E-03    -15.4936E+06    -95.5425E+06    -6.30298E+06    -1.71084E+06    -28.0164E-03     55.5587E-03    -27.5423E-03     47.7016E-03    -27.9631E-03     55.1295E-03    -27.4128E-03     47.6341E-03
             624     8.75640E-03     75.7764E-03    -14.0996E+06    -89.7215E+06    -5.57905E+06    -1.89454E+06    -28.1101E-03     55.6384E-03    -27.5283E-03     53.1823E-03    -28.0671E-03     55.2430E-03    -27.4056E-03     53.1001E-03
             625     9.63299E-03     75.8284E-03    -12.8725E+06    -84.7150E+06    -5.76785E+06    -1.90925E+06    -28.2836E-03     55.7953E-03    -27.5117E-03     58.5550E-03    -28.2530E-03     55.4349E-03    -27.3990E-03     58.4567E-03
             626     10.5076E-03     75.8876E-03    -11.7644E+06    -78.3048E+06    -9.49951E+06    -1.89362E+06    -28.4789E-03     55.9581E-03    -27.4793E-03     63.9650E-03    -28.4637E-03     55.6507E-03    -27.3962E-03     63.8468E-03
             627     11.3845E-03     75.9504E-03    -11.2468E+06    -62.8048E+06    -10.8945E+06    -1.53238E+06    -28.6879E-03     56.1372E-03    -27.4493E-03     70.2174E-03    -28.7174E-03     55.9353E-03    -27.3964E-03     70.0782E-03
             628     12.2585E-03     76.0204E-03    -10.9931E+06    -41.6332E+06    -9.50337E+06    -1.26878E+06    -28.7992E-03     56.2246E-03    -27.4253E-03     75.8025E-03    -28.8957E-03     56.1618E-03    -27.3965E-03     75.6397E-03
             629     13.1346E-03     76.0948E-03    -11.0543E+06    -24.6708E+06    -15.6644E+06    -424.880E+03    -28.6991E-03     56.0621E-03    -27.3630E-03     79.8022E-03    -28.8716E-03     56.1532E-03    -27.3895E-03     79.6166E-03
             630     14.0120E-03     76.1710E-03    -10.6238E+06     9.08600E+06    -29.0637E+06     1.02691E+06    -29.3664E-03     56.5928E-03    -27.2264E-03     102.090E-03    -29.7919E-03     57.0971E-03    -27.3695E-03     101.858E-03
             631     14.8880E-03     76.2887E-03    -9.58870E+06     68.8290E+06    -18.1151E+06     758.581E+03    -35.5235E-03     62.6942E-03    -27.1707E-03     186.762E-03    -37.4297E-03     64.8632E-03    -27.3472E-03     186.452E-03
             632     15.7608E-03     76.5279E-03    -10.6285E+06     138.396E+06     41.9236E+06     372.154E+03    -46.9477E-03     74.2912E-03    -27.3436E-03     326.171E-03    -57.2361E-03     84.9117E-03    -27.3192E-03     327.357E-03
             633     16.6425E-03     76.9283E-03    -6.96526E+06     187.933E+06     104.495E+06     455.587E+03    -49.9489E-03     77.4744E-03    -27.5256E-03     391.908E-03    -69.7952E-03     97.6602E-03    -27.2655E-03     401.453E-03
             634     875.538E-06     76.5300E-03    -26.8553E+06    -117.627E+06    -26.4609E+06    -131.157E+03    -27.5493E-03     55.0843E-03    -27.5350E-03     5.67773E-03    -27.4748E-03     54.5737E-03    -27.4578E-03     5.67313E-03
             635     1.75131E-03     76.5374E-03    -26.3106E+06    -116.593E+06    -24.7778E+06    -450.428E+03    -27.5504E-03     55.0922E-03    -27.5417E-03     10.4848E-03    -27.4774E-03     54.5837E-03    -27.4584E-03     10.4734E-03
             636     2.62682E-03     76.5500E-03    -25.3245E+06    -114.745E+06    -22.5033E+06    -679.742E+03    -27.5745E-03     55.1180E-03    -27.5435E-03     15.6005E-03    -27.5031E-03     54.6146E-03    -27.4529E-03     15.5832E-03
             637     3.50259E-03     76.5671E-03    -24.2294E+06    -111.892E+06    -20.0645E+06    -1.06645E+06    -27.6058E-03     55.1500E-03    -27.5441E-03     20.8163E-03    -27.5375E-03     54.6565E-03    -27.4471E-03     20.7904E-03
             638     4.37811E-03     76.5896E-03    -23.0740E+06    -108.946E+06    -17.7182E+06    -1.88682E+06    -27.6467E-03     55.1894E-03    -27.5427E-03     26.0910E-03    -27.5815E-03     54.7069E-03    -27.4399E-03     26.0504E-03
             639     5.25397E-03     76.6166E-03    -21.4897E+06    -107.286E+06    -13.7524E+06    -2.08110E+06    -27.7114E-03     55.2615E-03    -27.5501E-03     31.4208E-03    -27.6483E-03     54.7811E-03    -27.4321E-03     31.3726E-03
             640     6.12946E-03     76.6493E-03    -19.4209E+06    -104.071E+06    -9.71501E+06    -1.96527E+06    -27.7853E-03     55.3399E-03    -27.5546E-03     36.7964E-03    -27.7250E-03     54.8694E-03    -27.4242E-03     36.7434E-03
             641     7.00543E-03     76.6863E-03    -17.3006E+06    -99.5726E+06    -7.64962E+06    -2.10387E+06    -27.8706E-03     55.4171E-03    -27.5465E-03     42.2765E-03    -27.8130E-03     54.9668E-03    -27.4153E-03     42.2140E-03
             642     7.88083E-03     76.7298E-03    -15.5947E+06    -94.9743E+06    -6.74561E+06    -2.23238E+06    -27.9865E-03     55.5195E-03    -27.5330E-03     47.7388E-03    -27.9338E-03     55.0938E-03    -27.4064E-03     47.6647E-03
             643     8.75708E-03     76.7768E-03    -14.2714E+06    -89.2208E+06    -5.94241E+06    -2.51722E+06    -28.1347E-03     55.6547E-03    -27.5199E-03     53.1602E-03    -28.0929E-03     55.2626E-03    -27.3996E-03     53.0698E-03
             644     9.63197E-03     76.8307E-03    -12.8083E+06    -84.5632E+06    -6.17069E+06    -2.63021E+06    -28.2899E-03     55.7951E-03    -27.5052E-03     58.7151E-03    -28.2586E-03     55.4360E-03    -27.3948E-03     58.6076E-03
             645     10.5084E-03     76.8884E-03    -11.8473E+06    -78.9011E+06    -10.3349E+06    -2.44911E+06    -28.4320E-03     55.9021E-03    -27.4701E-03     64.1228E-03    -28.4151E-03     55.5930E-03    -27.3902E-03     63.9978E-03
             646     11.3834E-03     76.9519E-03    -10.9872E+06    -62.9821E+06    -11.1767E+06    -2.00152E+06    -28.5937E-03     56.0299E-03    -27.4361E-03     70.5010E-03    -28.6210E-03     55.8269E-03    -27.3848E-03     70.3566E-03
             647     12.2603E-03     77.0227E-03    -10.6360E+06    -41.7730E+06    -9.53718E+06    -1.40446E+06    -28.6830E-03     56.0889E-03    -27.4059E-03     75.9083E-03    -28.7775E-03     56.0250E-03    -27.3776E-03     75.7444E-03
             648     13.1365E-03     77.0949E-03    -10.5881E+06    -26.2561E+06    -16.1071E+06    -695.643E+03    -28.6826E-03     56.0227E-03    -27.3401E-03     79.6163E-03    -28.8496E-03     56.1055E-03    -27.3672E-03     79.4273E-03
             649     14.0105E-03     77.1738E-03    -10.7491E+06     8.50633E+06    -29.1462E+06    -585.822E+03    -29.5941E-03     56.8072E-03    -27.2130E-03     101.852E-03    -30.0211E-03     57.3107E-03    -27.3555E-03     101.596E-03
             650     14.8869E-03     77.2876E-03    -12.6900E+06     68.0554E+06    -19.5775E+06     884.076E+03    -35.5753E-03     62.7376E-03    -27.1623E-03     187.420E-03    -37.4957E-03     64.9112E-03    -27.3404E-03     187.114E-03
             651     15.7647E-03     77.5343E-03    -11.0530E+06     139.026E+06     40.5320E+06     1.55949E+06    -47.1169E-03     74.4521E-03    -27.3352E-03     325.954E-03    -57.3593E-03     85.0313E-03    -27.3181E-03     327.121E-03
             652     16.6386E-03     77.9214E-03    -5.81260E+06     189.298E+06     103.898E+06     1.30382E+03    -50.1400E-03     77.6781E-03    -27.5381E-03     389.958E-03    -69.9366E-03     97.8248E-03    -27.2847E-03     399.512E-03
             653     875.712E-06     77.5313E-03    -27.1034E+06    -117.269E+06    -26.7783E+06    -223.330E+03    -27.5226E-03     55.0835E-03    -27.5609E-03     5.65243E-03    -27.4494E-03     54.5755E-03    -27.4854E-03     5.64661E-03
             654     1.75116E-03     77.5390E-03    -26.6214E+06    -116.003E+06    -25.4597E+06    -394.625E+03    -27.5477E-03     55.0863E-03    -27.5386E-03     10.5004E-03    -27.4762E-03     54.5822E-03    -27.4591E-03     10.4897E-03
             655     2.62695E-03     77.5512E-03    -25.8860E+06    -113.992E+06    -23.6474E+06    -945.905E+03    -27.5695E-03     55.1066E-03    -27.5372E-03     15.6164E-03    -27.5003E-03     54.6095E-03    -27.4526E-03     15.5956E-03
             656     3.50246E-03     77.5687E-03    -24.2843E+06    -110.541E+06    -20.9600E+06    -1.81114E+06    -27.5965E-03     55.1326E-03    -27.5362E-03     20.8236E-03    -27.5290E-03     54.6474E-03    -27.4455E-03     20.7881E-03
             657     4.37831E-03     77.5908E-03    -22.5148E+06    -108.055E+06    -17.3087E+06    -2.20822E+06    -27.6413E-03     55.1812E-03    -27.5399E-03     26.0832E-03    -27.5752E-03     54.7017E-03    -27.4371E-03     26.0384E-03
             658     5.25379E-03     77.6182E-03    -21.2530E+06    -106.953E+06    -13.8198E+06    -2.37390E+06    -27.6964E-03     55.2412E-03    -27.5449E-03     31.3990E-03    -27.6324E-03     54.7623E-03    -27.4281E-03     31.3469E-03
             659     6.12977E-03     77.6504E-03    -19.6615E+06    -103.355E+06    -10.3298E+06    -2.80079E+06    -27.7760E-03     55.3217E-03    -27.5457E-03     36.8061E-03    -27.7170E-03     54.8560E-03    -27.4190E-03     36.7423E-03
             660     7.00510E-03     77.6882E-03    -17.9038E+06    -99.3565E+06    -7.94983E+06    -2.85601E+06    -27.8639E-03     55.4042E-03    -27.5403E-03     42.2668E-03    -27.8092E-03     54.9563E-03    -27.4100E-03     42.1946E-03
             661     7.88134E-03     77.7304E-03    -15.9983E+06    -94.3926E+06    -7.45918E+06    -3.07395E+06    -27.9703E-03     55.4938E-03    -27.5236E-03     47.7293E-03    -27.9193E-03     55.0727E-03    -27.4008E-03     47.6444E-03
             662     8.75648E-03     77.7790E-03    -14.1419E+06    -88.6833E+06    -6.38702E+06    -3.31067E+06    -28.0999E-03     55.6091E-03    -27.5092E-03     53.2364E-03    -28.0575E-03     55.2201E-03    -27.3920E-03     53.1360E-03
             663     9.63293E-03     77.8315E-03    -13.0025E+06    -84.5771E+06    -6.86740E+06    -3.35159E+06    -28.2235E-03     55.7139E-03    -27.4904E-03     58.7677E-03    -28.1921E-03     55.3560E-03    -27.3832E-03     58.6512E-03
             664     10.5083E-03     77.8901E-03    -11.9774E+06    -78.4547E+06    -10.5579E+06    -3.18056E+06    -28.4308E-03     55.8856E-03    -27.4549E-03     64.1938E-03    -28.4148E-03     55.5793E-03    -27.3765E-03     64.0594E-03
             665     11.3844E-03     77.9535E-03    -11.5144E+06    -63.5147E+06    -11.6622E+06    -2.77441E+06    -28.5811E-03     56.0035E-03    -27.4224E-03     70.3300E-03    -28.6098E-03     55.7996E-03    -27.3719E-03     70.1752E-03
             666     12.2598E-03     78.0231E-03    -10.8627E+06    -43.0457E+06    -10.0615E+06    -1.86399E+06    -28.6948E-03     56.0889E-03    -27.3941E-03     75.5930E-03    -28.7871E-03     56.0190E-03    -27.3663E-03     75.4234E-03
             667     13.1346E-03     78.0977E-03    -10.2584E+06    -26.9177E+06    -16.1240E+06    -1.29220E+06    -28.6494E-03     55.9796E-03    -27.3302E-03     79.0772E-03    -28.8132E-03     56.0582E-03    -27.3569E-03     78.8805E-03
             668     14.0128E-03     78.1732E-03    -12.0383E+06     7.72180E+06    -31.1880E+06     282.907E+03    -29.5423E-03     56.7355E-03    -27.1932E-03     102.228E-03    -29.9720E-03     57.2403E-03    -27.3429E-03     101.983E-03
             669     14.8872E-03     78.2923E-03    -12.9769E+06     66.3253E+06    -25.4431E+06     1.28347E+06    -35.4980E-03     62.6195E-03    -27.1215E-03     187.139E-03    -37.3995E-03     64.7842E-03    -27.3261E-03     186.839E-03
             670     15.7637E-03     78.5297E-03    -9.25808E+06     139.176E+06     39.2259E+06    -39.8687E+03    -47.3172E-03     74.6308E-03    -27.3136E-03     326.539E-03    -57.6301E-03     85.2912E-03    -27.3059E-03     327.638E-03
             671     16.6386E-03     78.9327E-03    -5.22028E+06     190.748E+06     106.445E+06     125.924E+03    -50.6012E-03     78.1440E-03    -27.5428E-03     391.284E-03    -70.4402E-03     98.3330E-03    -27.2796E-03     400.785E-03
             672     875.501E-06     78.5329E-03    -27.3265E+06    -116.657E+06    -27.4703E+06    -454.569E+03    -27.5252E-03     55.0648E-03    -27.5397E-03     5.66307E-03    -27.4529E-03     54.5612E-03    -27.4682E-03     5.65426E-03
             673     1.75135E-03     78.5403E-03    -26.8838E+06    -115.544E+06    -26.2375E+06    -608.171E+03    -27.5433E-03     55.0716E-03    -27.5282E-03     10.5013E-03    -27.4726E-03     54.5713E-03    -27.4529E-03     10.4879E-03
             674     2.62682E-03     78.5528E-03    -25.9271E+06    -112.509E+06    -23.5503E+06    -1.26539E+06    -27.5638E-03     55.0941E-03    -27.5304E-03     15.6221E-03    -27.4971E-03     54.6043E-03    -27.4474E-03     15.5972E-03
             675     3.50263E-03     78.5700E-03    -24.9655E+06    -108.736E+06    -20.8185E+06    -2.46507E+06    -27.5900E-03     55.1209E-03    -27.5309E-03     20.8248E-03    -27.5288E-03     54.6454E-03    -27.4411E-03     20.7809E-03
             676     4.37812E-03     78.5923E-03    -23.6056E+06    -107.740E+06    -17.4535E+06    -2.80257E+06    -27.6293E-03     55.1656E-03    -27.5363E-03     26.0850E-03    -27.5689E-03     54.6895E-03    -27.4331E-03     26.0325E-03
             677     5.25403E-03     78.6195E-03    -21.6069E+06    -106.026E+06    -14.1490E+06    -2.82114E+06    -27.6925E-03     55.2309E-03    -27.5384E-03     31.3980E-03    -27.6313E-03     54.7576E-03    -27.4241E-03     31.3402E-03
             678     6.12945E-03     78.6519E-03    -19.8894E+06    -102.341E+06    -11.2072E+06    -3.29791E+06    -27.7611E-03     55.2969E-03    -27.5358E-03     36.8029E-03    -27.7035E-03     54.8379E-03    -27.4146E-03     36.7327E-03
             679     7.00563E-03     78.6893E-03    -17.9045E+06    -98.7034E+06    -8.46099E+06    -3.79415E+06    -27.8663E-03     55.3986E-03    -27.5323E-03     42.2486E-03    -27.8118E-03     54.9547E-03    -27.4055E-03     42.1642E-03
             680     7.88079E-03     78.7322E-03    -16.0605E+06    -93.6184E+06    -7.84653E+06    -4.08760E+06    -27.9546E-03     55.4706E-03    -27.5160E-03     47.7261E-03    -27.9045E-03     55.0540E-03    -27.3962E-03     47.6281E-03
             681     8.75720E-03     78.7799E-03    -14.3644E+06    -88.5333E+06    -7.04168E+06    -4.31528E+06    -28.0434E-03     55.5419E-03    -27.4985E-03     53.1986E-03    -28.0012E-03     55.1549E-03    -27.3845E-03     53.0853E-03
             682     9.63250E-03     78.8331E-03    -12.6357E+06    -84.1995E+06    -7.12411E+06    -4.19774E+06    -28.2656E-03     55.7461E-03    -27.4805E-03     58.6755E-03    -28.2326E-03     55.3900E-03    -27.3757E-03     58.5477E-03
             683     10.5084E-03     78.8914E-03    -11.7144E+06    -78.5626E+06    -11.1072E+06    -3.94389E+06    -28.4190E-03     55.8657E-03    -27.4466E-03     64.0084E-03    -28.4007E-03     55.5591E-03    -27.3713E-03     63.8641E-03
             684     11.3841E-03     78.9547E-03    -11.1775E+06    -64.1332E+06    -12.5472E+06    -3.37123E+06    -28.5467E-03     55.9585E-03    -27.4118E-03     70.3016E-03    -28.5712E-03     55.7521E-03    -27.3653E-03     70.1395E-03
             685     12.2596E-03     79.0252E-03    -10.5856E+06    -44.2368E+06    -11.2847E+06    -2.66283E+06    -28.6130E-03     55.9913E-03    -27.3783E-03     75.9887E-03    -28.7001E-03     55.9166E-03    -27.3553E-03     75.8098E-03
             686     13.1368E-03     79.0983E-03    -10.8636E+06    -27.7216E+06    -17.7907E+06    -1.17255E+06    -28.5992E-03     55.9073E-03    -27.3080E-03     79.3910E-03    -28.7618E-03     55.9844E-03    -27.3410E-03     79.1973E-03
             687     14.0104E-03     79.1750E-03    -10.7608E+06     4.97289E+06    -32.1764E+06     576.744E+03    -29.4422E-03     56.6119E-03    -27.1697E-03     102.376E-03    -29.8586E-03     57.1011E-03    -27.3222E-03     102.138E-03
             688     14.8887E-03     79.2922E-03    -9.26918E+06     67.3069E+06    -21.2866E+06    -167.310E+03    -35.5429E-03     62.6542E-03    -27.1113E-03     187.800E-03    -37.4439E-03     64.8229E-03    -27.3019E-03     187.478E-03
             689     15.7626E-03     79.5344E-03    -10.2083E+06     140.496E+06     41.6151E+06    -180.488E+03    -46.9931E-03     74.2827E-03    -27.2896E-03     327.315E-03    -57.3186E-03     84.9500E-03    -27.2704E-03     328.510E-03
             690     16.6430E-03     79.9292E-03    -7.03473E+06     189.084E+06     105.088E+06     541.524E+03    -50.4127E-03     77.9018E-03    -27.4891E-03     391.465E-03    -70.1893E-03     98.0200E-03    -27.2277E-03     400.938E-03
             691     875.771E-06     79.5342E-03    -28.3411E+06    -115.640E+06    -27.9009E+06    -737.194E+03    -27.5424E-03     55.0360E-03    -27.4936E-03     5.66953E-03    -27.4761E-03     54.5396E-03    -27.4243E-03     5.65707E-03
             692     1.75116E-03     79.5418E-03    -27.5151E+06    -114.713E+06    -26.2062E+06    -1.11067E+06    -27.5435E-03     55.0642E-03    -27.5207E-03     10.4969E-03    -27.4772E-03     54.5690E-03    -27.4455E-03     10.4770E-03
             693     2.62700E-03     79.5542E-03    -26.3739E+06    -110.938E+06    -24.1151E+06    -1.71094E+06    -27.5506E-03     55.0714E-03    -27.5209E-03     15.6139E-03    -27.4876E-03     54.5909E-03    -27.4423E-03     15.5832E-03
             694     3.50249E-03     79.5715E-03    -25.2810E+06    -107.085E+06    -20.5346E+06    -2.29981E+06    -27.5764E-03     55.1006E-03    -27.5242E-03     20.8208E-03    -27.5196E-03     54.6335E-03    -27.4350E-03     20.7790E-03
             695     4.37836E-03     79.5936E-03    -23.8995E+06    -106.535E+06    -16.5918E+06    -3.27253E+06    -27.6296E-03     55.1634E-03    -27.5338E-03     26.0737E-03    -27.5737E-03     54.6926E-03    -27.4276E-03     26.0151E-03
             696     5.25384E-03     79.6209E-03    -21.9331E+06    -105.276E+06    -13.5462E+06    -3.81101E+06    -27.6901E-03     55.2269E-03    -27.5368E-03     31.3891E-03    -27.6324E-03     54.7569E-03    -27.4201E-03     31.3184E-03
             697     6.12984E-03     79.6532E-03    -19.5653E+06    -101.025E+06    -10.4074E+06    -4.04413E+06    -27.7726E-03     55.3076E-03    -27.5350E-03     36.7823E-03    -27.7165E-03     54.8535E-03    -27.4122E-03     36.7024E-03
             698     7.00511E-03     79.6907E-03    -17.6388E+06    -97.6194E+06    -8.60406E+06    -4.72940E+06    -27.8451E-03     55.3724E-03    -27.5272E-03     42.2327E-03    -27.7907E-03     54.9337E-03    -27.4031E-03     42.1362E-03
             699     7.88142E-03     79.7335E-03    -15.6970E+06    -92.8317E+06    -8.45727E+06    -5.16928E+06    -27.9337E-03     55.4406E-03    -27.5069E-03     47.6754E-03    -27.8821E-03     55.0282E-03    -27.3918E-03     47.5635E-03
             700     8.75668E-03     79.7811E-03    -14.1415E+06    -87.8699E+06    -7.64038E+06    -5.27987E+06    -28.0901E-03     55.5815E-03    -27.4914E-03     53.1849E-03    -28.0471E-03     55.1985E-03    -27.3817E-03     53.0589E-03
             701     9.63282E-03     79.8346E-03    -12.7829E+06    -84.2936E+06    -8.09197E+06    -5.16407E+06    -28.2399E-03     55.7142E-03    -27.4743E-03     58.7788E-03    -28.2060E-03     55.3591E-03    -27.3740E-03     58.6388E-03
             702     10.5084E-03     79.8928E-03    -11.8938E+06    -79.1714E+06    -12.2063E+06    -4.70250E+06    -28.3708E-03     55.8081E-03    -27.4373E-03     64.1266E-03    -28.3509E-03     55.5004E-03    -27.3663E-03     63.9728E-03
             703     11.3841E-03     79.9560E-03    -11.0140E+06    -64.5700E+06    -13.0759E+06    -4.19843E+06    -28.4615E-03     55.8609E-03    -27.3995E-03     70.4091E-03    -28.4835E-03     55.6526E-03    -27.3553E-03     70.2370E-03
             704     12.2607E-03     80.0261E-03    -10.3798E+06    -44.7463E+06    -11.6106E+06    -3.26878E+06    -28.4378E-03     55.7965E-03    -27.3587E-03     75.6757E-03    -28.5221E-03     55.7188E-03    -27.3369E-03     75.4901E-03
             705     13.1355E-03     80.0997E-03    -9.48058E+06    -29.7669E+06    -17.9440E+06    -2.00464E+06    -28.6778E-03     55.9655E-03    -27.2877E-03     79.3061E-03    -28.8304E-03     56.0308E-03    -27.3205E-03     79.1007E-03
             706     14.0136E-03     80.1763E-03    -8.45770E+06     4.44040E+06    -30.1612E+06    -1.66853E+06    -29.5961E-03     56.7626E-03    -27.1665E-03     101.643E-03    -30.0065E-03     57.2462E-03    -27.3115E-03     101.373E-03
             707     14.8875E-03     80.2933E-03    -10.9023E+06     67.3095E+06    -20.5039E+06    -214.600E+03    -35.1503E-03     62.2528E-03    -27.1024E-03     187.267E-03    -37.0465E-03     64.4086E-03    -27.2868E-03     186.958E-03
             708     15.7668E-03     80.5357E-03    -11.1484E+06     140.525E+06     39.3971E+06     1.74962E+06    -47.0843E-03     74.3469E-03    -27.2625E-03     326.151E-03    -57.3284E-03     84.9360E-03    -27.2531E-03     327.286E-03
             709     16.6392E-03     80.9304E-03    -6.62920E+06     189.621E+06     103.330E+06     585.016E+03    -50.8559E-03     78.3465E-03    -27.4906E-03     389.817E-03    -70.6299E-03     98.4704E-03    -27.2393E-03     399.235E-03
             710     875.520E-06     80.5357E-03    -29.8717E+06    -114.206E+06    -28.8401E+06    -768.799E+03    -27.5321E-03     55.0188E-03    -27.4867E-03     5.67138E-03    -27.4742E-03     54.5331E-03    -27.4220E-03     5.65852E-03
             711     1.75138E-03     80.5433E-03    -28.5636E+06    -113.037E+06    -27.0022E+06    -1.66276E+06    -27.5303E-03     55.0431E-03    -27.5128E-03     10.4870E-03    -27.4705E-03     54.5590E-03    -27.4425E-03     10.4599E-03
             712     2.62682E-03     80.5556E-03    -27.0211E+06    -109.446E+06    -24.5261E+06    -2.51797E+06    -27.5412E-03     55.0548E-03    -27.5136E-03     15.6071E-03    -27.4830E-03     54.5833E-03    -27.4383E-03     15.5659E-03
             713     3.50269E-03     80.5728E-03    -24.8695E+06    -105.821E+06    -20.0647E+06    -2.93952E+06    -27.5738E-03     55.0941E-03    -27.5203E-03     20.8105E-03    -27.5174E-03     54.6320E-03    -27.4311E-03     20.7604E-03
             714     4.37818E-03     80.5951E-03    -22.8694E+06    -104.769E+06    -15.1292E+06    -3.40382E+06    -27.6353E-03     55.1696E-03    -27.5343E-03     26.0435E-03    -27.5789E-03     54.7040E-03    -27.4249E-03     25.9831E-03
             715     5.25405E-03     80.6223E-03    -21.2553E+06    -103.894E+06    -12.2349E+06    -4.32580E+06    -27.7024E-03     55.2421E-03    -27.5397E-03     31.3466E-03    -27.6453E-03     54.7761E-03    -27.4194E-03     31.2692E-03
             716     6.12948E-03     80.6546E-03    -19.4691E+06    -99.8640E+06    -10.5309E+06    -5.07820E+06    -27.7577E-03     55.2898E-03    -27.5321E-03     36.7824E-03    -27.7026E-03     54.8416E-03    -27.4117E-03     36.6892E-03
             717     7.00558E-03     80.6922E-03    -17.2857E+06    -95.9620E+06    -9.00475E+06    -5.67195E+06    -27.8320E-03     55.3523E-03    -27.5203E-03     42.1918E-03    -27.7776E-03     54.9220E-03    -27.4011E-03     42.0831E-03
             718     7.88095E-03     80.7345E-03    -15.6001E+06    -92.0228E+06     -9.2442E+06    -6.19837E+06    -27.9479E-03     55.4478E-03    -27.4999E-03     47.6679E-03    -27.8959E-03     55.0405E-03    -27.3901E-03     47.5425E-03
             719     8.75711E-03     80.7829E-03    -13.9617E+06    -87.2124E+06    -8.36789E+06    -6.30709E+06    -28.0885E-03     55.5741E-03    -27.4856E-03     53.2353E-03    -28.0445E-03     55.1951E-03    -27.3807E-03     53.0962E-03
             720     9.63253E-03     80.8355E-03    -12.7367E+06    -83.9479E+06    -8.61670E+06    -6.21097E+06    -28.1930E-03     55.6611E-03    -27.4681E-03     58.7117E-03    -28.1585E-03     55.3084E-03    -27.3710E-03     58.5584E-03
             721     10.5087E-03     80.8943E-03    -11.3193E+06    -79.2167E+06    -12.5845E+06    -5.83363E+06    -28.3357E-03     55.7643E-03    -27.4286E-03     64.0054E-03    -28.3123E-03     55.4559E-03    -27.3602E-03     63.8371E-03
             722     11.3846E-03     80.9571E-03    -10.7636E+06    -65.1433E+06    -13.7273E+06    -5.09729E+06    -28.4719E-03     55.8624E-03    -27.3905E-03     70.0971E-03    -28.4912E-03     55.6520E-03    -27.3490E-03     69.9129E-03
             723     12.2597E-03     81.0276E-03    -10.1646E+06    -45.8148E+06    -12.2484E+06    -4.01711E+06    -28.5259E-03     55.8810E-03    -27.3551E-03     75.3177E-03    -28.6063E-03     55.7982E-03    -27.3352E-03     75.1220E-03
             724     13.1374E-03     81.1001E-03    -10.1082E+06    -31.0400E+06     -18.849E+06    -3.29019E+06    -28.6458E-03     55.9325E-03    -27.2867E-03     79.3533E-03    -28.7987E-03     55.9940E-03    -27.3213E-03     79.1316E-03
             725     14.0101E-03     81.1792E-03    -11.8019E+06     3.28522E+06    -33.2347E+06    -1.66686E+06    -29.6358E-03     56.7948E-03    -27.1590E-03     101.580E-03    -30.0546E-03     57.2798E-03    -27.3128E-03     101.309E-03
             726     14.8884E-03     81.2924E-03    -12.5932E+06     64.7204E+06    -28.2124E+06     1.13592E+06    -35.5966E-03     62.6855E-03    -27.0888E-03     186.274E-03    -37.4876E-03     64.8433E-03    -27.3055E-03     185.964E-03
             727     15.7627E-03     81.5364E-03    -10.0895E+06     139.261E+06     35.2315E+06     734.303E+03    -47.5557E-03     74.8442E-03    -27.2884E-03     326.067E-03    -57.8659E-03     85.5107E-03    -27.2996E-03     327.150E-03
             728     16.6404E-03     81.9340E-03    -5.11575E+06     191.633E+06     105.271E+06     176.342E+03    -50.4653E-03     78.0070E-03    -27.5417E-03     389.953E-03    -70.2457E-03     98.1442E-03    -27.2858E-03     399.425E-03
             729     875.751E-06     81.5372E-03    -28.8447E+06    -112.174E+06    -28.8945E+06    -900.750E+03    -27.5097E-03     55.0251E-03    -27.5154E-03     5.67576E-03    -27.4495E-03     54.5482E-03    -27.4554E-03     5.66119E-03
             730     1.75116E-03     81.5446E-03    -28.1227E+06    -110.658E+06    -26.9626E+06    -2.32846E+06    -27.5181E-03     55.0284E-03    -27.5103E-03     10.4819E-03    -27.4596E-03     54.5554E-03    -27.4439E-03     10.4463E-03
             731     2.62704E-03     81.5570E-03    -26.8300E+06    -107.606E+06    -23.5871E+06    -3.19725E+06    -27.5449E-03     55.0597E-03    -27.5149E-03     15.5966E-03    -27.4898E-03     54.5958E-03    -27.4379E-03     15.5466E-03
             732     3.50248E-03     81.5742E-03    -25.4690E+06    -104.536E+06    -20.3825E+06    -3.77975E+06    -27.5798E-03     55.0994E-03    -27.5196E-03     20.7978E-03    -27.5278E-03     54.6450E-03    -27.4330E-03     20.7368E-03
             733     4.37835E-03     81.5965E-03    -23.4724E+06    -103.365E+06    -16.7888E+06    -4.11052E+06    -27.6275E-03     55.1545E-03    -27.5271E-03     26.0351E-03    -27.5737E-03     54.6992E-03    -27.4271E-03     25.9656E-03
             734     5.25384E-03     81.6237E-03    -21.1354E+06    -101.836E+06    -12.7322E+06    -4.83502E+06    -27.6950E-03     55.2299E-03    -27.5350E-03     31.3507E-03    -27.6395E-03     54.7748E-03    -27.4203E-03     31.2667E-03
             735     6.12977E-03     81.6561E-03    -18.9749E+06    -98.1611E+06    -10.3952E+06    -5.95363E+06    -27.7443E-03     55.2735E-03    -27.5292E-03     36.7354E-03    -27.6894E-03     54.8329E-03    -27.4113E-03     36.6308E-03
             736     7.00527E-03     81.6933E-03    -17.1429E+06    -94.4925E+06    -9.68345E+06    -6.69828E+06    -27.8340E-03     55.3475E-03    -27.5135E-03     42.1916E-03    -27.7800E-03     54.9253E-03    -27.4001E-03     42.0697E-03
             737     7.88129E-03     81.7362E-03    -15.4409E+06    -90.5891E+06    -9.56506E+06    -7.19020E+06    -27.9693E-03     55.4657E-03    -27.4964E-03     47.6635E-03    -27.9182E-03     55.0659E-03    -27.3905E-03     47.5252E-03
             738     8.75677E-03     81.7837E-03    -14.1689E+06    -86.6203E+06     -9.1305E+06    -7.38056E+06    -28.0560E-03     55.5373E-03    -27.4814E-03     53.1802E-03    -28.0127E-03     55.1627E-03    -27.3809E-03     53.0273E-03
             739     9.63286E-03     81.8374E-03    -12.6722E+06    -83.3158E+06    -9.21839E+06    -7.28041E+06    -28.1948E-03     55.6579E-03    -27.4630E-03     58.6651E-03    -28.1602E-03     55.3091E-03    -27.3699E-03     58.4979E-03
             740     10.5084E-03     81.8949E-03    -11.7028E+06    -79.2476E+06    -13.4674E+06    -7.01458E+06    -28.3968E-03     55.8232E-03    -27.4264E-03     64.0310E-03    -28.3740E-03     55.5166E-03    -27.3618E-03     63.8472E-03
             741     11.3840E-03     81.9591E-03    -10.6739E+06    -65.6297E+06    -14.5827E+06    -6.26964E+06    -28.5335E-03     55.9266E-03    -27.3931E-03     69.9301E-03    -28.5503E-03     55.7149E-03    -27.3554E-03     69.7304E-03
             742     12.2609E-03     82.0278E-03    -9.73888E+06    -46.8241E+06    -12.8641E+06    -5.13392E+06    -28.5843E-03     55.9475E-03    -27.3633E-03     75.2372E-03    -28.6602E-03     55.8599E-03    -27.3456E-03     75.0267E-03
             743     13.1345E-03     82.1027E-03    -9.96778E+06    -32.3166E+06    -19.6789E+06    -3.45536E+06    -28.5384E-03     55.8306E-03    -27.2922E-03     79.3539E-03    -28.6863E-03     55.8854E-03    -27.3293E-03     79.1316E-03
             744     14.0143E-03     82.1783E-03    -10.6790E+06    -232.194E+03    -34.1333E+06    -1.01521E+06    -29.5392E-03     56.6969E-03    -27.1577E-03     101.879E-03    -29.9413E-03     57.1593E-03    -27.3126E-03     101.619E-03
             745     14.8870E-03     82.2970E-03    -11.2428E+06     63.8063E+06    -27.2124E+06    -108.488E+03    -36.0112E-03     63.1095E-03    -27.0984E-03     187.262E-03    -37.9267E-03     65.2906E-03    -27.3107E-03     186.929E-03
             746     15.7632E-03     82.5361E-03    -10.3966E+06     140.628E+06     35.9407E+06     145.721E+03    -47.6817E-03     74.9803E-03    -27.2986E-03     328.214E-03    -58.0595E-03     85.7162E-03    -27.3078E-03     329.341E-03
             747     16.6377E-03     82.9366E-03    -6.47540E+06     190.334E+06     103.773E+06     479.183E+03    -50.0401E-03     77.5613E-03    -27.5212E-03     391.138E-03    -69.7716E-03     97.6446E-03    -27.2690E-03     400.687E-03
             748     875.487E-06     82.5384E-03    -27.9432E+06    -109.682E+06    -27.8542E+06    -1.37564E+06    -27.5035E-03     55.0273E-03    -27.5238E-03     5.66771E-03    -27.4439E-03     54.5600E-03    -27.4636E-03     5.64698E-03
             749     1.75139E-03     82.5462E-03    -27.6491E+06    -107.885E+06    -26.3574E+06    -2.42028E+06    -27.5251E-03     55.0366E-03    -27.5115E-03     10.4798E-03    -27.4691E-03     54.5760E-03    -27.4468E-03     10.4430E-03
             750     2.62680E-03     82.5583E-03    -27.1111E+06    -105.692E+06    -24.1800E+06    -3.30052E+06    -27.5482E-03     55.0626E-03    -27.5144E-03     15.5889E-03    -27.4964E-03     54.6095E-03    -27.4428E-03     15.5377E-03
             751     3.50266E-03     82.5758E-03    -25.9520E+06    -102.625E+06    -21.6551E+06    -4.03757E+06    -27.5734E-03     55.0889E-03    -27.5155E-03     20.7907E-03    -27.5248E-03     54.6466E-03    -27.4373E-03     20.7264E-03
             752     4.37813E-03     82.5978E-03    -24.2884E+06    -101.407E+06    -18.3738E+06    -5.23309E+06    -27.6148E-03     55.1347E-03    -27.5198E-03     26.0509E-03    -27.5657E-03     54.6926E-03    -27.4295E-03     25.9670E-03
             753     5.25404E-03     82.6252E-03    -22.0235E+06    -99.9414E+06    -14.2418E+06    -6.06118E+06    -27.6673E-03     55.1928E-03    -27.5255E-03     31.3638E-03    -27.6168E-03     54.7506E-03    -27.4198E-03     31.2641E-03
             754     6.12954E-03     82.6573E-03    -19.7821E+06    -95.9639E+06    -11.0153E+06    -6.83826E+06    -27.7486E-03     55.2712E-03    -27.5226E-03     36.7269E-03    -27.7000E-03     54.8437E-03    -27.4098E-03     36.6108E-03
             755     7.00550E-03     82.6948E-03    -17.7288E+06    -92.7961E+06    -10.1054E+06    -7.81227E+06    -27.8436E-03     55.3537E-03    -27.5101E-03     42.1915E-03    -27.7944E-03     54.9415E-03    -27.4004E-03     42.0551E-03
             756     7.88105E-03     82.7373E-03    -15.8925E+06    -89.4971E+06    -10.4433E+06    -8.26731E+06    -27.9552E-03     55.4468E-03    -27.4916E-03     47.6938E-03    -27.9066E-03     55.0544E-03    -27.3910E-03     47.5417E-03
             757     8.75693E-03     82.7854E-03    -14.2581E+06    -85.5410E+06    -9.62698E+06    -8.43639E+06    -28.0709E-03     55.5490E-03    -27.4781E-03     53.1386E-03    -28.0289E-03     55.1807E-03    -27.3816E-03     52.9718E-03
             758     9.63267E-03     82.8380E-03    -13.0427E+06    -82.9168E+06    -10.0370E+06    -8.38391E+06    -28.2049E-03     55.6657E-03    -27.4608E-03     58.6796E-03    -28.1714E-03     55.3207E-03    -27.3719E-03     58.4981E-03
             759     10.5085E-03     82.8971E-03    -12.0423E+06    -79.1066E+06    -14.3154E+06    -8.15311E+06    -28.3745E-03     55.7982E-03    -27.4238E-03     64.0803E-03    -28.3523E-03     55.4940E-03    -27.3632E-03     63.8820E-03
             760     11.3845E-03     82.9595E-03    -11.2421E+06    -66.2980E+06    -15.9026E+06    -7.60325E+06    -28.5496E-03     55.9385E-03    -27.3889E-03     70.1965E-03    -28.5662E-03     55.7260E-03    -27.3560E-03     69.9800E-03
             761     12.2590E-03     83.0302E-03    -10.6698E+06    -47.7985E+06    -14.4000E+06    -6.35339E+06    -28.5886E-03     55.9477E-03    -27.3591E-03     75.4253E-03    -28.6659E-03     55.8592E-03    -27.3463E-03     75.1990E-03
             762     13.1377E-03     83.1022E-03    -9.57849E+06    -34.7380E+06    -20.5864E+06    -4.26950E+06    -28.6966E-03     55.9929E-03    -27.2962E-03     79.3412E-03    -28.8383E-03     56.0368E-03    -27.3349E-03     79.1067E-03
             763     14.0096E-03     83.1811E-03    -9.18398E+06    -3.01687E+06    -34.3693E+06    -2.38058E+06    -29.5660E-03     56.7358E-03    -27.1698E-03     101.607E-03    -29.9593E-03     57.1854E-03    -27.3239E-03     101.329E-03
             764     14.8892E-03     83.2961E-03    -10.4403E+06     63.6216E+06    -27.5655E+06    -378.921E+03    -35.5169E-03     62.6090E-03    -27.0921E-03     187.346E-03    -37.4148E-03     64.7757E-03    -27.3070E-03     187.025E-03
             765     15.7641E-03     83.5417E-03    -11.1060E+06     140.617E+06     33.5048E+06     1.13676E+06    -46.8915E-03     74.1434E-03    -27.2518E-03     327.312E-03    -57.1814E-03     84.7959E-03    -27.2721E-03     328.494E-03
             766     16.6438E-03     83.9353E-03    -6.95518E+06     190.206E+06     102.267E+06     245.191E+03    -50.2516E-03     77.7251E-03    -27.4734E-03     390.474E-03    -69.9803E-03     97.8076E-03    -27.2278E-03     399.930E-03
             767     875.782E-06     83.5401E-03    -28.6413E+06    -106.867E+06    -28.2183E+06    -1.43933E+06    -27.5195E-03     55.0226E-03    -27.5031E-03     5.65958E-03    -27.4670E-03     54.5709E-03    -27.4477E-03     5.63802E-03
             768     1.75114E-03     83.5474E-03    -28.0793E+06    -105.385E+06    -26.8942E+06    -2.35456E+06    -27.5292E-03     55.0397E-03    -27.5106E-03     10.4762E-03    -27.4782E-03     54.5930E-03    -27.4515E-03     10.4401E-03
             769     2.62699E-03     83.5600E-03    -27.0984E+06    -103.289E+06    -24.8707E+06    -3.41045E+06    -27.5425E-03     55.0545E-03    -27.5120E-03     15.5907E-03    -27.4931E-03     54.6144E-03    -27.4473E-03     15.5380E-03
             770     3.50246E-03     83.5770E-03    -25.5765E+06    -100.142E+06    -22.1572E+06    -4.80219E+06    -27.5638E-03     55.0745E-03    -27.5107E-03     20.7957E-03    -27.5162E-03     54.6448E-03    -27.4392E-03     20.7216E-03
             771     4.37835E-03     83.5994E-03    -23.7057E+06    -98.6506E+06    -18.0501E+06    -6.04681E+06    -27.6066E-03     55.1232E-03    -27.5166E-03     26.0500E-03    -27.5591E-03     54.6936E-03    -27.4294E-03     25.9555E-03
             772     5.25385E-03     83.6264E-03    -21.8388E+06    -98.0216E+06    -14.1748E+06    -7.14715E+06    -27.6614E-03     55.1832E-03    -27.5218E-03     31.3416E-03    -27.6129E-03     54.7503E-03    -27.4189E-03     31.2279E-03
             773     6.12982E-03     83.6589E-03    -19.7257E+06    -93.8685E+06    -11.3456E+06    -7.83006E+06    -27.7406E-03     55.2570E-03    -27.5164E-03     36.7485E-03    -27.6943E-03     54.8403E-03    -27.4084E-03     36.6197E-03
             774     7.00527E-03     83.6961E-03    -17.9360E+06    -90.4536E+06    -9.92932E+06    -8.73809E+06    -27.8486E-03     55.3555E-03    -27.5069E-03     42.1965E-03    -27.8042E-03     54.9551E-03    -27.3993E-03     42.0481E-03
             775     7.88121E-03     83.7388E-03    -16.3598E+06    -88.1936E+06    -10.8582E+06    -9.52568E+06    -27.9270E-03     55.4137E-03    -27.4867E-03     47.6926E-03    -27.8820E-03     55.0290E-03    -27.3894E-03     47.5243E-03
             776     8.75696E-03     83.7865E-03    -14.5877E+06    -84.5953E+06    -10.3685E+06    -9.65570E+06    -28.0656E-03     55.5361E-03    -27.4705E-03     53.2295E-03    -28.0255E-03     55.1740E-03    -27.3786E-03     53.0472E-03
             777     9.63260E-03     83.8398E-03    -13.0710E+06    -82.2901E+06    -10.5396E+06    -9.61081E+06    -28.2235E-03     55.6787E-03    -27.4552E-03     58.7657E-03    -28.1904E-03     55.3376E-03    -27.3696E-03     58.5683E-03
             778     10.5085E-03     83.8977E-03    -11.9174E+06    -78.9163E+06    -14.8698E+06    -9.25607E+06    -28.3311E-03     55.7484E-03    -27.4173E-03     64.1535E-03    -28.3077E-03     55.4457E-03    -27.3600E-03     63.9413E-03
             779     11.3841E-03     83.9615E-03    -11.2911E+06    -66.4573E+06    -16.5170E+06    -8.72177E+06    -28.4787E-03     55.8573E-03    -27.3787E-03     70.1960E-03    -28.4941E-03     55.6446E-03    -27.3485E-03     69.9656E-03
             780     12.2615E-03     84.0308E-03    -10.4744E+06    -49.3292E+06    -15.4682E+06    -7.79288E+06    -28.6788E-03     56.0280E-03    -27.3492E-03     75.3296E-03    -28.7516E-03     55.9333E-03    -27.3398E-03     75.0840E-03
             781     13.1343E-03     84.1044E-03    -9.76059E+06    -36.7518E+06    -21.8942E+06    -5.94150E+06    -28.7808E-03     56.0731E-03    -27.2923E-03     79.5366E-03    -28.9194E-03     56.1101E-03    -27.3343E-03     79.2799E-03
             782     14.0136E-03     84.1819E-03    -10.8565E+06    -5.56864E+06    -36.6519E+06    -2.88017E+06    -29.6549E-03     56.8231E-03    -27.1682E-03     102.112E-03    -30.0492E-03     57.2653E-03    -27.3276E-03     101.827E-03
             783     14.8860E-03     84.2978E-03    -11.9144E+06     60.1807E+06    -32.1600E+06    -8.40478E+03    -35.4428E-03     62.5221E-03    -27.0793E-03     187.461E-03    -37.3263E-03     64.6702E-03    -27.3101E-03     187.145E-03
             784     15.7644E-03     84.5404E-03    -9.91535E+06     140.527E+06     30.4742E+06     923.411E+03    -46.8870E-03     74.1262E-03    -27.2392E-03     326.435E-03    -57.1456E-03     84.7601E-03    -27.2762E-03     327.625E-03
             785     16.6384E-03     84.9358E-03    -5.30484E+06     191.626E+06     102.066E+06     326.189E+03    -50.1356E-03     77.6110E-03    -27.4754E-03     390.020E-03    -69.8953E-03     97.7362E-03    -27.2353E-03     399.550E-03
             786     875.467E-06     84.5413E-03    -28.5442E+06    -103.920E+06    -28.4987E+06    -1.47985E+06    -27.5133E-03     55.0217E-03    -27.5085E-03     5.64468E-03    -27.4641E-03     54.5851E-03    -27.4589E-03     5.62261E-03
             787     1.75136E-03     84.5491E-03    -27.9614E+06    -102.683E+06    -27.0892E+06    -2.72866E+06    -27.5215E-03     55.0294E-03    -27.5079E-03     10.4871E-03    -27.4736E-03     54.5962E-03    -27.4539E-03     10.4463E-03
             788     2.62680E-03     84.5612E-03    -26.6883E+06    -100.356E+06    -24.6777E+06    -4.13800E+06    -27.5358E-03     55.0438E-03    -27.5081E-03     15.5909E-03    -27.4889E-03     54.6175E-03    -27.4472E-03     15.5288E-03
             789     3.50266E-03     84.5787E-03    -25.2804E+06    -96.9754E+06    -21.6992E+06    -5.59339E+06    -27.5580E-03     55.0651E-03    -27.5071E-03     20.7929E-03    -27.5142E-03     54.6502E-03    -27.4383E-03     20.7085E-03
             790     4.37814E-03     84.6006E-03    -23.7454E+06    -96.0270E+06    -18.0350E+06    -6.84669E+06    -27.5973E-03     55.1088E-03    -27.5115E-03     26.0448E-03    -27.5538E-03     54.6924E-03    -27.4280E-03     25.9401E-03
             791     5.25405E-03     84.6280E-03    -21.7931E+06    -95.3054E+06    -14.2409E+06    -7.94556E+06    -27.6619E-03     55.1782E-03    -27.5162E-03     31.3447E-03    -27.6170E-03     54.7589E-03    -27.4176E-03     31.2207E-03
             792     6.12953E-03     84.6599E-03    -19.6409E+06    -91.7899E+06    -11.6144E+06      -9.091E+06    -27.7259E-03     55.2362E-03    -27.5103E-03     36.7609E-03    -27.6818E-03     54.8302E-03    -27.4068E-03     36.6159E-03
             793     7.00556E-03     84.6977E-03    -17.3496E+06    -88.3195E+06    -9.75672E+06    -9.63609E+06    -27.8126E-03     55.3120E-03    -27.4994E-03     42.2339E-03    -27.7685E-03     54.9211E-03    -27.3950E-03     42.0741E-03
             794     7.88109E-03     84.7399E-03    -15.7007E+06    -85.9879E+06    -10.0141E+06    -10.4121E+06    -27.9305E-03     55.4116E-03    -27.4811E-03     47.6795E-03    -27.8867E-03     55.0358E-03    -27.3837E-03     47.4998E-03
             795     8.75698E-03     84.7880E-03    -14.4179E+06    -83.4545E+06    -10.6414E+06    -11.1218E+06    -28.0321E-03     55.4929E-03    -27.4608E-03     53.2822E-03    -27.9924E-03     55.1366E-03    -27.3721E-03     53.0812E-03
             796     9.63293E-03     84.8409E-03    -12.7136E+06    -81.6224E+06    -10.9162E+06    -11.0569E+06    -28.1763E-03     55.6185E-03    -27.4422E-03     58.7993E-03    -28.1418E-03     55.2807E-03    -27.3599E-03     58.5835E-03
             797     10.5086E-03     84.8993E-03    -11.4746E+06    -78.4248E+06    -15.0141E+06    -10.5393E+06    -28.3685E-03     55.7741E-03    -27.4056E-03     64.2118E-03    -28.3433E-03     55.4734E-03    -27.3504E-03     63.9830E-03
             798     11.3848E-03     84.9623E-03    -10.6219E+06    -66.4198E+06    -16.4493E+06    -9.80093E+06    -28.5184E-03     55.8903E-03    -27.3718E-03     70.2090E-03    -28.5308E-03     55.6768E-03    -27.3424E-03     69.9645E-03
             799     12.2590E-03     85.0325E-03    -10.1213E+06    -50.3737E+06    -15.5422E+06    -8.95904E+06    -28.6289E-03     55.9723E-03    -27.3434E-03     75.5695E-03    -28.6984E-03     55.8721E-03    -27.3334E-03     75.3092E-03
             800     13.1376E-03     85.1057E-03    -9.69383E+06    -38.9656E+06    -22.5072E+06    -7.17598E+06    -28.7053E-03     55.9869E-03    -27.2816E-03     79.5795E-03    -28.8390E-03     56.0130E-03    -27.3235E-03     79.3075E-03
             801     14.0104E-03     85.1827E-03    -10.1437E+06    -10.0840E+06    -37.4568E+06    -3.41988E+06    -29.5211E-03     56.6733E-03    -27.1522E-03     102.185E-03    -29.9013E-03     57.0903E-03    -27.3101E-03     101.895E-03
             802     14.8894E-03     85.3000E-03    -11.1067E+06     57.4587E+06    -33.9428E+06    -375.953E+03    -35.5680E-03     62.6233E-03    -27.0552E-03     187.679E-03    -37.4531E-03     64.7713E-03    -27.2922E-03     187.358E-03
             803     15.7636E-03     85.5410E-03    -9.07351E+06     140.978E+06     28.8935E+06    -129.539E+03    -47.2407E-03     74.4603E-03    -27.2196E-03     327.599E-03    -57.5492E-03     85.1533E-03    -27.2664E-03     328.743E-03
             804     16.6415E-03     85.9398E-03    -5.41397E+06     191.891E+06     101.397E+06     141.145E+03    -50.3117E-03     77.7762E-03    -27.4646E-03     391.341E-03    -70.1268E-03     97.9593E-03    -27.2280E-03     400.889E-03
             805     875.773E-06     85.5431E-03    -27.9974E+06    -100.641E+06    -27.7982E+06    -1.74308E+06    -27.4937E-03     55.0114E-03    -27.5177E-03     5.66792E-03    -27.4475E-03     54.5893E-03    -27.4701E-03     5.64245E-03
             806     1.75115E-03     85.5503E-03    -27.2524E+06    -99.2161E+06    -26.4205E+06    -3.29526E+06    -27.5159E-03     55.0183E-03    -27.5024E-03     10.4836E-03    -27.4704E-03     54.6005E-03    -27.4512E-03     10.4355E-03
             807     2.62700E-03     85.5629E-03    -26.1759E+06    -96.9541E+06    -24.1222E+06    -4.93317E+06    -27.5291E-03     55.0313E-03    -27.5022E-03     15.5901E-03    -27.4854E-03     54.6205E-03    -27.4443E-03     15.5178E-03
             808     3.50248E-03     85.5798E-03    -24.7751E+06    -93.8774E+06    -21.1522E+06    -6.20050E+06    -27.5493E-03     55.0506E-03    -27.5013E-03     20.7911E-03    -27.5082E-03     54.6497E-03    -27.4350E-03     20.6989E-03
             809     4.37836E-03     85.6023E-03    -23.2630E+06    -93.0716E+06    -17.5167E+06    -7.37779E+06    -27.5876E-03     55.0928E-03    -27.5052E-03     26.0445E-03    -27.5466E-03     54.6896E-03    -27.4241E-03     25.9329E-03
             810     5.25389E-03     85.6291E-03    -21.6389E+06    -92.3467E+06    -14.2040E+06    -8.70327E+06    -27.6427E-03     55.1495E-03    -27.5067E-03     31.3765E-03    -27.6014E-03     54.7447E-03    -27.4125E-03     31.2427E-03
             811     6.12982E-03     85.6617E-03    -19.8035E+06    -88.7448E+06    -11.7250E+06    -10.1373E+06    -27.7077E-03     55.2067E-03    -27.4990E-03     36.7913E-03    -27.6686E-03     54.8163E-03    -27.4003E-03     36.6328E-03
             812     7.00535E-03     85.6986E-03    -17.7498E+06    -86.5882E+06    -10.4112E+06    -11.1474E+06    -27.7779E-03     55.2637E-03    -27.4858E-03     42.2556E-03    -27.7374E-03     54.8829E-03    -27.3865E-03     42.0764E-03
             813     7.88140E-03     85.7417E-03    -15.5207E+06    -83.7888E+06    -10.1997E+06    -11.5294E+06    -27.9121E-03     55.3784E-03    -27.4664E-03     47.7527E-03    -27.8702E-03     55.0136E-03    -27.3734E-03     47.5587E-03
             814     8.75701E-03     85.7889E-03    -14.0026E+06    -81.3526E+06    -10.2395E+06    -12.2187E+06    -28.0261E-03     55.4749E-03    -27.4488E-03     53.2518E-03    -27.9880E-03     55.1279E-03    -27.3617E-03     53.0365E-03
             815     9.63282E-03     85.8424E-03    -12.7183E+06    -80.8525E+06    -11.3555E+06    -12.6592E+06    -28.1377E-03     55.5653E-03    -27.4276E-03     58.8353E-03    -28.1036E-03     55.2320E-03    -27.3487E-03     58.5990E-03
             816     10.5089E-03     85.9002E-03    -11.1919E+06    -78.0404E+06    -15.4396E+06    -12.2119E+06    -28.3370E-03     55.7262E-03    -27.3892E-03     64.2852E-03    -28.3103E-03     55.4275E-03    -27.3370E-03     64.0350E-03
             817     11.3841E-03     85.9642E-03    -10.2797E+06    -67.1728E+06    -17.0621E+06     -11.215E+06    -28.4717E-03     55.8252E-03    -27.3535E-03     70.4018E-03    -28.4804E-03     55.6084E-03    -27.3265E-03     70.1393E-03
             818     12.2616E-03     86.0332E-03    -9.82932E+06    -51.1152E+06    -15.7234E+06    -9.52293E+06    -28.5938E-03     55.9184E-03    -27.3246E-03     75.8417E-03    -28.6604E-03     55.8143E-03    -27.3148E-03     75.5746E-03
             819     13.1350E-03     86.1072E-03    -10.2385E+06    -41.1119E+06    -23.3434E+06    -7.84528E+06    -28.7224E-03     55.9852E-03    -27.2628E-03     79.6340E-03    -28.8547E-03     56.0028E-03    -27.3050E-03     79.3533E-03
             820     14.0136E-03     86.1841E-03    -10.4085E+06    -14.6530E+06    -38.8873E+06    -5.27869E+06    -29.5605E-03     56.6973E-03    -27.1368E-03     101.901E-03    -29.9353E-03     57.0958E-03    -27.2949E-03     101.586E-03
             821     14.8875E-03     86.3000E-03    -9.86372E+06     54.7143E+06    -36.8673E+06    -1.85952E+06    -35.6346E-03     62.6665E-03    -27.0319E-03     187.429E-03    -37.5029E-03     64.8009E-03    -27.2813E-03     187.083E-03
             822     15.7649E-03     86.5440E-03    -9.35025E+06     140.281E+06     25.7620E+06    -222.315E+03    -46.8198E-03     74.0119E-03    -27.1921E-03     326.288E-03    -57.0626E-03     84.6448E-03    -27.2531E-03     327.456E-03
             823     16.6416E-03     86.9378E-03    -6.41396E+06     191.860E+06     101.348E+06     236.665E+03    -50.1604E-03     77.6072E-03    -27.4468E-03     391.048E-03    -69.9727E-03     97.7839E-03    -27.2089E-03     400.524E-03
             824     875.492E-06     86.5442E-03    -26.9117E+06    -96.8898E+06    -26.7087E+06    -1.88575E+06    -27.5080E-03     54.9944E-03    -27.4864E-03     5.69042E-03    -27.4634E-03     54.5879E-03    -27.4405E-03     5.66311E-03
             825     1.75136E-03     86.5521E-03    -26.4160E+06    -95.1653E+06    -25.5413E+06    -3.72175E+06    -27.5085E-03     55.0018E-03    -27.4933E-03     10.4786E-03    -27.4660E-03     54.6018E-03    -27.4448E-03     10.4250E-03
             826     2.62683E-03     86.5640E-03    -25.6174E+06    -93.2867E+06    -23.4883E+06    -5.36306E+06    -27.5147E-03     55.0073E-03    -27.4927E-03     15.5919E-03    -27.4744E-03     54.6131E-03    -27.4377E-03     15.5140E-03
             827     3.50268E-03     86.5816E-03    -24.4620E+06    -90.6068E+06    -20.8416E+06    -6.83526E+06    -27.5330E-03     55.0228E-03    -27.4898E-03     20.7950E-03    -27.4956E-03     54.6373E-03    -27.4271E-03     20.6946E-03
             828     4.37821E-03     86.6033E-03    -22.7092E+06    -89.9643E+06    -17.1625E+06    -8.10603E+06    -27.5674E-03     55.0597E-03    -27.4923E-03     26.0570E-03    -27.5287E-03     54.6708E-03    -27.4147E-03     25.9361E-03
             829     5.25409E-03     86.6309E-03    -20.6856E+06    -89.0386E+06    -13.6147E+06    -9.43380E+06    -27.6150E-03     55.1069E-03    -27.4920E-03     31.3934E-03    -27.5745E-03     54.7164E-03    -27.4010E-03     31.2503E-03
             830     6.12971E-03     86.6626E-03    -18.9071E+06    -85.3863E+06    -11.2565E+06    -10.8271E+06    -27.6767E-03     55.1579E-03    -27.4812E-03     36.8212E-03    -27.6386E-03     54.7823E-03    -27.3863E-03     36.6539E-03
             831     7.00566E-03     86.7005E-03    -17.3421E+06    -83.8055E+06    -10.0163E+06    -12.2454E+06    -27.7714E-03     55.2400E-03    -27.4686E-03     42.2807E-03    -27.7334E-03     54.8720E-03    -27.3720E-03     42.0873E-03
             832     7.88131E-03     86.7423E-03    -15.8250E+06    -82.1032E+06    -10.5660E+06    -13.0597E+06    -27.8601E-03     55.3068E-03    -27.4468E-03     47.8282E-03    -27.8215E-03     54.9513E-03    -27.3576E-03     47.6147E-03
             833     8.75723E-03     86.7910E-03    -13.9344E+06    -78.9931E+06    -10.1248E+06    -13.4165E+06    -27.9916E-03     55.4190E-03    -27.4274E-03     53.3324E-03    -27.9567E-03     55.0836E-03    -27.3433E-03     53.1019E-03
             834     9.63314E-03     86.8428E-03    -12.3763E+06    -79.0866E+06    -11.1526E+06    -14.0992E+06    -28.1388E-03     55.5460E-03    -27.4072E-03     58.9536E-03    -28.1059E-03     55.2207E-03    -27.3304E-03     58.6989E-03
             835     10.5087E-03     86.9024E-03    -11.3288E+06    -78.2423E+06    -16.5229E+06    -13.8859E+06    -28.2387E-03     55.6019E-03    -27.3632E-03     64.4506E-03    -28.2106E-03     55.3037E-03    -27.3159E-03     64.1796E-03
             836     11.3854E-03     86.9643E-03    -10.4012E+06    -67.6794E+06    -18.1192E+06    -12.8479E+06    -28.4468E-03     55.7713E-03    -27.3245E-03     70.4339E-03    -28.4536E-03     55.5535E-03    -27.3019E-03     70.1507E-03
             837     12.2598E-03     87.0352E-03    -9.20770E+06    -52.7373E+06    -16.5278E+06    -11.0732E+06    -28.6176E-03     55.9164E-03    -27.2988E-03     75.8072E-03    -28.6775E-03     55.8043E-03    -27.2917E-03     75.5201E-03
             838     13.1379E-03     87.1080E-03    -8.43154E+06    -42.8395E+06    -23.6166E+06    -8.50871E+06    -28.7342E-03     55.9745E-03    -27.2403E-03     79.6596E-03    -28.8540E-03     55.9808E-03    -27.2840E-03     79.3711E-03
             839     14.0113E-03     87.1853E-03    -8.94526E+06    -17.8165E+06    -39.9456E+06    -6.45572E+06    -29.8289E-03     56.9508E-03    -27.1219E-03     101.978E-03    -30.1932E-03     57.3359E-03    -27.2828E-03     101.644E-03
             840     14.8885E-03     87.3017E-03    -9.09546E+06     50.8562E+06    -40.3939E+06    -3.85005E+06    -35.8734E-03     62.8943E-03    -27.0208E-03     187.603E-03    -37.7222E-03     65.0084E-03    -27.2834E-03     187.226E-03
             841     15.7636E-03     87.5445E-03    -9.16750E+06     138.810E+06     21.8820E+06    -56.5870E+03    -47.0297E-03     74.2204E-03    -27.1907E-03     325.654E-03    -57.2417E-03     84.8292E-03    -27.2693E-03     326.825E-03
             842     16.6402E-03     87.9381E-03    -5.74008E+06     192.117E+06     100.423E+06     1.52166E+06    -49.4279E-03     76.8737E-03    -27.4459E-03     391.095E-03    -69.2410E-03     97.0573E-03    -27.2140E-03     400.717E-03
             843     875.778E-06     87.5461E-03    -25.7671E+06    -92.7371E+06    -25.7790E+06    -2.12701E+06    -27.4937E-03     54.9661E-03    -27.4724E-03     5.68571E-03    -27.4508E-03     54.5774E-03    -27.4295E-03     5.65530E-03
             844     1.75120E-03     87.5532E-03    -25.2783E+06    -90.6999E+06    -24.3365E+06    -3.97870E+06    -27.4892E-03     54.9677E-03    -27.4785E-03     10.4795E-03    -27.4493E-03     54.5866E-03    -27.4320E-03     10.4225E-03
             845     2.62702E-03     87.5658E-03    -24.3233E+06    -89.5747E+06    -21.9804E+06    -5.69644E+06    -27.4971E-03     54.9759E-03    -27.4788E-03     15.5912E-03    -27.4579E-03     54.5961E-03    -27.4235E-03     15.5090E-03
             846     3.50257E-03     87.5826E-03    -23.2297E+06    -86.9011E+06    -19.5574E+06    -7.12772E+06    -27.5078E-03     54.9812E-03    -27.4734E-03     20.8047E-03    -27.4714E-03     54.6106E-03    -27.4115E-03     20.7005E-03
             847     4.37843E-03     87.6051E-03    -21.9547E+06    -86.3170E+06    -16.6700E+06    -8.90947E+06    -27.5384E-03     55.0091E-03    -27.4708E-03     26.0738E-03    -27.5019E-03     54.6367E-03    -27.3971E-03     25.9425E-03
             848     5.25409E-03     87.6317E-03    -20.2279E+06    -85.7206E+06    -13.4682E+06    -10.3390E+06    -27.5841E-03     55.0521E-03    -27.4680E-03     31.4206E-03    -27.5463E-03     54.6772E-03    -27.3817E-03     31.2659E-03
             849     6.12997E-03     87.6644E-03    -18.0459E+06    -81.7367E+06    -10.5489E+06    -11.8651E+06    -27.6390E-03     55.0961E-03    -27.4571E-03     36.8522E-03    -27.6029E-03     54.7364E-03    -27.3652E-03     36.6717E-03
             850     7.00571E-03     87.7011E-03    -16.0064E+06    -80.9397E+06    -8.83840E+06    -12.9944E+06    -27.7238E-03     55.1684E-03    -27.4446E-03     42.3532E-03    -27.6849E-03     54.8110E-03    -27.3482E-03     42.1504E-03
             851     7.88155E-03     87.7444E-03    -14.5512E+06    -79.4808E+06    -9.42733E+06    -13.8810E+06    -27.8072E-03     55.2270E-03    -27.4198E-03     47.8927E-03    -27.7677E-03     54.8810E-03    -27.3306E-03     47.6689E-03
             852     8.75757E-03     87.7911E-03    -13.2785E+06    -76.9192E+06    -9.87042E+06    -14.9197E+06    -27.9215E-03     55.3154E-03    -27.3939E-03     53.5265E-03    -27.8865E-03     54.9889E-03    -27.3125E-03     53.2772E-03
             853     9.63320E-03     87.8453E-03    -11.8868E+06    -77.1345E+06    -10.7719E+06    -15.3540E+06    -28.0844E-03     55.4559E-03    -27.3715E-03     59.0870E-03    -28.0522E-03     55.1390E-03    -27.2963E-03     58.8165E-03
             854     10.5095E-03     87.9020E-03    -11.0129E+06    -77.6861E+06    -16.3091E+06    -15.4046E+06    -28.2521E-03     55.5819E-03    -27.3298E-03     64.5307E-03    -28.2234E-03     55.2856E-03    -27.2827E-03     64.2403E-03
             855     11.3847E-03     87.9668E-03    -9.97758E+06    -68.0108E+06    -18.5770E+06    -14.5245E+06    -28.4899E-03     55.7829E-03    -27.2929E-03     70.7390E-03    -28.4934E-03     55.5634E-03    -27.2727E-03     70.4346E-03
             856     12.2618E-03     88.0354E-03    -8.81609E+06    -53.7954E+06    -17.1355E+06    -13.2542E+06    -28.5677E-03     55.8365E-03    -27.2688E-03     75.9108E-03    -28.6230E-03     55.7192E-03    -27.2637E-03     75.5962E-03
             857     13.1359E-03     88.1096E-03    -7.65935E+06    -46.2518E+06    -24.7369E+06    -10.6439E+06    -28.7436E-03     55.9534E-03    -27.2098E-03     80.1426E-03    -28.8524E-03     55.9426E-03    -27.2553E-03     79.8273E-03
             858     14.0138E-03     88.1867E-03    -7.56658E+06    -20.1432E+06    -36.4597E+06    -7.11210E+06    -29.9617E-03     57.0777E-03    -27.1160E-03     102.632E-03    -30.3219E-03     57.4453E-03    -27.2581E-03     102.289E-03
             859     14.8878E-03     88.3034E-03    -10.1522E+06     47.4530E+06    -40.6159E+06    -4.12933E+06    -35.8890E-03     62.8945E-03    -27.0055E-03     187.879E-03    -37.7341E-03     64.9898E-03    -27.2626E-03     187.504E-03
             860     15.7645E-03     88.5458E-03    -11.1202E+06     134.749E+06     14.4933E+06    -492.325E+03    -46.6930E-03     73.8183E-03    -27.1253E-03     327.345E-03    -56.9413E-03     84.4635E-03    -27.2321E-03     328.546E-03
             861     16.6401E-03     88.9403E-03    -6.08008E+06     191.953E+06     97.7979E+06     1.15062E+06    -49.3953E-03     76.7699E-03    -27.3746E-03     392.246E-03    -69.2310E-03     96.9819E-03    -27.1552E-03     401.869E-03
             862     875.519E-06     88.5471E-03    -24.1710E+06    -88.0882E+06    -23.9057E+06    -2.48936E+06    -27.4605E-03     54.9250E-03    -27.4645E-03     5.69547E-03    -27.4191E-03     54.5545E-03    -27.4212E-03     5.66037E-03
             863     1.75141E-03     88.5550E-03    -23.3570E+06    -86.0135E+06    -22.4916E+06    -4.35107E+06    -27.4607E-03     54.9170E-03    -27.4564E-03     10.4845E-03    -27.4205E-03     54.5539E-03    -27.4103E-03     10.4227E-03
             864     2.62695E-03     88.5668E-03    -22.3790E+06    -85.7030E+06    -19.9267E+06    -6.05870E+06    -27.4694E-03     54.9258E-03    -27.4564E-03     15.5923E-03    -27.4291E-03     54.5596E-03    -27.3993E-03     15.5054E-03
             865     3.50278E-03     88.5844E-03    -20.9163E+06    -82.9605E+06    -17.5084E+06    -7.65761E+06    -27.4775E-03     54.9261E-03    -27.4487E-03     20.8120E-03    -27.4382E-03     54.5689E-03    -27.3856E-03     20.7011E-03
             866     4.37845E-03     88.6060E-03    -19.4506E+06    -82.3628E+06    -14.3845E+06    -9.20020E+06    -27.5059E-03     54.9511E-03    -27.4452E-03     26.0880E-03    -27.4659E-03     54.5914E-03    -27.3695E-03     25.9531E-03
             867     5.25429E-03     88.6335E-03    -18.0411E+06    -81.8363E+06    -11.5802E+06    -11.0288E+06    -27.5439E-03     54.9829E-03    -27.4390E-03     31.4482E-03    -27.5036E-03     54.6216E-03    -27.3520E-03     31.2847E-03
             868     6.13008E-03     88.6651E-03    -16.4858E+06    -77.8162E+06    -9.72846E+06    -12.8644E+06    -27.5846E-03     55.0054E-03    -27.4208E-03     36.9257E-03    -27.5476E-03     54.6618E-03    -27.3327E-03     36.7325E-03
             869     7.00596E-03     88.7030E-03    -14.8349E+06    -78.5010E+06    -8.10822E+06    -13.9475E+06    -27.6335E-03     55.0389E-03    -27.4054E-03     42.4168E-03    -27.5933E-03     54.6909E-03    -27.3106E-03     42.2021E-03
             870     7.88203E-03     88.7446E-03    -13.1988E+06    -76.4451E+06    -8.50375E+06    -14.6689E+06    -27.7295E-03     55.1043E-03    -27.3749E-03     48.0193E-03    -27.6888E-03     54.7701E-03    -27.2874E-03     47.7858E-03
             871     8.75771E-03     88.7932E-03    -12.0454E+06    -74.0811E+06    -8.75348E+06    -15.7940E+06    -27.8395E-03     55.1859E-03    -27.3463E-03     53.6674E-03    -27.8039E-03     54.8699E-03    -27.2652E-03     53.4073E-03
             872     9.63415E-03     88.8451E-03    -11.3210E+06    -75.3210E+06    -10.2265E+06    -16.4806E+06    -28.0134E-03     55.3337E-03    -27.3204E-03     59.3092E-03    -27.9815E-03     55.0240E-03    -27.2459E-03     59.0250E-03
             873     10.5095E-03     88.9045E-03    -10.6259E+06    -76.3651E+06    -15.4859E+06    -16.6202E+06    -28.2009E-03     55.4803E-03    -27.2795E-03     64.7946E-03    -28.1733E-03     55.1889E-03    -27.2308E-03     64.4889E-03
             874     11.3861E-03     88.9665E-03    -10.0714E+06    -68.2939E+06    -18.6425E+06    -16.0978E+06    -28.3503E-03     55.5871E-03    -27.2368E-03     71.4037E-03    -28.3532E-03     55.3659E-03    -27.2164E-03     71.0806E-03
             875     12.2608E-03     89.0380E-03    -9.38126E+06    -55.0121E+06    -17.8501E+06    -14.7363E+06    -28.6186E-03     55.8289E-03    -27.2103E-03     76.5429E-03    -28.6739E-03     55.7074E-03    -27.2062E-03     76.2096E-03
             876     13.1387E-03     89.1093E-03    -9.08927E+06    -48.2140E+06    -25.6610E+06    -12.5478E+06    -28.8387E-03     55.9985E-03    -27.1599E-03     80.6453E-03    -28.9517E-03     55.9825E-03    -27.2051E-03     80.3044E-03
             877     14.0125E-03     89.1895E-03    -9.98369E+06    -24.2092E+06    -34.1550E+06    -8.69097E+06    -29.7709E-03     56.8566E-03    -27.0857E-03     103.424E-03    -30.1390E-03     57.2024E-03    -27.2069E-03     103.064E-03
             878     14.8893E-03     89.3043E-03    -11.1456E+06     41.8872E+06    -41.2845E+06    -3.23173E+06    -35.3684E-03     62.3084E-03    -26.9400E-03     188.519E-03    -37.2062E-03     64.3751E-03    -27.1910E-03     188.171E-03
             879     15.7655E-03     89.5471E-03    -10.2592E+06     131.323E+06     7.94032E+06    -334.788E+03    -46.3387E-03     73.3405E-03    -27.0018E-03     327.390E-03    -56.5363E-03     83.9448E-03    -27.1376E-03     328.604E-03
             880     16.6471E-03     89.9398E-03    -5.37891E+06     192.560E+06     95.9651E+06    -134.300E+03    -50.3314E-03     77.6264E-03    -27.2949E-03     390.713E-03    -70.1391E-03     97.8203E-03    -27.0865E-03     400.202E-03
             881     875.806E-06     89.5490E-03    -21.9457E+06    -82.7536E+06    -21.8970E+06    -2.69265E+06    -27.4261E-03     54.8552E-03    -27.4291E-03     5.69397E-03    -27.3842E-03     54.5052E-03    -27.3868E-03     5.65626E-03
             882     1.75131E-03     89.5560E-03    -21.6168E+06    -81.3803E+06    -20.8781E+06    -4.71180E+06    -27.4217E-03     54.8415E-03    -27.4197E-03     10.4922E-03    -27.3820E-03     54.4966E-03    -27.3748E-03     10.4259E-03
             883     2.62716E-03     89.5687E-03    -20.5860E+06    -81.2100E+06    -18.5288E+06    -6.60375E+06    -27.4259E-03     54.8429E-03    -27.4169E-03     15.6059E-03    -27.3852E-03     54.4945E-03    -27.3620E-03     15.5121E-03
             884     3.50282E-03     89.5852E-03    -19.2977E+06    -78.9127E+06    -16.1289E+06    -8.36669E+06    -27.4313E-03     54.8393E-03    -27.4080E-03     20.8336E-03    -27.3918E-03     54.4980E-03    -27.3463E-03     20.7136E-03
             885     4.37868E-03     89.6078E-03    -17.8800E+06    -78.7155E+06    -13.2717E+06    -9.67649E+06    -27.4451E-03     54.8461E-03    -27.4009E-03     26.1307E-03    -27.4042E-03     54.5007E-03    -27.3272E-03     25.9898E-03
             886     5.25450E-03     89.6342E-03    -16.3038E+06    -77.0380E+06    -10.5374E+06    -11.5817E+06    -27.4689E-03     54.8569E-03    -27.3880E-03     31.5265E-03    -27.4283E-03     54.5155E-03    -27.3053E-03     31.3562E-03
             887     6.13040E-03     89.6669E-03    -14.8284E+06    -74.0699E+06    -8.72067E+06    -13.4509E+06    -27.4913E-03     54.8569E-03    -27.3657E-03     37.0210E-03    -27.4527E-03     54.5281E-03    -27.2804E-03     36.8207E-03
             888     7.00642E-03     89.7034E-03    -13.5200E+06    -75.5296E+06    -7.05380E+06    -14.5986E+06    -27.5498E-03     54.8969E-03    -27.3471E-03     42.5198E-03    -27.5087E-03     54.5602E-03    -27.2533E-03     42.2972E-03
             889     7.88228E-03     89.7464E-03    -12.3018E+06    -73.6359E+06    -7.50750E+06    -15.6520E+06    -27.6120E-03     54.9241E-03    -27.3121E-03     48.1673E-03    -27.5722E-03     54.6010E-03    -27.2251E-03     47.9218E-03
             890     8.75867E-03     89.7934E-03    -10.9472E+06    -71.2177E+06    -7.44584E+06    -16.4651E+06    -27.7332E-03     55.0126E-03    -27.2794E-03     53.8706E-03    -27.6980E-03     54.7073E-03    -27.1975E-03     53.6026E-03
             891     9.63424E-03     89.8470E-03    -10.0710E+06    -73.0056E+06    -8.69775E+06    -17.1396E+06    -27.8978E-03     55.1483E-03    -27.2505E-03     59.6210E-03    -27.8649E-03     54.8458E-03    -27.1735E-03     59.3293E-03
             892     10.5109E-03     89.9046E-03    -9.74621E+06    -74.6651E+06    -14.6989E+06    -17.4674E+06    -28.0715E-03     55.2738E-03    -27.2024E-03     65.0657E-03    -28.0427E-03     54.9880E-03    -27.1535E-03     64.7503E-03
             893     11.3865E-03     89.9681E-03    -9.79423E+06    -67.9013E+06    -18.0742E+06    -17.0535E+06    -28.2202E-03     55.3771E-03    -27.1569E-03     71.4328E-03    -28.2227E-03     55.1562E-03    -27.1346E-03     71.0984E-03
             894     12.2641E-03     90.0381E-03    -9.84410E+06    -55.5335E+06    -17.7974E+06    -16.0486E+06    -28.6150E-03     55.7453E-03    -27.1303E-03     77.1396E-03    -28.6715E-03     55.6213E-03    -27.1245E-03     76.7906E-03
             895     13.1374E-03     90.1122E-03    -9.61572E+06    -51.0141E+06    -26.3326E+06    -13.7179E+06    -28.8726E-03     55.9577E-03    -27.0851E-03     80.8295E-03    -28.9844E-03     55.9306E-03    -27.1288E-03     80.4731E-03
             896     14.0152E-03     90.1889E-03    -9.37351E+06    -29.5184E+06    -36.4802E+06    -9.29258E+06    -29.2922E-03     56.2863E-03    -26.9941E-03     103.866E-03    -29.6416E-03     56.6035E-03    -27.1201E-03     103.505E-03
             897     14.8909E-03     90.3068E-03    -8.96379E+06     36.5892E+06    -41.7305E+06    -4.33222E+06    -35.1982E-03     62.0393E-03    -26.8411E-03     188.424E-03    -37.0133E-03     64.0735E-03    -27.0898E-03     188.059E-03
             898     15.7694E-03     90.5453E-03    -7.81536E+06     129.085E+06     10.2993E+06    -1.03579E+06    -47.7058E-03     74.6615E-03    -26.9557E-03     325.988E-03    -57.8914E-03     85.2477E-03    -27.0800E-03     327.046E-03
             899     16.6396E-03     90.9430E-03    -5.26033E+06     193.182E+06     96.1139E+06     6.29569E+03    -50.7762E-03     78.0722E-03    -27.2959E-03     390.005E-03    -70.5845E-03     98.2688E-03    -27.0879E-03     399.510E-03
             900     875.614E-06     90.5498E-03    -19.9529E+06    -77.0277E+06    -19.8721E+06    -2.92186E+06    -27.3744E-03     54.7469E-03    -27.3724E-03     5.68349E-03    -27.3338E-03     54.4197E-03    -27.3312E-03     5.64286E-03
             901     1.75154E-03     90.5578E-03    -19.3837E+06    -76.3061E+06    -18.7879E+06    -5.03002E+06    -27.3640E-03     54.7294E-03    -27.3655E-03     10.4998E-03    -27.3234E-03     54.4037E-03    -27.3207E-03     10.4294E-03
             902     2.62721E-03     90.5695E-03    -18.4947E+06    -76.1413E+06    -16.8423E+06    -7.27005E+06    -27.3644E-03     54.7232E-03    -27.3587E-03     15.6350E-03    -27.3230E-03     54.3947E-03    -27.3057E-03     15.5327E-03
             903     3.50309E-03     90.5870E-03    -17.1091E+06    -74.7184E+06    -14.5440E+06    -9.13188E+06    -27.3593E-03     54.7068E-03    -27.3475E-03     20.8715E-03    -27.3172E-03     54.3809E-03    -27.2870E-03     20.7418E-03
             904     4.37893E-03     90.6084E-03    -15.2792E+06    -74.8295E+06    -11.4767E+06    -10.7096E+06    -27.3606E-03     54.6974E-03    -27.3367E-03     26.1846E-03    -27.3149E-03     54.3650E-03    -27.2635E-03     26.0306E-03
             905     5.25486E-03     90.6359E-03    -13.2584E+06    -72.2628E+06    -8.33126E+06    -12.5082E+06    -27.3611E-03     54.6787E-03    -27.3176E-03     31.6009E-03    -27.3153E-03     54.3535E-03    -27.2353E-03     31.4190E-03
             906     6.13091E-03     90.6673E-03    -11.7956E+06    -70.8235E+06    -5.84073E+06    -13.6890E+06    -27.3787E-03     54.6729E-03    -27.2942E-03     37.0899E-03    -27.3338E-03     54.3516E-03    -27.2036E-03     36.8869E-03
             907     7.00690E-03     90.7049E-03    -10.9385E+06    -72.0929E+06    -4.53650E+06     -14.687E+06    -27.4316E-03     54.7000E-03    -27.2684E-03     42.6700E-03    -27.3861E-03     54.3729E-03    -27.1707E-03     42.4468E-03
             908     7.88316E-03     90.7466E-03    -10.0117E+06    -69.9288E+06    -5.35060E+06    -16.3033E+06    -27.4996E-03     54.7268E-03    -27.2272E-03     48.3147E-03    -27.4567E-03     54.4156E-03    -27.1380E-03     48.0614E-03
             909     8.75910E-03     90.7947E-03    -9.08295E+06    -69.0944E+06    -5.94427E+06    -17.2026E+06    -27.5729E-03     54.7613E-03    -27.1884E-03     54.1204E-03    -27.5332E-03     54.4613E-03    -27.1048E-03     53.8440E-03
             910     9.63576E-03     90.8472E-03    -8.21919E+06    -70.6929E+06    -6.86656E+06    -17.4696E+06    -27.7444E-03     54.8984E-03    -27.1540E-03     59.9128E-03    -27.7080E-03     54.6017E-03    -27.0739E-03     59.6180E-03
             911     10.5116E-03     90.9057E-03    -8.09653E+06    -72.6691E+06    -13.0682E+06    -17.7311E+06    -28.0324E-03     55.1369E-03    -27.1046E-03     65.3991E-03    -28.0003E-03     54.8560E-03    -27.0528E-03     65.0813E-03
             912     11.3879E-03     90.9688E-03    -8.10814E+06    -66.8040E+06    -16.6756E+06    -17.7999E+06    -28.2698E-03     55.3361E-03    -27.0664E-03     71.5729E-03    -28.2676E-03     55.1164E-03    -27.0411E-03     71.2288E-03
             913     12.2629E-03     91.0386E-03    -7.96970E+06    -55.6814E+06    -16.7995E+06    -17.0846E+06    -28.4169E-03     55.4564E-03    -27.0396E-03     77.7457E-03    -28.4646E-03     55.3269E-03    -27.0313E-03     77.3854E-03
             914     13.1410E-03     91.1142E-03    -8.05345E+06    -54.0723E+06    -26.1150E+06    -15.1600E+06    -28.5127E-03     55.4934E-03    -26.9807E-03     81.2827E-03    -28.6097E-03     55.4456E-03    -27.0212E-03     80.9126E-03
             915     14.0152E-03     91.1889E-03    -6.91241E+06    -35.5742E+06    -37.1889E+06    -10.4658E+06    -29.6314E-03     56.5240E-03    -26.8926E-03     103.472E-03    -29.9615E-03     56.8110E-03    -27.0169E-03     103.092E-03
             916     14.8937E-03     91.3064E-03    -7.95562E+06     31.3817E+06    -39.4845E+06    -5.50262E+06    -36.0407E-03     62.8380E-03    -26.7973E-03     187.813E-03    -37.8517E-03     64.8467E-03    -27.0287E-03     187.412E-03
             917     15.7655E-03     91.5494E-03    -9.33925E+06     126.809E+06     11.9726E+06    -2.41395E+06    -47.8322E-03     74.7669E-03    -26.9347E-03     327.412E-03    -58.1289E-03     85.4459E-03    -27.0452E-03     328.485E-03
             918     16.6444E-03     91.9458E-03    -6.56102E+06     192.472E+06     94.4169E+06    -118.527E+03    -50.5250E-03     77.7620E-03    -27.2370E-03     392.146E-03    -70.3429E-03     97.9661E-03    -27.0345E-03     401.621E-03
             919     875.884E-06     91.5517E-03    -16.8968E+06    -70.9206E+06    -16.8036E+06    -3.14919E+06    -27.2848E-03     54.5890E-03    -27.3042E-03     5.67021E-03    -27.2422E-03     54.2835E-03    -27.2609E-03     5.62670E-03
             920     1.75155E-03     91.5585E-03    -16.3917E+06    -70.7159E+06    -15.8427E+06    -5.47883E+06    -27.2848E-03     54.5715E-03    -27.2867E-03     10.5311E-03    -27.2417E-03     54.2651E-03    -27.2396E-03     10.4550E-03
             921     2.62749E-03     91.5711E-03    -15.4453E+06    -70.5156E+06    -14.1376E+06    -7.92347E+06    -27.2761E-03     54.5530E-03    -27.2769E-03     15.6728E-03    -27.2315E-03     54.2443E-03    -27.2229E-03     15.5622E-03
             922     3.50334E-03     91.5876E-03    -14.2513E+06    -70.1152E+06    -12.1052E+06    -10.0633E+06    -27.2608E-03     54.5233E-03    -27.2625E-03     20.9176E-03    -27.2146E-03     54.2127E-03    -27.2007E-03     20.7761E-03
             923     4.37932E-03     91.6099E-03    -12.6843E+06    -70.1067E+06    -9.34747E+06    -12.0127E+06    -27.2420E-03     54.4872E-03    -27.2452E-03     26.2516E-03    -27.1931E-03     54.1716E-03    -27.1719E-03     26.0811E-03
             924     5.25538E-03     91.6362E-03    -11.1198E+06    -68.2778E+06    -6.63459E+06    -13.4667E+06    -27.2263E-03     54.4456E-03    -27.2193E-03     31.6922E-03    -27.1780E-03     54.1346E-03    -27.1373E-03     31.4984E-03
             925     6.13147E-03     91.6687E-03    -9.65014E+06    -68.0405E+06    -3.94584E+06    -14.0972E+06    -27.2311E-03     54.4228E-03    -27.1917E-03     37.2028E-03    -27.1821E-03     54.1094E-03    -27.0987E-03     36.9952E-03
             926     7.00777E-03     91.7050E-03    -7.98639E+06    -68.3114E+06    -2.19051E+06    -15.1445E+06    -27.2706E-03     54.4290E-03    -27.1584E-03     42.8353E-03    -27.2191E-03     54.1130E-03    -27.0587E-03     42.6071E-03
             927     7.88392E-03     91.7479E-03    -6.84109E+06    -66.2595E+06    -2.92074E+06    -16.4440E+06    -27.3469E-03     54.4581E-03    -27.1112E-03     48.5452E-03    -27.2967E-03     54.1569E-03    -27.0198E-03     48.2911E-03
             928     8.76040E-03     91.7947E-03    -6.65872E+06    -66.3936E+06    -3.82389E+06    -17.3776E+06    -27.4602E-03     54.5308E-03    -27.0706E-03     54.3155E-03    -27.4151E-03     54.2375E-03    -26.9838E-03     54.0376E-03
             929     9.63662E-03     91.8480E-03    -6.25948E+06    -68.6487E+06    -4.94626E+06    -17.9017E+06    -27.6160E-03     54.6519E-03    -27.0359E-03     60.1401E-03    -27.5751E-03     54.3594E-03    -26.9520E-03     59.8409E-03
             930     10.5131E-03     91.9062E-03    -5.53265E+06    -71.2634E+06    -10.7866E+06    -18.0597E+06    -27.8356E-03     54.8193E-03    -26.9837E-03     65.8468E-03    -27.7954E-03     54.5377E-03    -26.9262E-03     65.5266E-03
             931     11.3891E-03     91.9695E-03    -5.74085E+06    -65.1566E+06    -14.6404E+06    -18.1948E+06    -28.2466E-03     55.1895E-03    -26.9428E-03     72.4314E-03    -28.2378E-03     54.9715E-03    -26.9132E-03     72.0834E-03
             932     12.2660E-03     92.0397E-03    -6.15464E+06    -55.4832E+06    -14.7572E+06    -17.7128E+06    -28.3620E-03     55.2854E-03    -26.9234E-03     78.0808E-03    -28.4038E-03     55.1512E-03    -26.9078E-03     77.7134E-03
             933     13.1410E-03     92.1135E-03    -6.27514E+06    -55.7347E+06    -23.4266E+06    -15.7969E+06    -28.5994E-03     55.4782E-03    -26.8787E-03     81.3075E-03    -28.6878E-03     55.4143E-03    -26.9060E-03     80.9299E-03
             934     14.0193E-03     92.1907E-03    -8.95079E+06    -40.6460E+06    -36.6819E+06    -12.5151E+06    -30.4396E-03     57.2642E-03    -26.8246E-03     103.632E-03    -30.7842E-03     57.5391E-03    -26.9361E-03     103.215E-03
             935     14.8901E-03     92.3092E-03    -10.3874E+06     24.3249E+06    -44.8743E+06    -6.33182E+06    -36.0361E-03     62.7663E-03    -26.7301E-03     188.456E-03    -37.8389E-03     64.7486E-03    -26.9747E-03     188.059E-03
             936     15.7698E-03     92.5494E-03    -8.06453E+06     123.972E+06     5.50995E+06    -1.12375E+06    -46.8289E-03     73.6462E-03    -26.8173E-03     329.070E-03    -57.1580E-03     84.3708E-03    -26.9578E-03     330.252E-03
             937     16.6467E-03     92.9471E-03    -5.49208E+06     192.440E+06     92.9292E+06     70.5278E+03    -50.9450E-03     78.0664E-03    -27.1214E-03     392.229E-03    -70.7465E-03     98.2621E-03    -26.9278E-03     401.594E-03
             938     875.820E-06     92.5521E-03    -13.2980E+06    -64.3507E+06    -13.1500E+06    -3.33714E+06    -27.1592E-03     54.3629E-03    -27.2037E-03     5.67919E-03    -27.1135E-03     54.0797E-03    -27.1568E-03     5.63332E-03
             939     1.75186E-03     92.5601E-03    -12.7537E+06    -64.5334E+06    -12.2744E+06    -5.94505E+06    -27.1743E-03     54.3484E-03    -27.1742E-03     10.5648E-03    -27.1271E-03     54.0625E-03    -27.1235E-03     10.4828E-03
             940     2.62774E-03     92.5716E-03    -11.9520E+06    -64.5368E+06    -10.8268E+06    -8.56400E+06    -27.1525E-03     54.3148E-03    -27.1623E-03     15.7136E-03    -27.1040E-03     54.0261E-03    -27.1055E-03     15.5950E-03
             941     3.50377E-03     92.5890E-03    -10.9100E+06    -64.9501E+06    -8.99739E+06    -10.7964E+06    -27.1182E-03     54.2616E-03    -27.1433E-03     20.9825E-03    -27.0673E-03     53.9674E-03    -27.0783E-03     20.8319E-03
             942     4.37987E-03     92.6102E-03    -9.85893E+06    -64.9651E+06    -7.07414E+06    -12.8314E+06    -27.0841E-03     54.2003E-03    -27.1162E-03     26.3487E-03    -27.0319E-03     53.9029E-03    -27.0430E-03     26.1681E-03
             943     5.25605E-03     92.6374E-03    -8.85142E+06    -64.9541E+06    -5.12536E+06    -13.9805E+06    -27.0558E-03     54.1388E-03    -27.0830E-03     31.8209E-03    -27.0030E-03     53.8389E-03    -27.0017E-03     31.6211E-03
             944     6.13238E-03     92.6686E-03    -7.63747E+06    -64.7461E+06    -2.90959E+06    -14.8535E+06    -27.0507E-03     54.0976E-03    -27.0468E-03     37.3856E-03    -26.9978E-03     53.7961E-03    -26.9564E-03     37.1690E-03
             945     7.00870E-03     92.7060E-03    -6.25801E+06    -64.4487E+06    -1.00339E+06    -16.0825E+06    -27.0719E-03     54.0791E-03    -27.0072E-03     43.0725E-03    -27.0188E-03     53.7779E-03    -26.9097E-03     42.8332E-03
             946     7.88526E-03     92.7476E-03    -5.29812E+06    -63.8952E+06    -1.31472E+06    -16.4828E+06    -27.1652E-03     54.1242E-03    -26.9590E-03     48.8387E-03    -27.1127E-03     53.8299E-03    -26.8652E-03     48.5853E-03
             947     8.76168E-03     92.7955E-03    -4.74765E+06    -62.6354E+06    -1.56013E+06    -17.1915E+06    -27.3410E-03     54.2594E-03    -26.9184E-03     54.6941E-03    -27.2948E-03     53.9785E-03    -26.8285E-03     54.4199E-03
             948     9.63798E-03     92.8481E-03    -4.35657E+06    -66.3801E+06    -2.86682E+06    -18.3868E+06    -27.4220E-03     54.3058E-03    -26.8838E-03     60.5622E-03    -27.3773E-03     54.0183E-03    -26.7955E-03     60.2585E-03
             949     10.5146E-03     92.9063E-03    -4.35720E+06    -70.1607E+06    -9.68006E+06    -18.2181E+06    -27.6364E-03     54.4608E-03    -26.8244E-03     66.4623E-03    -27.5927E-03     54.1806E-03    -26.7648E-03     66.1423E-03
             950     11.3915E-03     92.9698E-03    -5.19956E+06    -63.5877E+06    -13.2122E+06    -17.9962E+06    -28.1444E-03     54.9287E-03    -26.7843E-03     73.0729E-03    -28.1366E-03     54.7150E-03    -26.7506E-03     72.7293E-03
             951     12.2667E-03     93.0408E-03    -5.82921E+06    -54.4208E+06    -12.3731E+06    -17.8335E+06    -28.5701E-03     55.3551E-03    -26.7850E-03     78.0607E-03    -28.6149E-03     55.2219E-03    -26.7595E-03     77.6916E-03
             952     13.1440E-03     93.1134E-03    -6.61860E+06    -58.5917E+06    -21.9230E+06    -15.9587E+06    -29.0562E-03     55.8296E-03    -26.7734E-03     82.2416E-03    -29.1481E-03     55.7535E-03    -26.7884E-03     81.8582E-03
             953     14.0163E-03     93.1936E-03    -7.54166E+06    -43.9985E+06    -37.8525E+06    -12.4650E+06    -30.2230E-03     56.9376E-03    -26.7146E-03     105.701E-03    -30.5513E-03     57.1927E-03    -26.8291E-03     105.292E-03
             954     14.8955E-03     93.3103E-03    -8.43227E+06     18.9723E+06    -48.8098E+06    -8.49393E+06    -35.9472E-03     62.5497E-03    -26.6025E-03     188.609E-03    -37.7314E-03     64.5129E-03    -26.8619E-03     188.184E-03
             955     15.7709E-03     93.5483E-03    -8.32546E+06     117.874E+06      23.249E+03    -2.57469E+06    -47.9831E-03     74.7110E-03    -26.7279E-03     327.222E-03    -58.2220E-03     85.3387E-03    -26.8866E-03     328.244E-03
             956     16.6470E-03     93.9504E-03    -5.53371E+06     192.202E+06     90.9351E+06     1.17326E+06    -50.6831E-03     77.7634E-03    -27.0803E-03     390.948E-03    -70.4271E-03     97.9064E-03    -26.8963E-03     400.433E-03
             957     876.100E-06     93.5536E-03    -9.43567E+06    -57.3473E+06    -9.38057E+06    -3.55508E+06    -27.0354E-03     54.0566E-03    -27.0212E-03     5.73739E-03    -26.9859E-03     53.7973E-03    -26.9713E-03     5.68882E-03
             958     1.75204E-03     93.5604E-03    -8.95129E+06    -57.7702E+06    -8.56279E+06    -6.41114E+06    -27.0153E-03     54.0348E-03    -27.0195E-03     10.5994E-03    -26.9643E-03     53.7718E-03    -26.9656E-03     10.5116E-03
             959     2.62818E-03     93.5729E-03    -8.20302E+06    -58.3233E+06    -7.31601E+06    -9.10412E+06    -26.9703E-03     53.9725E-03    -27.0022E-03     15.7723E-03    -26.9170E-03     53.7043E-03    -26.9423E-03     15.6470E-03
             960     3.50435E-03     93.5891E-03    -7.29617E+06    -59.4077E+06    -5.78720E+06    -11.4461E+06    -26.9246E-03     53.8999E-03    -26.9753E-03     21.0738E-03    -26.8682E-03     53.6235E-03    -26.9075E-03     20.9153E-03
             961     4.38064E-03     93.6112E-03    -6.21282E+06    -59.8105E+06    -4.19263E+06    -13.4073E+06    -26.8816E-03     53.8217E-03    -26.9401E-03     26.4776E-03    -26.8226E-03     53.5405E-03    -26.8653E-03     26.2902E-03
             962     5.25702E-03     93.6372E-03    -4.99089E+06    -61.6598E+06    -2.46254E+06    -14.5964E+06    -26.8457E-03     53.7475E-03    -26.9017E-03     31.9781E-03    -26.7821E-03     53.4544E-03    -26.8174E-03     31.7711E-03
             963     6.13350E-03     93.6693E-03    -3.81261E+06    -60.8811E+06    -753.219E+03    -15.4759E+06    -26.8261E-03     53.6816E-03    -26.8555E-03     37.6357E-03    -26.7626E-03     53.3906E-03    -26.7655E-03     37.4121E-03
             964     7.01012E-03     93.7056E-03    -3.24114E+06    -61.3624E+06     1.11948E+06    -16.1364E+06    -26.8480E-03     53.6600E-03    -26.8120E-03     43.3589E-03    -26.7870E-03     53.3664E-03    -26.7128E-03     43.1202E-03
             965     7.88677E-03     93.7480E-03    -2.98708E+06    -61.6906E+06     807.890E+03    -16.4036E+06    -26.9451E-03     53.7067E-03    -26.7616E-03     49.3150E-03    -26.8869E-03     53.4165E-03    -26.6638E-03     49.0643E-03
             966     8.76331E-03     93.7952E-03    -2.63701E+06    -59.5270E+06    -110.150E+03    -17.0598E+06    -27.0321E-03     53.7407E-03    -26.7086E-03     55.3181E-03    -26.9812E-03     53.4694E-03    -26.6190E-03     55.0480E-03
             967     9.64025E-03     93.8482E-03    -2.96944E+06    -63.3972E+06    -891.008E+03    -17.8682E+06    -27.2445E-03     53.9171E-03    -26.6726E-03     61.1999E-03    -27.1993E-03     53.6389E-03    -26.5808E-03     60.9049E-03
             968     10.5170E-03     93.9057E-03    -3.69242E+06    -68.6610E+06    -8.49318E+06    -18.2027E+06    -27.6534E-03     54.2749E-03    -26.6215E-03     67.2266E-03    -27.6099E-03     53.9992E-03    -26.5591E-03     66.9082E-03
             969     11.3929E-03     93.9706E-03    -4.00592E+06    -62.3593E+06    -13.0931E+06    -17.7590E+06    -28.0357E-03     54.6215E-03    -26.5858E-03     73.9974E-03    -28.0228E-03     54.4109E-03    -26.5550E-03     73.6596E-03
             970     12.2701E-03     94.0408E-03    -4.98304E+06    -54.3006E+06    -12.1825E+06    -17.0823E+06    -28.5312E-03     55.1251E-03    -26.5939E-03     79.5563E-03    -28.5714E-03     54.9901E-03    -26.5688E-03     79.1996E-03
             971     13.1439E-03     94.1156E-03    -6.17924E+06    -59.8942E+06    -22.3771E+06    -15.7105E+06    -29.2218E-03     55.8153E-03    -26.5935E-03     84.1400E-03    -29.3099E-03     55.7336E-03    -26.6095E-03     83.7612E-03
             972     14.0231E-03     94.1936E-03    -6.90483E+06    -47.3256E+06    -39.1390E+06    -13.2046E+06    -30.3029E-03     56.8519E-03    -26.5490E-03     105.960E-03    -30.6124E-03     57.0824E-03    -26.6661E-03     105.545E-03
             973     14.8966E-03     94.3115E-03    -8.53613E+06     13.9302E+06    -47.3739E+06    -10.1873E+06    -37.1981E-03     63.6976E-03    -26.4995E-03     188.745E-03    -39.0062E-03     65.6623E-03    -26.7442E-03     188.260E-03
             974     15.7697E-03     94.5524E-03    -12.3380E+06     112.442E+06    -5.62014E+06    -4.45489E+06    -49.2883E-03     75.9609E-03    -26.6725E-03     327.327E-03    -59.5457E-03     86.5899E-03    -26.8458E-03     328.291E-03
             975     16.6427E-03     94.9497E-03    -7.93880E+06     188.480E+06     84.0092E+06     123.221E+03    -49.1079E-03     76.1206E-03    -27.0126E-03     390.915E-03    -68.8117E-03     96.2216E-03    -26.8544E-03     400.612E-03
             976     876.165E-06     94.5535E-03    -5.83675E+06    -49.8159E+06    -5.68650E+06    -3.71057E+06    -26.8443E-03     53.6357E-03    -26.7914E-03     5.77286E-03    -26.7931E-03     53.4035E-03    -26.7391E-03     5.72241E-03
             977     1.75246E-03     94.5614E-03    -5.40838E+06    -50.6260E+06    -5.21837E+06    -6.82849E+06    -26.7788E-03     53.5817E-03    -26.8029E-03     10.6540E-03    -26.7253E-03     53.3444E-03    -26.7478E-03     10.5610E-03
             978     2.62875E-03     94.5727E-03    -4.88257E+06    -51.8600E+06    -4.31460E+06    -9.59633E+06    -26.7260E-03     53.5024E-03    -26.7763E-03     15.8677E-03    -26.6699E-03     53.2572E-03    -26.7156E-03     15.7365E-03
             979     3.50516E-03     94.5898E-03    -4.09644E+06    -53.4143E+06    -3.09434E+06    -12.1037E+06    -26.6727E-03     53.4150E-03    -26.7423E-03     21.2049E-03    -26.6129E-03     53.1600E-03    -26.6744E-03     21.0384E-03
             980     4.38165E-03     94.6108E-03    -3.29507E+06    -54.8632E+06    -2.03482E+06    -14.0272E+06    -26.6107E-03     53.3104E-03    -26.6997E-03     26.6564E-03    -26.5474E-03     53.0465E-03    -26.6255E-03     26.4618E-03
             981     5.25828E-03     94.6376E-03    -2.28414E+06    -57.5677E+06    -753.464E+03    -15.5575E+06    -26.5635E-03     53.2167E-03    -26.6532E-03     32.2402E-03    -26.4946E-03     52.9375E-03    -26.5702E-03     32.0219E-03
             982     6.13502E-03     94.6685E-03    -1.27104E+06    -57.9336E+06     214.075E+03    -16.0754E+06    -26.5261E-03     53.1236E-03    -26.5974E-03     37.9841E-03    -26.4552E-03     52.8418E-03    -26.5105E-03     37.7542E-03
             983     7.01190E-03     94.7057E-03    -439.713E+03    -58.7779E+06     1.96578E+06    -16.0374E+06    -26.5508E-03     53.0967E-03    -26.5459E-03     43.8727E-03    -26.4803E-03     52.8103E-03    -26.4502E-03     43.6370E-03
             984     7.88875E-03     94.7470E-03     46.8089E+03    -59.3449E+06     2.30567E+06    -16.2334E+06    -26.5820E-03     53.0709E-03    -26.4889E-03     49.9572E-03    -26.5135E-03     52.7851E-03    -26.3914E-03     49.7111E-03
             985     8.76599E-03     94.7951E-03    -447.968E+03    -57.5073E+06     1.42395E+06    -16.0833E+06    -26.6957E-03     53.1231E-03    -26.4273E-03     56.0383E-03    -26.6381E-03     52.8556E-03    -26.3362E-03     55.7836E-03
             986     9.64300E-03     94.8469E-03    -1.17549E+06    -59.9624E+06     1.47633E+06    -16.7974E+06    -27.0586E-03     53.4516E-03    -26.3931E-03     62.2095E-03    -27.0119E-03     53.1836E-03    -26.2970E-03     61.9310E-03
             987     10.5193E-03     94.9066E-03    -1.76518E+06    -66.7733E+06    -6.09216E+06    -18.1071E+06    -27.5028E-03     53.8533E-03    -26.3505E-03     68.5426E-03    -27.4549E-03     53.5798E-03    -26.2816E-03     68.2283E-03
             988     11.3964E-03     94.9694E-03    -2.20696E+06    -61.6277E+06    -12.5683E+06    -17.7678E+06    -27.9275E-03     54.2418E-03    -26.3143E-03     75.5066E-03    -27.9059E-03     54.0301E-03    -26.2846E-03     75.1723E-03
             989     12.2722E-03     95.0418E-03    -2.34936E+06    -53.3240E+06    -10.0735E+06    -16.9145E+06    -28.5093E-03     54.8480E-03    -26.3386E-03     81.0463E-03    -28.5405E-03     54.7107E-03    -26.3083E-03     80.6940E-03
             990     13.1506E-03     95.1155E-03    -3.55153E+06    -62.2150E+06    -20.8881E+06    -15.1219E+06    -29.4942E-03     55.8550E-03    -26.3608E-03     85.3053E-03    -29.5661E-03     55.7539E-03    -26.3699E-03     84.9357E-03
             991     14.0215E-03     95.1967E-03    -6.43143E+06    -47.7209E+06    -36.4763E+06    -13.0628E+06    -31.2456E-03     57.6174E-03    -26.3717E-03     106.708E-03    -31.5658E-03     57.8511E-03    -26.4756E-03     106.284E-03
             992     14.8979E-03     95.3115E-03    -10.3240E+06     8.44351E+06     -44.048E+06    -9.05831E+06    -37.7098E-03     64.0884E-03    -26.3786E-03     191.954E-03    -39.5405E-03     66.0403E-03    -26.5962E-03     191.482E-03
             993     15.7718E-03     95.5605E-03    -10.0924E+06     106.169E+06    -9.16020E+06    -3.08330E+06    -48.2019E-03     74.6836E-03    -26.4817E-03     331.203E-03    -58.5296E-03     85.3789E-03    -26.6668E-03     332.358E-03
             994     16.6505E-03     95.9487E-03    -5.53594E+06     188.001E+06     80.3300E+06    -1.26922E+06    -49.4772E-03     76.2649E-03    -26.7877E-03     391.175E-03    -69.1981E-03     96.4006E-03    -26.6506E-03     400.816E-03
             995     876.466E-06     95.5542E-03    -2.01413E+06    -41.8876E+06    -2.28089E+06    -3.87796E+06    -26.5254E-03     53.0412E-03    -26.5158E-03     5.81086E-03    -26.4715E-03     52.8382E-03    -26.4636E-03     5.75843E-03
             996     1.75296E-03     95.5608E-03    -1.98557E+06    -43.1505E+06    -1.92278E+06     -7.0734E+06    -26.4639E-03     52.9652E-03    -26.5013E-03     10.7313E-03    -26.4088E-03     52.7555E-03    -26.4455E-03     10.6355E-03
             997     2.62956E-03     95.5731E-03    -1.67845E+06    -45.1191E+06    -1.49032E+06    -9.96421E+06    -26.4116E-03     52.8801E-03    -26.4685E-03     15.9904E-03    -26.3533E-03     52.6599E-03    -26.4081E-03     15.8549E-03
             998     3.50622E-03     95.5890E-03    -1.33788E+06    -47.0836E+06    -1.09284E+06    -12.5829E+06    -26.3341E-03     52.7605E-03    -26.4263E-03     21.3843E-03    -26.2725E-03     52.5301E-03    -26.3616E-03     21.2124E-03
             999     4.38304E-03     95.6108E-03     -866.42E+03    -50.0005E+06    -571.397E+03    -14.5062E+06    -26.2515E-03     52.6271E-03    -26.3756E-03     26.9109E-03    -26.1850E-03     52.3816E-03    -26.3047E-03     26.7112E-03
            1000     5.26000E-03     95.6364E-03    -545.458E+03    -52.7225E+06     7.10094E+03    -16.0750E+06    -26.1756E-03     52.4926E-03    -26.3170E-03     32.5992E-03    -26.1058E-03     52.2336E-03    -26.2397E-03     32.3756E-03
            1001     6.13708E-03     95.6682E-03     69.6814E+03    -55.5384E+06     189.037E+03    -16.9350E+06    -26.1279E-03     52.3790E-03    -26.2511E-03     38.4673E-03    -26.0533E-03     52.1069E-03    -26.1698E-03     38.2282E-03
            1002     7.01431E-03     95.7040E-03     1.17496E+06    -56.3257E+06     1.38780E+06    -16.9025E+06    -26.1047E-03     52.2891E-03    -26.1844E-03     44.5528E-03    -26.0282E-03     52.0128E-03    -26.0975E-03     44.3084E-03
            1003     7.89173E-03     95.7466E-03     1.75408E+06    -58.1069E+06     3.15475E+06    -16.0736E+06    -26.1477E-03     52.2717E-03    -26.1240E-03     50.6765E-03    -26.0728E-03     51.9876E-03    -26.0265E-03     50.4353E-03
            1004     8.76912E-03     95.7928E-03     1.55094E+06    -56.3961E+06     3.12087E+06    -14.7855E+06    -26.3213E-03     52.3808E-03    -26.0595E-03     57.0855E-03    -26.2566E-03     52.1123E-03    -25.9644E-03     56.8508E-03
            1005     9.64622E-03     95.8471E-03     915.093E+03     -56.145E+06     3.68834E+06    -15.6627E+06    -26.6662E-03     52.6852E-03    -26.0190E-03     63.6885E-03    -26.6164E-03     52.4286E-03    -25.9204E-03     63.4288E-03
            1006     10.5240E-03     95.9044E-03    -239.305E+03    -64.1364E+06    -2.57866E+06    -17.1562E+06    -27.2150E-03     53.1992E-03    -25.9842E-03     70.0634E-03    -27.1669E-03     52.9301E-03    -25.9038E-03     69.7653E-03
            1007     11.4004E-03     95.9702E-03    -1.75140E+06    -60.3971E+06    -10.2618E+06    -17.4810E+06    -27.9374E-03     53.8969E-03    -25.9595E-03     77.0673E-03    -27.9179E-03     53.6865E-03    -25.9207E-03     76.7393E-03
            1008     12.2773E-03     96.0406E-03    -2.47466E+06    -52.2817E+06    -7.31515E+06    -17.3952E+06    -28.8640E-03     54.8853E-03    -26.0213E-03     82.9533E-03    -28.9024E-03     54.7505E-03    -25.9785E-03     82.5949E-03
            1009     13.1504E-03     96.1178E-03    -2.79413E+06    -65.0440E+06    -17.9644E+06    -14.9344E+06    -29.6188E-03     55.7004E-03    -26.0816E-03     87.2997E-03    -29.6880E-03     55.5808E-03    -26.0731E-03     86.9339E-03
            1010     14.0293E-03     96.1976E-03    -4.72236E+06    -49.2532E+06    -35.6922E+06    -11.5650E+06    -31.4308E-03     57.5282E-03    -26.0973E-03     110.271E-03    -31.7496E-03     57.7588E-03    -26.1975E-03     109.869E-03
            1011     14.9008E-03     96.3172E-03    -6.73191E+06     3.60909E+06    -38.8915E+06    -7.42201E+06    -37.2381E-03     63.3649E-03    -26.1267E-03     194.201E-03    -39.0521E-03     65.2805E-03    -26.3167E-03     193.779E-03
            1012     15.7794E-03     96.5581E-03    -6.18468E+06     99.8488E+06    -3.32030E+06    -3.76588E+06    -47.4795E-03     73.6922E-03    -26.2127E-03     331.235E-03    -57.7785E-03     84.3334E-03    -26.3651E-03     332.425E-03
            1013     16.6569E-03     96.9543E-03    -4.63091E+06     188.611E+06     81.4866E+06    -1.52012E+06    -51.4793E-03     78.0191E-03    -26.5398E-03     389.946E-03    -71.1589E-03     98.1156E-03    -26.3991E-03     399.333E-03
            1014     876.797E-06     96.5530E-03     1.00171E+06    -33.7496E+06     723.088E+03    -4.12908E+06    -26.1087E-03     52.2295E-03    -26.1208E-03     5.84732E-03    -26.0559E-03     52.0584E-03    -26.0697E-03     5.79186E-03
            1015     1.75368E-03     96.5607E-03     956.381E+03    -35.4711E+06     776.162E+03    -7.16280E+06    -26.0658E-03     52.1617E-03    -26.0960E-03     10.8285E-03    -26.0110E-03     51.9822E-03    -26.0420E-03     10.7320E-03
            1016     2.63059E-03     96.5717E-03     1.06197E+06    -38.0095E+06     782.150E+03    -10.2773E+06    -25.9877E-03     52.0479E-03    -26.0602E-03     16.1446E-03    -25.9292E-03     51.8559E-03    -26.0027E-03     16.0058E-03
            1017     3.50766E-03     96.5885E-03     1.23284E+06    -40.8639E+06      634.85E+03    -12.8184E+06    -25.8879E-03     51.8969E-03    -26.0090E-03     21.6085E-03    -25.8247E-03     51.6912E-03    -25.9484E-03     21.4345E-03
            1018     4.38487E-03     96.6090E-03     1.30820E+06    -44.7503E+06     665.894E+03    -14.8478E+06    -25.7804E-03     51.7284E-03    -25.9480E-03     27.2275E-03    -25.7122E-03     51.5040E-03    -25.8816E-03     27.0247E-03
            1019     5.26223E-03     96.6355E-03     1.42630E+06    -48.2585E+06     683.933E+03    -16.1759E+06    -25.6771E-03     51.5538E-03    -25.8766E-03     33.0242E-03    -25.6046E-03     51.3130E-03    -25.8053E-03     32.8010E-03
            1020     6.13981E-03     96.6659E-03     1.21126E+06    -52.0492E+06     745.539E+03    -17.2206E+06    -25.5970E-03     51.3971E-03    -25.8001E-03     39.0377E-03    -25.5220E-03     51.1395E-03    -25.7227E-03     38.7970E-03
            1021     7.01751E-03     96.7027E-03     764.673E+03    -54.4522E+06     518.032E+03    -17.4044E+06    -25.5484E-03     51.2660E-03    -25.7176E-03     45.2442E-03    -25.4747E-03     51.0001E-03    -25.6372E-03     44.9961E-03
            1022     7.89543E-03     96.7437E-03     973.898E+03    -57.8706E+06     1.81580E+06    -16.2657E+06    -25.6047E-03     51.2508E-03    -25.6461E-03     51.6339E-03    -25.5310E-03     50.9699E-03    -25.5545E-03     51.3935E-03
            1023     8.77318E-03     96.7917E-03     1.78600E+06    -55.6743E+06     2.69292E+06    -15.0965E+06    -25.8081E-03     51.3836E-03    -25.5755E-03     58.3339E-03    -25.7413E-03     51.1177E-03    -25.4839E-03     58.0992E-03
            1024     9.65154E-03     96.8439E-03     1.74358E+06    -53.2689E+06     5.09521E+06    -14.2241E+06    -26.2247E-03     51.7615E-03    -25.5369E-03     65.1184E-03    -26.1755E-03     51.5146E-03    -25.4367E-03     64.8816E-03
            1025     10.5285E-03     96.9043E-03    -269.598E+03    -61.5026E+06     1.07518E+06    -14.7278E+06    -26.9425E-03     52.4639E-03    -25.5215E-03     71.6985E-03    -26.9022E-03     52.2012E-03    -25.4265E-03     71.4358E-03
            1026     11.4058E-03     96.9680E-03    -3.26323E+06    -58.1156E+06    -7.73612E+06    -15.9214E+06    -27.8859E-03     53.3993E-03    -25.5134E-03     79.1482E-03    -27.8802E-03     53.1981E-03    -25.4631E-03     78.8435E-03
            1027     12.2814E-03     97.0421E-03    -5.11487E+06    -50.6000E+06    -5.54422E+06    -16.9519E+06    -28.8349E-03     54.4329E-03    -25.5980E-03     85.7516E-03    -28.8907E-03     54.3070E-03    -25.5449E-03     85.4028E-03
            1028     13.1590E-03     97.1181E-03    -5.60176E+06    -68.4708E+06    -17.9375E+06    -15.6295E+06    -29.8202E-03     55.5055E-03    -25.6853E-03     89.7729E-03    -29.9012E-03     55.3756E-03    -25.6676E-03     89.3988E-03
            1029     14.0315E-03     97.1982E-03    -6.45436E+06    -52.4996E+06    -36.2302E+06    -11.5855E+06    -31.5177E-03     57.2417E-03    -25.7241E-03     112.457E-03    -31.8381E-03     57.4580E-03    -25.8198E-03     112.058E-03
            1030     14.9089E-03     97.3212E-03    -6.51870E+06     268.926E+03    -32.2086E+06    -8.37849E+06    -37.5224E-03     63.3439E-03    -25.8215E-03     193.404E-03    -39.3391E-03     65.2318E-03    -25.9735E-03     192.965E-03
            1031     15.7823E-03     97.5573E-03    -6.71765E+06     95.2976E+06     1.67098E+06    -4.23139E+06    -49.2885E-03     75.2788E-03    -25.9903E-03     329.050E-03    -59.6107E-03     85.9106E-03    -26.1103E-03     330.084E-03
            1032     16.6568E-03     97.9573E-03    -5.62677E+06     187.297E+06     80.9732E+06    -617.628E+03    -52.8222E-03     79.2112E-03    -26.3890E-03     390.110E-03    -72.5877E-03     99.3869E-03    -26.2476E-03     399.414E-03
            1033     877.286E-06     97.5521E-03     3.32479E+06    -25.5028E+06     3.25636E+06    -4.13409E+06    -25.5944E-03     51.1925E-03    -25.5981E-03     5.90987E-03    -25.5456E-03     51.0556E-03    -25.5497E-03     5.85463E-03
            1034     1.75455E-03     97.5585E-03     3.28568E+06    -27.6298E+06     2.85226E+06    -7.32976E+06    -25.5372E-03     51.1114E-03    -25.5742E-03     10.9373E-03    -25.4852E-03     50.9646E-03    -25.5246E-03     10.8392E-03
            1035     2.63197E-03     97.5705E-03     3.18211E+06    -30.7170E+06     2.38865E+06    -10.4357E+06    -25.4376E-03     50.9683E-03    -25.5308E-03     16.3237E-03    -25.3812E-03     50.8073E-03    -25.4789E-03     16.1837E-03
            1036     3.50951E-03     97.5860E-03     2.96109E+06    -34.7147E+06     1.81833E+06    -12.9781E+06    -25.3161E-03     50.7869E-03    -25.4707E-03     21.8685E-03    -25.2549E-03     50.6075E-03    -25.4156E-03     21.6936E-03
            1037     4.38722E-03     97.6073E-03     2.63592E+06    -39.4332E+06     1.16431E+06    -14.8281E+06    -25.1815E-03     50.5789E-03    -25.3974E-03     27.5798E-03    -25.1149E-03     50.3782E-03    -25.3382E-03     27.3788E-03
            1038     5.26517E-03     97.6324E-03     2.00729E+06    -44.2483E+06     536.667E+03    -16.0255E+06    -25.0497E-03     50.3635E-03    -25.3138E-03     33.4994E-03    -24.9794E-03     50.1417E-03    -25.2499E-03     33.2802E-03
            1039     6.14325E-03     97.6637E-03     1.05612E+06    -48.6179E+06     290.820E+03    -16.3863E+06    -24.9409E-03     50.1657E-03    -25.2248E-03     39.6378E-03    -24.8704E-03     49.9255E-03    -25.1544E-03     39.4105E-03
            1040     7.02163E-03     97.6991E-03    -413.927E+03    -52.6790E+06    -343.335E+03    -16.2135E+06    -24.8842E-03     50.0161E-03    -25.1318E-03     46.0118E-03    -24.8168E-03     49.7611E-03    -25.0565E-03     45.7821E-03
            1041     7.89998E-03     97.7412E-03    -1.67581E+06    -56.5008E+06    -542.647E+03    -16.3235E+06    -24.9585E-03     50.0045E-03    -25.0461E-03     52.6603E-03    -24.8954E-03     49.7365E-03    -24.9644E-03     52.4229E-03
            1042     8.77880E-03     97.7876E-03    -2.07494E+06    -55.2902E+06     385.863E+03    -15.5829E+06    -25.2564E-03     50.2328E-03    -24.9764E-03     59.5924E-03    -25.2048E-03     49.9763E-03    -24.8913E-03     59.3554E-03
            1043     9.65645E-03     97.8421E-03    -2.16992E+06    -53.7325E+06     3.38895E+06    -13.4688E+06    -25.7526E-03     50.6996E-03    -24.9470E-03     66.6837E-03    -25.7181E-03     50.4568E-03    -24.8490E-03     66.4612E-03
            1044     10.5351E-03     97.9008E-03    -3.15354E+06    -59.7879E+06     2.43631E+06    -11.7533E+06    -26.5457E-03     51.4971E-03    -24.9515E-03     73.7240E-03    -26.5223E-03     51.2432E-03    -24.8480E-03     73.5049E-03
            1045     11.4120E-03     97.9678E-03    -5.82068E+06    -54.4856E+06    -4.44766E+06    -12.8500E+06    -27.6423E-03     52.6069E-03    -24.9646E-03     81.5627E-03    -27.6580E-03     52.4214E-03    -24.8994E-03     81.3023E-03
            1046     12.2893E-03     98.0405E-03    -7.99115E+06    -46.7724E+06    -2.34995E+06    -15.8855E+06    -28.7973E-03     53.8713E-03    -25.0739E-03     87.8988E-03    -28.8767E-03     53.7630E-03    -25.0063E-03     87.5674E-03
            1047     13.1639E-03     98.1189E-03    -9.19360E+06    -71.9542E+06    -17.5794E+06    -15.8470E+06    -30.3484E-03     55.5539E-03    -25.2055E-03     91.8294E-03    -30.4442E-03     55.4126E-03    -25.1757E-03     91.4522E-03
            1048     14.0396E-03     98.2011E-03    -10.1061E+06    -54.3683E+06    -37.0351E+06    -12.9939E+06    -32.5210E-03     57.8313E-03    -25.3104E-03     113.737E-03    -32.8641E-03     58.0530E-03    -25.4021E-03     113.311E-03
            1049     14.9120E-03     98.3214E-03    -9.16086E+06    -2.61780E+06    -29.3777E+06    -9.97864E+06    -39.2357E-03     64.7631E-03    -25.5274E-03     193.766E-03    -41.0863E-03     66.6572E-03    -25.6572E-03     193.260E-03
            1050     15.7859E-03     98.5637E-03    -8.42904E+06     88.4551E+06     2.42830E+06    -4.84918E+06    -51.0039E-03     76.8071E-03    -25.8032E-03     328.929E-03    -61.3657E-03     87.4459E-03    -25.9070E-03     329.858E-03
            1051     16.6583E-03     98.9599E-03    -6.01527E+06     185.744E+06     80.1551E+06    -890.296E+03    -53.4056E-03     79.6588E-03    -26.2532E-03     391.631E-03    -73.3470E-03     100.006E-03    -26.1130E-03     400.924E-03
            1052     877.792E-06     98.5489E-03     5.07745E+06    -17.1818E+06     4.98758E+06    -4.03683E+06    -24.9373E-03     49.8879E-03    -24.9505E-03     5.98197E-03    -24.8944E-03     49.7875E-03    -24.9080E-03     5.92830E-03
            1053     1.75570E-03     98.5564E-03     4.78079E+06    -19.7120E+06     4.16051E+06    -7.31255E+06    -24.8606E-03     49.7762E-03    -24.9156E-03     11.0649E-03    -24.8144E-03     49.6649E-03    -24.8732E-03     10.9675E-03
            1054     2.63369E-03     98.5671E-03     4.14595E+06    -23.6303E+06     3.03513E+06    -10.2628E+06    -24.7506E-03     49.6130E-03    -24.8624E-03     16.5166E-03    -24.7006E-03     49.4849E-03    -24.8190E-03     16.3797E-03
            1055     3.51183E-03     98.5834E-03     3.27950E+06    -28.5980E+06     1.70959E+06    -12.6494E+06    -24.6063E-03     49.3991E-03    -24.7927E-03     22.1407E-03    -24.5520E-03     49.2499E-03    -24.7475E-03     21.9714E-03
            1056     4.39021E-03     98.6034E-03     2.12291E+06    -34.6536E+06     310.040E+03    -14.2676E+06    -24.4476E-03     49.1568E-03    -24.7092E-03     27.9469E-03    -24.3890E-03     48.9817E-03    -24.6604E-03     27.7548E-03
            1057     5.26874E-03     98.6292E-03     589.349E+03    -40.6131E+06    -1.01582E+06    -14.9126E+06    -24.2927E-03     48.9073E-03    -24.6146E-03     33.9745E-03    -24.2321E-03     48.7075E-03    -24.5616E-03     33.7718E-03
            1058     6.14760E-03     98.6590E-03    -1.29447E+06    -46.3466E+06    -2.05622E+06    -14.8634E+06    -24.1649E-03     48.6792E-03    -24.5142E-03     40.2495E-03    -24.1054E-03     48.4564E-03    -24.4554E-03     40.0445E-03
            1059     7.02651E-03     98.6953E-03    -3.08187E+06    -50.9546E+06    -2.18379E+06    -14.3320E+06    -24.1338E-03     48.5507E-03    -24.4169E-03     46.7918E-03    -24.0786E-03     48.3099E-03    -24.3494E-03     46.5896E-03
            1060     7.90585E-03     98.7359E-03    -5.56806E+06    -54.1986E+06    -1.70749E+06    -13.9945E+06    -24.2975E-03     48.6325E-03    -24.3351E-03     53.6850E-03    -24.2544E-03     48.3822E-03    -24.2569E-03     53.4813E-03
            1061     8.78444E-03     98.7842E-03    -8.52588E+06    -54.7046E+06    -1.70230E+06    -13.8472E+06    -24.6201E-03     48.8925E-03    -24.2724E-03     60.9267E-03    -24.5969E-03     48.6497E-03    -24.1892E-03     60.7165E-03
            1062     9.66398E-03     98.8371E-03    -9.98454E+06    -54.8538E+06     241.808E+03    -12.9781E+06    -25.2249E-03     49.4766E-03    -24.2516E-03     68.3878E-03    -25.2214E-03     49.2421E-03    -24.1564E-03     68.1763E-03
            1063     10.5418E-03     98.8983E-03    -9.42482E+06    -60.8538E+06     1.27240E+06    -10.8838E+06    -26.1460E-03     50.4261E-03    -24.2801E-03     75.6290E-03    -26.1487E-03     50.1755E-03    -24.1718E-03     75.4261E-03
            1064     11.4200E-03     98.9644E-03    -8.81223E+06    -49.7176E+06    -1.20178E+06    -10.9284E+06    -27.5004E-03     51.8293E-03    -24.3289E-03     83.7533E-03    -27.5413E-03     51.6659E-03    -24.2501E-03     83.5216E-03
            1065     12.2961E-03     99.0404E-03    -9.66433E+06    -41.5463E+06     1.74238E+06    -14.1863E+06    -29.1967E-03     53.6866E-03    -24.4899E-03     89.9955E-03    -29.2986E-03     53.6017E-03    -24.4069E-03     89.6865E-03
            1066     13.1720E-03     99.1192E-03    -10.7823E+06    -73.1435E+06    -15.8717E+06    -15.5213E+06    -30.9108E-03     55.5956E-03    -24.6848E-03     94.0981E-03    -31.0170E-03     55.4499E-03    -24.6425E-03     93.7248E-03
            1067     14.0447E-03     99.2035E-03    -11.6904E+06    -55.0330E+06    -35.5602E+06    -14.4592E+06    -33.9134E-03     58.7874E-03    -24.8740E-03     116.341E-03    -34.2817E-03     59.0221E-03    -24.9550E-03     115.880E-03
            1068     14.9175E-03     99.3265E-03    -12.5839E+06    -7.22999E+06    -27.1566E+06    -12.8513E+06    -41.1200E-03     66.3359E-03    -25.2159E-03     195.984E-03    -43.0264E-03     68.2508E-03    -25.3229E-03     195.402E-03
            1069     15.7877E-03     99.5689E-03    -11.0285E+06     81.3757E+06     602.842E+03    -6.45566E+06    -52.1028E-03     77.6710E-03    -25.5682E-03     329.936E-03    -62.5295E-03     88.3458E-03    -25.6672E-03     330.765E-03
            1070     16.6630E-03     99.9631E-03    -5.92191E+06     183.259E+06     77.5883E+06    -1.06066E+06    -54.3392E-03     80.4079E-03    -26.0687E-03     391.425E-03    -74.2827E-03     100.756E-03    -25.9379E-03     400.531E-03
            1071     878.518E-06     99.5455E-03     5.08246E+06    -9.11104E+06     4.65336E+06    -3.89955E+06    -24.1213E-03     48.2599E-03    -24.1386E-03     6.03874E-03    -24.0895E-03     48.2003E-03    -24.1095E-03     5.98717E-03
            1072     1.75711E-03     99.5517E-03     4.11400E+06    -12.2561E+06     3.40286E+06    -6.77638E+06    -24.0369E-03     48.1354E-03    -24.0984E-03     11.1950E-03    -24.0037E-03     48.0634E-03    -24.0696E-03     11.1053E-03
            1073     2.63580E-03     99.5632E-03     2.79665E+06    -16.9057E+06     1.58427E+06    -9.45934E+06    -23.9134E-03     47.9528E-03    -24.0393E-03     16.7039E-03    -23.8777E-03     47.8623E-03    -24.0110E-03     16.5783E-03
            1074     3.51471E-03     99.5782E-03     960.656E+03    -23.1714E+06    -707.348E+03    -11.4087E+06    -23.7536E-03     47.7161E-03    -23.9625E-03     22.3997E-03    -23.7151E-03     47.6007E-03    -23.9338E-03     22.2477E-03
            1075     4.39377E-03     99.5989E-03    -1.53369E+06    -30.5815E+06    -3.03765E+06    -12.4144E+06    -23.5799E-03     47.4518E-03    -23.8720E-03     28.2934E-03    -23.5402E-03     47.3069E-03    -23.8406E-03     28.1269E-03
            1076     5.27316E-03     99.6233E-03    -4.49521E+06    -38.0656E+06    -5.21880E+06    -12.5670E+06    -23.4132E-03     47.1845E-03    -23.7713E-03     34.4243E-03    -23.3752E-03     47.0105E-03    -23.7357E-03     34.2541E-03
            1077     6.15264E-03     99.6539E-03    -7.62276E+06    -44.5792E+06    -6.35769E+06    -12.1516E+06    -23.3004E-03     46.9697E-03    -23.6694E-03     40.8193E-03    -23.2681E-03     46.7705E-03    -23.6255E-03     40.6520E-03
            1078     7.03255E-03     99.6888E-03    -10.8822E+06    -49.8736E+06    -6.18776E+06    -11.5118E+06    -23.3450E-03     46.9242E-03    -23.5792E-03     47.5839E-03    -23.3236E-03     46.7050E-03    -23.5220E-03     47.4212E-03
            1079     7.91202E-03     99.7308E-03    -13.4482E+06    -52.9131E+06    -4.63905E+06    -10.6539E+06    -23.5418E-03     47.0522E-03    -23.5104E-03     54.7286E-03    -23.5344E-03     46.8226E-03    -23.4374E-03     54.5717E-03
            1080     8.79213E-03     99.7776E-03    -15.2217E+06    -52.6591E+06    -2.66187E+06    -10.8810E+06    -24.0011E-03     47.4694E-03    -23.4683E-03     62.2295E-03    -24.0115E-03     47.2464E-03    -23.3832E-03     62.0616E-03
            1081     9.67100E-03     99.8324E-03    -16.1317E+06    -53.4694E+06    -177.827E+03    -11.7950E+06    -24.7343E-03     48.2065E-03    -23.4722E-03     69.9568E-03    -24.7611E-03     47.9867E-03    -23.3721E-03     69.7650E-03
            1082     10.5502E-03     99.8934E-03    -15.1016E+06    -61.9658E+06     38.2829E+03    -12.0890E+06    -25.8940E-03     49.4247E-03    -23.5308E-03     77.6011E-03    -25.9200E-03     49.1771E-03    -23.4188E-03     77.3867E-03
            1083     11.4279E-03     99.9614E-03    -12.1734E+06    -47.0937E+06    -338.515E+03    -11.9384E+06    -27.6670E-03     51.2972E-03    -23.6302E-03     86.3148E-03    -27.7290E-03     51.1499E-03    -23.5460E-03     86.0729E-03
            1084     12.3044E-03     100.040E-03    -9.78501E+06    -36.3019E+06     5.18938E+06    -13.6628E+06    -29.4935E-03     53.3490E-03    -23.8555E-03     92.5294E-03    -29.6089E-03     53.2858E-03    -23.7627E-03     92.2289E-03
            1085     13.1787E-03     100.120E-03    -8.99608E+06    -74.0274E+06    -13.7890E+06    -14.9964E+06    -31.8335E-03     55.9579E-03    -24.1244E-03     96.8259E-03    -31.9374E-03     55.8073E-03    -24.0730E-03     96.4544E-03
            1086     14.0531E-03     100.206E-03    -9.70805E+06    -53.6006E+06    -31.5184E+06    -14.8237E+06    -35.0889E-03     59.4989E-03    -24.4100E-03     119.653E-03    -35.4683E-03     59.7450E-03    -24.4758E-03     119.176E-03
            1087     14.9224E-03     100.334E-03    -11.5490E+06    -9.88075E+06    -22.4906E+06    -13.1701E+06    -42.4083E-03     67.2595E-03    -24.8512E-03     198.277E-03    -44.3470E-03     69.1876E-03    -24.9326E-03     197.660E-03
            1088     15.7952E-03     100.573E-03    -10.4813E+06     73.6422E+06    -2.06400E+06    -8.25713E+06    -54.5314E-03     79.8285E-03    -25.2972E-03     329.380E-03    -65.0062E-03     90.5338E-03    -25.3991E-03     329.964E-03
            1089     16.6640E-03     100.972E-03    -5.70451E+06     179.485E+06     73.4652E+06    -2.92543E+06    -55.5024E-03     81.4161E-03    -25.9137E-03     387.579E-03    -75.2532E-03     101.571E-03    -25.7984E-03     396.422E-03
            1090     879.370E-06     100.539E-03     2.84537E+06    -1.97659E+06     2.86608E+06    -3.26216E+06    -23.1473E-03     46.3077E-03    -23.1604E-03     6.08637E-03    -23.1344E-03     46.2896E-03    -23.1473E-03     6.04337E-03
            1091     1.75878E-03     100.546E-03     1.44256E+06    -5.82932E+06     760.273E+03    -5.55518E+06    -23.0629E-03     46.1847E-03    -23.1218E-03     11.2889E-03    -23.0485E-03     46.1525E-03    -23.1117E-03     11.2156E-03
            1092     2.63836E-03     100.557E-03    -1.00884E+06    -11.3867E+06    -2.18361E+06    -7.44782E+06    -22.9273E-03     45.9869E-03    -23.0596E-03     16.8522E-03    -22.9130E-03     45.9349E-03    -23.0526E-03     16.7535E-03
            1093     3.51806E-03     100.572E-03    -4.50594E+06    -19.1307E+06    -5.52211E+06    -8.49529E+06    -22.7661E-03     45.7468E-03    -22.9807E-03     22.6076E-03    -22.7535E-03     45.6663E-03    -22.9741E-03     22.4945E-03
            1094     4.39806E-03     100.592E-03    -8.72454E+06    -27.8978E+06    -8.72959E+06    -8.67255E+06    -22.5947E-03     45.4851E-03    -22.8904E-03     28.5735E-03    -22.5863E-03     45.3719E-03    -22.8809E-03     28.4571E-03
            1095     5.27816E-03     100.617E-03    -13.3438E+06    -36.5204E+06    -10.7899E+06    -8.26584E+06    -22.4467E-03     45.2436E-03    -22.7969E-03     34.7834E-03    -22.4465E-03     45.0976E-03    -22.7785E-03     34.6707E-03
            1096     6.15867E-03     100.646E-03    -17.7636E+06    -43.3684E+06    -11.2686E+06    -7.79730E+06    -22.4063E-03     45.1156E-03    -22.7093E-03     41.3364E-03    -22.4186E-03     44.9435E-03    -22.6770E-03     41.2277E-03
            1097     7.03895E-03     100.682E-03    -21.0897E+06    -48.9121E+06    -9.95516E+06    -7.50336E+06    -22.4941E-03     45.1332E-03    -22.6391E-03     48.3123E-03    -22.5186E-03     44.9381E-03    -22.5874E-03     48.2044E-03
            1098     7.91968E-03     100.723E-03    -22.4972E+06    -51.1409E+06    -7.17584E+06    -8.37831E+06    -22.7931E-03     45.3845E-03    -22.5915E-03     55.6822E-03    -22.8285E-03     45.1793E-03    -22.5206E-03     55.5580E-03
            1099     8.79969E-03     100.771E-03    -21.8762E+06    -50.4184E+06    -3.65184E+06    -9.39525E+06    -23.4098E-03     45.9880E-03    -22.5782E-03     63.5882E-03    -23.4537E-03     45.7858E-03    -22.4916E-03     63.4432E-03
            1100     9.67967E-03     100.826E-03    -20.3297E+06    -50.3181E+06    -174.595E+03    -11.0201E+06    -24.3099E-03     46.9253E-03    -22.6154E-03     71.5470E-03    -24.3605E-03     46.7256E-03    -22.5138E-03     71.3692E-03
            1101     10.5589E-03     100.888E-03    -17.6802E+06    -58.9403E+06     518.400E+03    -13.9082E+06    -25.8211E-03     48.5415E-03    -22.7204E-03     79.9036E-03    -25.8639E-03     48.3108E-03    -22.6067E-03     79.6691E-03
            1102     11.4364E-03     100.958E-03    -14.2624E+06    -46.7304E+06    -295.856E+03    -14.9443E+06    -27.7662E-03     50.6432E-03    -22.8770E-03     89.1954E-03    -27.8381E-03     50.4995E-03    -22.7900E-03     88.9181E-03
            1103     12.3126E-03     101.038E-03    -10.6539E+06    -33.1807E+06     6.48981E+06    -15.0112E+06    -30.0802E-03     53.2521E-03    -23.1719E-03     95.5086E-03    -30.2078E-03     53.2054E-03    -23.0759E-03     95.1904E-03
            1104     13.1883E-03     101.120E-03    -9.28698E+06    -74.0056E+06    -12.2937E+06    -15.3338E+06    -32.8933E-03     56.4292E-03    -23.5358E-03     99.9938E-03    -33.0075E-03     56.2834E-03    -23.4765E-03     99.6115E-03
            1105     14.0574E-03     101.212E-03    -8.50142E+06    -51.8997E+06    -29.0022E+06    -14.8298E+06    -36.2369E-03     60.1542E-03    -23.9173E-03     122.553E-03    -36.6257E-03     60.4128E-03    -23.9747E-03     122.065E-03
            1106     14.9313E-03     101.338E-03    -7.90701E+06    -11.2761E+06    -19.3020E+06    -13.0654E+06    -44.5369E-03     69.0140E-03    -24.4771E-03     200.028E-03    -46.5050E-03     70.9703E-03    -24.5458E-03     199.345E-03
            1107     15.7968E-03     101.586E-03    -7.73580E+06     65.7471E+06    -4.48373E+06    -9.23387E+06    -56.5889E-03     81.6252E-03    -25.0363E-03     329.738E-03    -67.0936E-03     92.3488E-03    -25.1429E-03     330.191E-03
            1108     16.6634E-03     101.978E-03    -5.99943E+06     175.328E+06     69.2653E+06    -4.12935E+06    -56.5767E-03     82.3194E-03    -25.7427E-03     385.978E-03    -76.2068E-03     102.350E-03    -25.6419E-03     394.625E-03
            1109     880.330E-06     101.532E-03    -1.40909E+06     3.17536E+06    -1.43975E+06    -1.89138E+06    -22.0210E-03     44.0583E-03    -22.0373E-03     6.12051E-03    -22.0306E-03     44.0783E-03    -22.0470E-03     6.09553E-03
            1110     1.76075E-03     101.538E-03    -3.95163E+06    -1.42653E+06    -4.34460E+06    -3.11333E+06    -21.9388E-03     43.9353E-03    -21.9965E-03     11.3354E-03    -21.9503E-03     43.9402E-03    -22.0104E-03     11.2942E-03
            1111     2.64124E-03     101.549E-03    -7.87813E+06    -8.34661E+06    -8.22428E+06    -3.63835E+06    -21.8135E-03     43.7504E-03    -21.9370E-03     16.9313E-03    -21.8291E-03     43.7322E-03    -21.9545E-03     16.8827E-03
            1112     3.52199E-03     101.563E-03    -12.9432E+06    -17.3440E+06    -12.0487E+06    -3.36979E+06    -21.6704E-03     43.5364E-03    -21.8660E-03     22.7227E-03    -21.6929E-03     43.4862E-03    -21.8823E-03     22.6770E-03
            1113     4.40280E-03     101.583E-03    -18.6907E+06    -27.1240E+06    -14.7369E+06    -2.65850E+06    -21.5325E-03     43.3244E-03    -21.7919E-03     28.7341E-03    -21.5660E-03     43.2379E-03    -21.7992E-03     28.6968E-03
            1114     5.28396E-03     101.607E-03    -24.1667E+06    -35.9292E+06    -15.5787E+06    -2.04798E+06    -21.4587E-03     43.1811E-03    -21.7223E-03     35.0368E-03    -21.5061E-03     43.0602E-03    -21.7131E-03     35.0062E-03
            1115     6.16501E-03     101.637E-03    -28.2017E+06    -41.9151E+06    -14.4087E+06    -2.50696E+06    -21.4849E-03     43.1481E-03    -21.6632E-03     41.7641E-03    -21.5463E-03     43.0023E-03    -21.6336E-03     41.7259E-03
            1116     7.04638E-03     101.672E-03    -29.7357E+06    -46.7049E+06    -11.7784E+06    -4.36804E+06    -21.6623E-03     43.2837E-03    -21.6213E-03     48.8928E-03    -21.7298E-03     43.1139E-03    -21.5694E-03     48.8278E-03
            1117     7.92739E-03     101.714E-03    -28.9519E+06    -47.4254E+06    -8.16723E+06    -7.10646E+06    -22.1020E-03     43.7052E-03    -21.6032E-03     56.6286E-03    -22.1725E-03     43.5282E-03    -21.5333E-03     56.5238E-03
            1118     8.80827E-03     101.762E-03    -26.8099E+06    -47.8689E+06    -4.87259E+06    -9.82790E+06    -22.7955E-03     44.4174E-03    -21.6218E-03     64.8084E-03    -22.8645E-03     44.2353E-03    -21.5379E-03     64.6614E-03
            1119     9.68870E-03     101.818E-03    -23.1619E+06    -45.8743E+06    -822.112E+03    -12.4458E+06    -23.9745E-03     45.6713E-03    -21.6968E-03     73.3186E-03    -24.0432E-03     45.4973E-03    -21.6008E-03     73.1259E-03
            1120     10.5677E-03     101.881E-03    -19.3501E+06    -54.1586E+06     418.304E+03    -16.1276E+06    -25.7294E-03     47.5845E-03    -21.8551E-03     82.3878E-03    -25.7860E-03     47.3789E-03    -21.7464E-03     82.1280E-03
            1121     11.4459E-03     101.954E-03    -16.0777E+06    -45.8247E+06    -1.04324E+06    -17.7391E+06    -27.9091E-03     49.9833E-03    -22.0743E-03     92.0303E-03    -27.9896E-03     49.8472E-03    -21.9897E-03     91.7195E-03
            1122     12.3226E-03     102.035E-03    -13.6116E+06    -32.2764E+06     4.85614E+06    -17.0675E+06    -30.7299E-03     53.1702E-03    -22.4403E-03     99.4697E-03    -30.8738E-03     53.1372E-03    -22.3495E-03     99.1239E-03
            1123     13.1936E-03     102.124E-03    -10.9644E+06    -73.0577E+06    -12.8814E+06    -17.1362E+06    -34.0315E-03     56.9338E-03    -22.9023E-03     103.919E-03    -34.1622E-03     56.8038E-03    -22.8448E-03     103.506E-03
            1124     14.0687E-03     102.213E-03    -10.0529E+06    -51.1948E+06    -29.3877E+06    -16.6100E+06    -38.2600E-03     61.6690E-03    -23.4090E-03     125.955E-03    -38.6783E-03     61.9554E-03    -23.4671E-03     125.418E-03
            1125     14.9331E-03     102.350E-03    -8.99998E+06    -13.3586E+06    -19.8367E+06    -14.9865E+06    -46.8636E-03     70.9757E-03    -24.1121E-03     203.573E-03    -48.8981E-03     72.9887E-03    -24.1789E-03     202.804E-03
            1126     15.8008E-03     102.594E-03    -8.02694E+06     58.6828E+06    -11.2983E+06    -10.3481E+06    -57.1986E-03     81.9388E-03    -24.7402E-03     329.935E-03    -67.6567E-03     92.6094E-03    -24.8701E-03     330.392E-03
            1127     16.6741E-03     102.990E-03    -5.62184E+06     169.380E+06     62.4557E+06    -3.95990E+06    -57.5387E-03     83.0446E-03    -25.5060E-03     384.023E-03    -76.9511E-03     102.857E-03    -25.4311E-03     392.329E-03
            1128     881.434E-06     102.521E-03    -8.53849E+06     4.76292E+06    -8.36801E+06     234.265E+03    -20.7684E-03     41.5544E-03    -20.7860E-03     6.11573E-03    -20.8059E-03     41.6027E-03    -20.8224E-03     6.11847E-03
            1129     1.76290E-03     102.528E-03    -12.1233E+06    -881.718E+03    -11.6538E+06     1.11146E+06    -20.7026E-03     41.4530E-03    -20.7504E-03     11.3183E-03    -20.7452E-03     41.4830E-03    -20.7898E-03     11.3321E-03
            1130     2.64453E-03     102.538E-03    -17.4920E+06    -8.76065E+06    -15.3437E+06     2.44170E+06    -20.6126E-03     41.3195E-03    -20.7068E-03     16.9091E-03    -20.6653E-03     41.3233E-03    -20.7455E-03     16.9398E-03
            1131     3.52617E-03     102.553E-03    -23.6250E+06    -18.4227E+06    -18.3136E+06     3.84398E+06    -20.5154E-03     41.1757E-03    -20.6603E-03     22.7126E-03    -20.5806E-03     41.1445E-03    -20.6909E-03     22.7610E-03
            1132     4.40811E-03     102.572E-03    -29.3045E+06    -28.1161E+06    -19.1683E+06     4.89784E+06    -20.4563E-03     41.0751E-03    -20.6188E-03     28.7686E-03    -20.5348E-03     41.0052E-03    -20.6314E-03     28.8300E-03
            1133     5.28994E-03     102.596E-03    -33.2124E+06    -35.2712E+06    -17.7407E+06     4.30065E+06    -20.4726E-03     41.0582E-03    -20.5856E-03     35.1983E-03    -20.5626E-03     40.9564E-03    -20.5750E-03     35.2511E-03
            1134     6.17202E-03     102.625E-03    -34.7555E+06    -39.2903E+06    -14.9007E+06     1.87628E+06    -20.5852E-03     41.1464E-03    -20.5613E-03     42.0470E-03    -20.6819E-03     41.0234E-03    -20.5284E-03     42.0672E-03
            1135     7.05389E-03     102.661E-03    -34.3233E+06    -41.8973E+06    -11.8114E+06    -2.33966E+06    -20.8905E-03     41.4427E-03    -20.5522E-03     49.4325E-03    -20.9871E-03     41.3029E-03    -20.5007E-03     49.3958E-03
            1136     7.93566E-03     102.703E-03    -32.3340E+06    -42.5267E+06    -8.77370E+06    -7.04220E+06    -21.4037E-03     41.9712E-03    -20.5675E-03     57.4643E-03    -21.4963E-03     41.8234E-03    -20.5028E-03     57.3629E-03
            1137     8.81712E-03     102.752E-03    -29.0527E+06    -43.4371E+06    -5.57264E+06    -10.9554E+06    -22.2658E-03     42.8909E-03    -20.6251E-03     65.9961E-03    -22.3501E-03     42.7340E-03    -20.5478E-03     65.8375E-03
            1138     9.69772E-03     102.808E-03    -25.1802E+06    -40.7444E+06    -1.96014E+06    -15.0038E+06    -23.5907E-03     44.3320E-03    -20.7414E-03     75.2314E-03    -23.6737E-03     44.1867E-03    -20.6556E-03     75.0092E-03
            1139     10.5776E-03     102.875E-03    -21.2988E+06    -48.5703E+06    -777.245E+03    -18.8145E+06    -25.5391E-03     46.4863E-03    -20.9471E-03     84.9260E-03    -25.6102E-03     46.3116E-03    -20.8497E-03     84.6352E-03
            1140     11.4555E-03     102.948E-03    -17.6701E+06    -45.0269E+06    -2.27660E+06    -19.9723E+06    -28.1717E-03     49.4060E-03    -21.2343E-03     95.4066E-03    -28.2594E-03     49.2778E-03    -21.1547E-03     95.0691E-03
            1141     12.3305E-03     103.034E-03    -14.0474E+06    -32.1099E+06     3.24231E+06    -18.9629E+06    -31.1973E-03     52.8671E-03    -21.6699E-03     103.598E-03    -31.3429E-03     52.8397E-03    -21.5867E-03     103.229E-03
            1142     13.2070E-03     103.124E-03    -11.5968E+06    -71.0969E+06    -13.3737E+06    -19.1970E+06    -35.1972E-03     57.4207E-03    -22.2235E-03     108.735E-03    -35.3404E-03     57.3094E-03    -22.1705E-03     108.289E-03
            1143     14.0712E-03     103.222E-03    -10.2425E+06    -51.5090E+06    -29.4877E+06    -19.0226E+06    -40.4385E-03     63.2986E-03    -22.8601E-03     131.750E-03    -40.8913E-03     63.6181E-03    -22.9180E-03     131.152E-03
            1144     14.9416E-03     103.357E-03    -10.0401E+06    -15.7143E+06    -20.0012E+06    -16.8657E+06    -48.8949E-03     72.5951E-03    -23.7002E-03     207.709E-03    -50.9573E-03     74.6244E-03    -23.7628E-03     206.869E-03
            1145     15.8068E-03     103.609E-03    -9.98597E+06     51.5009E+06    -17.1659E+06    -11.4239E+06    -59.1993E-03     83.6356E-03    -24.4363E-03     328.406E-03    -69.4885E-03     94.1221E-03    -24.5824E-03     328.681E-03
            1146     16.6699E-03     103.992E-03    -5.75955E+06     162.227E+06     56.2624E+06    -5.46330E+06    -58.8293E-03     84.1445E-03    -25.3151E-03     380.886E-03    -78.0014E-03     103.709E-03    -25.2607E-03     388.878E-03
            1147     882.582E-06     103.509E-03    -19.0060E+06     234.682E+03    -17.3170E+06     4.30016E+06    -19.4464E-03     38.8982E-03    -19.4517E-03     6.04086E-03    -19.5167E-03     38.9520E-03    -19.5111E-03     6.09628E-03
            1148     1.76526E-03     103.515E-03    -23.3566E+06    -5.52499E+06    -20.0595E+06     7.30101E+06    -19.4155E-03     38.8569E-03    -19.4414E-03     11.2025E-03    -19.4953E-03     38.8922E-03    -19.4998E-03     11.2966E-03
            1149     2.64788E-03     103.525E-03    -28.4460E+06    -13.3555E+06    -21.8803E+06     10.1520E+06    -19.3789E-03     38.8080E-03    -19.4291E-03     16.7638E-03    -19.4701E-03     38.8141E-03    -19.4779E-03     16.8945E-03
            1150     3.53071E-03     103.540E-03    -33.4173E+06    -22.0434E+06    -22.0603E+06     12.1097E+06    -19.3647E-03     38.7862E-03    -19.4215E-03     22.5730E-03    -19.4680E-03     38.7565E-03    -19.4514E-03     22.7288E-03
            1151     4.41340E-03     103.559E-03    -36.8411E+06    -29.4068E+06    -20.4391E+06     11.8376E+06    -19.4053E-03     38.8258E-03    -19.4205E-03     28.7127E-03    -19.5175E-03     38.7620E-03    -19.4267E-03     28.8646E-03
            1152     5.29629E-03     103.583E-03    -37.7920E+06    -33.1438E+06    -17.3793E+06     8.90824E+06    -19.5108E-03     38.9350E-03    -19.4242E-03     35.2390E-03    -19.6270E-03     38.8497E-03    -19.4083E-03     35.3524E-03
            1153     6.17897E-03     103.613E-03    -36.6153E+06    -35.1806E+06    -14.1427E+06     4.28205E+06    -19.7367E-03     39.1716E-03    -19.4349E-03     42.2455E-03    -19.8493E-03     39.0703E-03    -19.4015E-03     42.2980E-03
            1154     7.06167E-03     103.648E-03    -34.4789E+06    -35.5598E+06    -11.0747E+06    -1.10554E+06    -20.1155E-03     39.5758E-03    -19.4602E-03     49.8763E-03    -20.2225E-03     39.4661E-03    -19.4140E-03     49.8573E-03
            1155     7.94405E-03     103.691E-03    -32.3747E+06    -36.0961E+06    -8.32304E+06    -6.76874E+06    -20.7426E-03     40.2566E-03    -19.5140E-03     58.1819E-03    -20.8444E-03     40.1394E-03    -19.4563E-03     58.0863E-03
            1156     8.82599E-03     103.740E-03    -29.9974E+06    -37.5286E+06    -6.15067E+06    -12.0212E+06    -21.7179E-03     41.3285E-03    -19.6106E-03     67.2416E-03    -21.8133E-03     41.2020E-03    -19.5434E-03     67.0720E-03
            1157     9.70718E-03     103.799E-03    -26.8786E+06    -34.4269E+06    -3.17670E+06    -16.8081E+06    -23.1764E-03     42.9441E-03    -19.7677E-03     77.0902E-03    -23.2737E-03     42.8330E-03    -19.6947E-03     76.8481E-03
            1158     10.5872E-03     103.865E-03     -23.663E+06    -43.0640E+06    -2.25155E+06    -20.8217E+06    -25.2824E-03     45.3022E-03    -20.0198E-03     87.5456E-03    -25.3692E-03     45.1587E-03    -19.9343E-03     87.2331E-03
            1159     11.4653E-03     103.944E-03    -20.6907E+06    -43.2817E+06    -3.79360E+06    -22.7648E+06    -28.1155E-03     48.4763E-03    -20.3608E-03     99.1694E-03    -28.2172E-03     48.3620E-03    -20.2870E-03     98.8000E-03
            1160     12.3423E-03     104.031E-03    -16.4983E+06    -31.9818E+06     1.55999E+06    -22.4431E+06    -31.8726E-03     52.7373E-03    -20.8648E-03     108.498E-03    -32.0308E-03     52.7191E-03    -20.7867E-03     108.083E-03
            1161     13.2116E-03     104.127E-03    -12.4447E+06    -69.1008E+06    -13.6001E+06    -21.8911E+06    -36.1438E-03     57.6523E-03    -21.5085E-03     114.238E-03    -36.3006E-03     57.5593E-03    -21.4583E-03     113.754E-03
            1162     14.0861E-03     104.228E-03    -10.5935E+06    -51.6523E+06    -27.7721E+06    -21.6178E+06    -41.9472E-03     64.2007E-03    -22.2534E-03     138.294E-03    -42.4270E-03     64.5406E-03    -22.3020E-03     137.643E-03
            1163     14.9468E-03     104.372E-03    -9.21372E+06    -20.7882E+06    -18.5765E+06    -18.9437E+06    -51.3778E-03     74.6027E-03    -23.2249E-03     211.574E-03    -53.4362E-03     76.6090E-03    -23.2743E-03     210.636E-03
            1164     15.8105E-03     104.619E-03    -6.81255E+06     44.8033E+06    -20.0815E+06    -12.4200E+06    -61.6015E-03     85.6760E-03    -24.0745E-03     330.123E-03    -71.7247E-03     95.9923E-03    -24.2300E-03     330.173E-03
            1165     16.6766E-03     105.011E-03    -3.64585E+06     156.406E+06     52.5879E+06    -5.75251E+06    -61.4740E-03     86.5497E-03    -25.0757E-03     381.437E-03    -80.4633E-03     105.929E-03    -25.0342E-03     389.048E-03
            1166     883.821E-06     104.493E-03    -32.5393E+06    -13.4624E+06    -29.6374E+06     9.77787E+06    -18.1350E-03     36.2670E-03    -18.1320E-03     5.89171E-03    -18.2353E-03     36.2898E-03    -18.2134E-03     6.01795E-03
            1167     1.76751E-03     104.500E-03    -35.6698E+06    -15.6710E+06    -28.1908E+06     14.8905E+06    -18.1456E-03     36.3005E-03    -18.1548E-03     10.9847E-03    -18.2604E-03     36.3146E-03    -18.2214E-03     11.1769E-03
            1168     2.65135E-03     104.510E-03    -38.4950E+06    -21.0246E+06    -26.1770E+06     17.6398E+06    -18.1826E-03     36.3635E-03    -18.1809E-03     16.5023E-03    -18.3067E-03     36.3521E-03    -18.2255E-03     16.7300E-03
            1169     3.53501E-03     104.524E-03    -39.0879E+06    -26.5486E+06    -23.0388E+06     18.0771E+06    -18.2600E-03     36.4712E-03    -18.2111E-03     22.3410E-03    -18.3836E-03     36.4284E-03    -18.2311E-03     22.5742E-03
            1170     4.41881E-03     104.543E-03    -37.6999E+06    -29.6816E+06    -19.0567E+06     15.9093E+06    -18.3927E-03     36.6366E-03    -18.2438E-03     28.5585E-03    -18.5107E-03     36.5705E-03    -18.2414E-03     28.7635E-03
            1171     5.30234E-03     104.568E-03    -35.9734E+06    -30.0427E+06    -15.4980E+06     11.7598E+06    -18.5983E-03     36.8768E-03    -18.2785E-03     35.1841E-03    -18.7124E-03     36.8014E-03    -18.2603E-03     35.3351E-03
            1172     6.18597E-03     104.597E-03    -34.7612E+06    -29.7345E+06    -12.7618E+06     6.20853E+06    -18.9010E-03     37.2230E-03    -18.3220E-03     42.3416E-03    -19.0139E-03     37.1438E-03    -18.2923E-03     42.4201E-03
            1173     7.06924E-03     104.634E-03    -33.3122E+06    -28.5705E+06    -10.0918E+06    -194.878E+03    -19.3589E-03     37.7416E-03    -18.3827E-03     50.1507E-03    -19.4710E-03     37.6633E-03    -18.3435E-03     50.1449E-03
            1174     7.95239E-03     104.676E-03    -31.1366E+06    -29.1115E+06    -7.65847E+06    -6.20419E+06    -20.0668E-03     38.5399E-03    -18.4731E-03     58.7913E-03    -20.1727E-03     38.4540E-03    -18.4240E-03     58.7049E-03
            1175     8.83478E-03     104.727E-03    -28.7416E+06    -29.6907E+06    -5.41035E+06    -12.2954E+06    -21.1378E-03     39.7445E-03    -18.6067E-03     68.2969E-03    -21.2381E-03     39.6530E-03    -18.5490E-03     68.1264E-03
            1176     9.71671E-03     104.786E-03    -26.9819E+06    -28.0240E+06    -3.07282E+06    -17.1240E+06    -22.6981E-03     41.5006E-03    -18.8025E-03     78.8651E-03    -22.8034E-03     41.4196E-03    -18.7381E-03     78.6224E-03
            1177     10.5968E-03     104.857E-03    -25.5529E+06    -36.8230E+06    -2.93393E+06    -21.3868E+06    -24.8522E-03     43.9405E-03    -19.0883E-03     90.1593E-03    -24.9539E-03     43.8293E-03    -19.0125E-03     89.8442E-03
            1178     11.4760E-03     104.934E-03    -22.2471E+06    -39.3272E+06    -3.79512E+06    -25.6987E+06    -27.9926E-03     47.4660E-03    -19.4735E-03     103.000E-03    -28.1057E-03     47.3717E-03    -19.4031E-03     102.598E-03
            1179     12.3511E-03     105.029E-03    -18.3469E+06    -31.0160E+06     962.610E+03    -26.4094E+06    -32.0856E-03     52.1129E-03    -20.0274E-03     113.978E-03    -32.2534E-03     52.1030E-03    -19.9510E-03     113.515E-03
            1180     13.2261E-03     105.129E-03    -15.2149E+06    -67.9974E+06    -13.8511E+06    -26.0870E+06    -37.0221E-03     57.7648E-03    -20.7427E-03     120.581E-03    -37.1998E-03     57.6876E-03    -20.6913E-03     120.038E-03
            1181     14.0897E-03     105.235E-03    -11.2907E+06    -51.6863E+06    -24.7730E+06    -25.7328E+06    -43.3229E-03     64.9137E-03    -21.5907E-03     145.936E-03    -43.8292E-03     65.2688E-03    -21.6233E-03     145.216E-03
            1182     14.9576E-03     105.387E-03    -7.07907E+06    -26.3156E+06    -16.3086E+06    -21.8691E+06    -53.3452E-03     76.0075E-03    -22.6623E-03     218.079E-03    -55.4165E-03     78.0081E-03    -22.6954E-03     217.041E-03
            1183     15.8182E-03     105.636E-03    -5.46831E+06     36.3835E+06    -20.3571E+06    -14.2466E+06    -63.1116E-03     86.7138E-03    -23.6022E-03     330.968E-03    -72.8500E-03     96.6210E-03    -23.7488E-03     330.841E-03
            1184     16.6843E-03     106.021E-03    -5.40706E+06     149.648E+06     51.7894E+06    -6.52540E+06    -65.6482E-03     90.3956E-03    -24.7474E-03     383.459E-03    -84.4796E-03     109.590E-03    -24.6976E-03     390.264E-03
            1185     884.787E-06     105.476E-03    -51.4492E+06    -34.0374E+06    -49.6944E+06     11.2569E+06    -16.9308E-03     33.8664E-03    -16.9356E-03     5.70674E-03    -17.0667E-03     33.8429E-03    -17.0601E-03     5.85207E-03
            1186     1.76973E-03     105.482E-03    -47.2786E+06    -30.7892E+06    -39.9914E+06     18.3455E+06    -16.9734E-03     33.9489E-03    -16.9755E-03     10.6830E-03    -17.1072E-03     33.9214E-03    -17.0622E-03     10.9198E-03
            1187     2.65438E-03     105.492E-03    -43.3820E+06    -29.8045E+06    -30.2183E+06     21.5662E+06    -17.0688E-03     34.0991E-03    -17.0303E-03     16.1619E-03    -17.1987E-03     34.0567E-03    -17.0753E-03     16.4404E-03
            1188     3.53916E-03     105.506E-03    -39.8953E+06    -29.9078E+06    -23.3768E+06     20.2744E+06    -17.2225E-03     34.3067E-03    -17.0843E-03     22.0345E-03    -17.3447E-03     34.2488E-03    -17.0999E-03     22.2963E-03
            1189     4.42366E-03     105.526E-03    -36.2995E+06    -29.2856E+06    -18.9148E+06     16.8012E+06    -17.4306E-03     34.5670E-03    -17.1363E-03     28.2763E-03    -17.5422E-03     34.5005E-03    -17.1358E-03     28.4932E-03
            1190     5.30828E-03     105.550E-03    -32.5677E+06    -27.0480E+06    -14.7926E+06     12.4831E+06    -17.7024E-03     34.8977E-03    -17.1953E-03     34.9632E-03    -17.8046E-03     34.8311E-03    -17.1828E-03     35.1241E-03
            1191     6.19246E-03     105.581E-03    -29.1841E+06    -24.2291E+06    -10.5937E+06     7.36943E+06    -18.0799E-03     35.3483E-03    -17.2684E-03     42.2297E-03    -18.1757E-03     35.2852E-03    -17.2439E-03     42.3240E-03
            1192     7.07664E-03     105.616E-03    -27.5373E+06    -21.9063E+06    -7.21570E+06     1.81496E+06    -18.6259E-03     35.9880E-03    -17.3620E-03     50.2600E-03    -18.7225E-03     35.9299E-03    -17.3264E-03     50.2813E-03
            1193     7.96011E-03     105.661E-03    -27.6544E+06    -21.5247E+06    -5.29125E+06    -4.37082E+06    -19.3966E-03     36.8811E-03    -17.4845E-03     59.1477E-03    -19.4987E-03     36.8240E-03    -17.4397E-03     59.0866E-03
            1194     8.84354E-03     105.711E-03    -27.3858E+06    -20.6393E+06    -3.47623E+06    -11.4098E+06    -20.5313E-03     38.1805E-03    -17.6492E-03     69.1648E-03    -20.6395E-03     38.1282E-03    -17.5969E-03     69.0081E-03
            1195     9.72532E-03     105.773E-03    -25.7170E+06    -22.5724E+06    -1.65750E+06    -16.6705E+06    -22.0733E-03     39.9479E-03    -17.8745E-03     80.2704E-03    -22.1801E-03     39.8880E-03    -17.8128E-03     80.0373E-03
            1196     10.6071E-03     105.843E-03    -23.3080E+06    -27.7026E+06    -180.681E+03    -21.8749E+06    -24.3126E-03     42.4943E-03    -18.1817E-03     92.4922E-03    -24.4173E-03     42.4185E-03    -18.1086E-03     92.1757E-03
            1197     11.4857E-03     105.928E-03    -21.3663E+06    -33.6835E+06    -1.77646E+06    -27.0761E+06    -27.7196E-03     46.3152E-03    -18.5956E-03     106.978E-03    -27.8359E-03     46.2413E-03    -18.5246E-03     106.564E-03
            1198     12.3628E-03     106.024E-03    -20.0356E+06    -30.9060E+06    -414.361E+03    -27.6706E+06    -31.8962E-03     51.0678E-03    -19.1716E-03     119.139E-03    -32.0666E-03     51.0588E-03    -19.0998E-03     118.668E-03
            1199     13.2340E-03     106.130E-03    -17.9436E+06    -63.0431E+06    -12.2653E+06    -29.9545E+06    -37.0544E-03     56.9769E-03    -19.9225E-03     127.730E-03    -37.2547E-03     56.9256E-03    -19.8664E-03     127.143E-03
            1200     14.1052E-03     106.244E-03    -13.1268E+06    -51.1603E+06    -20.7205E+06    -32.0809E+06    -44.6608E-03     65.5069E-03    -20.8461E-03     154.832E-03    -45.2024E-03     65.8812E-03    -20.8565E-03     154.012E-03
            1201     14.9667E-03     106.400E-03    -8.18533E+06    -34.5942E+06    -15.5639E+06    -26.4223E+06    -55.8375E-03     77.8667E-03    -22.0291E-03     224.022E-03    -57.9117E-03     79.8349E-03    -22.0449E-03     222.850E-03
            1202     15.8278E-03     106.658E-03    -6.67531E+06     25.5156E+06    -17.7745E+06    -16.7397E+06    -66.5791E-03     89.7492E-03    -23.1701E-03     326.515E-03    -75.6546E-03     98.9435E-03    -23.2863E-03     325.937E-03
            1203     16.6902E-03     107.030E-03    -5.27385E+06     141.750E+06     56.0645E+06    -6.44087E+06    -69.6122E-03     94.1483E-03    -24.5361E-03     382.679E-03    -88.0927E-03     112.951E-03    -24.4537E-03     388.673E-03
            1204     885.721E-06     106.455E-03    -83.4106E+06    -50.4915E+06    -83.8624E+06     5.43340E+06    -15.9106E-03     31.8420E-03    -15.9314E-03     5.53388E-03    -16.1328E-03     31.8321E-03    -16.1566E-03     5.60398E-03
            1205     1.77125E-03     106.462E-03    -71.2443E+06    -44.9621E+06    -68.4017E+06     9.93349E+06    -15.9549E-03     31.9171E-03    -15.9622E-03     10.3461E-03    -16.1468E-03     31.8948E-03    -16.1357E-03     10.4743E-03
            1206     2.65711E-03     106.472E-03    -55.0307E+06    -38.7349E+06    -48.3521E+06     13.8452E+06    -16.0558E-03     32.0826E-03    -16.0268E-03     15.7031E-03    -16.2046E-03     32.0387E-03    -16.1326E-03     15.8819E-03
            1207     3.54259E-03     106.487E-03    -40.6955E+06    -33.1498E+06    -32.0062E+06     15.0874E+06    -16.2454E-03     32.3376E-03    -16.0923E-03     21.5036E-03    -16.3543E-03     32.2772E-03    -16.1452E-03     21.6985E-03
            1208     4.42814E-03     106.506E-03    -31.4480E+06    -29.8747E+06    -22.0542E+06     14.1779E+06    -16.5135E-03     32.6708E-03    -16.1572E-03     27.7782E-03    -16.5954E-03     32.5988E-03    -16.1786E-03     27.9615E-03
            1209     5.31323E-03     106.531E-03    -27.2604E+06    -25.2638E+06    -15.5096E+06     12.1067E+06    -16.8518E-03     33.0839E-03    -16.2321E-03     34.5082E-03    -16.9290E-03     33.0196E-03    -16.2335E-03     34.6646E-03
            1210     6.19849E-03     106.561E-03    -26.0036E+06    -19.5783E+06    -10.2920E+06     8.17834E+06    -17.2919E-03     33.6175E-03    -16.3257E-03     41.8344E-03    -17.3787E-03     33.5724E-03    -16.3110E-03     41.9395E-03
            1211     7.08308E-03     106.599E-03    -24.3696E+06    -16.1016E+06    -5.80508E+06     2.94192E+06    -17.8870E-03     34.3306E-03    -16.4436E-03     49.9701E-03    -17.9778E-03     34.2945E-03    -16.4140E-03     50.0067E-03
            1212     7.96767E-03     106.642E-03    -21.4271E+06    -13.8403E+06    -1.54413E+06    -2.86722E+06    -18.7442E-03     35.3374E-03    -16.5931E-03     59.1427E-03    -18.8311E-03     35.3035E-03    -16.5497E-03     59.1022E-03
            1213     8.85091E-03     106.696E-03    -20.5339E+06    -12.3845E+06     1.51466E+06    -8.48158E+06    -19.8925E-03     36.6763E-03    -16.7838E-03     69.5286E-03    -19.9844E-03     36.6469E-03    -16.7285E-03     69.4118E-03
            1214     9.73439E-03     106.757E-03    -21.4665E+06    -15.0164E+06     2.77543E+06    -14.7972E+06    -21.4322E-03     38.4603E-03    -17.0281E-03     81.0452E-03    -21.5330E-03     38.4235E-03    -16.9613E-03     80.8396E-03
            1215     10.6154E-03     106.831E-03    -21.1718E+06    -18.3403E+06     3.34785E+06    -21.5545E+06    -23.6787E-03     41.0220E-03    -17.3433E-03     94.3096E-03    -23.7877E-03     40.9810E-03    -17.2692E-03     94.0026E-03
            1216     11.4960E-03     106.917E-03    -21.3840E+06    -28.0581E+06     906.228E+03    -25.5207E+06    -27.0735E-03     44.8397E-03    -17.7661E-03     110.215E-03    -27.1958E-03     44.7839E-03    -17.6899E-03     109.829E-03
            1217     12.3725E-03     107.020E-03    -21.7287E+06    -28.9836E+06    -170.926E+03    -27.2146E+06    -31.2887E-03     49.6242E-03    -18.3355E-03     123.850E-03    -31.4629E-03     49.6190E-03    -18.2628E-03     123.395E-03
            1218     13.2476E-03     107.130E-03    -19.5765E+06    -53.3222E+06    -7.47662E+06    -32.5964E+06    -36.8341E-03     55.9354E-03    -19.1013E-03     134.275E-03    -37.0573E-03     55.9220E-03    -19.0330E-03     133.664E-03
            1219     14.1153E-03     107.250E-03    -17.6108E+06    -48.0503E+06    -16.0793E+06    -38.1609E+06    -46.2407E-03     66.3355E-03    -20.0948E-03     163.147E-03    -46.8277E-03     66.7371E-03    -20.0800E-03     162.228E-03
            1220     14.9769E-03     107.421E-03    -13.8228E+06    -46.7884E+06    -15.5122E+06    -33.7871E+06    -59.3478E-03     80.7786E-03    -21.4308E-03     229.152E-03    -61.3940E-03     82.6557E-03    -21.4205E-03     227.776E-03
            1221     15.8328E-03     107.674E-03    -7.94131E+06     10.5446E+06    -14.9827E+06    -20.3306E+06    -71.9025E-03     94.7233E-03    -22.8208E-03     326.983E-03    -80.4460E-03     103.320E-03    -22.8995E-03     325.784E-03
            1222     16.6837E-03     108.053E-03    -4.64294E+06     131.107E+06     59.0976E+06    -6.18763E+06    -73.0086E-03     97.3955E-03    -24.3869E-03     383.730E-03    -90.9099E-03     115.574E-03    -24.2748E-03     389.023E-03
            1223     886.105E-06     107.434E-03    -102.369E+06    -53.6656E+06    -102.749E+06    -2.18046E+06    -15.2127E-03     30.4543E-03    -15.2416E-03     5.36789E-03    -15.4977E-03     30.4834E-03    -15.5291E-03     5.33962E-03
            1224     1.77252E-03     107.439E-03    -94.0439E+06    -49.2135E+06    -92.1959E+06    -3.27699E+06    -15.2357E-03     30.4847E-03    -15.2490E-03     9.98731E-03    -15.5009E-03     30.5087E-03    -15.5022E-03     9.94481E-03
            1225     2.65862E-03     107.450E-03    -80.7514E+06    -43.7260E+06    -78.1728E+06    -2.69974E+06    -15.2730E-03     30.5501E-03    -15.2771E-03     15.1002E-03    -15.5000E-03     30.5619E-03    -15.4875E-03     15.0652E-03
            1226     3.54513E-03     107.465E-03    -63.8212E+06    -36.4284E+06    -63.0713E+06    -761.266E+03    -15.3807E-03     30.6866E-03    -15.3059E-03     20.6452E-03    -15.5555E-03     30.6884E-03    -15.4759E-03     20.6353E-03
            1227     4.43132E-03     107.485E-03    -45.9932E+06    -32.4588E+06    -45.7826E+06     1.50483E+06    -15.6255E-03     30.9902E-03    -15.3648E-03     26.7421E-03    -15.7420E-03     30.9610E-03    -15.4799E-03     26.7615E-03
            1228     5.31762E-03     107.510E-03    -30.0069E+06    -27.1329E+06    -28.2226E+06     4.19679E+06    -16.0116E-03     31.4647E-03    -15.4531E-03     33.4460E-03    -16.0814E-03     31.4134E-03    -15.5113E-03     33.5002E-03
            1229     6.20310E-03     107.541E-03    -19.2110E+06    -18.0499E+06    -13.3394E+06     5.68695E+06    -16.5299E-03     32.0934E-03    -15.5634E-03     40.8759E-03    -16.5806E-03     32.0504E-03    -15.5761E-03     40.9491E-03
            1230     7.08865E-03     107.578E-03    -15.4313E+06    -11.3386E+06    -3.51054E+06     3.71779E+06    -17.2278E-03     32.9279E-03    -15.7001E-03     49.1581E-03    -17.2839E-03     32.8992E-03    -15.6788E-03     49.2051E-03
            1231     7.97326E-03     107.624E-03    -16.2383E+06    -7.09161E+06     1.86569E+06    -1.04051E+06    -18.1224E-03     33.9891E-03    -15.8668E-03     58.4762E-03    -18.1975E-03     33.9760E-03    -15.8236E-03     58.4602E-03
            1232     8.85803E-03     107.677E-03    -16.0185E+06    -5.70562E+06     5.81686E+06    -6.29067E+06    -19.2642E-03     35.3372E-03    -16.0730E-03     68.9990E-03    -19.3483E-03     35.3273E-03    -16.0124E-03     68.9123E-03
            1233     9.74083E-03     107.742E-03    -15.1412E+06    -6.39723E+06     8.43190E+06    -11.3953E+06    -20.7689E-03     37.0930E-03    -16.3241E-03     80.9473E-03    -20.8565E-03     37.0796E-03    -16.2507E-03     80.7888E-03
            1234     10.6239E-03     107.816E-03    -17.1516E+06    -9.55847E+06     8.97610E+06    -17.3149E+06    -23.0327E-03     39.6762E-03    -16.6434E-03     95.1043E-03    -23.1383E-03     39.6609E-03    -16.5598E-03     94.8573E-03
            1235     11.5040E-03     107.906E-03    -18.4737E+06    -21.7269E+06     6.94525E+06    -22.8663E+06    -26.2621E-03     43.3274E-03    -17.0653E-03     112.061E-03    -26.3797E-03     43.2821E-03    -16.9722E-03     111.718E-03
            1236     12.3828E-03     108.012E-03    -16.5279E+06    -23.7037E+06     6.01757E+06    -26.9149E+06    -30.4475E-03     48.0607E-03    -17.6132E-03     126.818E-03    -30.5999E-03     48.0531E-03    -17.5248E-03     126.380E-03
            1237     13.2572E-03     108.127E-03    -16.4349E+06    -43.1168E+06     632.816E+03    -31.4402E+06    -36.9962E-03     55.3837E-03    -18.3875E-03     139.860E-03    -37.2181E-03     55.3930E-03    -18.2980E-03     139.274E-03
            1238     14.1255E-03     108.259E-03    -18.8560E+06    -39.6660E+06    -7.65639E+06    -37.8763E+06    -47.5540E-03     66.9953E-03    -19.4413E-03     172.552E-03    -48.1647E-03     67.4215E-03    -19.3947E-03     171.630E-03
            1239     14.9859E-03     108.438E-03    -19.6577E+06    -53.7065E+06    -10.5135E+06    -40.4152E+06    -62.0724E-03     82.9589E-03    -20.8865E-03     237.949E-03    -64.0867E-03     84.7446E-03    -20.8327E-03     236.397E-03
            1240     15.8391E-03     108.702E-03    -15.4652E+06    -13.0332E+06    -13.6849E+06    -29.2030E+06    -74.9344E-03     97.3356E-03    -22.4013E-03     332.222E-03    -82.8455E-03     105.186E-03    -22.4284E-03     330.592E-03
            1241     16.6974E-03     109.079E-03    -6.46491E+06     113.930E+06     60.5129E+06    -9.08038E+06    -77.2304E-03     101.316E-03    -24.0851E-03     386.812E-03    -94.3262E-03     118.618E-03    -23.9384E-03     391.033E-03
            1242     886.628E-06     108.410E-03    -88.8671E+06    -46.5515E+06    -87.7503E+06    -5.11308E+06    -14.9208E-03     29.8473E-03    -14.9264E-03     5.12245E-03    -15.1704E-03     29.8707E-03    -15.1688E-03     5.05618E-03
            1243     1.77295E-03     108.417E-03    -87.2078E+06    -43.3593E+06    -84.0698E+06    -8.89896E+06    -14.9457E-03     29.8819E-03    -14.9362E-03     9.51430E-03    -15.1971E-03     29.9136E-03    -15.1672E-03     9.39895E-03
            1244     2.65965E-03     108.427E-03    -83.8739E+06    -40.2289E+06    -79.6223E+06    -12.3755E+06    -14.9721E-03     29.9221E-03    -14.9500E-03     14.3182E-03    -15.2178E-03     29.9581E-03    -15.1681E-03     14.1578E-03
            1245     3.54606E-03     108.442E-03    -77.8218E+06    -35.0405E+06    -73.4969E+06    -14.5913E+06    -15.0125E-03     29.9739E-03    -14.9615E-03     19.4671E-03    -15.2444E-03     30.0184E-03    -15.1653E-03     19.2779E-03
            1246     4.43287E-03     108.462E-03    -67.6412E+06    -32.8428E+06    -63.5402E+06    -15.0781E+06    -15.1147E-03     30.1047E-03    -14.9900E-03     25.1119E-03    -15.3134E-03     30.1309E-03    -15.1620E-03     24.9164E-03
            1247     5.31929E-03     108.488E-03    -53.0032E+06    -30.1323E+06    -51.0333E+06    -13.3790E+06    -15.3341E-03     30.3655E-03    -15.0314E-03     31.4571E-03    -15.4818E-03     30.3660E-03    -15.1660E-03     31.2836E-03
            1248     6.20614E-03     108.519E-03    -35.1154E+06    -21.3517E+06    -36.5966E+06    -9.08583E+06    -15.7767E-03     30.8674E-03    -15.0907E-03     38.7325E-03    -15.8686E-03     30.8650E-03    -15.1919E-03     38.6144E-03
            1249     7.09202E-03     108.558E-03    -18.8045E+06    -12.8137E+06    -17.5355E+06    -3.37776E+06    -16.5169E-03     31.7336E-03    -15.2167E-03     47.0739E-03    -16.5676E-03     31.7228E-03    -15.2585E-03     47.0292E-03
            1250     7.97764E-03     108.603E-03    -9.67463E+06    -3.87746E+06     1.32153E+06    -464.343E+03    -17.5048E-03     32.9101E-03    -15.4053E-03     56.5568E-03    -17.5508E-03     32.9041E-03    -15.3790E-03     56.5486E-03
            1251     8.86179E-03     108.659E-03    -9.01695E+06     438.225E+03     10.2893E+06    -3.10101E+06    -18.6745E-03     34.2925E-03    -15.6180E-03     67.2367E-03    -18.7381E-03     34.2958E-03    -15.5541E-03     67.1923E-03
            1252     9.74644E-03     108.723E-03    -10.9501E+06     127.856E+03     13.2753E+06    -7.91141E+06    -20.1774E-03     36.0429E-03    -15.8655E-03     79.4272E-03    -20.2584E-03     36.0471E-03    -15.7834E-03     79.3163E-03
            1253     10.6288E-03     108.800E-03    -10.8982E+06    -1.33231E+06     16.7569E+06    -12.6419E+06    -22.4199E-03     38.6048E-03    -16.1849E-03     94.3424E-03    -22.5129E-03     38.6058E-03    -16.0834E-03     94.1609E-03
            1254     11.5103E-03     108.893E-03    -10.6389E+06    -11.4638E+06     17.1971E+06    -19.8292E+06    -25.4313E-03     42.0260E-03    -16.5947E-03     111.792E-03    -25.5296E-03     41.9960E-03    -16.4767E-03     111.499E-03
            1255     12.3894E-03     109.001E-03    -11.0735E+06    -18.7680E+06     14.3809E+06    -25.8037E+06    -29.7591E-03     46.8778E-03    -17.1187E-03     128.628E-03    -29.8884E-03     46.8597E-03    -17.0035E-03     128.219E-03
            1256     13.2645E-03     109.125E-03    -10.1465E+06    -35.2116E+06     10.6222E+06    -28.6271E+06    -36.6803E-03     54.5558E-03    -17.8755E-03     145.402E-03    -36.8754E-03     54.5596E-03    -17.7566E-03     144.871E-03
            1257     14.1338E-03     109.265E-03    -11.3202E+06    -29.5301E+06     5.57101E+06    -31.4839E+06    -48.0130E-03     66.9477E-03    -18.9346E-03     181.333E-03    -48.5839E-03     67.3586E-03    -18.8475E-03     180.506E-03
            1258     14.9948E-03     109.459E-03    -16.8228E+06    -47.9073E+06     752.497E+03    -36.8680E+06    -63.4552E-03     83.8617E-03    -20.4065E-03     246.309E-03    -65.3766E-03     85.5524E-03    -20.3089E-03     244.769E-03
            1259     15.8492E-03     109.729E-03    -18.3018E+06    -30.8066E+06    -10.6977E+06    -36.0891E+06    -76.8080E-03     98.7992E-03    -21.9911E-03     331.069E-03    -83.7228E-03     105.571E-03    -21.9734E-03     329.072E-03
            1260     16.7031E-03     110.099E-03    -12.8359E+06     85.3198E+06     57.4465E+06    -18.7210E+06    -81.1594E-03     104.963E-03    -23.8038E-03     385.376E-03    -97.1615E-03     121.057E-03    -23.6217E-03     388.193E-03
            1261     886.466E-06     109.388E-03    -64.4791E+06    -36.6301E+06    -63.7259E+06    -5.11017E+06    -15.0094E-03     30.0079E-03    -14.9985E-03     4.72953E-03    -15.1863E-03     30.0107E-03    -15.1705E-03     4.66309E-03
            1262     1.77321E-03     109.394E-03    -63.0087E+06    -33.8237E+06     -59.852E+06    -9.22309E+06    -15.0908E-03     30.1221E-03    -15.0313E-03     8.78700E-03    -15.2702E-03     30.1312E-03    -15.1901E-03     8.66704E-03
            1263     2.65949E-03     109.404E-03    -61.0113E+06    -31.3548E+06    -53.9798E+06    -13.4992E+06    -15.2083E-03     30.2974E-03    -15.0891E-03     13.1795E-03    -15.3899E-03     30.3076E-03    -15.2251E-03     13.0038E-03
            1264     3.54600E-03     109.419E-03    -59.5139E+06    -28.4055E+06    -49.5012E+06    -16.9875E+06    -15.3074E-03     30.4511E-03    -15.1437E-03     17.8549E-03    -15.4925E-03     30.4675E-03    -15.2637E-03     17.6338E-03
            1265     4.43212E-03     109.439E-03    -59.0833E+06    -27.4647E+06    -47.9582E+06    -20.1346E+06    -15.3698E-03     30.5506E-03    -15.1808E-03     22.9445E-03    -15.5565E-03     30.5691E-03    -15.2951E-03     22.6824E-03
            1266     5.31879E-03     109.464E-03    -57.4502E+06    -27.0771E+06    -46.9780E+06    -23.2912E+06    -15.4548E-03     30.6599E-03    -15.2051E-03     28.6187E-03    -15.6356E-03     30.6768E-03    -15.3174E-03     28.3156E-03
            1267     6.20499E-03     109.496E-03    -52.0796E+06    -23.4222E+06    -43.5505E+06    -23.8139E+06    -15.6407E-03     30.8703E-03    -15.2296E-03     35.1937E-03    -15.8051E-03     30.8929E-03    -15.3379E-03     34.8838E-03
            1268     7.09168E-03     109.535E-03    -40.3730E+06    -18.3810E+06    -32.6955E+06    -19.9808E+06    -16.0439E-03     31.3356E-03    -15.2916E-03     43.0099E-03    -16.1730E-03     31.3509E-03    -15.3699E-03     42.7495E-03
            1269     7.97758E-03     109.582E-03    -23.1894E+06    -8.33737E+06    -16.6711E+06    -12.9782E+06    -16.7932E-03     32.1875E-03    -15.3944E-03     52.3146E-03    -16.8744E-03     32.2052E-03    -15.4320E-03     52.1443E-03
            1270     8.86338E-03     109.638E-03    -7.95418E+06     753.100E+03     2.83538E+06    -6.25656E+06    -17.9708E-03     33.5408E-03    -15.5701E-03     63.0787E-03    -18.0183E-03     33.5546E-03    -15.5454E-03     62.9941E-03
            1271     9.74704E-03     109.705E-03    -1.96646E+06     4.48456E+06     19.1577E+06    -4.73049E+06    -19.6456E-03     35.4678E-03    -15.8222E-03     75.6959E-03    -19.6950E-03     35.4706E-03    -15.7301E-03     75.6278E-03
            1272     10.6306E-03     109.783E-03    -3.28473E+06     5.25554E+06     25.2130E+06    -8.06813E+06    -21.8259E-03     37.9470E-03    -16.1211E-03     91.0614E-03    -21.8982E-03     37.9532E-03    -15.9979E-03     90.9436E-03
            1273     11.5123E-03     109.878E-03    -5.90191E+06     630.485E+03     27.0555E+06    -15.1567E+06    -24.6093E-03     41.1071E-03    -16.4978E-03     108.893E-03    -24.7054E-03     41.1061E-03    -16.3548E-03     108.670E-03
            1274     12.3920E-03     109.990E-03    -5.95930E+06    -10.5757E+06     24.9529E+06    -23.7979E+06    -28.8633E-03     45.8476E-03    -16.9843E-03     127.968E-03    -28.9746E-03     45.8281E-03    -16.8356E-03     127.602E-03
            1275     13.2689E-03     110.120E-03    -3.67082E+06    -30.5289E+06     20.1956E+06    -28.4736E+06    -35.9999E-03     53.6901E-03    -17.6902E-03     147.965E-03    -36.1512E-03     53.6620E-03    -17.5396E-03     147.461E-03
            1276     14.1386E-03     110.270E-03    -1.37186E+06    -26.6146E+06     17.1520E+06    -27.5849E+06    -47.9843E-03     66.7037E-03    -18.7194E-03     186.854E-03    -48.4621E-03     67.0336E-03    -18.5930E-03     186.109E-03
            1277     14.9999E-03     110.477E-03     987.143E+03    -36.3705E+06     16.2361E+06    -27.7648E+06    -64.5599E-03     84.7477E-03    -20.1879E-03     250.729E-03    -66.2423E-03     86.2591E-03    -20.0554E-03     249.307E-03
            1278     15.8529E-03     110.756E-03    -683.096E+03    -32.2245E+06    -346.673E+03    -27.9664E+06    -79.8200E-03     101.677E-03    -21.8573E-03     327.284E-03    -85.6423E-03     107.385E-03    -21.8113E-03     325.042E-03
            1279     16.7008E-03     111.125E-03    -2.14137E+06     61.4080E+06     56.3620E+06    -16.0249E+06    -82.7321E-03     106.487E-03    -23.7549E-03     383.427E-03    -97.4444E-03     121.246E-03    -23.5590E-03     385.243E-03
            1280     886.269E-06     110.365E-03    -40.3698E+06    -26.4947E+06    -39.6758E+06    -5.24006E+06    -15.6184E-03     31.2242E-03    -15.6058E-03     4.15911E-03    -15.7243E-03     31.2079E-03    -15.7072E-03     4.09067E-03
            1281     1.77216E-03     110.371E-03    -39.4460E+06    -24.4353E+06    -35.8071E+06    -8.95291E+06    -15.7680E-03     31.4253E-03    -15.6572E-03     7.72428E-03    -15.8781E-03     31.4123E-03    -15.7436E-03     7.60719E-03
            1282     2.65824E-03     110.382E-03    -38.4565E+06    -22.5879E+06    -31.1578E+06    -12.1797E+06    -15.9638E-03     31.7095E-03    -15.7456E-03     11.5518E-03    -16.0786E-03     31.6978E-03    -15.8129E-03     11.3922E-03
            1283     3.54381E-03     110.397E-03    -37.5269E+06    -20.9408E+06    -27.5326E+06    -14.9366E+06    -16.1838E-03     32.0269E-03    -15.8431E-03     15.5826E-03    -16.3019E-03     32.0171E-03    -15.8959E-03     15.3865E-03
            1284     4.42965E-03     110.417E-03    -36.1396E+06    -19.4738E+06    -24.0617E+06    -17.9330E+06    -16.4050E-03     32.3501E-03    -15.9452E-03     19.9177E-03    -16.5237E-03     32.3410E-03    -15.9848E-03     19.6819E-03
            1285     5.31481E-03     110.443E-03    -35.8606E+06    -19.3305E+06    -20.9906E+06    -21.4820E+06    -16.5817E-03     32.6280E-03    -16.0463E-03     24.7637E-03    -16.7041E-03     32.6152E-03    -16.0713E-03     24.4812E-03
            1286     6.20039E-03     110.474E-03    -37.0409E+06    -19.2005E+06    -19.3763E+06    -24.5715E+06    -16.6776E-03     32.8078E-03    -16.1302E-03     30.3932E-03    -16.8090E-03     32.7955E-03    -16.1455E-03     30.0703E-03
            1287     7.08559E-03     110.513E-03    -37.4301E+06    -17.4848E+06    -19.0411E+06    -27.0780E+06    -16.7339E-03     32.9193E-03    -16.1854E-03     37.1379E-03    -16.8707E-03     32.9162E-03    -16.2010E-03     36.7824E-03
            1288     7.97152E-03     110.560E-03    -33.5559E+06    -13.1829E+06    -18.1923E+06    -26.4384E+06    -16.9046E-03     33.1229E-03    -16.2183E-03     45.3188E-03    -17.0297E-03     33.1347E-03    -16.2415E-03     44.9718E-03
            1289     8.85692E-03     110.617E-03    -22.5609E+06    -6.25270E+06    -8.06017E+06    -20.5593E+06    -17.5100E-03     33.8005E-03    -16.2905E-03     55.4147E-03    -17.6053E-03     33.8168E-03    -16.2890E-03     55.1438E-03
            1290     9.74249E-03     110.685E-03    -6.90641E+06     1.49697E+06     11.3662E+06    -12.3834E+06    -18.9084E-03     35.3576E-03    -16.4492E-03     68.0963E-03    -18.9661E-03     35.3631E-03    -16.3845E-03     67.9300E-03
            1291     10.6255E-03     110.766E-03     4.76941E+06     7.04863E+06     29.2261E+06    -7.14765E+06    -21.0473E-03     37.7413E-03    -16.6940E-03     83.7077E-03    -21.0839E-03     37.7352E-03    -16.5650E-03     83.6055E-03
            1292     11.5075E-03     110.862E-03     8.55122E+06     11.9472E+06     40.0046E+06    -10.1037E+06    -23.8443E-03     40.8628E-03    -17.0185E-03     101.905E-03    -23.8937E-03     40.8690E-03    -16.8482E-03     101.756E-03
            1293     12.3882E-03     110.977E-03     6.24695E+06      769.22E+03     37.6704E+06    -17.5895E+06    -28.1171E-03     45.5628E-03    -17.4458E-03     122.331E-03    -28.1816E-03     45.5432E-03    -17.2676E-03     122.062E-03
            1294     13.2645E-03     111.113E-03     356.424E+03    -23.6803E+06     28.6691E+06    -24.3631E+06    -35.2019E-03     53.2910E-03    -18.0891E-03     145.372E-03    -35.3155E-03     53.2392E-03    -17.9119E-03     144.952E-03
            1295     14.1353E-03     111.272E-03    -3.82816E+06    -28.5998E+06     25.9565E+06    -26.0646E+06    -47.4174E-03     66.4992E-03    -19.0817E-03     187.214E-03    -47.8179E-03     66.7103E-03    -18.9049E-03     186.546E-03
            1296     14.9974E-03     111.492E-03    -2.71325E+06    -25.8413E+06     30.8848E+06    -30.6387E+06    -65.1254E-03     85.6569E-03    -20.5315E-03     252.209E-03    -66.5921E-03     86.9344E-03    -20.3357E-03     250.803E-03
            1297     15.8482E-03     111.784E-03     1.71648E+06    -39.5298E+06     7.20606E+06    -28.1007E+06    -79.5960E-03     101.754E-03    -22.1585E-03     324.039E-03    -84.3102E-03     106.314E-03    -22.0676E-03     321.760E-03
            1298     16.6981E-03     112.151E-03     2.42229E+06     36.7839E+06     48.7654E+06    -8.88742E+06    -80.1978E-03     104.085E-03    -23.8871E-03     381.220E-03    -93.0759E-03     116.960E-03    -23.7001E-03     382.189E-03
            1299     884.985E-06     111.344E-03    -17.0906E+06    -17.1951E+06    -15.3133E+06    -4.37398E+06    -17.0025E-03     33.9459E-03    -16.9434E-03     3.41259E-03    -17.0410E-03     33.9070E-03    -16.9703E-03     3.35488E-03
            1300     1.77011E-03     111.351E-03    -17.0485E+06    -15.9436E+06    -13.6110E+06    -7.50669E+06    -17.1811E-03     34.2088E-03    -17.0277E-03     6.29024E-03    -17.2238E-03     34.1736E-03    -17.0479E-03     6.19096E-03
            1301     2.65471E-03     111.362E-03    -16.5721E+06    -15.2758E+06    -10.8838E+06    -10.5266E+06    -17.4646E-03     34.6058E-03    -17.1412E-03     9.35475E-03    -17.5101E-03     34.5695E-03    -17.1495E-03     9.21515E-03
            1302     3.53939E-03     111.377E-03    -15.3982E+06    -14.0068E+06    -6.57038E+06    -13.2315E+06    -17.8343E-03     35.1255E-03    -17.2913E-03     12.5342E-03    -17.8824E-03     35.0880E-03    -17.2815E-03     12.3581E-03
            1303     4.42322E-03     111.398E-03    -14.8577E+06    -12.8624E+06    -2.59139E+06    -15.5171E+06    -18.2201E-03     35.6836E-03    -17.4635E-03     15.9547E-03    -18.2734E-03     35.6457E-03    -17.4363E-03     15.7475E-03
            1304     5.30724E-03     111.423E-03    -15.3219E+06    -12.7061E+06     62.9952E+03    -17.1237E+06    -18.5586E-03     36.1993E-03    -17.6408E-03     19.7857E-03    -18.6190E-03     36.1597E-03    -17.5998E-03     19.5561E-03
            1305     6.19056E-03     111.455E-03    -16.2254E+06    -12.2766E+06     1.62997E+06    -19.6191E+06    -18.7975E-03     36.6043E-03    -17.8068E-03     24.2392E-03    -18.8662E-03     36.5666E-03    -17.7573E-03     23.9758E-03
            1306     7.07421E-03     111.494E-03    -17.3355E+06    -10.5452E+06     3.16068E+06    -23.1045E+06    -18.8667E-03     36.8162E-03    -17.9495E-03     29.5825E-03    -18.9466E-03     36.7874E-03    -17.8932E-03     29.2729E-03
            1307     7.95744E-03     111.541E-03    -19.2326E+06    -11.0203E+06     4.47056E+06    -25.7718E+06    -18.7803E-03     36.8410E-03    -18.0608E-03     36.1433E-03    -18.8717E-03     36.8114E-03    -17.9945E-03     35.7989E-03
            1308     8.84159E-03     111.597E-03    -20.5384E+06    -8.87567E+06     3.87995E+06    -26.5883E+06    -18.7502E-03     36.8742E-03    -18.1240E-03     44.5162E-03    -18.8511E-03     36.8587E-03    -18.0620E-03     44.1617E-03
            1309     9.72549E-03     111.665E-03    -17.1323E+06    -5.07910E+06     8.45015E+06    -23.9423E+06    -19.1737E-03     37.3671E-03    -18.1934E-03     55.5820E-03    -19.2701E-03     37.3596E-03    -18.1189E-03     55.2624E-03
            1310     10.6099E-03     111.747E-03    -6.50159E+06     1.64687E+06     23.7175E+06    -17.6184E+06    -20.4176E-03     38.7497E-03    -18.3321E-03     69.9709E-03    -20.4936E-03     38.7394E-03    -18.2065E-03     69.7332E-03
            1311     11.4925E-03     111.845E-03     3.07739E+06     13.9101E+06     39.7659E+06    -10.8738E+06    -22.8469E-03     41.3958E-03    -18.5489E-03     88.0828E-03    -22.9193E-03     41.4132E-03    -18.3747E-03     87.9294E-03
            1312     12.3717E-03     111.963E-03     1.94135E+06     7.96034E+06     45.3895E+06    -8.52749E+06    -27.0746E-03     45.9748E-03    -18.9002E-03     110.024E-03    -27.1637E-03     45.9676E-03    -18.6876E-03     109.889E-03
            1313     13.2489E-03     112.103E-03    -5.54369E+06    -9.35080E+06     41.9583E+06    -14.8495E+06    -34.3156E-03     53.7914E-03    -19.4758E-03     135.874E-03    -34.4569E-03     53.7585E-03    -19.2445E-03     135.610E-03
            1314     14.1198E-03     112.273E-03    -7.47683E+06    -26.5853E+06     35.4453E+06    -23.5602E+06    -46.7490E-03     67.1491E-03    -20.4001E-03     179.096E-03    -47.0682E-03     67.2453E-03    -20.1735E-03     178.531E-03
            1315     14.9817E-03     112.503E-03    -9.72397E+06    -14.6563E+06     37.0254E+06    -28.0212E+06    -62.8929E-03     84.6264E-03    -21.7335E-03     244.565E-03    -64.0336E-03     85.5745E-03    -21.5131E-03     243.379E-03
            1316     15.8353E-03     112.809E-03    -23.1960E+06    -42.8789E+06     6.66191E+06    -30.9199E+06    -73.9814E-03     97.1616E-03    -23.1801E-03     309.942E-03    -77.4259E-03     100.352E-03    -23.0510E-03     307.960E-03
            1317     16.6939E-03     113.164E-03    -26.6441E+06     3.24257E+06     22.1354E+06    -25.4319E+06    -69.3397E-03     93.7554E-03    -24.4157E-03     367.732E-03    -78.9654E-03     103.235E-03    -24.2711E-03     368.010E-03
            1318     883.238E-06     112.327E-03     5.11129E+06    -9.93796E+06     5.75514E+06    -2.84888E+06    -19.3486E-03     38.5878E-03    -19.2392E-03     2.46986E-03    -19.3173E-03     38.5222E-03    -19.2034E-03     2.43127E-03
            1319     1.76604E-03     112.334E-03     4.56800E+06    -9.05704E+06     6.94197E+06    -5.47370E+06    -19.5805E-03     38.9447E-03    -19.3641E-03     4.48687E-03    -19.5552E-03     38.8825E-03    -19.3229E-03     4.41275E-03
            1320     2.64891E-03     112.345E-03     4.05083E+06    -8.35166E+06     9.60064E+06    -8.41540E+06    -19.9686E-03     39.4912E-03    -19.5225E-03     6.60651E-03    -19.9510E-03     39.4297E-03    -19.4683E-03     6.49249E-03
            1321     3.53093E-03     112.361E-03     3.52218E+06    -8.17243E+06     12.2831E+06    -10.8961E+06    -20.4373E-03     40.1605E-03    -19.7231E-03     8.80705E-03    -20.4269E-03     40.0971E-03    -19.6550E-03     8.65883E-03
            1322     4.41296E-03     112.382E-03     3.11699E+06    -8.09387E+06     15.0467E+06    -12.1269E+06    -20.9611E-03     40.9163E-03    -19.9552E-03     11.1738E-03    -20.9573E-03     40.8504E-03    -19.8728E-03     11.0073E-03
            1323     5.29401E-03     112.408E-03     2.93305E+06    -8.20999E+06     17.5325E+06    -13.2948E+06    -21.5061E-03     41.7150E-03    -20.2089E-03     13.8291E-03    -21.5074E-03     41.6458E-03    -20.1136E-03     13.6449E-03
            1324     6.17497E-03     112.441E-03     2.57080E+06    -6.16089E+06     20.0709E+06    -15.1240E+06    -21.9758E-03     42.4468E-03    -20.4710E-03     16.9343E-03    -21.9865E-03     42.3855E-03    -20.3654E-03     16.7237E-03
            1325     7.05510E-03     112.479E-03     459.031E+03    -4.93307E+06     21.7770E+06    -16.7746E+06    -22.2993E-03     43.0270E-03    -20.7276E-03     20.6614E-03    -22.3260E-03     42.9734E-03    -20.6123E-03     20.4270E-03
            1326     7.93556E-03     112.526E-03    -2.77655E+06    -5.23207E+06     22.7636E+06    -18.7208E+06    -22.4843E-03     43.4512E-03    -20.9670E-03     25.2528E-03    -22.5295E-03     43.4005E-03    -20.8416E-03     24.9911E-03
            1327     8.81542E-03     112.581E-03    -5.92150E+06    -5.34656E+06     23.9985E+06    -20.8029E+06    -22.5403E-03     43.7231E-03    -21.1828E-03     31.1646E-03    -22.6043E-03     43.6757E-03    -21.0465E-03     30.8744E-03
            1328     9.69584E-03     112.649E-03    -9.98226E+06    -5.46438E+06     25.1468E+06    -21.6688E+06    -22.4230E-03     43.7914E-03    -21.3683E-03     39.0678E-03    -22.5101E-03     43.7486E-03    -21.2202E-03     38.7663E-03
            1329     10.5762E-03     112.730E-03    -14.6366E+06    -2.44659E+06     27.2533E+06    -20.8862E+06    -22.4003E-03     43.9250E-03    -21.5248E-03     49.9089E-03    -22.5188E-03     43.9018E-03    -21.3637E-03     49.6192E-03
            1330     11.4573E-03     112.829E-03    -14.9923E+06     4.74055E+06     34.0925E+06    -14.4217E+06    -23.2140E-03     44.9076E-03    -21.6936E-03     64.9215E-03    -23.3551E-03     44.9115E-03    -21.5083E-03     64.7176E-03
            1331     12.3383E-03     112.948E-03    -8.55149E+06     7.27273E+06     50.5293E+06    -6.66932E+06    -26.1477E-03     48.1375E-03    -21.9898E-03     85.4951E-03    -26.2868E-03     48.1242E-03    -21.7353E-03     85.3899E-03
            1332     13.2142E-03     113.094E-03    -700.159E+03     4.88202E+06     61.0423E+06    -8.46771E+06    -32.9898E-03     55.4787E-03    -22.4889E-03     112.784E-03    -33.1224E-03     55.4488E-03    -22.1897E-03     112.630E-03
            1333     14.0828E-03     113.271E-03    -2.56635E+06    -14.4681E+06     47.3529E+06    -16.0182E+06    -44.8877E-03     68.1753E-03    -23.2876E-03     156.895E-03    -45.0957E-03     68.1859E-03    -23.0262E-03     156.520E-03
            1334     14.9423E-03     113.510E-03    -12.7185E+06    -15.0105E+06     39.2447E+06    -14.6378E+06    -58.6699E-03     83.1584E-03    -24.4885E-03     217.890E-03    -59.3812E-03     83.6566E-03    -24.2521E-03     217.145E-03
            1335     15.8022E-03     113.815E-03    -16.9592E+06    -24.4639E+06     34.5473E+06    -16.1149E+06    -65.0672E-03     90.8824E-03    -25.8151E-03     272.708E-03    -67.0530E-03     92.6203E-03    -25.5823E-03     271.420E-03
            1336     16.6575E-03     114.169E-03    -11.9450E+06    -4.68225E+06     25.2378E+06    -29.3440E+06    -40.1639E-03     66.2975E-03    -26.1336E-03     323.906E-03    -44.9123E-03     70.9286E-03    -25.9833E-03     324.060E-03
            1337     880.088E-06     113.315E-03     22.0539E+06    -4.91623E+06     22.8054E+06    -1.84310E+06    -22.8955E-03     45.5780E-03    -22.6825E-03     1.43426E-03    -22.8118E-03     45.4879E-03    -22.5933E-03     1.40821E-03
            1338     1.76022E-03     113.322E-03     21.7797E+06    -4.04798E+06     24.1875E+06    -3.64487E+06    -23.1768E-03     46.0645E-03    -22.8877E-03     2.34842E-03    -23.0980E-03     45.9770E-03    -22.7925E-03     2.29700E-03
            1339     2.63952E-03     113.334E-03     21.0034E+06    -3.19917E+06     26.5769E+06    -5.19175E+06    -23.6031E-03     46.6912E-03    -23.0881E-03     3.39080E-03    -23.5330E-03     46.6058E-03    -22.9811E-03     3.31707E-03
            1340     3.51879E-03     113.351E-03     19.5951E+06    -3.33359E+06     28.5429E+06     -6.9306E+06    -24.1597E-03     47.4907E-03    -23.3310E-03     4.49613E-03    -24.0996E-03     47.4040E-03    -23.2119E-03     4.39731E-03
            1341     4.39701E-03     113.373E-03     18.3035E+06    -4.86045E+06     29.9541E+06    -8.31459E+06    -24.8443E-03     48.4637E-03    -23.6194E-03     5.69679E-03    -24.7909E-03     48.3695E-03    -23.4891E-03     5.57712E-03
            1342     5.27495E-03     113.400E-03     17.2722E+06    -4.20832E+06     32.0564E+06    -9.46983E+06    -25.5986E-03     49.5498E-03    -23.9513E-03     7.06681E-03    -25.5549E-03     49.4578E-03    -23.8099E-03     6.92891E-03
            1343     6.15170E-03     113.433E-03     15.8731E+06    -2.59114E+06     34.4494E+06    -10.3931E+06    -26.3865E-03     50.7068E-03    -24.3203E-03     8.66874E-03    -26.3564E-03     50.6219E-03    -24.1673E-03     8.51523E-03
            1344     7.02815E-03     113.472E-03     14.7185E+06    -1.70178E+06     37.3155E+06    -10.7292E+06    -27.2272E-03     51.9523E-03    -24.7251E-03     10.5546E-03    -27.2093E-03     51.8701E-03    -24.5574E-03     10.3925E-03
            1345     7.90321E-03     113.519E-03     12.9266E+06    -1.10904E+06     40.3550E+06    -11.2377E+06    -28.0969E-03     53.2615E-03    -25.1646E-03     12.8707E-03    -28.0946E-03     53.1812E-03    -24.9799E-03     12.6975E-03
            1346     8.77777E-03     113.575E-03     9.14313E+06    -1.66099E+06     42.4223E+06    -11.7946E+06    -28.8427E-03     54.4724E-03    -25.6297E-03     15.8322E-03    -28.8631E-03     54.3928E-03    -25.4285E-03     15.6470E-03
            1347     9.65117E-03     113.641E-03     5.16589E+06    -2.69153E+06     43.6459E+06    -12.2255E+06    -29.2880E-03     55.3889E-03    -26.1010E-03     19.7584E-03    -29.3305E-03     55.3091E-03    -25.8863E-03     19.5635E-03
            1348     10.5246E-03     113.721E-03     2.01981E+06    -2.16166E+06     45.5643E+06    -11.6340E+06    -29.2667E-03     55.8249E-03    -26.5582E-03     25.2714E-03    -29.3307E-03     55.7502E-03    -26.3301E-03     25.0815E-03
            1349     11.3981E-03     113.817E-03     269.077E+03    -1.01187E+06     47.9170E+06    -10.4679E+06    -29.0181E-03     56.0054E-03    -26.9873E-03     33.7348E-03    -29.0978E-03     55.9364E-03    -26.7466E-03     33.5597E-03
            1350     12.2709E-03     113.936E-03     3.26535E+06     2.65892E+06     60.2544E+06    -8.87675E+06    -29.5764E-03     57.0337E-03    -27.4572E-03     47.9629E-03    -29.6662E-03     56.9624E-03    -27.1646E-03     47.8102E-03
            1351     13.1438E-03     114.083E-03     7.56655E+06     8.17671E+06     72.1424E+06    -6.36838E+06    -33.0844E-03     61.1126E-03    -28.0282E-03     71.6120E-03    -33.1833E-03     61.0522E-03    -27.6903E-03     71.4885E-03
            1352     14.0112E-03     114.268E-03     5.79111E+06    -2.95949E+06     62.3890E+06    -2.50413E+06    -41.5708E-03     70.3704E-03    -28.7996E-03     111.348E-03    -41.6845E-03     70.3083E-03    -28.4917E-03     111.230E-03
            1353     14.8716E-03     114.509E-03     5.47491E+06    -14.8435E+06     62.5404E+06    -2.40458E+06    -52.7394E-03     82.7114E-03    -29.9721E-03     164.913E-03    -53.0284E-03     82.7826E-03    -29.6458E-03     164.591E-03
            1354     15.7181E-03     114.815E-03     18.7919E+06    -9.21494E+06     70.7327E+06    -12.0980E+06    -49.4010E-03     80.4290E-03    -31.0280E-03     210.852E-03    -50.0728E-03     80.9328E-03    -30.6882E-03     210.196E-03
            1355     16.5870E-03     115.144E-03     22.6525E+06     2.88349E+06     46.8862E+06    -14.7431E+06    -7.22715E-03     37.6968E-03    -30.4697E-03     220.655E-03    -8.30058E-03     38.7210E-03    -30.2723E-03     220.671E-03
            1356     876.153E-06     114.311E-03     33.3962E+06    -1.67890E+06     33.9714E+06    -1.21060E+06    -27.6808E-03     55.4438E-03    -27.7630E-03    -124.830E-06    -27.5619E-03     55.3365E-03    -27.6391E-03    -142.471E-06
            1357     1.75149E-03     114.319E-03     33.0016E+06    -1.23994E+06     35.5847E+06    -1.85687E+06    -28.0284E-03     55.8450E-03    -27.8167E-03    -204.592E-06    -27.9145E-03     55.7381E-03    -27.6848E-03    -232.367E-06
            1358     2.62700E-03     114.332E-03     32.6200E+06    -701.027E+03     37.4285E+06    -2.28441E+06    -28.4937E-03     56.5017E-03    -28.0080E-03    -275.636E-06    -28.3852E-03     56.3954E-03    -27.8671E-03    -310.910E-06
            1359     3.50152E-03     114.349E-03     31.8550E+06    -504.849E+03     40.2971E+06    -2.66882E+06    -29.1733E-03     57.4537E-03    -28.2803E-03    -331.764E-06    -29.0733E-03     57.3453E-03    -28.1243E-03    -374.214E-06
            1360     4.37564E-03     114.372E-03     30.3689E+06    -1.91764E+06     43.0842E+06    -3.69010E+06    -30.0607E-03     58.6960E-03    -28.6353E-03    -397.025E-06    -29.9702E-03     58.5787E-03    -28.4611E-03    -455.185E-06
            1361     5.24842E-03     114.400E-03     28.7232E+06    -1.70707E+06     44.9715E+06    -4.65352E+06    -31.1377E-03     60.2014E-03    -29.0637E-03    -505.726E-06    -31.0588E-03     60.0848E-03    -28.8780E-03    -579.274E-06
            1362     6.12050E-03     114.434E-03     27.3198E+06    -491.552E+03     47.8253E+06    -5.08531E+06    -32.4651E-03     62.0452E-03    -29.5801E-03    -687.878E-06    -32.3996E-03     61.9326E-03    -29.3799E-03    -770.556E-06
            1363     6.99063E-03     114.475E-03     25.5286E+06    -372.005E+03     51.5698E+06    -5.10001E+06    -34.0721E-03     64.2711E-03    -30.1989E-03    -935.962E-06    -34.0217E-03     64.1561E-03    -29.9775E-03    -1.02321E-03
            1364     7.85940E-03     114.523E-03     23.7943E+06     333.646E+03     55.5578E+06    -4.55188E+06    -35.8839E-03     66.8048E-03    -30.9210E-03    -1.24730E-03    -35.8497E-03     66.6900E-03    -30.6782E-03    -1.33282E-03
            1365     8.72576E-03     114.580E-03     22.7459E+06    -437.675E+03     58.2118E+06    -3.75699E+06    -37.8224E-03     69.5635E-03    -31.7411E-03    -1.68497E-03    -37.7973E-03     69.4421E-03    -31.4824E-03    -1.76659E-03
            1366     9.59030E-03     114.648E-03     21.4265E+06     82.5252E+03     60.8943E+06    -4.00530E+06    -39.6950E-03     72.3529E-03    -32.6579E-03    -2.28221E-03    -39.6825E-03     72.2316E-03    -32.3846E-03    -2.37428E-03
            1367     10.4521E-03     114.727E-03     20.2167E+06    -2.23790E+06     62.7137E+06    -3.83118E+06    -41.1642E-03     74.8195E-03    -33.6553E-03    -2.93432E-03    -41.1588E-03     74.6848E-03    -33.3678E-03    -3.03218E-03
            1368     11.3118E-03     114.822E-03     19.6454E+06    -265.307E+03     62.9367E+06    -3.82279E+06    -41.8771E-03     76.5676E-03    -34.6905E-03    -2.49231E-03    -41.8802E-03     76.4419E-03    -34.4039E-03    -2.59786E-03
            1369     12.1707E-03     114.937E-03     17.3255E+06     491.486E+03     66.3758E+06    -3.59945E+06    -42.0784E-03     77.8674E-03    -35.7890E-03     1.06431E-03    -42.1027E-03     77.7420E-03    -35.4830E-03     955.821E-06
            1370     13.0280E-03     115.080E-03     14.1729E+06     5.44494E+06     70.1643E+06    -1.32695E+06    -42.7611E-03     79.7395E-03    -36.9784E-03     10.1913E-03    -42.8185E-03     79.6352E-03    -36.6560E-03     10.1073E-03
            1371     13.8842E-03     115.263E-03     17.1925E+06    -5.94981E+06     65.9089E+06     3.77968E+06    -44.8826E-03     83.2191E-03    -38.3365E-03     30.5095E-03    -44.9101E-03     83.0622E-03    -38.0232E-03     30.4850E-03
            1372     14.7319E-03     115.504E-03     26.1132E+06    -9.99080E+06     74.4309E+06     910.765E+03    -42.8334E-03     82.6351E-03    -39.8017E-03     66.7555E-03    -42.8586E-03     82.4758E-03    -39.4529E-03     66.6599E-03
            1373     15.5834E-03     115.803E-03     23.1320E+06     5.32768E+06     72.7572E+06    -9.95360E+06    -21.4885E-03     61.9668E-03    -40.4784E-03     95.8041E-03    -21.5875E-03     61.9426E-03    -40.1559E-03     95.5729E-03
            1374     16.4726E-03     116.081E-03     13.8316E+06     2.12971E+06     34.9912E+06    -3.75629E+06     12.0284E-03     27.4696E-03    -39.4980E-03     79.3202E-03     11.9737E-03     27.4673E-03    -39.3462E-03     79.2482E-03
            1375     16.6450E-03     57.9042E-03    -5.93152E+06     183.052E+06     105.396E+06    -337.620E+03    -51.6773E-03     79.1396E-03    -27.4623E-03     391.286E-03    -71.4579E-03     99.2434E-03    -27.1922E-03     400.638E-03
            1376     15.7627E-03     57.5039E-03    -9.08969E+06     131.255E+06     43.5812E+06     864.249E+03    -47.0099E-03     74.2608E-03    -27.2509E-03     329.590E-03    -57.4275E-03     84.9856E-03    -27.2101E-03     330.788E-03
            1377     14.8878E-03     57.2605E-03    -12.2237E+06     68.3010E+06    -14.0007E+06     1.96260E+06    -35.4888E-03     62.5857E-03    -27.0969E-03     186.915E-03    -37.4119E-03     64.7486E-03    -27.2482E-03     186.620E-03
            1378     14.0164E-03     57.1446E-03    -12.8149E+06     14.1380E+06    -24.1045E+06     1.30094E+06    -29.4580E-03     56.5965E-03    -27.1385E-03     101.451E-03    -29.9092E-03     57.1223E-03    -27.2610E-03     101.220E-03
            1379     13.1341E-03     57.0677E-03    -11.9740E+06    -21.7523E+06    -13.8887E+06     542.649E+03    -28.4742E-03     55.7291E-03    -27.2549E-03     79.2708E-03    -28.6567E-03     55.8321E-03    -27.2755E-03     79.0997E-03
            1380     12.2628E-03     56.9935E-03    -11.8348E+06    -36.9392E+06    -6.08280E+06     670.582E+03    -28.5441E-03     55.8736E-03    -27.3295E-03     75.3017E-03    -28.6552E-03     55.8291E-03    -27.2892E-03     75.1661E-03
            1381     11.3845E-03     56.9247E-03    -11.6260E+06    -58.6736E+06    -7.23668E+06     787.696E+03    -28.2929E-03     55.6624E-03    -27.3696E-03     69.9297E-03    -28.3344E-03     55.4753E-03    -27.3038E-03     69.8230E-03
            1382     10.5088E-03     56.8603E-03    -11.7518E+06    -75.0109E+06    -6.06156E+06     701.791E+03    -28.2580E-03     55.6734E-03    -27.4154E-03     63.9146E-03    -28.2519E-03     55.3769E-03    -27.3199E-03     63.8312E-03
            1383     9.63299E-03     56.8030E-03    -12.2956E+06    -82.0102E+06    -1.82982E+06     576.119E+03    -28.2368E-03     55.6913E-03    -27.4545E-03     58.4965E-03    -28.2129E-03     55.3379E-03    -27.3269E-03     58.4305E-03
            1384     8.75755E-03     56.7491E-03    -13.3548E+06    -88.3476E+06    -1.88820E+06     406.000E+03    -28.0413E-03     55.5108E-03    -27.4695E-03     53.0519E-03    -28.0018E-03     55.1157E-03    -27.3315E-03     52.9997E-03
            1385     7.88140E-03     56.7021E-03    -14.3157E+06    -94.6348E+06    -2.70525E+06     279.163E+03    -27.9062E-03     55.3906E-03    -27.4844E-03     47.5660E-03    -27.8533E-03     54.9588E-03    -27.3399E-03     47.5246E-03
            1386     7.00592E-03     56.6589E-03    -15.4879E+06    -98.7067E+06    -3.46279E+06     347.904E+03    -27.8072E-03     55.3045E-03    -27.4974E-03     42.1106E-03    -27.7477E-03     54.8498E-03    -27.3491E-03     42.0799E-03
            1387     6.12982E-03     56.6220E-03    -17.0685E+06    -103.336E+06    -5.82015E+06     348.583E+03    -27.7190E-03     55.2224E-03    -27.5034E-03     36.6657E-03    -27.6536E-03     54.7464E-03    -27.3580E-03     36.6427E-03
            1388     5.25436E-03     56.5893E-03    -18.8253E+06    -107.229E+06    -8.93000E+06     293.121E+03    -27.6533E-03     55.1573E-03    -27.5040E-03     31.3117E-03    -27.5839E-03     54.6663E-03    -27.3659E-03     31.2943E-03
            1389     4.37838E-03     56.5625E-03    -20.5702E+06    -109.242E+06    -12.9498E+06     117.541E+03    -27.5893E-03     55.0858E-03    -27.4964E-03     26.0043E-03    -27.5181E-03     54.5912E-03    -27.3729E-03     25.9897E-03
            1390     3.50286E-03     56.5399E-03    -21.9703E+06    -111.302E+06    -16.8502E+06     139.978E+03    -27.5468E-03     55.0350E-03    -27.4882E-03     20.7494E-03    -27.4727E-03     54.5366E-03    -27.3792E-03     20.7392E-03
            1391     2.62698E-03     56.5230E-03    -23.2533E+06    -113.238E+06    -20.3209E+06     146.928E+03    -27.5130E-03     54.9935E-03    -27.4805E-03     15.5502E-03    -27.4366E-03     54.4914E-03    -27.3842E-03     15.5436E-03
            1392     1.75144E-03     56.5104E-03    -24.0491E+06    -114.548E+06    -22.8045E+06     87.2287E+03    -27.4847E-03     54.9616E-03    -27.4769E-03     10.4541E-03    -27.4062E-03     54.4572E-03    -27.3899E-03     10.4497E-03
            1393     875.589E-06     56.5032E-03    -24.5623E+06    -115.380E+06    -24.2772E+06     39.0946E+03    -27.4857E-03     54.9579E-03    -27.4723E-03     5.63751E-03    -27.4061E-03     54.4520E-03    -27.3907E-03     5.63513E-03
            1394     16.6390E-03     56.9033E-03    -6.14475E+06     181.896E+06     104.442E+06    -651.984E+03    -51.3937E-03     78.8974E-03    -27.5037E-03     390.454E-03    -71.1674E-03     98.9922E-03    -27.2363E-03     399.849E-03
            1395     15.7665E-03     56.5037E-03    -10.9310E+06     129.408E+06     42.8601E+06    -9.26523E+03    -48.1583E-03     75.4219E-03    -27.2636E-03     328.441E-03    -58.5678E-03     86.1278E-03    -27.2211E-03     329.482E-03
            1396     14.8903E-03     56.2587E-03    -11.4595E+06     67.2585E+06    -13.2389E+06     1.88536E+06    -35.2243E-03     62.3071E-03    -27.0829E-03     187.166E-03    -37.1359E-03     64.4553E-03    -27.2300E-03     186.876E-03
            1397     14.0092E-03     56.1441E-03    -10.1601E+06     16.0050E+06    -22.3499E+06     2.50329E+06    -29.2409E-03     56.3791E-03    -27.1381E-03     101.821E-03    -29.6825E-03     56.9062E-03    -27.2584E-03     101.610E-03
            1398     13.1393E-03     56.0660E-03    -10.8422E+06    -19.8383E+06    -12.6844E+06     1.13991E+06    -28.4914E-03     55.7531E-03    -27.2617E-03     79.5354E-03    -28.6727E-03     55.8622E-03    -27.2806E-03     79.3722E-03
            1399     12.2589E-03     55.9928E-03    -11.2062E+06    -37.5231E+06    -6.09190E+06     435.223E+03    -28.4001E-03     55.7412E-03    -27.3410E-03     75.8320E-03    -28.5067E-03     55.6924E-03    -27.3008E-03     75.6948E-03
            1400     11.3853E-03     55.9229E-03    -11.4771E+06    -58.3592E+06    -7.22403E+06     407.648E+03    -28.4968E-03     55.8770E-03    -27.3801E-03     70.2729E-03    -28.5389E-03     55.6920E-03    -27.3150E-03     70.1599E-03
            1401     10.5090E-03     55.8601E-03    -11.7901E+06    -74.8627E+06    -6.37761E+06     412.239E+03    -28.3290E-03     55.7444E-03    -27.4154E-03     64.1346E-03    -28.3230E-03     55.4493E-03    -27.3216E-03     64.0473E-03
            1402     9.63327E-03     55.8007E-03    -12.4538E+06    -82.4610E+06    -2.21781E+06     430.640E+03    -28.1500E-03     55.6068E-03    -27.4568E-03     58.5986E-03    -28.1254E-03     55.2517E-03    -27.3303E-03     58.5313E-03
            1403     8.75717E-03     55.7488E-03    -13.2377E+06    -87.7990E+06    -1.82018E+06     408.923E+03    -28.0413E-03     55.5183E-03    -27.4770E-03     53.1057E-03    -28.0021E-03     55.1257E-03    -27.3396E-03     53.0536E-03
            1404     7.88159E-03     55.7001E-03    -14.5804E+06    -94.5141E+06    -3.39414E+06     120.155E+03    -27.9239E-03     55.4132E-03    -27.4892E-03     47.6293E-03    -27.8715E-03     54.9833E-03    -27.3480E-03     47.5859E-03
            1405     7.00558E-03     55.6583E-03    -15.8282E+06    -98.9622E+06    -4.12886E+06     142.121E+03    -27.8178E-03     55.3201E-03    -27.5023E-03     42.1216E-03    -27.7587E-03     54.8655E-03    -27.3565E-03     42.0883E-03
            1406     6.13005E-03     55.6202E-03    -17.2113E+06    -103.212E+06    -6.02546E+06     403.366E+03    -27.7370E-03     55.2458E-03    -27.5088E-03     36.6887E-03    -27.6721E-03     54.7709E-03    -27.3643E-03     36.6665E-03
            1407     5.25410E-03     55.5885E-03    -18.8166E+06    -107.074E+06    -8.83758E+06     361.469E+03    -27.6672E-03     55.1762E-03    -27.5090E-03     31.3049E-03    -27.5981E-03     54.6858E-03    -27.3706E-03     31.2883E-03
            1408     4.37856E-03     55.5608E-03    -20.4576E+06    -109.016E+06    -12.7363E+06     277.522E+03    -27.6007E-03     55.1008E-03    -27.5001E-03     25.9996E-03    -27.5295E-03     54.6069E-03    -27.3760E-03     25.9871E-03
            1409     3.50268E-03     55.5390E-03    -22.0770E+06    -111.321E+06    -16.8334E+06     209.561E+03    -27.5525E-03     55.0426E-03    -27.4902E-03     20.7333E-03    -27.4788E-03     54.5442E-03    -27.3809E-03     20.7240E-03
            1410     2.62713E-03     55.5213E-03    -23.1714E+06    -113.032E+06    -20.0567E+06     148.967E+03    -27.5153E-03     54.9974E-03    -27.4822E-03     15.5307E-03    -27.4391E-03     54.4959E-03    -27.3849E-03     15.5241E-03
            1411     1.75130E-03     55.5094E-03    -24.0345E+06    -114.453E+06    -22.6621E+06     86.0721E+03    -27.4882E-03     54.9649E-03    -27.4768E-03     10.4336E-03    -27.4099E-03     54.4608E-03    -27.3893E-03     10.4292E-03
            1412     875.745E-06     55.5014E-03    -24.5100E+06    -115.267E+06    -24.1634E+06     70.0041E+03    -27.4789E-03     54.9545E-03    -27.4756E-03     5.66027E-03    -27.3994E-03     54.4490E-03    -27.3938E-03     5.65827E-03
            1413     16.6386E-03     55.8972E-03    -6.33957E+06     181.503E+06     104.153E+06     21.2404E+03    -50.9876E-03     78.5044E-03    -27.5168E-03     389.748E-03    -70.7474E-03     98.5841E-03    -27.2500E-03     399.200E-03
            1414     15.7650E-03     55.4987E-03    -10.1413E+06     129.144E+06     41.8026E+06     88.1075E+03    -47.8964E-03     75.1761E-03    -27.2797E-03     327.029E-03    -58.2200E-03     85.8010E-03    -27.2433E-03     328.091E-03
            1415     14.8880E-03     55.2615E-03    -11.2879E+06     65.6903E+06    -16.8539E+06     787.316E+03    -35.2607E-03     62.3527E-03    -27.0921E-03     188.135E-03    -37.1732E-03     64.5073E-03    -27.2552E-03     187.837E-03
            1416     14.0157E-03     55.1409E-03    -10.8994E+06     15.3825E+06    -25.2562E+06     1.88779E+06    -29.3496E-03     56.5013E-03    -27.1517E-03     102.778E-03    -29.7915E-03     57.0324E-03    -27.2845E-03     102.558E-03
            1417     13.1344E-03     55.0662E-03    -9.61848E+06    -17.8986E+06    -11.5772E+06     1.79395E+06    -28.5034E-03     55.7922E-03    -27.2888E-03     79.6741E-03    -28.6837E-03     55.9083E-03    -27.3068E-03     79.5187E-03
            1418     12.2617E-03     54.9914E-03    -10.4519E+06    -37.0056E+06    -5.85065E+06     784.760E+03    -28.4802E-03     55.8459E-03    -27.3657E-03     76.0171E-03    -28.5846E-03     55.7987E-03    -27.3261E-03     75.8838E-03
            1419     11.3837E-03     54.9217E-03    -11.3395E+06    -58.3460E+06    -7.54844E+06     371.351E+03    -28.5523E-03     55.9531E-03    -27.4008E-03     70.3089E-03    -28.5933E-03     55.7686E-03    -27.3375E-03     70.1952E-03
            1420     10.5090E-03     54.8580E-03    -11.5806E+06    -75.0799E+06    -6.68462E+06     423.184E+03    -28.4395E-03     55.8711E-03    -27.4315E-03     64.2082E-03    -28.4320E-03     55.5753E-03    -27.3393E-03     64.1204E-03
            1421     9.63279E-03     54.8005E-03    -11.8870E+06    -82.3068E+06    -2.30652E+06     352.668E+03    -28.1938E-03     55.6620E-03    -27.4683E-03     58.7658E-03    -28.1664E-03     55.3070E-03    -27.3432E-03     58.6976E-03
            1422     8.75721E-03     54.7465E-03    -13.0514E+06    -87.6567E+06    -1.66853E+06     439.238E+03    -28.0746E-03     55.5626E-03    -27.4880E-03     53.0829E-03    -28.0349E-03     55.1702E-03    -27.3503E-03     53.0311E-03
            1423     7.88135E-03     54.6996E-03    -14.1795E+06    -93.8985E+06    -2.86784E+06     205.331E+03    -27.9566E-03     55.4552E-03    -27.4986E-03     47.5774E-03    -27.9039E-03     55.0272E-03    -27.3562E-03     47.5350E-03
            1424     7.00572E-03     54.6562E-03    -15.4839E+06    -99.3072E+06    -3.53954E+06    -91.2275E+03    -27.8394E-03     55.3506E-03    -27.5112E-03     42.1197E-03    -27.7790E-03     54.8930E-03    -27.3624E-03     42.0833E-03
            1425     6.12983E-03     54.6195E-03    -16.8335E+06    -103.484E+06    -5.25197E+06     265.904E+03    -27.7613E-03     55.2774E-03    -27.5161E-03     36.6673E-03    -27.6953E-03     54.7995E-03    -27.3679E-03     36.6432E-03
            1426     5.25424E-03     54.5866E-03    -18.4680E+06    -106.827E+06    -8.60735E+06     494.955E+03    -27.6838E-03     55.1939E-03    -27.5101E-03     31.2640E-03    -27.6137E-03     54.7039E-03    -27.3715E-03     31.2491E-03
            1427     4.37841E-03     54.5599E-03    -20.2765E+06    -108.887E+06    -12.4619E+06     466.731E+03    -27.6170E-03     55.1157E-03    -27.4987E-03     25.9541E-03    -27.5455E-03     54.6218E-03    -27.3737E-03     25.9439E-03
            1428     3.50284E-03     54.5372E-03    -21.7769E+06    -110.988E+06    -16.4512E+06     296.512E+03    -27.5583E-03     55.0438E-03    -27.4855E-03     20.6902E-03    -27.4843E-03     54.5461E-03    -27.3752E-03     20.6820E-03
            1429     2.62702E-03     54.5204E-03    -23.0966E+06    -112.932E+06    -19.9592E+06     132.869E+03    -27.5143E-03     54.9883E-03    -27.4740E-03     15.4998E-03    -27.4380E-03     54.4870E-03    -27.3766E-03     15.4930E-03
            1430     1.75143E-03     54.5077E-03    -23.9610E+06    -114.288E+06    -22.5077E+06     66.4567E+03    -27.4877E-03     54.9521E-03    -27.4644E-03     10.4057E-03    -27.4096E-03     54.4485E-03    -27.3765E-03     10.4010E-03
            1431     875.633E-06     54.5006E-03    -24.5102E+06    -115.189E+06    -24.1008E+06     9.63989E+03    -27.4607E-03     54.9227E-03    -27.4621E-03     5.65393E-03    -27.3814E-03     54.4175E-03    -27.3800E-03     5.65114E-03
            1432     16.6436E-03     54.8960E-03    -5.68632E+06     182.252E+06     104.614E+06     165.134E+03    -50.5306E-03     78.0383E-03    -27.5077E-03     391.455E-03    -70.4073E-03     98.2384E-03    -27.2406E-03     400.959E-03
            1433     15.7633E-03     54.5003E-03    -10.6061E+06     128.359E+06     41.1214E+06     1.04270E+06    -46.8277E-03     74.1445E-03    -27.3168E-03     327.089E-03    -57.1251E-03     84.7406E-03    -27.2819E-03     328.280E-03
            1434     14.8882E-03     54.2569E-03    -12.6726E+06     65.3177E+06    -17.6528E+06     1.21208E+06    -35.5669E-03     62.7192E-03    -27.1523E-03     187.919E-03    -37.4830E-03     64.8734E-03    -27.3169E-03     187.619E-03
            1435     14.0088E-03     54.1420E-03    -13.0343E+06     15.3510E+06    -26.0166E+06     379.719E+03    -29.5718E-03     56.7712E-03    -27.1994E-03     102.853E-03    -30.0280E-03     57.3111E-03    -27.3328E-03     102.609E-03
            1436     13.1374E-03     54.0633E-03    -11.9937E+06    -18.6125E+06    -12.9668E+06     612.490E+03    -28.6759E-03     55.9999E-03    -27.3241E-03     79.7870E-03    -28.8655E-03     56.1185E-03    -27.3445E-03     79.6152E-03
            1437     12.2590E-03     53.9910E-03    -10.6355E+06    -36.2777E+06    -6.16956E+06     970.228E+03    -28.7298E-03     56.1180E-03    -27.3882E-03     76.0080E-03    -28.8367E-03     56.0763E-03    -27.3510E-03     75.8751E-03
            1438     11.3849E-03     53.9197E-03    -10.5012E+06    -58.0928E+06    -7.16304E+06     604.597E+03    -28.5573E-03     55.9761E-03    -27.4188E-03     70.4327E-03    -28.5947E-03     55.7907E-03    -27.3552E-03     70.3224E-03
            1439     10.5081E-03     53.8573E-03    -11.0751E+06    -75.0136E+06    -6.36703E+06     397.440E+03    -28.4550E-03     55.9056E-03    -27.4506E-03     63.8970E-03    -28.4456E-03     55.6090E-03    -27.3576E-03     63.8086E-03
            1440     9.63303E-03     53.7983E-03    -11.9041E+06    -82.1669E+06    -2.37093E+06     433.947E+03    -28.3190E-03     55.7994E-03    -27.4804E-03     58.5980E-03    -28.2921E-03     55.4454E-03    -27.3559E-03     58.5301E-03
            1441     8.75708E-03     53.7460E-03    -12.7031E+06    -87.4712E+06    -1.47022E+06     326.438E+03    -28.1115E-03     55.6055E-03    -27.4939E-03     53.0092E-03    -28.0707E-03     55.2132E-03    -27.3560E-03     52.9558E-03
            1442     7.88141E-03     53.6975E-03    -13.9446E+06    -93.5347E+06    -2.34461E+06     304.018E+03    -27.9655E-03     55.4695E-03    -27.5040E-03     47.5170E-03    -27.9129E-03     55.0422E-03    -27.3599E-03     47.4757E-03
            1443     7.00560E-03     53.6556E-03    -15.7131E+06    -99.0854E+06    -3.41720E+06     156.649E+03    -27.8727E-03     55.3856E-03    -27.5130E-03     42.0910E-03    -27.8139E-03     54.9292E-03    -27.3636E-03     42.0577E-03
            1444     6.12996E-03     53.6175E-03    -17.5857E+06    -103.848E+06    -5.69440E+06     17.3365E+03    -27.7781E-03     55.2910E-03    -27.5129E-03     36.6201E-03    -27.7147E-03     54.8130E-03    -27.3653E-03     36.5928E-03
            1445     5.25419E-03     53.5858E-03    -18.9603E+06    -106.899E+06    -8.59847E+06     304.810E+03    -27.6971E-03     55.2019E-03    -27.5048E-03     31.2234E-03    -27.6293E-03     54.7123E-03    -27.3653E-03     31.2060E-03
            1446     4.37857E-03     53.5581E-03    -20.2295E+06    -108.650E+06    -12.2160E+06     406.292E+03    -27.6204E-03     55.1105E-03    -27.4901E-03     25.9123E-03    -27.5494E-03     54.6174E-03    -27.3643E-03     25.9013E-03
            1447     3.50279E-03     53.5363E-03    -21.6561E+06    -110.740E+06    -16.1042E+06     358.444E+03    -27.5550E-03     55.0298E-03    -27.4747E-03     20.6587E-03    -27.4812E-03     54.5326E-03    -27.3633E-03     20.6513E-03
            1448     2.62718E-03     53.5187E-03    -22.8820E+06    -112.654E+06    -19.6988E+06     233.728E+03    -27.5097E-03     54.9695E-03    -27.4598E-03     15.4866E-03    -27.4331E-03     54.4689E-03    -27.3618E-03     15.4810E-03
            1449     1.75139E-03     53.5068E-03    -23.8847E+06    -114.169E+06    -22.4063E+06     67.6313E+03    -27.4780E-03     54.9240E-03    -27.4460E-03     10.3944E-03    -27.3998E-03     54.4207E-03    -27.3578E-03     10.3898E-03
            1450     875.782E-06     53.4988E-03    -24.4175E+06    -115.117E+06    -24.1544E+06         438.953    -27.4453E-03     54.8807E-03    -27.4354E-03     5.62332E-03    -27.3656E-03     54.3757E-03    -27.3538E-03     5.62042E-03
            1451     16.6373E-03     53.8935E-03    -5.84742E+06     181.975E+06     104.479E+06     397.145E+03    -49.8748E-03     77.4177E-03    -27.5429E-03     391.820E-03    -69.7767E-03     97.6419E-03    -27.2759E-03     401.417E-03
            1452     15.7638E-03     53.4986E-03    -12.1270E+06     128.154E+06     42.8209E+06     1.75050E+06    -47.0631E-03     74.4402E-03    -27.3771E-03     327.385E-03    -57.3790E-03     85.0438E-03    -27.3313E-03     328.571E-03
            1453     14.8861E-03     53.2564E-03    -13.2103E+06     66.2789E+06    -14.8150E+06     800.829E+03    -35.7424E-03     62.9491E-03    -27.2066E-03     187.541E-03    -37.6645E-03     65.1025E-03    -27.3576E-03     187.227E-03
            1454     14.0138E-03     53.1397E-03    -10.7637E+06     15.1490E+06    -25.0119E+06    -196.315E+03    -29.6871E-03     56.9215E-03    -27.2344E-03     101.876E-03    -30.1326E-03     57.4552E-03    -27.3658E-03     101.623E-03
            1455     13.1339E-03     53.0627E-03    -10.2176E+06    -19.5476E+06    -12.5796E+06     338.814E+03    -28.8237E-03     56.1735E-03    -27.3497E-03     79.7707E-03    -29.0038E-03     56.2843E-03    -27.3695E-03     79.5942E-03
            1456     12.2607E-03     52.9886E-03    -10.6815E+06    -35.8732E+06    -5.64460E+06      530.14E+03    -28.8665E-03     56.2731E-03    -27.4066E-03     75.6185E-03    -28.9756E-03     56.2333E-03    -27.3673E-03     75.4784E-03
            1457     11.3835E-03     52.9189E-03    -10.9981E+06    -58.0943E+06    -7.26154E+06     583.939E+03    -28.6741E-03     56.0996E-03    -27.4255E-03     70.0473E-03    -28.7139E-03     55.9152E-03    -27.3616E-03     69.9360E-03
            1458     10.5089E-03     52.8552E-03    -11.2836E+06    -74.7752E+06    -6.25788E+06     434.983E+03    -28.4522E-03     55.9048E-03    -27.4526E-03     63.8354E-03    -28.4442E-03     55.6095E-03    -27.3591E-03     63.7475E-03
            1459     9.63259E-03     52.7975E-03    -11.9368E+06    -81.9652E+06    -2.45547E+06     418.305E+03    -28.3122E-03     55.7937E-03    -27.4815E-03     58.4234E-03    -28.2856E-03     55.4408E-03    -27.3576E-03     58.3551E-03
            1460     8.75722E-03     52.7439E-03    -12.9189E+06    -87.5964E+06    -1.76876E+06     294.059E+03    -28.1194E-03     55.6137E-03    -27.4943E-03     52.9178E-03    -28.0791E-03     55.2217E-03    -27.3574E-03     52.8638E-03
            1461     7.88134E-03     52.6969E-03    -14.1028E+06    -93.5406E+06    -2.42418E+06     370.767E+03    -28.0030E-03     55.5056E-03    -27.5026E-03     47.5186E-03    -27.9511E-03     55.0786E-03    -27.3586E-03     47.4781E-03
            1462     7.00569E-03     52.6535E-03    -15.4459E+06    -98.7771E+06    -2.94685E+06     449.804E+03    -27.9011E-03     55.4099E-03    -27.5088E-03     42.0053E-03    -27.8422E-03     54.9540E-03    -27.3579E-03     41.9756E-03
            1463     6.12997E-03     52.6168E-03    -17.2315E+06    -103.583E+06    -5.47628E+06     204.336E+03    -27.7896E-03     55.2932E-03    -27.5036E-03     36.5628E-03    -27.7251E-03     54.8158E-03    -27.3558E-03     36.5378E-03
            1464     5.25429E-03     52.5839E-03    -19.1045E+06    -107.094E+06    -8.94299E+06    -88.4317E+03    -27.6960E-03     55.1877E-03    -27.4917E-03     31.1882E-03    -27.6281E-03     54.6978E-03    -27.3534E-03     31.1657E-03
            1465     4.37857E-03     52.5572E-03    -20.5608E+06    -108.673E+06    -12.3046E+06     90.6649E+03    -27.6088E-03     55.0858E-03    -27.4770E-03     25.8806E-03    -27.5393E-03     54.5932E-03    -27.3511E-03     25.8655E-03
            1466     3.50289E-03     52.5346E-03    -21.7749E+06    -110.599E+06    -15.9872E+06     192.686E+03    -27.5433E-03     55.0047E-03    -27.4613E-03     20.6444E-03    -27.4705E-03     54.5082E-03    -27.3493E-03     20.6348E-03
            1467     2.62713E-03     52.5178E-03    -22.8908E+06    -112.440E+06    -19.3790E+06     195.542E+03    -27.4959E-03     54.9423E-03    -27.4464E-03     15.4742E-03    -27.4202E-03     54.4424E-03    -27.3471E-03     15.4681E-03
            1468     1.75148E-03     52.5051E-03    -23.7761E+06    -113.977E+06    -22.2378E+06     133.692E+03    -27.4611E-03     54.8931E-03    -27.4320E-03     10.3932E-03    -27.3829E-03     54.3904E-03    -27.3434E-03     10.3895E-03
            1469     875.687E-06     52.4981E-03    -24.4369E+06    -115.024E+06    -24.0028E+06     62.7992E+03    -27.4503E-03     54.8533E-03    -27.4030E-03     5.57909E-03    -27.3711E-03     54.3486E-03    -27.3207E-03     5.57703E-03
            1470     16.6410E-03     52.8928E-03    -6.73952E+06     180.854E+06     104.259E+06     1.15564E+06    -49.7160E-03     77.2838E-03    -27.5679E-03     392.070E-03    -69.5787E-03     97.4623E-03    -27.2990E-03     401.691E-03
            1471     15.7614E-03     52.4976E-03    -11.4870E+06     129.124E+06     45.3768E+06     882.654E+03    -47.3132E-03     74.7230E-03    -27.4098E-03     326.693E-03    -57.6136E-03     85.3094E-03    -27.3535E-03     327.873E-03
            1472     14.8878E-03     52.2535E-03    -10.8237E+06     66.8966E+06    -12.8538E+06    -226.835E+03    -35.7924E-03     63.0150E-03    -27.2225E-03     186.889E-03    -37.7083E-03     65.1672E-03    -27.3681E-03     186.560E-03
            1473     14.0087E-03     52.1389E-03    -10.6302E+06     14.3010E+06    -25.3405E+06     80.4174E+03    -29.6555E-03     56.8974E-03    -27.2419E-03     101.768E-03    -30.0953E-03     57.4237E-03    -27.3739E-03     101.520E-03
            1474     13.1367E-03     52.0607E-03    -10.9077E+06    -19.3651E+06    -12.5857E+06     528.476E+03    -28.9740E-03     56.3287E-03    -27.3547E-03     79.6442E-03    -29.1593E-03     56.4430E-03    -27.3737E-03     79.4681E-03
            1475     12.2590E-03     51.9870E-03    -10.8171E+06    -36.4002E+06    -5.90081E+06     549.291E+03    -28.8964E-03     56.3002E-03    -27.4037E-03     75.3344E-03    -29.0051E-03     56.2583E-03    -27.3648E-03     75.1942E-03
            1476     11.3850E-03     51.9171E-03    -10.8854E+06    -57.6792E+06    -7.05830E+06     544.781E+03    -28.6750E-03     56.0961E-03    -27.4211E-03     69.8356E-03    -28.7151E-03     55.9133E-03    -27.3570E-03     69.7235E-03
            1477     10.5081E-03     51.8543E-03    -11.1817E+06    -74.5473E+06    -6.33482E+06     412.623E+03    -28.4749E-03     55.9203E-03    -27.4454E-03     63.8185E-03    -28.4667E-03     55.6262E-03    -27.3528E-03     63.7302E-03
            1478     9.63318E-03     51.7954E-03    -11.7916E+06    -81.9891E+06    -2.36830E+06     409.209E+03    -28.2529E-03     55.7293E-03    -27.4764E-03     58.2907E-03    -28.2255E-03     55.3759E-03    -27.3523E-03     58.2225E-03
            1479     8.75699E-03     51.7434E-03    -12.9257E+06    -87.4847E+06    -1.79234E+06     343.025E+03    -28.1352E-03     55.6252E-03    -27.4900E-03     52.8978E-03    -28.0950E-03     55.2337E-03    -27.3534E-03     52.8444E-03
            1480     7.88145E-03     51.6947E-03    -14.2498E+06    -93.6868E+06    -2.57007E+06     388.745E+03    -28.0566E-03     55.5502E-03    -27.4936E-03     47.3995E-03    -28.0051E-03     55.1229E-03    -27.3499E-03     47.3590E-03
            1481     7.00580E-03     51.6529E-03    -15.8079E+06    -98.5706E+06    -3.73357E+06     441.987E+03    -27.8999E-03     55.3917E-03    -27.4918E-03     41.9222E-03    -27.8419E-03     54.9385E-03    -27.3446E-03     41.8924E-03
            1482     6.13006E-03     51.6148E-03    -17.2585E+06    -103.098E+06    -6.02395E+06     217.663E+03    -27.7865E-03     55.2716E-03    -27.4851E-03     36.5036E-03    -27.7221E-03     54.7974E-03    -27.3407E-03     36.4787E-03
            1483     5.25441E-03     51.5831E-03    -18.7770E+06    -106.967E+06    -8.97414E+06     11.6174E+03    -27.6798E-03     55.1547E-03    -27.4749E-03     31.1311E-03    -27.6105E-03     54.6650E-03    -27.3374E-03     31.1098E-03
            1484     4.37864E-03     51.5555E-03    -20.4822E+06    -108.783E+06    -12.6727E+06    -155.240E+03    -27.5916E-03     55.0511E-03    -27.4594E-03     25.8515E-03    -27.5210E-03     54.5583E-03    -27.3354E-03     25.8333E-03
            1485     3.50293E-03     51.5338E-03    -21.8428E+06    -110.649E+06    -16.2166E+06    -84.1936E+03    -27.5279E-03     54.9727E-03    -27.4447E-03     20.6163E-03    -27.4550E-03     54.4764E-03    -27.3337E-03     20.6031E-03
            1486     2.62722E-03     51.5162E-03    -22.9272E+06    -112.407E+06    -19.4975E+06     21.5528E+03    -27.4738E-03     54.9052E-03    -27.4314E-03     15.4551E-03    -27.3981E-03     54.4056E-03    -27.3327E-03     15.4469E-03
            1487     1.75145E-03     51.5043E-03    -23.7635E+06    -113.870E+06    -22.1550E+06     93.6408E+03    -27.4418E-03     54.8628E-03    -27.4210E-03     10.3803E-03    -27.3638E-03     54.3604E-03    -27.3322E-03     10.3760E-03
            1488     875.771E-06     51.4964E-03    -24.2659E+06    -114.857E+06    -23.9391E+06     67.2966E+03    -27.4268E-03     54.8350E-03    -27.4082E-03     5.57733E-03    -27.3470E-03     54.3308E-03    -27.3262E-03     5.57533E-03
            1489     16.6377E-03     51.8947E-03    -6.72234E+06     181.111E+06     105.109E+06     1.10402E+06    -50.5946E-03     78.1681E-03    -27.5735E-03     392.700E-03    -70.4955E-03     98.3833E-03    -27.3008E-03     402.236E-03
            1490     15.7639E-03     51.4933E-03    -10.6746E+06     129.239E+06     44.8368E+06     276.019E+03    -47.4129E-03     74.7983E-03    -27.3854E-03     326.536E-03    -57.7200E-03     85.3963E-03    -27.3331E-03     327.654E-03
            1491     14.8865E-03     51.2542E-03    -11.7734E+06     66.8251E+06    -15.6137E+06    -296.323E+03    -35.3796E-03     62.5760E-03    -27.1964E-03     186.381E-03    -37.2930E-03     64.7301E-03    -27.3543E-03     186.064E-03
            1492     14.0131E-03     51.1364E-03    -11.7011E+06     14.5509E+06    -26.1520E+06     156.439E+03    -29.7692E-03     56.9999E-03    -27.2306E-03     101.845E-03    -30.2138E-03     57.5304E-03    -27.3655E-03     101.596E-03
            1493     13.1344E-03     51.0596E-03    -10.8203E+06    -19.6325E+06    -12.5007E+06     199.166E+03    -29.0256E-03     56.3662E-03    -27.3405E-03     79.2413E-03    -29.2106E-03     56.4793E-03    -27.3589E-03     79.0599E-03
            1494     12.2609E-03     50.9848E-03    -10.6151E+06    -36.3101E+06    -5.59498E+06     476.983E+03    -28.7244E-03     56.1173E-03    -27.3928E-03     75.1822E-03    -28.8315E-03     56.0740E-03    -27.3528E-03     75.0426E-03
            1495     11.3835E-03     50.9164E-03    -10.9640E+06    -57.6954E+06    -7.20390E+06     605.926E+03    -28.6509E-03     56.0657E-03    -27.4147E-03     69.8322E-03    -28.6914E-03     55.8833E-03    -27.3512E-03     69.7207E-03
            1496     10.5092E-03     50.8519E-03    -11.3743E+06    -74.4115E+06    -6.55513E+06     489.913E+03    -28.4664E-03     55.9057E-03    -27.4393E-03     63.7455E-03    -28.4590E-03     55.6128E-03    -27.3476E-03     63.6583E-03
            1497     9.63268E-03     50.7952E-03    -11.9206E+06    -81.8849E+06    -2.46016E+06     405.790E+03    -28.2933E-03     55.7621E-03    -27.4688E-03     58.3318E-03    -28.2666E-03     55.4095E-03    -27.3451E-03     58.2635E-03
            1498     8.75729E-03     50.7410E-03    -12.8635E+06    -87.3251E+06    -1.72993E+06     445.026E+03    -28.2107E-03     55.6867E-03    -27.4760E-03     52.8090E-03    -28.1706E-03     55.2959E-03    -27.3394E-03     52.7565E-03
            1499     7.88166E-03     50.6941E-03    -14.2183E+06    -93.6707E+06    -2.57952E+06     513.157E+03    -28.0260E-03     55.5014E-03    -27.4754E-03     47.2563E-03    -27.9743E-03     55.0742E-03    -27.3319E-03     47.2174E-03
            1500     7.00586E-03     50.6509E-03    -15.6250E+06    -98.2510E+06    -3.73203E+06     392.526E+03    -27.8892E-03     55.3622E-03    -27.4730E-03     41.8822E-03    -27.8308E-03     54.9104E-03    -27.3266E-03     41.8517E-03
            1501     6.13025E-03     50.6140E-03    -17.1540E+06    -102.770E+06    -5.85988E+06     139.003E+03    -27.7654E-03     55.2323E-03    -27.4668E-03     36.4476E-03    -27.7012E-03     54.7593E-03    -27.3222E-03     36.4217E-03
            1502     5.25443E-03     50.5814E-03    -18.7975E+06    -106.834E+06    -8.80741E+06    -20.7838E+03    -27.6562E-03     55.1137E-03    -27.4576E-03     31.1033E-03    -27.5874E-03     54.6245E-03    -27.3194E-03     31.0817E-03
            1503     4.37876E-03     50.5547E-03    -20.2996E+06    -108.660E+06    -12.6440E+06    -93.1082E+03    -27.5709E-03     55.0129E-03    -27.4419E-03     25.8297E-03    -27.4996E-03     54.5204E-03    -27.3182E-03     25.8123E-03
            1504     3.50298E-03     50.5321E-03    -21.8177E+06    -110.775E+06    -16.5818E+06    -183.605E+03    -27.5009E-03     54.9287E-03    -27.4278E-03     20.6119E-03    -27.4271E-03     54.4323E-03    -27.3185E-03     20.5975E-03
            1505     2.62723E-03     50.5154E-03    -22.9922E+06    -112.512E+06    -19.8268E+06    -108.124E+03    -27.4555E-03     54.8728E-03    -27.4173E-03     15.4586E-03    -27.3795E-03     54.3733E-03    -27.3200E-03     15.4487E-03
            1506     1.75150E-03     50.5027E-03    -23.8086E+06    -113.909E+06    -22.3885E+06    -16.5849E+03    -27.4222E-03     54.8332E-03    -27.4109E-03     10.3891E-03    -27.3441E-03     54.3310E-03    -27.3232E-03     10.3834E-03
            1507     875.715E-06     50.4956E-03    -24.2599E+06    -114.738E+06    -23.8806E+06     65.5294E+03    -27.3942E-03     54.8223E-03    -27.4281E-03     5.56724E-03    -27.3146E-03     54.3186E-03    -27.3460E-03     5.56523E-03
            1508     16.6405E-03     50.8899E-03    -6.20765E+06     181.662E+06     105.116E+06     774.176E+03    -50.7906E-03     78.3360E-03    -27.5454E-03     391.138E-03    -70.5827E-03     98.4462E-03    -27.2742E-03     400.565E-03
            1509     15.7636E-03     50.4943E-03    -9.70140E+06     130.190E+06     45.2798E+06     232.163E+03    -46.9288E-03     74.2893E-03    -27.3605E-03     327.163E-03    -57.2715E-03     84.9284E-03    -27.3088E-03     328.339E-03
            1510     14.8878E-03     50.2521E-03    -12.2541E+06     66.6228E+06    -15.5684E+06    -91.2469E+03    -35.5777E-03     62.7607E-03    -27.1831E-03     186.907E-03    -37.4909E-03     64.9122E-03    -27.3397E-03     186.584E-03
            1511     14.0095E-03     50.1354E-03    -10.9999E+06     14.2635E+06    -25.7893E+06    -329.003E+03    -29.8240E-03     57.0349E-03    -27.2108E-03     102.141E-03    -30.2705E-03     57.5677E-03    -27.3445E-03     101.885E-03
            1512     13.1374E-03     50.0567E-03    -9.60857E+06    -20.0676E+06    -12.2339E+06     373.849E+03    -28.8542E-03     56.1774E-03    -27.3232E-03     79.2058E-03    -29.0312E-03     56.2844E-03    -27.3413E-03     79.0287E-03
            1513     12.2593E-03     49.9851E-03    -10.2638E+06    -36.3083E+06    -5.72707E+06     671.924E+03    -28.7397E-03     56.1181E-03    -27.3784E-03     75.1449E-03    -28.8450E-03     56.0747E-03    -27.3395E-03     75.0075E-03
            1514     11.3851E-03     49.9134E-03    -10.8984E+06    -57.8013E+06    -7.25643E+06     661.608E+03    -28.5656E-03     55.9685E-03    -27.4029E-03     69.6897E-03    -28.6053E-03     55.7854E-03    -27.3396E-03     69.5794E-03
            1515     10.5082E-03     49.8519E-03    -11.3109E+06    -74.0249E+06    -6.42979E+06     613.547E+03    -28.4697E-03     55.8992E-03    -27.4295E-03     63.5738E-03    -28.4625E-03     55.6077E-03    -27.3379E-03     63.4883E-03
            1516     9.63310E-03     49.7925E-03    -12.0837E+06    -81.5246E+06    -2.49127E+06     355.914E+03    -28.4187E-03     55.8697E-03    -27.4510E-03     58.1652E-03    -28.3935E-03     55.5194E-03    -27.3277E-03     58.0956E-03
            1517     8.75759E-03     49.7403E-03    -13.1635E+06    -87.4991E+06    -2.07429E+06     415.992E+03    -28.1638E-03     55.6155E-03    -27.4517E-03     52.5945E-03    -28.1244E-03     55.2248E-03    -27.3161E-03     52.5418E-03
            1518     7.88169E-03     49.6922E-03    -14.1765E+06    -93.5718E+06    -2.59936E+06     469.868E+03    -27.9830E-03     55.4369E-03    -27.4539E-03     47.2757E-03    -27.9311E-03     55.0101E-03    -27.3107E-03     47.2365E-03
            1519     7.00612E-03     49.6500E-03    -15.4729E+06    -97.9077E+06    -3.43556E+06     346.445E+03    -27.8658E-03     55.3198E-03    -27.4540E-03     41.8308E-03    -27.8075E-03     54.8690E-03    -27.3068E-03     41.7999E-03
            1520     6.13027E-03     49.6124E-03    -17.0177E+06    -102.472E+06    -5.63252E+06     137.962E+03    -27.7292E-03     55.1781E-03    -27.4489E-03     36.4164E-03    -27.6650E-03     54.7061E-03    -27.3038E-03     36.3906E-03
            1521     5.25461E-03     49.5806E-03    -18.6361E+06    -106.717E+06    -8.76256E+06    -35.3905E+03    -27.6320E-03     55.0729E-03    -27.4409E-03     31.0984E-03    -27.5626E-03     54.5839E-03    -27.3029E-03     31.0766E-03
            1522     4.37879E-03     49.5531E-03    -20.3074E+06    -108.666E+06    -12.6974E+06    -63.4829E+03    -27.5434E-03     54.9706E-03    -27.4272E-03     25.8252E-03    -27.4720E-03     54.4782E-03    -27.3037E-03     25.8082E-03
            1523     3.50304E-03     49.5313E-03    -21.7412E+06    -110.732E+06    -16.6453E+06    -43.3594E+03    -27.4817E-03     54.8967E-03    -27.4150E-03     20.6130E-03    -27.4075E-03     54.4005E-03    -27.3062E-03     20.6005E-03
            1524     2.62725E-03     49.5138E-03    -23.0289E+06    -112.638E+06    -20.1113E+06    -91.0315E+03    -27.4408E-03     54.8464E-03    -27.4055E-03     15.4512E-03    -27.3645E-03     54.3467E-03    -27.3094E-03     15.4415E-03
            1525     1.75149E-03     49.5019E-03    -23.8992E+06    -113.950E+06    -22.5625E+06    -65.3077E+03    -27.4150E-03     54.8144E-03    -27.3994E-03     10.3743E-03    -27.3370E-03     54.3125E-03    -27.3123E-03     10.3680E-03
            1526     875.739E-06     49.4940E-03    -24.3501E+06    -114.753E+06    -24.0308E+06    -55.3401E+03    -27.3932E-03     54.7977E-03    -27.4045E-03     5.56529E-03    -27.3138E-03     54.2943E-03    -27.3230E-03     5.56173E-03
            1527     16.6424E-03     49.8952E-03    -5.29464E+06     181.752E+06     105.108E+06     197.823E+03    -50.6592E-03     78.2052E-03    -27.5460E-03     391.467E-03    -70.4174E-03     98.2851E-03    -27.2763E-03     400.889E-03
            1528     15.7626E-03     49.4913E-03    -8.37793E+06     131.438E+06     46.5841E+06     639.012E+03    -47.1439E-03     74.5169E-03    -27.3730E-03     328.865E-03    -57.5508E-03     85.2255E-03    -27.3185E-03     330.043E-03
            1529     14.8869E-03     49.2511E-03    -10.3638E+06     66.0537E+06    -13.8628E+06     587.730E+03    -36.0664E-03     63.2550E-03    -27.1886E-03     187.369E-03    -37.9828E-03     65.4094E-03    -27.3387E-03     187.042E-03
            1530     14.0142E-03     49.1331E-03    -9.77156E+06     13.4085E+06    -25.3262E+06     617.974E+03    -29.8921E-03     57.0885E-03    -27.1964E-03     101.718E-03    -30.3296E-03     57.6123E-03    -27.3283E-03     101.471E-03
            1531     13.1344E-03     49.0567E-03    -10.3627E+06    -20.0407E+06    -13.5384E+06     937.763E+03    -28.6873E-03     55.9909E-03    -27.3036E-03     79.2919E-03    -28.8655E-03     56.1003E-03    -27.3272E-03     79.1239E-03
            1532     12.2613E-03     48.9818E-03    -11.4596E+06     -36.668E+06    -6.97291E+06     698.982E+03    -28.8177E-03     56.1799E-03    -27.3621E-03     75.1622E-03    -28.9268E-03     56.1383E-03    -27.3272E-03     75.0247E-03
            1533     11.3842E-03     48.9137E-03    -11.3868E+06    -57.3553E+06    -7.50901E+06     674.533E+03    -28.6843E-03     56.0646E-03    -27.3803E-03     69.4295E-03    -28.7266E-03     55.8847E-03    -27.3181E-03     69.3189E-03
            1534     10.5092E-03     48.8494E-03    -11.5626E+06    -73.3614E+06    -6.41339E+06     629.961E+03    -28.5244E-03     55.9222E-03    -27.3977E-03     63.4093E-03    -28.5195E-03     55.6343E-03    -27.3067E-03     63.3237E-03
            1535     9.63361E-03     48.7915E-03    -12.5061E+06    -81.5660E+06    -2.65464E+06     477.548E+03    -28.2788E-03     55.6991E-03    -27.4203E-03     57.9182E-03    -28.2552E-03     55.3492E-03    -27.2972E-03     57.8508E-03
            1536     8.75761E-03     48.7388E-03    -13.4278E+06    -87.3347E+06    -2.24517E+06     295.784E+03    -28.0697E-03     55.4983E-03    -27.4286E-03     52.6505E-03    -28.0314E-03     55.1088E-03    -27.2937E-03     52.5968E-03
            1537     7.88199E-03     48.6912E-03    -14.5979E+06    -93.7071E+06    -2.85693E+06     317.873E+03    -27.9825E-03     55.4159E-03    -27.4334E-03     47.2698E-03    -27.9321E-03     54.9894E-03    -27.2907E-03     47.2287E-03
            1538     7.00616E-03     48.6485E-03    -15.8895E+06    -97.6265E+06    -4.14865E+06     307.121E+03    -27.8137E-03     55.2450E-03    -27.4313E-03     41.7809E-03    -27.7568E-03     54.7972E-03    -27.2875E-03     41.7496E-03
            1539     6.13045E-03     48.6115E-03    -17.3287E+06    -102.147E+06    -6.44483E+06     25.5190E+03    -27.6953E-03     55.1239E-03    -27.4286E-03     36.4214E-03    -27.6320E-03     54.6551E-03    -27.2876E-03     36.3943E-03
            1540     5.25460E-03     48.5790E-03    -18.8351E+06    -106.789E+06    -8.95689E+06    -51.3107E+03    -27.5998E-03     55.0266E-03    -27.4268E-03     31.0827E-03    -27.5310E-03     54.5378E-03    -27.2894E-03     31.0609E-03
            1541     4.37885E-03     48.5523E-03    -20.4014E+06    -108.621E+06    -12.7349E+06     14.0514E+03    -27.5226E-03     54.9385E-03    -27.4159E-03     25.8287E-03    -27.4517E-03     54.4465E-03    -27.2925E-03     25.8129E-03
            1542     3.50305E-03     48.5298E-03    -21.9098E+06    -110.770E+06    -16.6606E+06     16.2454E+03    -27.4753E-03     54.8797E-03    -27.4044E-03     20.6068E-03    -27.4018E-03     54.3835E-03    -27.2953E-03     20.5951E-03
            1543     2.62730E-03     48.5130E-03    -23.0552E+06    -112.549E+06    -20.0230E+06     18.6476E+03    -27.4341E-03     54.8273E-03    -27.3933E-03     15.4399E-03    -27.3581E-03     54.3280E-03    -27.2968E-03     15.4316E-03
            1544     1.75153E-03     48.5004E-03    -23.9614E+06    -113.972E+06    -22.6313E+06    -60.2709E+03    -27.4024E-03     54.7875E-03    -27.3851E-03     10.3713E-03    -27.3246E-03     54.2857E-03    -27.2983E-03     10.3651E-03
            1545     875.799E-06     48.4933E-03    -24.4921E+06    -114.829E+06    -24.1881E+06    -38.5362E+03    -27.3777E-03     54.7681E-03    -27.3904E-03     5.60463E-03    -27.2987E-03     54.2647E-03    -27.3093E-03     5.60127E-03
            1546     16.6360E-03     48.8871E-03    -5.65361E+06     180.690E+06     103.619E+06    -566.546E+03    -50.5497E-03     78.1362E-03    -27.5865E-03     390.674E-03    -70.3108E-03     98.2181E-03    -27.3222E-03     400.185E-03
            1547     15.7638E-03     48.4936E-03    -9.87055E+06     129.394E+06     43.1900E+06    -512.248E+03    -48.2930E-03     75.6644E-03    -27.3714E-03     327.665E-03    -58.6844E-03     86.3549E-03    -27.3288E-03     328.711E-03
            1548     14.8873E-03     48.2465E-03    -10.8558E+06     66.6039E+06    -11.7928E+06     1.54394E+06    -35.7305E-03     62.9102E-03    -27.1797E-03     186.496E-03    -37.6477E-03     65.0595E-03    -27.3195E-03     186.184E-03
            1549     14.0101E-03     48.1324E-03    -12.5694E+06     13.9478E+06    -23.6389E+06     2.44285E+06    -29.7524E-03     56.9512E-03    -27.1987E-03     101.785E-03    -30.1992E-03     57.4714E-03    -27.3189E-03     101.566E-03
            1550     13.1379E-03     48.0552E-03    -13.0954E+06    -19.9924E+06    -14.5984E+06     687.915E+03    -29.1057E-03     56.3870E-03    -27.2813E-03     79.0456E-03    -29.2987E-03     56.5048E-03    -27.3063E-03     78.8696E-03
            1551     12.2595E-03     47.9807E-03    -11.7822E+06    -35.5129E+06    -6.10005E+06     410.587E+03    -28.6939E-03     56.0251E-03    -27.3312E-03     74.5484E-03    -28.8054E-03     55.9863E-03    -27.2931E-03     74.4093E-03
            1552     11.3854E-03     47.9116E-03    -12.2040E+06    -57.0647E+06    -7.73234E+06     412.945E+03    -28.6615E-03     56.0088E-03    -27.3473E-03     69.3067E-03    -28.7078E-03     55.8316E-03    -27.2855E-03     69.1929E-03
            1553     10.5097E-03     47.8481E-03    -12.4203E+06    -73.8895E+06    -7.07767E+06     457.050E+03    -28.4402E-03     55.8056E-03    -27.3653E-03     63.5203E-03    -28.4378E-03     55.5172E-03    -27.2756E-03     63.4330E-03
            1554     9.63358E-03     47.7905E-03    -12.5237E+06    -81.3688E+06    -2.54486E+06     399.433E+03    -28.1285E-03     55.5263E-03    -27.3978E-03     58.1071E-03    -28.1050E-03     55.1768E-03    -27.2744E-03     58.0397E-03
            1555     8.75778E-03     47.7376E-03    -13.5090E+06    -86.9938E+06    -2.19794E+06     319.454E+03    -28.0922E-03     55.5019E-03    -27.4097E-03     52.7253E-03    -28.0549E-03     55.1141E-03    -27.2749E-03     52.6719E-03
            1556     7.88211E-03     47.6897E-03    -14.5959E+06    -93.8638E+06    -3.02852E+06     141.420E+03    -27.9367E-03     55.3501E-03    -27.4134E-03     47.1729E-03    -27.8858E-03     54.9229E-03    -27.2713E-03     47.1296E-03
            1557     7.00634E-03     47.6476E-03    -15.7148E+06    -97.3989E+06    -4.04593E+06     137.769E+03    -27.7732E-03     55.1880E-03    -27.4148E-03     41.8058E-03    -27.7158E-03     54.7408E-03    -27.2710E-03     41.7726E-03
            1558     6.13047E-03     47.6100E-03    -17.0908E+06    -101.991E+06    -6.47986E+06     48.4328E+03    -27.6717E-03     55.0854E-03    -27.4137E-03     36.4016E-03    -27.6073E-03     54.6171E-03    -27.2734E-03     36.3749E-03
            1559     5.25473E-03     47.5782E-03    -18.7915E+06    -106.851E+06    -9.10716E+06     18.0873E+03    -27.5762E-03     54.9897E-03    -27.4135E-03     31.0677E-03    -27.5068E-03     54.5007E-03    -27.2769E-03     31.0469E-03
            1560     4.37887E-03     47.5508E-03    -20.5002E+06    -108.646E+06    -12.7472E+06     58.9775E+03    -27.5125E-03     54.9168E-03    -27.4042E-03     25.8192E-03    -27.4420E-03     54.4248E-03    -27.2807E-03     25.8040E-03
            1561     3.50311E-03     47.5290E-03    -21.9352E+06    -110.699E+06    -16.6116E+06     56.7651E+03    -27.4637E-03     54.8561E-03    -27.3924E-03     20.5920E-03    -27.3906E-03     54.3603E-03    -27.2831E-03     20.5808E-03
            1562     2.62732E-03     47.5115E-03    -23.1556E+06    -112.511E+06    -19.9446E+06    -9.90236E+03    -27.4192E-03     54.8010E-03    -27.3818E-03     15.4360E-03    -27.3439E-03     54.3019E-03    -27.2848E-03     15.4274E-03
            1563     1.75157E-03     47.4996E-03    -24.0087E+06    -113.928E+06    -22.5992E+06    -1.00658E+03    -27.3889E-03     54.7631E-03    -27.3743E-03     10.3813E-03    -27.3114E-03     54.2615E-03    -27.2873E-03     10.3758E-03
            1564     875.710E-06     47.4917E-03    -24.5693E+06    -114.855E+06    -24.2327E+06    -13.6371E+03    -27.3669E-03     54.7469E-03    -27.3800E-03     5.58531E-03    -27.2882E-03     54.2436E-03    -27.2990E-03     5.58229E-03
            1565     16.6406E-03     47.8923E-03    -6.53953E+06     180.222E+06     102.981E+06    -678.086E+03    -51.3174E-03     78.8907E-03    -27.5733E-03     390.950E-03    -71.2492E-03     99.1405E-03    -27.3102E-03     400.424E-03
            1566     15.7628E-03     47.4841E-03    -10.7751E+06     127.471E+06     39.7801E+06    -547.565E+03    -48.1563E-03     75.4729E-03    -27.3166E-03     325.195E-03    -58.4748E-03     86.0905E-03    -27.2869E-03     326.188E-03
            1567     14.8901E-03     47.2507E-03    -12.6587E+06     65.8765E+06    -15.8938E+06     1.83831E+06    -35.2400E-03     62.3653E-03    -27.1253E-03     186.500E-03    -37.1277E-03     64.4881E-03    -27.2819E-03     186.215E-03
            1568     14.0123E-03     47.1296E-03    -12.7802E+06     16.4240E+06    -23.3200E+06     1.83544E+06    -30.0591E-03     57.2205E-03    -27.1613E-03     101.958E-03    -30.5162E-03     57.7581E-03    -27.2832E-03     101.729E-03
            1569     13.1357E-03     47.0522E-03    -11.2687E+06    -18.9168E+06    -12.4123E+06     52.0967E+03    -29.0857E-03     56.3252E-03    -27.2395E-03     77.5072E-03    -29.2714E-03     56.4398E-03    -27.2578E-03     77.3232E-03
            1570     12.2630E-03     46.9806E-03    -11.2334E+06    -36.0047E+06    -5.87162E+06     97.1519E+03    -28.4577E-03     55.7457E-03    -27.2881E-03     74.7443E-03    -28.5654E-03     55.7028E-03    -27.2489E-03     74.6031E-03
            1571     11.3850E-03     46.9098E-03    -11.3673E+06    -57.0969E+06    -7.29649E+06     276.981E+03    -28.3790E-03     55.7013E-03    -27.3223E-03     69.9017E-03    -28.4211E-03     55.5215E-03    -27.2595E-03     69.7884E-03
            1572     10.5095E-03     46.8471E-03    -11.5708E+06    -74.0808E+06    -6.71063E+06     151.534E+03    -28.3383E-03     55.6933E-03    -27.3549E-03     63.4558E-03    -28.3316E-03     55.4019E-03    -27.2643E-03     63.3651E-03
            1573     9.63364E-03     46.7894E-03    -12.2264E+06    -81.1922E+06    -2.49254E+06     269.118E+03    -28.2608E-03     55.6443E-03    -27.3834E-03     58.1750E-03    -28.2364E-03     55.2954E-03    -27.2604E-03     58.1055E-03
            1574     8.75813E-03     46.7359E-03    -13.1943E+06    -86.8149E+06    -2.05429E+06     289.037E+03    -28.0611E-03     55.4508E-03    -27.3897E-03     52.6141E-03    -28.0226E-03     55.0632E-03    -27.2550E-03     52.5605E-03
            1575     7.88224E-03     46.6890E-03    -14.3598E+06    -93.5817E+06    -3.21458E+06     120.363E+03    -27.8653E-03     55.2607E-03    -27.3954E-03     47.1881E-03    -27.8133E-03     54.8348E-03    -27.2549E-03     47.1450E-03
            1576     7.00635E-03     46.6461E-03    -15.8207E+06    -97.4997E+06    -4.29152E+06     2.13886E+03    -27.7649E-03     55.1652E-03    -27.4003E-03     41.8128E-03    -27.7075E-03     54.7180E-03    -27.2574E-03     41.7779E-03
            1577     6.13063E-03     46.6092E-03    -17.3141E+06    -101.888E+06    -6.37674E+06     99.1664E+03    -27.6472E-03     55.0483E-03    -27.4012E-03     36.3778E-03    -27.5842E-03     54.5807E-03    -27.2602E-03     36.3519E-03
            1578     5.25472E-03     46.5768E-03    -18.9374E+06    -106.833E+06    -9.07396E+06     114.222E+03    -27.5732E-03     54.9736E-03    -27.4004E-03     31.0683E-03    -27.5047E-03     54.4849E-03    -27.2634E-03     31.0488E-03
            1579     4.37897E-03     46.5499E-03    -20.5116E+06    -108.603E+06    -12.6923E+06     67.8507E+03    -27.5067E-03     54.8957E-03    -27.3891E-03     25.7945E-03    -27.4364E-03     54.4039E-03    -27.2653E-03     25.7794E-03
            1580     3.50316E-03     46.5276E-03    -21.9649E+06    -110.638E+06    -16.5505E+06     28.8810E+03    -27.4436E-03     54.8203E-03    -27.3767E-03     20.5650E-03    -27.3708E-03     54.3247E-03    -27.2672E-03     20.5535E-03
            1581     2.62736E-03     46.5107E-03    -23.1301E+06    -112.464E+06    -19.9703E+06     6.39233E+03    -27.4014E-03     54.7679E-03    -27.3665E-03     15.4037E-03    -27.3260E-03     54.2690E-03    -27.2697E-03     15.3954E-03
            1582     1.75153E-03     46.4982E-03    -24.0857E+06    -113.928E+06    -22.6039E+06         843.102    -27.3798E-03     54.7374E-03    -27.3576E-03     10.3550E-03    -27.3027E-03     54.2359E-03    -27.2705E-03     10.3496E-03
            1583     875.863E-06     46.4909E-03    -24.5823E+06    -114.834E+06    -24.2702E+06     12.6612E+03    -27.3639E-03     54.7089E-03    -27.3450E-03     5.55666E-03    -27.2852E-03     54.2058E-03    -27.2642E-03     5.55399E-03
            1584     16.6372E-03     46.8777E-03    -5.85153E+06     180.476E+06     103.490E+06    -244.946E+03    -51.1748E-03     78.6825E-03    -27.5077E-03     392.134E-03    -71.2081E-03     99.0357E-03    -27.2435E-03     401.525E-03
            1585     15.7685E-03     46.4902E-03    -10.8083E+06     127.749E+06     41.2122E+06     1.32202E+06    -47.0133E-03     74.3028E-03    -27.2895E-03     325.188E-03    -57.2333E-03     84.8184E-03    -27.2530E-03     326.356E-03
            1586     14.8851E-03     46.2468E-03    -13.8683E+06     65.4961E+06    -19.1106E+06     976.378E+03    -36.2357E-03     63.3167E-03    -27.0810E-03     187.642E-03    -38.1454E-03     65.4651E-03    -27.2514E-03     187.329E-03
            1587     14.0139E-03     46.1272E-03    -10.9753E+06     16.7831E+06    -26.6965E+06    -255.552E+03    -30.0377E-03     57.1224E-03    -27.0847E-03     101.512E-03    -30.4821E-03     57.6648E-03    -27.2266E-03     101.253E-03
            1588     13.1396E-03     46.0517E-03    -9.07517E+06    -18.4760E+06    -12.5214E+06     660.655E+03    -28.2924E-03     55.4961E-03    -27.2037E-03     78.5411E-03    -28.4636E-03     55.6059E-03    -27.2264E-03     78.3744E-03
            1589     12.2600E-03     45.9795E-03    -9.85676E+06    -36.2393E+06    -6.36564E+06     476.706E+03    -28.5985E-03     55.8741E-03    -27.2756E-03     75.3359E-03    -28.6997E-03     55.8301E-03    -27.2406E-03     75.1982E-03
            1590     11.3859E-03     45.9086E-03    -10.2562E+06    -57.0601E+06    -7.13735E+06     244.714E+03    -28.4508E-03     55.7564E-03    -27.3056E-03     69.8141E-03    -28.4874E-03     55.5747E-03    -27.2437E-03     69.7003E-03
            1591     10.5094E-03     45.8463E-03    -10.9740E+06    -73.8110E+06    -6.34273E+06     390.268E+03    -28.3324E-03     55.6681E-03    -27.3358E-03     63.2948E-03    -28.3233E-03     55.3765E-03    -27.2445E-03     63.2075E-03
            1592     9.63411E-03     45.7873E-03    -11.8781E+06    -81.1314E+06    -2.53562E+06     320.085E+03    -28.2203E-03     55.5833E-03    -27.3629E-03     58.0118E-03    -28.1940E-03     55.2341E-03    -27.2408E-03     57.9430E-03
            1593     8.75820E-03     45.7355E-03    -12.9233E+06    -86.7775E+06    -2.00848E+06     315.402E+03    -27.9740E-03     55.3483E-03    -27.3743E-03     52.6126E-03    -27.9341E-03     54.9602E-03    -27.2397E-03     52.5599E-03
            1594     7.88222E-03     45.6874E-03    -14.2195E+06    -93.3245E+06    -2.93320E+06     284.340E+03    -27.8728E-03     55.2564E-03    -27.3836E-03     47.2530E-03    -27.8208E-03     54.8311E-03    -27.2423E-03     47.2121E-03
            1595     7.00657E-03     45.6453E-03    -15.6929E+06    -97.3976E+06    -4.15598E+06     152.955E+03    -27.7517E-03     55.1386E-03    -27.3869E-03     41.7517E-03    -27.6940E-03     54.6915E-03    -27.2437E-03     41.7189E-03
            1596     6.13060E-03     45.6078E-03    -17.3639E+06    -101.908E+06    -6.32374E+06     99.5225E+03    -27.6449E-03     55.0317E-03    -27.3868E-03     36.3593E-03    -27.5822E-03     54.5639E-03    -27.2455E-03     36.3335E-03
            1597     5.25487E-03     45.5759E-03    -18.9542E+06    -106.694E+06    -8.93804E+06     66.6842E+03    -27.5747E-03     54.9583E-03    -27.3836E-03     31.0298E-03    -27.5066E-03     54.4701E-03    -27.2461E-03     31.0097E-03
            1598     4.37904E-03     45.5486E-03    -20.5295E+06    -108.550E+06    -12.6921E+06     20.1022E+03    -27.4950E-03     54.8641E-03    -27.3691E-03     25.7544E-03    -27.4248E-03     54.3725E-03    -27.2454E-03     25.7388E-03
            1599     3.50324E-03     45.5268E-03    -21.9432E+06    -110.595E+06    -16.5585E+06     15.6146E+03    -27.4303E-03     54.7850E-03    -27.3547E-03     20.5254E-03    -27.3574E-03     54.2896E-03    -27.2453E-03     20.5138E-03
            1600     2.62741E-03     45.5094E-03    -23.1979E+06    -112.449E+06    -19.9719E+06     33.7270E+03    -27.3886E-03     54.7300E-03    -27.3414E-03     15.3773E-03    -27.3135E-03     54.2313E-03    -27.2446E-03     15.3694E-03
            1601     1.75167E-03     45.4973E-03    -24.0684E+06    -113.884E+06    -22.6350E+06     27.8867E+03    -27.3501E-03     54.6810E-03    -27.3308E-03     10.3234E-03    -27.2729E-03     54.1797E-03    -27.2440E-03     10.3184E-03
            1602     875.734E-06     45.4896E-03    -24.6715E+06    -114.838E+06    -24.2693E+06    -16.8068E+03    -27.3263E-03     54.6571E-03    -27.3308E-03     5.59138E-03    -27.2480E-03     54.1541E-03    -27.2499E-03     5.58831E-03
            1603     16.6468E-03     45.8804E-03    -5.79416E+06     179.201E+06     102.883E+06     1.19670E+06    -50.6040E-03     78.0765E-03    -27.4725E-03     392.579E-03    -70.4546E-03     98.2446E-03    -27.2095E-03     402.038E-03
            1604     15.7585E-03     45.4897E-03    -11.0556E+06     128.456E+06     44.0343E+06     875.882E+03    -47.4926E-03     74.7761E-03    -27.2835E-03     326.293E-03    -57.7087E-03     85.2813E-03    -27.2336E-03     327.467E-03
            1605     14.8926E-03     45.2410E-03    -10.5342E+06     68.0225E+06    -13.3935E+06    -350.436E+03    -36.4281E-03     63.4935E-03    -27.0655E-03     186.618E-03    -38.3580E-03     65.6663E-03    -27.2158E-03     186.259E-03
            1606     14.0146E-03     45.1285E-03    -9.06485E+06     15.2949E+06    -25.5084E+06    -45.5977E+03    -29.1223E-03     56.1948E-03    -27.0725E-03     101.596E-03    -29.5466E-03     56.7152E-03    -27.2091E-03     101.353E-03
            1607     13.1343E-03     45.0510E-03    -10.7150E+06    -19.0817E+06    -12.9382E+06      486.35E+03    -28.4853E-03     55.6951E-03    -27.2098E-03     78.9395E-03    -28.6657E-03     55.8072E-03    -27.2313E-03     78.7677E-03
            1608     12.2626E-03     44.9769E-03    -10.7212E+06    -35.2011E+06    -6.14476E+06     744.885E+03    -28.6815E-03     55.9528E-03    -27.2713E-03     74.8868E-03    -28.7883E-03     55.9144E-03    -27.2355E-03     74.7521E-03
            1609     11.3855E-03     44.9083E-03    -11.1226E+06    -57.4149E+06    -7.78286E+06     560.419E+03    -28.6326E-03     55.9196E-03    -27.2869E-03     69.6578E-03    -28.6727E-03     55.7389E-03    -27.2265E-03     69.5467E-03
            1610     10.5104E-03     44.8443E-03    -11.1991E+06    -73.7302E+06    -6.40778E+06     479.761E+03    -28.3047E-03     55.6155E-03    -27.3108E-03     63.5034E-03    -28.2966E-03     55.3245E-03    -27.2197E-03     63.4177E-03
            1611     9.63414E-03     44.7869E-03    -12.0604E+06    -81.2636E+06    -2.65501E+06     544.514E+03    -28.0367E-03     55.3827E-03    -27.3460E-03     58.0828E-03    -28.0105E-03     55.0329E-03    -27.2239E-03     58.0181E-03
            1612     8.75808E-03     44.7339E-03    -12.9666E+06    -86.6635E+06    -1.81567E+06     358.543E+03    -27.9907E-03     55.3553E-03    -27.3647E-03     52.6713E-03    -27.9513E-03     54.9675E-03    -27.2293E-03     52.6192E-03
            1613     7.88254E-03     44.6865E-03    -14.2307E+06    -93.1522E+06    -2.64649E+06     334.651E+03    -27.8940E-03     55.2649E-03    -27.3709E-03     47.1672E-03    -27.8427E-03     54.8401E-03    -27.2285E-03     47.1270E-03
            1614     7.00651E-03     44.6440E-03    -15.6401E+06    -97.1960E+06    -3.85339E+06     268.698E+03    -27.7463E-03     55.1176E-03    -27.3713E-03     41.7089E-03    -27.6890E-03     54.6709E-03    -27.2270E-03     41.6777E-03
            1615     6.13083E-03     44.6069E-03    -17.1776E+06    -101.758E+06    -6.13120E+06     129.198E+03    -27.6586E-03     55.0259E-03    -27.3673E-03     36.3083E-03    -27.5954E-03     54.5582E-03    -27.2255E-03     36.2829E-03
            1616     5.25496E-03     44.5746E-03    -18.8301E+06    -106.641E+06    -8.94634E+06     52.3805E+03    -27.5646E-03     54.9243E-03    -27.3597E-03     30.9741E-03    -27.4959E-03     54.4361E-03    -27.2225E-03     30.9540E-03
            1617     4.37916E-03     44.5477E-03    -20.4624E+06    -108.506E+06    -12.7728E+06     36.4372E+03    -27.4774E-03     54.8204E-03    -27.3430E-03     25.6990E-03    -27.4069E-03     54.3291E-03    -27.2199E-03     25.6837E-03
            1618     3.50333E-03     44.5255E-03    -21.9774E+06    -110.594E+06    -16.6406E+06     55.1427E+03    -27.4164E-03     54.7425E-03    -27.3260E-03     20.4908E-03    -27.3436E-03     54.2473E-03    -27.2170E-03     20.4798E-03
            1619     2.62753E-03     44.5086E-03    -23.1727E+06    -112.403E+06    -20.0029E+06     44.3447E+03    -27.3648E-03     54.6746E-03    -27.3097E-03     15.3472E-03    -27.2896E-03     54.1761E-03    -27.2132E-03     15.3394E-03
            1620     1.75164E-03     44.4961E-03    -24.0905E+06    -113.858E+06    -22.6728E+06     38.8158E+03    -27.3219E-03     54.6182E-03    -27.2963E-03     10.2887E-03    -27.2448E-03     54.1172E-03    -27.2097E-03     10.2838E-03
            1621     875.888E-06     44.4889E-03    -24.5624E+06    -114.770E+06    -24.3364E+06    -3.40352E+03    -27.2778E-03     54.5852E-03    -27.3074E-03     5.55472E-03    -27.1990E-03     54.0824E-03    -27.2271E-03     5.55185E-03
            1622     16.6360E-03     44.8917E-03    -6.93453E+06     178.716E+06     103.553E+06     966.837E+03    -51.6048E-03     79.1058E-03    -27.5010E-03     390.502E-03    -71.3485E-03     99.1593E-03    -27.2323E-03     399.957E-03
            1623     15.7695E-03     44.4780E-03    -9.58873E+06     129.520E+06     45.2796E+06     250.767E+03    -48.4223E-03     75.6830E-03    -27.2608E-03     327.866E-03    -58.7498E-03     86.3051E-03    -27.2083E-03     328.859E-03
            1624     14.8890E-03     44.2459E-03    -10.8898E+06     67.3311E+06    -14.3533E+06    -331.003E+03    -35.3577E-03     62.4066E-03    -27.0489E-03     186.079E-03    -37.2547E-03     64.5456E-03    -27.2025E-03     185.753E-03
            1625     14.0105E-03     44.1254E-03    -11.7347E+06     14.9302E+06    -25.7062E+06     291.244E+03    -29.4252E-03     56.5065E-03    -27.0813E-03     101.788E-03    -29.8627E-03     57.0301E-03    -27.2145E-03     101.548E-03
            1626     13.1409E-03     44.0498E-03    -10.2052E+06    -18.7812E+06    -12.4305E+06     556.485E+03    -28.7435E-03     55.9417E-03    -27.1981E-03     78.5567E-03    -28.9229E-03     56.0541E-03    -27.2183E-03     78.3833E-03
            1627     12.2605E-03     43.9765E-03    -10.6539E+06    -35.6275E+06    -5.91955E+06     838.771E+03    -28.5682E-03     55.8224E-03    -27.2542E-03     75.1697E-03    -28.6743E-03     55.7813E-03    -27.2167E-03     75.0370E-03
            1628     11.3860E-03     43.9061E-03    -11.1510E+06    -57.0809E+06    -7.36273E+06     722.740E+03    -28.4538E-03     55.7342E-03    -27.2803E-03     69.7721E-03    -28.4946E-03     55.5540E-03    -27.2182E-03     69.6643E-03
            1629     10.5100E-03     43.8437E-03    -11.6693E+06    -74.3692E+06    -6.91817E+06     410.724E+03    -28.2930E-03     55.6019E-03    -27.3089E-03     63.6764E-03    -28.2855E-03     55.3091E-03    -27.2187E-03     63.5901E-03
            1630     9.63406E-03     43.7859E-03    -11.9288E+06    -80.7776E+06    -2.01416E+06     438.276E+03    -28.1637E-03     55.5058E-03    -27.3421E-03     58.2359E-03    -28.1385E-03     55.1573E-03    -27.2178E-03     58.1696E-03
            1631     8.75848E-03     43.7327E-03    -13.0860E+06    -86.5394E+06    -1.62901E+06      444.61E+03    -28.0327E-03     55.3834E-03    -27.3506E-03     52.6236E-03    -27.9944E-03     54.9960E-03    -27.2143E-03     52.5726E-03
            1632     7.88248E-03     43.6854E-03    -14.2735E+06    -93.0035E+06    -2.60903E+06     295.064E+03    -27.8861E-03     55.2384E-03    -27.3523E-03     47.0777E-03    -27.8351E-03     54.8141E-03    -27.2098E-03     47.0372E-03
            1633     7.00681E-03     43.6429E-03    -15.6351E+06    -97.0470E+06    -3.91273E+06     220.999E+03    -27.7647E-03     55.1135E-03    -27.3488E-03     41.6505E-03    -27.7075E-03     54.6676E-03    -27.2050E-03     41.6187E-03
            1634     6.13092E-03     43.6057E-03    -17.1330E+06    -101.652E+06    -6.09508E+06     182.537E+03    -27.6559E-03     54.9968E-03    -27.3408E-03     36.2492E-03    -27.5927E-03     54.5295E-03    -27.1991E-03     36.2246E-03
            1635     5.25513E-03     43.5737E-03    -18.8194E+06    -106.579E+06    -8.95492E+06     145.220E+03    -27.5567E-03     54.8861E-03    -27.3294E-03     30.8880E-03    -27.4880E-03     54.3982E-03    -27.1923E-03     30.8691E-03
            1636     4.37931E-03     43.5466E-03    -20.5055E+06    -108.478E+06    -12.7950E+06     122.636E+03    -27.4595E-03     54.7686E-03    -27.3091E-03     25.6285E-03    -27.3892E-03     54.2775E-03    -27.1860E-03     25.6143E-03
            1637     3.50344E-03     43.5246E-03    -21.9522E+06    -110.532E+06    -16.6743E+06     70.9784E+03    -27.3893E-03     54.6782E-03    -27.2889E-03     20.4233E-03    -27.3163E-03     54.1833E-03    -27.1802E-03     20.4125E-03
            1638     2.62761E-03     43.5074E-03     -23.139E+06    -112.376E+06    -20.1171E+06     77.4511E+03    -27.3296E-03     54.5999E-03    -27.2703E-03     15.2837E-03    -27.2541E-03     54.1017E-03    -27.1744E-03     15.2764E-03
            1639     1.75177E-03     43.4954E-03    -24.0162E+06    -113.791E+06    -22.7142E+06     72.5016E+03    -27.2931E-03     54.5461E-03    -27.2531E-03     10.2544E-03    -27.2156E-03     54.0453E-03    -27.1668E-03     10.2500E-03
            1640     875.875E-06     43.4876E-03    -24.6037E+06    -114.684E+06    -24.2455E+06     97.0362E+03    -27.2517E-03     54.4923E-03    -27.2406E-03     5.50988E-03    -27.1734E-03     53.9899E-03    -27.1599E-03     5.50836E-03
            1641     16.6434E-03     43.8773E-03    -5.73904E+06     180.043E+06     104.289E+06    -100.571E+03    -51.5870E-03     79.0930E-03    -27.5059E-03     389.711E-03    -71.3980E-03     99.2204E-03    -27.2372E-03     399.108E-03
            1642     15.7635E-03     43.4836E-03    -10.5074E+06     128.115E+06     43.4683E+06     457.435E+03    -47.7689E-03     75.0347E-03    -27.2658E-03     327.070E-03    -58.0427E-03     85.6001E-03    -27.2190E-03     328.120E-03
            1643     14.8877E-03     43.2404E-03    -11.6033E+06     66.2742E+06    -15.1016E+06     356.725E+03    -35.4593E-03     62.5313E-03    -27.0719E-03     186.730E-03    -37.3435E-03     64.6534E-03    -27.2267E-03     186.426E-03
            1644     14.0172E-03     43.1260E-03    -10.9710E+06     15.1346E+06    -24.9626E+06     325.973E+03    -29.8797E-03     56.9753E-03    -27.0956E-03     101.931E-03    -30.3215E-03     57.5043E-03    -27.2264E-03     101.685E-03
            1645     13.1341E-03     43.0480E-03    -10.6382E+06    -19.2086E+06    -12.6604E+06     1.11666E+06    -28.6467E-03     55.8472E-03    -27.2005E-03     79.4472E-03    -28.8258E-03     55.9570E-03    -27.2205E-03     79.2839E-03
            1646     12.2632E-03     42.9752E-03    -10.8348E+06    -35.8541E+06    -5.89488E+06     812.944E+03    -28.6135E-03     55.8743E-03    -27.2608E-03     75.4680E-03    -28.7206E-03     55.8326E-03    -27.2225E-03     75.3348E-03
            1647     11.3857E-03     42.9055E-03    -10.9441E+06    -56.6844E+06    -6.82819E+06     576.315E+03    -28.4173E-03     55.7062E-03    -27.2890E-03     70.0205E-03    -28.4577E-03     55.5264E-03    -27.2250E-03     69.9118E-03
            1648     10.5096E-03     42.8426E-03    -11.1512E+06    -73.0943E+06    -6.10015E+06     523.914E+03    -28.4089E-03     55.7232E-03    -27.3144E-03     63.5293E-03    -28.4017E-03     55.4347E-03    -27.2227E-03     63.4441E-03
            1649     9.63437E-03     42.7842E-03    -12.0537E+06    -81.1576E+06    -2.47586E+06     309.980E+03    -28.3137E-03     55.6460E-03    -27.3323E-03     58.0561E-03    -28.2880E-03     55.2966E-03    -27.2095E-03     57.9876E-03
            1650     8.75850E-03     42.7320E-03    -12.9352E+06    -86.2438E+06    -1.53819E+06     422.358E+03    -28.0795E-03     55.4108E-03    -27.3313E-03     52.5260E-03    -28.0409E-03     55.0246E-03    -27.1952E-03     52.4748E-03
            1651     7.88276E-03     42.6840E-03    -14.2078E+06    -92.8878E+06    -2.62259E+06     351.522E+03    -27.8980E-03     55.2253E-03    -27.3273E-03     46.9895E-03    -27.8468E-03     54.8015E-03    -27.1851E-03     46.9498E-03
            1652     7.00695E-03     42.6420E-03    -15.5574E+06    -96.9556E+06    -4.05670E+06     227.328E+03    -27.7759E-03     55.0943E-03    -27.3184E-03     41.5679E-03    -27.7182E-03     54.6489E-03    -27.1755E-03     41.5363E-03
            1653     6.13113E-03     42.6046E-03    -17.1603E+06    -101.632E+06    -6.30725E+06     254.239E+03    -27.6613E-03     54.9660E-03    -27.3047E-03     36.1272E-03    -27.5979E-03     54.4991E-03    -27.1640E-03     36.1036E-03
            1654     5.25537E-03     42.5727E-03    -18.7888E+06    -106.491E+06    -8.93994E+06     241.330E+03    -27.5421E-03     54.8309E-03    -27.2888E-03     30.7597E-03    -27.4734E-03     54.3434E-03    -27.1519E-03     30.7421E-03
            1655     4.37946E-03     42.5457E-03    -20.4201E+06    -108.367E+06    -12.7408E+06     166.358E+03    -27.4435E-03     54.7067E-03    -27.2631E-03     25.5197E-03    -27.3730E-03     54.2158E-03    -27.1401E-03     25.5061E-03
            1656     3.50368E-03     42.5236E-03    -21.8900E+06    -110.472E+06    -16.7363E+06     137.208E+03    -27.3479E-03     54.5860E-03    -27.2382E-03     20.3139E-03    -27.2746E-03     54.0914E-03    -27.1299E-03     20.3040E-03
            1657     2.62772E-03     42.5067E-03    -23.1245E+06    -112.334E+06    -20.1722E+06     132.954E+03    -27.2802E-03     54.4982E-03    -27.2180E-03     15.2166E-03    -27.2046E-03     54.0002E-03    -27.1224E-03     15.2101E-03
            1658     1.75185E-03     42.4943E-03    -23.9985E+06    -113.703E+06    -22.6774E+06     131.648E+03    -27.2362E-03     54.4381E-03    -27.2019E-03     10.2067E-03    -27.1589E-03     53.9377E-03    -27.1156E-03     10.2031E-03
            1659     875.933E-06     42.4872E-03    -24.4522E+06    -114.496E+06    -24.1592E+06     69.6435E+03    -27.2130E-03     54.3928E-03    -27.1798E-03     5.46650E-03    -27.1343E-03     53.8910E-03    -27.0992E-03     5.46466E-03
            1660     16.6384E-03     42.8740E-03    -5.75238E+06     179.724E+06     103.910E+06    -247.126E+03    -50.6592E-03     78.1416E-03    -27.4824E-03     390.822E-03    -70.4705E-03     98.2691E-03    -27.2151E-03     400.252E-03
            1661     15.7657E-03     42.4830E-03    -9.98470E+06     128.021E+06     42.5668E+06        -525.508    -47.0051E-03     74.2836E-03    -27.2786E-03     325.465E-03    -57.1779E-03     84.7520E-03    -27.2369E-03     326.624E-03
            1662     14.8900E-03     42.2390E-03    -11.4832E+06     65.0629E+06    -16.8651E+06     871.841E+03    -35.5404E-03     62.6364E-03    -27.0961E-03     187.526E-03    -37.4353E-03     64.7706E-03    -27.2581E-03     187.218E-03
            1663     14.0087E-03     42.1239E-03    -11.7009E+06     15.0483E+06    -26.4926E+06     1.07540E+06    -29.7284E-03     56.8564E-03    -27.1281E-03     102.031E-03    -30.1696E-03     57.3864E-03    -27.2654E-03     101.797E-03
            1664     13.1405E-03     42.0471E-03    -11.5314E+06    -18.9323E+06    -13.4873E+06     692.100E+03    -28.9492E-03     56.1827E-03    -27.2335E-03     79.5544E-03    -29.1328E-03     56.2972E-03    -27.2567E-03     79.3833E-03
            1665     12.2599E-03     41.9738E-03    -10.8966E+06    -35.8659E+06    -6.26071E+06     343.805E+03    -28.7809E-03     56.0620E-03    -27.2811E-03     75.3462E-03    -28.8877E-03     56.0208E-03    -27.2446E-03     75.2059E-03
            1666     11.3855E-03     41.9044E-03    -10.7961E+06    -56.0989E+06    -6.78342E+06     526.674E+03    -28.7384E-03     56.0305E-03    -27.2921E-03     69.7241E-03    -28.7798E-03     55.8541E-03    -27.2291E-03     69.6127E-03
            1667     10.5104E-03     41.8407E-03    -11.2639E+06    -72.9413E+06    -6.25703E+06     540.728E+03    -28.5252E-03     55.8244E-03    -27.2992E-03     63.3492E-03    -28.5185E-03     55.5370E-03    -27.2084E-03     63.2639E-03
            1668     9.63432E-03     41.7835E-03    -11.9553E+06    -80.7946E+06    -2.69454E+06     473.556E+03    -28.3164E-03     55.6255E-03    -27.3091E-03     57.8298E-03    -28.2903E-03     55.2780E-03    -27.1881E-03     57.7635E-03
            1669     8.75872E-03     41.7302E-03    -13.1389E+06    -86.3907E+06    -2.06197E+06     357.295E+03    -28.1088E-03     55.4121E-03    -27.3033E-03     52.2727E-03    -28.0701E-03     55.0260E-03    -27.1693E-03     52.2207E-03
            1670     7.88308E-03     41.6834E-03    -14.2469E+06    -92.6436E+06    -2.73063E+06     403.808E+03    -27.9344E-03     55.2278E-03    -27.2934E-03     46.8726E-03    -27.8835E-03     54.8053E-03    -27.1521E-03     46.8336E-03
            1671     7.00713E-03     41.6407E-03    -15.7668E+06    -96.8913E+06    -4.13491E+06     361.411E+03    -27.8002E-03     55.0769E-03    -27.2767E-03     41.4104E-03    -27.7434E-03     54.6322E-03    -27.1341E-03     41.3806E-03
            1672     6.13154E-03     41.6037E-03    -17.2552E+06    -101.573E+06    -6.36455E+06     275.313E+03    -27.6467E-03     54.9026E-03    -27.2559E-03     35.9359E-03    -27.5837E-03     54.4362E-03    -27.1154E-03     35.9127E-03
            1673     5.25554E-03     41.5717E-03    -18.8556E+06    -106.395E+06    -9.10527E+06     249.428E+03    -27.5196E-03     54.7534E-03    -27.2338E-03     30.6331E-03    -27.4511E-03     54.2667E-03    -27.0978E-03     30.6156E-03
            1674     4.37984E-03     41.5447E-03    -20.4365E+06    -108.229E+06    -12.8606E+06     247.065E+03    -27.3986E-03     54.6025E-03    -27.2039E-03     25.3898E-03    -27.3281E-03     54.1125E-03    -27.0816E-03     25.3773E-03
            1675     3.50380E-03     41.5230E-03    -21.9445E+06    -110.415E+06    -16.7100E+06     222.362E+03    -27.2975E-03     54.4742E-03    -27.1767E-03     20.2320E-03    -27.2246E-03     53.9799E-03    -27.0684E-03     20.2233E-03
            1676     2.62797E-03     41.5057E-03    -23.1355E+06    -112.209E+06    -20.0296E+06     195.487E+03    -27.2230E-03     54.3770E-03    -27.1540E-03     15.1492E-03    -27.1479E-03     53.8795E-03    -27.0579E-03     15.1435E-03
            1677     1.75193E-03     41.4938E-03    -23.9900E+06    -113.538E+06    -22.5585E+06     78.8019E+03    -27.1684E-03     54.3052E-03    -27.1368E-03     10.1457E-03    -27.0914E-03     53.8054E-03    -27.0502E-03     10.1414E-03
            1678     875.984E-06     41.4861E-03    -24.4941E+06    -114.383E+06    -24.0647E+06    -4.83158E+03    -27.1434E-03     54.2624E-03    -27.1190E-03     5.41733E-03    -27.0653E-03     53.7611E-03    -27.0380E-03     5.41455E-03
            1679     16.6436E-03     41.8763E-03    -5.32861E+06     180.140E+06     104.586E+06    -395.669E+03    -50.5461E-03     78.0374E-03    -27.4912E-03     390.840E-03    -70.3224E-03     98.1309E-03    -27.2218E-03     400.272E-03
            1680     15.7639E-03     41.4795E-03    -10.5214E+06     127.276E+06     41.9040E+06     837.016E+03    -46.7180E-03     74.0191E-03    -27.3011E-03     326.519E-03    -56.9326E-03     84.5267E-03    -27.2609E-03     327.720E-03
            1681     14.8865E-03     41.2396E-03    -13.9455E+06     64.6564E+06    -19.2437E+06     1.69994E+06    -35.7794E-03     62.8993E-03    -27.1200E-03     187.758E-03    -37.6870E-03     65.0429E-03    -27.2897E-03     187.455E-03
            1682     14.0155E-03     41.1218E-03    -12.8778E+06     16.1362E+06    -27.1376E+06     464.505E+03    -29.9205E-03     57.0649E-03    -27.1444E-03     101.180E-03    -30.3671E-03     57.6019E-03    -27.2848E-03     100.934E-03
            1683     13.1331E-03     41.0452E-03    -10.6080E+06    -18.6396E+06    -13.1431E+06    -143.156E+03    -28.9442E-03     56.1897E-03    -27.2456E-03     78.5446E-03    -29.1235E-03     56.3033E-03    -27.2689E-03     78.3617E-03
            1684     12.2624E-03     40.9725E-03    -10.8675E+06    -36.0484E+06    -6.68757E+06     161.122E+03    -29.0465E-03     56.3271E-03    -27.2806E-03     74.9881E-03    -29.1528E-03     56.2861E-03    -27.2460E-03     74.8436E-03
            1685     11.3861E-03     40.9022E-03    -11.2568E+06    -56.3903E+06    -7.42232E+06     411.092E+03    -28.9198E-03     56.1931E-03    -27.2732E-03     69.2403E-03    -28.9622E-03     56.0168E-03    -27.2123E-03     69.1262E-03
            1686     10.5101E-03     40.8402E-03    -11.3990E+06    -72.9472E+06    -6.40316E+06     580.409E+03    -28.5947E-03     55.8638E-03    -27.2690E-03     63.0672E-03    -28.5885E-03     55.5767E-03    -27.1787E-03     62.9821E-03
            1687     9.63483E-03     40.7814E-03    -12.1051E+06    -80.5045E+06    -2.64391E+06     618.785E+03    -28.3071E-03     55.5804E-03    -27.2733E-03     57.5328E-03    -28.2820E-03     55.2342E-03    -27.1522E-03     57.4685E-03
            1688     8.75922E-03     40.7297E-03    -13.1291E+06    -86.2205E+06    -2.17743E+06     456.327E+03    -28.1002E-03     55.3633E-03    -27.2631E-03     52.0856E-03    -28.0615E-03     54.9782E-03    -27.1299E-03     52.0350E-03
            1689     7.88314E-03     40.6818E-03    -14.4159E+06    -92.7009E+06    -2.92680E+06     341.028E+03    -27.9974E-03     55.2425E-03    -27.2451E-03     46.6628E-03    -27.9470E-03     54.8203E-03    -27.1044E-03     46.6229E-03
            1690     7.00786E-03     40.6398E-03    -15.6243E+06    -96.6455E+06    -3.93024E+06     394.430E+03    -27.7914E-03     55.0111E-03    -27.2197E-03     41.1475E-03    -27.7345E-03     54.5670E-03    -27.0766E-03     41.1181E-03
            1691     6.13168E-03     40.6028E-03    -17.2200E+06    -101.531E+06    -6.39842E+06     324.658E+03    -27.6111E-03     54.8037E-03    -27.1926E-03     35.7800E-03    -27.5479E-03     54.3374E-03    -27.0524E-03     35.7575E-03
            1692     5.25611E-03     40.5708E-03    -18.8424E+06    -106.293E+06    -9.07502E+06     307.195E+03    -27.4709E-03     54.6377E-03    -27.1669E-03     30.4640E-03    -27.4025E-03     54.1514E-03    -27.0308E-03     30.4474E-03
            1693     4.37996E-03     40.5441E-03    -20.5372E+06    -108.123E+06    -12.7665E+06     304.281E+03    -27.3299E-03     54.4653E-03    -27.1353E-03     25.2680E-03    -27.2602E-03     53.9758E-03    -27.0126E-03     25.2563E-03
            1694     3.50417E-03     40.5221E-03    -21.9728E+06    -110.270E+06    -16.5675E+06     241.595E+03    -27.2351E-03     54.3419E-03    -27.1068E-03     20.1320E-03    -27.1628E-03     53.8481E-03    -26.9978E-03     20.1236E-03
            1695     2.62805E-03     40.5053E-03    -23.1588E+06    -112.014E+06    -19.8606E+06     131.958E+03    -27.1592E-03     54.2402E-03    -27.0810E-03     15.0768E-03    -27.0847E-03     53.7435E-03    -26.9844E-03     15.0703E-03
            1696     1.75214E-03     40.4929E-03    -23.9792E+06    -113.400E+06    -22.5115E+06     34.1998E+03    -27.0972E-03     54.1570E-03    -27.0599E-03     10.0958E-03    -27.0204E-03     53.6579E-03    -26.9732E-03     10.0910E-03
            1697     876.046E-06     40.4859E-03    -24.5045E+06    -114.375E+06    -24.2473E+06    -14.7312E+03    -27.0569E-03     54.1046E-03    -27.0477E-03     5.40200E-03    -26.9785E-03     53.6036E-03    -26.9676E-03     5.39910E-03
            1698     16.6389E-03     40.8729E-03    -6.97105E+06     177.539E+06     101.650E+06     596.852E+03    -50.1607E-03     77.6945E-03    -27.5337E-03     390.730E-03    -69.8690E-03     97.7135E-03    -27.2728E-03     400.238E-03
            1699     15.7633E-03     40.4809E-03    -12.3613E+06     127.071E+06     43.4227E+06     1.35450E+06    -47.4899E-03     74.8480E-03    -27.3581E-03     326.954E-03    -57.7297E-03     85.3691E-03    -27.3074E-03     328.117E-03
            1700     14.8886E-03     40.2358E-03    -12.2101E+06     68.0361E+06    -13.4664E+06    -46.5765E+03    -36.3969E-03     63.5479E-03    -27.1510E-03     187.070E-03    -38.3195E-03     65.7078E-03    -27.2993E-03     186.729E-03
            1701     14.0101E-03     40.1199E-03    -10.1494E+06     16.4972E+06    -25.3294E+06    -506.056E+03    -30.0929E-03     57.2251E-03    -27.1322E-03     100.687E-03    -30.5276E-03     57.7559E-03    -27.2680E-03     100.427E-03
            1702     13.1405E-03     40.0450E-03    -10.2205E+06    -19.0412E+06    -12.9313E+06     63.1419E+03    -29.1252E-03     56.3413E-03    -27.2160E-03     78.2464E-03    -29.3026E-03     56.4522E-03    -27.2383E-03     78.0646E-03
            1703     12.2604E-03     39.9696E-03    -10.5315E+06    -35.8985E+06    -6.29796E+06     314.999E+03    -29.0113E-03     56.2542E-03    -27.2430E-03     74.3759E-03    -29.1157E-03     56.2121E-03    -27.2071E-03     74.2338E-03
            1704     11.3861E-03     39.9015E-03    -11.2261E+06    -56.9598E+06    -7.47826E+06     441.440E+03    -28.8451E-03     56.0799E-03    -27.2348E-03     68.8337E-03    -28.8855E-03     55.8999E-03    -27.1733E-03     68.7209E-03
            1705     10.5111E-03     39.8379E-03    -11.5291E+06    -72.7544E+06    -6.36263E+06     569.201E+03    -28.6274E-03     55.8548E-03    -27.2274E-03     62.7004E-03    -28.6222E-03     55.5688E-03    -27.1370E-03     62.6148E-03
            1706     9.63541E-03     39.7810E-03    -12.0764E+06    -80.3187E+06    -2.55019E+06     574.431E+03    -28.2988E-03     55.5247E-03    -27.2259E-03     57.2976E-03    -28.2737E-03     55.1790E-03    -27.1047E-03     57.2330E-03
            1707     8.75921E-03     39.7282E-03    -12.9867E+06    -86.0746E+06    -1.94766E+06     532.464E+03    -28.1785E-03     55.3858E-03    -27.2073E-03     51.9295E-03    -28.1396E-03     55.0008E-03    -27.0734E-03     51.8797E-03
            1708     7.88424E-03     39.6808E-03    -14.2021E+06    -92.4038E+06    -2.76031E+06     395.965E+03    -27.9798E-03     55.1584E-03    -27.1786E-03     46.3250E-03    -27.9289E-03     54.7370E-03    -27.0378E-03     46.2858E-03
            1709     7.00791E-03     39.6390E-03    -15.7537E+06    -96.6745E+06    -4.24311E+06     300.789E+03    -27.7417E-03     54.8886E-03    -27.1469E-03     40.9460E-03    -27.6848E-03     54.4449E-03    -27.0051E-03     40.9157E-03
            1710     6.13250E-03     39.6018E-03    -17.1595E+06    -101.372E+06    -6.25512E+06     393.564E+03    -27.5682E-03     54.6854E-03    -27.1172E-03     35.5826E-03    -27.5050E-03     54.2196E-03    -26.9766E-03     35.5611E-03
            1711     5.25626E-03     39.5703E-03    -18.8310E+06    -106.250E+06    -8.90939E+06     360.034E+03    -27.3940E-03     54.4829E-03    -27.0889E-03     30.2961E-03    -27.3258E-03     53.9964E-03    -26.9520E-03     30.2804E-03
            1712     4.38053E-03     39.5433E-03    -20.4198E+06    -107.986E+06    -12.4746E+06     318.062E+03    -27.2645E-03     54.3200E-03    -27.0556E-03     25.1244E-03    -27.1948E-03     53.8307E-03    -26.9317E-03     25.1131E-03
            1713     3.50431E-03     39.5218E-03    -21.9110E+06    -110.010E+06    -16.4179E+06     193.652E+03    -27.1571E-03     54.1806E-03    -27.0235E-03     20.0127E-03    -27.0850E-03     53.6878E-03    -26.9143E-03     20.0038E-03
            1714     2.62840E-03     39.5046E-03    -23.0737E+06    -111.869E+06    -19.9451E+06     50.1060E+03    -27.0738E-03     54.0698E-03    -26.9960E-03     14.9789E-03    -26.9990E-03     53.5737E-03    -26.9000E-03     14.9715E-03
            1715     1.75219E-03     39.4928E-03    -23.9843E+06    -113.365E+06    -22.6567E+06     78.7105E+03    -27.0093E-03     53.9853E-03    -26.9760E-03     10.0304E-03    -26.9324E-03     53.4865E-03    -26.8902E-03     10.0263E-03
            1716     876.143E-06     39.4851E-03    -24.5448E+06    -114.279E+06    -24.2427E+06     83.9825E+03    -26.9632E-03     53.9403E-03    -26.9771E-03     5.39068E-03    -26.8852E-03     53.4398E-03    -26.8970E-03     5.38907E-03
            1717     16.6387E-03     39.8736E-03    -7.30748E+06     177.231E+06     102.799E+06     916.738E+03    -50.3516E-03     77.9284E-03    -27.5769E-03     390.818E-03    -70.0313E-03     97.9133E-03    -27.3093E-03     400.259E-03
            1718     15.7626E-03     39.4760E-03    -11.1816E+06     128.027E+06     44.7521E+06    -406.142E+03    -48.5473E-03     75.9076E-03    -27.3603E-03     325.467E-03    -58.8173E-03     86.4627E-03    -27.3060E-03     326.498E-03
            1719     14.8880E-03     39.2341E-03    -10.4294E+06     67.7035E+06    -15.6677E+06    -315.451E+03    -36.2449E-03     63.3443E-03    -27.0994E-03     185.301E-03    -38.1432E-03     65.4915E-03    -27.2608E-03     184.952E-03
            1720     14.0152E-03     39.1192E-03    -10.8828E+06     15.2818E+06    -27.8785E+06     248.397E+03    -30.0178E-03     57.1003E-03    -27.0825E-03     100.468E-03    -30.4458E-03     57.6248E-03    -27.2282E-03     100.221E-03
            1721     13.1347E-03     39.0413E-03    -11.1362E+06    -18.4056E+06    -13.0979E+06     262.077E+03    -29.3879E-03     56.5533E-03    -27.1654E-03     77.8083E-03    -29.5708E-03     56.6692E-03    -27.1880E-03     77.6274E-03
            1722     12.2642E-03     38.9695E-03    -10.7323E+06    -35.9700E+06    -6.68872E+06     506.901E+03    -28.9534E-03     56.1328E-03    -27.1794E-03     74.0070E-03    -29.0568E-03     56.0897E-03    -27.1451E-03     73.8688E-03
            1723     11.3869E-03     38.8994E-03    -10.8791E+06    -57.0658E+06    -7.67178E+06     551.027E+03    -28.6975E-03     55.8717E-03    -27.1742E-03     68.6767E-03    -28.7352E-03     55.6905E-03    -27.1140E-03     68.5664E-03
            1724     10.5114E-03     38.8367E-03    -11.4650E+06    -72.9994E+06    -6.69730E+06     475.284E+03    -28.5200E-03     55.6918E-03    -27.1718E-03     62.3404E-03    -28.5130E-03     55.4043E-03    -27.0828E-03     62.2545E-03
            1725     9.63544E-03     38.7800E-03    -11.9789E+06    -80.0438E+06    -2.47684E+06     502.809E+03    -28.4289E-03     55.5932E-03    -27.1644E-03     57.0870E-03    -28.4039E-03     55.2488E-03    -27.0433E-03     57.0210E-03
            1726     8.76068E-03     38.7266E-03    -13.0442E+06     -85.898E+06    -2.05293E+06     447.897E+03    -28.1877E-03     55.3192E-03    -27.1315E-03     51.5787E-03    -28.1491E-03     54.9353E-03    -26.9983E-03     51.5278E-03
            1727     7.88425E-03     38.6803E-03    -14.1577E+06    -92.3251E+06    -2.98919E+06     499.841E+03    -27.8902E-03     54.9879E-03    -27.0977E-03     46.1058E-03    -27.8386E-03     54.5670E-03    -26.9583E-03     46.0685E-03
            1728     7.00896E-03     38.6378E-03    -15.5961E+06    -96.4882E+06    -4.15360E+06     498.698E+03    -27.6998E-03     54.7647E-03    -27.0649E-03     40.7471E-03    -27.6425E-03     54.3215E-03    -26.9231E-03     40.7195E-03
            1729     6.13268E-03     38.6015E-03    -17.3701E+06    -101.385E+06    -6.25124E+06     400.095E+03    -27.4898E-03     54.5218E-03    -27.0320E-03     35.3855E-03    -27.4276E-03     54.0561E-03    -26.8910E-03     35.3644E-03
            1730     5.25701E-03     38.5694E-03    -19.0148E+06    -106.020E+06    -8.86219E+06     364.512E+03    -27.3263E-03     54.3268E-03    -27.0005E-03     30.1493E-03    -27.2593E-03     53.8417E-03    -26.8635E-03     30.1339E-03
            1731     4.38071E-03     38.5431E-03    -20.5747E+06    -107.824E+06    -12.6726E+06     170.623E+03    -27.1850E-03     54.1475E-03    -26.9625E-03     24.9963E-03    -27.1160E-03     53.6594E-03    -26.8397E-03     24.9833E-03
            1732     3.50483E-03     38.5211E-03    -21.8177E+06    -109.868E+06    -16.4958E+06     116.964E+03    -27.0702E-03     53.9984E-03    -26.9282E-03     19.9062E-03    -26.9977E-03     53.5063E-03    -26.8197E-03     19.8965E-03
            1733     2.62853E-03     38.5046E-03    -23.0483E+06    -111.817E+06    -20.0735E+06     184.649E+03    -26.9767E-03     53.8765E-03    -26.8998E-03     14.8928E-03    -26.9016E-03     53.3808E-03    -26.8046E-03     14.8872E-03
            1734     1.75246E-03     38.4922E-03    -24.0236E+06    -113.253E+06    -22.6311E+06     127.841E+03    -26.9143E-03     53.7948E-03    -26.8805E-03     9.96023E-03    -26.8378E-03     53.2965E-03    -26.7946E-03     9.95681E-03
            1735     876.177E-06     38.4853E-03    -24.4916E+06    -114.101E+06    -24.1550E+06     47.6701E+03    -26.8663E-03     53.7483E-03    -26.8820E-03     5.34791E-03    -26.7884E-03     53.2485E-03    -26.8018E-03     5.34591E-03
            1736     16.6386E-03     38.8727E-03    -5.04886E+06     179.554E+06     104.993E+06     848.272E+03    -51.7948E-03     79.3323E-03    -27.5374E-03     389.750E-03    -71.4313E-03     99.2837E-03    -27.2655E-03     398.964E-03
            1737     15.7654E-03     38.4714E-03    -10.1902E+06     127.890E+06     43.7121E+06     284.159E+03    -48.0614E-03     75.3369E-03    -27.2755E-03     324.521E-03    -58.2729E-03     85.8395E-03    -27.2276E-03     325.525E-03
            1738     14.8908E-03     38.2345E-03    -13.1321E+06     66.1947E+06    -17.6302E+06     100.495E+03    -36.0088E-03     63.0373E-03    -27.0285E-03     184.844E-03    -37.8968E-03     65.1649E-03    -27.1936E-03     184.513E-03
            1739     14.0115E-03     38.1165E-03    -10.6179E+06     15.8804E+06    -26.5365E+06     618.723E+03    -30.1986E-03     57.2137E-03    -27.0151E-03     100.291E-03    -30.6317E-03     57.7425E-03    -27.1554E-03     100.044E-03
            1740     13.1422E-03     38.0398E-03    -9.98412E+06    -19.3264E+06    -13.1416E+06     696.835E+03    -29.0256E-03     56.1185E-03    -27.0929E-03     77.0582E-03    -29.1987E-03     56.2255E-03    -27.1161E-03     76.8858E-03
            1741     12.2617E-03     37.9682E-03    -10.8462E+06    -35.4626E+06    -6.97548E+06     579.748E+03    -28.8898E-03     56.0038E-03    -27.1141E-03     73.8045E-03    -28.9938E-03     55.9636E-03    -27.0818E-03     73.6675E-03
            1742     11.3881E-03     37.8976E-03    -11.0720E+06    -56.8011E+06    -8.23276E+06     459.346E+03    -28.6814E-03     55.7870E-03    -27.1056E-03     68.5809E-03    -28.7196E-03     55.6081E-03    -27.0483E-03     68.4696E-03
            1743     10.5119E-03     37.8367E-03    -11.6637E+06    -72.6917E+06    -6.85085E+06     566.394E+03    -28.5365E-03     55.6357E-03    -27.0992E-03     62.1772E-03    -28.5303E-03     55.3499E-03    -27.0111E-03     62.0929E-03
            1744     9.63698E-03     37.7773E-03    -12.5472E+06    -80.2134E+06    -3.15990E+06     519.188E+03    -28.4134E-03     55.4965E-03    -27.0831E-03     56.8437E-03    -28.3898E-03     55.1528E-03    -26.9644E-03     56.7782E-03
            1745     8.76076E-03     37.7268E-03    -13.3825E+06    -85.8398E+06    -2.54228E+06     488.131E+03    -28.1077E-03     55.1544E-03    -27.0467E-03     51.2931E-03    -28.0698E-03     54.7716E-03    -26.9155E-03     51.2432E-03
            1746     7.88544E-03     37.6787E-03    -14.7171E+06    -92.1537E+06    -3.51592E+06     464.013E+03    -27.8467E-03     54.8563E-03    -27.0096E-03     45.9478E-03    -27.7973E-03     54.4377E-03    -26.8722E-03     45.9104E-03
            1747     7.00922E-03     37.6377E-03    -15.8286E+06    -96.5780E+06    -4.35474E+06     433.060E+03    -27.6201E-03     54.5948E-03    -26.9747E-03     40.5386E-03    -27.5634E-03     54.1516E-03    -26.8334E-03     40.5106E-03
            1748     6.13354E-03     37.6005E-03    -17.1746E+06    -101.110E+06    -6.31905E+06     538.434E+03    -27.4220E-03     54.3604E-03    -26.9384E-03     35.2107E-03    -27.3590E-03     53.8958E-03    -26.7985E-03     35.1917E-03
            1749     5.25725E-03     37.5695E-03    -18.8576E+06    -105.700E+06    -8.90659E+06     305.544E+03    -27.2521E-03     54.1552E-03    -26.9031E-03     29.9867E-03    -27.1847E-03     53.6714E-03    -26.7670E-03     29.9708E-03
            1750     4.38138E-03     37.5424E-03    -20.4183E+06    -107.598E+06    -12.7772E+06     103.090E+03    -27.0985E-03     53.9599E-03    -26.8613E-03     24.8539E-03    -27.0288E-03     53.4728E-03    -26.7396E-03     24.8403E-03
            1751     3.50500E-03     37.5213E-03    -21.9956E+06    -110.005E+06    -16.8479E+06     163.752E+03    -26.9719E-03     53.7965E-03    -26.8246E-03     19.7878E-03    -26.8996E-03     53.3045E-03    -26.7175E-03     19.7789E-03
            1752     2.62892E-03     37.5041E-03    -23.1832E+06    -111.668E+06    -19.8648E+06     208.807E+03    -26.8805E-03     53.6766E-03    -26.7961E-03     14.7992E-03    -26.8065E-03     53.1815E-03    -26.6999E-03     14.7941E-03
            1753     1.75255E-03     37.4926E-03    -23.9651E+06    -113.053E+06    -22.4943E+06     93.4611E+03    -26.8167E-03     53.5879E-03    -26.7712E-03     9.89873E-03    -26.7404E-03     53.0904E-03    -26.6850E-03     9.89494E-03
            1754     876.342E-06     37.4848E-03    -24.4956E+06    -114.008E+06    -24.1879E+06     53.8318E+03    -26.7616E-03     53.5224E-03    -26.7607E-03     5.29036E-03    -26.6838E-03     53.0231E-03    -26.6808E-03     5.28848E-03
            1755     16.6439E-03     37.8683E-03    -5.80554E+06     177.891E+06     102.870E+06     708.963E+03    -52.1315E-03     79.5971E-03    -27.4656E-03     388.925E-03    -71.6490E-03     99.4273E-03    -27.2008E-03     398.039E-03
            1756     15.7667E-03     37.4738E-03    -9.54574E+06     128.518E+06     44.2233E+06     1.57627E+06    -47.8515E-03     75.0627E-03    -27.2112E-03     326.215E-03    -58.0872E-03     85.5925E-03    -27.1626E-03     327.318E-03
            1757     14.8881E-03     37.2307E-03    -10.6680E+06     67.9135E+06    -12.9370E+06    -38.8678E+03    -36.4127E-03     63.3936E-03    -26.9809E-03     185.179E-03    -38.3033E-03     65.5251E-03    -27.1286E-03     184.830E-03
            1758     14.0190E-03     37.1148E-03    -10.6271E+06     15.2482E+06    -25.1532E+06     639.427E+03    -30.0472E-03     56.9952E-03    -26.9480E-03     99.9513E-03    -30.4794E-03     57.5168E-03    -27.0805E-03     99.7064E-03
            1759     13.1365E-03     37.0396E-03    -10.1736E+06    -19.7168E+06    -14.2911E+06     1.46461E+06    -28.7885E-03     55.8099E-03    -27.0214E-03     77.6901E-03    -28.9590E-03     55.9157E-03    -27.0495E-03     77.5304E-03
            1760     12.2658E-03     36.9656E-03    -10.1761E+06    -34.6068E+06    -6.45724E+06     783.706E+03    -28.8780E-03     55.9308E-03    -27.0528E-03     73.8565E-03    -28.9806E-03     55.8931E-03    -27.0202E-03     73.7221E-03
            1761     11.3880E-03     36.8980E-03    -11.0475E+06    -56.2049E+06    -8.39652E+06     625.239E+03    -28.7967E-03     55.8295E-03    -27.0328E-03     68.1868E-03    -28.8350E-03     55.6534E-03    -26.9773E-03     68.0774E-03
            1762     10.5134E-03     36.8338E-03    -11.7417E+06    -73.1035E+06    -7.46312E+06     656.168E+03    -28.5754E-03     55.5883E-03    -27.0129E-03     62.1526E-03    -28.5678E-03     55.3011E-03    -26.9272E-03     62.0698E-03
            1763     9.63719E-03     36.7780E-03    -12.3538E+06    -79.9115E+06    -2.87439E+06     613.711E+03    -28.2765E-03     55.2733E-03    -26.9968E-03     56.5952E-03    -28.2522E-03     54.9298E-03    -26.8774E-03     56.5320E-03
            1764     8.76185E-03     36.7245E-03    -13.4780E+06    -85.8214E+06    -2.63627E+06     552.035E+03    -28.0217E-03     54.9827E-03    -26.9610E-03     51.0951E-03    -27.9838E-03     54.6000E-03    -26.8302E-03     51.0468E-03
            1765     7.88588E-03     36.6791E-03    -14.6557E+06    -91.9502E+06    -3.19515E+06     530.561E+03    -27.8173E-03     54.7390E-03    -26.9216E-03     45.7398E-03    -27.7681E-03     54.3206E-03    -26.7830E-03     45.7036E-03
            1766     7.01012E-03     36.6364E-03    -16.3019E+06    -96.5089E+06    -4.98519E+06     414.712E+03    -27.5590E-03     54.4358E-03    -26.8768E-03     40.3392E-03    -27.5036E-03     53.9944E-03    -26.7382E-03     40.3114E-03
            1767     6.13394E-03     36.6008E-03    -17.6980E+06    -100.969E+06    -7.16998E+06     307.411E+03    -27.3516E-03     54.1860E-03    -26.8344E-03     35.0072E-03    -27.2901E-03     53.7240E-03    -26.6982E-03     34.9856E-03
            1768     5.25802E-03     36.5687E-03    -18.9248E+06    -105.262E+06    -9.44321E+06     202.214E+03    -27.1749E-03     53.9693E-03    -26.7944E-03     29.8051E-03    -27.1076E-03     53.4885E-03    -26.6616E-03     29.7881E-03
            1769     4.38166E-03     36.5429E-03    -20.5095E+06    -107.749E+06    -12.8863E+06     242.496E+03    -27.0105E-03     53.7611E-03    -26.7506E-03     24.6602E-03    -26.9409E-03     53.2735E-03    -26.6291E-03     24.6485E-03
            1770     3.50555E-03     36.5209E-03    -21.9826E+06    -109.769E+06    -16.6309E+06     257.380E+03    -26.8739E-03     53.5837E-03    -26.7098E-03     19.6239E-03    -26.8022E-03     53.0925E-03    -26.6019E-03     19.6163E-03
            1771     2.62912E-03     36.5046E-03    -23.1248E+06    -111.585E+06    -20.0156E+06     33.3906E+03    -26.7679E-03     53.4438E-03    -26.6759E-03     14.6715E-03    -26.6936E-03     52.9493E-03    -26.5807E-03     14.6643E-03
            1772     1.75284E-03     36.4923E-03    -23.9547E+06    -112.967E+06    -22.5752E+06     109.291E+03    -26.6992E-03     53.3483E-03    -26.6491E-03     9.82279E-03    -26.6228E-03     52.8513E-03    -26.5634E-03     9.81928E-03
            1773     876.415E-06     36.4856E-03    -24.5289E+06    -113.867E+06    -24.1885E+06     103.188E+03    -26.6415E-03     53.2762E-03    -26.6347E-03     5.22182E-03    -26.5641E-03     52.7777E-03    -26.5550E-03     5.22063E-03
            1774     16.6409E-03     36.8703E-03    -5.67420E+06     177.341E+06     102.448E+06    -37.4524E+03    -52.4901E-03     79.9707E-03    -27.4806E-03     389.302E-03    -72.0243E-03     99.8174E-03    -27.2173E-03     398.373E-03
            1775     15.7637E-03     36.4686E-03    -9.36975E+06     128.168E+06     42.8004E+06    -720.364E+03    -49.0176E-03     76.1952E-03    -27.1776E-03     325.105E-03    -59.2612E-03     86.7365E-03    -27.1358E-03     326.012E-03
            1776     14.8948E-03     36.2292E-03    -10.5558E+06     67.0317E+06    -13.4246E+06     1.50463E+06    -35.9551E-03     62.8813E-03    -26.9262E-03     184.995E-03    -37.8306E-03     64.9962E-03    -27.0752E-03     184.676E-03
            1777     14.0123E-03     36.1138E-03    -12.2675E+06     15.9138E+06    -24.2317E+06     2.25291E+06    -29.9150E-03     56.8294E-03    -26.9144E-03     100.472E-03    -30.3537E-03     57.3514E-03    -27.0409E-03     100.251E-03
            1778     13.1435E-03     36.0381E-03    -12.3922E+06    -18.1832E+06    -14.4221E+06     687.370E+03    -29.0334E-03     56.0091E-03    -26.9757E-03     77.4387E-03    -29.2173E-03     56.1263E-03    -27.0035E-03     77.2670E-03
            1779     12.2629E-03     35.9649E-03    -11.7026E+06    -35.0982E+06    -7.38261E+06     763.063E+03    -28.8854E-03     55.8780E-03    -26.9925E-03     74.1114E-03    -28.9921E-03     55.8399E-03    -26.9616E-03     73.9784E-03
            1780     11.3902E-03     35.8955E-03    -11.6388E+06    -56.0942E+06    -8.48082E+06     774.211E+03    -28.9313E-03     55.8959E-03    -26.9646E-03     68.2770E-03    -28.9725E-03     55.7212E-03    -26.9088E-03     68.1693E-03
            1781     10.5136E-03     35.8342E-03    -11.6723E+06    -73.0730E+06    -7.60286E+06     554.196E+03    -28.5957E-03     55.5272E-03    -26.9315E-03     61.9920E-03    -28.5872E-03     55.2399E-03    -26.8466E-03     61.9083E-03
            1782     9.63861E-03     35.7757E-03    -12.1752E+06    -80.0958E+06    -2.79057E+06     683.039E+03    -28.1958E-03     55.1076E-03    -26.9118E-03     56.4230E-03    -28.1699E-03     54.7622E-03    -26.7920E-03     56.3618E-03
            1783     8.76245E-03     35.7253E-03    -13.1236E+06    -85.2843E+06    -2.38846E+06     679.809E+03    -27.9884E-03     54.8608E-03    -26.8723E-03     51.0279E-03    -27.9495E-03     54.4795E-03    -26.7416E-03     50.9820E-03
            1784     7.88664E-03     35.6773E-03    -14.2705E+06    -92.2795E+06    -3.49426E+06     541.122E+03    -27.7894E-03     54.6141E-03    -26.8247E-03     45.4343E-03    -27.7371E-03     54.1937E-03    -26.6877E-03     45.3987E-03
            1785     7.01077E-03     35.6370E-03    -15.5219E+06    -96.0659E+06    -4.47017E+06     795.107E+03    -27.5215E-03     54.2954E-03    -26.7739E-03     40.0321E-03    -27.4635E-03     53.8542E-03    -26.6344E-03     40.0095E-03
            1786     6.13472E-03     35.5998E-03    -17.3717E+06    -100.552E+06    -7.11128E+06     361.562E+03    -27.2899E-03     54.0115E-03    -26.7216E-03     34.7710E-03    -27.2273E-03     53.5510E-03    -26.5862E-03     34.7505E-03
            1787     5.25849E-03     35.5693E-03    -19.1519E+06    -105.295E+06    -9.57938E+06     135.646E+03    -27.0955E-03     53.7701E-03    -26.6745E-03     29.5316E-03    -27.0291E-03     53.2896E-03    -26.5420E-03     29.5140E-03
            1788     4.38234E-03     35.5424E-03    -20.6018E+06    -107.698E+06    -12.9692E+06     189.392E+03    -26.9149E-03     53.5383E-03    -26.6234E-03     24.4375E-03    -26.8456E-03     53.0512E-03    -26.5022E-03     24.4254E-03
            1789     3.50593E-03     35.5216E-03    -21.7861E+06    -109.619E+06    -16.7136E+06     120.869E+03    -26.7634E-03     53.3390E-03    -26.5756E-03     19.4298E-03    -26.6907E-03     52.8483E-03    -26.4686E-03     19.4205E-03
            1790     2.62957E-03     35.5046E-03    -22.9567E+06    -111.492E+06    -20.2598E+06     251.798E+03    -26.6377E-03     53.1745E-03    -26.5368E-03     14.5329E-03    -26.5623E-03     52.6806E-03    -26.4432E-03     14.5286E-03
            1791     1.75304E-03     35.4932E-03    -24.0087E+06    -112.906E+06    -22.7857E+06     189.264E+03    -26.5546E-03     53.0657E-03    -26.5111E-03     9.73370E-03    -26.4782E-03     52.5694E-03    -26.4265E-03     9.73130E-03
            1792     876.529E-06     35.4855E-03    -24.4458E+06    -113.619E+06    -24.1596E+06     75.6239E+03    -26.5033E-03     53.0055E-03    -26.5023E-03     5.15252E-03    -26.4258E-03     52.5081E-03    -26.4229E-03     5.15101E-03
            1793     16.6368E-03     35.8602E-03    -6.17644E+06     177.500E+06     102.588E+06    -675.989E+03    -52.7798E-03     80.2510E-03    -27.4712E-03     386.970E-03    -72.3238E-03     100.106E-03    -27.2067E-03     396.018E-03
            1794     15.7720E-03     35.4659E-03    -10.0348E+06     126.506E+06     40.4525E+06     272.888E+03    -48.3497E-03     75.4933E-03    -27.1435E-03     322.686E-03    -58.3777E-03     85.8173E-03    -27.1102E-03     323.605E-03
            1795     14.8884E-03     35.2308E-03    -13.1588E+06     66.2052E+06    -16.4129E+06     1.67382E+06    -35.7339E-03     62.6416E-03    -26.9077E-03     186.524E-03    -37.6152E-03     64.7588E-03    -27.0667E-03     186.225E-03
            1796     14.0190E-03     35.1100E-03    -12.3076E+06     17.3729E+06    -24.2368E+06     1.24937E+06    -30.4225E-03     57.3216E-03    -26.8992E-03     100.742E-03    -30.8669E-03     57.8544E-03    -27.0277E-03     100.503E-03
            1797     13.1382E-03     35.0376E-03    -10.4418E+06    -17.8369E+06    -13.4105E+06     884.672E+03    -29.3322E-03     56.2691E-03    -26.9369E-03     77.0474E-03    -29.5076E-03     56.3830E-03    -26.9630E-03     76.8763E-03
            1798     12.2672E-03     34.9633E-03    -11.1766E+06    -34.4922E+06    -6.80949E+06     666.036E+03    -29.0001E-03     55.9356E-03    -26.9355E-03     74.0308E-03    -29.1056E-03     55.8986E-03    -26.9033E-03     73.8966E-03
            1799     11.3890E-03     34.8948E-03    -11.6516E+06    -56.3750E+06    -8.42475E+06     585.531E+03    -28.8462E-03     55.7478E-03    -26.9016E-03     68.1977E-03    -28.8858E-03     55.5704E-03    -26.8451E-03     68.0893E-03
            1800     10.5153E-03     34.8319E-03    -11.7273E+06    -73.1337E+06    -7.68037E+06     686.270E+03    -28.6120E-03     55.4765E-03    -26.8646E-03     61.7095E-03    -28.6032E-03     55.1887E-03    -26.7799E-03     61.6279E-03
            1801     9.63877E-03     34.7765E-03    -12.2470E+06    -80.0123E+06    -3.29745E+06     604.298E+03    -28.2942E-03     55.1250E-03    -26.8308E-03     56.4403E-03    -28.2678E-03     54.7806E-03    -26.7135E-03     56.3785E-03
            1802     8.76326E-03     34.7233E-03    -13.1096E+06    -85.1453E+06    -2.51867E+06     689.036E+03    -28.0759E-03     54.8513E-03    -26.7754E-03     50.6850E-03    -28.0368E-03     54.4707E-03    -26.6455E-03     50.6393E-03
            1803     7.88766E-03     34.6779E-03    -14.2539E+06    -92.0304E+06    -3.69360E+06     614.446E+03    -27.7412E-03     54.4549E-03    -26.7137E-03     45.0444E-03    -27.6887E-03     54.0358E-03    -26.5781E-03     45.0102E-03
            1804     7.01151E-03     34.6360E-03    -15.4058E+06    -96.3346E+06    -4.32157E+06     555.112E+03    -27.4810E-03     54.1370E-03    -26.6560E-03     39.7034E-03    -27.4221E-03     53.6940E-03    -26.5156E-03     39.6780E-03
            1805     6.13551E-03     34.6006E-03    -16.5014E+06    -99.9188E+06    -6.01851E+06     810.472E+03    -27.2404E-03     53.8351E-03    -26.5947E-03     34.3953E-03    -27.1759E-03     53.3747E-03    -26.4560E-03     34.3807E-03
            1806     5.25931E-03     34.5689E-03    -18.3551E+06    -105.085E+06    -9.10182E+06     451.842E+03    -26.9981E-03     53.5335E-03    -26.5354E-03     29.2184E-03    -26.9285E-03     53.0521E-03    -26.4019E-03     29.2051E-03
            1807     4.38293E-03     34.5433E-03    -20.1746E+06    -107.560E+06    -13.2819E+06     175.322E+03    -26.7983E-03     53.2724E-03    -26.4741E-03     24.1661E-03    -26.7266E-03     52.7857E-03    -26.3553E-03     24.1539E-03
            1808     3.50650E-03     34.5216E-03    -21.8076E+06    -109.737E+06    -17.2537E+06     333.645E+03    -26.6271E-03     53.0480E-03    -26.4209E-03     19.2110E-03    -26.5536E-03     52.5575E-03    -26.3164E-03     19.2048E-03
            1809     2.62994E-03     34.5057E-03    -23.1122E+06    -111.327E+06    -20.1919E+06     419.753E+03    -26.4947E-03     52.8747E-03    -26.3799E-03     14.3554E-03    -26.4204E-03     52.3816E-03    -26.2860E-03     14.3533E-03
            1810     1.75333E-03     34.4935E-03    -23.8641E+06    -112.547E+06    -22.6602E+06     303.838E+03    -26.3954E-03     52.7459E-03    -26.3505E-03     9.61680E-03    -26.3190E-03     52.2510E-03    -26.2660E-03     9.61595E-03
            1811     876.684E-06     34.4868E-03    -24.4382E+06    -113.420E+06    -24.2009E+06     84.8697E+03    -26.3330E-03     52.6827E-03    -26.3497E-03     5.09667E-03    -26.2557E-03     52.1863E-03    -26.2708E-03     5.09531E-03
            1812     16.6481E-03     34.8519E-03    -6.07923E+06     176.614E+06     101.753E+06    -18.3526E+03    -51.5695E-03     79.0078E-03    -27.4383E-03     389.315E-03    -71.2015E-03     98.9502E-03    -27.1768E-03     398.515E-03
            1813     15.7625E-03     34.4705E-03    -10.0375E+06     127.082E+06     42.8531E+06     1.47766E+06    -47.5864E-03     74.7780E-03    -27.1916E-03     323.937E-03    -57.6061E-03     85.0889E-03    -27.1471E-03     325.085E-03
            1814     14.8930E-03     34.2237E-03    -10.3808E+06     65.9283E+06    -14.6428E+06     962.989E+03    -37.1025E-03     64.0416E-03    -26.9391E-03     186.443E-03    -38.9905E-03     66.1693E-03    -27.0928E-03     186.092E-03
            1815     14.0136E-03     34.1114E-03    -9.97829E+06     16.0595E+06    -25.8446E+06     815.701E+03    -30.6186E-03     57.4894E-03    -26.8708E-03     99.9224E-03    -31.0440E-03     58.0114E-03    -27.0089E-03     99.6754E-03
            1816     13.1437E-03     34.0331E-03    -10.6950E+06    -16.8353E+06    -13.9645E+06     1.51260E+06    -29.4477E-03     56.3490E-03    -26.9013E-03     76.9998E-03    -29.6231E-03     56.4670E-03    -26.9312E-03     76.8383E-03
            1817     12.2649E-03     33.9639E-03    -10.6863E+06    -34.7048E+06    -7.68558E+06     834.600E+03    -29.3262E-03     56.2065E-03    -26.8803E-03     73.7775E-03    -29.4282E-03     56.1696E-03    -26.8529E-03     73.6434E-03
            1818     11.3918E-03     33.8922E-03    -10.5026E+06    -56.4006E+06    -8.48176E+06     808.396E+03    -28.8558E-03     55.6887E-03    -26.8329E-03     68.1213E-03    -28.8888E-03     55.5088E-03    -26.7783E-03     68.0168E-03
            1819     10.5146E-03     33.8324E-03    -10.8763E+06    -72.5561E+06    -7.05324E+06     873.845E+03    -28.6575E-03     55.4479E-03    -26.7904E-03     61.1856E-03    -28.6455E-03     55.1602E-03    -26.7047E-03     61.1069E-03
            1820     9.63989E-03     33.7743E-03    -11.8171E+06    -79.6568E+06    -3.30920E+06     760.776E+03    -28.5064E-03     55.2403E-03    -26.7339E-03     55.7428E-03    -28.4783E-03     54.8971E-03    -26.6178E-03     55.6821E-03
            1821     8.76456E-03     33.7236E-03    -13.2854E+06    -85.4026E+06    -2.78971E+06     700.884E+03    -28.0474E-03     54.7064E-03    -26.6590E-03     50.0883E-03    -28.0081E-03     54.3248E-03    -26.5299E-03     50.0432E-03
            1822     7.88838E-03     33.6770E-03    -14.5535E+06    -91.5313E+06    -3.49527E+06     754.801E+03    -27.7214E-03     54.3084E-03    -26.5870E-03     44.6557E-03    -27.6712E-03     53.8917E-03    -26.4506E-03     44.6237E-03
            1823     7.01263E-03     33.6365E-03    -16.2330E+06    -96.3681E+06    -5.01367E+06     588.247E+03    -27.4441E-03     53.9565E-03    -26.5124E-03     39.2549E-03    -27.3881E-03     53.5153E-03    -26.3742E-03     39.2302E-03
            1824     6.13643E-03     33.6002E-03    -17.8879E+06    -99.8814E+06    -7.91127E+06     596.976E+03    -27.1382E-03     53.5722E-03    -26.4340E-03     33.9797E-03    -27.0778E-03     53.1167E-03    -26.3028E-03     33.9626E-03
            1825     5.26014E-03     33.5699E-03    -18.9306E+06    -104.416E+06    -10.7340E+06     556.562E+03    -26.8852E-03     53.2500E-03    -26.3647E-03     28.8674E-03    -26.8171E-03     52.7751E-03    -26.2396E-03     28.8557E-03
            1826     4.38368E-03     33.5435E-03    -20.3712E+06    -107.761E+06    -13.7269E+06     589.398E+03    -26.6592E-03     52.9611E-03    -26.3018E-03     23.8425E-03    -26.5875E-03     52.4743E-03    -26.1847E-03     23.8360E-03
            1827     3.50711E-03     33.5229E-03    -21.9182E+06    -109.499E+06    -17.1162E+06     648.228E+03    -26.4724E-03     52.7162E-03    -26.2438E-03     18.9328E-03    -26.3999E-03     52.2268E-03    -26.1388E-03     18.9308E-03
            1828     2.63041E-03     33.5062E-03    -23.0263E+06    -111.035E+06    -20.1864E+06     395.788E+03    -26.3245E-03     52.5206E-03    -26.1960E-03     14.1478E-03    -26.2502E-03     52.0289E-03    -26.1026E-03     14.1456E-03
            1829     1.75369E-03     33.4950E-03    -23.8541E+06    -112.255E+06    -22.5305E+06     311.631E+03    -26.2095E-03     52.3740E-03    -26.1644E-03     9.47486E-03    -26.1337E-03     51.8803E-03    -26.0797E-03     9.47421E-03
            1830     876.812E-06     33.4874E-03    -24.2769E+06    -113.029E+06    -24.0626E+06     241.634E+03    -26.1457E-03     52.3090E-03    -26.1633E-03     5.10386E-03    -26.0684E-03     51.8142E-03    -26.0845E-03     5.10454E-03
            1831     16.6355E-03     33.8581E-03    -4.93835E+06     176.560E+06     102.525E+06     459.452E+03    -50.9974E-03     78.4850E-03    -27.4876E-03     389.508E-03    -70.5684E-03     98.3680E-03    -27.2238E-03     398.723E-03
            1832     15.7659E-03     33.4605E-03    -10.1002E+06     125.742E+06     41.3178E+06     191.108E+03    -48.5992E-03     75.8183E-03    -27.2191E-03     322.572E-03    -58.6441E-03     86.1539E-03    -27.1802E-03     323.557E-03
            1833     14.8897E-03     33.2239E-03    -11.6490E+06     64.9113E+06    -15.9492E+06     1.40881E+06    -37.4107E-03     64.3317E-03    -26.9210E-03     184.393E-03    -39.2838E-03     66.4402E-03    -27.0780E-03     184.034E-03
            1834     14.0194E-03     33.1068E-03    -11.7988E+06     17.3654E+06    -25.3048E+06     1.69948E+06    -30.7224E-03     57.5596E-03    -26.8373E-03     98.8466E-03    -31.1554E-03     58.0859E-03    -26.9719E-03     98.6104E-03
            1835     13.1393E-03     33.0340E-03    -10.6971E+06    -15.9727E+06    -14.1594E+06     804.869E+03    -29.5126E-03     56.3636E-03    -26.8511E-03     76.4213E-03    -29.6874E-03     56.4848E-03    -26.8832E-03     76.2506E-03
            1836     12.2678E-03     32.9596E-03    -10.4630E+06    -35.7219E+06    -8.11885E+06     885.378E+03    -29.3926E-03     56.2139E-03    -26.8213E-03     72.9780E-03    -29.4907E-03     56.1716E-03    -26.7949E-03     72.8442E-03
            1837     11.3909E-03     32.8932E-03    -10.8411E+06    -56.0726E+06    -8.48306E+06     1.04679E+06    -29.1893E-03     55.9417E-03    -26.7524E-03     67.3574E-03    -29.2248E-03     55.7643E-03    -26.6978E-03     67.2539E-03
            1838     10.5168E-03     32.8299E-03    -11.2000E+06    -72.3135E+06    -7.28012E+06     960.191E+03    -28.8719E-03     55.5494E-03    -26.6775E-03     60.6796E-03    -28.8613E-03     55.2635E-03    -26.5928E-03     60.6015E-03
            1839     9.64147E-03     32.7741E-03    -12.0323E+06    -79.7159E+06    -3.57109E+06     1.18631E+06    -28.4141E-03     55.0183E-03    -26.6042E-03     55.0178E-03    -28.3861E-03     54.6749E-03    -26.4890E-03     54.9633E-03
            1840     8.76531E-03     32.7229E-03    -12.8578E+06    -84.9665E+06    -2.82100E+06     1.05351E+06    -28.0246E-03     54.5444E-03    -26.5198E-03     49.6004E-03    -27.9833E-03     54.1641E-03    -26.3921E-03     49.5603E-03
            1841     7.88982E-03     32.6772E-03    -14.3907E+06    -91.4707E+06    -3.59767E+06     1.01105E+06    -27.7163E-03     54.1495E-03    -26.4331E-03     44.0820E-03    -27.6650E-03     53.7328E-03    -26.2976E-03     44.0535E-03
            1842     7.01375E-03     32.6363E-03    -15.8660E+06    -95.8970E+06    -4.76561E+06     966.824E+03    -27.3487E-03     53.6941E-03    -26.3454E-03     38.7334E-03    -27.2918E-03     53.2542E-03    -26.2072E-03     38.7140E-03
            1843     6.13752E-03     32.6011E-03    -17.3185E+06    -99.5765E+06    -7.73592E+06     522.806E+03    -27.0308E-03     53.2869E-03    -26.2561E-03     33.5281E-03    -26.9682E-03     52.8317E-03    -26.1252E-03     33.5105E-03
            1844     5.26113E-03     32.5701E-03    -19.0203E+06    -104.484E+06    -10.7165E+06     631.564E+03    -26.7486E-03     52.9258E-03    -26.1772E-03     28.4439E-03    -26.6807E-03     52.4505E-03    -26.0517E-03     28.4335E-03
            1845     4.38456E-03     32.5449E-03    -20.6076E+06    -107.584E+06    -13.5784E+06     821.189E+03    -26.5024E-03     52.6077E-03    -26.1053E-03     23.4881E-03    -26.4323E-03     52.1219E-03    -25.9873E-03     23.4848E-03
            1846     3.50784E-03     32.5236E-03    -21.8382E+06    -109.082E+06    -16.8593E+06     588.695E+03    -26.2900E-03     52.3291E-03    -26.0391E-03     18.6494E-03    -26.2181E-03     51.8412E-03    -25.9335E-03     18.6467E-03
            1847     2.63101E-03     32.5080E-03    -22.8995E+06    -110.702E+06    -20.0860E+06     473.706E+03    -26.1217E-03     52.1075E-03    -25.9858E-03     13.9344E-03    -26.0473E-03     51.6170E-03    -25.8925E-03     13.9334E-03
            1848     1.75401E-03     32.4960E-03    -23.7460E+06    -111.952E+06    -22.5001E+06     294.666E+03    -25.9979E-03     51.9500E-03    -25.9522E-03     9.32439E-03    -25.9220E-03     51.4577E-03    -25.8679E-03     9.32362E-03
            1849     877.026E-06     32.4895E-03    -24.2107E+06    -112.627E+06    -23.7748E+06     163.994E+03    -25.9474E-03     51.8849E-03    -25.9375E-03     5.09870E-03    -25.8708E-03     51.3915E-03    -25.8579E-03     5.09838E-03
            1850     16.6427E-03     32.8494E-03    -5.38618E+06     176.174E+06     101.435E+06     289.576E+03    -51.7248E-03     79.2077E-03    -27.4829E-03     388.279E-03    -71.2482E-03     99.0433E-03    -27.2234E-03     397.385E-03
            1851     15.7667E-03     32.4622E-03    -10.9432E+06     125.461E+06     40.7536E+06     1.59800E+06    -49.2002E-03     76.3748E-03    -27.1746E-03     322.242E-03    -59.2263E-03     86.6892E-03    -27.1369E-03     323.179E-03
            1852     14.8932E-03     32.2184E-03    -12.9930E+06     66.0456E+06    -15.9648E+06     1.16461E+06    -37.3503E-03     64.2075E-03    -26.8572E-03     183.152E-03    -39.2151E-03     66.3070E-03    -27.0139E-03     182.791E-03
            1853     14.0152E-03     32.1063E-03    -10.6067E+06     17.6357E+06    -24.8901E+06     136.583E+03    -30.7244E-03     57.4908E-03    -26.7664E-03     97.4574E-03    -31.1473E-03     58.0109E-03    -26.9010E-03     97.2015E-03
            1854     13.1454E-03     32.0307E-03    -9.76668E+06    -17.1380E+06    -13.4065E+06     960.586E+03    -29.6462E-03     56.4181E-03    -26.7718E-03     75.7712E-03    -29.8151E-03     56.5303E-03    -26.7999E-03     75.6015E-03
            1855     12.2669E-03     31.9597E-03    -10.4634E+06    -34.3566E+06    -6.97057E+06     1.19850E+06    -29.4763E-03     56.2023E-03    -26.7260E-03     72.0952E-03    -29.5772E-03     56.1643E-03    -26.6959E-03     71.9649E-03
            1856     11.3934E-03     31.8904E-03    -11.1915E+06    -55.9432E+06    -8.80393E+06     1.10709E+06    -29.2813E-03     55.9164E-03    -26.6352E-03     66.6377E-03    -29.3176E-03     55.7400E-03    -26.5819E-03     66.5349E-03
            1857     10.5181E-03     31.8293E-03    -11.4828E+06    -72.8586E+06    -8.13068E+06     1.14721E+06    -28.8801E-03     55.4232E-03    -26.5431E-03     60.1896E-03    -28.8684E-03     55.1356E-03    -26.4614E-03     60.1145E-03
            1858     9.64227E-03     31.7737E-03    -11.7117E+06    -79.5082E+06    -3.40670E+06     1.14960E+06    -28.4360E-03     54.8942E-03    -26.4582E-03     54.5441E-03    -28.4064E-03     54.5507E-03    -26.3430E-03     54.4897E-03
            1859     8.76710E-03     31.7225E-03    -12.8139E+06    -84.5262E+06    -2.80919E+06     1.40184E+06    -28.0586E-03     54.4127E-03    -26.3541E-03     48.8982E-03    -28.0176E-03     54.0343E-03    -26.2270E-03     48.8627E-03
            1860     7.89123E-03     31.6772E-03    -13.8396E+06    -91.2958E+06    -3.75704E+06     1.18572E+06    -27.6141E-03     53.8644E-03    -26.2503E-03     43.4901E-03    -27.5597E-03     53.4477E-03    -26.1167E-03     43.4646E-03
            1861     7.01503E-03     31.6370E-03    -14.8439E+06    -95.3230E+06    -4.09779E+06     804.474E+03    -27.2457E-03     53.4002E-03    -26.1545E-03     38.2089E-03    -27.1852E-03     52.9605E-03    -26.0152E-03     38.1879E-03
            1862     6.13884E-03     31.6015E-03    -16.2392E+06    -99.5442E+06    -5.74481E+06     890.171E+03    -26.9027E-03     52.9632E-03    -26.0605E-03     33.0067E-03    -26.8374E-03     52.5036E-03    -25.9214E-03     32.9942E-03
            1863     5.26225E-03     31.5717E-03    -18.2593E+06    -104.650E+06    -9.06051E+06     1.23948E+06    -26.5890E-03     52.5588E-03    -25.9698E-03     27.9937E-03    -26.5193E-03     52.0791E-03    -25.8369E-03     27.9915E-03
            1864     4.38555E-03     31.5459E-03    -20.1408E+06    -106.826E+06    -13.2501E+06     948.352E+03    -26.3088E-03     52.1908E-03    -25.8820E-03     23.1116E-03    -26.2379E-03     51.7075E-03    -25.7641E-03     23.1103E-03
            1865     3.50864E-03     31.5257E-03    -21.6711E+06    -108.800E+06    -16.8592E+06     619.620E+03    -26.0828E-03     51.8915E-03    -25.8087E-03     18.3510E-03    -26.0104E-03     51.4048E-03    -25.7038E-03     18.3490E-03
            1866     2.63159E-03     31.5093E-03    -22.8479E+06    -110.288E+06    -19.8005E+06     466.813E+03    -25.8999E-03     51.6509E-03    -25.7510E-03     13.6899E-03    -25.8263E-03     51.1621E-03    -25.6569E-03     13.6889E-03
            1867     1.75447E-03     31.4984E-03    -23.6132E+06    -111.521E+06    -22.2309E+06     277.984E+03    -25.7793E-03     51.4867E-03    -25.7075E-03     9.16339E-03    -25.7037E-03     50.9959E-03    -25.6227E-03     9.16252E-03
            1868     877.240E-06     31.4909E-03    -24.1295E+06    -112.430E+06    -23.9250E+06     138.562E+03    -25.7022E-03     51.3794E-03    -25.6773E-03     5.01019E-03    -25.6252E-03     50.8871E-03    -25.5989E-03     5.00962E-03
            1869     16.6403E-03     31.8508E-03    -6.20929E+06     175.216E+06     100.536E+06     1.20357E+06    -52.4159E-03     79.8541E-03    -27.4382E-03     389.676E-03    -71.9045E-03     99.6511E-03    -27.1806E-03     398.658E-03
            1870     15.7655E-03     31.4545E-03    -11.6165E+06     126.465E+06     43.2608E+06     1.08072E+06    -49.5665E-03     76.6934E-03    -27.1269E-03     322.800E-03    -59.6541E-03     87.0633E-03    -27.0772E-03     323.728E-03
            1871     14.8932E-03     31.2164E-03    -11.4778E+06     66.7849E+06    -15.0074E+06    -202.095E+03    -37.5633E-03     64.3416E-03    -26.7783E-03     181.406E-03    -39.4109E-03     66.4292E-03    -26.9335E-03     181.019E-03
            1872     14.0218E-03     31.1047E-03    -10.5581E+06     15.9089E+06    -28.0714E+06     487.662E+03    -30.6786E-03     57.3350E-03    -26.6565E-03     96.9816E-03    -31.0877E-03     57.8446E-03    -26.8046E-03     96.7324E-03
            1873     13.1418E-03     31.0286E-03    -11.0215E+06    -17.2126E+06    -14.4216E+06     1.19699E+06    -29.7302E-03     56.3935E-03    -26.6634E-03     75.4596E-03    -29.9029E-03     56.5078E-03    -26.6946E-03     75.2930E-03
            1874     12.2707E-03     30.9581E-03    -10.5135E+06    -34.2056E+06    -7.56811E+06     1.30260E+06    -29.6729E-03     56.2718E-03    -26.5990E-03     71.8182E-03    -29.7722E-03     56.2344E-03    -26.5720E-03     71.6894E-03
            1875     11.3945E-03     30.8891E-03    -10.2950E+06    -55.8282E+06    -8.65077E+06     1.32775E+06    -29.2615E-03     55.7552E-03    -26.4937E-03     66.0755E-03    -29.2929E-03     55.5769E-03    -26.4410E-03     65.9763E-03
            1876     10.5191E-03     30.8289E-03    -10.9228E+06    -72.3886E+06    -7.72332E+06     1.24183E+06    -28.8519E-03     55.2434E-03    -26.3915E-03     59.4029E-03    -28.8377E-03     54.9558E-03    -26.3093E-03     59.3300E-03
            1877     9.64437E-03     30.7725E-03    -11.7194E+06    -79.4183E+06    -3.67534E+06     1.10243E+06    -28.5256E-03     54.8111E-03    -26.2856E-03     53.7134E-03    -28.4954E-03     54.4681E-03    -26.1718E-03     53.6585E-03
            1878     8.76884E-03     30.7228E-03    -12.5761E+06    -84.6023E+06    -2.69711E+06     1.28024E+06    -27.9711E-03     54.1355E-03    -26.1644E-03     48.2237E-03    -27.9284E-03     53.7556E-03    -26.0370E-03     48.1875E-03
            1879     7.89262E-03     30.6776E-03    -13.5360E+06    -90.6107E+06    -3.55153E+06     1.20985E+06    -27.5236E-03     53.5706E-03    -26.0470E-03     42.9270E-03    -27.4687E-03     53.1563E-03    -25.9138E-03     42.9024E-03
            1880     7.01677E-03     30.6375E-03    -15.0293E+06    -94.9986E+06    -4.59263E+06     929.420E+03    -27.1193E-03     53.0548E-03    -25.9356E-03     37.6304E-03    -27.0592E-03     52.6175E-03    -25.7990E-03     37.6117E-03
            1881     6.14011E-03     30.6030E-03    -16.9091E+06    -99.9516E+06    -6.32965E+06     1.23465E+06    -26.7442E-03     52.5750E-03    -25.8308E-03     32.5001E-03    -26.6806E-03     52.1149E-03    -25.6930E-03     32.4926E-03
            1882     5.26359E-03     30.5728E-03    -18.4061E+06    -104.358E+06    -9.11583E+06     1.39499E+06    -26.4037E-03     52.1338E-03    -25.7300E-03     27.5033E-03    -26.3351E-03     51.6557E-03    -25.5976E-03     27.5036E-03
            1883     4.38660E-03     30.5481E-03    -19.8782E+06    -106.085E+06    -12.8346E+06     1.24818E+06    -26.0971E-03     51.7309E-03    -25.6338E-03     22.7014E-03    -26.0264E-03     51.2503E-03    -25.5154E-03     22.7044E-03
            1884     3.50955E-03     30.5273E-03    -21.3578E+06    -108.233E+06    -16.5784E+06     818.822E+03    -25.8511E-03     51.4034E-03    -25.5524E-03     17.9951E-03    -25.7782E-03     50.9186E-03    -25.4473E-03     17.9960E-03
            1885     2.63231E-03     30.5121E-03    -22.5469E+06    -109.856E+06    -19.7209E+06     467.990E+03    -25.6578E-03     51.1443E-03    -25.4865E-03     13.4255E-03    -25.5834E-03     50.6570E-03    -25.3931E-03     13.4248E-03
            1886     1.75494E-03     30.5003E-03    -23.4747E+06    -111.190E+06    -22.1990E+06     348.805E+03    -25.5231E-03     50.9584E-03    -25.4353E-03     9.01351E-03    -25.4474E-03     50.4689E-03    -25.3510E-03     9.01367E-03
            1887     877.542E-06     30.4940E-03    -24.0952E+06    -112.056E+06    -23.7546E+06     333.391E+03    -25.4235E-03     50.8273E-03    -25.4038E-03     4.88973E-03    -25.3472E-03     50.3366E-03    -25.3251E-03     4.89178E-03
            1888     16.6424E-03     30.8512E-03     -5.5284E+06     175.824E+06     102.992E+06     1.28263E+06    -53.8655E-03     81.2508E-03    -27.3853E-03     386.650E-03    -73.0866E-03     100.778E-03    -27.1172E-03     395.300E-03
            1889     15.7695E-03     30.4489E-03    -9.67562E+06     126.183E+06     43.0123E+06     427.056E+03    -49.2356E-03     76.2492E-03    -27.0135E-03     321.517E-03    -59.2668E-03     86.5692E-03    -26.9674E-03     322.352E-03
            1890     14.8955E-03     30.2151E-03    -11.5407E+06     66.4618E+06    -17.9591E+06     681.415E+03    -36.8359E-03     63.5083E-03    -26.6724E-03     180.596E-03    -38.6407E-03     65.5602E-03    -26.8418E-03     180.243E-03
            1891     14.0180E-03     30.1009E-03    -11.5413E+06     16.2131E+06    -28.3660E+06     1.35610E+06    -31.1251E-03     57.6875E-03    -26.5624E-03     96.6458E-03    -31.5409E-03     58.2021E-03    -26.7110E-03     96.4025E-03
            1892     13.1484E-03     30.0288E-03    -10.1559E+06    -17.5688E+06    -14.3498E+06     952.508E+03    -29.9485E-03     56.4888E-03    -26.5403E-03     74.7618E-03    -30.1151E-03     56.5985E-03    -26.5718E-03     74.5906E-03
            1893     12.2698E-03     29.9547E-03    -10.2591E+06    -34.2283E+06    -7.15668E+06     1.19438E+06    -29.6506E-03     56.1116E-03    -26.4610E-03     71.2376E-03    -29.7478E-03     56.0716E-03    -26.4323E-03     71.1086E-03
            1894     11.3968E-03     29.8892E-03    -10.8878E+06    -55.5224E+06    -8.56484E+06     1.44209E+06    -29.4196E-03     55.7560E-03    -26.3365E-03     65.1885E-03    -29.4535E-03     55.5791E-03    -26.2830E-03     65.0907E-03
            1895     10.5217E-03     29.8273E-03    -11.2495E+06    -72.0273E+06    -8.06866E+06     1.39554E+06    -28.9255E-03     55.1322E-03    -26.2067E-03     58.7861E-03    -28.9123E-03     54.8467E-03    -26.1262E-03     58.7156E-03
            1896     9.64630E-03     29.7726E-03    -11.8516E+06    -79.4622E+06    -4.06085E+06     1.29001E+06    -28.3379E-03     54.4261E-03    -26.0882E-03     53.0647E-03    -28.3068E-03     54.0826E-03    -25.9761E-03     53.0139E-03
            1897     8.77021E-03     29.7229E-03    -12.5284E+06    -84.5739E+06    -3.12770E+06     1.12626E+06    -27.9128E-03     53.8700E-03    -25.9572E-03     47.6321E-03    -27.8687E-03     53.4903E-03    -25.8320E-03     47.5948E-03
            1898     7.89485E-03     29.6781E-03    -13.6255E+06    -90.3497E+06    -3.45637E+06     1.27497E+06    -27.4551E-03     53.2800E-03    -25.8249E-03     42.2584E-03    -27.4008E-03     52.8666E-03    -25.6914E-03     42.2353E-03
            1899     7.01809E-03     29.6390E-03    -15.1023E+06    -94.8195E+06    -4.73036E+06     1.54935E+06    -26.9813E-03     52.6772E-03    -25.6959E-03     37.0302E-03    -26.9213E-03     52.2407E-03    -25.5602E-03     37.0202E-03
            1900     6.14187E-03     29.6041E-03    -16.7165E+06    -99.9297E+06    -6.88916E+06     1.42377E+06    -26.5721E-03     52.1475E-03    -25.5754E-03     31.8979E-03    -26.5065E-03     51.6879E-03    -25.4407E-03     31.8934E-03
            1901     5.26483E-03     29.5751E-03    -18.3783E+06    -103.989E+06    -9.04471E+06     1.37434E+06    -26.1961E-03     51.6620E-03    -25.4659E-03     26.9906E-03    -26.1278E-03     51.1855E-03    -25.3336E-03     26.9911E-03
            1902     4.38790E-03     29.5499E-03    -19.8131E+06    -105.470E+06    -12.5067E+06     1.17926E+06    -25.8729E-03     51.2323E-03    -25.3594E-03     22.2460E-03    -25.8031E-03     50.7541E-03    -25.2403E-03     22.2484E-03
            1903     3.51053E-03     29.5304E-03    -20.9995E+06    -107.575E+06    -16.3871E+06     968.126E+03    -25.5937E-03     50.8610E-03    -25.2672E-03     17.6311E-03    -25.5203E-03     50.3786E-03    -25.1628E-03     17.6342E-03
            1904     2.63308E-03     29.5143E-03    -22.2018E+06    -109.444E+06    -19.8003E+06     772.235E+03    -25.3833E-03     50.5770E-03    -25.1937E-03     13.1479E-03    -25.3076E-03     50.0914E-03    -25.1018E-03     13.1513E-03
            1905     1.75546E-03     29.5039E-03    -23.2046E+06    -110.742E+06    -22.1628E+06     577.774E+03    -25.2303E-03     50.3699E-03    -25.1396E-03     8.81571E-03    -25.1540E-03     49.8823E-03    -25.0562E-03     8.81898E-03
            1906     877.713E-06     29.4963E-03    -23.7342E+06    -111.386E+06    -23.4505E+06     286.562E+03    -25.1152E-03     50.2365E-03    -25.1213E-03     4.75013E-03    -25.0384E-03     49.7481E-03    -25.0426E-03     4.75164E-03
            1907     16.6457E-03     29.8431E-03    -6.27368E+06     174.809E+06     101.533E+06    -147.968E+03    -54.9179E-03     82.2440E-03    -27.3261E-03     385.390E-03    -74.0290E-03     101.659E-03    -27.0628E-03     393.807E-03
            1908     15.7721E-03     29.4506E-03    -9.57383E+06     126.986E+06     44.1921E+06     1.15663E+06    -49.4316E-03     76.3571E-03    -26.9255E-03     322.137E-03    -59.4361E-03     86.6503E-03    -26.8748E-03     322.971E-03
            1909     14.8945E-03     29.2115E-03    -10.6552E+06     66.6152E+06    -14.8683E+06     1.40125E+06    -36.8447E-03     63.4327E-03    -26.5880E-03     180.931E-03    -38.6342E-03     65.4640E-03    -26.7435E-03     180.587E-03
            1910     14.0242E-03     29.0992E-03    -9.70727E+06     16.2197E+06    -26.3170E+06     1.46285E+06    -31.3195E-03     57.7802E-03    -26.4607E-03     95.8926E-03    -31.7262E-03     58.2864E-03    -26.6017E-03     95.6488E-03
            1911     13.1456E-03     29.0255E-03    -9.96739E+06    -17.4137E+06    -14.3026E+06     1.74742E+06    -30.2729E-03     56.6768E-03    -26.4040E-03     73.9049E-03    -30.4375E-03     56.7857E-03    -26.4358E-03     73.7423E-03
            1912     12.2747E-03     28.9549E-03    -10.3872E+06    -33.8296E+06    -7.46057E+06     1.37897E+06    -29.7218E-03     56.0196E-03    -26.2977E-03     70.7090E-03    -29.8183E-03     55.9807E-03    -26.2709E-03     70.5832E-03
            1913     11.3979E-03     28.8867E-03    -10.8667E+06    -55.4049E+06    -8.89053E+06     1.48496E+06    -29.3853E-03     55.5437E-03    -26.1584E-03     64.7259E-03    -29.4174E-03     55.3662E-03    -26.1067E-03     64.6304E-03
            1914     10.5238E-03     28.8272E-03    -11.1592E+06    -72.0582E+06    -8.30879E+06     1.63286E+06    -28.8996E-03     54.9151E-03    -26.0155E-03     58.1229E-03    -28.8845E-03     54.6288E-03    -25.9364E-03     58.0566E-03
            1915     9.64781E-03     28.7728E-03    -11.6545E+06    -79.0263E+06    -3.99804E+06     1.38407E+06    -28.3210E-03     54.2019E-03    -25.8809E-03     52.4860E-03    -28.2889E-03     53.8594E-03    -25.7694E-03     52.4376E-03
            1916     8.77278E-03     28.7229E-03    -12.8588E+06    -84.3196E+06    -3.55087E+06     1.35874E+06    -27.8431E-03     53.5736E-03    -25.7305E-03     46.8896E-03    -27.7999E-03     53.1957E-03    -25.6073E-03     46.8562E-03
            1917     7.89614E-03     28.6795E-03    -13.9833E+06    -90.5368E+06    -4.14603E+06     1.36973E+06    -27.3632E-03     52.9427E-03    -25.5794E-03     41.5271E-03    -27.3090E-03     52.5294E-03    -25.4486E-03     41.5061E-03
            1918     7.02040E-03     28.6400E-03    -15.1051E+06    -94.7534E+06    -4.76437E+06     1.62011E+06    -26.8600E-03     52.2939E-03    -25.4339E-03     36.3068E-03    -26.7998E-03     51.8575E-03    -25.2984E-03     36.2984E-03
            1919     6.14332E-03     28.6066E-03    -16.4586E+06    -99.4611E+06    -6.88007E+06     1.75678E+06    -26.3757E-03     51.6722E-03    -25.2965E-03     31.2605E-03    -26.3093E-03     51.2143E-03    -25.1628E-03     31.2610E-03
            1920     5.26655E-03     28.5770E-03    -18.0165E+06    -103.434E+06    -9.00677E+06     1.40177E+06    -25.9762E-03     51.1499E-03    -25.1737E-03     26.4155E-03    -25.9068E-03     50.6754E-03    -25.0426E-03     26.4168E-03
            1921     4.38911E-03     28.5532E-03    -19.4804E+06    -104.953E+06    -12.6219E+06     1.11150E+06    -25.6145E-03     50.6697E-03    -25.0552E-03     21.7418E-03    -25.5436E-03     50.1936E-03    -24.9378E-03     21.7438E-03
            1922     3.51168E-03     28.5330E-03    -20.9003E+06    -107.251E+06    -16.5542E+06     1.12828E+06    -25.3173E-03     50.2708E-03    -24.9535E-03     17.2113E-03    -25.2436E-03     49.7901E-03    -24.8504E-03     17.2169E-03
            1923     2.63389E-03     28.5183E-03    -22.0798E+06    -108.796E+06    -19.4743E+06     1.10570E+06    -25.0814E-03     49.9546E-03    -24.8732E-03     12.8302E-03    -25.0064E-03     49.4715E-03    -24.7808E-03     12.8382E-03
            1924     1.75605E-03     28.5068E-03    -22.8909E+06    -109.992E+06    -21.7760E+06     720.391E+03    -24.9122E-03     49.7249E-03    -24.8127E-03     8.57855E-03    -24.8359E-03     49.2400E-03    -24.7289E-03     8.58385E-03
            1925     878.088E-06     28.5009E-03    -23.3201E+06    -110.643E+06    -23.1430E+06     351.598E+03    -24.7851E-03     49.5769E-03    -24.7918E-03     4.63267E-03    -24.7078E-03     49.0912E-03    -24.7133E-03     4.63508E-03
            1926     16.6421E-03     28.8369E-03    -7.44752E+06     173.224E+06     100.141E+06    -444.299E+03    -54.6784E-03     82.0386E-03    -27.3603E-03     385.738E-03    -73.7440E-03     101.402E-03    -27.0999E-03     394.150E-03
            1927     15.7691E-03     28.4449E-03    -10.5080E+06     126.126E+06     43.8928E+06    -212.142E+03    -50.7954E-03     77.7259E-03    -26.9305E-03     320.385E-03    -60.7348E-03     87.9486E-03    -26.8787E-03     321.078E-03
            1928     14.8999E-03     28.2103E-03    -11.0318E+06     66.0654E+06    -15.1775E+06     1.21136E+06    -37.8730E-03     64.3874E-03    -26.5144E-03     180.925E-03    -39.6724E-03     66.4262E-03    -26.6701E-03     180.555E-03
            1929     14.0213E-03     28.0962E-03    -11.6534E+06     16.0106E+06    -28.4225E+06     2.35285E+06    -31.6747E-03     58.0064E-03    -26.3317E-03     96.0559E-03    -32.0846E-03     58.5143E-03    -26.4802E-03     95.8219E-03
            1930     13.1519E-03     28.0234E-03    -10.8030E+06    -16.0558E+06    -15.2583E+06     1.70908E+06    -30.3461E-03     56.6003E-03    -26.2542E-03     72.7229E-03    -30.5124E-03     56.7154E-03    -26.2915E-03     72.5606E-03
            1931     12.2740E-03     27.9535E-03    -10.5722E+06    -34.2636E+06    -8.51020E+06     1.58188E+06    -29.8659E-03     55.9948E-03    -26.1290E-03     70.3554E-03    -29.9595E-03     55.9540E-03    -26.1065E-03     70.2332E-03
            1932     11.4013E-03     27.8858E-03    -10.4424E+06    -55.3778E+06    -9.05039E+06     1.70626E+06    -29.4257E-03     55.3976E-03    -25.9719E-03     64.1433E-03    -29.4542E-03     55.2187E-03    -25.9217E-03     64.0518E-03
            1933     10.5250E-03     27.8271E-03    -10.5818E+06    -71.5619E+06    -8.05034E+06     1.80547E+06    -28.8640E-03     54.6769E-03    -25.8129E-03     57.1431E-03    -28.8458E-03     54.3905E-03    -25.7341E-03     57.0805E-03
            1934     9.65076E-03     27.7722E-03    -11.5760E+06    -78.6355E+06    -4.26662E+06     1.76696E+06    -28.3665E-03     54.0217E-03    -25.6552E-03     51.6794E-03    -28.3334E-03     53.6807E-03    -25.5457E-03     51.6367E-03
            1935     8.77428E-03     27.7245E-03    -12.5798E+06    -83.9565E+06    -3.49719E+06     1.61671E+06    -27.8147E-03     53.2957E-03    -25.4810E-03     46.0886E-03    -27.7701E-03     52.9186E-03    -25.3585E-03     46.0595E-03
            1936     7.89888E-03     27.6800E-03    -14.0297E+06    -90.2855E+06    -4.48830E+06     1.70137E+06    -27.2467E-03     52.5538E-03    -25.3071E-03     40.6334E-03    -27.1922E-03     52.1420E-03    -25.1783E-03     40.6175E-03
            1937     7.02196E-03     27.6426E-03    -15.5634E+06    -94.8285E+06    -5.58043E+06     1.64223E+06    -26.6849E-03     51.8274E-03    -25.1425E-03     35.4870E-03    -26.6254E-03     51.3922E-03    -25.0104E-03     35.4796E-03
            1938     6.14545E-03     27.6085E-03    -16.7682E+06    -98.8106E+06    -7.35737E+06     1.57696E+06    -26.1877E-03     51.1758E-03    -24.9881E-03     30.5371E-03    -26.1229E-03     50.7220E-03    -24.8573E-03     30.5359E-03
            1939     5.26806E-03     27.5805E-03    -17.7634E+06    -102.742E+06    -9.66296E+06     1.31425E+06    -25.7270E-03     50.5744E-03    -24.8474E-03     25.7569E-03    -25.6562E-03     50.1039E-03    -24.7210E-03     25.7578E-03
            1940     4.39070E-03     27.5561E-03    -19.2255E+06    -104.862E+06    -12.8947E+06     1.41098E+06    -25.3369E-03     50.0557E-03    -24.7188E-03     21.1679E-03    -25.2644E-03     49.5800E-03    -24.6033E-03     21.1741E-03
            1941     3.51282E-03     27.5373E-03    -20.7614E+06    -106.674E+06    -16.3209E+06     1.46639E+06    -25.0101E-03     49.6174E-03    -24.6074E-03     16.7229E-03    -24.9367E-03     49.1390E-03    -24.5042E-03     16.7332E-03
            1942     2.63489E-03     27.5217E-03    -21.9128E+06    -108.037E+06    -19.0837E+06     1.07344E+06    -24.7475E-03     49.2653E-03    -24.5179E-03     12.4692E-03    -24.6733E-03     48.7852E-03    -24.4249E-03     12.4770E-03
            1943     1.75666E-03     27.5117E-03    -22.6015E+06    -109.110E+06    -21.3074E+06     747.054E+03    -24.5538E-03     49.0058E-03    -24.4520E-03     8.32684E-03    -24.4780E-03     48.5242E-03    -24.3675E-03     8.33266E-03
            1944     878.331E-06     27.5045E-03    -23.0472E+06    -109.876E+06    -22.7615E+06     353.411E+03    -24.4396E-03     48.8514E-03    -24.4118E-03     4.51839E-03    -24.3626E-03     48.3686E-03    -24.3329E-03     4.52090E-03
            1945     16.6405E-03     27.8305E-03    -5.71393E+06     174.521E+06     101.419E+06     407.369E+03    -54.7878E-03     82.1594E-03    -27.3716E-03     383.384E-03    -73.7378E-03     101.415E-03    -27.1093E-03     391.746E-03
            1946     15.7719E-03     27.4370E-03    -10.4259E+06     124.622E+06     41.3137E+06    -187.585E+03    -50.7728E-03     77.6739E-03    -26.9011E-03     316.697E-03    -60.5117E-03     87.6984E-03    -26.8601E-03     317.374E-03
            1947     14.8956E-03     27.2086E-03    -13.3962E+06     64.5997E+06    -18.9385E+06     1.41677E+06    -38.8415E-03     65.2749E-03    -26.4333E-03     179.336E-03    -40.6374E-03     67.3075E-03    -26.6023E-03     178.947E-03
            1948     14.0278E-03     27.0909E-03    -12.6973E+06     16.5024E+06    -28.9006E+06     1.54669E+06    -32.2191E-03     58.4236E-03    -26.2046E-03     94.3782E-03    -32.6296E-03     58.9316E-03    -26.3546E-03     94.1275E-03
            1949     13.1499E-03     27.0234E-03    -10.9528E+06    -15.9543E+06    -15.3377E+06     1.22813E+06    -30.2565E-03     56.3583E-03    -26.1018E-03     71.9641E-03    -30.4195E-03     56.4702E-03    -26.1395E-03     71.7985E-03
            1950     12.2784E-03     26.9508E-03    -10.4821E+06    -33.6213E+06    -8.70692E+06     1.74840E+06    -30.0340E-03     55.9932E-03    -25.9592E-03     69.7630E-03    -30.1266E-03     55.9545E-03    -25.9388E-03     69.6432E-03
            1951     11.4022E-03     26.8858E-03    -10.6403E+06    -55.7342E+06    -9.75193E+06     1.77648E+06    -29.5959E-03     55.3695E-03    -25.7736E-03     63.2588E-03    -29.6226E-03     55.1888E-03    -25.7262E-03     63.1687E-03
            1952     10.5287E-03     26.8261E-03    -10.8602E+06    -71.4473E+06    -8.52001E+06     1.95847E+06    -28.9729E-03     54.5582E-03    -25.5852E-03     56.3311E-03    -28.9547E-03     54.2724E-03    -25.5085E-03     56.2712E-03
            1953     9.65212E-03     26.7737E-03    -11.2894E+06    -78.0625E+06    -4.19619E+06     2.05474E+06    -28.3675E-03     53.7686E-03    -25.4011E-03     50.6870E-03    -28.3331E-03     53.4291E-03    -25.2925E-03     50.6490E-03
            1954     8.77739E-03     26.7243E-03    -12.3171E+06    -83.8100E+06    -3.71129E+06     1.92896E+06    -27.7681E-03     52.9686E-03    -25.2006E-03     45.0070E-03    -27.7214E-03     52.5915E-03    -25.0797E-03     44.9828E-03
            1955     7.90081E-03     26.6828E-03    -13.4512E+06    -90.0550E+06    -4.56039E+06     2.02104E+06    -27.1034E-03     52.1076E-03    -25.0042E-03     39.6599E-03    -27.0456E-03     51.6956E-03    -24.8769E-03     39.6492E-03
            1956     7.02453E-03     26.6441E-03    -14.7336E+06    -94.2327E+06    -5.32050E+06     1.99184E+06    -26.5084E-03     51.3290E-03    -24.8207E-03     34.5777E-03    -26.4456E-03     50.8949E-03    -24.6893E-03     34.5757E-03
            1957     6.14734E-03     26.6121E-03    -16.2180E+06    -98.2109E+06    -7.41587E+06     1.45652E+06    -25.9570E-03     50.6035E-03    -24.6465E-03     29.6661E-03    -25.8900E-03     50.1518E-03    -24.5176E-03     29.6641E-03
            1958     5.27010E-03     26.5835E-03    -17.9552E+06    -102.582E+06    -10.0973E+06     1.53041E+06    -25.4587E-03     49.9475E-03    -24.4887E-03     25.0137E-03    -25.3883E-03     49.4784E-03    -24.3645E-03     25.0179E-03
            1959     4.39221E-03     26.5606E-03    -19.5341E+06    -104.583E+06    -13.1242E+06     1.68211E+06    -25.0261E-03     49.3719E-03    -24.3459E-03     20.5247E-03    -24.9550E-03     48.8983E-03    -24.2315E-03     20.5350E-03
            1960     3.51426E-03     26.5411E-03    -20.6633E+06    -105.893E+06    -15.8289E+06     1.42037E+06    -24.6672E-03     48.8910E-03    -24.2238E-03     16.2012E-03    -24.5951E-03     48.4155E-03    -24.1194E-03     16.2113E-03
            1961     2.63586E-03     26.5271E-03    -21.5518E+06    -107.174E+06    -18.7738E+06     1.06873E+06    -24.3744E-03     48.4972E-03    -24.1228E-03     12.0477E-03    -24.3001E-03     48.0203E-03    -24.0300E-03     12.0558E-03
            1962     1.75739E-03     26.5160E-03    -22.3477E+06    -108.345E+06    -21.0832E+06     665.087E+03    -24.1596E-03     48.2101E-03    -24.0505E-03     8.04869E-03    -24.0840E-03     47.7316E-03    -23.9664E-03     8.05363E-03
            1963     878.747E-06     26.5104E-03    -22.7842E+06    -109.070E+06    -22.5254E+06     401.541E+03    -24.0372E-03     48.0440E-03    -24.0068E-03     4.36965E-03    -23.9604E-03     47.5644E-03    -23.9282E-03     4.37292E-03
            1964     16.6466E-03     26.8182E-03    -5.60799E+06     174.401E+06     100.695E+06     530.394E+03    -55.3654E-03     82.6923E-03    -27.3269E-03     383.241E-03    -74.3163E-03     101.950E-03    -27.0682E-03     391.463E-03
            1965     15.7706E-03     26.4404E-03    -10.3929E+06     124.745E+06     42.1161E+06     1.67698E+06    -51.1984E-03     78.0269E-03    -26.8285E-03     315.567E-03    -60.8406E-03     87.9529E-03    -26.7837E-03     316.255E-03
            1966     14.9018E-03     26.1969E-03    -12.6355E+06     64.7862E+06    -17.2661E+06     1.41008E+06    -39.3227E-03     65.6487E-03    -26.3260E-03     177.393E-03    -41.0964E-03     67.6577E-03    -26.4879E-03     176.981E-03
            1967     14.0264E-03     26.0927E-03    -10.4691E+06     16.8262E+06    -28.4790E+06     924.188E+03    -32.1383E-03     58.2021E-03    -26.0638E-03     92.2963E-03    -32.5278E-03     58.6968E-03    -26.2154E-03     92.0410E-03
            1968     13.1551E-03     26.0189E-03    -9.77664E+06    -16.2514E+06    -15.6989E+06     1.67951E+06    -30.5094E-03     56.4496E-03    -25.9402E-03     71.3540E-03    -30.6635E-03     56.5568E-03    -25.9809E-03     71.1939E-03
            1969     12.2788E-03     25.9515E-03    -10.1792E+06    -33.4143E+06    -9.02706E+06     1.73316E+06    -30.2324E-03     56.0017E-03    -25.7693E-03     68.8562E-03    -30.3219E-03     55.9627E-03    -25.7513E-03     68.7360E-03
            1970     11.4058E-03     25.8833E-03    -10.7856E+06    -55.7674E+06    -10.2713E+06     1.80734E+06    -29.7527E-03     55.3060E-03    -25.5533E-03     62.2358E-03    -29.7780E-03     55.1248E-03    -25.5082E-03     62.1467E-03
            1971     10.5299E-03     25.8274E-03    -11.1563E+06    -71.4870E+06    -8.90290E+06     2.04068E+06    -29.1466E-03     54.4775E-03    -25.3309E-03     55.0722E-03    -29.1282E-03     54.1915E-03    -25.2556E-03     55.0138E-03
            1972     9.65609E-03     25.7729E-03    -11.4556E+06    -77.8555E+06    -4.61084E+06     2.16227E+06    -28.3997E-03     53.5104E-03    -25.1108E-03     49.5330E-03    -28.3649E-03     53.1719E-03    -25.0043E-03     49.4973E-03
            1973     8.77964E-03     25.7270E-03    -12.1396E+06    -83.5812E+06    -3.87030E+06     2.13353E+06    -27.6100E-03     52.4960E-03    -24.8861E-03     43.8914E-03    -27.5617E-03     52.1192E-03    -24.7666E-03     43.8714E-03
            1974     7.90370E-03     25.6839E-03    -12.9452E+06    -89.9375E+06    -4.87943E+06     2.09294E+06    -26.9682E-03     51.6356E-03    -24.6674E-03     38.6123E-03    -26.9070E-03     51.2234E-03    -24.5427E-03     38.6035E-03
            1975     7.02691E-03     25.6479E-03    -13.8564E+06    -93.6212E+06    -5.33233E+06     2.06091E+06    -26.3195E-03     50.7801E-03    -24.4606E-03     33.5568E-03    -26.2528E-03     50.3473E-03    -24.3315E-03     33.5566E-03
            1976     6.14979E-03     25.6150E-03    -15.3700E+06    -97.7717E+06    -6.75324E+06     2.25513E+06    -25.6951E-03     49.9645E-03    -24.2694E-03     28.7326E-03    -25.6252E-03     49.5125E-03    -24.1391E-03     28.7417E-03
            1977     5.27207E-03     25.5883E-03    -17.4404E+06    -102.366E+06    -9.57512E+06     2.20456E+06    -25.1616E-03     49.2551E-03    -24.0935E-03     24.1621E-03    -25.0895E-03     48.7854E-03    -23.9676E-03     24.1757E-03
            1978     4.39414E-03     25.5648E-03    -19.1100E+06    -103.646E+06    -12.7337E+06     1.74741E+06    -24.6832E-03     48.6152E-03    -23.9320E-03     19.8017E-03    -24.6118E-03     48.1449E-03    -23.8177E-03     19.8134E-03
            1979     3.51567E-03     25.5469E-03    -20.3322E+06    -105.215E+06    -15.9328E+06     1.23542E+06    -24.2835E-03     48.0775E-03    -23.7940E-03     15.6040E-03    -24.2105E-03     47.6051E-03    -23.6916E-03     15.6121E-03
            1980     2.63710E-03     25.5321E-03    -21.3066E+06    -106.425E+06    -18.6153E+06     1.02004E+06    -23.9597E-03     47.6435E-03    -23.6838E-03     11.5745E-03    -23.8855E-03     47.1698E-03    -23.5917E-03     11.5822E-03
            1981     1.75814E-03     25.5225E-03    -22.0207E+06    -107.554E+06    -20.9788E+06     775.585E+03    -23.7254E-03     47.3288E-03    -23.6034E-03     7.74901E-03    -23.6494E-03     46.8536E-03    -23.5204E-03     7.75558E-03
            1982     879.094E-06     25.5156E-03    -22.5569E+06    -108.233E+06    -22.2923E+06     455.541E+03    -23.5819E-03     47.1443E-03    -23.5623E-03     4.19127E-03    -23.5055E-03     46.6683E-03    -23.4842E-03     4.19537E-03
            1983     16.6402E-03     25.8178E-03    -6.10805E+06     172.801E+06     100.359E+06     1.16354E+06    -56.1666E-03     83.4519E-03    -27.2853E-03     381.539E-03    -74.8993E-03     102.485E-03    -27.0252E-03     389.550E-03
            1984     15.7739E-03     25.4255E-03    -9.87219E+06     124.607E+06     42.9807E+06     2.03639E+06    -52.0424E-03     78.7748E-03    -26.7324E-03     313.568E-03    -61.5960E-03     88.6110E-03    -26.6838E-03     314.125E-03
            1985     14.9019E-03     25.1986E-03    -10.4375E+06     65.7422E+06    -16.4387E+06     1.59747E+06    -39.0700E-03     65.2634E-03    -26.1934E-03     175.729E-03    -40.7963E-03     67.2338E-03    -26.3557E-03     175.325E-03
            1986     14.0300E-03     25.0856E-03    -11.4135E+06     17.0836E+06    -29.8772E+06     1.37515E+06    -32.3243E-03     58.2370E-03    -25.9127E-03     91.1258E-03    -32.7089E-03     58.7284E-03    -26.0703E-03     90.8772E-03
            1987     13.1551E-03     25.0199E-03    -11.2312E+06    -16.1465E+06    -17.3970E+06     1.44715E+06    -31.0061E-03     56.7588E-03    -25.7526E-03     69.9111E-03    -31.1630E-03     56.8690E-03    -25.7999E-03     69.7452E-03
            1988     12.2828E-03     24.9476E-03    -10.6876E+06    -33.9500E+06    -9.95765E+06     1.80939E+06    -30.4590E-03     56.0024E-03    -25.5434E-03     67.7526E-03    -30.5471E-03     55.9609E-03    -25.5285E-03     67.6337E-03
            1989     11.4077E-03     24.8845E-03    -10.6851E+06    -54.9127E+06    -10.3783E+06     2.07890E+06    -29.9424E-03     55.2346E-03    -25.2921E-03     60.7575E-03    -29.9665E-03     55.0558E-03    -25.2489E-03     60.6725E-03
            1990     10.5343E-03     24.8256E-03    -11.0731E+06    -71.5016E+06    -9.69387E+06     2.09624E+06    -29.1443E-03     54.1793E-03    -25.0349E-03     53.7575E-03    -29.1227E-03     53.8926E-03    -24.9637E-03     53.7015E-03
            1991     9.65825E-03     24.7753E-03    -11.4656E+06    -77.9358E+06    -5.17157E+06     2.31465E+06    -28.3142E-03     53.1049E-03    -24.7907E-03     48.2696E-03    -28.2774E-03     52.7657E-03    -24.6870E-03     48.2375E-03
            1992     8.78298E-03     24.7278E-03    -12.1722E+06    -83.2709E+06    -4.22747E+06     2.29972E+06    -27.5418E-03     52.0812E-03    -24.5395E-03     42.7363E-03    -27.4928E-03     51.7057E-03    -24.4222E-03     42.7196E-03
            1993     7.90654E-03     24.6875E-03    -13.2177E+06    -89.6101E+06    -5.18979E+06     2.16441E+06    -26.7947E-03     51.0886E-03    -24.2939E-03     37.4329E-03    -26.7344E-03     50.6783E-03    -24.1707E-03     37.4263E-03
            1994     7.02972E-03     24.6505E-03    -14.4361E+06    -93.5311E+06    -6.30510E+06     2.28457E+06    -26.0780E-03     50.1392E-03    -24.0612E-03     32.4462E-03    -26.0125E-03     49.7087E-03    -23.9362E-03     32.4500E-03
            1995     6.15233E-03     24.6200E-03    -15.7925E+06    -97.8179E+06    -7.41124E+06     2.69790E+06    -25.4316E-03     49.2800E-03    -23.8483E-03     27.7131E-03    -25.3625E-03     48.8290E-03    -23.7206E-03     27.7287E-03
            1996     5.27448E-03     24.5926E-03    -17.0258E+06    -101.178E+06    -9.12958E+06     2.63492E+06    -24.8298E-03     48.4824E-03    -23.6525E-03     23.2376E-03    -24.7578E-03     48.0172E-03    -23.5268E-03     23.2574E-03
            1997     4.39608E-03     24.5709E-03    -18.3974E+06    -102.543E+06    -12.6808E+06     1.92999E+06    -24.3031E-03     47.7732E-03    -23.4701E-03     18.9966E-03    -24.2297E-03     47.3072E-03    -23.3581E-03     19.0112E-03
            1998     3.51744E-03     24.5524E-03    -19.7578E+06    -104.425E+06    -16.1111E+06     1.49001E+06    -23.8520E-03     47.1692E-03    -23.3172E-03     14.9434E-03    -23.7770E-03     46.7000E-03    -23.2176E-03     14.9552E-03
            1999     2.63830E-03     24.5391E-03    -20.9295E+06    -105.772E+06    -18.8397E+06     1.12606E+06    -23.5019E-03     46.6986E-03    -23.1966E-03     11.0788E-03    -23.4264E-03     46.2279E-03    -23.1071E-03     11.0882E-03
            2000     1.75905E-03     24.5287E-03    -21.7508E+06    -106.689E+06    -20.7318E+06     892.133E+03    -23.2508E-03     46.3589E-03    -23.1082E-03     7.39382E-03    -23.1750E-03     45.8873E-03    -23.0256E-03     7.40210E-03
            2001     879.582E-06     24.5233E-03    -22.1908E+06    -107.278E+06    -22.0667E+06     570.256E+03    -23.0865E-03     46.1424E-03    -23.0559E-03     4.00895E-03    -23.0099E-03     45.6703E-03    -22.9785E-03     4.01463E-03
            2002     16.6483E-03     24.8071E-03    -5.54497E+06     173.443E+06     101.735E+06     1.01530E+06    -57.3143E-03     84.5395E-03    -27.2253E-03     380.177E-03    -75.8695E-03     103.396E-03    -26.9601E-03     387.940E-03
            2003     15.7761E-03     24.4230E-03    -9.60701E+06     124.527E+06     42.6808E+06     1.59449E+06    -52.1836E-03     78.8047E-03    -26.6212E-03     312.129E-03    -61.6742E-03     88.5796E-03    -26.5744E-03     312.656E-03
            2004     14.9040E-03     24.1919E-03    -11.0720E+06     64.5906E+06    -18.0462E+06     1.96562E+06    -39.4378E-03     65.4854E-03    -26.0476E-03     173.169E-03    -41.1131E-03     67.4031E-03    -26.2154E-03     172.762E-03
            2005     14.0311E-03     24.0844E-03    -10.6524E+06     17.1283E+06    -29.0573E+06     1.87974E+06    -32.7486E-03     58.4814E-03    -25.7327E-03     89.0665E-03    -33.1216E-03     58.9616E-03    -25.8874E-03     88.8216E-03
            2006     13.1599E-03     24.0156E-03    -10.6637E+06    -15.9132E+06    -17.0457E+06     1.96309E+06    -31.2657E-03     56.7965E-03    -25.5309E-03     68.2231E-03    -31.4160E-03     56.9019E-03    -25.5775E-03     68.0647E-03
            2007     12.2851E-03     23.9482E-03    -11.0804E+06    -33.7522E+06    -10.8907E+06     1.96676E+06    -30.7853E-03     56.0615E-03    -25.2762E-03     66.4710E-03    -30.8723E-03     56.0210E-03    -25.2656E-03     66.3542E-03
            2008     11.4122E-03     23.8819E-03    -10.7015E+06    -55.0511E+06    -11.2694E+06     2.19254E+06    -29.9403E-03     54.9300E-03    -24.9897E-03     59.4613E-03    -29.9603E-03     54.7492E-03    -24.9507E-03     59.3804E-03
            2009     10.5367E-03     23.8276E-03    -10.8080E+06    -71.1346E+06    -10.1203E+06     2.34125E+06    -29.0784E-03     53.7871E-03    -24.7087E-03     52.4491E-03    -29.0537E-03     53.5009E-03    -24.6405E-03     52.3984E-03
            2010     9.66214E-03     23.7754E-03    -11.5707E+06    -78.0310E+06    -5.91273E+06     2.36787E+06    -28.2741E-03     52.7105E-03    -24.4364E-03     46.8795E-03    -28.2354E-03     52.3709E-03    -24.3360E-03     46.8497E-03
            2011     8.78615E-03     23.7309E-03    -12.3395E+06    -82.9183E+06    -4.69906E+06     2.51682E+06    -27.4448E-03     51.5992E-03    -24.1544E-03     41.2987E-03    -27.3957E-03     51.2256E-03    -24.0398E-03     41.2860E-03
            2012     7.90986E-03     23.6899E-03    -13.4630E+06    -89.1862E+06    -5.63944E+06     2.55048E+06    -26.5916E-03     50.4715E-03    -23.8799E-03     36.1093E-03    -26.5318E-03     50.0637E-03    -23.7593E-03     36.1089E-03
            2013     7.03279E-03     23.6554E-03    -14.8080E+06    -93.6386E+06    -6.76250E+06     2.70563E+06    -25.8190E-03     49.4416E-03    -23.6226E-03     31.2395E-03    -25.7541E-03     49.0114E-03    -23.4992E-03     31.2498E-03
            2014     6.15515E-03     23.6242E-03    -16.0434E+06    -97.3278E+06    -8.43947E+06     2.69150E+06    -25.1155E-03     48.4973E-03    -23.3818E-03     26.5898E-03    -25.0466E-03     48.0504E-03    -23.2596E-03     26.6063E-03
            2015     5.27703E-03     23.5990E-03    -17.0605E+06    -100.158E+06    -9.54889E+06     2.42011E+06    -24.4612E-03     47.6269E-03    -23.1658E-03     22.2631E-03    -24.3900E-03     47.1673E-03    -23.0435E-03     22.2809E-03
            2016     4.39837E-03     23.5767E-03    -18.1799E+06    -101.537E+06    -12.5853E+06     2.21772E+06    -23.8725E-03     46.8394E-03    -22.9668E-03     18.1571E-03    -23.7995E-03     46.3778E-03    -22.8562E-03     18.1760E-03
            2017     3.51920E-03     23.5599E-03    -19.4114E+06    -103.599E+06    -16.0444E+06     1.90442E+06    -23.3850E-03     46.1840E-03    -22.7989E-03     14.2514E-03    -23.3095E-03     45.7183E-03    -22.7008E-03     14.2690E-03
            2018     2.63975E-03     23.5460E-03    -20.5476E+06    -104.780E+06    -18.5335E+06     1.55698E+06    -23.0087E-03     45.6745E-03    -22.6657E-03     10.5565E-03    -22.9331E-03     45.2077E-03    -22.5766E-03     10.5718E-03
            2019     1.76000E-03     23.5370E-03    -21.4362E+06    -105.722E+06    -20.4835E+06     1.00432E+06    -22.7295E-03     45.2939E-03    -22.5644E-03     7.00839E-03    -22.6539E-03     44.8263E-03    -22.4825E-03     7.01834E-03
            2020     880.028E-06     23.5306E-03    -21.8859E+06    -106.154E+06    -21.5287E+06     626.358E+03    -22.5366E-03     45.0436E-03    -22.5070E-03     3.83100E-03    -22.4609E-03     44.5759E-03    -22.4290E-03     3.83751E-03
            2021     16.6442E-03     23.7994E-03    -5.75941E+06     172.060E+06     100.570E+06     354.809E+03    -58.1959E-03     85.3714E-03    -27.1756E-03     378.627E-03    -76.5888E-03     104.063E-03    -26.9139E-03     386.096E-03
            2022     15.7755E-03     23.4137E-03    -9.44556E+06     124.433E+06     43.9968E+06     1.52736E+06    -52.9984E-03     79.5170E-03    -26.5186E-03     309.746E-03    -62.3977E-03     89.1970E-03    -26.4653E-03     310.185E-03
            2023     14.9072E-03     23.1877E-03    -10.4768E+06     64.8157E+06    -16.5454E+06     2.46096E+06    -40.3102E-03     66.1848E-03    -25.8746E-03     170.358E-03    -41.9472E-03     68.0627E-03    -26.0361E-03     169.936E-03
            2024     14.0364E-03     23.0804E-03    -9.49933E+06     17.0863E+06    -30.1343E+06     2.80576E+06    -33.0670E-03     58.5565E-03    -25.4896E-03     86.6164E-03    -33.4211E-03     59.0251E-03    -25.6512E-03     86.3827E-03
            2025     13.1614E-03     23.0147E-03    -9.70933E+06    -15.6203E+06    -18.1945E+06     2.87871E+06    -31.2550E-03     56.5118E-03    -25.2568E-03     66.9382E-03    -31.3947E-03     56.6144E-03    -25.3111E-03     66.7945E-03
            2026     12.2898E-03     22.9449E-03    -9.86983E+06    -33.3287E+06    -11.1043E+06     2.47208E+06    -30.8374E-03     55.8206E-03    -24.9832E-03     65.2689E-03    -30.9160E-03     55.7780E-03    -24.9761E-03     65.1605E-03
            2027     11.4150E-03     22.8834E-03    -10.5398E+06    -55.0425E+06    -11.8127E+06     2.46358E+06    -30.0482E-03     54.7140E-03    -24.6658E-03     58.0797E-03    -30.0645E-03     54.5319E-03    -24.6298E-03     58.0037E-03
            2028     10.5411E-03     22.8269E-03    -10.7344E+06    -70.9820E+06    -10.6272E+06     2.62313E+06    -29.1438E-03     53.4915E-03    -24.3477E-03     50.8799E-03    -29.1165E-03     53.2050E-03    -24.2824E-03     50.8343E-03
            2029     9.66568E-03     22.7782E-03    -11.1928E+06    -77.6777E+06    -6.42422E+06     2.61818E+06    -28.2229E-03     52.2610E-03    -24.0381E-03     45.2860E-03    -28.1809E-03     51.9222E-03    -23.9413E-03     45.2609E-03
            2030     8.79004E-03     22.7328E-03    -12.2520E+06    -82.8462E+06    -5.30312E+06     2.74197E+06    -27.2425E-03     50.9690E-03    -23.7265E-03     39.7916E-03    -27.1913E-03     50.5956E-03    -23.6151E-03     39.7836E-03
            2031     7.91341E-03     22.6946E-03    -13.3535E+06    -88.8367E+06    -6.17645E+06     3.11507E+06    -26.3703E-03     49.7954E-03    -23.4251E-03     34.7195E-03    -26.3091E-03     49.3893E-03    -23.3078E-03     34.7276E-03
            2032     7.03617E-03     22.6595E-03    -14.6709E+06    -93.2395E+06    -7.54157E+06     3.08563E+06    -25.5389E-03     48.6775E-03    -23.1385E-03     29.9389E-03    -25.4724E-03     48.2497E-03    -23.0198E-03     29.9552E-03
            2033     6.15834E-03     22.6307E-03    -15.6995E+06    -96.2655E+06    -8.96098E+06     2.68242E+06    -24.7426E-03     47.6162E-03    -22.8736E-03     25.4114E-03    -24.6724E-03     47.1745E-03    -22.7560E-03     25.4287E-03
            2034     5.27976E-03     22.6049E-03    -16.7370E+06    -99.5901E+06    -10.4367E+06     2.30582E+06    -24.0375E-03     46.6743E-03    -22.6369E-03     21.2171E-03    -23.9640E-03     46.2182E-03    -22.5204E-03     21.2342E-03
            2035     4.40072E-03     22.5847E-03    -17.8996E+06    -101.038E+06    -12.4974E+06     2.39705E+06    -23.4113E-03     45.8363E-03    -22.4250E-03     17.2385E-03    -23.3376E-03     45.3766E-03    -22.3150E-03     17.2603E-03
            2036     3.52118E-03     22.5674E-03    -19.2177E+06    -102.498E+06    -15.5669E+06     2.34293E+06    -22.8871E-03     45.1281E-03    -22.2410E-03     13.5049E-03    -22.8128E-03     44.6669E-03    -22.1424E-03     13.5286E-03
            2037     2.64127E-03     22.5550E-03    -20.2762E+06    -103.577E+06    -17.9601E+06     1.77098E+06    -22.4659E-03     44.5597E-03    -22.0939E-03     9.98386E-03    -22.3914E-03     44.0977E-03    -22.0041E-03     10.0023E-03
            2038     1.76101E-03     22.5453E-03    -20.9595E+06    -104.431E+06    -19.9395E+06     1.16202E+06    -22.1593E-03     44.1423E-03    -21.9831E-03     6.62843E-03    -22.0839E-03     43.6796E-03    -21.9010E-03     6.64064E-03
            2039     880.620E-06     22.5403E-03    -21.3395E+06    -104.986E+06    -21.2426E+06     553.419E+03    -21.9457E-03     43.8731E-03    -21.9275E-03     3.59437E-03    -21.8694E-03     43.4101E-03    -21.8505E-03     3.60004E-03
            2040     16.6476E-03     22.7874E-03    -5.80194E+06     170.286E+06     99.6408E+06     480.918E+03    -59.3387E-03     86.4606E-03    -27.1219E-03     375.824E-03    -77.4855E-03     104.902E-03    -26.8622E-03     382.989E-03
            2041     15.7809E-03     22.4084E-03    -9.95812E+06     122.970E+06     43.4197E+06     1.50753E+06    -53.9094E-03     80.2952E-03    -26.3858E-03     306.320E-03    -63.1036E-03     89.7648E-03    -26.3326E-03     306.627E-03
            2042     14.9098E-03     22.1799E-03    -11.2676E+06     64.8851E+06    -18.0698E+06     2.95883E+06    -40.7945E-03     66.4651E-03    -25.6706E-03     168.426E-03    -42.4100E-03     68.3234E-03    -25.8387E-03     168.004E-03
            2043     14.0386E-03     22.0782E-03    -11.6076E+06     17.4264E+06    -32.9363E+06     3.52969E+06    -33.6099E-03     58.8393E-03    -25.2293E-03     84.3061E-03    -33.9609E-03     59.3065E-03    -25.4024E-03     84.0797E-03
            2044     13.1678E-03     22.0122E-03    -10.4510E+06    -14.4052E+06    -19.3000E+06     2.76226E+06    -31.3838E-03     56.3425E-03    -24.9587E-03     65.6830E-03    -31.5234E-03     56.4499E-03    -25.0192E-03     65.5393E-03
            2045     12.2922E-03     21.9449E-03    -10.4871E+06    -33.3892E+06    -12.4605E+06     2.63852E+06    -30.8670E-03     55.5231E-03    -24.6561E-03     64.0207E-03    -30.9439E-03     55.4804E-03    -24.6548E-03     63.9165E-03
            2046     11.4196E-03     21.8817E-03    -10.3130E+06    -54.5603E+06    -12.2816E+06     2.87168E+06    -30.2306E-03     54.5349E-03    -24.3042E-03     56.1045E-03    -30.2438E-03     54.3534E-03    -24.2716E-03     56.0346E-03
            2047     10.5450E-03     21.8290E-03    -10.5361E+06    -71.0081E+06    -11.3266E+06     2.94967E+06    -29.1474E-03     53.0917E-03    -23.9443E-03     49.1937E-03    -29.1163E-03     52.8040E-03    -23.8827E-03     49.1542E-03
            2048     9.67017E-03     21.7793E-03    -10.8692E+06    -77.3351E+06    -6.76830E+06     3.06288E+06    -28.0608E-03     51.6641E-03    -23.6033E-03     43.7012E-03    -28.0158E-03     51.3257E-03    -23.5093E-03     43.6839E-03
            2049     8.79404E-03     21.7372E-03    -11.6667E+06    -82.5048E+06    -5.51394E+06     3.22395E+06    -27.0533E-03     50.3165E-03    -23.2632E-03     38.2703E-03    -26.9983E-03     49.9432E-03    -23.1542E-03     38.2702E-03
            2050     7.91726E-03     21.6983E-03    -12.6911E+06    -88.9651E+06    -6.61500E+06     3.48154E+06    -26.1138E-03     49.0459E-03    -22.9321E-03     33.2770E-03    -26.0478E-03     48.6382E-03    -22.8177E-03     33.2913E-03
            2051     7.03991E-03     21.6659E-03    -13.6160E+06    -92.1013E+06    -7.49793E+06     3.51343E+06    -25.2021E-03     47.8211E-03    -22.6190E-03     28.5665E-03    -25.1315E-03     47.3970E-03    -22.5032E-03     28.5895E-03
            2052     6.16158E-03     21.6367E-03    -14.9177E+06    -95.3228E+06    -8.79109E+06     2.96019E+06    -24.3528E-03     46.6840E-03    -22.3312E-03     24.1894E-03    -24.2800E-03     46.2454E-03    -22.2153E-03     24.2113E-03
            2053     5.28282E-03     21.6131E-03    -16.3803E+06    -99.0605E+06    -10.7508E+06     2.77313E+06    -23.5845E-03     45.6560E-03    -22.0715E-03     20.0850E-03    -23.5093E-03     45.2022E-03    -21.9578E-03     20.1090E-03
            2054     4.40327E-03     21.5925E-03    -17.9128E+06    -100.542E+06    -13.1895E+06     2.73655E+06    -22.9094E-03     44.7488E-03    -21.8394E-03     16.2736E-03    -22.8353E-03     44.2924E-03    -21.7336E-03     16.3004E-03
            2055     3.52334E-03     21.5769E-03    -18.9365E+06    -101.222E+06    -15.1003E+06     2.41087E+06    -22.3412E-03     43.9847E-03    -21.6435E-03     12.7191E-03    -22.2679E-03     43.5287E-03    -21.5448E-03     12.7441E-03
            2056     2.64287E-03     21.5642E-03    -19.7199E+06    -102.165E+06    -17.5828E+06     1.85199E+06    -21.8788E-03     43.3626E-03    -21.4839E-03     9.38397E-03    -21.8041E-03     42.9063E-03    -21.3951E-03     9.40377E-03
            2057     1.76212E-03     21.5559E-03    -20.4504E+06    -103.112E+06    -19.5069E+06     1.24440E+06    -21.5480E-03     42.9162E-03    -21.3682E-03     6.22782E-03    -21.4726E-03     42.4587E-03    -21.2866E-03     6.24130E-03
            2058     881.074E-06     21.5501E-03    -20.8943E+06    -103.658E+06    -20.7147E+06     709.710E+03    -21.3296E-03     42.6412E-03    -21.3116E-03     3.34783E-03    -21.2537E-03     42.1834E-03    -21.2346E-03     3.35565E-03
            2059     16.6470E-03     21.7731E-03    -4.69034E+06     170.368E+06     99.5902E+06     653.723E+03    -60.6327E-03     87.6720E-03    -27.0392E-03     373.633E-03    -78.5448E-03     105.883E-03    -26.7815E-03     380.454E-03
            2060     15.7806E-03     21.3986E-03    -10.6478E+06     121.523E+06     41.9275E+06     1.52569E+06    -54.6792E-03     80.9010E-03    -26.2218E-03     302.631E-03    -63.6998E-03     90.1937E-03    -26.1729E-03     302.868E-03
            2061     14.9128E-03     21.1751E-03    -12.9680E+06     63.6228E+06    -18.5019E+06     3.16085E+06    -41.3682E-03     66.8120E-03    -25.4438E-03     164.532E-03    -42.9447E-03     68.6222E-03    -25.6098E-03     164.095E-03
            2062     14.0432E-03     21.0723E-03    -11.5039E+06     18.3958E+06    -31.9636E+06     3.97787E+06    -33.6282E-03     58.5862E-03    -24.9580E-03     80.8056E-03    -33.9650E-03     59.0402E-03    -25.1278E-03     80.5893E-03
            2063     13.1694E-03     21.0123E-03    -10.6188E+06    -13.5673E+06    -19.9270E+06     3.16664E+06    -31.7208E-03     56.3637E-03    -24.6428E-03     63.8844E-03    -31.8577E-03     56.4725E-03    -24.7074E-03     63.7456E-03
            2064     12.2982E-03     20.9425E-03    -10.5456E+06    -32.5343E+06    -13.1050E+06     2.61499E+06    -31.1173E-03     55.4109E-03    -24.2936E-03     62.9153E-03    -31.1928E-03     55.3715E-03    -24.2967E-03     62.8115E-03
            2065     11.4240E-03     20.8827E-03    -10.9663E+06    -55.0418E+06    -13.5476E+06     2.99689E+06    -30.1933E-03     54.0962E-03    -23.9030E-03     54.4632E-03    -30.2042E-03     53.9122E-03    -23.8750E-03     54.3980E-03
            2066     10.5499E-03     20.8296E-03    -10.5634E+06    -70.8476E+06    -12.0761E+06     3.29701E+06    -29.0511E-03     52.5639E-03    -23.5128E-03     47.5269E-03    -29.0174E-03     52.2763E-03    -23.4551E-03     47.4942E-03
            2067     9.67436E-03     20.7830E-03    -10.6948E+06    -77.0349E+06    -7.33963E+06     3.47874E+06    -27.9229E-03     51.0636E-03    -23.1407E-03     42.1019E-03    -27.8753E-03     50.7258E-03    -23.0501E-03     42.0922E-03
            2068     8.79837E-03     20.7405E-03    -11.4262E+06    -82.2817E+06    -5.82426E+06     3.65803E+06    -26.8683E-03     49.6373E-03    -22.7689E-03     36.6839E-03    -26.8111E-03     49.2643E-03    -22.6622E-03     36.6911E-03
            2069     7.92160E-03     20.7043E-03    -12.1358E+06    -88.6171E+06    -6.97970E+06     3.65123E+06    -25.8212E-03     48.2272E-03    -22.4060E-03     31.7452E-03    -25.7517E-03     47.8203E-03    -22.2948E-03     31.7633E-03
            2070     7.04363E-03     20.6718E-03    -12.8257E+06    -91.4686E+06    -7.54832E+06     3.68049E+06    -24.8315E-03     46.8989E-03    -22.0674E-03     27.1644E-03    -24.7573E-03     46.4763E-03    -21.9539E-03     27.1909E-03
            2071     6.16526E-03     20.6448E-03    -13.9640E+06    -94.3857E+06    -8.31894E+06     3.85383E+06    -23.9411E-03     45.6978E-03    -21.7567E-03     22.8627E-03    -23.8653E-03     45.2615E-03    -21.6412E-03     22.8971E-03
            2072     5.28590E-03     20.6212E-03    -15.8448E+06    -98.3384E+06    -10.4628E+06     3.71563E+06    -23.1105E-03     44.5835E-03    -21.4731E-03     18.8928E-03    -23.0339E-03     44.1319E-03    -21.3598E-03     18.9297E-03
            2073     4.40607E-03     20.6025E-03    -17.2762E+06    -99.2049E+06    -13.1303E+06     3.11272E+06    -22.3669E-03     43.5862E-03    -21.2193E-03     15.2692E-03    -22.2916E-03     43.1354E-03    -21.1161E-03     15.3015E-03
            2074     3.52551E-03     20.5868E-03    -18.3075E+06    -100.094E+06    -15.4604E+06     2.41334E+06    -21.7499E-03     42.7579E-03    -21.0080E-03     11.8975E-03    -21.6746E-03     42.3070E-03    -20.9136E-03     11.9231E-03
            2075     2.64460E-03     20.5754E-03    -19.1440E+06    -100.790E+06    -17.2839E+06     1.98709E+06    -21.2631E-03     42.1042E-03    -20.8411E-03     8.74668E-03    -21.1880E-03     41.6534E-03    -20.7536E-03     8.76858E-03
            2076     1.76324E-03     20.5667E-03    -19.8292E+06    -101.662E+06    -19.1728E+06     1.46113E+06    -20.9021E-03     41.6223E-03    -20.7202E-03     5.79958E-03    -20.8262E-03     41.1707E-03    -20.6399E-03     5.81609E-03
            2077     881.727E-06     20.5621E-03    -20.2371E+06    -102.141E+06    -20.1229E+06     809.887E+03    -20.6924E-03     41.3466E-03    -20.6542E-03     3.13886E-03    -20.6163E-03     40.8946E-03    -20.5774E-03     3.14809E-03
            2078     16.6516E-03     20.7640E-03    -5.01202E+06     168.676E+06     98.6224E+06     1.00555E+06    -62.6422E-03     89.5766E-03    -26.9345E-03     369.588E-03    -80.1691E-03     107.399E-03    -26.6787E-03     375.984E-03
            2079     15.7850E-03     20.3879E-03    -10.1278E+06     120.269E+06     41.5975E+06     2.61142E+06    -55.8991E-03     81.8960E-03    -25.9970E-03     297.078E-03    -64.6617E-03     90.9293E-03    -25.9487E-03     297.164E-03
            2080     14.9193E-03     20.1677E-03    -12.3478E+06     63.9628E+06    -16.9802E+06     3.36563E+06    -41.2386E-03     66.3916E-03    -25.1530E-03     159.345E-03    -42.7360E-03     68.1217E-03    -25.3128E-03     158.915E-03
            2081     14.0470E-03     20.0711E-03    -11.8526E+06     19.7994E+06    -31.3947E+06     3.66315E+06    -33.2344E-03     57.8784E-03    -24.6440E-03     78.4424E-03    -33.5576E-03     58.3209E-03    -24.8125E-03     78.2325E-03
            2082     13.1759E-03     20.0090E-03    -10.8802E+06    -12.2508E+06    -21.3010E+06     3.52711E+06    -31.8444E-03     56.1465E-03    -24.3021E-03     62.7117E-03    -31.9789E-03     56.2607E-03    -24.3751E-03     62.5792E-03
            2083     12.3018E-03     19.9426E-03    -10.2301E+06    -32.6678E+06    -14.0965E+06     3.10308E+06    -31.3816E-03     55.2977E-03    -23.9160E-03     61.7209E-03    -31.4512E-03     55.2559E-03    -23.9243E-03     61.6248E-03
            2084     11.4287E-03     19.8824E-03    -10.3248E+06    -54.8816E+06    -13.6870E+06     3.13533E+06    -30.2240E-03     53.7104E-03    -23.4864E-03     52.7496E-03    -30.2290E-03     53.5236E-03    -23.4603E-03     52.6888E-03
            2085     10.5543E-03     19.8322E-03    -10.2834E+06    -70.4233E+06    -12.3508E+06     3.40264E+06    -28.9770E-03     52.0365E-03    -23.0595E-03     45.6558E-03    -28.9402E-03     51.7491E-03    -23.0042E-03     45.6270E-03
            2086     9.67926E-03     19.7858E-03    -10.5192E+06    -76.9815E+06    -8.07009E+06     3.74568E+06    -27.7972E-03     50.4475E-03    -22.6503E-03     40.3443E-03    -27.7463E-03     50.1095E-03    -22.5638E-03     40.3401E-03
            2087     8.80305E-03     19.7457E-03    -11.1010E+06    -82.1943E+06    -6.25035E+06     3.97537E+06    -26.6305E-03     48.8769E-03    -22.2464E-03     34.9985E-03    -26.5702E-03     48.5035E-03    -22.1423E-03     35.0118E-03
            2088     7.92575E-03     19.7100E-03    -11.9702E+06    -87.8329E+06    -7.03405E+06     4.03522E+06    -25.5221E-03     47.3756E-03    -21.8535E-03     30.1145E-03    -25.4521E-03     46.9718E-03    -21.7440E-03     30.1391E-03
            2089     7.04792E-03     19.6796E-03    -13.0935E+06    -91.1054E+06    -8.59715E+06     4.00673E+06    -24.4644E-03     45.9454E-03    -21.4810E-03     25.6411E-03    -24.3901E-03     45.5261E-03    -21.3729E-03     25.6731E-03
            2090     6.16886E-03     19.6530E-03    -14.1360E+06    -94.2323E+06    -9.28110E+06     4.47216E+06    -23.4743E-03     44.6193E-03    -21.1450E-03     21.4524E-03    -23.3978E-03     44.1850E-03    -21.0343E-03     21.4960E-03
            2091     5.28933E-03     19.6313E-03    -15.0581E+06    -96.7585E+06    -10.1777E+06     4.43685E+06    -22.5934E-03     43.4362E-03    -20.8428E-03     17.6514E-03    -22.5153E-03     42.9907E-03    -20.7316E-03     17.6986E-03
            2092     4.40888E-03     19.6128E-03    -16.2888E+06    -97.5628E+06    -12.9623E+06     3.60293E+06    -21.8069E-03     42.3754E-03    -20.5685E-03     14.1875E-03    -21.7291E-03     41.9310E-03    -20.4683E-03     14.2268E-03
            2093     3.52792E-03     19.5986E-03    -17.4646E+06    -98.6735E+06    -15.5088E+06     2.94558E+06    -21.1322E-03     41.4733E-03    -20.3411E-03     11.0120E-03    -21.0545E-03     41.0283E-03    -20.2503E-03     11.0450E-03
            2094     2.64635E-03     19.5872E-03    -18.4984E+06    -99.4590E+06    -17.2423E+06     2.28059E+06    -20.6125E-03     40.7774E-03    -20.1649E-03     8.07785E-03    -20.5361E-03     40.3322E-03    -20.0800E-03     8.10389E-03
            2095     1.76448E-03     19.5797E-03    -19.1087E+06    -100.017E+06    -18.5391E+06     1.64055E+06    -20.2456E-03     40.2804E-03    -20.0348E-03     5.32038E-03    -20.1694E-03     39.8350E-03    -19.9547E-03     5.33943E-03
            2096     882.229E-06     19.5746E-03    -19.4627E+06    -100.427E+06    -19.4916E+06     924.186E+03    -20.0268E-03     39.9607E-03    -19.9340E-03     2.87926E-03    -19.9502E-03     39.5152E-03    -19.8576E-03     2.89008E-03
            2097     16.6497E-03     19.7452E-03    -5.76871E+06     166.867E+06     98.2471E+06     1.23018E+06    -65.0190E-03     91.8279E-03    -26.8089E-03     365.296E-03    -82.1059E-03     109.202E-03    -26.5512E-03     371.239E-03
            2098     15.7917E-03     19.3759E-03    -9.70874E+06     119.356E+06     42.6380E+06     3.29881E+06    -56.8096E-03     82.5671E-03    -25.7575E-03     292.478E-03    -65.3027E-03     91.3262E-03    -25.7033E-03     292.436E-03
            2099     14.9225E-03     19.1636E-03    -10.5059E+06     63.9928E+06    -16.1371E+06     4.41136E+06    -40.8353E-03     65.6967E-03    -24.8614E-03     155.639E-03    -42.2532E-03     67.3515E-03    -25.0197E-03     155.241E-03
            2100     14.0521E-03     19.0677E-03    -10.8692E+06     20.7519E+06    -30.9944E+06     3.89888E+06    -33.3696E-03     57.6991E-03    -24.3295E-03     77.1530E-03    -33.6756E-03     58.1301E-03    -24.4988E-03     76.9517E-03
            2101     13.1783E-03     19.0083E-03    -11.0641E+06    -11.0593E+06    -21.7724E+06     3.18659E+06    -32.2014E-03     56.1458E-03    -23.9445E-03     61.3362E-03    -32.3338E-03     56.2630E-03    -24.0213E-03     61.1995E-03
            2102     12.3071E-03     18.9407E-03    -10.3650E+06    -33.0942E+06    -15.1810E+06     3.09006E+06    -31.5375E-03     55.0479E-03    -23.5105E-03     59.5996E-03    -31.6014E-03     55.0017E-03    -23.5234E-03     59.5058E-03
            2103     11.4339E-03     18.8838E-03    -9.64218E+06    -54.5507E+06    -13.6083E+06     3.37609E+06    -30.2380E-03     53.2805E-03    -23.0425E-03     50.4362E-03    -30.2371E-03     53.0912E-03    -23.0175E-03     50.3812E-03
            2104     10.5597E-03     18.8342E-03    -9.92436E+06    -70.2265E+06    -12.7181E+06     3.65408E+06    -28.8760E-03     51.4528E-03    -22.5768E-03     43.7107E-03    -28.8350E-03     51.1641E-03    -22.5241E-03     43.6881E-03
            2105     9.68416E-03     18.7901E-03    -10.0425E+06    -77.1718E+06    -8.77095E+06     3.86913E+06    -27.6272E-03     49.7588E-03    -22.1316E-03     38.4616E-03    -27.5711E-03     49.4186E-03    -22.0490E-03     38.4614E-03
            2106     8.80774E-03     18.7510E-03    -10.4544E+06    -81.9788E+06    -6.81292E+06     4.35239E+06    -26.3802E-03     48.0741E-03    -21.6940E-03     33.1422E-03    -26.3150E-03     47.7006E-03    -21.5940E-03     33.1625E-03
            2107     7.93054E-03     18.7172E-03    -11.2235E+06    -87.0661E+06    -7.34102E+06     4.57086E+06    -25.2001E-03     46.4696E-03    -21.2694E-03     28.3590E-03    -25.1263E-03     46.0681E-03    -21.1636E-03     28.3923E-03
            2108     7.05210E-03     18.6877E-03    -12.1428E+06    -90.7939E+06    -8.44237E+06     4.76642E+06    -24.0634E-03     44.9332E-03    -20.8698E-03     23.9965E-03    -23.9844E-03     44.5133E-03    -20.7628E-03     24.0398E-03
            2109     6.17298E-03     18.6630E-03    -13.2868E+06    -93.8234E+06    -9.51728E+06     4.92192E+06    -22.9889E-03     43.4950E-03    -20.5062E-03     19.9889E-03    -22.9080E-03     43.0615E-03    -20.3984E-03     20.0395E-03
            2110     5.29270E-03     18.6419E-03    -14.3789E+06    -95.2950E+06    -10.3465E+06     4.79129E+06    -22.0384E-03     42.2205E-03    -20.1821E-03     16.3482E-03    -21.9587E-03     41.7814E-03    -20.0748E-03     16.4009E-03
            2111     4.41191E-03     18.6249E-03    -15.5072E+06    -95.8190E+06    -12.4242E+06     4.38039E+06    -21.2104E-03     41.1031E-03    -19.8928E-03     13.0432E-03    -21.1318E-03     40.6654E-03    -19.7935E-03     13.0933E-03
            2112     3.53034E-03     18.6111E-03    -16.6949E+06    -96.9182E+06    -14.8715E+06     3.62146E+06    -20.4979E-03     40.1475E-03    -19.6495E-03     10.0834E-03    -20.4198E-03     39.7091E-03    -19.5592E-03     10.1256E-03
            2113     2.64824E-03     18.6009E-03    -17.5687E+06    -97.6039E+06    -16.6211E+06     2.76377E+06    -19.9380E-03     39.3979E-03    -19.4599E-03     7.39024E-03    -19.8605E-03     38.9596E-03    -19.3760E-03     7.42287E-03
            2114     1.76573E-03     18.5933E-03    -18.2998E+06    -98.2129E+06    -17.8428E+06     1.86133E+06    -19.5513E-03     38.8711E-03    -19.3198E-03     4.86446E-03    -19.4746E-03     38.4325E-03    -19.2401E-03     4.88658E-03
            2115     883.064E-06     18.5892E-03    -18.7895E+06    -98.4705E+06    -18.4274E+06     1.02845E+06    -19.3214E-03     38.5209E-03    -19.1995E-03     2.62498E-03    -19.2459E-03     38.0826E-03    -19.1216E-03     2.63725E-03
            2116     16.6575E-03     18.7299E-03    -5.08900E+06     166.169E+06     98.6716E+06     1.49840E+06    -66.3561E-03     93.0469E-03    -26.6907E-03     360.062E-03    -82.8173E-03     109.794E-03    -26.4309E-03     365.524E-03
            2117     15.7915E-03     18.3612E-03    -10.1341E+06     117.367E+06     42.3655E+06     3.11417E+06    -56.6887E-03     82.2652E-03    -25.5765E-03     287.720E-03    -64.9020E-03     90.7367E-03    -25.5202E-03     287.629E-03
            2118     14.9273E-03     18.1596E-03    -11.4101E+06     63.1498E+06    -15.2038E+06     4.46201E+06    -41.7928E-03     66.4195E-03    -24.6267E-03     150.949E-03    -43.1420E-03     67.9968E-03    -24.7778E-03     150.538E-03
            2119     14.0551E-03     18.0648E-03    -11.2598E+06     21.3718E+06    -30.9319E+06     4.62046E+06    -34.3913E-03     58.3877E-03    -23.9963E-03     74.1848E-03    -34.6888E-03     58.8109E-03    -24.1657E-03     73.9869E-03
            2120     13.1858E-03     18.0059E-03    -9.98619E+06    -9.62206E+06    -22.7720E+06     3.60131E+06    -32.3976E-03     55.9331E-03    -23.5355E-03     59.0002E-03    -32.5186E-03     56.0506E-03    -23.6210E-03     58.8716E-03
            2121     12.3126E-03     17.9407E-03    -9.62122E+06    -32.4845E+06    -16.1621E+06     3.39026E+06    -31.4726E-03     54.5393E-03    -23.0667E-03     57.9507E-03    -31.5276E-03     54.4917E-03    -23.0864E-03     57.8656E-03
            2122     11.4392E-03     17.8847E-03    -9.69099E+06    -55.1316E+06    -15.2017E+06     3.72881E+06    -30.1986E-03     52.7642E-03    -22.5655E-03     48.3992E-03    -30.1911E-03     52.5707E-03    -22.5476E-03     48.3528E-03
            2123     10.5648E-03     17.8376E-03    -9.14869E+06    -69.9727E+06    -13.3210E+06     4.03230E+06    -28.8095E-03     50.8735E-03    -22.0641E-03     41.6451E-03    -28.7617E-03     50.5836E-03    -22.0160E-03     41.6303E-03
            2124     9.68945E-03     17.7945E-03    -9.34435E+06    -77.0486E+06    -9.47175E+06     4.22588E+06    -27.4426E-03     49.0233E-03    -21.5807E-03     36.3620E-03    -27.3806E-03     48.6821E-03    -21.5028E-03     36.3691E-03
            2125     8.81303E-03     17.7575E-03    -9.79801E+06    -81.9720E+06    -7.76790E+06     4.65656E+06    -26.0997E-03     47.2072E-03    -21.1075E-03     31.1237E-03    -26.0288E-03     46.8331E-03    -21.0133E-03     31.1501E-03
            2126     7.93526E-03     17.7249E-03    -10.3630E+06    -86.5712E+06    -8.18575E+06     5.09799E+06    -24.8162E-03     45.4685E-03    -20.6523E-03     26.5015E-03    -24.7368E-03     45.0687E-03    -20.5527E-03     26.5435E-03
            2127     7.05670E-03     17.6973E-03    -11.1449E+06    -90.4853E+06    -8.18255E+06     5.37610E+06    -23.6011E-03     43.8335E-03    -20.2325E-03     22.2494E-03    -23.5174E-03     43.4129E-03    -20.1260E-03     22.3020E-03
            2128     6.17690E-03     17.6736E-03    -12.1061E+06    -92.9533E+06    -8.86683E+06     5.69578E+06    -22.4793E-03     42.3254E-03    -19.8461E-03     18.4361E-03    -22.3944E-03     41.8933E-03    -19.7381E-03     18.4978E-03
            2129     5.29647E-03     17.6541E-03    -13.3622E+06    -93.8856E+06    -10.4935E+06     5.50627E+06    -21.4621E-03     40.9585E-03    -19.4964E-03     14.9930E-03    -21.3789E-03     40.5250E-03    -19.3934E-03     15.0558E-03
            2130     4.41496E-03     17.6379E-03    -14.5529E+06    -94.1660E+06    -12.0305E+06     5.04554E+06    -20.5680E-03     39.7622E-03    -19.1941E-03     11.8826E-03    -20.4876E-03     39.3306E-03    -19.0966E-03     11.9420E-03
            2131     3.53286E-03     17.6254E-03    -15.6081E+06    -94.7021E+06    -13.9419E+06     4.35618E+06    -19.8337E-03     38.7741E-03    -18.9404E-03     9.14924E-03    -19.7546E-03     38.3439E-03    -18.8502E-03     9.20143E-03
            2132     2.65020E-03     17.6155E-03    -16.6079E+06    -95.3924E+06    -15.6412E+06     3.27544E+06    -19.2441E-03     37.9845E-03    -18.7404E-03     6.70728E-03    -19.1663E-03     37.5545E-03    -18.6562E-03     6.74685E-03
            2133     1.76702E-03     17.6089E-03    -17.2058E+06    -95.8894E+06    -16.8536E+06     2.17923E+06    -18.8167E-03     37.4153E-03    -18.5986E-03     4.42869E-03    -18.7394E-03     36.9853E-03    -18.5189E-03     4.45513E-03
            2134     883.487E-06     17.6045E-03    -17.6806E+06    -96.3212E+06    -17.6350E+06     1.12573E+06    -18.6029E-03     37.0852E-03    -18.4823E-03     2.35693E-03    -18.5261E-03     36.6548E-03    -18.4051E-03     2.37059E-03
            2135     16.6555E-03     17.7113E-03    -5.98407E+06     164.129E+06     97.7759E+06     1.05726E+06    -67.9952E-03     94.6350E-03    -26.6398E-03     355.150E-03    -83.9913E-03     110.909E-03    -26.3802E-03     360.216E-03
            2136     15.7956E-03     17.3499E-03    -9.34574E+06     116.447E+06     44.6057E+06     3.32523E+06    -58.2573E-03     83.6668E-03    -25.4094E-03     279.319E-03    -66.0851E-03     91.7461E-03    -25.3417E-03     279.003E-03
            2137     14.9282E-03     17.1505E-03    -11.6192E+06     62.5250E+06    -13.3540E+06     4.38142E+06    -42.3760E-03     66.7234E-03    -24.3474E-03     144.042E-03    -43.6229E-03     68.1901E-03    -24.4880E-03     143.622E-03
            2138     14.0638E-03     17.0608E-03    -11.2537E+06     23.0579E+06    -30.7695E+06     4.65805E+06    -34.8982E-03     58.5320E-03    -23.6338E-03     71.1025E-03    -35.1846E-03     58.9497E-03    -23.8048E-03     70.9053E-03
            2139     13.1899E-03     17.0055E-03    -9.48572E+06    -8.32463E+06    -24.4322E+06     4.38444E+06    -32.6086E-03     55.7202E-03    -23.1116E-03     57.7757E-03    -32.7207E-03     55.8400E-03    -23.2079E-03     57.6610E-03
            2140     12.3177E-03     16.9403E-03    -9.08136E+06    -32.3441E+06    -17.5663E+06     4.02872E+06    -31.6159E-03     54.2172E-03    -22.6013E-03     56.0776E-03    -31.6617E-03     54.1670E-03    -22.6291E-03     56.0045E-03
            2141     11.4448E-03     16.8866E-03    -9.14547E+06    -54.6067E+06    -15.9203E+06     4.15203E+06    -30.1942E-03     52.2530E-03    -22.0588E-03     45.7930E-03    -30.1800E-03     52.0587E-03    -22.0459E-03     45.7559E-03
            2142     10.5707E-03     16.8409E-03    -9.17436E+06    -69.8724E+06    -14.3049E+06     4.28396E+06    -28.7047E-03     50.2205E-03    -21.5158E-03     39.2428E-03    -28.6535E-03     49.9303E-03    -21.4727E-03     39.2342E-03
            2143     9.69518E-03     16.8000E-03    -9.11089E+06    -76.8393E+06    -10.2175E+06     4.57255E+06    -27.2227E-03     48.2173E-03    -20.9946E-03     34.0644E-03    -27.1570E-03     47.8762E-03    -20.9211E-03     34.0787E-03
            2144     8.81830E-03     16.7645E-03    -9.34946E+06    -82.0857E+06    -8.35250E+06     5.07317E+06    -25.7485E-03     46.2380E-03    -20.4895E-03     28.9766E-03    -25.6731E-03     45.8622E-03    -20.3987E-03     29.0109E-03
            2145     7.94048E-03     16.7339E-03    -9.98132E+06    -86.3212E+06    -8.82737E+06     5.66626E+06    -24.3768E-03     44.3831E-03    -20.0063E-03     24.4801E-03    -24.2941E-03     43.9841E-03    -19.9108E-03     24.5315E-03
            2146     7.06131E-03     16.7077E-03    -10.8570E+06    -89.9922E+06    -8.74270E+06     6.09723E+06    -23.0901E-03     42.6532E-03    -19.5632E-03     20.3991E-03    -23.0043E-03     42.2349E-03    -19.4607E-03     20.4626E-03
            2147     6.18128E-03     16.6857E-03    -11.8775E+06    -92.1492E+06    -8.93118E+06     6.31114E+06    -21.9023E-03     41.0616E-03    -19.1592E-03     16.7739E-03    -21.8170E-03     40.6329E-03    -19.0531E-03     16.8448E-03
            2148     5.30006E-03     16.6673E-03    -12.6829E+06    -92.2555E+06    -10.5151E+06     6.21990E+06    -20.8247E-03     39.6178E-03    -18.7931E-03     13.5657E-03    -20.7402E-03     39.1912E-03    -18.6935E-03     13.6386E-03
            2149     4.41815E-03     16.6526E-03    -13.4984E+06    -92.4040E+06    -12.1555E+06     5.69071E+06    -19.9005E-03     38.3793E-03    -18.4788E-03     10.7200E-03    -19.8170E-03     37.9551E-03    -18.3861E-03     10.7883E-03
            2150     3.53541E-03     16.6407E-03    -14.2740E+06    -92.3538E+06    -13.1962E+06     4.99371E+06    -19.1310E-03     37.3524E-03    -18.2214E-03     8.21319E-03    -19.0496E-03     36.9308E-03    -18.1328E-03     8.27409E-03
            2151     2.65205E-03     16.6320E-03    -15.0382E+06    -92.6376E+06    -14.4658E+06     3.95858E+06    -18.5306E-03     36.5499E-03    -18.0193E-03     6.00601E-03    -18.4506E-03     36.1296E-03    -17.9355E-03     6.05473E-03
            2152     1.76831E-03     16.6255E-03    -15.9229E+06    -93.2874E+06    -15.7529E+06     2.64819E+06    -18.1113E-03     35.9823E-03    -17.8710E-03     3.95839E-03    -18.0329E-03     35.5619E-03    -17.7914E-03     3.99108E-03
            2153     884.286E-06     16.6219E-03    -16.3992E+06    -93.6608E+06    -16.5113E+06     1.47102E+06    -17.8651E-03     35.6195E-03    -17.7544E-03     2.05192E-03    -17.7874E-03     35.1990E-03    -17.6774E-03     2.07015E-03
            2154     16.6524E-03     16.6786E-03    -6.13331E+06     161.942E+06     96.3424E+06     1.07871E+06    -69.8818E-03     96.4141E-03    -26.5324E-03     346.928E-03    -85.3728E-03     112.179E-03    -26.2766E-03     351.475E-03
            2155     15.8009E-03     16.3358E-03    -10.6295E+06     113.861E+06     45.0875E+06     2.65464E+06    -59.2545E-03     84.4119E-03    -25.1575E-03     266.702E-03    -66.5054E-03     91.8997E-03    -25.0817E-03     266.200E-03
            2156     14.9389E-03     16.1446E-03    -10.8354E+06     62.7951E+06    -10.2578E+06     4.56289E+06    -42.1581E-03     66.1686E-03    -24.0106E-03     138.914E-03    -43.3159E-03     67.5411E-03    -24.1372E-03     138.508E-03
            2157     14.0643E-03     16.0573E-03    -9.07937E+06     24.5317E+06    -28.9975E+06     5.02185E+06    -34.8698E-03     58.1284E-03    -23.2586E-03     67.6033E-03    -35.1318E-03     58.5294E-03    -23.4260E-03     67.4174E-03
            2158     13.1960E-03     16.0039E-03    -9.48197E+06    -7.73508E+06    -25.4570E+06     4.59840E+06    -33.1836E-03     55.8602E-03    -22.6766E-03     54.9607E-03    -33.2900E-03     55.9794E-03    -22.7789E-03     54.8474E-03
            2159     12.3246E-03     15.9402E-03    -9.62418E+06    -31.9558E+06    -18.7852E+06     4.70752E+06    -31.8777E-03     53.9786E-03    -22.1009E-03     53.3485E-03    -31.9203E-03     53.9282E-03    -22.1346E-03     53.2869E-03
            2160     11.4514E-03     15.8890E-03    -9.64576E+06    -53.8856E+06    -16.6353E+06     4.69801E+06    -30.0830E-03     51.5950E-03    -21.5120E-03     43.2923E-03    -30.0672E-03     51.4020E-03    -21.5030E-03     43.2670E-03
            2161     10.5767E-03     15.8450E-03    -9.45848E+06    -69.6168E+06    -15.4383E+06     4.60475E+06    -28.5470E-03     49.4760E-03    -20.9290E-03     36.8479E-03    -28.4933E-03     49.1865E-03    -20.8915E-03     36.8473E-03
            2162     9.70114E-03     15.8062E-03    -9.34695E+06    -76.7960E+06    -11.0642E+06     4.84901E+06    -26.9472E-03     47.3197E-03    -20.3725E-03     31.5525E-03    -26.8798E-03     46.9786E-03    -20.3029E-03     31.5736E-03
            2163     8.82418E-03     15.7727E-03    -9.67209E+06    -82.1955E+06    -8.99480E+06     5.48820E+06    -25.3551E-03     45.1918E-03    -19.8367E-03     26.6576E-03    -25.2789E-03     44.8157E-03    -19.7485E-03     26.7000E-03
            2164     7.94578E-03     15.7439E-03    -10.0650E+06    -86.2488E+06    -9.45251E+06     6.18645E+06    -23.8857E-03     43.2124E-03    -19.3267E-03     22.3016E-03    -23.8018E-03     42.8140E-03    -19.2343E-03     22.3618E-03
            2165     7.06629E-03     15.7194E-03    -10.5736E+06    -89.3924E+06    -9.29360E+06     6.76786E+06    -22.5148E-03     41.3769E-03    -18.8621E-03     18.4291E-03    -22.4273E-03     40.9614E-03    -18.7636E-03     18.5030E-03
            2166     6.18561E-03     15.6988E-03    -11.2743E+06    -91.1120E+06    -9.13968E+06     6.89534E+06    -21.2537E-03     39.6982E-03    -18.4445E-03     15.0192E-03    -21.1662E-03     39.2738E-03    -18.3418E-03     15.0989E-03
            2167     5.30395E-03     15.6821E-03    -12.0452E+06    -90.6280E+06    -10.6075E+06     6.62436E+06    -20.1261E-03     38.1963E-03    -18.0701E-03     12.0626E-03    -20.0404E-03     37.7768E-03    -17.9743E-03     12.1417E-03
            2168     4.42130E-03     15.6683E-03    -12.5096E+06    -90.4128E+06    -12.1125E+06     6.18071E+06    -19.1750E-03     36.9279E-03    -17.7529E-03     9.50397E-03    -19.0894E-03     36.5120E-03    -17.6642E-03     9.57928E-03
            2169     3.53796E-03     15.6577E-03    -12.9282E+06    -90.0003E+06    -12.7120E+06     5.48148E+06    -18.4107E-03     35.9068E-03    -17.4961E-03     7.26791E-03    -18.3267E-03     35.4943E-03    -17.4104E-03     7.33558E-03
            2170     2.65402E-03     15.6494E-03    -13.4051E+06    -89.7953E+06    -13.3335E+06     4.66446E+06    -17.8144E-03     35.1088E-03    -17.2944E-03     5.27905E-03    -17.7321E-03     34.6987E-03    -17.2114E-03     5.33720E-03
            2171     1.76957E-03     15.6439E-03    -14.0380E+06    -90.0803E+06    -14.3205E+06     3.50477E+06    -17.3906E-03     34.5351E-03    -17.1445E-03     3.50004E-03    -17.3095E-03     34.1259E-03    -17.0651E-03     3.54400E-03
            2172     884.906E-06     15.6402E-03    -14.6620E+06    -90.1930E+06    -14.8496E+06     1.98618E+06    -17.1160E-03     34.1667E-03    -17.0507E-03     1.79783E-03    -17.0370E-03     33.7586E-03    -16.9729E-03     1.82282E-03
            2173     16.6647E-03     15.6516E-03    -6.08800E+06     160.654E+06     95.9192E+06     1.43098E+06    -71.5041E-03     97.8341E-03    -26.3300E-03     341.641E-03    -86.4168E-03     113.018E-03    -26.0746E-03     345.692E-03
            2174     15.8058E-03     15.3215E-03    -10.0972E+06     111.637E+06     43.7788E+06     2.78257E+06    -58.9287E-03     83.8013E-03    -24.8726E-03     257.966E-03    -65.6648E-03     90.7718E-03    -24.8009E-03     257.483E-03
            2175     14.9383E-03     15.1370E-03    -12.1862E+06     61.0360E+06    -10.1549E+06     3.57253E+06    -42.9912E-03     66.6585E-03    -23.6673E-03     132.043E-03    -44.0636E-03     67.9344E-03    -23.7889E-03     131.611E-03
            2176     14.0749E-03     15.0547E-03    -11.1346E+06     24.6198E+06    -29.7388E+06     5.12791E+06    -35.1578E-03     57.9943E-03    -22.8365E-03     64.3216E-03    -35.4080E-03     58.3787E-03    -23.0047E-03     64.1446E-03
            2177     13.2022E-03     15.0015E-03    -9.94011E+06    -6.06082E+06    -27.8370E+06     5.85999E+06    -33.3649E-03     55.5575E-03    -22.1926E-03     52.8653E-03    -33.4654E-03     55.6820E-03    -22.3086E-03     52.7729E-03
            2178     12.3308E-03     14.9410E-03    -9.89875E+06    -31.7359E+06    -20.6188E+06     5.52361E+06    -31.9947E-03     53.5683E-03    -21.5736E-03     50.9027E-03    -32.0303E-03     53.5160E-03    -21.6163E-03     50.8570E-03
            2179     11.4575E-03     14.8919E-03    -9.56919E+06    -53.2049E+06    -17.3552E+06     5.34566E+06    -30.1429E-03     51.0813E-03    -20.9385E-03     40.7935E-03    -30.1225E-03     50.8886E-03    -20.9342E-03     40.7814E-03
            2180     10.5834E-03     14.8498E-03    -9.59821E+06    -68.6204E+06    -15.9987E+06     5.16927E+06    -28.3932E-03     48.7022E-03    -20.3090E-03     34.1570E-03    -28.3382E-03     48.4160E-03    -20.2755E-03     34.1678E-03
            2181     9.70755E-03     14.8134E-03    -9.89625E+06    -76.8208E+06    -12.2303E+06     5.29677E+06    -26.6409E-03     46.3534E-03    -19.7125E-03     28.9058E-03    -26.5726E-03     46.0128E-03    -19.6479E-03     28.9362E-03
            2182     8.83018E-03     14.7819E-03    -10.2957E+06    -82.3309E+06    -9.69626E+06     5.92533E+06    -24.9508E-03     44.0964E-03    -19.1456E-03     24.1416E-03    -24.8753E-03     43.7203E-03    -19.0598E-03     24.1923E-03
            2183     7.95152E-03     14.7551E-03    -10.8154E+06    -86.1290E+06    -10.4519E+06     6.57937E+06    -23.3475E-03     41.9539E-03    -18.6064E-03     19.9354E-03    -23.2653E-03     41.5579E-03    -18.5181E-03     20.0028E-03
            2184     7.07149E-03     14.7323E-03    -11.0223E+06    -88.7848E+06    -10.3300E+06     6.94701E+06    -21.8635E-03     39.9859E-03    -18.1224E-03     16.2857E-03    -21.7771E-03     39.5752E-03    -18.0293E-03     16.3635E-03
            2185     6.19020E-03     14.7136E-03    -11.0896E+06    -89.9095E+06    -9.72124E+06     7.10321E+06    -20.5362E-03     38.2321E-03    -17.6958E-03     13.1331E-03    -20.4484E-03     37.8139E-03    -17.5980E-03     13.2166E-03
            2186     5.30787E-03     14.6980E-03    -11.2431E+06    -88.9581E+06    -10.8203E+06     6.95623E+06    -19.3795E-03     36.6975E-03    -17.3180E-03     10.4409E-03    -19.2917E-03     36.2854E-03    -17.2268E-03     10.5252E-03
            2187     4.42459E-03     14.6858E-03    -11.4680E+06    -88.3370E+06    -11.9134E+06     6.48769E+06    -18.4098E-03     35.4123E-03    -17.0025E-03     8.17777E-03    -18.3222E-03     35.0049E-03    -16.9173E-03     8.25767E-03
            2188     3.54051E-03     14.6758E-03    -11.6502E+06    -87.6243E+06    -12.2757E+06     5.92283E+06    -17.6500E-03     34.3994E-03    -16.7494E-03     6.21667E-03    -17.5636E-03     33.9961E-03    -16.6668E-03     6.29049E-03
            2189     2.65593E-03     14.6687E-03    -11.8054E+06    -87.0152E+06    -12.3752E+06     5.20172E+06    -17.0628E-03     33.6159E-03    -16.5532E-03     4.49779E-03    -16.9778E-03     33.2160E-03    -16.4717E-03     4.56319E-03
            2190     1.77090E-03     14.6633E-03    -11.8511E+06    -86.3468E+06    -12.2896E+06     4.13263E+06    -16.6204E-03     33.0402E-03    -16.4198E-03     3.00004E-03    -16.5367E-03     32.6435E-03    -16.3389E-03     3.05231E-03
            2191     885.452E-06     14.6603E-03    -11.7892E+06    -85.7434E+06    -12.2126E+06     2.40562E+06    -16.3773E-03     32.7436E-03    -16.3663E-03     1.56961E-03    -16.2942E-03     32.3497E-03    -16.2859E-03     1.60010E-03
            2192     16.6621E-03     14.6303E-03    -5.24823E+06     159.550E+06     96.3266E+06     916.834E+03    -73.6301E-03     99.7928E-03    -26.1627E-03     334.128E-03    -87.8415E-03     114.274E-03    -25.9048E-03     337.734E-03
            2193     15.8056E-03     14.2997E-03    -8.28774E+06     110.282E+06     45.0811E+06     2.80408E+06    -59.9243E-03     84.4911E-03    -24.5668E-03     244.700E-03    -66.0914E-03     90.8909E-03    -24.4893E-03     244.026E-03
            2194     14.9508E-03     14.1307E-03    -11.2056E+06     58.3669E+06    -10.7609E+06     5.35168E+06    -42.3647E-03     65.6413E-03    -23.2766E-03     122.768E-03    -43.2905E-03     66.7662E-03    -23.3987E-03     122.390E-03
            2195     14.0770E-03     14.0515E-03    -12.3202E+06     24.2436E+06    -31.6651E+06     6.21881E+06    -35.1828E-03     57.5941E-03    -22.4113E-03     62.7789E-03    -35.4178E-03     57.9633E-03    -22.5869E-03     62.6271E-03
            2196     13.2086E-03     14.0002E-03    -11.8507E+06    -4.67195E+06    -29.9928E+06     6.05442E+06    -33.8078E-03     55.5263E-03    -21.7186E-03     51.3271E-03    -33.9097E-03     55.6567E-03    -21.8446E-03     51.2414E-03
            2197     12.3370E-03     13.9418E-03    -10.4482E+06    -31.0720E+06    -22.1468E+06     5.86240E+06    -32.4165E-03     53.4506E-03    -21.0341E-03     47.9124E-03    -32.4478E-03     53.3989E-03    -21.0846E-03     47.8749E-03
            2198     11.4649E-03     13.8948E-03    -9.91937E+06    -52.0618E+06    -17.9976E+06     6.05546E+06    -30.2724E-03     50.6081E-03    -20.3358E-03     37.6467E-03    -30.2505E-03     50.4186E-03    -20.3359E-03     37.6481E-03
            2199     10.5903E-03     13.8557E-03    -10.1318E+06    -67.8103E+06    -16.5394E+06     5.85551E+06    -28.2395E-03     47.8939E-03    -19.6544E-03     31.2490E-03    -28.1848E-03     47.6106E-03    -19.6241E-03     31.2729E-03
            2200     9.71421E-03     13.8213E-03    -10.3370E+06    -76.5165E+06    -12.9102E+06     5.89957E+06    -26.3564E-03     45.3710E-03    -19.0146E-03     26.0427E-03    -26.2880E-03     45.0318E-03    -18.9532E-03     26.0842E-03
            2201     8.83672E-03     13.7922E-03    -10.8904E+06    -82.4858E+06    -10.0348E+06     6.40366E+06    -24.5156E-03     42.9288E-03    -18.4132E-03     21.3556E-03    -24.4413E-03     42.5522E-03    -18.3279E-03     21.4151E-03
            2202     7.95760E-03     13.7674E-03    -11.2401E+06    -85.5263E+06    -10.5072E+06     6.85370E+06    -22.7680E-03     40.6137E-03    -17.8458E-03     17.3867E-03    -22.6880E-03     40.2207E-03    -17.7580E-03     17.4597E-03
            2203     7.07696E-03     13.7469E-03    -11.3592E+06    -87.9229E+06    -11.0838E+06     6.88694E+06    -21.1902E-03     38.5284E-03    -17.3382E-03     13.9722E-03    -21.1052E-03     38.1230E-03    -17.2496E-03     14.0508E-03
            2204     6.19511E-03     13.7296E-03    -11.3124E+06    -88.9044E+06    -10.3028E+06     6.89493E+06    -19.7895E-03     36.6892E-03    -16.8997E-03     11.0532E-03    -19.7032E-03     36.2770E-03    -16.8059E-03     11.1352E-03
            2205     5.31205E-03     13.7158E-03    -11.2003E+06    -87.4059E+06    -10.5582E+06     6.88483E+06    -18.5968E-03     35.1148E-03    -16.5180E-03     8.62110E-03    -18.5113E-03     34.7098E-03    -16.4278E-03     8.70518E-03
            2206     4.42808E-03     13.7044E-03    -10.9908E+06    -86.2963E+06    -11.1355E+06     6.58761E+06    -17.6195E-03     33.8185E-03    -16.1990E-03     6.63524E-03    -17.5335E-03     33.4194E-03    -16.1136E-03     6.71699E-03
            2207     3.54339E-03     13.6958E-03    -10.7263E+06    -85.2355E+06    -11.2295E+06     5.98797E+06    -16.8242E-03     32.7702E-03    -15.9460E-03     4.99093E-03    -16.7381E-03     32.3760E-03    -15.8630E-03     5.06601E-03
            2208     2.65799E-03     13.6890E-03    -10.2124E+06    -83.9976E+06    -10.5440E+06     5.06377E+06    -16.2358E-03     31.9944E-03    -15.7586E-03     3.57082E-03    -16.1499E-03     31.6046E-03    -15.6747E-03     3.63472E-03
            2209     1.77219E-03     13.6846E-03    -9.34142E+06    -82.4977E+06    -9.36456E+06     3.67825E+06    -15.8289E-03     31.4621E-03    -15.6331E-03     2.33885E-03    -15.7425E-03     31.0767E-03    -15.5468E-03     2.38544E-03
            2210     886.133E-06     13.6815E-03    -8.42330E+06    -81.2350E+06    -8.33955E+06     2.13457E+06    -15.6154E-03     31.1719E-03    -15.5564E-03     1.29936E-03    -15.5277E-03     30.7901E-03    -15.4681E-03     1.32645E-03
            2211     16.6644E-03     13.5897E-03    -4.73335E+06     156.839E+06     93.9397E+06     308.245E+03    -75.0509E-03     100.929E-03    -25.8786E-03     320.427E-03    -88.1793E-03     114.327E-03    -25.6294E-03     323.344E-03
            2212     15.8237E-03     13.2848E-03    -9.57465E+06     106.945E+06     44.0675E+06     4.19111E+06    -58.2267E-03     82.4409E-03    -24.2142E-03     232.449E-03    -63.7098E-03     88.1433E-03    -24.1350E-03     231.829E-03
            2213     14.9503E-03     13.1260E-03    -12.1945E+06     58.4591E+06    -5.66004E+06     7.52853E+06    -41.9114E-03     64.8593E-03    -22.9479E-03     118.821E-03    -42.7561E-03     65.8847E-03    -23.0433E-03     118.506E-03
            2214     14.0851E-03     13.0485E-03    -11.9103E+06     25.5997E+06    -28.6188E+06     6.72879E+06    -36.1392E-03     58.1603E-03    -22.0210E-03     60.0432E-03    -36.3652E-03     58.5180E-03    -22.1840E-03     59.8979E-03
            2215     13.2139E-03     12.9982E-03    -11.1573E+06    -3.84920E+06    -30.9034E+06     6.06849E+06    -34.4851E-03     55.7085E-03    -21.2234E-03     48.2083E-03    -34.5754E-03     55.8353E-03    -21.3562E-03     48.1258E-03
            2216     12.3447E-03     12.9420E-03    -11.1341E+06    -30.3407E+06    -23.2812E+06     6.45560E+06    -32.7336E-03     53.1983E-03    -20.4648E-03     44.3722E-03    -32.7618E-03     53.1471E-03    -20.5211E-03     44.3469E-03
            2217     11.4718E-03     12.8990E-03    -10.9882E+06    -51.5355E+06    -19.2795E+06     6.55060E+06    -30.3378E-03     50.0415E-03    -19.7037E-03     34.5008E-03    -30.3163E-03     49.8541E-03    -19.7094E-03     34.5136E-03
            2218     10.5975E-03     12.8619E-03    -10.6915E+06    -66.8945E+06    -16.9653E+06     6.52121E+06    -28.2044E-03     47.1721E-03    -18.9677E-03     28.1117E-03    -28.1508E-03     46.8924E-03    -18.9400E-03     28.1478E-03
            2219     9.72156E-03     12.8304E-03    -11.0690E+06    -76.0117E+06    -13.1634E+06     6.61223E+06    -26.0711E-03     44.3492E-03    -18.2782E-03     22.9441E-03    -26.0051E-03     44.0125E-03    -18.2177E-03     22.9978E-03
            2220     8.84361E-03     12.8035E-03    -11.4759E+06    -82.2395E+06    -10.1437E+06     6.76183E+06    -24.0321E-03     41.6712E-03    -17.6391E-03     18.4660E-03    -23.9600E-03     41.2959E-03    -17.5540E-03     18.5326E-03
            2221     7.96397E-03     12.7814E-03    -11.7404E+06    -84.7576E+06    -10.0208E+06     6.89347E+06    -22.1873E-03     39.2310E-03    -17.0437E-03     14.7275E-03    -22.1110E-03     38.8413E-03    -16.9539E-03     14.8028E-03
            2222     7.08293E-03     12.7625E-03    -11.8574E+06    -86.7568E+06    -10.7739E+06     6.77679E+06    -20.5179E-03     37.0274E-03    -16.5095E-03     11.5329E-03    -20.4371E-03     36.6278E-03    -16.4204E-03     11.6113E-03
            2223     6.20039E-03     12.7474E-03    -11.8611E+06    -87.8428E+06    -10.1878E+06     6.59696E+06    -19.0411E-03     35.0917E-03    -16.0506E-03     8.91401E-03    -18.9590E-03     34.6852E-03    -15.9570E-03     8.99302E-03
            2224     5.31673E-03     12.7348E-03    -11.6475E+06    -85.8727E+06    -9.72381E+06     6.35195E+06    -17.7997E-03     33.4562E-03    -15.6565E-03     6.80652E-03    -17.7197E-03     33.0582E-03    -15.5637E-03     6.88430E-03
            2225     4.43206E-03     12.7250E-03    -11.1683E+06    -84.3606E+06    -9.60778E+06     5.89280E+06    -16.7713E-03     32.1006E-03    -15.3294E-03     5.11499E-03    -16.6911E-03     31.7092E-03    -15.2389E-03     5.18816E-03
            2226     3.54652E-03     12.7171E-03    -10.2705E+06    -82.7199E+06    -8.88011E+06     5.09723E+06    -15.9555E-03     31.0277E-03    -15.0722E-03     3.79838E-03    -15.8742E-03     30.6420E-03    -14.9818E-03     3.86222E-03
            2227     2.66040E-03     12.7114E-03    -9.18875E+06    -80.9290E+06    -8.10775E+06     3.81494E+06    -15.3599E-03     30.2384E-03    -14.8785E-03     2.69038E-03    -15.2769E-03     29.8589E-03    -14.7884E-03     2.73833E-03
            2228     1.77387E-03     12.7070E-03    -7.98023E+06    -79.1634E+06    -7.44823E+06     2.43628E+06    -14.9671E-03     29.7043E-03    -14.7373E-03     1.74020E-03    -14.8815E-03     29.3309E-03    -14.6481E-03     1.77087E-03
            2229     887.055E-06     12.7047E-03    -7.16040E+06    -77.9413E+06    -6.85509E+06     1.31308E+06    -14.7444E-03     29.3552E-03    -14.6108E-03     1.01363E-03    -14.6572E-03     28.9859E-03    -14.5217E-03     1.03018E-03
            2230     16.6839E-03     12.5606E-03    -4.98885E+06     153.351E+06     91.2022E+06     2.07402E+06    -75.2939E-03     100.984E-03    -25.6901E-03     315.454E-03    -87.4742E-03     113.429E-03    -25.4492E-03     317.940E-03
            2231     15.8125E-03     12.2728E-03    -9.16447E+06     106.206E+06     45.5441E+06     5.55223E+06    -57.9651E-03     81.9874E-03    -24.0222E-03     225.303E-03    -62.9285E-03     87.1635E-03    -23.9352E-03     224.742E-03
            2232     14.9575E-03     12.1152E-03    -12.8616E+06     59.0505E+06    -1.55935E+06     5.74242E+06    -43.9307E-03     66.6137E-03    -22.6830E-03     112.117E-03    -44.7265E-03     67.5785E-03    -22.7578E-03     111.752E-03
            2233     14.0898E-03     12.0457E-03    -12.5796E+06     26.2622E+06    -27.8037E+06     6.48907E+06    -37.5757E-03     59.1768E-03    -21.6011E-03     56.5533E-03    -37.7913E-03     59.5220E-03    -21.7600E-03     56.4040E-03
            2234     13.2228E-03     11.9952E-03    -11.7054E+06    -3.12339E+06     -32.465E+06     7.72022E+06    -35.0542E-03     55.7470E-03    -20.6928E-03     45.4978E-03    -35.1381E-03     55.8727E-03    -20.8336E-03     45.4410E-03
            2235     12.3513E-03     11.9440E-03    -11.7547E+06    -29.6547E+06    -24.6954E+06     7.44949E+06    -32.8826E-03     52.7512E-03    -19.8685E-03     40.9877E-03    -32.9065E-03     52.6999E-03    -19.9320E-03     40.9820E-03
            2236     11.4793E-03     11.9025E-03    -11.7116E+06    -50.5004E+06    -20.2601E+06     7.20239E+06    -30.5551E-03     49.6002E-03    -19.0450E-03     30.8823E-03    -30.5337E-03     49.4169E-03    -19.0561E-03     30.9075E-03
            2237     10.6053E-03     11.8692E-03    -11.9899E+06    -66.2844E+06    -17.7968E+06     7.05781E+06    -28.1014E-03     46.3494E-03    -18.2479E-03     24.5713E-03    -28.0518E-03     46.0736E-03    -18.2234E-03     24.6178E-03
            2238     9.72899E-03     11.8401E-03    -12.0135E+06    -75.3066E+06    -13.1281E+06     7.11711E+06    -25.6960E-03     43.2111E-03    -17.5151E-03     19.7718E-03    -25.6345E-03     42.8778E-03    -17.4541E-03     19.8349E-03
            2239     8.85075E-03     11.8165E-03    -12.3825E+06    -81.3660E+06    -9.80833E+06     7.01153E+06    -23.5295E-03     40.3710E-03    -16.8415E-03     15.6674E-03    -23.4628E-03     40.0001E-03    -16.7546E-03     15.7392E-03
            2240     7.97079E-03     11.7962E-03    -12.8105E+06    -83.8931E+06    -9.42804E+06     6.75131E+06    -21.5726E-03     37.7906E-03    -16.2180E-03     12.2176E-03    -21.5033E-03     37.4055E-03    -16.1250E-03     12.2925E-03
            2241     7.08910E-03     11.7800E-03    -12.9483E+06    -85.4011E+06    -9.48653E+06     6.47477E+06    -19.7940E-03     35.4582E-03    -15.6641E-03     9.38625E-03    -19.7223E-03     35.0649E-03    -15.5689E-03     9.46159E-03
            2242     6.20599E-03     11.7665E-03    -12.7685E+06    -86.3100E+06    -8.79554E+06     5.88540E+06    -18.2687E-03     33.4567E-03    -15.1880E-03     7.17750E-03    -18.1952E-03     33.0571E-03    -15.0883E-03     7.24785E-03
            2243     5.32159E-03     11.7558E-03    -12.2741E+06    -84.3352E+06    -8.23719E+06     5.24009E+06    -16.9690E-03     31.7498E-03    -14.7808E-03     5.41021E-03    -16.8965E-03     31.3582E-03    -14.6819E-03     5.47391E-03
            2244     4.43614E-03     11.7470E-03    -11.5823E+06    -82.3323E+06    -7.52345E+06     4.44264E+06    -15.9119E-03     30.3581E-03    -14.4462E-03     4.04069E-03    -15.8397E-03     29.9743E-03    -14.3477E-03     4.09527E-03
            2245     3.54987E-03     11.7405E-03    -10.7376E+06    -80.3175E+06    -7.18456E+06     3.28872E+06    -15.0924E-03     29.2689E-03    -14.1765E-03     2.98147E-03    -15.0193E-03     28.8934E-03    -14.0804E-03     3.02200E-03
            2246     2.66296E-03     11.7351E-03    -9.85770E+06    -78.4448E+06    -7.68878E+06     2.19361E+06    -14.4750E-03     28.4395E-03    -13.9645E-03     2.11924E-03    -14.3994E-03     28.0727E-03    -13.8749E-03     2.14626E-03
            2247     1.77554E-03     11.7317E-03    -9.31358E+06    -77.0225E+06    -8.40298E+06     1.30864E+06    -14.0521E-03     27.8596E-03    -13.8075E-03     1.39247E-03    -13.9749E-03     27.5001E-03    -13.7243E-03     1.40855E-03
            2248     887.869E-06     11.7292E-03    -8.92452E+06    -76.0160E+06    -8.64390E+06     660.974E+03    -13.8016E-03     27.4805E-03    -13.6789E-03     760.771E-06    -13.7235E-03     27.1260E-03    -13.5990E-03     768.889E-06
            2249     16.6599E-03     11.5319E-03    -6.52988E+06     149.321E+06     90.0283E+06     2.36761E+06    -76.6905E-03     102.426E-03    -25.7355E-03     303.520E-03    -88.0461E-03     114.029E-03    -25.4924E-03     305.663E-03
            2250     15.8244E-03     11.2466E-03    -9.25084E+06     104.078E+06     46.7624E+06     4.41519E+06    -61.7069E-03     85.5722E-03    -23.8654E-03     207.629E-03    -66.0806E-03     90.1487E-03    -23.7691E-03     206.697E-03
            2251     14.9615E-03     11.1101E-03    -9.80733E+06     59.5590E+06     1.08670E+06     6.45084E+06    -44.8189E-03     67.1430E-03    -22.3241E-03     101.666E-03    -45.5241E-03     68.0225E-03    -22.3908E-03     101.304E-03
            2252     14.0966E-03     11.0374E-03    -12.2840E+06     25.5182E+06    -27.1443E+06      8.4297E+06    -37.9758E-03     59.1297E-03    -21.1539E-03     52.4973E-03    -38.1706E-03     59.4506E-03    -21.3088E-03     52.3817E-03
            2253     13.2283E-03     10.9954E-03    -12.6972E+06    -3.05183E+06    -32.9768E+06     8.73470E+06    -35.7771E-03     55.9447E-03    -20.1676E-03     42.1469E-03    -35.8595E-03     56.0671E-03    -20.3096E-03     42.1038E-03
            2254     12.3590E-03     10.9441E-03    -12.5795E+06    -27.9330E+06    -24.8458E+06     8.82598E+06    -33.4592E-03     52.7134E-03    -19.2542E-03     37.0237E-03    -33.4844E-03     52.6672E-03    -19.3196E-03     37.0388E-03
            2255     11.4876E-03     10.9076E-03    -13.1130E+06    -48.5546E+06    -20.3623E+06     8.09985E+06    -30.4956E-03     48.8558E-03    -18.3602E-03     26.9990E-03    -30.4806E-03     48.6812E-03    -18.3726E-03     27.0401E-03
            2256     10.6132E-03     10.8767E-03    -13.2043E+06    -65.5677E+06    -17.8837E+06     7.35674E+06    -27.7689E-03     45.2890E-03    -17.5202E-03     21.2026E-03    -27.7243E-03     45.0169E-03    -17.4954E-03     21.2564E-03
            2257     9.73664E-03     10.8517E-03    -13.1651E+06    -74.6297E+06    -12.5852E+06     7.27721E+06    -25.2079E-03     41.9664E-03    -16.7585E-03     16.8498E-03    -25.1528E-03     41.6363E-03    -16.6941E-03     16.9175E-03
            2258     8.85790E-03     10.8301E-03    -13.2348E+06    -79.8877E+06    -8.48829E+06     6.85881E+06    -22.9036E-03     38.9681E-03    -16.0645E-03     13.2786E-03    -22.8447E-03     38.6034E-03    -15.9719E-03     13.3500E-03
            2259     7.97734E-03     10.8130E-03    -13.2479E+06    -82.7554E+06    -7.16209E+06     6.26295E+06    -20.8163E-03     36.2502E-03    -15.4338E-03     10.2553E-03    -20.7539E-03     35.8678E-03    -15.3305E-03     10.3248E-03
            2260     7.09495E-03     10.7987E-03    -13.2885E+06    -83.9524E+06    -6.64926E+06     5.81148E+06    -18.9867E-03     33.8660E-03    -14.8793E-03     7.94091E-03    -18.9228E-03     33.4762E-03    -14.7715E-03     8.00824E-03
            2261     6.21110E-03     10.7874E-03    -13.3277E+06    -84.2654E+06    -6.38055E+06     4.80231E+06    -17.4408E-03     31.8430E-03    -14.4022E-03     6.14214E-03    -17.3766E-03     31.4509E-03    -14.2925E-03     6.19873E-03
            2262     5.32600E-03     10.7781E-03    -13.0575E+06    -82.7646E+06    -6.30140E+06     3.57381E+06    -16.1499E-03     30.1467E-03    -13.9968E-03     4.72036E-03    -16.0864E-03     29.7613E-03    -13.8894E-03     4.76262E-03
            2263     4.43980E-03     10.7710E-03    -12.4880E+06    -80.4131E+06    -6.14149E+06     2.58704E+06    -15.1167E-03     28.7771E-03    -13.6604E-03     3.61231E-03    -15.0538E-03     28.4022E-03    -13.5564E-03     3.64289E-03
            2264     3.55283E-03     10.7651E-03    -12.1306E+06    -78.4744E+06    -7.61724E+06     1.57188E+06    -14.3054E-03     27.6857E-03    -13.3804E-03     2.71990E-03    -14.2413E-03     27.3221E-03    -13.2871E-03     2.73818E-03
            2265     2.66518E-03     10.7610E-03    -11.9435E+06    -77.1094E+06    -9.50508E+06     870.724E+03    -13.6857E-03     26.8443E-03    -13.1586E-03     1.97806E-03    -13.6199E-03     26.4899E-03    -13.0770E-03     1.98790E-03
            2266     1.77710E-03     10.7577E-03    -11.7191E+06    -75.9272E+06    -10.6612E+06     484.274E+03    -13.2409E-03     26.2383E-03    -12.9975E-03     1.30461E-03    -13.1740E-03     25.8912E-03    -12.9237E-03     1.30998E-03
            2267     888.625E-06     10.7561E-03    -11.4759E+06    -75.0856E+06    -11.1923E+06     193.000E+03    -12.9666E-03     25.8591E-03    -12.8925E-03     681.100E-06    -12.8988E-03     25.5166E-03    -12.8229E-03     683.129E-06
            2268     16.6762E-03     10.4768E-03    -5.32845E+06     147.023E+06     88.2196E+06     1.65692E+06    -78.6585E-03     104.241E-03    -25.5825E-03     288.278E-03    -89.1815E-03     115.013E-03    -25.3468E-03     289.815E-03
            2269     15.8266E-03     10.2308E-03    -10.1927E+06     99.2524E+06     42.8583E+06     4.29532E+06    -61.8325E-03     85.3949E-03    -23.5624E-03     190.426E-03    -65.5306E-03     89.2874E-03    -23.4772E-03     189.449E-03
            2270     14.9699E-03     10.0963E-03    -11.0484E+06     58.0470E+06     4.01268E+06     8.51527E+06    -45.6176E-03     67.5711E-03    -21.9534E-03     94.4034E-03    -46.2534E-03     68.3630E-03    -22.0015E-03     94.0757E-03
            2271     14.1037E-03     10.0373E-03    -11.6244E+06     26.6561E+06    -21.8835E+06     10.0684E+06    -38.7440E-03     59.4476E-03    -20.7036E-03     48.4781E-03    -38.9285E-03     59.7494E-03    -20.8348E-03     48.3894E-03
            2272     13.2354E-03     9.98966E-03    -12.8444E+06    -2.54426E+06    -32.4142E+06     10.4451E+06    -36.3962E-03     56.0091E-03    -19.6128E-03     38.4193E-03    -36.4741E-03     56.1266E-03    -19.7526E-03     38.4020E-03
            2273     12.3680E-03     9.94656E-03    -13.6886E+06    -26.1887E+06    -24.1740E+06     10.0504E+06    -33.5597E-03     52.1891E-03    -18.6294E-03     32.3461E-03    -33.5886E-03     52.1470E-03    -18.6924E-03     32.3817E-03
            2274     11.4951E-03     9.91249E-03    -13.9111E+06    -46.5539E+06    -18.7772E+06     8.79494E+06    -30.0759E-03     47.7751E-03    -17.6992E-03     23.8938E-03    -30.0671E-03     47.6063E-03    -17.7054E-03     23.9495E-03
            2275     10.6207E-03     9.88602E-03    -14.0954E+06    -63.8468E+06    -16.3276E+06     7.83126E+06    -27.2429E-03     44.0835E-03    -16.8406E-03     18.3119E-03    -27.2061E-03     43.8176E-03    -16.8092E-03     18.3751E-03
            2276     9.74358E-03     9.86379E-03    -14.1274E+06    -73.4282E+06    -10.8418E+06     6.81872E+06    -24.5247E-03     40.5961E-03    -16.0714E-03     14.6014E-03    -24.4780E-03     40.2702E-03    -15.9986E-03     14.6652E-03
            2277     8.86433E-03     9.84567E-03    -13.7343E+06    -78.2413E+06    -6.36840E+06     6.08021E+06    -22.0482E-03     37.4324E-03    -15.3843E-03     11.5876E-03    -21.9969E-03     37.0733E-03    -15.2827E-03     11.6503E-03
            2278     7.98285E-03     9.83091E-03    -13.6225E+06    -81.4697E+06    -4.23658E+06     5.29747E+06    -19.8956E-03     34.6750E-03    -14.7794E-03     9.16644E-03    -19.8411E-03     34.2952E-03    -14.6627E-03     9.22422E-03
            2279     7.09971E-03     9.81922E-03    -13.4803E+06    -82.5239E+06    -3.45478E+06     4.56079E+06    -18.0979E-03     32.3526E-03    -14.2547E-03     7.34445E-03    -18.0416E-03     31.9656E-03    -14.1328E-03     7.39595E-03
            2280     6.21507E-03     9.80964E-03    -13.3553E+06    -82.0391E+06    -3.68350E+06     3.47599E+06    -16.6005E-03     30.4061E-03    -13.8056E-03     5.94725E-03    -16.5436E-03     30.0213E-03    -13.6857E-03     5.98682E-03
            2281     5.32917E-03     9.80220E-03    -13.4498E+06    -80.8980E+06    -4.58942E+06     1.98199E+06    -15.4048E-03     28.8315E-03    -13.4268E-03     4.81832E-03    -15.3485E-03     28.4536E-03    -13.3129E-03     4.84001E-03
            2282     4.44244E-03     9.79606E-03    -13.5695E+06    -79.0675E+06    -6.33916E+06     786.803E+03    -14.4442E-03     27.5525E-03    -13.1083E-03     3.90538E-03    -14.3884E-03     27.1863E-03    -13.0057E-03     3.91267E-03
            2283     3.55482E-03     9.79155E-03    -13.6067E+06    -77.5844E+06    -8.87207E+06     220.897E+03    -13.6957E-03     26.5413E-03    -12.8457E-03     3.09085E-03    -13.6385E-03     26.1862E-03    -12.7578E-03     3.09161E-03
            2284     2.66669E-03     9.78784E-03    -13.6574E+06    -76.6014E+06    -11.1972E+06    -69.1778E+03    -13.1250E-03     25.7643E-03    -12.6394E-03     2.33503E-03    -13.0660E-03     25.4175E-03    -12.5645E-03     2.33268E-03
            2285     1.77803E-03     9.78557E-03    -13.6469E+06    -75.6568E+06    -12.5806E+06    -209.581E+03    -12.7078E-03     25.1999E-03    -12.4921E-03     1.60048E-03    -12.6481E-03     24.8597E-03    -12.4255E-03     1.59685E-03
            2286     889.113E-06     9.78382E-03    -13.5031E+06    -74.9505E+06    -13.2004E+06    -150.832E+03    -12.4681E-03     24.8627E-03    -12.3946E-03     856.089E-06    -12.4077E-03     24.5267E-03    -12.3323E-03     853.651E-06
            2287     16.6790E-03     9.44455E-03    -4.25887E+06     144.413E+06     87.4172E+06     2.58737E+06    -80.1146E-03     105.478E-03    -25.3638E-03     282.214E-03    -89.8351E-03     115.445E-03    -25.1300E-03     283.235E-03
            2288     15.8298E-03     9.20539E-03    -9.10073E+06     95.7812E+06     42.6290E+06     5.87827E+06    -61.4254E-03     84.7120E-03    -23.2867E-03     176.451E-03    -64.5524E-03     88.0252E-03    -23.1992E-03     175.504E-03
            2289     14.9723E-03     9.08556E-03    -12.1312E+06     54.9959E+06     4.73021E+06     8.77265E+06    -46.4869E-03     68.1053E-03    -21.6184E-03     85.0417E-03    -47.0432E-03     68.8011E-03    -21.6569E-03     84.7344E-03
            2290     14.1098E-03     9.03148E-03    -14.0210E+06     26.7128E+06    -20.2578E+06     11.2755E+06    -40.2456E-03     60.5056E-03    -20.2599E-03     45.0461E-03    -40.4323E-03     60.7964E-03    -20.3796E-03     44.9746E-03
            2291     13.2451E-03     8.98681E-03    -14.3041E+06    -520.730E+03    -29.9358E+06     11.9621E+06    -36.7743E-03     55.8484E-03    -19.0741E-03     35.1386E-03    -36.8583E-03     55.9672E-03    -19.2023E-03     35.1475E-03
            2292     12.3742E-03     8.94907E-03    -13.6385E+06    -24.4686E+06    -22.0669E+06     11.1320E+06    -33.0031E-03     51.0549E-03    -18.0518E-03     28.6571E-03    -33.0323E-03     51.0132E-03    -18.1069E-03     28.7150E-03
            2293     11.5024E-03     8.91884E-03    -14.8850E+06    -44.1166E+06    -16.1142E+06     9.87847E+06    -29.5237E-03     46.6427E-03    -17.1190E-03     20.7915E-03    -29.5249E-03     46.4816E-03    -17.1141E-03     20.8656E-03
            2294     10.6270E-03     8.89625E-03    -15.0376E+06    -60.6450E+06    -12.7217E+06     7.54605E+06    -26.3236E-03     42.5977E-03    -16.2740E-03     16.0890E-03    -26.3002E-03     42.3427E-03    -16.2279E-03     16.1520E-03
            2295     9.74928E-03     8.87748E-03     -14.349E+06    -71.6999E+06    -7.56996E+06     5.64119E+06    -23.5291E-03     39.0660E-03    -15.5369E-03     13.0603E-03    -23.4903E-03     38.7439E-03    -15.4500E-03     13.1107E-03
            2296     8.86894E-03     8.86263E-03    -13.8977E+06    -76.8356E+06    -2.88295E+06     4.78519E+06    -20.9656E-03     35.8655E-03    -14.8998E-03     10.7946E-03    -20.9222E-03     35.5084E-03    -14.7827E-03     10.8417E-03
            2297     7.98656E-03     8.85054E-03    -13.7530E+06    -79.8852E+06    -939.042E+03     3.95485E+06    -18.8580E-03     33.2136E-03    -14.3556E-03     9.04727E-03    -18.8112E-03     32.8372E-03    -14.2246E-03     9.08835E-03
            2298     7.10251E-03     8.84093E-03    -13.7618E+06    -80.9589E+06    -562.019E+03     2.75962E+06    -17.1591E-03     31.0569E-03    -13.8978E-03     7.72618E-03    -17.1107E-03     30.6740E-03    -13.7633E-03     7.75473E-03
            2299     6.21704E-03     8.83334E-03    -13.5848E+06    -80.2232E+06    -1.21928E+06     1.59098E+06    -15.8326E-03     29.3474E-03    -13.5149E-03     6.70574E-03    -15.7831E-03     28.9685E-03    -13.3849E-03     6.72111E-03
            2300     5.33065E-03     8.82706E-03    -13.5141E+06    -79.2337E+06    -3.32606E+06     466.723E+03    -14.7915E-03     27.9861E-03    -13.1946E-03     5.76494E-03    -14.7398E-03     27.6148E-03    -13.0768E-03     5.76714E-03
            2301     4.44324E-03     8.82240E-03    -13.8218E+06    -78.2151E+06    -6.69197E+06    -481.308E+03    -13.9897E-03     26.9185E-03    -12.9289E-03     4.91622E-03    -13.9359E-03     26.5575E-03    -12.8289E-03     4.90718E-03
            2302     3.55536E-03     8.81841E-03    -14.2355E+06    -77.4903E+06    -9.65202E+06    -897.291E+03    -13.3804E-03     26.0979E-03    -12.7175E-03     4.04787E-03    -13.3254E-03     25.7453E-03    -12.6327E-03     4.03422E-03
            2303     2.66689E-03     8.81579E-03    -14.3913E+06    -76.7082E+06    -11.7537E+06    -911.749E+03    -12.9208E-03     25.4777E-03    -12.5569E-03     3.12675E-03    -12.8646E-03     25.1322E-03    -12.4835E-03     3.11356E-03
            2304     1.77814E-03     8.81357E-03    -14.3694E+06    -76.0578E+06    -13.1732E+06    -801.604E+03    -12.6040E-03     25.0480E-03    -12.4440E-03     2.17063E-03    -12.5465E-03     24.7077E-03    -12.3788E-03     2.15939E-03
            2305     889.085E-06     8.81264E-03    -14.4796E+06    -75.6661E+06    -13.8386E+06    -540.683E+03    -12.4406E-03     24.7935E-03    -12.3529E-03     1.18943E-03    -12.3832E-03     24.4564E-03    -12.2914E-03     1.18198E-03
            2306     16.6748E-03     8.39851E-03    -5.51520E+06     140.127E+06     86.9422E+06     3.31548E+06    -81.9841E-03     107.214E-03    -25.2295E-03     268.688E-03    -90.8100E-03     116.267E-03    -24.9900E-03     269.180E-03
            2307     15.8373E-03     8.17848E-03    -9.36371E+06     92.8720E+06      44.138E+06     6.85730E+06    -61.9998E-03     85.0272E-03    -23.0273E-03     157.824E-03    -64.5851E-03     87.7839E-03    -22.9277E-03     156.829E-03
            2308     14.9795E-03     8.07935E-03    -13.2418E+06     52.4307E+06     6.00156E+06     10.2168E+06    -46.9514E-03     68.2161E-03    -21.2647E-03     76.4233E-03    -47.4539E-03     68.8413E-03    -21.2915E-03     76.1507E-03
            2309     14.1158E-03     8.01934E-03    -15.4052E+06     25.4318E+06    -17.6256E+06     11.9356E+06    -40.7892E-03     60.6320E-03    -19.8428E-03     39.8639E-03    -40.9697E-03     60.8998E-03    -19.9455E-03     39.8093E-03
            2310     13.2501E-03     7.98799E-03    -14.9931E+06     417.994E+03    -26.7544E+06     13.1278E+06    -36.5459E-03     55.1578E-03    -18.6120E-03     30.7694E-03    -36.6318E-03     55.2702E-03    -18.7246E-03     30.8019E-03
            2311     12.3811E-03     7.95016E-03    -17.1274E+06    -21.4378E+06    -19.1731E+06     13.2789E+06    -32.4866E-03     50.0642E-03    -17.5776E-03     25.1527E-03    -32.5383E-03     50.0351E-03    -17.6175E-03     25.2444E-03
            2312     11.5082E-03     7.92761E-03    -17.3632E+06    -38.7451E+06    -11.4140E+06     9.31788E+06    -28.3555E-03     45.0283E-03    -16.6728E-03     17.9073E-03    -28.3817E-03     44.8887E-03    -16.6486E-03     17.9795E-03
            2313     10.6315E-03     7.90749E-03    -15.8733E+06    -57.4618E+06    -7.75998E+06     5.70134E+06    -24.9284E-03     40.8238E-03    -15.8954E-03     14.8824E-03    -24.9202E-03     40.5780E-03    -15.8278E-03     14.9251E-03
            2314     9.75259E-03     7.89306E-03    -14.5636E+06    -69.6746E+06    -2.68195E+06     3.88204E+06    -22.1337E-03     37.3815E-03    -15.2478E-03     12.5740E-03    -22.1058E-03     37.0625E-03    -15.1391E-03     12.6039E-03
            2315     8.87101E-03     7.88094E-03    -13.8958E+06    -75.7096E+06     1.89360E+06     2.72148E+06    -19.7221E-03     34.4332E-03    -14.7111E-03     11.1247E-03    -19.6871E-03     34.0747E-03    -14.5717E-03     11.1464E-03
            2316     7.98767E-03     7.87149E-03    -13.3639E+06    -78.4469E+06     3.36176E+06     1.96432E+06    -17.7792E-03     32.0478E-03    -14.2687E-03     10.0231E-03    -17.7388E-03     31.6719E-03    -14.1187E-03     10.0392E-03
            2317     7.10255E-03     7.86389E-03    -13.2118E+06    -79.1948E+06     2.23114E+06     741.386E+03    -16.3300E-03     30.2382E-03    -13.9082E-03     9.09942E-03    -16.2856E-03     29.8594E-03    -13.7631E-03     9.10237E-03
            2318     6.21653E-03     7.85758E-03    -13.1898E+06    -78.9368E+06     404.201E+03    -600.668E+03    -15.2465E-03     28.8676E-03    -13.6212E-03     8.25514E-03    -15.1993E-03     28.4923E-03    -13.4856E-03     8.24255E-03
            2319     5.32947E-03     7.85274E-03    -13.1414E+06    -78.5293E+06    -2.44646E+06    -1.37649E+06    -14.4586E-03     27.8498E-03    -13.3912E-03     7.32896E-03    -14.4074E-03     27.4802E-03    -13.2705E-03     7.30763E-03
            2320     4.44204E-03     7.84864E-03    -13.2016E+06    -77.9426E+06    -5.87859E+06    -1.65848E+06    -13.8881E-03     27.0954E-03    -13.2073E-03     6.35274E-03    -13.8328E-03     26.7337E-03    -13.1046E-03     6.32870E-03
            2321     3.55400E-03     7.84566E-03    -13.4174E+06    -77.7785E+06    -8.90984E+06    -1.83881E+06    -13.4696E-03     26.5363E-03    -13.0667E-03     5.25925E-03    -13.4112E-03     26.1800E-03    -12.9790E-03     5.23362E-03
            2322     2.66578E-03     7.84315E-03    -13.5622E+06    -77.4012E+06    -10.8407E+06    -1.80287E+06    -13.1778E-03     26.1431E-03    -12.9653E-03     4.08390E-03    -13.1178E-03     25.7916E-03    -12.8876E-03     4.05933E-03
            2323     1.77725E-03     7.84169E-03    -13.6231E+06    -77.1095E+06    -12.1652E+06    -1.40937E+06    -12.9934E-03     25.8867E-03    -12.8933E-03     2.83015E-03    -12.9321E-03     25.5386E-03    -12.8225E-03     2.81116E-03
            2324     888.732E-06     7.84039E-03    -13.6190E+06    -77.0909E+06    -13.2002E+06    -891.274E+03    -12.8717E-03     25.7197E-03    -12.8480E-03     1.54797E-03    -12.8088E-03     25.3732E-03    -12.7825E-03     1.53604E-03
            2325     16.6879E-03     7.34328E-03    -5.25517E+06     137.884E+06     87.2473E+06     3.94578E+06    -83.5656E-03     108.650E-03    -25.0840E-03     254.464E-03    -91.4989E-03     116.805E-03    -24.8401E-03     254.371E-03
            2326     15.8393E-03     7.16364E-03    -10.8017E+06     88.5392E+06     45.4994E+06     7.61397E+06    -62.4014E-03     85.1798E-03    -22.7784E-03     143.235E-03    -64.5519E-03     87.4767E-03    -22.6636E-03     142.289E-03
            2327     14.9831E-03     7.05875E-03    -13.7099E+06     50.2733E+06     10.9125E+06     10.9719E+06    -48.5129E-03     69.4335E-03    -20.9206E-03     66.4637E-03    -48.9668E-03     69.9872E-03    -20.9191E-03     66.1945E-03
            2328     14.1240E-03     7.01856E-03     -15.584E+06     22.5600E+06    -15.4372E+06     14.2259E+06    -39.8814E-03     59.3150E-03    -19.4336E-03     33.8742E-03    -40.0437E-03     59.5475E-03    -19.5209E-03     33.8703E-03
            2329     13.2552E-03     6.98309E-03    -21.1185E+06     543.050E+03    -25.7262E+06     16.8599E+06    -35.6126E-03     53.8403E-03    -18.2277E-03     27.0258E-03    -35.7250E-03     53.9547E-03    -18.3265E-03     27.1181E-03
            2330     12.3863E-03     6.95610E-03    -21.5893E+06    -13.0685E+06    -12.3243E+06     12.2869E+06    -30.9828E-03     48.2439E-03    -17.2611E-03     21.2413E-03    -31.0746E-03     48.2490E-03    -17.2725E-03     21.3289E-03
            2331     11.5110E-03     6.93604E-03    -18.5245E+06    -33.2154E+06    -4.34108E+06     5.89196E+06    -26.3830E-03     42.8427E-03    -16.4597E-03     16.9764E-03    -26.4317E-03     42.7206E-03    -16.4064E-03     17.0113E-03
            2332     10.6335E-03     6.92203E-03    -16.5831E+06    -54.4357E+06    -1.45308E+06     3.03807E+06    -23.1947E-03     39.0076E-03    -15.8128E-03     15.0264E-03    -23.2032E-03     38.7683E-03    -15.7171E-03     15.0384E-03
            2333     9.75227E-03     6.90946E-03    -15.1108E+06    -67.8880E+06     2.87804E+06     928.636E+03    -20.5057E-03     35.8099E-03    -15.3042E-03     13.6814E-03    -20.4910E-03     35.4924E-03    -15.1695E-03     13.6757E-03
            2334     8.86979E-03     6.90096E-03    -13.7750E+06    -74.8491E+06     6.69430E+06    -78.0427E+03    -18.4880E-03     33.3965E-03    -14.9085E-03     12.7035E-03    -18.4606E-03     33.0352E-03    -14.7465E-03     12.6904E-03
            2335     7.98498E-03     6.89321E-03    -13.2275E+06    -77.5366E+06     6.55952E+06    -773.918E+03    -16.9370E-03     31.5284E-03    -14.5913E-03     11.9705E-03    -16.9019E-03     31.1521E-03    -14.4269E-03     11.9521E-03
            2336     7.09957E-03     6.88724E-03    -12.5738E+06    -77.7268E+06     3.99649E+06    -1.77941E+06    -15.8424E-03     30.1851E-03    -14.3427E-03     11.1119E-03    -15.7994E-03     29.8100E-03    -14.1918E-03     11.0830E-03
            2337     6.21294E-03     6.88211E-03    -12.1949E+06    -78.1922E+06     1.25146E+06    -2.83362E+06    -15.0822E-03     29.2408E-03    -14.1586E-03     10.1326E-03    -15.0323E-03     28.8664E-03    -14.0213E-03     10.0917E-03
            2338     5.32608E-03     6.87788E-03    -11.9892E+06    -78.6216E+06    -1.69754E+06    -3.41548E+06    -14.5726E-03     28.5949E-03    -14.0223E-03     8.99809E-03    -14.5165E-03     28.2221E-03    -13.8994E-03     8.95083E-03
            2339     4.43862E-03     6.87451E-03    -11.6918E+06    -78.6416E+06    -4.47382E+06    -3.37918E+06    -14.2449E-03     28.1658E-03    -13.9209E-03     7.72886E-03    -14.1831E-03     27.7963E-03    -13.8123E-03     7.68294E-03
            2340     3.55117E-03     6.87169E-03    -11.2831E+06    -78.5773E+06    -6.74596E+06    -3.01123E+06    -14.0213E-03     27.8687E-03    -13.8474E-03     6.33358E-03    -13.9542E-03     27.5021E-03    -13.7508E-03     6.29307E-03
            2341     2.66339E-03     6.86975E-03    -11.2349E+06    -78.6416E+06    -8.66728E+06    -2.57902E+06    -13.8798E-03     27.6763E-03    -13.7965E-03     4.87632E-03    -13.8095E-03     27.3120E-03    -13.7095E-03     4.84192E-03
            2342     1.77570E-03     6.86803E-03    -11.3734E+06    -78.8090E+06    -10.1414E+06    -1.97275E+06    -13.7937E-03     27.5577E-03    -13.7640E-03     3.36580E-03    -13.7216E-03     27.1948E-03    -13.6839E-03     3.33966E-03
            2343     887.791E-06     6.86740E-03    -11.3857E+06    -79.0336E+06    -11.0885E+06    -1.14829E+06    -13.7423E-03     27.4992E-03    -13.7569E-03     1.81754E-03    -13.6685E-03     27.1367E-03    -13.6812E-03     1.80235E-03
            2344     16.6825E-03     6.31285E-03    -8.18680E+06     132.092E+06     86.1330E+06     5.29528E+06    -87.4471E-03     112.484E-03    -25.0364E-03     241.526E-03    -94.6039E-03     119.834E-03    -24.7854E-03     241.021E-03
            2345     15.8397E-03     6.12566E-03    -10.0542E+06     86.3032E+06     51.4765E+06     7.88550E+06    -65.8823E-03     88.3930E-03    -22.5107E-03     120.744E-03    -67.5988E-03     90.2353E-03    -22.3639E-03     119.659E-03
            2346     14.9949E-03     6.04734E-03    -13.9294E+06     45.5719E+06     13.9216E+06     13.0861E+06    -46.3550E-03     66.9077E-03    -20.5527E-03     52.0362E-03    -46.7175E-03     67.3437E-03    -20.5290E-03     51.8541E-03
            2347     14.1261E-03     6.01501E-03    -22.2255E+06     17.2370E+06    -11.6341E+06     20.0300E+06    -38.2750E-03     57.4294E-03    -19.1544E-03     31.5181E-03    -38.4564E-03     57.6271E-03    -19.2054E-03     31.6143E-03
            2348     13.2606E-03     5.98169E-03    -22.3447E+06     9.17678E+06    -11.6341E+06     16.8406E+06    -33.6304E-03     51.6963E-03    -18.0658E-03     24.6271E-03    -33.7750E-03     51.8285E-03    -18.1049E-03     24.7359E-03
            2349     12.3875E-03     5.96337E-03    -19.1762E+06    -4.14537E+06    -2.06544E+06     7.92931E+06    -27.9985E-03     45.2309E-03    -17.2324E-03     20.1437E-03    -28.1024E-03     45.2583E-03    -17.2089E-03     20.1886E-03
            2350     11.5104E-03     5.94825E-03    -18.4694E+06    -28.8210E+06     2.99782E+06     3.06106E+06    -24.1913E-03     40.8075E-03    -16.6162E-03     18.5150E-03    -24.2560E-03     40.6958E-03    -16.5326E-03     18.5198E-03
            2351     10.6300E-03     5.93667E-03    -17.4382E+06    -50.8686E+06     5.31517E+06    -909.122E+03    -21.3904E-03     37.5335E-03    -16.1431E-03     16.8919E-03    -21.4175E-03     37.3029E-03    -16.0175E-03     16.8572E-03
            2352     9.74826E-03     5.92854E-03    -15.4461E+06    -66.9636E+06     7.51382E+06    -2.98105E+06    -19.2146E-03     35.0065E-03    -15.7918E-03     16.1188E-03    -19.2094E-03     34.6870E-03    -15.6348E-03     16.0652E-03
            2353     8.86367E-03     5.92080E-03    -14.2055E+06    -74.6013E+06     9.01267E+06    -3.47011E+06    -17.6942E-03     33.2282E-03    -15.5340E-03     15.1035E-03    -17.6725E-03     32.8651E-03    -15.3601E-03     15.0484E-03
            2354     7.97923E-03     5.91543E-03    -13.0284E+06    -76.8200E+06     7.62336E+06    -4.18784E+06    -16.6762E-03     32.0095E-03    -15.3333E-03     14.1994E-03    -16.6426E-03     31.6348E-03    -15.1649E-03     14.1380E-03
            2355     7.09308E-03     5.90995E-03    -12.1044E+06    -77.3289E+06     4.52088E+06    -4.91527E+06    -15.9701E-03     31.1510E-03    -15.1809E-03     13.0543E-03    -15.9260E-03     30.7763E-03    -15.0286E-03     12.9856E-03
            2356     6.20718E-03     5.90577E-03    -11.1660E+06    -78.2085E+06     1.21843E+06    -5.36276E+06    -15.5159E-03     30.5882E-03    -15.0723E-03     11.7070E-03    -15.4608E-03     30.2122E-03    -14.9366E-03     11.6340E-03
            2357     5.32046E-03     5.90190E-03    -10.4954E+06    -79.3856E+06    -2.07733E+06    -5.49623E+06    -15.2373E-03     30.2329E-03    -14.9956E-03     10.2302E-03    -15.1721E-03     29.8545E-03    -14.8756E-03     10.1565E-03
            2358     4.43399E-03     5.89874E-03    -9.98920E+06    -80.1291E+06    -4.55230E+06    -5.17468E+06    -15.0677E-03     30.0115E-03    -14.9438E-03     8.61609E-03    -14.9951E-03     29.6321E-03    -14.8359E-03     8.54735E-03
            2359     3.54711E-03     5.89623E-03    -9.56943E+06    -80.3866E+06    -6.06788E+06    -4.37347E+06    -14.9745E-03     29.8844E-03    -14.9099E-03     6.94477E-03    -14.8971E-03     29.5052E-03    -14.8098E-03     6.88693E-03
            2360     2.66047E-03     5.89414E-03    -9.33111E+06    -80.5839E+06    -7.29363E+06    -3.36049E+06    -14.9115E-03     29.7985E-03    -14.8871E-03     5.25474E-03    -14.8308E-03     29.4197E-03    -14.7932E-03     5.21042E-03
            2361     1.77353E-03     5.89287E-03    -9.38896E+06    -81.0192E+06    -8.49543E+06    -2.33360E+06    -14.8739E-03     29.7486E-03    -14.8746E-03     3.56990E-03    -14.7911E-03     29.3694E-03    -14.7860E-03     3.53920E-03
            2362     886.823E-06     5.89170E-03    -9.50155E+06    -81.4458E+06    -9.33738E+06    -1.35207E+06    -14.8573E-03     29.7394E-03    -14.8822E-03     1.93081E-03    -14.7731E-03     29.3596E-03    -14.7970E-03     1.91305E-03
            2363     16.6755E-03     5.23468E-03    -5.84072E+06     128.575E+06     86.6223E+06     4.45242E+06    -90.4483E-03     115.245E-03    -24.7964E-03     216.169E-03    -96.5530E-03     121.539E-03    -24.5413E-03     214.898E-03
            2364     15.8640E-03     5.09458E-03    -9.96657E+06     78.9628E+06     50.7326E+06     11.1587E+06    -61.9082E-03     84.1221E-03    -22.2139E-03     96.8646E-03    -63.1215E-03     85.4371E-03    -22.0603E-03     95.9789E-03
            2365     14.9932E-03     5.04772E-03    -18.3291E+06     36.5189E+06     18.2722E+06     21.0573E+06    -43.3833E-03     63.8124E-03    -20.4291E-03     48.1331E-03    -43.7006E-03     64.1415E-03    -20.3641E-03     48.1368E-03
            2366     14.1292E-03     5.00561E-03    -20.4326E+06     23.4813E+06     9.04805E+06     20.3862E+06    -35.7765E-03     55.0094E-03    -19.2328E-03     32.0068E-03    -35.9764E-03     55.1947E-03    -19.1920E-03     32.1381E-03
            2367     13.2595E-03     4.98706E-03    -18.5153E+06     19.1442E+06     4.70736E+06     11.7897E+06    -29.9294E-03     48.2465E-03    -18.3170E-03     25.5855E-03    -30.0860E-03     48.3922E-03    -18.2944E-03     25.6544E-03
            2368     12.3820E-03     4.97333E-03    -18.6131E+06     2.34420E+06     4.87661E+06     6.32289E+06    -25.5212E-03     43.1958E-03    -17.6745E-03     22.9353E-03    -25.6397E-03     43.2425E-03    -17.6266E-03     22.9707E-03
            2369     11.5030E-03     4.96102E-03    -18.3836E+06    -22.1994E+06     9.50868E+06    -210.422E+03    -22.3279E-03     39.5793E-03    -17.2513E-03     21.4467E-03    -22.4099E-03     39.4898E-03    -17.1449E-03     21.4156E-03
            2370     10.6220E-03     4.95389E-03    -16.7272E+06    -48.2334E+06     10.5524E+06    -5.41135E+06    -20.2710E-03     37.2188E-03    -16.9478E-03     20.1183E-03    -20.3053E-03     36.9919E-03    -16.8008E-03     20.0295E-03
            2371     9.73824E-03     4.94630E-03    -15.4340E+06    -66.5935E+06     10.8863E+06    -6.97043E+06    -18.8750E-03     35.6002E-03    -16.7251E-03     18.6635E-03    -18.8747E-03     35.2771E-03    -16.5518E-03     18.5607E-03
            2372     8.85498E-03     4.94138E-03    -13.8755E+06    -74.9277E+06     9.94470E+06    -7.75514E+06    -17.8381E-03     34.3924E-03    -16.5543E-03     17.3722E-03    -17.8153E-03     34.0254E-03    -16.3758E-03     17.2633E-03
            2373     7.96953E-03     4.93571E-03    -12.1711E+06    -76.9503E+06     7.02352E+06    -8.05008E+06    -17.2538E-03     33.6697E-03    -16.4158E-03     15.8074E-03    -17.2146E-03     33.2936E-03    -16.2515E-03     15.6972E-03
            2374     7.08511E-03     4.93162E-03    -10.7629E+06    -78.0516E+06     3.14993E+06    -8.18106E+06    -16.8394E-03     33.1437E-03    -16.3043E-03     14.1400E-03    -16.7854E-03     32.7652E-03    -16.1598E-03     14.0300E-03
            2375     6.19934E-03     4.92737E-03    -9.80689E+06    -79.4680E+06    -527.712E+03    -7.84954E+06    -16.5691E-03     32.7881E-03    -16.2189E-03     12.3825E-03    -16.5028E-03     32.4062E-03    -16.0921E-03     12.2780E-03
            2376     5.31423E-03     4.92393E-03    -9.37851E+06    -81.0482E+06    -3.91600E+06    -7.14150E+06    -16.3801E-03     32.5333E-03    -16.1532E-03     10.5325E-03    -16.3041E-03     32.1476E-03    -16.0417E-03     10.4380E-03
            2377     4.42840E-03     4.92093E-03    -9.30973E+06    -82.2316E+06    -6.32523E+06    -6.30699E+06    -16.2500E-03     32.3551E-03    -16.1051E-03     8.72423E-03    -16.1683E-03     31.9667E-03    -16.0040E-03     8.64119E-03
            2378     3.54298E-03     4.91834E-03    -9.31354E+06    -82.9874E+06    -7.79298E+06    -5.27408E+06    -16.1659E-03     32.2357E-03    -16.0697E-03     6.89006E-03    -16.0810E-03     31.8456E-03    -15.9749E-03     6.82080E-03
            2379     2.65712E-03     4.91659E-03    -9.31158E+06    -83.2901E+06    -8.26796E+06    -3.93826E+06    -16.1009E-03     32.1454E-03    -16.0444E-03     5.13333E-03    -16.0148E-03     31.7544E-03    -15.9515E-03     5.08168E-03
            2380     1.77159E-03     4.91496E-03    -9.41163E+06    -83.6304E+06    -8.78100E+06    -2.57982E+06    -16.0497E-03     32.0748E-03    -16.0251E-03     3.44799E-03    -15.9628E-03     31.6830E-03    -15.9341E-03     3.41419E-03
            2381     885.716E-06     4.91437E-03    -9.58028E+06    -84.1071E+06    -9.50297E+06    -1.37673E+06    -16.0171E-03     32.0307E-03    -16.0136E-03     1.86551E-03    -15.9292E-03     31.6379E-03    -15.9253E-03     1.84748E-03
            2382     16.7192E-03     4.18591E-03    -4.69146E+06     118.534E+06     79.3215E+06     6.70281E+06    -87.5035E-03     112.319E-03    -24.8151E-03     210.855E-03    -92.6056E-03     117.603E-03    -24.5836E-03     209.312E-03
            2383     15.8384E-03     4.08160E-03    -11.7591E+06     66.8461E+06     47.8411E+06     19.8845E+06    -58.1014E-03     80.5375E-03    -22.4360E-03     90.2795E-03    -58.9628E-03     81.4530E-03    -22.2767E-03     89.8362E-03
            2384     14.9910E-03     4.02992E-03    -17.7241E+06     37.8342E+06     33.4802E+06     21.6418E+06    -42.3228E-03     63.1822E-03    -20.8594E-03     43.6202E-03    -42.6165E-03     63.4519E-03    -20.7211E-03     43.6803E-03
            2385     14.1251E-03     4.01029E-03    -14.1251E+06     33.4828E+06     28.2932E+06     15.2832E+06    -31.7131E-03     51.5540E-03    -19.8409E-03     34.8866E-03    -31.9123E-03     51.7407E-03    -19.7275E-03     34.9886E-03
            2386     13.2452E-03     3.99376E-03    -14.3615E+06     26.2520E+06     16.1111E+06     10.1899E+06    -27.3007E-03     46.4458E-03    -19.1451E-03     30.3441E-03    -27.4585E-03     46.5991E-03    -19.0818E-03     30.4133E-03
            2387     12.3705E-03     3.98210E-03    -14.3111E+06     11.1172E+06     14.7266E+06     3.38617E+06    -24.4194E-03     43.0949E-03    -18.6754E-03     25.6007E-03    -24.5404E-03     43.1620E-03    -18.5972E-03     25.6069E-03
            2388     11.4901E-03     3.97721E-03    -12.7760E+06    -15.5262E+06     14.6557E+06    -3.87092E+06    -21.7774E-03     40.1410E-03    -18.3636E-03     24.4258E-03    -21.8468E-03     40.0674E-03    -18.2492E-03     24.3531E-03
            2389     10.6074E-03     3.96799E-03    -13.4156E+06    -46.2164E+06     11.5459E+06    -8.10264E+06    -20.5105E-03     38.6616E-03    -18.1512E-03     22.5724E-03    -20.5316E-03     38.4375E-03    -18.0070E-03     22.4522E-03
            2390     9.72629E-03     3.96446E-03    -13.4459E+06    -66.1975E+06     10.0836E+06    -10.8553E+06    -19.7259E-03     37.7076E-03    -17.9817E-03     20.1129E-03    -19.7143E-03     37.3839E-03    -17.8158E-03     19.9621E-03
            2391     8.84211E-03     3.95865E-03    -12.0606E+06    -75.5913E+06     7.44739E+06    -12.0667E+06    -19.1328E-03     36.9548E-03    -17.8220E-03     18.2856E-03    -19.0960E-03     36.5850E-03    -17.6576E-03     18.1224E-03
            2392     7.95978E-03     3.95465E-03    -10.3487E+06    -78.5175E+06     3.44634E+06    -11.9842E+06    -18.6719E-03     36.3433E-03    -17.6714E-03     16.0116E-03    -18.6159E-03     35.9616E-03    -17.5253E-03     15.8517E-03
            2393     7.07528E-03     3.95031E-03    -8.83224E+06    -80.3030E+06    -581.656E+03    -10.8184E+06    -18.3363E-03     35.8744E-03    -17.5381E-03     13.9448E-03    -18.2639E-03     35.4870E-03    -17.4117E-03     13.8015E-03
            2394     6.19201E-03     3.94668E-03    -8.46950E+06    -82.1312E+06    -3.91023E+06    -9.19432E+06    -18.0508E-03     35.4747E-03    -17.4238E-03     11.8529E-03    -17.9688E-03     35.0822E-03    -17.3120E-03     11.7316E-03
            2395     5.30746E-03     3.94344E-03    -8.76189E+06    -83.5936E+06    -6.31564E+06    -7.69410E+06    -17.7937E-03     35.1215E-03    -17.3278E-03     9.91511E-03    -17.7074E-03     34.7255E-03    -17.2254E-03     9.81393E-03
            2396     4.42349E-03     3.94055E-03    -9.24088E+06    -84.8366E+06    -8.37741E+06    -6.45135E+06    -17.5875E-03     34.8331E-03    -17.2456E-03     8.04856E-03    -17.4987E-03     34.4345E-03    -17.1511E-03     7.96395E-03
            2397     3.53877E-03     3.93833E-03    -9.71003E+06    -85.8079E+06    -9.81077E+06    -5.19111E+06    -17.4007E-03     34.5792E-03    -17.1785E-03     6.28411E-03    -17.3107E-03     34.1785E-03    -17.0891E-03     6.21615E-03
            2398     2.65441E-03     3.93639E-03    -10.1550E+06    -86.2494E+06    -10.2366E+06    -3.87844E+06    -17.2640E-03     34.3918E-03    -17.1278E-03     4.64681E-03    -17.1749E-03     33.9901E-03    -17.0392E-03     4.59608E-03
            2399     1.76950E-03     3.93528E-03    -10.4827E+06    -86.5077E+06    -10.4400E+06    -2.54355E+06    -17.1605E-03     34.2473E-03    -17.0868E-03     3.09021E-03    -17.0724E-03     33.8451E-03    -16.9984E-03     3.05696E-03
            2400     884.881E-06     3.93422E-03    -10.7740E+06    -86.7621E+06    -10.6915E+06    -1.27549E+06    -17.0793E-03     34.1358E-03    -17.0564E-03     1.66877E-03    -16.9918E-03     33.7331E-03    -16.9685E-03     1.65209E-03
            2401     16.6470E-03     3.14392E-03    -6.14109E+06     104.301E+06     66.3505E+06     13.4770E+06    -85.5159E-03     110.899E-03    -25.3827E-03     181.115E-03    -89.2328E-03     114.777E-03    -25.1932E-03     179.715E-03
            2402     15.8423E-03     3.04089E-03    -13.5705E+06     62.7695E+06     51.6852E+06     17.2373E+06    -56.1784E-03     79.3224E-03    -23.1440E-03     67.8574E-03    -56.7946E-03     79.9614E-03    -22.9569E-03     67.5155E-03
            2403     14.9809E-03     3.02896E-03    -9.16771E+06     47.6825E+06     48.2888E+06     15.1928E+06    -36.9402E-03     58.7527E-03    -21.8125E-03     36.6939E-03    -37.1836E-03     58.9951E-03    -21.6269E-03     36.7394E-03
            2404     14.1005E-03     3.01517E-03    -9.82821E+06     39.0738E+06     38.9493E+06     11.4540E+06    -29.6922E-03     50.7486E-03    -21.0564E-03     39.6922E-03    -29.8865E-03     50.9335E-03    -20.9040E-03     39.7668E-03
            2405     13.2307E-03     2.99754E-03    -7.43528E+06     33.8658E+06     27.3207E+06     5.52234E+06    -27.2698E-03     47.7661E-03    -20.4964E-03     32.2319E-03    -27.4130E-03     47.9241E-03    -20.3981E-03     32.2535E-03
            2406     12.3511E-03     2.99396E-03    -4.56857E+06     18.3758E+06     16.3421E+06    -727.904E+03    -24.4729E-03     44.5378E-03    -20.0649E-03     27.1957E-03    -24.5544E-03     44.6209E-03    -20.0032E-03     27.1574E-03
            2407     11.4718E-03     2.98776E-03    -5.83246E+06    -11.8226E+06     9.42926E+06    -4.52957E+06    -23.3496E-03     43.1202E-03    -19.7706E-03     25.4174E-03    -23.3803E-03     43.0606E-03    -19.6979E-03     25.3403E-03
            2408     10.5929E-03     2.98266E-03    -7.36559E+06    -42.8656E+06     4.22100E+06    -8.79425E+06    -22.2469E-03     41.7798E-03    -19.5329E-03     22.3319E-03    -22.2306E-03     41.5727E-03    -19.4390E-03     22.2060E-03
            2409     9.71042E-03     2.97783E-03    -7.79662E+06    -64.8843E+06     587.718E+03    -13.0250E+06    -21.6372E-03     40.9596E-03    -19.3224E-03     19.5237E-03    -21.5847E-03     40.6472E-03    -19.2141E-03     19.3471E-03
            2410     8.83104E-03     2.97379E-03    -7.43047E+06    -76.7199E+06    -1.67999E+06    -14.8109E+06    -21.2266E-03     40.3384E-03    -19.1118E-03     16.8683E-03    -21.1512E-03     39.9689E-03    -18.9982E-03     16.6712E-03
            2411     7.94832E-03     2.97000E-03    -7.01767E+06    -81.7285E+06    -3.78418E+06    -13.9753E+06    -20.6286E-03     39.5317E-03    -18.9031E-03     14.5160E-03    -20.5404E-03     39.1392E-03    -18.7933E-03     14.3315E-03
            2412     7.06736E-03     2.96629E-03    -7.40839E+06    -84.2944E+06    -6.49619E+06    -11.6149E+06    -20.1332E-03     38.8406E-03    -18.7074E-03     12.2687E-03    -20.0390E-03     38.4396E-03    -18.6069E-03     12.1159E-03
            2413     6.18434E-03     2.96323E-03    -7.83993E+06    -85.7573E+06    -8.13224E+06    -9.12401E+06    -19.6479E-03     38.1813E-03    -18.5333E-03     10.2414E-03    -19.5513E-03     37.7758E-03    -18.4383E-03     10.1217E-03
            2414     5.30207E-03     2.96030E-03    -8.53044E+06    -86.6266E+06    -9.06471E+06    -7.16744E+06    -19.2364E-03     37.6173E-03    -18.3809E-03     8.41190E-03    -19.1405E-03     37.2097E-03    -18.2882E-03     8.31795E-03
            2415     4.41867E-03     2.95794E-03    -9.38681E+06    -87.6390E+06    -10.3656E+06    -5.58563E+06    -18.8452E-03     37.0925E-03    -18.2473E-03     6.73528E-03    -18.7501E-03     36.6830E-03    -18.1585E-03     6.66216E-03
            2416     3.53557E-03     2.95591E-03    -10.3048E+06    -88.4608E+06    -11.3344E+06    -4.30987E+06    -18.5279E-03     36.6663E-03    -18.1384E-03     5.22949E-03    -18.4347E-03     36.2553E-03    -18.0519E-03     5.17314E-03
            2417     2.65165E-03     2.95445E-03    -10.9950E+06    -88.9019E+06    -11.7689E+06    -3.21098E+06    -18.2795E-03     36.3330E-03    -18.0535E-03     3.83441E-03    -18.1886E-03     35.9215E-03    -17.9675E-03     3.79247E-03
            2418     1.76809E-03     2.95318E-03    -11.5376E+06    -89.1470E+06    -11.8775E+06    -2.08136E+06    -18.0966E-03     36.0885E-03    -17.9919E-03     2.53942E-03    -18.0079E-03     35.6767E-03    -17.9053E-03     2.51225E-03
            2419     883.996E-06     2.95273E-03    -11.7270E+06    -89.1873E+06    -11.9126E+06    -1.13954E+06    -17.9719E-03     35.9344E-03    -17.9625E-03     1.36853E-03    -17.8838E-03     35.5228E-03    -17.8758E-03     1.35364E-03
            2420     16.7024E-03     2.08859E-03    -3.53930E+06     99.2296E+06     69.8168E+06     13.0444E+06    -87.1817E-03     113.388E-03    -26.2067E-03     141.207E-03    -89.3899E-03     115.748E-03    -25.9964E-03     139.437E-03
            2421     15.8238E-03     2.02232E-03    -3.22122E+06     64.5774E+06     60.5860E+06     13.0431E+06    -44.7470E-03     68.9358E-03    -24.1888E-03     52.2528E-03    -45.1349E-03     69.3657E-03    -23.9749E-03     52.0937E-03
            2422     14.9494E-03     2.03590E-03    -3.27033E+06     50.1106E+06     53.6641E+06     10.5423E+06    -33.0461E-03     56.3536E-03    -23.3075E-03     39.6855E-03    -33.2478E-03     56.5662E-03    -23.1071E-03     39.7309E-03
            2423     14.0822E-03     2.00980E-03      -4.737E+03     47.3999E+06     45.2397E+06     4.90990E+06    -32.0916E-03     54.7608E-03    -22.6692E-03     40.7066E-03    -32.2470E-03     54.9530E-03    -22.5117E-03     40.7110E-03
            2424     13.2063E-03     2.00437E-03     2.40475E+06     38.4149E+06     24.4244E+06     301.082E+03    -28.6630E-03     50.7118E-03    -22.0488E-03     29.6183E-03    -28.7512E-03     50.8740E-03    -21.9859E-03     29.5884E-03
            2425     12.3300E-03     2.00144E-03     924.820E+03     20.3978E+06     4.39853E+06    -874.876E+03    -26.9273E-03     48.4841E-03    -21.5568E-03     25.4065E-03    -26.9637E-03     48.5829E-03    -21.5657E-03     25.3743E-03
            2426     11.4542E-03     1.99435E-03    -288.993E+03    -8.45056E+06    -6.00833E+06    -3.74397E+06    -26.0679E-03     47.2346E-03    -21.1666E-03     21.7585E-03    -26.0512E-03     47.2040E-03    -21.1840E-03     21.6965E-03
            2427     10.5760E-03     1.99335E-03     28.2615E+03    -38.8250E+06    -11.7946E+06    -8.13961E+06    -25.0684E-03     45.8875E-03    -20.8190E-03     18.5639E-03    -24.9965E-03     45.7117E-03    -20.8217E-03     18.4500E-03
            2428     9.69914E-03     1.98761E-03    -721.070E+03    -62.8126E+06    -16.0603E+06    -11.8092E+06    -24.1730E-03     44.6695E-03    -20.4965E-03     15.8487E-03    -24.0633E-03     44.3806E-03    -20.4847E-03     15.6901E-03
            2429     8.81886E-03     1.98546E-03    -2.18316E+06    -78.2543E+06    -17.1471E+06    -13.5425E+06    -23.3691E-03     43.5682E-03    -20.1992E-03     13.0841E-03    -23.2422E-03     43.2054E-03    -20.1683E-03     12.9053E-03
            2430     7.94056E-03     1.98191E-03    -4.09188E+06    -85.8971E+06    -15.4999E+06    -12.4400E+06    -22.6134E-03     42.5356E-03    -19.9222E-03     11.1056E-03    -22.4872E-03     42.1348E-03    -19.8692E-03     10.9422E-03
            2431     7.05945E-03     1.97968E-03    -5.60724E+06    -88.8030E+06    -14.0200E+06    -9.90641E+06    -21.8037E-03     41.4640E-03    -19.6603E-03     9.20185E-03    -21.6829E-03     41.0486E-03    -19.5935E-03     9.07209E-03
            2432     6.17913E-03     1.97702E-03    -7.17286E+06    -89.4756E+06    -13.1229E+06    -7.56798E+06    -21.0980E-03     40.5187E-03    -19.4208E-03     7.60602E-03    -20.9852E-03     40.1008E-03    -19.3462E-03     7.50701E-03
            2433     5.29722E-03     1.97502E-03    -8.46838E+06    -89.7623E+06    -12.2521E+06    -5.56718E+06    -20.4419E-03     39.6520E-03    -19.2101E-03     6.13947E-03    -20.3364E-03     39.2333E-03    -19.1289E-03     6.06669E-03
            2434     4.41547E-03     1.97321E-03    -9.68699E+06    -90.1617E+06    -12.1890E+06    -4.02417E+06    -19.8849E-03     38.9133E-03    -19.0284E-03     4.88642E-03    -19.7850E-03     38.4943E-03    -18.9446E-03     4.83383E-03
            2435     3.53263E-03     1.97178E-03    -10.8174E+06    -90.5500E+06    -12.3574E+06    -2.96205E+06    -19.4323E-03     38.3103E-03    -18.8779E-03     3.75047E-03    -19.3372E-03     37.8911E-03    -18.7928E-03     3.71177E-03
            2436     2.65008E-03     1.97056E-03    -11.7499E+06    -90.9159E+06    -12.6185E+06    -2.16696E+06    -19.0678E-03     37.8282E-03    -18.7604E-03     2.73226E-03    -18.9764E-03     37.4089E-03    -18.6746E-03     2.70397E-03
            2437     1.76663E-03     1.96986E-03    -12.2692E+06    -91.0433E+06     -12.713E+06    -1.52284E+06    -18.8059E-03     37.4858E-03    -18.6800E-03     1.80342E-03    -18.7168E-03     37.0668E-03    -18.5937E-03     1.78355E-03
            2438     883.424E-06     1.96922E-03    -12.6370E+06    -91.2158E+06    -12.8681E+06    -836.038E+03    -18.6677E-03     37.3003E-03    -18.6326E-03     967.928E-06    -18.5798E-03     36.8813E-03    -18.5463E-03     957.026E-06
            2439     16.6332E-03     1.02896E-03     2.14414E+06     90.9107E+06     76.8794E+06     8.37036E+06    -84.0498E-03     112.186E-03    -28.1358E-03     111.425E-03    -85.2037E-03     113.467E-03    -27.8863E-03     110.080E-03
            2440     15.7954E-03     1.03926E-03     6.27165E+06     67.6053E+06     69.3672E+06     10.8468E+06    -46.9218E-03     73.0835E-03    -26.1617E-03     54.3329E-03    -47.1571E-03     73.3782E-03    -25.9220E-03     54.3479E-03
            2441     14.9205E-03     1.01851E-03     4.32758E+06     57.0014E+06     57.2127E+06     3.58532E+06    -40.3727E-03     65.4489E-03    -25.0762E-03     38.9876E-03    -40.5296E-03     65.6558E-03    -24.8790E-03     38.9935E-03
            2442     14.0556E-03     1.00754E-03     6.48582E+06     50.2455E+06     38.2137E+06    -948.757E+03    -36.0692E-03     60.2249E-03    -24.1558E-03     27.7782E-03    -36.1727E-03     60.4192E-03    -24.0469E-03     27.7337E-03
            2443     13.1846E-03     1.00632E-03     6.62403E+06     38.7401E+06     15.5755E+06     1.06497E+06    -31.9527E-03     55.3483E-03    -23.3957E-03     19.4110E-03    -32.0013E-03     55.5125E-03    -23.3836E-03     19.4084E-03
            2444     12.3138E-03     1.00052E-03     5.89984E+06     21.8831E+06    -4.56464E+06     315.877E+03    -30.3841E-03     53.1475E-03    -22.7635E-03     15.8308E-03    -30.3814E-03     53.2566E-03    -22.8266E-03     15.8235E-03
            2445     11.4396E-03     1.00088E-03     6.89315E+06    -4.62756E+06    -19.0558E+06    -2.44607E+06    -28.8047E-03     51.0162E-03    -22.2115E-03     12.7528E-03    -28.7369E-03     51.0115E-03    -22.3101E-03     12.7140E-03
            2446     10.5654E-03     996.203E-06     6.39729E+06    -36.0410E+06    -27.1815E+06    -5.31473E+06    -27.5797E-03     49.3158E-03    -21.7360E-03     10.6482E-03    -27.4566E-03     49.1662E-03    -21.8290E-03     10.5747E-03
            2447     9.68900E-03     996.047E-06     4.77306E+06    -61.5896E+06    -30.9432E+06    -7.04711E+06    -26.3052E-03     47.6113E-03    -21.3061E-03     8.80575E-03    -26.1475E-03     47.3416E-03    -21.3784E-03     8.71163E-03
            2448     8.81272E-03     992.973E-06     1.52059E+06    -79.2139E+06    -31.0059E+06    -7.79756E+06    -25.0655E-03     45.9889E-03    -20.9233E-03     7.35510E-03    -24.8983E-03     45.6357E-03    -20.9657E-03     7.25230E-03
            2449     7.93370E-03     992.019E-06    -1.50422E+06    -89.1088E+06    -26.4845E+06    -7.57571E+06    -24.0109E-03     44.5983E-03    -20.5874E-03     5.91437E-03    -23.8508E-03     44.1934E-03    -20.5884E-03     5.81523E-03
            2450     7.05534E-03     990.262E-06    -4.25838E+06    -92.6460E+06    -20.6904E+06    -5.96274E+06    -22.9940E-03     43.2758E-03    -20.2819E-03     4.98031E-03    -22.8510E-03     42.8488E-03    -20.2448E-03     4.90239E-03
            2451     6.17497E-03     989.109E-06    -6.67474E+06    -92.2417E+06    -16.4799E+06    -4.15225E+06    -22.0741E-03     42.0739E-03    -19.9997E-03     4.05646E-03    -21.9499E-03     41.6462E-03    -19.9387E-03     4.00222E-03
            2452     5.29458E-03     987.955E-06    -8.72577E+06    -92.1735E+06    -14.5966E+06    -3.02861E+06    -21.2568E-03     41.0027E-03    -19.7459E-03     3.27704E-03    -21.1456E-03     40.5756E-03    -19.6726E-03     3.23752E-03
            2453     4.41289E-03     987.027E-06    -10.1315E+06    -91.9675E+06    -13.4945E+06    -2.07751E+06    -20.5824E-03     40.1097E-03    -19.5273E-03     2.58420E-03    -20.4801E-03     39.6841E-03    -19.4467E-03     2.55708E-03
            2454     3.53130E-03     986.207E-06    -11.2798E+06    -91.8637E+06    -12.8123E+06    -1.39800E+06    -20.0175E-03     39.3639E-03    -19.3464E-03     1.97420E-03    -19.9221E-03     38.9395E-03    -19.2609E-03     1.95595E-03
            2455     2.64856E-03     985.659E-06    -12.1503E+06    -91.9554E+06    -12.7610E+06    -1.10477E+06    -19.5794E-03     38.7829E-03    -19.2035E-03     1.41751E-03    -19.4883E-03     38.3592E-03    -19.1164E-03     1.40310E-03
            2456     1.76612E-03     985.168E-06    -12.8423E+06    -92.2376E+06    -13.0955E+06    -835.808E+03    -19.2715E-03     38.3700E-03    -19.0985E-03     925.734E-06    -19.1830E-03     37.9464E-03    -19.0116E-03     914.844E-06
            2457     883.044E-06     984.928E-06    -13.4447E+06    -92.5373E+06    -13.3776E+06    -498.225E+03    -19.0915E-03     38.1110E-03    -19.0195E-03     493.297E-06    -19.0049E-03     37.6873E-03    -18.9327E-03     486.833E-06


