********************************************************************************
Field Output Report, written Tue May 28 20:07:04 2024

Source 1
---------

   ODB: G:/Abaqus_calc_2019/1740/Vel_20/odb/zeides_2a_8_red_1500_cal_50_vel_20_fric_0100.odb
   Step: Step-1
   Frame: Increment   5866552: Step Time =   0.6494

Loc 1 : Nodal values from source 1

Output sorted by column "Nodal Label".

Field Output reported at nodes for region: DIE_2A_8_D0_36-1.Region_1
   Computation algorithm: EXTRAPOLATE_COMPUTE_AVERAGE
   Averaged at nodes
   Averaging regions: ODB_REGIONS

      Node Label     COORD.COOR1     COORD.COOR2
                          @Loc 1          @Loc 1
-------------------------------------------------
               1     16.3673E-03     157.293E-03


Field Output reported at nodes for region: DIE_2A_8_D0_36-1.Region_2
   Computation algorithm: EXTRAPOLATE_COMPUTE_AVERAGE
   Averaged at nodes
   Averaging regions: ODB_REGIONS

      Node Label     COORD.COOR1     COORD.COOR2
                          @Loc 1          @Loc 1
-------------------------------------------------
               1     16.3673E-03     157.293E-03


Field Output reported at nodes for part: WIRE-1
   Computation algorithm: EXTRAPOLATE_COMPUTE_AVERAGE
   Averaged at nodes
   Averaging regions: ODB_REGIONS

      Node Label     COORD.COOR1     COORD.COOR2           S.S11           S.S22           S.S33           S.S12         PE.PE11         PE.PE22         PE.PE33         PE.PE12         LE.LE11         LE.LE22         LE.LE33         LE.LE12
                          @Loc 1          @Loc 1          @Loc 1          @Loc 1          @Loc 1          @Loc 1          @Loc 1          @Loc 1          @Loc 1          @Loc 1          @Loc 1          @Loc 1          @Loc 1          @Loc 1
-------------------------------------------------------------------------------------------------------------------------------------------------------------------------------------------------------------------------------------------------
               1    -2.56024E-06     75.7688E-03    -114.145E+06    -209.531E+06    -114.446E+06    -66.1823E+03    -164.136E-03     329.846E-03    -165.711E-03     5.62211E-03    -164.079E-03     329.191E-03    -165.813E-03     5.62773E-03
               2     15.2754E-03     76.9012E-03     3.80606E+06     85.2492E+06     92.0060E+06     478.354E+03    -163.616E-03     328.104E-03    -164.488E-03     57.8554E-03    -163.994E-03     328.532E-03    -164.157E-03     55.6941E-03
               3     15.3033E-03     153.339E-03    -23.4008E+06     29.6259E+06     39.2709E+06    -9.43747E+06    -105.208E-03     268.855E-03    -163.647E-03     29.9416E-03    -105.419E-03     269.000E-03    -163.460E-03     29.6620E-03
               4    -29.7637E-06     151.685E-03     44.2555E+06    -5.79808E+06     44.6937E+06    -2.23804E+06    -179.809E-03     363.986E-03    -184.177E-03    -9.32650E-03    -179.118E-03     365.082E-03    -184.009E-03    -8.41364E-03
               5     363.167E-09     846.545E-18    -76.7098E+06    -223.170E+06    -77.6401E+06     7.00090E+06    -144.409E-03     288.156E-03    -143.747E-03     646.434E-06    -143.993E-03     287.326E-03    -143.700E-03     773.841E-06
               6     15.1703E-03     846.545E-18    -23.7133E+06     68.5027E+06     69.7084E+06    -12.6284E+06    -294.583E-03     461.159E-03    -166.576E-03     74.9917E-03    -295.183E-03     461.740E-03    -166.293E-03     70.1458E-03
               7     763.398E-06     75.7803E-03    -110.113E+06    -203.871E+06    -108.093E+06    -837.249E+03    -164.320E-03     329.545E-03    -165.225E-03     7.15578E-03    -164.322E-03     328.862E-03    -165.310E-03     7.15657E-03
               8     1.52675E-03     75.7897E-03    -104.081E+06    -191.514E+06    -96.7817E+06    -682.906E+03    -164.518E-03     329.213E-03    -164.695E-03     10.9026E-03    -164.573E-03     328.507E-03    -164.751E-03     10.9099E-03
               9     2.28996E-03     75.8079E-03    -99.4472E+06    -176.442E+06    -84.3070E+06    -97.9167E+03    -164.553E-03     329.202E-03    -164.650E-03     16.2725E-03    -164.624E-03     328.540E-03    -164.671E-03     16.2438E-03
              10     3.05375E-03     75.8320E-03    -96.6212E+06    -165.942E+06    -73.5785E+06    -2.26393E+06    -164.663E-03     329.317E-03    -164.654E-03     21.8805E-03    -164.768E-03     328.705E-03    -164.641E-03     21.7380E-03
              11     3.81767E-03     75.8639E-03    -89.1641E+06    -150.063E+06    -60.9170E+06    -1.49250E+06    -164.810E-03     329.492E-03    -164.682E-03     26.6163E-03    -164.925E-03     328.935E-03    -164.639E-03     26.4225E-03
              12     4.58049E-03     75.9027E-03    -83.6397E+06    -129.822E+06    -46.9071E+06     2.43284E+06    -164.861E-03     329.580E-03    -164.718E-03     31.7810E-03    -165.009E-03     329.106E-03    -164.643E-03     31.5794E-03
              13     5.34300E-03     75.9488E-03    -81.7962E+06    -113.271E+06    -34.0172E+06     1.77671E+06    -164.706E-03     329.447E-03    -164.741E-03     37.4461E-03    -164.903E-03     329.050E-03    -164.628E-03     37.1584E-03
              14     6.10685E-03     76.0002E-03    -69.9789E+06    -90.7176E+06    -16.9725E+06     556.976E+03    -164.696E-03     329.436E-03    -164.740E-03     42.6624E-03    -164.904E-03     329.123E-03    -164.592E-03     42.2326E-03
              15     6.87017E-03     76.0561E-03    -61.9760E+06    -65.1683E+06    -3.21048E+06     2.01969E+06    -164.817E-03     329.541E-03    -164.724E-03     47.5453E-03    -165.056E-03     329.338E-03    -164.556E-03     46.9472E-03
              16     7.63548E-03     76.1190E-03    -59.4991E+06    -45.2776E+06     5.19817E+06     601.605E+03    -164.561E-03     329.248E-03    -164.687E-03     52.0796E-03    -164.842E-03     329.142E-03    -164.509E-03     51.2994E-03
              17     8.40003E-03     76.1859E-03    -46.7077E+06    -12.7868E+06     21.8727E+06     244.911E+03    -164.888E-03     329.548E-03    -164.660E-03     55.3702E-03    -165.196E-03     329.581E-03    -164.464E-03     54.3681E-03
              18     9.16201E-03     76.2592E-03    -43.5516E+06     13.1765E+06     31.1895E+06     2.68543E+06    -165.278E-03     329.929E-03    -164.651E-03     57.9786E-03    -165.645E-03     330.098E-03    -164.451E-03     56.6896E-03
              19     9.92471E-03     76.3339E-03    -45.6433E+06     17.8623E+06     28.8811E+06     1.95269E+06    -164.552E-03     329.160E-03    -164.608E-03     61.7830E-03    -164.961E-03     329.387E-03    -164.424E-03     60.2335E-03
              20     10.6893E-03     76.4112E-03    -36.9648E+06     32.5024E+06     40.3893E+06     2.27189E+06    -163.952E-03     328.504E-03    -164.552E-03     65.4581E-03    -164.372E-03     328.791E-03    -164.344E-03     63.7994E-03
              21     11.4549E-03     76.4993E-03    -28.6863E+06     46.4173E+06     58.7993E+06    -301.911E+03    -164.221E-03     328.746E-03    -164.525E-03     66.6843E-03    -164.673E-03     329.090E-03    -164.257E-03     64.7214E-03
              22     12.2209E-03     76.5808E-03    -22.4825E+06     55.1775E+06     67.1786E+06    -5.10881E+06    -165.483E-03     330.000E-03    -164.517E-03     66.6516E-03    -165.962E-03     330.400E-03    -164.229E-03     64.2654E-03
              23     12.9816E-03     76.6704E-03    -15.2990E+06     65.6783E+06     73.6971E+06    -2.72063E+06    -165.638E-03     330.183E-03    -164.545E-03     66.0848E-03    -166.122E-03     330.632E-03    -164.250E-03     63.5283E-03
              24     13.7450E-03     76.7540E-03    -12.8071E+06     68.4814E+06     77.9188E+06     942.178E+03    -164.506E-03     329.056E-03    -164.550E-03     67.0091E-03    -164.983E-03     329.505E-03    -164.241E-03     64.5173E-03
              25     14.5124E-03     76.8389E-03    -5.96262E+06     75.5675E+06     83.7091E+06     1.09755E+06    -163.888E-03     328.394E-03    -164.507E-03     63.1842E-03    -164.314E-03     328.825E-03    -164.189E-03     60.9121E-03
              26     15.2765E-03     78.2238E-03    -2.06700E+06     80.2166E+06     83.6135E+06    -1.11966E+06    -164.938E-03     329.337E-03    -164.399E-03     56.9575E-03    -165.332E-03     329.767E-03    -164.094E-03     54.6869E-03
              27     15.2751E-03     79.5449E-03    -1.38266E+06     79.5074E+06     79.0313E+06     1.00167E+06    -163.934E-03     328.350E-03    -164.416E-03     61.3871E-03    -164.330E-03     328.795E-03    -164.134E-03     59.1776E-03
              28     15.2762E-03     80.8589E-03    -4.19695E+06     77.2005E+06     80.1194E+06    -1.08924E+06    -165.045E-03     329.459E-03    -164.414E-03     64.2237E-03    -165.461E-03     329.903E-03    -164.120E-03     61.9456E-03
              29     15.2747E-03     82.1768E-03    -3.50563E+06     77.4670E+06     82.9854E+06     311.276E+03    -165.889E-03     330.278E-03    -164.390E-03     61.6903E-03    -166.296E-03     330.709E-03    -164.082E-03     59.4489E-03
              30     15.2774E-03     83.4958E-03    -282.419E+03     79.5264E+06     79.9063E+06     1.16133E+06    -163.873E-03     328.290E-03    -164.417E-03     59.8345E-03    -164.260E-03     328.728E-03    -164.132E-03     57.6189E-03
              31     15.2734E-03     84.8064E-03    -11.7556E+06     71.9152E+06     73.9955E+06    -1.04358E+06    -166.392E-03     330.894E-03    -164.502E-03     60.0272E-03    -166.825E-03     331.327E-03    -164.219E-03     57.6712E-03
              32     15.2696E-03     86.1360E-03    -10.7827E+06     74.3748E+06     80.8318E+06     3.92455E+06    -167.014E-03     331.636E-03    -164.623E-03     62.1015E-03    -167.447E-03     332.062E-03    -164.311E-03     59.9410E-03
              33     15.2750E-03     87.4509E-03     6.75566E+06     85.9815E+06     89.9380E+06    -1.69299E+06    -162.886E-03     327.531E-03    -164.646E-03     63.8534E-03    -163.254E-03     327.969E-03    -164.330E-03     61.7711E-03
              34     15.2733E-03     88.7571E-03     4.22068E+06     83.7831E+06     87.9951E+06    -886.101E+03    -162.678E-03     327.222E-03    -164.544E-03     61.9140E-03    -163.044E-03     327.647E-03    -164.232E-03     59.8750E-03
              35     15.2774E-03     90.0798E-03     145.719E+03     84.7453E+06     89.6457E+06     1.97171E+06    -164.248E-03     328.699E-03    -164.451E-03     62.1567E-03    -164.646E-03     329.139E-03    -164.125E-03     60.0725E-03
              36     15.2749E-03     91.3931E-03    -659.044E+03     84.7056E+06     91.5237E+06    -3.37032E+06    -164.721E-03     329.111E-03    -164.390E-03     62.7236E-03    -165.153E-03     329.576E-03    -164.054E-03     60.3107E-03
              37     15.2793E-03     92.7114E-03    -6.90947E+06     80.1613E+06     85.4427E+06    -344.913E+03    -164.603E-03     328.962E-03    -164.359E-03     61.7439E-03    -165.052E-03     329.424E-03    -164.038E-03     59.3433E-03
              38     15.2740E-03     94.0302E-03     830.374E+03     85.0449E+06     82.4185E+06     1.37996E+06    -163.712E-03     328.089E-03    -164.377E-03     60.3549E-03    -164.104E-03     328.548E-03    -164.089E-03     58.1663E-03
              39     15.2785E-03     95.3365E-03    -7.03086E+06     80.5041E+06     79.4266E+06    -3.63416E+06    -165.843E-03     330.271E-03    -164.428E-03     57.4775E-03    -166.252E-03     330.712E-03    -164.138E-03     55.2297E-03
              40     15.2684E-03     96.6641E-03    -12.8856E+06     75.7404E+06     79.7604E+06     3.96719E+06    -167.869E-03     332.375E-03    -164.506E-03     57.6534E-03    -168.308E-03     332.807E-03    -164.198E-03     55.4267E-03
              41     15.2773E-03     97.9856E-03     4.95327E+06     86.0639E+06     88.4663E+06     4.80917E+06    -162.272E-03     326.786E-03    -164.514E-03     64.4247E-03    -162.664E-03     327.245E-03    -164.203E-03     62.3004E-03
              42     15.2784E-03     99.2933E-03    -7.23247E+06     83.1947E+06     86.5698E+06    -5.56849E+06    -163.033E-03     327.486E-03    -164.454E-03     64.5057E-03    -163.493E-03     327.966E-03    -164.131E-03     62.1009E-03
              43     15.2705E-03     100.614E-03    -11.4637E+06     86.7721E+06     89.8632E+06     7.80640E+06    -167.859E-03     332.310E-03    -164.451E-03     60.4337E-03    -168.325E-03     332.784E-03    -164.111E-03     58.3221E-03
              44     15.2788E-03     101.931E-03     12.1511E+06     105.492E+06     104.063E+06     6.34110E+06    -164.658E-03     329.081E-03    -164.423E-03     61.1907E-03    -165.037E-03     329.576E-03    -164.073E-03     59.2756E-03
              45     15.2773E-03     103.248E-03     4.01272E+06     97.5231E+06     94.8871E+06    -5.30090E+06    -160.517E-03     324.788E-03    -164.271E-03     65.6006E-03    -160.928E-03     325.286E-03    -163.944E-03     63.4789E-03
              46     15.2862E-03     104.561E-03    -2.61336E+06     92.3247E+06     93.5378E+06    -4.22447E+06    -159.776E-03     323.837E-03    -164.062E-03     69.3882E-03    -160.210E-03     324.320E-03    -163.724E-03     67.3957E-03
              47     15.2844E-03     105.866E-03     773.479E+03     101.086E+06     103.311E+06    -1.53647E+06    -164.375E-03     328.236E-03    -163.861E-03     65.1472E-03    -164.807E-03     328.731E-03    -163.492E-03     63.1743E-03
              48     15.2857E-03     107.189E-03    -3.49076E+06     99.7945E+06     100.608E+06     1.12884E+06    -166.689E-03     330.474E-03    -163.785E-03     60.1387E-03    -167.130E-03     330.966E-03    -163.422E-03     58.1183E-03
              49     15.2852E-03     108.504E-03    -3.02426E+06     100.354E+06     99.9916E+06     674.722E+03    -164.404E-03     328.221E-03    -163.816E-03     58.6897E-03    -164.841E-03     328.714E-03    -163.458E-03     56.6677E-03
              50     15.2860E-03     109.814E-03    -2.35757E+06     103.386E+06     101.827E+06     436.237E+03    -164.125E-03     327.919E-03    -163.794E-03     58.5210E-03    -164.568E-03     328.426E-03    -163.431E-03     56.5039E-03
              51     15.2868E-03     111.136E-03    -3.05303E+06     105.194E+06     102.252E+06     318.199E+03    -164.786E-03     328.510E-03    -163.724E-03     60.0781E-03    -165.243E-03     329.034E-03    -163.361E-03     58.0231E-03
              52     15.2877E-03     112.451E-03    -2.46999E+06     107.209E+06     102.747E+06     1.32226E+06    -164.162E-03     327.835E-03    -163.673E-03     61.0094E-03    -164.627E-03     328.375E-03    -163.311E-03     58.9321E-03
              53     15.2891E-03     113.765E-03    -2.62635E+06     110.494E+06     104.976E+06     1.84860E+06    -163.390E-03     327.019E-03    -163.629E-03     61.5189E-03    -163.871E-03     327.580E-03    -163.261E-03     59.4456E-03
              54     15.2897E-03     115.081E-03    -1.94786E+06     113.698E+06     106.883E+06     1.84763E+06    -163.148E-03     326.720E-03    -163.572E-03     62.6683E-03    -163.645E-03     327.305E-03    -163.200E-03     60.5411E-03
              55     15.2912E-03     116.394E-03    -2.67413E+06     114.307E+06     106.020E+06    -101.969E+03    -163.021E-03     326.522E-03    -163.500E-03     62.5427E-03    -163.524E-03     327.114E-03    -163.132E-03     60.3586E-03
              56     15.2917E-03     117.706E-03    -3.73109E+06     116.091E+06     107.158E+06    -1.26967E+06    -163.561E-03     326.984E-03    -163.423E-03     61.8755E-03    -164.069E-03     327.580E-03    -163.050E-03     59.7253E-03
              57     15.2932E-03     119.023E-03    -2.19033E+06     118.815E+06     109.117E+06     440.470E+03    -163.244E-03     326.614E-03    -163.370E-03     62.1705E-03    -163.755E-03     327.222E-03    -162.993E-03     60.0467E-03
              58     15.2937E-03     120.336E-03    -2.89640E+06     120.937E+06     109.910E+06     1.03015E+06    -161.895E-03     325.241E-03    -163.346E-03     62.4527E-03    -162.417E-03     325.864E-03    -162.967E-03     60.3422E-03
              59     15.2949E-03     121.645E-03    -2.50397E+06     122.862E+06     111.542E+06     444.245E+03    -162.074E-03     325.357E-03    -163.282E-03     62.4493E-03    -162.603E-03     325.989E-03    -162.899E-03     60.3183E-03
              60     15.2958E-03     122.960E-03    -2.50757E+06     124.587E+06     112.483E+06     643.269E+03    -163.443E-03     326.636E-03    -163.193E-03     63.6878E-03    -163.982E-03     327.282E-03    -162.808E-03     61.5202E-03
              61     15.2962E-03     124.278E-03    -3.35843E+06     125.752E+06     112.870E+06     1.45879E+06    -163.223E-03     326.369E-03    -163.146E-03     64.5957E-03    -163.774E-03     327.027E-03    -162.759E-03     62.4428E-03
              62     15.2977E-03     125.585E-03    -3.76678E+06     126.243E+06     113.359E+06    -470.231E+03    -162.765E-03     325.868E-03    -163.103E-03     63.0884E-03    -163.314E-03     326.523E-03    -162.714E-03     60.9533E-03
              63     15.2976E-03     126.899E-03    -2.37264E+06     127.968E+06     115.814E+06     833.297E+03    -163.352E-03     326.398E-03    -163.045E-03     63.2801E-03    -163.902E-03     327.058E-03    -162.648E-03     61.1595E-03
              64     15.2993E-03     128.217E-03    -3.15385E+06     125.345E+06     114.928E+06     324.131E+03    -163.065E-03     326.057E-03    -162.993E-03     65.3562E-03    -163.625E-03     326.718E-03    -162.595E-03     63.1836E-03
              65     15.2997E-03     129.525E-03    -3.52648E+06     122.570E+06     114.575E+06    -1.65361E+06    -163.134E-03     326.059E-03    -162.925E-03     63.9437E-03    -163.680E-03     326.695E-03    -162.525E-03     61.8291E-03
              66     15.3012E-03     130.837E-03    -2.10427E+06     122.730E+06     117.852E+06    -496.049E+03    -164.408E-03     327.246E-03    -162.838E-03     61.7247E-03    -164.936E-03     327.861E-03    -162.424E-03     59.7177E-03
              67     15.3018E-03     132.155E-03    -4.24755E+06     119.050E+06     115.402E+06    -1.51556E+06    -165.699E-03     328.446E-03    -162.746E-03     63.9453E-03    -166.234E-03     329.053E-03    -162.336E-03     61.8990E-03
              68     15.3026E-03     133.476E-03    -3.39140E+06     114.528E+06     112.254E+06    -793.479E+03    -166.301E-03     328.980E-03    -162.678E-03     66.5541E-03    -166.831E-03     329.578E-03    -162.278E-03     64.4646E-03
              69     15.3031E-03     134.789E-03    -1.88079E+06     111.109E+06     111.092E+06    -1.17284E+06    -167.298E-03     329.910E-03    -162.612E-03     66.4897E-03    -167.816E-03     330.494E-03    -162.215E-03     64.3729E-03
              70     15.3035E-03     136.109E-03    -2.84356E+06     106.317E+06     108.115E+06    -1.30470E+06    -170.171E-03     332.676E-03    -162.505E-03     67.5469E-03    -170.678E-03     333.237E-03    -162.114E-03     65.4420E-03
              71     15.3039E-03     137.437E-03    -3.10985E+06     100.841E+06     105.096E+06    -2.00279E+06    -173.214E-03     335.615E-03    -162.401E-03     70.2060E-03    -173.709E-03     336.153E-03    -162.017E-03     68.1265E-03
              72     15.3042E-03     138.764E-03    -1.77897E+06     95.3153E+06     103.215E+06    -929.209E+03    -175.177E-03     337.507E-03    -162.330E-03     71.9551E-03    -175.657E-03     338.020E-03    -161.950E-03     69.8756E-03
              73     15.3044E-03     140.093E-03    -2.22627E+06     86.3218E+06     100.106E+06    -1.26033E+06    -177.231E-03     339.492E-03    -162.260E-03     73.3555E-03    -177.703E-03     339.971E-03    -161.882E-03     71.2119E-03
              74     15.3047E-03     141.426E-03    -4.56171E+06     74.5497E+06     96.8543E+06    -5.27692E+06    -180.004E-03     342.180E-03    -162.176E-03     76.1520E-03    -180.472E-03     342.616E-03    -161.793E-03     73.9177E-03
              75     15.3053E-03     142.764E-03    -1.26951E+06     66.0453E+06     97.8058E+06    -1.84946E+06    -182.311E-03     344.415E-03    -162.104E-03     78.1409E-03    -182.756E-03     344.806E-03    -161.709E-03     75.9227E-03
              76     15.3056E-03     144.101E-03    -3.44361E+06     53.5772E+06     95.1973E+06    -3.64349E+06    -183.342E-03     345.386E-03    -162.045E-03     76.0107E-03    -183.762E-03     345.708E-03    -161.641E-03     73.8417E-03
              77     15.3067E-03     145.430E-03    -1.18789E+06     39.8609E+06     95.2241E+06    -3.62266E+06    -185.852E-03     347.793E-03    -161.941E-03     74.3005E-03    -186.211E-03     348.013E-03    -161.521E-03     72.3434E-03
              78     15.3076E-03     146.782E-03    -2.70821E+06     25.8201E+06     94.4457E+06    -3.50853E+06    -188.946E-03     350.766E-03    -161.820E-03     77.3698E-03    -189.283E-03     350.912E-03    -161.381E-03     75.5077E-03
              79     15.3088E-03     148.131E-03     1.21414E+06     21.9083E+06     96.8072E+06     1.60758E+06    -188.100E-03     349.882E-03    -161.781E-03     81.1912E-03    -188.435E-03     350.018E-03    -161.331E-03     79.2820E-03
              80     15.3101E-03     149.470E-03    -4.82298E+06     26.3147E+06     93.0604E+06     1.13548E+06    -182.168E-03     343.999E-03    -161.830E-03     79.3102E-03    -182.512E-03     344.149E-03    -161.396E-03     77.6572E-03
              81     15.3110E-03     150.798E-03     3.15937E+06     25.8433E+06     86.7979E+06    -2.58682E+06    -170.428E-03     332.430E-03    -162.003E-03     75.2459E-03    -170.654E-03     332.508E-03    -161.611E-03     74.3042E-03
              82     15.3126E-03     152.107E-03     3.51691E+06     28.1893E+06     65.4163E+06    -2.25119E+06    -134.068E-03     296.960E-03    -162.892E-03     52.0882E-03    -134.205E-03     297.033E-03    -162.611E-03     51.7319E-03
              83     14.4581E-03     153.245E-03    -18.2485E+06    -8.49609E+06     41.8207E+06    -5.41870E+06    -108.778E-03     273.879E-03    -165.101E-03     7.59352E-03    -108.907E-03     273.824E-03    -164.853E-03     7.35886E-03
              84     13.6367E-03     153.121E-03    -6.43323E+06    -10.8638E+06     69.0360E+06     -742.58E+03    -114.217E-03     282.050E-03    -167.833E-03    -32.7878E-03    -114.322E-03     281.925E-03    -167.463E-03    -32.8816E-03
              85     12.8339E-03     152.988E-03     288.835E+03     10.5426E+06     93.0335E+06    -2.74304E+06    -119.430E-03     289.629E-03    -170.199E-03    -61.0141E-03    -119.575E-03     289.561E-03    -169.749E-03    -61.0379E-03
              86     12.0466E-03     152.860E-03     1.21337E+06    -308.436E+03     95.5668E+06    -6.17144E+06    -126.466E-03     298.676E-03    -172.210E-03    -77.5895E-03    -126.602E-03     298.547E-03    -171.733E-03    -77.6398E-03
              87     11.2671E-03     152.731E-03     3.37121E+06    -996.656E+03     100.374E+06    -7.07331E+06    -131.966E-03     305.934E-03    -173.968E-03    -86.8682E-03    -132.097E-03     305.784E-03    -173.469E-03    -86.9507E-03
              88     10.4942E-03     152.605E-03     6.16294E+06    -3.27810E+06     103.298E+06    -7.57302E+06    -136.988E-03     312.567E-03    -175.579E-03    -92.3799E-03    -137.106E-03     312.387E-03    -175.066E-03    -92.5085E-03
              89     9.72744E-03     152.494E-03     8.92391E+06    -2.88040E+06     104.004E+06    -7.74585E+06    -143.745E-03     320.761E-03    -177.016E-03    -95.1560E-03    -143.848E-03     320.575E-03    -176.505E-03    -95.3281E-03
              90     8.96383E-03     152.382E-03     11.3459E+06    -2.63117E+06     102.878E+06    -7.39140E+06    -149.764E-03     327.991E-03    -178.227E-03    -95.8687E-03    -149.855E-03     327.806E-03    -177.726E-03    -96.0207E-03
              91     8.20486E-03     152.281E-03     13.7836E+06    -1.26593E+06     101.308E+06    -7.74843E+06    -155.871E-03     335.084E-03    -179.213E-03    -95.0740E-03    -155.959E-03     334.900E-03    -178.725E-03    -95.1995E-03
              92     7.45477E-03     152.190E-03     15.9661E+06    -2.42553E+06     98.4806E+06    -8.13781E+06    -162.201E-03     342.161E-03    -179.961E-03    -89.4848E-03    -162.269E-03     341.962E-03    -179.488E-03    -89.6821E-03
              93     6.70570E-03     152.108E-03     18.8294E+06    -1.92329E+06     95.0928E+06    -8.22671E+06    -166.630E-03     347.157E-03    -180.527E-03    -81.5485E-03    -166.672E-03     346.957E-03    -180.076E-03    -81.8280E-03
              94     5.95786E-03     152.036E-03     21.9402E+06    -1.60566E+06     89.7356E+06    -8.67471E+06    -169.559E-03     350.584E-03    -181.025E-03    -74.1244E-03    -169.572E-03     350.387E-03    -180.606E-03    -74.4725E-03
              95     5.20794E-03     151.971E-03     25.1733E+06    -2.25841E+06     82.9385E+06    -8.97733E+06    -171.695E-03     353.221E-03    -181.526E-03    -67.6038E-03    -171.681E-03     353.029E-03    -181.144E-03    -67.9780E-03
              96     4.45927E-03     151.913E-03     28.8281E+06    -2.03029E+06     76.5456E+06    -8.99679E+06    -174.052E-03     356.081E-03    -182.029E-03    -61.1974E-03    -174.016E-03     355.895E-03    -181.685E-03    -61.5759E-03
              97     3.71313E-03     151.863E-03     32.3639E+06    -2.29891E+06     69.5602E+06    -8.93892E+06    -176.596E-03     359.081E-03    -182.485E-03    -53.8783E-03    -176.534E-03     358.895E-03    -182.180E-03    -54.2477E-03
              98     2.96846E-03     151.822E-03     36.0652E+06    -3.03745E+06     62.7512E+06    -8.77734E+06    -178.664E-03     361.572E-03    -182.908E-03    -45.8223E-03    -178.579E-03     361.393E-03    -182.643E-03    -46.1263E-03
              99     2.22478E-03     151.792E-03     39.5589E+06    -3.70928E+06     56.3402E+06    -7.84713E+06    -179.583E-03     363.089E-03    -183.506E-03    -34.0497E-03    -179.473E-03     362.916E-03    -183.277E-03    -34.3773E-03
             100     1.47930E-03     151.760E-03     42.2792E+06    -4.72667E+06     50.5901E+06    -6.08854E+06    -183.123E-03     366.977E-03    -183.854E-03    -25.2201E-03    -183.001E-03     366.813E-03    -183.655E-03    -25.4033E-03
             101     740.453E-06     151.759E-03     43.7506E+06    -5.70682E+06     46.3933E+06    -3.67197E+06    -183.248E-03     367.245E-03    -183.997E-03    -16.5682E-03    -182.843E-03     367.716E-03    -183.820E-03    -16.0981E-03
             102     26.6823E-06     150.364E-03     19.7025E+06    -15.2819E+06     19.7929E+06    -4.02664E+06    -177.496E-03     345.278E-03    -167.781E-03    -1.30015E-03    -176.726E-03     345.978E-03    -167.689E-03    -1.13017E-03
             103    -9.10957E-06     149.060E-03    -32.9419E+06    -40.6390E+06    -32.2129E+06    -5.78896E+06    -156.745E-03     315.133E-03    -158.388E-03     2.77279E-03    -156.296E-03     315.388E-03    -158.442E-03     2.59758E-03
             104    -11.9575E-06     147.756E-03    -91.5847E+06    -72.1088E+06    -89.0726E+06    -5.78684E+06    -140.077E-03     299.181E-03    -159.104E-03     1.95777E-03    -140.170E-03     299.357E-03    -159.312E-03     2.13197E-03
             105     3.39983E-06     146.490E-03    -150.477E+06    -101.942E+06    -151.192E+06    -5.35041E+06    -144.555E-03     292.477E-03    -147.922E-03     4.44940E-03    -144.776E-03     292.646E-03    -148.312E-03     4.60339E-03
             106    -326.392E-09     145.223E-03    -204.109E+06    -130.186E+06    -204.010E+06    -3.88097E+06    -149.245E-03     292.191E-03    -142.946E-03     10.7460E-03    -149.528E-03     292.394E-03    -143.481E-03     10.7406E-03
             107     6.57069E-06     143.935E-03    -203.850E+06    -150.191E+06    -204.925E+06    -2.71705E+06    -152.537E-03     294.542E-03    -142.005E-03     15.1027E-03    -152.830E-03     294.668E-03    -142.516E-03     14.9029E-03
             108     3.09014E-06     142.674E-03    -160.871E+06    -159.766E+06    -165.076E+06    -1.67427E+06    -149.177E-03     293.808E-03    -144.631E-03     8.30357E-03    -149.345E-03     293.737E-03    -144.991E-03     8.24187E-03
             109    -6.01061E-06     141.424E-03    -137.106E+06    -165.558E+06    -135.839E+06    -1.58831E+06    -145.966E-03     299.007E-03    -153.042E-03     150.083E-06    -146.049E-03     298.801E-03    -153.282E-03     350.517E-06
             110    -2.24423E-06     140.121E-03    -125.128E+06    -172.364E+06    -124.179E+06    -1.98507E+06    -151.661E-03     307.295E-03    -155.634E-03    -123.129E-06    -151.723E-03     307.024E-03    -155.824E-03     63.0204E-06
             111     4.16248E-06     138.823E-03    -120.261E+06    -180.757E+06    -120.280E+06    -2.93232E+06    -155.109E-03     307.144E-03    -152.036E-03     5.80725E-03    -155.158E-03     306.811E-03    -152.201E-03     5.80869E-03
             112    -1.52780E-06     137.545E-03    -123.054E+06    -190.635E+06    -123.785E+06    -2.82060E+06    -153.544E-03     306.933E-03    -153.389E-03     4.86823E-03    -153.564E-03     306.541E-03    -153.553E-03     4.87570E-03
             113    -1.09796E-06     136.260E-03    -124.312E+06    -199.485E+06    -124.442E+06    -1.22673E+06    -155.297E-03     311.762E-03    -156.466E-03    -722.752E-06    -155.330E-03     311.325E-03    -156.618E-03    -574.756E-06
             114     1.73512E-06     134.957E-03    -127.042E+06    -207.419E+06    -127.075E+06    -1.72965E+06    -160.191E-03     317.197E-03    -157.006E-03     1.78815E-03    -160.247E-03     316.729E-03    -157.156E-03     1.85631E-03
             115     2.35968E-06     133.645E-03    -131.264E+06    -215.450E+06    -131.962E+06    -1.37979E+06    -160.308E-03     319.585E-03    -159.276E-03     8.67672E-03    -160.340E-03     319.078E-03    -159.433E-03     8.53425E-03
             116    -5.10371E-06     132.338E-03    -132.643E+06    -222.050E+06    -132.036E+06    -276.999E+03    -157.410E-03     318.521E-03    -161.111E-03     7.13467E-03    -157.417E-03     317.976E-03    -161.257E-03     7.07662E-03
             117     1.92067E-06     131.048E-03    -134.611E+06    -227.677E+06    -135.121E+06     41.4497E+03    -161.352E-03     320.444E-03    -159.092E-03     2.38084E-03    -161.362E-03     319.871E-03    -159.242E-03     2.45701E-03
             118     4.49502E-06     129.734E-03    -135.427E+06    -230.221E+06    -135.517E+06    -1.84596E+06    -164.556E-03     324.864E-03    -160.308E-03     5.65280E-03    -164.570E-03     324.284E-03    -160.456E-03     5.49993E-03
             119    -4.63271E-06     128.415E-03    -136.487E+06    -234.434E+06    -136.230E+06    -1.85095E+06    -161.986E-03     326.332E-03    -164.345E-03     6.88243E-03    -162.024E-03     325.737E-03    -164.489E-03     6.64220E-03
             120     979.241E-09     127.109E-03    -136.912E+06    -237.875E+06    -137.441E+06     95.5694E+03    -162.926E-03     326.476E-03    -163.550E-03     1.88900E-03    -162.982E-03     325.856E-03    -163.694E-03     1.93683E-03
             121     1.58336E-06     125.796E-03    -133.731E+06    -239.593E+06    -134.058E+06    -909.027E+03    -164.521E-03     328.158E-03    -163.638E-03     3.21525E-03    -164.552E-03     327.508E-03    -163.767E-03     3.28850E-03
             122    -2.94897E-06     124.474E-03    -134.263E+06    -243.489E+06    -133.743E+06    -655.859E+03    -164.495E-03     330.037E-03    -165.542E-03     6.34822E-03    -164.522E-03     329.375E-03    -165.663E-03     6.28661E-03
             123     2.56190E-06     123.147E-03    -130.610E+06    -245.456E+06    -130.957E+06    -153.668E+03    -166.071E-03     329.850E-03    -163.779E-03     9.03417E-03    -166.074E-03     329.198E-03    -163.889E-03     8.84948E-03
             124     1.12074E-06     121.837E-03    -127.667E+06    -247.300E+06    -128.068E+06    -658.327E+03    -164.363E-03     327.469E-03    -163.107E-03     4.84704E-03    -164.312E-03     326.811E-03    -163.203E-03     4.82352E-03
             125    -3.14879E-06     120.536E-03    -129.003E+06    -248.438E+06    -128.778E+06     418.930E+03    -161.919E-03     326.971E-03    -165.052E-03    -2.33849E-03    -161.857E-03     326.307E-03    -165.149E-03    -2.06311E-03
             126     147.089E-09     119.217E-03    -126.779E+06    -246.491E+06    -125.773E+06     310.022E+03    -162.546E-03     329.414E-03    -166.868E-03     445.316E-06    -162.490E-03     328.750E-03    -166.956E-03     618.885E-06
             127    -3.96247E-06     117.884E-03    -124.504E+06    -245.948E+06    -124.145E+06    -174.653E+03    -163.274E-03     329.191E-03    -165.916E-03     4.21804E-03    -163.205E-03     328.506E-03    -166.000E-03     4.21164E-03
             128     3.50511E-06     116.581E-03    -123.221E+06    -246.208E+06    -123.454E+06     165.253E+03    -164.699E-03     326.969E-03    -162.270E-03     5.66356E-03    -164.646E-03     326.265E-03    -162.352E-03     5.51374E-03
             129     445.185E-09     115.254E-03    -122.381E+06    -246.043E+06    -122.485E+06    -164.947E+03    -164.029E-03     324.721E-03    -160.693E-03     6.37519E-03    -164.000E-03     324.020E-03    -160.771E-03     6.22362E-03
             130     524.046E-09     113.962E-03    -124.034E+06    -248.788E+06    -124.085E+06    -508.333E+03    -162.381E-03     324.379E-03    -161.998E-03     719.534E-06    -162.338E-03     323.665E-03    -162.078E-03     888.741E-06
             131    -1.10907E-06     112.651E-03    -121.353E+06    -246.836E+06    -121.615E+06     1.17517E+06    -163.715E-03     326.813E-03    -163.098E-03    -3.90078E-03    -163.659E-03     326.085E-03    -163.173E-03    -3.47451E-03
             132     2.43037E-06     111.329E-03    -112.257E+06    -240.751E+06    -112.824E+06     824.135E+03    -165.566E-03     328.281E-03    -162.715E-03    -1.53988E-03    -165.501E-03     327.547E-03    -162.767E-03    -1.26604E-03
             133     422.421E-09     110.015E-03    -118.502E+06    -244.993E+06    -117.253E+06    -611.591E+03    -163.274E-03     328.224E-03    -164.950E-03     3.30086E-03    -163.198E-03     327.487E-03    -165.009E-03     3.29411E-03
             134    -6.04840E-06     108.693E-03    -120.675E+06    -243.434E+06    -119.399E+06     1.11885E+06    -162.421E-03     329.287E-03    -166.866E-03     4.86397E-03    -162.322E-03     328.579E-03    -166.935E-03     4.85882E-03
             135     4.62549E-06     107.374E-03    -113.189E+06    -235.381E+06    -114.128E+06     1.24378E+06    -165.707E-03     330.444E-03    -164.737E-03     5.00275E-03    -165.602E-03     329.771E-03    -164.803E-03     5.01449E-03
             136    -1.99126E-06     106.059E-03    -115.943E+06    -235.590E+06    -115.612E+06     883.538E+03    -166.215E-03     329.897E-03    -163.682E-03     5.60911E-03    -166.126E-03     329.224E-03    -163.751E-03     5.59509E-03
             137     2.96884E-06     104.735E-03    -116.007E+06    -235.288E+06    -115.548E+06    -889.761E+03    -165.052E-03     329.040E-03    -163.988E-03     6.16933E-03    -164.968E-03     328.353E-03    -164.056E-03     6.05926E-03
             138    -2.57271E-06     103.427E-03    -113.786E+06    -233.762E+06    -113.722E+06    -392.681E+03    -162.714E-03     329.247E-03    -166.533E-03     8.56464E-03    -162.648E-03     328.564E-03    -166.598E-03     8.33346E-03
             139    -3.88715E-06     102.098E-03    -113.805E+06    -231.976E+06    -113.499E+06     684.281E+03    -162.907E-03     328.908E-03    -166.001E-03     6.63376E-03    -162.832E-03     328.230E-03    -166.067E-03     6.51414E-03
             140     5.39896E-06     100.789E-03    -113.810E+06    -231.007E+06    -114.285E+06    -789.028E+03    -166.968E-03     327.486E-03    -160.518E-03     4.86313E-03    -166.871E-03     326.798E-03    -160.590E-03     4.76099E-03
             141     2.69218E-06     99.4801E-03    -110.245E+06    -231.491E+06    -112.679E+06    -703.060E+03    -165.799E-03     327.748E-03    -161.949E-03     4.92543E-03    -165.722E-03     327.048E-03    -162.017E-03     4.88730E-03
             142    -5.12643E-06     98.1616E-03    -111.117E+06    -236.177E+06    -113.186E+06     450.878E+03    -161.769E-03     328.277E-03    -166.508E-03     1.93446E-03    -161.713E-03     327.555E-03    -166.570E-03     2.05231E-03
             143     141.751E-09     96.8480E-03    -106.918E+06    -231.731E+06    -101.311E+06     801.049E+03    -162.846E-03     328.988E-03    -166.143E-03     3.17695E-03    -162.756E-03     328.259E-03    -166.158E-03     3.20433E-03
             144    -364.206E-09     95.5221E-03    -102.746E+06    -233.514E+06    -106.308E+06     865.271E+03    -165.770E-03     329.805E-03    -164.035E-03     5.42520E-03    -165.626E-03     329.070E-03    -164.079E-03     5.36948E-03
             145     2.93423E-06     94.2101E-03    -108.772E+06    -229.327E+06    -107.011E+06    -280.005E+03    -165.460E-03     328.455E-03    -162.995E-03     4.62241E-03    -165.366E-03     327.745E-03    -163.039E-03     4.53997E-03
             146    -1.95915E-06     92.8960E-03    -106.514E+06    -222.322E+06    -104.546E+06    -1.18718E+06    -163.858E-03     327.434E-03    -163.576E-03     2.07400E-03    -163.778E-03     326.737E-03    -163.622E-03     2.13468E-03
             147     1.21646E-06     91.5861E-03    -107.223E+06    -224.573E+06    -109.866E+06     4.04340E+06    -164.434E-03     328.978E-03    -164.544E-03    -556.274E-06    -164.350E-03     328.273E-03    -164.612E-03    -296.294E-06
             148    -872.162E-09     90.2661E-03    -104.904E+06    -218.826E+06    -101.166E+06    -1.25262E+06    -165.111E-03     330.599E-03    -165.488E-03    -84.9548E-06    -165.036E-03     329.912E-03    -165.524E-03     8.26379E-06
             149    -214.273E-09     88.9429E-03    -99.3678E+06    -215.051E+06    -102.985E+06    -1.57437E+06    -165.179E-03     330.487E-03    -165.309E-03     3.72127E-03    -165.064E-03     329.819E-03    -165.368E-03     3.69801E-03
             150     822.187E-09     87.6177E-03    -101.105E+06    -217.554E+06    -106.968E+06     4.84882E+06    -165.243E-03     329.151E-03    -163.908E-03     6.46586E-03    -165.118E-03     328.482E-03    -163.981E-03     6.39616E-03
             151     285.305E-09     86.3098E-03    -103.081E+06    -221.162E+06    -100.687E+06    -1.27562E+06    -164.770E-03     328.422E-03    -163.651E-03     3.91280E-03    -164.667E-03     327.722E-03    -163.685E-03     3.83521E-03
             152     101.590E-09     84.9971E-03    -111.525E+06    -228.232E+06    -106.076E+06    -6.27846E+06    -164.409E-03     329.085E-03    -164.676E-03     2.68425E-03    -164.330E-03     328.354E-03    -164.713E-03     2.59851E-03
             153    -1.07513E-06     83.6699E-03    -106.730E+06    -227.156E+06    -103.999E+06     3.40132E+06    -163.176E-03     328.854E-03    -165.678E-03     4.86382E-03    -163.074E-03     328.095E-03    -165.714E-03     4.92786E-03
             154    -1.99782E-06     82.3603E-03    -91.6933E+06    -217.050E+06    -96.2783E+06     5.13521E+06    -163.709E-03     328.530E-03    -164.821E-03     5.03193E-03    -163.556E-03     327.763E-03    -164.854E-03     5.14009E-03
             155     3.07242E-06     81.0387E-03    -99.6992E+06    -211.307E+06    -105.035E+06    -474.535E+03    -165.128E-03     328.964E-03    -163.836E-03     3.71259E-03    -165.003E-03     328.257E-03    -163.910E-03     3.70812E-03
             156    -2.48042E-06     79.7338E-03    -110.615E+06    -212.331E+06    -109.673E+06    -1.92155E+06    -164.675E-03     329.145E-03    -164.470E-03     381.475E-06    -164.602E-03     328.483E-03    -164.551E-03     519.823E-06
             157     1.96390E-06     78.4091E-03    -109.222E+06    -215.196E+06    -109.403E+06    -1.66590E+06    -165.118E-03     329.361E-03    -164.243E-03     373.479E-06    -165.042E-03     328.694E-03    -164.320E-03     445.003E-06
             158    -348.470E-09     77.0929E-03    -111.150E+06    -206.373E+06    -104.976E+06     1.93934E+06    -164.481E-03     329.685E-03    -165.204E-03     4.96571E-03    -164.429E-03     329.049E-03    -165.268E-03     4.96502E-03
             159     2.80550E-06     74.4538E-03    -109.638E+06    -213.555E+06    -111.545E+06    -463.374E+03    -165.024E-03     329.256E-03    -164.231E-03     6.38500E-03    -164.950E-03     328.547E-03    -164.320E-03     6.33775E-03
             160    -2.10994E-06     73.1359E-03    -103.063E+06    -211.094E+06    -104.592E+06    -2.31555E+06    -164.496E-03     328.366E-03    -163.870E-03     5.56581E-03    -164.407E-03     327.638E-03    -163.937E-03     5.46714E-03
             161     2.11459E-06     71.8253E-03    -105.069E+06    -214.869E+06    -103.018E+06     784.974E+03    -164.347E-03     328.131E-03    -163.784E-03     2.81799E-03    -164.270E-03     327.383E-03    -163.835E-03     2.81715E-03
             162    -1.45924E-06     70.5105E-03    -108.777E+06    -224.934E+06    -107.712E+06    -17.4842E+03    -164.036E-03     328.605E-03    -164.569E-03     1.96707E-03    -163.965E-03     327.827E-03    -164.623E-03     2.02603E-03
             163    -203.391E-09     69.1928E-03    -106.729E+06    -222.689E+06    -109.423E+06     528.521E+03    -163.952E-03     329.861E-03    -165.909E-03     3.95327E-03    -163.873E-03     329.108E-03    -165.978E-03     3.94130E-03
             164    -1.35683E-06     67.8676E-03    -109.034E+06    -219.936E+06    -110.216E+06    -2.72579E+06    -164.122E-03     329.057E-03    -164.935E-03     5.37996E-03    -164.054E-03     328.330E-03    -165.009E-03     5.24382E-03
             165     1.44801E-06     66.5557E-03    -106.264E+06    -215.042E+06    -105.187E+06    -1.24395E+06    -163.783E-03     326.987E-03    -163.205E-03     5.96907E-03    -163.705E-03     326.277E-03    -163.265E-03     5.84707E-03
             166    -880.668E-09     65.2441E-03    -107.562E+06    -214.581E+06    -103.884E+06     3.85495E+06    -164.218E-03     327.882E-03    -163.665E-03     5.25490E-03    -164.134E-03     327.178E-03    -163.717E-03     5.30357E-03
             167     935.508E-09     63.9268E-03    -110.761E+06    -221.478E+06    -113.751E+06     588.021E+03    -165.025E-03     329.235E-03    -164.210E-03     2.28184E-03    -164.931E-03     328.516E-03    -164.297E-03     2.41170E-03
             168    -26.0218E-09     62.6146E-03    -109.150E+06    -220.519E+06    -111.826E+06    -3.23792E+06    -164.137E-03     328.991E-03    -164.854E-03     1.53107E-03    -164.044E-03     328.272E-03    -164.936E-03     1.59455E-03
             169    -2.24602E-06     61.2936E-03    -105.709E+06    -216.001E+06    -107.348E+06    -319.885E+03    -163.412E-03     328.860E-03    -165.448E-03     2.93638E-03    -163.317E-03     328.152E-03    -165.518E-03     2.92334E-03
             170     1.15250E-06     59.9744E-03    -109.489E+06    -216.334E+06    -102.985E+06     4.80561E+06    -164.459E-03     329.080E-03    -164.621E-03     3.81148E-03    -164.398E-03     328.368E-03    -164.663E-03     3.83322E-03
             171    -471.047E-09     58.6632E-03    -104.002E+06    -218.787E+06    -108.543E+06     1.23643E+06    -164.818E-03     329.499E-03    -164.681E-03     4.39048E-03    -164.725E-03     328.774E-03    -164.756E-03     4.41117E-03
             172    -268.498E-09     57.3369E-03    -107.867E+06    -216.140E+06    -109.506E+06     16.4686E+03    -164.113E-03     328.995E-03    -164.882E-03     4.82279E-03    -164.026E-03     328.285E-03    -164.960E-03     4.83302E-03
             173    -430.360E-09     56.0275E-03    -116.069E+06    -220.022E+06    -108.972E+06    -2.57111E+06    -163.344E-03     327.370E-03    -164.026E-03     3.64874E-03    -163.277E-03     326.657E-03    -164.084E-03     3.58929E-03
             174    -110.915E-09     54.7142E-03    -108.776E+06    -220.168E+06    -110.044E+06     -3.0921E+06    -163.773E-03     327.824E-03    -164.051E-03     2.12014E-03    -163.665E-03     327.112E-03    -164.124E-03     2.08947E-03
             175    -51.4865E-09     53.3999E-03     -112.56E+06    -224.252E+06    -112.833E+06     1.03828E+06    -165.194E-03     330.205E-03    -165.011E-03     1.88610E-03    -165.088E-03     329.482E-03    -165.086E-03     1.99702E-03
             176     214.263E-09     52.0750E-03    -113.642E+06    -224.954E+06    -114.236E+06     1.87723E+06    -164.912E-03     330.203E-03    -165.291E-03     2.61724E-03    -164.794E-03     329.456E-03    -165.371E-03     2.76500E-03
             177    -1.26127E-06     50.7594E-03    -105.556E+06    -220.008E+06    -110.024E+06    -166.069E+03    -164.269E-03     329.929E-03    -165.660E-03     4.32595E-03    -164.124E-03     329.162E-03    -165.738E-03     4.36899E-03
             178    -163.633E-09     49.4411E-03    -111.262E+06    -228.072E+06    -110.831E+06    -1.80881E+06    -165.336E-03     331.530E-03    -166.194E-03     4.26985E-03    -165.215E-03     330.732E-03    -166.256E-03     4.17457E-03
             179    -5.82810E-09     48.1168E-03    -114.019E+06    -224.868E+06    -109.999E+06      884.78E+03    -165.768E-03     331.757E-03    -165.989E-03     4.73803E-03    -165.673E-03     331.004E-03    -166.048E-03     4.65295E-03
             180    -407.073E-09     46.7998E-03    -98.5064E+06    -215.235E+06    -107.585E+06    -259.065E+03    -165.608E-03     330.936E-03    -165.328E-03     4.30279E-03    -165.459E-03     330.233E-03    -165.411E-03     4.29295E-03
             181     883.182E-09     45.4796E-03    -112.565E+06    -220.014E+06    -109.743E+06    -3.07260E+06    -165.330E-03     329.594E-03    -164.264E-03     3.17854E-03    -165.246E-03     328.885E-03    -164.330E-03     3.15854E-03
             182     35.1776E-09     44.1663E-03    -118.681E+06    -225.546E+06    -109.584E+06     711.137E+03    -164.968E-03     329.746E-03    -164.778E-03     4.76954E-03    -164.911E-03     328.992E-03    -164.827E-03     4.79653E-03
             183    -835.961E-09     42.8427E-03    -109.880E+06    -223.622E+06    -109.376E+06     57.5605E+03    -165.175E-03     330.711E-03    -165.536E-03     4.50493E-03    -165.083E-03     329.933E-03    -165.599E-03     4.51191E-03
             184     840.103E-09     41.5265E-03    -104.847E+06    -220.792E+06    -106.620E+06     2.00144E+06    -165.693E-03     330.289E-03    -164.596E-03     4.58659E-03    -165.591E-03     329.508E-03    -164.657E-03     4.51894E-03
             185     571.358E-09     40.2073E-03    -102.041E+06    -220.390E+06    -103.580E+06     1.10382E+06    -165.857E-03     330.655E-03    -164.798E-03     4.81136E-03    -165.744E-03     329.869E-03    -164.849E-03     4.73172E-03
             186    -628.075E-09     38.8906E-03    -105.858E+06    -217.554E+06    -108.755E+06    -790.677E+03    -165.673E-03     331.285E-03    -165.612E-03     3.69408E-03    -165.567E-03     330.536E-03    -165.687E-03     3.65258E-03
             187     495.264E-09     37.5676E-03    -103.881E+06    -214.127E+06    -105.141E+06    -160.177E+03    -166.449E-03     332.017E-03    -165.568E-03     3.31559E-03    -166.338E-03     331.290E-03    -165.632E-03     3.29736E-03
             188     706.921E-09     36.2511E-03    -109.027E+06    -216.390E+06    -107.561E+06    -1.63034E+06    -166.892E-03     333.079E-03    -166.187E-03     4.08231E-03    -166.796E-03     332.350E-03    -166.253E-03     4.03341E-03
             189    -1.09051E-06     34.9204E-03    -118.819E+06    -223.489E+06    -115.556E+06     691.089E+03    -166.492E-03     333.131E-03    -166.639E-03     4.76266E-03    -166.420E-03     332.400E-03    -166.720E-03     4.71496E-03
             190     1.00403E-06     33.6045E-03    -113.356E+06    -219.929E+06    -111.010E+06    -1.31934E+06    -167.009E-03     333.002E-03    -165.993E-03     4.50070E-03    -166.907E-03     332.274E-03    -166.065E-03     4.43768E-03
             191     356.450E-09     32.2797E-03    -113.128E+06    -225.207E+06    -115.953E+06    -1.65110E+06    -166.951E-03     333.323E-03    -166.372E-03     4.56952E-03    -166.810E-03     332.551E-03    -166.461E-03     4.56223E-03
             192    -1.19619E-06     30.9585E-03    -112.717E+06    -226.460E+06    -111.654E+06     3.34006E+06    -166.728E-03     333.726E-03    -166.999E-03     4.02293E-03    -166.571E-03     332.915E-03    -167.065E-03     4.09952E-03
             193     1.27441E-06     29.6348E-03    -109.427E+06    -222.497E+06    -108.407E+06     1.18587E+06    -168.025E-03     334.700E-03    -166.675E-03     4.17107E-03    -167.856E-03     333.873E-03    -166.735E-03     4.17751E-03
             194     343.532E-09     28.3098E-03    -114.789E+06    -222.067E+06    -113.334E+06    -1.67878E+06    -167.734E-03     335.121E-03    -167.386E-03     4.94644E-03    -167.587E-03     334.285E-03    -167.465E-03     4.88455E-03
             195    -1.78861E-06     26.9844E-03    -110.023E+06    -221.868E+06    -113.888E+06    -826.070E+03    -166.876E-03     334.690E-03    -167.813E-03     4.45574E-03    -166.717E-03     333.850E-03    -167.901E-03     4.38206E-03
             196     1.41944E-06     25.6618E-03    -114.675E+06    -232.210E+06    -117.456E+06     2.48069E+06    -167.620E-03     335.006E-03    -167.386E-03     5.18069E-03    -167.484E-03     334.166E-03    -167.470E-03     5.08493E-03
             197    -1.04305E-06     24.3343E-03    -114.209E+06    -227.183E+06    -111.884E+06     1.64211E+06    -167.726E-03     334.638E-03    -166.912E-03     4.52907E-03    -167.614E-03     333.860E-03    -166.977E-03     4.39586E-03
             198     1.62624E-06     23.0146E-03    -114.147E+06    -228.597E+06    -110.822E+06    -3.47335E+06    -166.964E-03     333.406E-03    -166.441E-03     4.42551E-03    -166.849E-03     332.644E-03    -166.498E-03     4.28362E-03
             199    -1.68345E-06     21.6902E-03    -112.916E+06    -233.936E+06    -114.076E+06    -1.63173E+06    -166.386E-03     332.583E-03    -166.197E-03     4.37948E-03    -166.250E-03     331.787E-03    -166.265E-03     4.30970E-03
             200     1.71079E-06     20.3703E-03    -106.843E+06    -226.508E+06    -109.112E+06     4.70603E+06    -165.865E-03     330.988E-03    -165.124E-03     3.50957E-03    -165.727E-03     330.192E-03    -165.186E-03     3.58157E-03
             201    -917.278E-09     19.0538E-03    -114.406E+06    -227.124E+06    -111.642E+06     520.041E+03    -163.904E-03     327.564E-03    -163.660E-03     2.58491E-03    -163.806E-03     326.751E-03    -163.723E-03     2.63835E-03
             202     246.111E-09     17.7414E-03    -111.860E+06    -225.027E+06    -112.836E+06    -6.09051E+06    -161.286E-03     322.723E-03    -161.436E-03     2.21970E-03    -161.165E-03     321.886E-03    -161.512E-03     2.14750E-03
             203    -105.732E-09     16.4358E-03    -110.849E+06    -229.768E+06    -112.814E+06     1.57924E+06    -158.983E-03     317.577E-03    -158.594E-03     3.02097E-03    -158.843E-03     316.714E-03    -158.664E-03     2.96997E-03
             204     237.989E-09     15.1375E-03    -114.941E+06    -233.963E+06    -111.671E+06     3.65002E+06    -155.848E-03     311.516E-03    -155.667E-03     2.26643E-03    -155.729E-03     310.661E-03    -155.720E-03     2.20105E-03
             205    -355.964E-09     13.8498E-03    -117.041E+06    -227.260E+06    -114.208E+06     359.861E+03    -151.868E-03     303.250E-03    -151.382E-03     684.901E-06    -151.747E-03     302.443E-03    -151.453E-03     611.676E-06
             206     937.648E-09     12.5720E-03    -110.058E+06    -224.063E+06    -116.195E+06     640.607E+03    -147.523E-03     294.680E-03    -147.156E-03     1.30473E-03    -147.340E-03     293.892E-03    -147.253E-03     1.22049E-03
             207    -1.38203E-06     11.3054E-03    -100.883E+06    -224.181E+06    -112.310E+06    -1.95188E+06    -143.673E-03     287.696E-03    -144.022E-03     1.21102E-03    -143.455E-03     286.927E-03    -144.113E-03     1.03197E-03
             208     802.658E-09     10.0467E-03    -113.232E+06    -232.827E+06    -108.985E+06    -480.734E+03    -140.956E-03     281.761E-03    -140.805E-03     263.922E-06    -140.830E-03     280.999E-03    -140.848E-03     100.434E-06
             209    -245.335E-09     8.79501E-03    -121.762E+06    -236.217E+06    -108.186E+06    -2.94615E+06    -139.197E-03     278.035E-03    -138.838E-03     1.24311E-03    -139.137E-03     277.291E-03    -138.859E-03     1.13975E-03
             210     121.552E-09     7.54406E-03    -110.696E+06    -237.059E+06    -113.274E+06    -2.83264E+06    -139.121E-03     277.605E-03    -138.484E-03     1.77367E-03    -138.985E-03     276.802E-03    -138.546E-03     1.76636E-03
             211     687.894E-09     6.29344E-03    -100.584E+06    -235.771E+06    -102.509E+06     1.19871E+06    -139.265E-03     278.590E-03    -139.325E-03     1.56797E-03    -139.068E-03     277.664E-03    -139.349E-03     1.56413E-03
             212    -1.93932E-06     5.04319E-03    -93.4837E+06    -233.700E+06      -95.18E+06     1.21045E+06    -139.583E-03     280.247E-03    -140.663E-03     908.871E-06    -139.353E-03     279.328E-03    -140.665E-03     722.907E-06
             213     1.13714E-06     3.78574E-03    -87.5788E+06    -230.497E+06    -87.4890E+06     3.24678E+06    -141.820E-03     283.478E-03    -141.659E-03     1.45168E-03    -141.547E-03     282.670E-03    -141.635E-03     1.36320E-03
             214    -474.169E-09     2.52593E-03    -84.6759E+06    -226.016E+06    -80.7372E+06    -623.588E+03    -143.232E-03     286.141E-03    -142.909E-03     1.23902E-03    -142.897E-03     285.376E-03    -142.863E-03     1.24015E-03
             215    -134.758E-09     1.26337E-03    -79.7965E+06    -225.938E+06    -80.8233E+06     723.120E+03    -143.792E-03     287.466E-03    -143.673E-03     626.956E-06    -143.391E-03     286.655E-03    -143.634E-03     642.903E-06
             216     779.015E-06     846.545E-18    -73.6909E+06    -210.715E+06    -65.4319E+06     1.92128E+06    -144.391E-03     288.324E-03    -143.933E-03     823.931E-06    -144.144E-03     287.471E-03    -143.848E-03     915.444E-06
             217     1.55806E-03     846.545E-18    -66.7750E+06    -189.867E+06    -51.4010E+06    -1.41241E+06    -144.548E-03     288.743E-03    -144.195E-03     1.06611E-03    -144.416E-03     287.850E-03    -144.080E-03     1.09839E-03
             218     2.33715E-03     846.545E-18    -62.0561E+06    -179.294E+06    -49.2946E+06     2.24080E+06    -144.951E-03     289.309E-03    -144.358E-03     1.22502E-03    -144.797E-03     288.446E-03    -144.254E-03     1.20447E-03
             219     3.11530E-03     846.545E-18    -59.9666E+06    -170.092E+06    -49.0153E+06     198.484E+03    -145.455E-03     290.000E-03    -144.545E-03     1.70911E-03    -145.353E-03     289.228E-03    -144.457E-03     1.62450E-03
             220     3.89315E-03     846.545E-18    -57.6414E+06    -153.362E+06    -48.8672E+06    -156.965E+03    -146.185E-03     290.955E-03    -144.771E-03     2.19614E-03    -146.115E-03     290.280E-03    -144.709E-03     2.12343E-03
             221     4.67059E-03     846.545E-18    -54.2507E+06    -135.886E+06    -47.0577E+06    -2.44131E+06    -147.237E-03     292.308E-03    -145.070E-03     2.47605E-03    -147.196E-03     291.730E-03    -145.030E-03     2.35456E-03
             222     5.44674E-03     846.545E-18    -51.1665E+06    -115.956E+06    -44.3936E+06    -635.109E+03    -148.565E-03     294.018E-03    -145.453E-03     2.96730E-03    -148.556E-03     293.545E-03    -145.433E-03     2.84113E-03
             223     6.22165E-03     846.545E-18    -49.8489E+06    -90.3607E+06    -43.3630E+06    -471.604E+03    -150.135E-03     296.040E-03    -145.906E-03     3.52516E-03    -150.150E-03     295.684E-03    -145.919E-03     3.37158E-03
             224     6.99560E-03     846.545E-18    -46.0854E+06    -60.2694E+06    -41.0723E+06    -3.84205E+06    -151.926E-03     298.362E-03    -146.435E-03     4.12455E-03    -151.965E-03     298.142E-03    -146.486E-03     3.89824E-03
             225     7.76748E-03     846.545E-18    -40.2682E+06    -26.6956E+06    -37.0791E+06    -5.07647E+06    -154.134E-03     301.187E-03    -147.053E-03     4.67934E-03    -154.207E-03     301.131E-03    -147.142E-03     4.42538E-03
             226     8.53850E-03     846.545E-18    -33.4924E+06     1.02671E+06    -27.4993E+06    -6.40834E+06    -157.113E-03     304.937E-03    -147.824E-03     5.30301E-03    -157.217E-03     305.006E-03    -147.914E-03     5.00340E-03
             227     9.30543E-03     846.545E-18    -30.9922E+06     14.7043E+06    -11.6737E+06     3.09052E+06    -160.462E-03     309.250E-03    -148.788E-03     6.21096E-03    -160.604E-03     309.368E-03    -148.823E-03     5.97655E-03
             228     10.0700E-03     846.545E-18    -28.9844E+06     23.3140E+06    -7.23247E+06    -5.35433E+06    -163.954E-03     313.780E-03    -149.826E-03     7.02413E-03    -164.104E-03     313.932E-03    -149.854E-03     6.61472E-03
             229     10.8338E-03     846.545E-18    -18.3558E+06     41.4496E+06      9.6709E+06    -10.4981E+06    -168.777E-03     319.823E-03    -151.046E-03     6.44500E-03    -168.921E-03     320.022E-03    -151.031E-03     5.86606E-03
             230     11.5929E-03     846.545E-18    -11.2369E+06     58.6699E+06     49.3842E+06     2.94640E+06    -176.389E-03     329.024E-03    -152.635E-03     8.01850E-03    -176.580E-03     329.242E-03    -152.457E-03     7.55165E-03
             231     12.3402E-03     846.545E-18    -10.6568E+06     66.4393E+06     75.4578E+06      222.94E+03    -185.814E-03     340.339E-03    -154.525E-03     10.0537E-03    -186.052E-03     340.558E-03    -154.228E-03     9.31805E-03
             232     13.0872E-03     846.545E-18    -10.4673E+06     70.2386E+06     84.7805E+06    -1.78874E+06    -198.633E-03     355.398E-03    -156.765E-03     8.41952E-03    -198.889E-03     355.624E-03    -156.428E-03     7.41083E-03
             233     13.8242E-03     846.545E-18    -8.31996E+06     69.2846E+06     87.1100E+06     11.2329E+06    -223.851E-03     383.583E-03    -159.732E-03     13.5923E-03    -224.112E-03     383.819E-03    -159.385E-03     12.6313E-03
             234     14.5242E-03     846.545E-18    -14.8244E+06     67.9904E+06     78.3096E+06     3.10826E+06    -267.803E-03     431.824E-03    -164.021E-03     47.4746E-03    -268.233E-03     432.236E-03    -163.707E-03     44.5629E-03
             235     15.2232E-03     1.55704E-03      58.139E+03     82.3651E+06     86.0567E+06    -1.49456E+06    -263.406E-03     429.174E-03    -165.768E-03     88.5222E-03    -263.970E-03     429.788E-03    -165.457E-03     84.3883E-03
             236     15.2647E-03     2.96409E-03     8.91274E+06     83.8160E+06     89.7361E+06     3.40924E+06    -222.287E-03     386.770E-03    -164.483E-03     90.0440E-03    -222.807E-03     387.354E-03    -164.169E-03     86.6945E-03
             237     15.2636E-03     4.33921E-03    -6.73942E+06     69.9565E+06     75.9357E+06    -3.79076E+06    -210.722E-03     374.614E-03    -163.892E-03     74.2494E-03    -211.246E-03     375.141E-03    -163.604E-03     70.7325E-03
             238     15.2734E-03     5.71505E-03    -3.36123E+06     76.3159E+06     79.7233E+06    -3.67604E+06    -202.687E-03     366.386E-03    -163.698E-03     71.6359E-03    -203.200E-03     366.926E-03    -163.405E-03     68.2035E-03
             239     15.2783E-03     7.07043E-03    -755.347E+03     81.4079E+06     84.6343E+06    -4.31078E+06    -195.120E-03     358.811E-03    -163.691E-03     67.2456E-03    -195.594E-03     359.327E-03    -163.385E-03     64.1860E-03
             240     15.2708E-03     8.43125E-03    -14.4583E+06     66.8271E+06     73.2547E+06     532.185E+03    -190.513E-03     354.437E-03    -163.924E-03     63.6713E-03    -190.980E-03     354.878E-03    -163.633E-03     61.0387E-03
             241     15.2727E-03     9.76743E-03    -11.0025E+06     70.2259E+06     76.6515E+06     3.26960E+06    -182.685E-03     346.828E-03    -164.143E-03     65.8683E-03    -183.130E-03     347.260E-03    -163.845E-03     63.5742E-03
             242     15.2757E-03     11.1037E-03     8.19355E+06     87.4395E+06     92.2008E+06    -876.823E+03    -175.581E-03     339.731E-03    -164.150E-03     66.2106E-03    -175.970E-03     340.192E-03    -163.827E-03     63.9993E-03
             243     15.2797E-03     12.4286E-03     4.63598E+06     82.6657E+06     88.2296E+06    -1.10084E+06    -172.857E-03     337.061E-03    -164.205E-03     60.6795E-03    -173.242E-03     337.501E-03    -163.890E-03     58.4600E-03
             244     15.2687E-03     13.7576E-03    -12.1342E+06     64.3290E+06     70.6070E+06     5.19166E+06    -169.763E-03     334.197E-03    -164.434E-03     57.3862E-03    -170.171E-03     334.586E-03    -164.156E-03     55.3135E-03
             245     15.2753E-03     15.0704E-03    -1.46126E+06     67.2188E+06     75.5318E+06     4.18868E+06    -163.718E-03     328.198E-03    -164.480E-03     62.7412E-03    -164.083E-03     328.579E-03    -164.198E-03     60.8465E-03
             246     15.2802E-03     16.3818E-03     6.82835E+06     77.1192E+06     87.8784E+06    -9.55856E+06    -163.130E-03     327.474E-03    -164.344E-03     60.1936E-03    -163.492E-03     327.881E-03    -164.027E-03     57.9964E-03
             247     15.2747E-03     17.7052E-03    -10.8979E+06     67.0499E+06     75.8206E+06    -8.73068E+06    -166.537E-03     330.915E-03    -164.377E-03     56.8313E-03    -166.963E-03     331.321E-03    -164.079E-03     54.5120E-03
             248     15.2722E-03     19.0216E-03    -4.25596E+06     71.0873E+06     77.5679E+06     5.48610E+06    -164.123E-03     328.609E-03    -164.487E-03     59.8912E-03    -164.513E-03     329.013E-03    -164.196E-03     57.9750E-03
             249     15.2797E-03     20.3347E-03     9.18935E+06     82.0716E+06     87.5385E+06     2.78871E+06    -158.989E-03     323.545E-03    -164.556E-03     56.2438E-03    -159.323E-03     323.950E-03    -164.251E-03     54.4347E-03
             250     15.2716E-03     21.6371E-03     5.93484E+06     80.9636E+06     87.1254E+06    -1.62169E+06    -159.346E-03     323.893E-03    -164.547E-03     56.2838E-03    -159.701E-03     324.305E-03    -164.238E-03     54.3397E-03
             251     15.2805E-03     22.9489E-03     2.47948E+06     73.7982E+06     81.6454E+06    -3.35676E+06    -162.840E-03     327.229E-03    -164.389E-03     57.3406E-03    -163.221E-03     327.645E-03    -164.091E-03     55.1137E-03
             252     15.2742E-03     24.2736E-03    -5.27359E+06     66.2761E+06     74.8978E+06    -1.13900E+06    -163.495E-03     327.865E-03    -164.370E-03     57.8487E-03    -163.897E-03     328.267E-03    -164.084E-03     55.6369E-03
             253     15.2773E-03     25.5883E-03    -5.48063E+06     66.9177E+06     77.0746E+06     1.02774E+06    -162.962E-03     327.436E-03    -164.474E-03     61.5114E-03    -163.372E-03     327.842E-03    -164.178E-03     59.3724E-03
             254     15.2729E-03     26.8969E-03    -12.1841E+06     61.8321E+06     72.2796E+06    -2.33953E+06    -164.319E-03     328.845E-03    -164.526E-03     58.4313E-03    -164.761E-03     329.254E-03    -164.236E-03     56.0133E-03
             255     15.2728E-03     28.2211E-03    -9.37124E+06     61.2847E+06     73.3219E+06     1.27294E+06    -162.407E-03     326.998E-03    -164.591E-03     59.5688E-03    -162.817E-03     327.380E-03    -164.299E-03     57.4391E-03
             256     15.2767E-03     29.5261E-03    -474.178E+03     68.2378E+06     79.0558E+06     3.51320E+06    -159.851E-03     324.389E-03    -164.538E-03     62.2049E-03    -160.226E-03     324.777E-03    -164.241E-03     60.2666E-03
             257     15.2767E-03     30.8392E-03    -5.77777E+06     61.9939E+06     75.5356E+06    -211.399E+03    -163.228E-03     327.708E-03    -164.480E-03     57.5052E-03    -163.620E-03     328.082E-03    -164.184E-03     55.2840E-03
             258     15.2707E-03     32.1563E-03    -2.90064E+06     66.8961E+06     82.4503E+06     396.700E+03    -162.716E-03     327.302E-03    -164.586E-03     56.3516E-03    -163.104E-03     327.680E-03    -164.266E-03     54.1654E-03
             259     15.2784E-03     33.4684E-03     11.0794E+06     75.0534E+06     86.6927E+06     1.52269E+06    -159.715E-03     324.328E-03    -164.612E-03     59.8513E-03    -160.051E-03     324.719E-03    -164.304E-03     57.7848E-03
             260     15.2716E-03     34.7782E-03     4.03975E+06     68.3049E+06     79.3732E+06    -2.77341E+06    -162.380E-03     326.911E-03    -164.530E-03     59.6268E-03    -162.741E-03     327.300E-03    -164.239E-03     57.3230E-03
             261     15.2773E-03     36.0935E-03      16.028E+03     63.2205E+06     78.9541E+06    -1.05808E+06    -164.519E-03     329.033E-03    -164.514E-03     58.2021E-03    -164.883E-03     329.392E-03    -164.211E-03     55.7473E-03
             262     15.2710E-03     37.4160E-03     5.92326E+06     62.5298E+06     80.0057E+06    -3.29374E+06    -163.081E-03     327.656E-03    -164.576E-03     59.7010E-03    -163.349E-03     327.924E-03    -164.275E-03     57.4520E-03
             263     15.2765E-03     38.7257E-03    -25.4883E+06     52.1533E+06     62.1081E+06    -1.03257E+06    -162.893E-03     327.430E-03    -164.538E-03     62.7551E-03    -163.267E-03     327.707E-03    -164.266E-03     60.8957E-03
             264     15.2727E-03     40.0407E-03    -7.63587E+06     50.4636E+06     66.5781E+06    -36.3852E+03    -165.950E-03     330.428E-03    -164.478E-03     59.5068E-03    -166.279E-03     330.715E-03    -164.208E-03     57.6330E-03
             265     15.2735E-03     41.3644E-03    -1.16090E+06     52.8081E+06     71.8961E+06    -886.575E+03    -164.829E-03     329.439E-03    -164.610E-03     55.2402E-03    -165.136E-03     329.723E-03    -164.325E-03     53.2188E-03
             266     15.2701E-03     42.6718E-03    -7.78336E+06     57.8279E+06     73.4170E+06     2.57655E+06    -164.175E-03     328.897E-03    -164.722E-03     58.1830E-03    -164.542E-03     329.230E-03    -164.427E-03     56.0696E-03
             267     15.2711E-03     43.9956E-03     170.155E+03     65.8779E+06     79.4097E+06     4.64212E+06    -164.960E-03     329.601E-03    -164.641E-03     61.6582E-03    -165.307E-03     329.955E-03    -164.340E-03     59.6395E-03
             268     15.2768E-03     45.3129E-03     5.14403E+06     71.6338E+06     82.6483E+06     2.06637E+06    -161.805E-03     326.331E-03    -164.526E-03     62.5208E-03    -162.131E-03     326.691E-03    -164.224E-03     60.6035E-03
             269     15.2763E-03     46.6200E-03     14.2511E+06     81.5517E+06     91.9548E+06    -194.262E+03    -161.957E-03     326.392E-03    -164.436E-03     61.2863E-03    -162.277E-03     326.788E-03    -164.115E-03     59.1650E-03
             270     15.2778E-03     47.9359E-03     857.703E+03     74.9026E+06     86.3121E+06    -2.19993E+06    -165.761E-03     330.126E-03    -164.365E-03     58.3081E-03    -166.136E-03     330.521E-03    -164.043E-03     55.9898E-03
             271     15.2735E-03     49.2580E-03    -4.79646E+06     68.1597E+06     78.4426E+06    -3.39768E+06    -167.427E-03     331.845E-03    -164.417E-03     55.6170E-03    -167.804E-03     332.220E-03    -164.117E-03     53.2589E-03
             272     15.2735E-03     50.5764E-03    -3.83251E+06     67.2061E+06     74.0165E+06     462.812E+03    -164.539E-03     329.010E-03    -164.471E-03     58.2076E-03    -164.900E-03     329.383E-03    -164.193E-03     56.0235E-03
             273     15.2779E-03     51.8904E-03    -3.71796E+06     68.6709E+06     75.9416E+06     1.51701E+06    -163.022E-03     327.434E-03    -164.412E-03     61.4632E-03    -163.388E-03     327.811E-03    -164.126E-03     59.4020E-03
             274     15.2755E-03     53.2102E-03    -13.0838E+06     67.4424E+06     73.7829E+06     142.719E+03    -165.714E-03     330.115E-03    -164.401E-03     59.4934E-03    -166.128E-03     330.510E-03    -164.111E-03     57.3023E-03
             275     15.2724E-03     54.5269E-03    -2.64618E+06     75.4971E+06     80.1504E+06     4.91423E+06    -165.640E-03     330.088E-03    -164.449E-03     59.9971E-03    -166.026E-03     330.502E-03    -164.153E-03     57.8388E-03
             276     15.2787E-03     55.8428E-03     7.25564E+06     85.0896E+06     91.5179E+06     2.62586E+06    -163.967E-03     328.441E-03    -164.473E-03     58.9443E-03    -164.333E-03     328.870E-03    -164.150E-03     56.7608E-03
             277     15.2720E-03     57.1598E-03     3.99327E+06     80.5784E+06     88.4580E+06    -4.87884E+06    -164.191E-03     328.681E-03    -164.490E-03     58.1493E-03    -164.567E-03     329.101E-03    -164.170E-03     55.8163E-03
             278     15.2775E-03     58.4741E-03     1.44830E+06     76.8887E+06     81.7430E+06     2.81099E+06    -164.252E-03     328.684E-03    -164.432E-03     60.7976E-03    -164.630E-03     329.103E-03    -164.136E-03     58.5977E-03
             279     15.2753E-03     59.7942E-03    -5.74107E+06     72.6609E+06     78.5620E+06     1.08467E+06    -165.480E-03     329.862E-03    -164.382E-03     60.1588E-03    -165.886E-03     330.278E-03    -164.086E-03     57.8846E-03
             280     15.2752E-03     61.1118E-03    -302.369E+03     78.1231E+06     81.9383E+06    -3.17647E+06    -164.318E-03     328.709E-03    -164.391E-03     60.4316E-03    -164.711E-03     329.142E-03    -164.094E-03     58.1204E-03
             281     15.2789E-03     62.4250E-03    -2.62366E+06     75.4560E+06     78.2969E+06     870.491E+03    -163.610E-03     327.980E-03    -164.369E-03     60.6849E-03    -164.003E-03     328.405E-03    -164.083E-03     58.4711E-03
             282     15.2733E-03     63.7435E-03    -6.28413E+06     72.3783E+06     78.4235E+06    -2.72663E+06    -165.293E-03     329.695E-03    -164.402E-03     58.0176E-03    -165.702E-03     330.112E-03    -164.105E-03     55.6612E-03
             283     15.2767E-03     65.0569E-03    -1.05493E+06     77.3373E+06     84.9933E+06      78.176E+03    -164.619E-03     329.053E-03    -164.433E-03     59.7099E-03    -165.014E-03     329.473E-03    -164.119E-03     57.4697E-03
             284     15.2759E-03     66.3796E-03    -2.96118E+06     77.3056E+06     85.7023E+06     2.78669E+06    -165.330E-03     329.741E-03    -164.411E-03     61.6535E-03    -165.734E-03     330.162E-03    -164.091E-03     59.4986E-03
             285     15.2748E-03     67.6966E-03    -5.40283E+06     74.1517E+06     78.3388E+06    -3.17069E+06    -164.637E-03     329.093E-03    -164.456E-03     58.9520E-03    -165.043E-03     329.516E-03    -164.164E-03     56.6198E-03
             286     15.2742E-03     69.0084E-03    -2.12789E+06     75.3237E+06     77.0719E+06     1.84069E+06    -162.731E-03     327.220E-03    -164.489E-03     60.6920E-03    -163.110E-03     327.636E-03    -164.210E-03     58.5732E-03
             287     15.2768E-03     70.3244E-03    -1.41321E+06     77.9799E+06     82.5947E+06     2.40051E+06    -164.583E-03     329.040E-03    -164.457E-03     59.0425E-03    -164.960E-03     329.450E-03    -164.155E-03     56.9572E-03
             288     15.2726E-03     71.6403E-03    -3.15014E+06     76.1508E+06     81.3294E+06     566.733E+03    -165.142E-03     329.586E-03    -164.444E-03     56.6720E-03    -165.515E-03     329.984E-03    -164.144E-03     54.5774E-03
             289     15.2781E-03     72.9582E-03    -247.729E+03     78.3501E+06     83.5800E+06    -832.746E+03    -164.639E-03     329.075E-03    -164.436E-03     59.6786E-03    -165.014E-03     329.486E-03    -164.131E-03     57.5515E-03
             290     15.2730E-03     74.2800E-03    -3.52158E+06     75.7906E+06     83.7133E+06    -3.78060E+06    -165.008E-03     329.498E-03    -164.490E-03     60.1754E-03    -165.410E-03     329.915E-03    -164.177E-03     57.8960E-03
             291     15.2745E-03     75.5957E-03     660.475E+03     81.1367E+06     88.3264E+06     1.29145E+06    -163.403E-03     327.964E-03    -164.561E-03     60.3815E-03    -163.789E-03     328.386E-03    -164.238E-03     58.2832E-03
             292     762.908E-06     77.0953E-03    -108.964E+06    -202.562E+06    -102.900E+06     1.22954E+06    -164.462E-03     329.395E-03    -164.933E-03     6.90853E-03    -164.471E-03     328.723E-03    -164.996E-03     6.90490E-03
             293     1.52663E-03     77.1081E-03    -104.523E+06    -191.188E+06    -95.9202E+06     495.246E+03    -164.614E-03     329.269E-03    -164.655E-03     10.9229E-03    -164.676E-03     328.567E-03    -164.706E-03     10.9215E-03
             294     2.29023E-03     77.1237E-03    -98.2194E+06    -174.619E+06    -83.8392E+06     446.204E+03    -164.788E-03     329.463E-03    -164.674E-03     15.9268E-03    -164.856E-03     328.808E-03    -164.698E-03     15.8965E-03
             295     3.05344E-03     77.1499E-03    -93.0761E+06    -164.427E+06    -70.2540E+06     464.352E+03    -164.944E-03     329.693E-03    -164.749E-03     21.5537E-03    -165.042E-03     329.083E-03    -164.727E-03     21.4698E-03
             296     3.81557E-03     77.1817E-03    -91.4750E+06    -153.450E+06    -60.2869E+06    -524.165E+03    -164.942E-03     329.749E-03    -164.806E-03     26.6064E-03    -165.074E-03     329.186E-03    -164.753E-03     26.4513E-03
             297     4.57912E-03     77.2201E-03    -83.8473E+06    -133.049E+06    -47.9551E+06    -592.108E+03    -164.402E-03     329.192E-03    -164.790E-03     32.1396E-03    -164.550E-03     328.709E-03    -164.715E-03     31.9148E-03
             298     5.34405E-03     77.2651E-03    -73.1769E+06    -108.298E+06    -29.4033E+06     2.06660E+06    -164.065E-03     328.789E-03    -164.724E-03     37.8760E-03    -164.230E-03     328.395E-03    -164.608E-03     37.6130E-03
             299     6.10873E-03     77.3159E-03    -71.0784E+06    -91.4543E+06    -16.8716E+06     1.82681E+06    -164.373E-03     329.034E-03    -164.661E-03     42.6284E-03    -164.585E-03     328.717E-03    -164.509E-03     42.1984E-03
             300     6.87294E-03     77.3742E-03    -68.2759E+06    -72.3232E+06    -8.22342E+06     1.99874E+06    -164.818E-03     329.447E-03    -164.629E-03     46.6314E-03    -165.075E-03     329.229E-03    -164.466E-03     45.9827E-03
             301     7.63504E-03     77.4348E-03    -58.3510E+06    -36.4213E+06     9.19317E+06     1.60172E+06    -164.934E-03     329.571E-03    -164.636E-03     50.3770E-03    -165.232E-03     329.505E-03    -164.453E-03     49.5425E-03
             302     8.39818E-03     77.5037E-03    -54.0092E+06    -16.3169E+06     18.2584E+06    -1.30581E+06    -164.774E-03     329.398E-03    -164.624E-03     55.2804E-03    -165.107E-03     329.429E-03    -164.431E-03     54.2757E-03
             303     9.16228E-03     77.5779E-03    -43.7753E+06     5.29181E+06     27.4579E+06     149.225E+03    -164.451E-03     329.027E-03    -164.576E-03     58.2614E-03    -164.805E-03     329.164E-03    -164.383E-03     56.9614E-03
             304     9.92845E-03     77.6476E-03    -35.2431E+06     25.8975E+06     40.0371E+06     2.54798E+06    -164.536E-03     329.075E-03    -164.539E-03     61.7960E-03    -164.921E-03     329.310E-03    -164.325E-03     60.2546E-03
             305     10.6918E-03     77.7314E-03    -31.6436E+06     31.8476E+06     44.1291E+06     214.973E+03    -164.995E-03     329.500E-03    -164.505E-03     65.9717E-03    -165.396E-03     329.774E-03    -164.285E-03     64.2487E-03
             306     11.4552E-03     77.8111E-03    -21.5084E+06     45.7063E+06     57.8831E+06     1.71127E+06    -165.545E-03     330.076E-03    -164.531E-03     67.6216E-03    -165.960E-03     330.409E-03    -164.277E-03     65.6767E-03
             307     12.2169E-03     77.9027E-03    -21.8550E+06     55.6670E+06     70.7775E+06     2.01274E+06    -165.647E-03     330.242E-03    -164.594E-03     68.4695E-03    -166.123E-03     330.632E-03    -164.290E-03     66.2743E-03
             308     12.9803E-03     77.9879E-03    -22.2468E+06     61.1800E+06     73.2157E+06    -5.61085E+06    -164.568E-03     329.155E-03    -164.587E-03     67.6205E-03    -165.084E-03     329.597E-03    -164.277E-03     65.0332E-03
             309     13.7473E-03     78.0668E-03    -10.8765E+06     71.3680E+06     79.9746E+06    -2.96733E+06    -163.323E-03     327.840E-03    -164.516E-03     66.7901E-03    -163.795E-03     328.294E-03    -164.204E-03     64.2870E-03
             310     14.5126E-03     78.1518E-03    -2.51499E+06     79.3422E+06     85.1091E+06     1.05595E+06    -163.894E-03     328.331E-03    -164.437E-03     61.8081E-03    -164.305E-03     328.768E-03    -164.123E-03     59.5556E-03
             311     763.681E-06     78.4135E-03    -106.922E+06    -207.108E+06    -105.625E+06    -61.6257E+03    -164.789E-03     329.183E-03    -164.394E-03     5.12156E-03    -164.781E-03     328.496E-03    -164.467E-03     5.12921E-03
             312     1.52688E-03     78.4239E-03    -102.956E+06    -191.445E+06    -95.9832E+06     1.40406E+06    -164.771E-03     329.365E-03    -164.594E-03     11.6310E-03    -164.827E-03     328.662E-03    -164.647E-03     11.6063E-03
             313     2.28956E-03     78.4427E-03    -99.4368E+06    -176.157E+06    -84.2384E+06     2.12128E+06    -165.076E-03     329.786E-03    -164.711E-03     16.3588E-03    -165.145E-03     329.124E-03    -164.732E-03     16.3472E-03
             314     3.05252E-03     78.4666E-03    -95.3538E+06    -165.462E+06    -71.5012E+06     2.47016E+06    -164.792E-03     329.589E-03    -164.798E-03     22.1921E-03    -164.894E-03     328.975E-03    -164.777E-03     22.1552E-03
             315     3.81675E-03     78.5003E-03    -91.2921E+06    -151.907E+06    -59.3127E+06     1.75517E+06    -164.422E-03     329.203E-03    -164.781E-03     27.5669E-03    -164.555E-03     328.645E-03    -164.725E-03     27.4699E-03
             316     4.58035E-03     78.5360E-03    -81.3360E+06    -130.700E+06    -42.2984E+06     360.301E+03    -164.463E-03     329.205E-03    -164.743E-03     32.4872E-03    -164.611E-03     328.724E-03    -164.647E-03     32.2675E-03
             317     5.34430E-03     78.5805E-03    -72.2882E+06    -111.552E+06    -27.4269E+06     480.985E+03    -164.557E-03     329.274E-03    -164.717E-03     37.1108E-03    -164.721E-03     328.865E-03    -164.587E-03     36.7868E-03
             318     6.10742E-03     78.6335E-03    -65.8958E+06    -93.7417E+06    -15.3673E+06     1.54185E+06    -164.571E-03     329.264E-03    -164.693E-03     41.5794E-03    -164.756E-03     328.927E-03    -164.538E-03     41.1166E-03
             319     6.87061E-03     78.6899E-03    -57.2245E+06    -69.6139E+06    -342.617E+03     966.205E+03    -164.580E-03     329.252E-03    -164.672E-03     46.1153E-03    -164.796E-03     329.019E-03    -164.490E-03     45.4459E-03
             320     7.63514E-03     78.7542E-03    -52.9570E+06    -40.6731E+06     8.87749E+06     3.54371E+06    -164.464E-03     329.080E-03    -164.616E-03     50.9493E-03    -164.730E-03     328.988E-03    -164.436E-03     50.1536E-03
             321     8.39905E-03     78.8192E-03    -53.2903E+06    -14.9478E+06     17.5941E+06     5.77663E+06    -163.968E-03     328.509E-03    -164.540E-03     55.9755E-03    -164.297E-03     328.544E-03    -164.353E-03     55.1192E-03
             322     9.16476E-03     78.8924E-03    -48.1249E+06     6.05163E+06     28.5460E+06    -3.45734E+06    -164.214E-03     328.682E-03    -164.469E-03     59.3823E-03    -164.593E-03     328.829E-03    -164.265E-03     58.0585E-03
             323     9.92693E-03     78.9659E-03    -32.8017E+06     27.0738E+06     40.7041E+06    -7.67920E+06    -165.430E-03     329.881E-03    -164.451E-03     61.6851E-03    -165.807E-03     330.119E-03    -164.239E-03     59.9976E-03
             324     10.6917E-03     79.0460E-03    -26.2078E+06     35.7660E+06     47.5539E+06    -2.59233E+06    -166.090E-03     330.592E-03    -164.502E-03     64.2340E-03    -166.476E-03     330.875E-03    -164.278E-03     62.4370E-03
             325     11.4546E-03     79.1325E-03    -23.9432E+06     35.1020E+06     53.2082E+06     223.886E+03    -165.691E-03     330.257E-03    -164.566E-03     66.6724E-03    -166.097E-03     330.549E-03    -164.316E-03     64.6899E-03
             326     12.2184E-03     79.2197E-03    -14.4126E+06     55.5129E+06     71.8614E+06     4.62752E+06    -164.124E-03     328.710E-03    -164.585E-03     67.9932E-03    -164.555E-03     329.078E-03    -164.286E-03     65.9449E-03
             327     12.9852E-03     79.3017E-03    -14.6144E+06     68.4628E+06     80.7084E+06     1.24519E+06    -164.149E-03     328.688E-03    -164.539E-03     67.8334E-03    -164.640E-03     329.136E-03    -164.213E-03     65.4375E-03
             328     13.7469E-03     79.3854E-03    -11.8583E+06     71.1368E+06     81.6174E+06    -2.76591E+06    -164.921E-03     329.420E-03    -164.498E-03     64.9412E-03    -165.404E-03     329.876E-03    -164.176E-03     62.3337E-03
             329     14.5112E-03     79.4642E-03    -2.59031E+06     79.2481E+06     82.8516E+06    -28.6378E+03    -164.275E-03     328.731E-03    -164.456E-03     61.8302E-03    -164.694E-03     329.182E-03    -164.153E-03     59.4612E-03
             330     763.127E-06     79.7268E-03    -106.547E+06    -207.353E+06    -104.419E+06    -1.06377E+06    -164.654E-03     329.163E-03    -164.508E-03     4.85649E-03    -164.641E-03     328.465E-03    -164.575E-03     4.92191E-03
             331     1.52701E-03     79.7431E-03    -102.367E+06    -195.535E+06    -96.0350E+06     737.206E+03    -164.716E-03     329.289E-03    -164.573E-03     11.8351E-03    -164.759E-03     328.560E-03    -164.621E-03     11.8296E-03
             332     2.29024E-03     79.7592E-03    -99.5091E+06    -180.291E+06    -85.8147E+06     1.76401E+06    -164.860E-03     329.504E-03    -164.644E-03     16.8849E-03    -164.917E-03     328.818E-03    -164.667E-03     16.8628E-03
             333     3.05344E-03     79.7856E-03    -93.5115E+06    -164.856E+06    -69.8578E+06     2.33519E+06    -164.565E-03     329.259E-03    -164.694E-03     21.9097E-03    -164.660E-03     328.642E-03    -164.669E-03     21.8610E-03
             334     3.81707E-03     79.8143E-03    -86.8179E+06    -146.213E+06    -52.7394E+06     1.68279E+06    -164.379E-03     329.062E-03    -164.684E-03     27.0530E-03    -164.505E-03     328.515E-03    -164.609E-03     26.9309E-03
             335     4.58133E-03     79.8544E-03    -80.6931E+06    -129.629E+06    -40.2901E+06    -1.30687E+06    -164.841E-03     329.521E-03    -164.680E-03     32.1902E-03    -164.986E-03     329.037E-03    -164.577E-03     31.9300E-03
             336     5.34301E-03     79.8989E-03    -73.6386E+06    -117.527E+06    -31.0183E+06    -3.01152E+06    -164.894E-03     329.595E-03    -164.701E-03     37.3877E-03    -165.054E-03     329.166E-03    -164.579E-03     36.9757E-03
             337     6.10709E-03     79.9492E-03    -65.5028E+06    -94.1908E+06    -17.1052E+06     2.12032E+06    -164.479E-03     329.169E-03    -164.691E-03     42.9654E-03    -164.661E-03     328.835E-03    -164.545E-03     42.5504E-03
             338     6.87151E-03     80.0081E-03    -57.9712E+06    -72.2678E+06    -2.45388E+06     2.08166E+06    -164.071E-03     328.705E-03    -164.635E-03     47.3922E-03    -164.283E-03     328.463E-03    -164.458E-03     46.7939E-03
             339     7.63592E-03     80.0676E-03    -49.5540E+06    -45.4063E+06     11.8938E+06    -317.225E+03    -164.053E-03     328.607E-03    -164.553E-03     51.4948E-03    -164.300E-03     328.482E-03    -164.356E-03     50.6335E-03
             340     8.40137E-03     80.1366E-03    -36.3547E+06    -5.38598E+06     32.0732E+06     6.60751E+06    -164.334E-03     328.832E-03    -164.498E-03     54.0987E-03    -164.613E-03     328.870E-03    -164.277E-03     53.1856E-03
             341     9.16519E-03     80.2057E-03    -36.1920E+06     15.8563E+06     37.3610E+06     1.45382E+06    -164.608E-03     329.054E-03    -164.445E-03     57.6011E-03    -164.949E-03     329.214E-03    -164.229E-03     56.3468E-03
             342     9.93002E-03     80.2872E-03    -40.1335E+06     22.4515E+06     35.9344E+06    -6.97306E+06    -165.756E-03     330.196E-03    -164.440E-03     62.0271E-03    -166.149E-03     330.422E-03    -164.235E-03     60.4368E-03
             343     10.6896E-03     80.3646E-03    -32.0390E+06     30.3762E+06     46.1272E+06    -2.54383E+06    -166.428E-03     330.958E-03    -164.531E-03     65.2266E-03    -166.832E-03     331.223E-03    -164.297E-03     63.4739E-03
             344     11.4522E-03     80.4512E-03    -29.0824E+06     37.9495E+06     52.8285E+06    -2.70155E+06    -165.114E-03     329.692E-03    -164.579E-03     67.0179E-03    -165.557E-03     330.014E-03    -164.327E-03     64.9319E-03
             345     12.2185E-03     80.5309E-03    -23.8910E+06     52.8318E+06     62.9533E+06     524.611E+03    -164.290E-03     328.850E-03    -164.560E-03     66.4564E-03    -164.757E-03     329.237E-03    -164.287E-03     64.2517E-03
             346     12.9829E-03     80.6180E-03    -10.9221E+06     70.1459E+06     77.5456E+06     5.08629E+06    -164.232E-03     328.760E-03    -164.528E-03     66.1726E-03    -164.699E-03     329.212E-03    -164.226E-03     63.8308E-03
             347     13.7473E-03     80.7060E-03    -6.39088E+06     75.0395E+06     82.2181E+06     976.557E+03    -164.109E-03     328.590E-03    -164.481E-03     65.3449E-03    -164.571E-03     329.057E-03    -164.169E-03     62.8080E-03
             348     14.5096E-03     80.7795E-03    -6.57120E+06     75.4130E+06     80.5519E+06    -997.941E+03    -164.655E-03     329.088E-03    -164.433E-03     64.4362E-03    -165.090E-03     329.535E-03    -164.131E-03     62.0472E-03
             349     763.780E-06     81.0497E-03    -100.587E+06    -206.044E+06    -99.2312E+06     472.777E+03    -165.020E-03     329.233E-03    -164.212E-03     5.85067E-03    -164.983E-03     328.511E-03    -164.264E-03     5.85397E-03
             350     1.52631E-03     81.0559E-03    -102.499E+06    -196.287E+06    -92.7881E+06     717.429E+03    -164.677E-03     329.275E-03    -164.598E-03     11.6462E-03    -164.728E-03     328.543E-03    -164.629E-03     11.6109E-03
             351     2.29030E-03     81.0792E-03    -98.1184E+06    -181.442E+06    -84.3393E+06    -414.100E+03    -164.430E-03     329.018E-03    -164.588E-03     16.8624E-03    -164.490E-03     328.333E-03    -164.605E-03     16.7801E-03
             352     3.05377E-03     81.1003E-03    -89.8516E+06    -164.944E+06    -69.1014E+06     392.410E+03    -164.594E-03     329.181E-03    -164.587E-03     21.3472E-03    -164.680E-03     328.565E-03    -164.563E-03     21.2615E-03
             353     3.81740E-03     81.1329E-03    -81.7765E+06    -146.104E+06    -52.0657E+06     2.23894E+06    -164.679E-03     329.303E-03    -164.624E-03     27.0393E-03    -164.789E-03     328.755E-03    -164.554E-03     26.9302E-03
             354     4.57962E-03     81.1709E-03    -78.3318E+06    -127.634E+06    -38.7527E+06     2.18051E+06    -164.326E-03     328.947E-03    -164.620E-03     32.7991E-03    -164.469E-03     328.471E-03    -164.516E-03     32.6258E-03
             355     5.34515E-03     81.2161E-03    -77.1817E+06    -116.947E+06    -29.3201E+06    -439.149E+03    -164.476E-03     329.068E-03    -164.592E-03     38.3883E-03    -164.656E-03     328.644E-03    -164.457E-03     38.0551E-03
             356     6.10854E-03     81.2658E-03    -69.8792E+06    -98.3247E+06    -17.1361E+06    -1.66836E+06    -164.587E-03     329.163E-03    -164.575E-03     42.8129E-03    -164.787E-03     328.815E-03    -164.417E-03     42.3146E-03
             357     6.87270E-03     81.3232E-03    -61.0444E+06    -73.0206E+06    -4.06654E+06    -3.11267E+06    -164.253E-03     328.792E-03    -164.539E-03     46.4538E-03    -164.479E-03     328.554E-03    -164.365E-03     45.7377E-03
             358     7.63715E-03     81.3837E-03    -51.6256E+06    -41.9046E+06     12.6304E+06    -2.32708E+06    -164.561E-03     329.070E-03    -164.510E-03     50.8957E-03    -164.825E-03     328.966E-03    -164.311E-03     49.9977E-03
             359     8.39924E-03     81.4540E-03    -41.8205E+06    -11.5734E+06     26.9399E+06     1.92265E+06    -165.128E-03     329.637E-03    -164.509E-03     54.0698E-03    -165.420E-03     329.661E-03    -164.297E-03     53.0705E-03
             360     9.16234E-03     81.5230E-03    -32.0743E+06     17.8114E+06     39.8910E+06     5.31492E+06    -165.457E-03     329.993E-03    -164.536E-03     57.2751E-03    -165.781E-03     330.151E-03    -164.316E-03     56.1052E-03
             361     9.92615E-03     81.6013E-03    -33.5463E+06     29.3200E+06     45.7341E+06     5.79356E+06    -165.067E-03     329.626E-03    -164.559E-03     61.2056E-03    -165.449E-03     329.861E-03    -164.324E-03     59.8100E-03
             362     10.6924E-03     81.6869E-03    -35.6456E+06     27.8267E+06     47.6941E+06     1.82988E+06    -164.457E-03     328.996E-03    -164.539E-03     64.5290E-03    -164.878E-03     329.251E-03    -164.289E-03     62.8218E-03
             363     11.4565E-03     81.7653E-03    -27.7666E+06     41.1547E+06     57.2905E+06    -229.981E+03    -165.142E-03     329.663E-03    -164.521E-03     67.4161E-03    -165.592E-03     329.995E-03    -164.254E-03     65.3474E-03
             364     12.2186E-03     81.8501E-03    -25.8056E+06     52.4170E+06     61.8212E+06     185.311E+03    -165.600E-03     330.127E-03    -164.527E-03     68.0966E-03    -166.088E-03     330.530E-03    -164.256E-03     65.7748E-03
             365     12.9798E-03     81.9362E-03    -18.7141E+06     63.3047E+06     67.7852E+06    -2.08585E+06    -163.904E-03     328.404E-03    -164.500E-03     67.6442E-03    -164.393E-03     328.855E-03    -164.226E-03     65.1599E-03
             366     13.7480E-03     82.0135E-03    -6.56695E+06     74.7039E+06     79.4134E+06    -2.85785E+06    -163.311E-03     327.744E-03    -164.433E-03     66.7872E-03    -163.765E-03     328.209E-03    -164.135E-03     64.2905E-03
             367     14.5166E-03     82.1012E-03    -3.32674E+06     78.0960E+06     83.9198E+06    -460.638E+03    -164.978E-03     329.373E-03    -164.394E-03     63.9602E-03    -165.400E-03     329.816E-03    -164.083E-03     61.6362E-03
             368     763.393E-06     82.3636E-03    -98.3406E+06    -211.795E+06    -98.5207E+06     3.73436E+06    -164.391E-03     329.025E-03    -164.634E-03     6.58695E-03    -164.338E-03     328.266E-03    -164.676E-03     6.64257E-03
             369     1.52705E-03     82.3762E-03    -99.8415E+06    -196.505E+06    -91.0231E+06     2.13636E+06    -164.706E-03     329.220E-03    -164.514E-03     11.3538E-03    -164.751E-03     328.484E-03    -164.539E-03     11.3395E-03
             370     2.29006E-03     82.3929E-03    -93.4014E+06    -178.748E+06    -77.0814E+06     1.11431E+06    -164.299E-03     328.841E-03    -164.542E-03     16.9520E-03    -164.356E-03     328.158E-03    -164.533E-03     16.9030E-03
             371     3.05427E-03     82.4187E-03    -89.0699E+06    -165.812E+06    -67.0641E+06    -66.8463E+03    -164.567E-03     329.087E-03    -164.519E-03     22.0713E-03    -164.653E-03     328.463E-03    -164.485E-03     21.9685E-03
             372     3.81681E-03     82.4498E-03    -83.4266E+06    -151.547E+06    -54.6056E+06    -294.029E+03    -164.467E-03     329.003E-03    -164.536E-03     26.9971E-03    -164.576E-03     328.437E-03    -164.469E-03     26.8501E-03
             373     4.58240E-03     82.4868E-03    -73.5710E+06    -126.359E+06    -34.9141E+06     1.95343E+06    -164.133E-03     328.659E-03    -164.526E-03     32.2853E-03    -164.264E-03     328.182E-03    -164.410E-03     32.0885E-03
             374     5.34580E-03     82.5310E-03    -71.3561E+06    -108.862E+06      -21.74E+06     1.68676E+06    -164.396E-03     328.897E-03    -164.500E-03     37.7565E-03    -164.572E-03     328.496E-03    -164.348E-03     37.4296E-03
             375     6.10891E-03     82.5853E-03    -67.3960E+06    -95.3781E+06    -10.6182E+06    -1.49764E+06    -164.676E-03     329.183E-03    -164.507E-03     41.8694E-03    -164.879E-03     328.839E-03    -164.324E-03     41.3263E-03
             376     6.87225E-03     82.6371E-03    -57.0931E+06    -71.3751E+06     1.37530E+06    -3.66825E+06    -164.891E-03     329.407E-03    -164.516E-03     46.2489E-03    -165.105E-03     329.161E-03    -164.323E-03     45.5070E-03
             377     7.63544E-03     82.7027E-03    -52.8913E+06    -48.4125E+06     7.63254E+06    -2.97966E+06    -164.972E-03     329.482E-03    -164.510E-03     51.1057E-03    -165.222E-03     329.350E-03    -164.325E-03     50.2292E-03
             378     8.40066E-03     82.7691E-03    -54.5385E+06    -20.1846E+06     16.1510E+06     2.31898E+06    -165.250E-03     329.773E-03    -164.523E-03     54.7817E-03    -165.579E-03     329.791E-03    -164.334E-03     53.7849E-03
             379     9.16421E-03     82.8434E-03    -45.9474E+06     14.0088E+06     33.9345E+06     3.98318E+06    -165.577E-03     330.154E-03    -164.577E-03     58.6873E-03    -165.959E-03     330.325E-03    -164.361E-03     57.5047E-03
             380     9.92515E-03     82.9204E-03    -29.1445E+06     29.2515E+06     47.0072E+06     3.88198E+06    -164.731E-03     329.322E-03    -164.591E-03     62.3139E-03    -165.101E-03     329.556E-03    -164.356E-03     60.8402E-03
             381     10.6896E-03     82.9965E-03    -23.5991E+06     33.0513E+06     52.3782E+06     5.65326E+06    -163.936E-03     328.469E-03    -164.533E-03     64.6938E-03    -164.316E-03     328.730E-03    -164.284E-03     63.0085E-03
             382     11.4564E-03     83.0834E-03    -17.7711E+06     41.6446E+06     64.7212E+06     7.52419E+06    -164.643E-03     329.143E-03    -164.501E-03     67.2720E-03    -165.045E-03     329.443E-03    -164.212E-03     65.4218E-03
             383     12.2188E-03     83.1714E-03    -13.3845E+06     58.1362E+06     73.9587E+06     2.88228E+06    -164.447E-03     328.916E-03    -164.469E-03     67.3742E-03    -164.904E-03     329.317E-03    -164.164E-03     65.0646E-03
             384     12.9867E-03     83.2472E-03    -12.5424E+06     71.6521E+06     79.4206E+06    -2.63810E+06    -164.384E-03     328.814E-03    -164.430E-03     67.3286E-03    -164.875E-03     329.284E-03    -164.118E-03     64.8035E-03
             385     13.7491E-03     83.3325E-03    -12.9435E+06     68.9549E+06     77.5019E+06    -3.97023E+06    -165.695E-03     330.114E-03    -164.419E-03     66.8228E-03    -166.170E-03     330.562E-03    -164.113E-03     64.2967E-03
             386     14.5078E-03     83.4156E-03    -7.01775E+06     72.8858E+06     76.8728E+06    -2.41780E+06    -165.048E-03     329.467E-03    -164.419E-03     62.4592E-03    -165.476E-03     329.906E-03    -164.130E-03     60.0234E-03
             387     764.297E-06     83.6823E-03    -104.987E+06    -218.108E+06    -103.492E+06     1.12101E+06    -163.769E-03     328.766E-03    -164.998E-03     7.11971E-03    -163.735E-03     328.006E-03    -165.047E-03     7.12334E-03
             388     1.52658E-03     83.6923E-03    -97.2844E+06    -198.357E+06    -92.9007E+06     739.167E+03    -164.402E-03     328.747E-03    -164.345E-03     11.3103E-03    -164.434E-03     328.007E-03    -164.381E-03     11.3131E-03
             389     2.29111E-03     83.7093E-03    -90.8056E+06    -178.971E+06    -76.3379E+06     3.21751E+06    -164.450E-03     328.844E-03    -164.394E-03     16.8459E-03    -164.502E-03     328.161E-03    -164.384E-03     16.8761E-03
             390     3.05407E-03     83.7353E-03    -89.6825E+06    -166.470E+06    -64.7975E+06     1.79574E+06    -164.418E-03     328.845E-03    -164.428E-03     22.3811E-03    -164.511E-03     328.218E-03    -164.380E-03     22.3001E-03
             391     3.81852E-03     83.7666E-03    -83.9455E+06    -150.334E+06    -50.9820E+06     445.785E+03    -164.439E-03     328.892E-03    -164.453E-03     26.3880E-03    -164.555E-03     328.325E-03    -164.368E-03     26.2344E-03
             392     4.58098E-03     83.8017E-03    -76.9620E+06    -129.745E+06    -37.1443E+06     726.593E+03    -164.623E-03     329.102E-03    -164.479E-03     31.9561E-03    -164.761E-03     328.614E-03    -164.365E-03     31.7334E-03
             393     5.34440E-03     83.8501E-03    -67.8457E+06    -106.872E+06    -20.6069E+06     1.11841E+06    -164.454E-03     328.956E-03    -164.502E-03     37.3199E-03    -164.614E-03     328.555E-03    -164.351E-03     36.9804E-03
             394     6.10955E-03     83.8981E-03    -62.2020E+06     -86.336E+06    -5.59246E+06     3.01487E+06    -164.329E-03     328.827E-03    -164.498E-03     41.6917E-03    -164.525E-03     328.512E-03    -164.311E-03     41.2311E-03
             395     6.87326E-03     83.9582E-03    -61.2744E+06    -74.2002E+06     414.091E+03     1.55205E+06    -164.989E-03     329.483E-03    -164.494E-03     46.6990E-03    -165.221E-03     329.232E-03    -164.295E-03     46.0397E-03
             396     7.63660E-03     84.0170E-03    -56.1940E+06    -51.6134E+06     8.00877E+06    -2.01424E+06    -165.523E-03     330.051E-03    -164.528E-03     51.1978E-03    -165.787E-03     329.909E-03    -164.332E-03     50.2982E-03
             397     8.39887E-03     84.0882E-03    -48.1073E+06    -14.0412E+06     23.7778E+06     951.439E+03    -165.183E-03     329.756E-03    -164.573E-03     54.9427E-03    -165.504E-03     329.787E-03    -164.364E-03     53.8802E-03
             398     9.16148E-03     84.1601E-03    -42.5794E+06     10.6525E+06     31.1956E+06     2.21022E+06    -164.167E-03     328.697E-03    -164.530E-03     58.7271E-03    -164.527E-03     328.853E-03    -164.328E-03     57.4734E-03
             399     9.92920E-03     84.2361E-03    -34.1957E+06     20.7106E+06     38.7807E+06    -149.627E+03    -164.370E-03     328.837E-03    -164.467E-03     62.9270E-03    -164.738E-03     329.045E-03    -164.254E-03     61.4310E-03
             400     10.6930E-03     84.3145E-03    -24.3384E+06     33.0270E+06     52.7372E+06     2.52668E+06    -165.624E-03     330.107E-03    -164.483E-03     65.7783E-03    -166.012E-03     330.373E-03    -164.232E-03     64.0362E-03
             401     11.4540E-03     84.3994E-03    -27.2553E+06     37.8611E+06     53.3546E+06     3.89944E+06    -164.533E-03     329.002E-03    -164.470E-03     66.5995E-03    -164.968E-03     329.321E-03    -164.218E-03     64.6169E-03
             402     12.2222E-03     84.4844E-03    -15.7856E+06     59.7270E+06     72.9189E+06     297.816E+03    -163.670E-03     328.120E-03    -164.450E-03     65.2581E-03    -164.137E-03     328.531E-03    -164.149E-03     62.8821E-03
             403     12.9847E-03     84.5636E-03    -5.42160E+06     77.1091E+06     89.7325E+06     2.52093E+06    -165.407E-03     329.866E-03    -164.460E-03     65.2021E-03    -165.882E-03     330.336E-03    -164.115E-03     62.7099E-03
             404     13.7471E-03     84.6544E-03    -8.21911E+06     73.5715E+06     85.3315E+06     3.75419E+06    -165.986E-03     330.467E-03    -164.481E-03     65.9523E-03    -166.450E-03     330.915E-03    -164.149E-03     63.5594E-03
             405     14.5124E-03     84.7342E-03    -8.65217E+06     73.6819E+06     80.1145E+06    -447.030E+03    -165.932E-03     330.435E-03    -164.502E-03     62.6546E-03    -166.375E-03     330.876E-03    -164.196E-03     60.2346E-03
             406     762.299E-06     84.9947E-03    -103.954E+06    -214.382E+06    -100.657E+06    -4.42475E+06    -164.280E-03     328.792E-03    -164.511E-03     6.38214E-03    -164.251E-03     328.056E-03    -164.553E-03     6.26938E-03
             407     1.52845E-03     85.0097E-03    -98.0681E+06    -199.800E+06    -94.4389E+06    -2.34802E+06    -164.409E-03     328.764E-03    -164.354E-03     11.0067E-03    -164.443E-03     328.024E-03    -164.394E-03     10.9301E-03
             408     2.29059E-03     85.0252E-03    -95.5883E+06    -187.500E+06    -85.0124E+06     950.609E+03    -164.434E-03     328.816E-03    -164.382E-03     15.7619E-03    -164.492E-03     328.117E-03    -164.396E-03     15.7568E-03
             409     3.05475E-03     85.0523E-03    -88.8492E+06    -166.228E+06    -67.0780E+06     3.69088E+06    -164.191E-03     328.590E-03    -164.399E-03     21.6331E-03    -164.279E-03     327.968E-03    -164.365E-03     21.6230E-03
             410     3.81793E-03     85.0818E-03    -85.1087E+06    -149.058E+06    -51.9428E+06     3.80976E+06    -164.429E-03     328.840E-03    -164.410E-03     26.3012E-03    -164.552E-03     328.282E-03    -164.330E-03     26.2547E-03
             411     4.58188E-03     85.1211E-03    -82.3959E+06    -132.517E+06    -39.5194E+06     3.82845E+06    -164.623E-03     329.071E-03    -164.448E-03     32.2869E-03    -164.782E-03     328.582E-03    -164.334E-03     32.1342E-03
             412     5.34570E-03     85.1641E-03    -72.5749E+06    -108.511E+06    -20.5870E+06     4.22194E+06    -164.741E-03     329.247E-03    -164.505E-03     37.5589E-03    -164.922E-03     328.844E-03    -164.346E-03     37.2769E-03
             413     6.10840E-03     85.2166E-03    -63.1781E+06    -91.3151E+06    -7.57456E+06     490.112E+03    -164.843E-03     329.386E-03    -164.543E-03     41.1254E-03    -165.033E-03     329.050E-03    -164.357E-03     40.6073E-03
             414     6.87299E-03     85.2714E-03    -58.9176E+06    -71.3209E+06     1.70087E+06     851.559E+03    -164.843E-03     329.401E-03    -164.558E-03     45.7091E-03    -165.067E-03     329.158E-03    -164.361E-03     45.0539E-03
             415     7.63590E-03     85.3388E-03    -53.3442E+06    -42.7888E+06     13.5803E+06     2.43142E+06    -165.154E-03     329.729E-03    -164.575E-03     50.8577E-03    -165.423E-03     329.617E-03    -164.368E-03     50.0782E-03
             416     8.39890E-03     85.4040E-03    -41.9251E+06    -16.5778E+06     24.8466E+06    -793.910E+03    -164.709E-03     329.276E-03    -164.567E-03     54.7283E-03    -165.000E-03     329.288E-03    -164.358E-03     53.5990E-03
             417     9.16546E-03     85.4761E-03    -34.8265E+06     8.62042E+06     33.8881E+06     2.34024E+06    -164.090E-03     328.597E-03    -164.506E-03     57.4347E-03    -164.419E-03     328.733E-03    -164.299E-03     56.0966E-03
             418     9.92869E-03     85.5482E-03    -35.6103E+06     23.0514E+06     38.7165E+06     4.29678E+06    -164.730E-03     329.183E-03    -164.453E-03     61.1712E-03    -165.106E-03     329.402E-03    -164.241E-03     59.7419E-03
             419     10.6918E-03     85.6372E-03    -37.5555E+06     25.8609E+06     44.3619E+06     3.89481E+06    -165.317E-03     329.785E-03    -164.468E-03     64.2965E-03    -165.746E-03     330.044E-03    -164.229E-03     62.5821E-03
             420     11.4555E-03     85.7156E-03    -29.2510E+06     39.3993E+06     56.4097E+06    -2.34708E+06    -165.283E-03     329.787E-03    -164.504E-03     64.7096E-03    -165.744E-03     330.121E-03    -164.237E-03     62.5138E-03
             421     12.2183E-03     85.7958E-03    -20.0758E+06     55.5799E+06     66.1362E+06    -4.95542E+06    -165.283E-03     329.806E-03    -164.523E-03     64.9907E-03    -165.754E-03     330.211E-03    -164.244E-03     62.5380E-03
             422     12.9824E-03     85.8873E-03    -10.9030E+06     70.6281E+06     80.7757E+06     2.34690E+06    -165.296E-03     329.864E-03    -164.568E-03     65.6843E-03    -165.778E-03     330.324E-03    -164.251E-03     63.1730E-03
             423     13.7462E-03     85.9673E-03    -2.44961E+06     82.1769E+06     93.2641E+06     4.84576E+06    -165.254E-03     329.861E-03    -164.607E-03     64.2186E-03    -165.712E-03     330.331E-03    -164.256E-03     61.8121E-03
             424     14.5108E-03     86.0518E-03    -8.06345E+06     76.9316E+06     85.7472E+06     4.12945E+06    -166.130E-03     330.744E-03    -164.614E-03     62.2365E-03    -166.565E-03     331.175E-03    -164.285E-03     60.0320E-03
             425     764.984E-06     86.3129E-03    -102.254E+06    -211.159E+06    -97.9796E+06     193.210E+03    -164.832E-03     328.848E-03    -164.016E-03     6.67656E-03    -164.802E-03     328.130E-03    -164.051E-03     6.62529E-03
             426     1.52546E-03     86.3255E-03    -101.019E+06    -199.386E+06    -92.3728E+06    -569.389E+03    -164.711E-03     329.161E-03    -164.450E-03     11.4758E-03    -164.760E-03     328.423E-03    -164.476E-03     11.4173E-03
             427     2.29008E-03     86.3429E-03    -99.4633E+06    -191.906E+06    -87.1287E+06    -2.14623E+06    -164.571E-03     329.095E-03    -164.523E-03     15.9242E-03    -164.637E-03     328.381E-03    -164.537E-03     15.8437E-03
             428     3.05388E-03     86.3664E-03    -93.7888E+06    -171.379E+06    -73.6724E+06     1.86734E+06    -164.318E-03     328.840E-03    -164.523E-03     20.7478E-03    -164.412E-03     328.208E-03    -164.507E-03     20.7298E-03
             429     3.81827E-03     86.3999E-03    -88.2892E+06    -151.980E+06    -54.7944E+06     3.02921E+06    -164.153E-03     328.664E-03    -164.511E-03     25.7121E-03    -164.282E-03     328.099E-03    -164.436E-03     25.6390E-03
             430     4.58180E-03     86.4355E-03    -77.9637E+06    -129.556E+06    -34.6583E+06     1.80712E+06    -164.498E-03     329.015E-03    -164.517E-03     31.2269E-03    -164.645E-03     328.526E-03    -164.390E-03     31.0153E-03
             431     5.34528E-03     86.4827E-03    -71.1325E+06    -108.337E+06    -21.8896E+06     3.96195E+06    -164.888E-03     329.434E-03    -164.546E-03     36.8173E-03    -165.062E-03     329.035E-03    -164.396E-03     36.5130E-03
             432     6.10853E-03     86.5338E-03    -70.6702E+06    -95.6891E+06    -14.2707E+06     2.26364E+06    -165.217E-03     329.821E-03    -164.604E-03     41.3072E-03    -165.429E-03     329.484E-03    -164.434E-03     40.8328E-03
             433     6.87009E-03     86.5897E-03    -60.2777E+06    -69.0143E+06     2.33245E+06     1.74815E+06    -164.977E-03     329.635E-03    -164.658E-03     46.2224E-03    -165.207E-03     329.400E-03    -164.459E-03     45.6297E-03
             434     7.63536E-03     86.6531E-03    -55.2567E+06    -42.1376E+06     11.8420E+06     4.48919E+06    -164.558E-03     329.192E-03    -164.634E-03     51.0470E-03    -164.829E-03     329.083E-03    -164.433E-03     50.3572E-03
             435     8.40037E-03     86.7226E-03    -54.2031E+06    -22.5913E+06     17.2080E+06     597.303E+03    -164.848E-03     329.445E-03    -164.598E-03     52.7442E-03    -165.182E-03     329.457E-03    -164.400E-03     51.6012E-03
             436     9.16246E-03     86.7893E-03    -43.1057E+06     6.56747E+06     32.4281E+06    -1.01371E+06    -165.452E-03     330.075E-03    -164.623E-03     55.2157E-03    -165.818E-03     330.218E-03    -164.408E-03     53.7603E-03
             437     9.92572E-03     86.8703E-03    -36.9608E+06     22.3922E+06     36.8712E+06     3.84971E+06    -165.209E-03     329.837E-03    -164.628E-03     59.3008E-03    -165.591E-03     330.060E-03    -164.423E-03     57.8151E-03
             438     10.6903E-03     86.9484E-03    -27.3198E+06     28.8029E+06     40.0518E+06     5.46182E+06    -163.987E-03     328.560E-03    -164.573E-03     62.0125E-03    -164.358E-03     328.820E-03    -164.375E-03     60.3293E-03
             439     11.4562E-03     87.0346E-03    -16.8037E+06     47.0841E+06     62.1160E+06     3.62182E+06    -164.572E-03     329.142E-03    -164.570E-03     65.1617E-03    -164.976E-03     329.473E-03    -164.303E-03     63.2063E-03
             440     12.2169E-03     87.1184E-03     -19.275E+06      59.359E+06     73.6970E+06     2.81391E+06    -166.057E-03     330.667E-03    -164.611E-03     67.0962E-03    -166.535E-03     331.074E-03    -164.300E-03     64.8741E-03
             441     12.9803E-03     87.1986E-03    -20.0812E+06      64.805E+06     74.6834E+06     61.7470E+03    -165.825E-03     330.472E-03    -164.646E-03     67.3377E-03    -166.341E-03     330.929E-03    -164.338E-03     64.8198E-03
             442     13.7449E-03     87.2892E-03    -12.9430E+06     71.4993E+06     80.5941E+06     2.95922E+06    -165.730E-03     330.412E-03    -164.682E-03     65.9837E-03    -166.212E-03     330.867E-03    -164.364E-03     63.5440E-03
             443     14.5048E-03     87.3692E-03    -38.8891E+03     81.1974E+06     86.8456E+06     3.67795E+06    -164.479E-03     329.148E-03    -164.669E-03     64.0991E-03    -164.879E-03     329.585E-03    -164.353E-03     61.9699E-03
             444     762.673E-06     87.6324E-03    -103.376E+06    -211.643E+06    -103.781E+06     1.92265E+06    -164.827E-03     329.010E-03    -164.183E-03     6.94023E-03    -164.791E-03     328.304E-03    -164.245E-03     6.89739E-03
             445     1.52827E-03     87.6409E-03    -101.029E+06    -198.007E+06    -92.9735E+06    -71.5917E+03    -164.536E-03     329.020E-03    -164.484E-03     11.1858E-03    -164.587E-03     328.289E-03    -164.515E-03     11.1548E-03
             446     2.29078E-03     87.6606E-03    -101.906E+06    -190.057E+06    -85.7897E+06     263.398E+03    -164.894E-03     329.460E-03    -164.566E-03     16.5738E-03    -164.976E-03     328.757E-03    -164.572E-03     16.5322E-03
             447     3.05276E-03     87.6844E-03    -100.077E+06    -178.142E+06    -75.8960E+06    -165.322E+03    -164.753E-03     329.409E-03    -164.657E-03     20.7750E-03    -164.868E-03     328.758E-03    -164.633E-03     20.6874E-03
             448     3.81644E-03     87.7139E-03    -84.7634E+06    -151.984E+06    -54.8435E+06    -350.231E+03    -164.439E-03     329.120E-03    -164.681E-03     26.2016E-03    -164.550E-03     328.550E-03    -164.612E-03     26.0051E-03
             449     4.58045E-03     87.7541E-03    -77.4553E+06    -131.436E+06    -39.9341E+06     2.08105E+06    -164.573E-03     329.240E-03    -164.667E-03     31.4811E-03    -164.704E-03     328.746E-03    -164.564E-03     31.2685E-03
             450     5.34376E-03     87.7985E-03    -76.2173E+06    -116.364E+06    -29.4652E+06     4.66461E+06    -164.542E-03     329.200E-03    -164.658E-03     36.9398E-03    -164.717E-03     328.777E-03    -164.526E-03     36.6597E-03
             451     6.10784E-03     87.8513E-03    -70.4200E+06    -92.9891E+06    -13.6939E+06     6.37124E+06    -164.610E-03     329.266E-03    -164.656E-03     41.8655E-03    -164.823E-03     328.938E-03    -164.487E-03     41.4968E-03
             452     6.87272E-03     87.9078E-03    -66.1027E+06    -67.2556E+06     797.765E+03     7.15923E+06    -165.109E-03     329.784E-03    -164.675E-03     46.3690E-03    -165.371E-03     329.570E-03    -164.478E-03     45.8585E-03
             453     7.63481E-03     87.9692E-03    -60.0695E+06    -43.0297E+06     11.8253E+06     3.79610E+06    -165.321E-03     330.026E-03    -164.705E-03     50.7550E-03    -165.618E-03     329.923E-03    -164.497E-03     49.9861E-03
             454     8.39765E-03     88.0395E-03    -51.5089E+06    -21.6010E+06     18.6918E+06    -1.40852E+06    -165.155E-03     329.862E-03    -164.707E-03     53.4478E-03    -165.477E-03     329.870E-03    -164.508E-03     52.3081E-03
             455     9.16059E-03     88.1104E-03    -44.6091E+06     5.58315E+06     26.9299E+06    -1.21723E+06    -165.277E-03     329.974E-03    -164.697E-03     58.3273E-03    -165.640E-03     330.121E-03    -164.506E-03     56.9527E-03
             456     9.92332E-03     88.1861E-03    -37.6210E+06     23.1213E+06     38.1971E+06     2.22497E+06    -165.349E-03     330.062E-03    -164.713E-03     62.7405E-03    -165.734E-03     330.284E-03    -164.501E-03     61.3179E-03
             457     10.6871E-03     88.2653E-03    -31.8481E+06     24.1615E+06     34.3567E+06     1.38701E+06    -164.858E-03     329.517E-03    -164.658E-03     63.5412E-03    -165.240E-03     329.772E-03    -164.475E-03     61.7981E-03
             458     11.4522E-03     88.3458E-03    -26.4092E+06     44.0310E+06     46.6667E+06     7.24022E+06    -164.013E-03     328.627E-03    -164.614E-03     65.6395E-03    -164.436E-03     328.978E-03    -164.406E-03     63.7704E-03
             459     12.2210E-03     88.4379E-03    -18.5180E+06     67.8484E+06     78.7782E+06     9.33454E+06    -164.678E-03     329.338E-03    -164.660E-03     67.0753E-03    -165.161E-03     329.768E-03    -164.338E-03     65.0593E-03
             460     12.9817E-03     88.5207E-03    -19.0068E+06     68.0384E+06     82.8113E+06     840.373E+03    -166.105E-03     330.787E-03    -164.682E-03     67.6659E-03    -166.626E-03     331.242E-03    -164.339E-03     65.2272E-03
             461     13.7430E-03     88.6044E-03    -13.1758E+06     70.1094E+06     80.2550E+06    -843.471E+03    -165.037E-03     329.707E-03    -164.671E-03     67.8544E-03    -165.532E-03     330.171E-03    -164.352E-03     65.2837E-03
             462     14.5107E-03     88.6894E-03     1.26738E+06     80.9270E+06     86.8759E+06     96.9705E+03    -163.170E-03     327.772E-03    -164.602E-03     64.5326E-03    -163.577E-03     328.220E-03    -164.287E-03     62.2466E-03
             463     763.485E-06     88.9473E-03    -99.9043E+06    -209.500E+06    -101.053E+06    -989.279E+03    -164.811E-03     329.917E-03    -165.107E-03     5.30489E-03    -164.768E-03     329.211E-03    -165.163E-03     5.30097E-03
             464     1.52593E-03     88.9574E-03    -102.483E+06    -201.319E+06    -96.1691E+06     858.627E+03    -164.560E-03     329.401E-03    -164.840E-03     10.2473E-03    -164.609E-03     328.660E-03    -164.881E-03     10.2586E-03
             465     2.28983E-03     88.9782E-03    -99.7291E+06    -188.514E+06    -84.7144E+06     1.04656E+06    -164.390E-03     329.126E-03    -164.736E-03     15.6898E-03    -164.466E-03     328.426E-03    -164.742E-03     15.6684E-03
             466     3.05410E-03     89.0016E-03    -91.1178E+06    -171.951E+06    -69.4658E+06    -15.1544E+03    -164.353E-03     329.024E-03    -164.671E-03     21.0475E-03    -164.441E-03     328.381E-03    -164.636E-03     20.9601E-03
             467     3.81690E-03     89.0317E-03    -88.5964E+06    -158.743E+06    -60.6442E+06     2.01710E+06    -164.786E-03     329.436E-03    -164.650E-03     27.7615E-03    -164.900E-03     328.848E-03    -164.595E-03     27.6362E-03
             468     4.57988E-03     89.0708E-03    -86.2402E+06    -142.024E+06    -48.2793E+06     4.88777E+06    -164.940E-03     329.635E-03    -164.696E-03     32.9035E-03    -165.092E-03     329.117E-03    -164.606E-03     32.7354E-03
             469     5.34404E-03     89.1152E-03    -74.7186E+06    -117.378E+06    -26.6707E+06     4.63142E+06    -164.807E-03     329.559E-03    -164.752E-03     37.1120E-03    -164.979E-03     329.126E-03    -164.606E-03     36.8241E-03
             470     6.10787E-03     89.1675E-03    -66.0771E+06    -95.3215E+06    -11.7121E+06     5.56049E+06    -164.699E-03     329.455E-03    -164.756E-03     41.1306E-03    -164.888E-03     329.105E-03    -164.580E-03     40.7467E-03
             471     6.87100E-03     89.2242E-03    -61.7644E+06     -68.736E+06    -26.0181E+03     8.22514E+06    -164.847E-03     329.587E-03    -164.741E-03     45.6280E-03    -165.084E-03     329.362E-03    -164.551E-03     45.1374E-03
             472     7.63428E-03     89.2901E-03    -53.8517E+06    -38.3360E+06     14.7163E+06     6.84581E+06    -164.960E-03     329.698E-03    -164.737E-03     51.2300E-03    -165.239E-03     329.607E-03    -164.530E-03     50.5513E-03
             473     8.39738E-03     89.3557E-03    -49.0329E+06    -21.6779E+06     19.4575E+06    -61.1925E+03    -164.564E-03     329.254E-03    -164.690E-03     55.1508E-03    -164.872E-03     329.254E-03    -164.490E-03     54.1249E-03
             474     9.16353E-03     89.4260E-03    -47.4130E+06     4.02747E+06     23.3832E+06     1.12586E+06    -164.492E-03     329.098E-03    -164.606E-03     59.7503E-03    -164.860E-03     329.245E-03    -164.427E-03     58.4861E-03
             475     9.92872E-03     89.5051E-03    -40.5002E+06     28.1104E+06     40.4836E+06     3.44277E+06    -165.360E-03     329.974E-03    -164.615E-03     63.3889E-03    -165.774E-03     330.227E-03    -164.394E-03     61.9688E-03
             476     10.6912E-03     89.5840E-03    -38.5528E+06     28.7351E+06     46.3294E+06    -3.87784E+06    -166.247E-03     330.919E-03    -164.672E-03     64.3858E-03    -166.696E-03     331.199E-03    -164.426E-03     62.4922E-03
             477     11.4521E-03     89.6642E-03    -29.9557E+06     46.1112E+06     52.3185E+06     2.09564E+06    -165.602E-03     330.303E-03    -164.701E-03     65.7906E-03    -166.073E-03     330.679E-03    -164.462E-03     63.6755E-03
             478     12.2139E-03     89.7487E-03    -22.4063E+06     61.1879E+06     59.8433E+06     8.65954E+06    -163.789E-03     328.447E-03    -164.658E-03     67.7158E-03    -164.257E-03     328.879E-03    -164.415E-03     65.6892E-03
             479     12.9821E-03     89.8413E-03    -14.9328E+06     68.3008E+06     73.7522E+06     4.48850E+06    -163.484E-03     328.080E-03    -164.596E-03     69.3109E-03    -163.954E-03     328.525E-03    -164.304E-03     67.1539E-03
             480     13.7462E-03     89.9229E-03    -8.91573E+06     74.4083E+06     85.6507E+06    -2.04560E+06    -164.006E-03     328.551E-03    -164.545E-03     68.2093E-03    -164.486E-03     329.015E-03    -164.211E-03     65.7083E-03
             481     14.5105E-03     89.9981E-03    -7.53430E+06     76.2818E+06     84.7233E+06    -2.69851E+06    -164.108E-03     328.583E-03    -164.475E-03     64.4218E-03    -164.556E-03     329.029E-03    -164.151E-03     62.0231E-03
             482     762.132E-06     90.2646E-03    -102.952E+06    -213.617E+06    -98.8774E+06     1.43989E+06    -165.014E-03     330.321E-03    -165.307E-03     4.59858E-03    -164.995E-03     329.595E-03    -165.343E-03     4.67563E-03
             483     1.52573E-03     90.2770E-03    -102.454E+06    -204.973E+06    -95.3434E+06     3.59834E+06    -164.598E-03     329.616E-03    -165.018E-03     11.6354E-03    -164.648E-03     328.859E-03    -165.049E-03     11.6901E-03
             484     2.28880E-03     90.2936E-03    -95.4964E+06    -188.449E+06    -82.4375E+06     2.69468E+06    -164.027E-03     328.827E-03    -164.800E-03     16.3450E-03    -164.086E-03     328.119E-03    -164.801E-03     16.3782E-03
             485     3.05352E-03     90.3170E-03    -91.3557E+06    -172.752E+06    -69.0743E+06     3.73345E+06    -164.224E-03     328.869E-03    -164.646E-03     21.3349E-03    -164.314E-03     328.223E-03    -164.608E-03     21.3257E-03
             486     3.81823E-03     90.3491E-03    -92.4309E+06    -161.423E+06    -58.7578E+06     3.42799E+06    -164.847E-03     329.488E-03    -164.641E-03     26.7676E-03    -164.980E-03     328.890E-03    -164.566E-03     26.6634E-03
             487     4.58141E-03     90.3885E-03    -84.0319E+06    -143.866E+06    -45.0387E+06     1.03629E+06    -165.161E-03     329.876E-03    -164.715E-03     32.1204E-03    -165.306E-03     329.343E-03    -164.610E-03     31.8756E-03
             488     5.34325E-03     90.4336E-03    -74.2446E+06    -121.398E+06    -30.4448E+06     3.66895E+06    -165.242E-03     330.030E-03    -164.788E-03     36.8844E-03    -165.402E-03     329.584E-03    -164.656E-03     36.5933E-03
             489     6.10597E-03     90.4844E-03    -65.3697E+06    -97.5422E+06    -13.2449E+06     6.38351E+06    -164.960E-03     329.797E-03    -164.837E-03     41.7445E-03    -165.142E-03     329.439E-03    -164.667E-03     41.3980E-03
             490     6.86952E-03     90.5424E-03    -57.4304E+06    -73.0301E+06    -1.13006E+06     5.04615E+06    -164.296E-03     329.089E-03    -164.793E-03     46.8650E-03    -164.503E-03     328.836E-03    -164.609E-03     46.3405E-03
             491     7.63498E-03     90.6041E-03    -49.8723E+06    -40.4574E+06     13.9231E+06     8.94841E+06    -163.910E-03     328.608E-03    -164.698E-03     51.7489E-03    -164.163E-03     328.500E-03    -164.497E-03     51.1303E-03
             492     8.40080E-03     90.6737E-03    -50.1708E+06    -13.6228E+06     25.9791E+06     8.96756E+06    -164.511E-03     329.141E-03    -164.630E-03     54.2818E-03    -164.844E-03     329.172E-03    -164.407E-03     53.3964E-03
             493     9.16271E-03     90.7412E-03    -54.1552E+06     6.11713E+06     27.6536E+06     2.62101E+06    -165.113E-03     329.702E-03    -164.589E-03     57.9358E-03    -165.524E-03     329.862E-03    -164.381E-03     56.6654E-03
             494     9.92560E-03     90.8224E-03    -43.0033E+06     27.2456E+06     40.5884E+06     1.90622E+06    -164.997E-03     329.593E-03    -164.597E-03     61.9213E-03    -165.425E-03     329.848E-03    -164.371E-03     60.4343E-03
             495     10.6893E-03     90.9027E-03    -29.3766E+06     39.5900E+06     57.9825E+06     1.16684E+06    -165.363E-03     329.999E-03    -164.637E-03     64.6523E-03    -165.790E-03     330.295E-03    -164.362E-03     62.9150E-03
             496     11.4530E-03     90.9854E-03    -32.7799E+06     39.7766E+06     54.8989E+06    -724.308E+03    -165.921E-03     330.564E-03    -164.643E-03     67.2084E-03    -166.394E-03     330.903E-03    -164.379E-03     65.1322E-03
             497     12.2172E-03     91.0653E-03    -25.8376E+06     51.4240E+06     52.7780E+06    -1.41136E+06    -164.365E-03     328.953E-03    -164.588E-03     68.6964E-03    -164.843E-03     329.368E-03    -164.361E-03     66.4064E-03
             498     12.9822E-03     91.1497E-03    -11.6454E+06     68.7146E+06     68.6770E+06     2.71381E+06    -162.541E-03     327.043E-03    -164.503E-03     69.8408E-03    -162.989E-03     327.494E-03    -164.242E-03     67.6960E-03
             499     13.7517E-03     91.2392E-03    -9.63700E+06     75.2865E+06     83.0293E+06     3.90973E+06    -163.474E-03     327.906E-03    -164.431E-03     66.3972E-03    -163.932E-03     328.355E-03    -164.111E-03     64.1631E-03
             500     14.5138E-03     91.3186E-03    -4.71710E+06     81.5708E+06     89.3484E+06    -1.46619E+06    -164.689E-03     329.084E-03    -164.395E-03     62.8725E-03    -165.138E-03     329.547E-03    -164.060E-03     60.4192E-03
             501     763.812E-06     91.5825E-03    -105.306E+06    -218.945E+06    -103.543E+06     2.96184E+06    -164.466E-03     328.970E-03    -164.504E-03     4.75802E-03    -164.447E-03     328.225E-03    -164.551E-03     4.88439E-03
             502     1.52683E-03     91.5943E-03    -99.1789E+06    -206.385E+06    -92.4490E+06     1.77784E+06    -164.488E-03     328.956E-03    -164.468E-03     12.0712E-03    -164.526E-03     328.185E-03    -164.487E-03     12.0672E-03
             503     2.29142E-03     91.6093E-03    -96.8751E+06    -194.495E+06    -83.4718E+06     4.34531E+06    -164.915E-03     329.459E-03    -164.545E-03     16.4605E-03    -164.971E-03     328.725E-03    -164.539E-03     16.4957E-03
             504     3.05407E-03     91.6343E-03    -95.0157E+06    -181.000E+06    -71.5111E+06     5.57101E+06    -165.214E-03     329.913E-03    -164.699E-03     21.1053E-03    -165.309E-03     329.237E-03    -164.656E-03     21.1198E-03
             505     3.81553E-03     91.6668E-03    -83.7341E+06    -156.768E+06    -52.3147E+06     4.29478E+06    -164.907E-03     329.716E-03    -164.809E-03     26.4681E-03    -165.014E-03     329.121E-03    -164.722E-03     26.3717E-03
             506     4.57903E-03     91.7055E-03    -78.8294E+06    -139.752E+06    -39.8361E+06     3.06203E+06    -164.725E-03     329.551E-03    -164.825E-03     32.2241E-03    -164.856E-03     329.022E-03    -164.708E-03     32.0337E-03
             507     5.34354E-03     91.7518E-03    -75.8402E+06    -126.041E+06    -32.2796E+06     1.81174E+06    -164.666E-03     329.462E-03    -164.797E-03     37.5205E-03    -164.825E-03     328.999E-03    -164.665E-03     37.2136E-03
             508     6.10723E-03     91.8021E-03    -65.4523E+06    -102.272E+06    -16.2914E+06     4.48469E+06    -164.490E-03     329.256E-03    -164.767E-03     42.6431E-03    -164.664E-03     328.883E-03    -164.605E-03     42.2610E-03
             509     6.87175E-03     91.8582E-03    -60.1723E+06    -80.1700E+06    -2.48258E+06     6.72528E+06    -164.406E-03     329.128E-03    -164.722E-03     47.0255E-03    -164.618E-03     328.849E-03    -164.530E-03     46.5163E-03
             510     7.63537E-03     91.9195E-03    -54.4349E+06    -47.9390E+06     12.5742E+06     8.39630E+06    -164.379E-03     329.046E-03    -164.668E-03     51.2009E-03    -164.647E-03     328.915E-03    -164.456E-03     50.5055E-03
             511     8.39847E-03     91.9897E-03    -45.7956E+06    -9.78967E+06     31.4481E+06     10.0169E+06    -164.606E-03     329.241E-03    -164.635E-03     54.6731E-03    -164.934E-03     329.281E-03    -164.398E-03     53.7744E-03
             512     9.16268E-03     92.0615E-03    -40.6629E+06     19.5279E+06     41.9961E+06     7.63705E+06    -165.169E-03     329.783E-03    -164.614E-03     59.0825E-03    -165.550E-03     329.967E-03    -164.374E-03     57.9468E-03
             513     9.92620E-03     92.1384E-03    -42.8380E+06     26.7552E+06     40.4926E+06     5.60513E+06    -164.741E-03     329.319E-03    -164.578E-03     62.9188E-03    -165.164E-03     329.567E-03    -164.352E-03     61.5506E-03
             514     10.6921E-03     92.2181E-03    -37.4362E+06     28.8395E+06     45.4130E+06     7.19026E+06    -164.009E-03     328.532E-03    -164.523E-03     65.8396E-03    -164.433E-03     328.794E-03    -164.283E-03     64.3285E-03
             515     11.4568E-03     92.3033E-03    -22.8720E+06     42.7818E+06     61.0414E+06     326.195E+03    -164.539E-03     329.025E-03    -164.486E-03     67.9755E-03    -164.963E-03     329.342E-03    -164.209E-03     66.0746E-03
             516     12.2191E-03     92.3837E-03    -20.4345E+06     54.6612E+06     68.9975E+06    -5.49138E+06    -165.267E-03     329.747E-03    -164.480E-03     67.4991E-03    -165.757E-03     330.158E-03    -164.185E-03     65.0073E-03
             517     12.9836E-03     92.4630E-03    -19.1789E+06     66.6828E+06     74.1438E+06    -1.58450E+06    -164.922E-03     329.401E-03    -164.479E-03     68.6595E-03    -165.434E-03     329.867E-03    -164.177E-03     66.2028E-03
             518     13.7450E-03     92.5538E-03    -6.23063E+06     80.7418E+06     86.6552E+06     71.8015E+03    -163.774E-03     328.229E-03    -164.456E-03     66.3162E-03    -164.231E-03     328.700E-03    -164.130E-03     64.0030E-03
             519     14.5125E-03     92.6339E-03    -2.12914E+06     84.2064E+06     90.3028E+06     46.1971E+03    -163.866E-03     328.264E-03    -164.398E-03     62.1164E-03    -164.304E-03     328.732E-03    -164.065E-03     59.7121E-03
             520     764.244E-06     92.8999E-03    -105.360E+06    -220.080E+06    -103.845E+06    -846.908E+03    -164.291E-03     328.078E-03    -163.786E-03     4.89818E-03    -164.269E-03     327.331E-03    -163.833E-03     4.90388E-03
             521     1.52854E-03     92.9085E-03    -100.575E+06    -209.223E+06    -94.8622E+06     567.367E+03    -164.963E-03     329.167E-03    -164.203E-03     10.3991E-03    -165.002E-03     328.387E-03    -164.228E-03     10.3684E-03
             522     2.29042E-03     92.9282E-03    -98.4303E+06    -198.881E+06    -85.2771E+06     1.52399E+06    -165.323E-03     329.864E-03    -164.541E-03     15.9753E-03    -165.378E-03     329.112E-03    -164.536E-03     15.9563E-03
             523     3.05186E-03     92.9538E-03    -89.6870E+06    -183.351E+06    -71.6652E+06     2.03330E+06    -165.200E-03     329.947E-03    -164.747E-03     21.5921E-03    -165.263E-03     329.249E-03    -164.709E-03     21.5546E-03
             524     3.81669E-03     92.9832E-03    -80.7344E+06    -161.378E+06    -54.9125E+06     5.69929E+06    -164.825E-03     329.647E-03    -164.822E-03     27.6266E-03    -164.909E-03     329.032E-03    -164.746E-03     27.5770E-03
             525     4.58034E-03     93.0236E-03    -75.6933E+06    -138.996E+06    -37.1104E+06     8.50246E+06    -164.448E-03     329.266E-03    -164.818E-03     32.9902E-03    -164.571E-03     328.734E-03    -164.692E-03     32.9161E-03
             526     5.34361E-03     93.0672E-03    -70.7538E+06    -119.370E+06    -22.0017E+06     5.07573E+06    -164.212E-03     328.976E-03    -164.763E-03     37.6120E-03    -164.371E-03     328.523E-03    -164.598E-03     37.3629E-03
             527     6.10832E-03     93.1188E-03    -69.0297E+06    -107.018E+06    -14.9425E+06     2.22681E+06    -164.477E-03     329.175E-03    -164.697E-03     41.8886E-03    -164.666E-03     328.782E-03    -164.517E-03     41.4217E-03
             528     6.87171E-03     93.1743E-03    -61.3405E+06    -86.4815E+06    -2.96376E+06     3.75125E+06    -164.827E-03     329.505E-03    -164.677E-03     45.9985E-03    -165.036E-03     329.198E-03    -164.478E-03     45.4115E-03
             529     7.63492E-03     93.2382E-03    -56.6300E+06    -58.7242E+06     6.80799E+06     7.26739E+06    -164.516E-03     329.157E-03    -164.641E-03     50.7556E-03    -164.771E-03     328.983E-03    -164.439E-03     50.0505E-03
             530     8.39955E-03     93.3046E-03    -47.3320E+06    -18.6806E+06     24.6217E+06     11.7376E+06    -164.116E-03     328.699E-03    -164.583E-03     55.9666E-03    -164.426E-03     328.704E-03    -164.365E-03     55.1470E-03
             531     9.16414E-03     93.3788E-03    -34.5642E+06     21.4122E+06     43.5806E+06     13.3351E+06    -164.445E-03     328.969E-03    -164.524E-03     60.2150E-03    -164.795E-03     329.146E-03    -164.287E-03     59.2616E-03
             532     9.92813E-03     93.4559E-03    -29.6066E+06     38.6807E+06     51.2669E+06     10.8975E+06    -164.780E-03     329.263E-03    -164.483E-03     62.3170E-03    -165.169E-03     329.536E-03    -164.240E-03     61.0191E-03
             533     10.6909E-03     93.5325E-03    -27.3763E+06     39.7255E+06     56.6610E+06     5.57823E+06    -164.404E-03     328.866E-03    -164.462E-03     64.5515E-03    -164.819E-03     329.161E-03    -164.197E-03     62.9014E-03
             534     11.4570E-03     93.6173E-03    -24.1877E+06     41.7020E+06     61.1402E+06    -1.68724E+06    -163.867E-03     328.272E-03    -164.406E-03     66.2343E-03    -164.303E-03     328.594E-03    -164.125E-03     64.2206E-03
             535     12.2234E-03     93.7021E-03    -19.5691E+06     57.4060E+06     72.8586E+06     859.537E+03    -164.940E-03     329.328E-03    -164.387E-03     66.8319E-03    -165.428E-03     329.738E-03    -164.078E-03     64.4977E-03
             536     12.9834E-03     93.7840E-03    -17.7095E+06     69.9433E+06     81.4174E+06     168.843E+03    -165.958E-03     330.388E-03    -164.429E-03     68.4847E-03    -166.486E-03     330.865E-03    -164.098E-03     65.9589E-03
             537     13.7490E-03     93.8689E-03    -13.6311E+06     74.4744E+06     82.5000E+06    -4.80567E+06    -165.234E-03     329.684E-03    -164.450E-03     67.1391E-03    -165.734E-03     330.160E-03    -164.126E-03     64.5709E-03
             538     14.5127E-03     93.9476E-03    -4.14276E+06     81.6133E+06     83.3184E+06    -659.224E+03    -164.214E-03     328.628E-03    -164.413E-03     62.4643E-03    -164.642E-03     329.089E-03    -164.109E-03     60.1363E-03
             539     764.094E-06     94.2146E-03    -107.904E+06    -222.642E+06    -104.335E+06    -105.430E+03    -165.415E-03     329.194E-03    -163.778E-03     5.81650E-03    -165.395E-03     328.446E-03    -163.821E-03     5.78006E-03
             540     1.52571E-03     94.2271E-03    -104.823E+06    -210.931E+06    -97.2705E+06     652.454E+03    -165.045E-03     329.710E-03    -164.665E-03     10.2316E-03    -165.098E-03     328.932E-03    -164.693E-03     10.2584E-03
             541     2.28922E-03     94.2459E-03    -96.1882E+06    -196.002E+06    -83.6777E+06    -397.670E+03    -164.391E-03     329.117E-03    -164.727E-03     16.4456E-03    -164.442E-03     328.376E-03    -164.721E-03     16.4316E-03
             542     3.05491E-03     94.2698E-03    -90.6235E+06    -184.760E+06    -71.4810E+06    -1.47656E+06    -164.403E-03     329.063E-03    -164.660E-03     22.3058E-03    -164.472E-03     328.363E-03    -164.618E-03     22.2065E-03
             543     3.81680E-03     94.3017E-03    -84.7120E+06    -170.063E+06    -58.8763E+06    -312.047E+03    -164.795E-03     329.450E-03    -164.655E-03     27.8357E-03    -164.883E-03     328.805E-03    -164.580E-03     27.6929E-03
             544     4.58007E-03     94.3394E-03    -74.4272E+06    -144.822E+06    -40.8884E+06     4.64018E+06    -164.607E-03     329.285E-03    -164.677E-03     32.5661E-03    -164.712E-03     328.730E-03    -164.564E-03     32.4199E-03
             545     5.34479E-03     94.3841E-03    -70.3247E+06    -122.964E+06    -24.6643E+06     9.88103E+06    -164.515E-03     329.192E-03    -164.676E-03     37.3510E-03    -164.664E-03     328.725E-03    -164.520E-03     37.1746E-03
             546     6.10765E-03     94.4351E-03    -67.2541E+06    -103.295E+06    -10.0870E+06     8.33227E+06    -164.639E-03     329.314E-03    -164.674E-03     42.1097E-03    -164.831E-03     328.929E-03    -164.477E-03     41.7660E-03
             547     6.87100E-03     94.4927E-03    -61.0670E+06    -84.2540E+06     980.078E+03     4.08355E+06    -164.449E-03     329.095E-03    -164.646E-03     46.9292E-03    -164.664E-03     328.791E-03    -164.431E-03     46.3891E-03
             548     7.63542E-03     94.5534E-03    -51.5684E+06    -64.0503E+06     8.43476E+06     1.53332E+06    -164.434E-03     329.013E-03    -164.579E-03     51.3882E-03    -164.656E-03     328.800E-03    -164.369E-03     50.6387E-03
             549     8.40031E-03     94.6197E-03    -40.7895E+06    -29.0224E+06     21.7589E+06     9.06265E+06    -164.518E-03     329.039E-03    -164.521E-03     55.2279E-03    -164.775E-03     328.985E-03    -164.311E-03     54.3520E-03
             550     9.16467E-03     94.6952E-03    -32.8159E+06     15.6198E+06     42.3421E+06     16.5496E+06    -164.116E-03     328.595E-03    -164.480E-03     58.6145E-03    -164.447E-03     328.743E-03    -164.243E-03     57.6484E-03
             551     9.92917E-03     94.7718E-03    -26.1301E+06     40.9186E+06     55.2089E+06     11.3695E+06    -164.165E-03     328.586E-03    -164.421E-03     61.6632E-03    -164.546E-03     328.859E-03    -164.167E-03     60.3609E-03
             552     10.6937E-03     94.8519E-03    -22.6218E+06     51.4408E+06     63.3065E+06     6.34781E+06    -164.787E-03     329.181E-03    -164.394E-03     64.8095E-03    -165.210E-03     329.523E-03    -164.119E-03     63.1136E-03
             553     11.4555E-03     94.9313E-03    -28.4103E+06     50.1888E+06     65.6236E+06     1.79589E+06    -165.096E-03     329.500E-03    -164.404E-03     66.5163E-03    -165.581E-03     329.871E-03    -164.107E-03     64.4675E-03
             554     12.2197E-03     95.0157E-03    -20.2003E+06     58.7293E+06     75.9320E+06    -2.48699E+06    -164.813E-03     329.235E-03    -164.423E-03     66.3073E-03    -165.309E-03     329.649E-03    -164.099E-03     63.9289E-03
             555     12.9871E-03     95.1050E-03    -11.2394E+06     72.0445E+06     85.1442E+06     2.69347E+06    -164.492E-03     328.905E-03    -164.413E-03     66.0567E-03    -164.990E-03     329.372E-03    -164.075E-03     63.5713E-03
             556     13.7480E-03     95.1839E-03    -12.2923E+06     74.5044E+06     83.7616E+06     4.92204E+06    -165.441E-03     329.840E-03    -164.398E-03     67.4567E-03    -165.936E-03     330.312E-03    -164.070E-03     65.0182E-03
             557     14.5092E-03     95.2706E-03    -7.76315E+06     79.8201E+06     83.0956E+06    -1.01391E+06    -166.101E-03     330.521E-03    -164.420E-03     62.9971E-03    -166.543E-03     330.977E-03    -164.109E-03     60.6635E-03
             558     762.431E-06     95.5349E-03    -102.023E+06    -223.679E+06    -102.271E+06     596.409E+03    -165.222E-03     329.617E-03    -164.395E-03     7.40787E-03    -165.164E-03     328.853E-03    -164.434E-03     7.38747E-03
             559     1.52608E-03     95.5447E-03    -101.438E+06    -208.974E+06    -95.1391E+06     449.016E+03    -164.454E-03     329.148E-03    -164.694E-03     11.8472E-03    -164.494E-03     328.370E-03    -164.720E-03     11.8474E-03
             560     2.29050E-03     95.5611E-03    -95.4979E+06    -196.175E+06    -81.7759E+06     438.973E+03    -164.190E-03     328.781E-03    -164.591E-03     16.9887E-03    -164.242E-03     328.037E-03    -164.577E-03     16.9496E-03
             561     3.05320E-03     95.5860E-03    -90.7748E+06    -182.472E+06    -69.0691E+06    -492.538E+03    -164.424E-03     328.959E-03    -164.534E-03     22.5038E-03    -164.502E-03     328.268E-03    -164.483E-03     22.4083E-03
             562     3.81819E-03     95.6189E-03    -91.2974E+06    -172.230E+06    -62.6511E+06    -1.96421E+06    -164.692E-03     329.231E-03    -164.539E-03     27.2558E-03    -164.804E-03     328.589E-03    -164.470E-03     27.1051E-03
             563     4.58163E-03     95.6567E-03    -86.2159E+06    -157.682E+06    -51.1746E+06    -72.7366E+03    -164.579E-03     329.144E-03    -164.565E-03     31.9127E-03    -164.709E-03     328.557E-03    -164.467E-03     31.7145E-03
             564     5.34420E-03     95.7003E-03    -74.7669E+06    -132.539E+06    -32.5798E+06     4.84015E+06    -164.448E-03     329.018E-03    -164.570E-03     37.8294E-03    -164.593E-03     328.521E-03    -164.432E-03     37.5976E-03
             565     6.10842E-03     95.7531E-03    -61.8174E+06    -103.801E+06    -11.3399E+06     6.87200E+06    -164.227E-03     328.778E-03    -164.552E-03     42.7877E-03    -164.388E-03     328.384E-03    -164.368E-03     42.4613E-03
             566     6.87334E-03     95.8072E-03    -53.9677E+06    -75.2112E+06     7.05803E+06     8.29898E+06    -164.223E-03     328.739E-03    -164.516E-03     47.1647E-03    -164.425E-03     328.461E-03    -164.293E-03     46.6889E-03
             567     7.63785E-03     95.8701E-03    -47.6043E+06    -55.1846E+06     18.9197E+06     3.69203E+06    -165.082E-03     329.589E-03    -164.507E-03     51.7749E-03    -165.316E-03     329.404E-03    -164.263E-03     51.0171E-03
             568     8.39943E-03     95.9384E-03    -37.5173E+06    -38.7838E+06     25.8717E+06    -1.46904E+06    -165.261E-03     329.778E-03    -164.518E-03     55.0563E-03    -165.500E-03     329.672E-03    -164.278E-03     53.9733E-03
             569     9.16281E-03     96.0098E-03    -30.4286E+06     3.12950E+06     36.6137E+06     8.40399E+06    -164.172E-03     328.641E-03    -164.469E-03     58.4776E-03    -164.471E-03     328.736E-03    -164.246E-03     57.3389E-03
             570     9.92859E-03     96.0865E-03    -36.0638E+06     29.4812E+06     42.3679E+06     15.1696E+06    -164.025E-03     328.412E-03    -164.388E-03     61.6460E-03    -164.420E-03     328.661E-03    -164.166E-03     60.3916E-03
             571     10.6936E-03     96.1671E-03    -31.9298E+06     47.6398E+06     56.3726E+06     13.6983E+06    -164.789E-03     329.166E-03    -164.377E-03     62.9492E-03    -165.240E-03     329.509E-03    -164.118E-03     61.3456E-03
             572     11.4593E-03     96.2506E-03    -15.2181E+06     72.3154E+06     78.2008E+06     12.7497E+06    -165.420E-03     329.849E-03    -164.429E-03     65.2181E-03    -165.883E-03     330.288E-03    -164.121E-03     63.3423E-03
             573     12.2194E-03     96.3365E-03    -21.2451E+06     64.5895E+06     77.5041E+06     2.91203E+06    -165.497E-03     329.966E-03    -164.469E-03     66.5679E-03    -166.010E-03     330.408E-03    -164.144E-03     64.2619E-03
             574     12.9816E-03     96.4142E-03     -22.268E+06     63.7079E+06     76.9225E+06    -3.03000E+06    -164.838E-03     329.314E-03    -164.476E-03     65.0215E-03    -165.372E-03     329.772E-03    -164.152E-03     62.3861E-03
             575     13.7510E-03     96.5038E-03    -4.86276E+06     81.9956E+06     91.3037E+06     377.354E+03    -164.642E-03     329.122E-03    -164.480E-03     64.7196E-03    -165.114E-03     329.603E-03    -164.136E-03     62.2384E-03
             576     14.5165E-03     96.5877E-03    -5.51215E+06     83.4672E+06     89.5739E+06     2.62506E+06    -166.368E-03     330.864E-03    -164.496E-03     61.4916E-03    -166.809E-03     331.323E-03    -164.162E-03     59.2096E-03
             577     763.928E-06     96.8490E-03    -104.231E+06    -225.412E+06    -100.435E+06     896.009E+03    -163.352E-03     328.533E-03    -165.181E-03     6.28748E-03    -163.320E-03     327.762E-03    -165.205E-03     6.28702E-03
             578     1.52843E-03     96.8615E-03    -99.7006E+06    -210.470E+06    -94.9354E+06     1.26589E+06    -164.152E-03     328.356E-03    -164.204E-03     11.5244E-03    -164.185E-03     327.572E-03    -164.229E-03     11.4993E-03
             579     2.29091E-03     96.8775E-03    -97.3988E+06    -198.240E+06    -84.7313E+06     2.05895E+06    -164.673E-03     328.944E-03    -164.271E-03     16.8552E-03    -164.729E-03     328.198E-03    -164.266E-03     16.8337E-03
             580     3.05509E-03     96.9029E-03    -94.2571E+06    -182.628E+06    -71.1708E+06     3.27105E+06    -164.836E-03     329.253E-03    -164.417E-03     22.8041E-03    -164.928E-03     328.570E-03    -164.372E-03     22.7696E-03
             581     3.81692E-03     96.9360E-03    -92.3622E+06    -166.282E+06    -58.0291E+06     1.50746E+06    -164.522E-03     329.023E-03    -164.500E-03     27.1520E-03    -164.655E-03     328.406E-03    -164.415E-03     27.0554E-03
             582     4.58071E-03     96.9725E-03    -87.7303E+06    -155.487E+06    -46.5115E+06    -2.41527E+06    -164.253E-03     328.758E-03    -164.505E-03     31.9704E-03    -164.402E-03     328.178E-03    -164.384E-03     31.7428E-03
             583     5.34574E-03     97.0171E-03    -77.6459E+06    -134.560E+06    -33.7709E+06    -1.88286E+06    -164.177E-03     328.637E-03    -164.460E-03     37.8034E-03    -164.334E-03     328.138E-03    -164.321E-03     37.4434E-03
             584     6.10998E-03     97.0676E-03    -67.4788E+06    -110.820E+06    -19.0956E+06    -1.27447E+06    -164.279E-03     328.702E-03    -164.422E-03     41.9318E-03    -164.448E-03     328.293E-03    -164.259E-03     41.4512E-03
             585     6.87374E-03     97.1237E-03    -55.3423E+06    -84.8208E+06    -442.029E+03     2.91533E+06    -164.693E-03     329.122E-03    -164.429E-03     46.0574E-03    -164.877E-03     328.809E-03    -164.228E-03     45.4620E-03
             586     7.63646E-03     97.1873E-03    -46.7680E+06    -47.6661E+06     19.1138E+06     9.10222E+06    -164.892E-03     329.346E-03    -164.454E-03     51.5083E-03    -165.131E-03     329.195E-03    -164.222E-03     50.8224E-03
             587     8.40086E-03     97.2573E-03    -55.3687E+06    -41.3687E+06     18.2798E+06     4.50694E+06    -165.009E-03     329.465E-03    -164.455E-03     54.8562E-03    -165.322E-03     329.381E-03    -164.224E-03     53.8841E-03
             588     9.16543E-03     97.3242E-03    -54.3721E+06    -19.5140E+06     18.6632E+06     3.35331E+06    -165.224E-03     329.660E-03    -164.436E-03     57.6180E-03    -165.589E-03     329.708E-03    -164.235E-03     56.3376E-03
             589     9.92891E-03     97.4030E-03    -36.5966E+06     29.8956E+06     41.5166E+06     11.8315E+06    -165.222E-03     329.688E-03    -164.467E-03     60.6624E-03    -165.624E-03     329.946E-03    -164.249E-03     59.2701E-03
             590     10.6912E-03     97.4847E-03    -31.6603E+06     49.9826E+06     54.0039E+06     13.8380E+06    -165.022E-03     329.516E-03    -164.494E-03     62.2325E-03    -165.474E-03     329.876E-03    -164.251E-03     60.5971E-03
             591     11.4527E-03     97.5667E-03    -26.3961E+06     63.5196E+06     61.2841E+06     13.3547E+06    -164.612E-03     329.095E-03    -164.483E-03     64.1549E-03    -165.093E-03     329.530E-03    -164.230E-03     62.2784E-03
             592     12.2217E-03     97.6517E-03    -16.2441E+06     74.7804E+06     77.0954E+06     12.3383E+06    -165.059E-03     329.569E-03    -164.511E-03     65.5754E-03    -165.555E-03     330.050E-03    -164.210E-03     63.4470E-03
             593     12.9842E-03     97.7384E-03    -9.47049E+06     80.8217E+06     91.4977E+06     2.10312E+06    -166.351E-03     330.948E-03    -164.597E-03     65.3331E-03    -166.872E-03     331.458E-03    -164.243E-03     62.7094E-03
             594     13.7413E-03     97.8152E-03    -11.1592E+06     78.4126E+06     89.2540E+06    -2.70773E+06    -165.596E-03     330.237E-03    -164.641E-03     64.4109E-03    -166.095E-03     330.715E-03    -164.292E-03     61.8440E-03
             595     14.5049E-03     97.9059E-03    -5.54110E+06     80.2037E+06     84.8247E+06     2.28513E+06    -163.261E-03     327.831E-03    -164.570E-03     64.2147E-03    -163.690E-03     328.279E-03    -164.254E-03     62.0398E-03
             596     763.807E-06     98.1653E-03    -110.711E+06    -228.829E+06    -109.278E+06     1.15847E+06    -162.869E-03     328.147E-03    -165.278E-03     5.11377E-03    -162.872E-03     327.388E-03    -165.332E-03     5.16825E-03
             597     1.52707E-03     98.1758E-03    -106.731E+06    -215.604E+06    -99.6850E+06     1.55232E+06    -164.310E-03     328.419E-03    -164.109E-03     10.9709E-03    -164.368E-03     327.630E-03    -164.140E-03     10.9663E-03
             598     2.29187E-03     98.1945E-03    -101.013E+06    -199.698E+06    -86.6250E+06     2.42832E+06    -164.765E-03     329.032E-03    -164.268E-03     16.0887E-03    -164.835E-03     328.289E-03    -164.265E-03     16.0934E-03
             599     3.05375E-03     98.2202E-03    -97.6830E+06    -183.280E+06    -72.5449E+06     2.08087E+06    -164.458E-03     328.852E-03    -164.394E-03     21.8047E-03    -164.567E-03     328.175E-03    -164.350E-03     21.7491E-03
             600     3.81858E-03     98.2524E-03    -89.5706E+06    -163.378E+06    -55.0139E+06     1.91702E+06    -164.084E-03     328.494E-03    -164.410E-03     27.2041E-03    -164.214E-03     327.886E-03    -164.318E-03     27.0955E-03
             601     4.58263E-03     98.2883E-03    -83.3566E+06    -146.060E+06    -39.4925E+06     1.15269E+06    -164.342E-03     328.747E-03    -164.405E-03     32.1472E-03    -164.494E-03     328.199E-03    -164.270E-03     31.9285E-03
             602     5.34564E-03     98.3329E-03    -79.7310E+06    -134.512E+06    -32.1153E+06    -3.53176E+06    -164.609E-03     329.020E-03    -164.411E-03     37.1263E-03    -164.782E-03     328.525E-03    -164.261E-03     36.6691E-03
             603     6.10926E-03     98.3838E-03    -74.3907E+06    -114.792E+06    -23.6177E+06    -1.30778E+06    -164.758E-03     329.183E-03    -164.425E-03     41.3271E-03    -164.953E-03     328.775E-03    -164.269E-03     40.8049E-03
             604     6.87244E-03     98.4409E-03    -69.7318E+06    -97.5712E+06    -12.8416E+06    -1.16140E+06    -164.774E-03     329.226E-03    -164.452E-03     46.0397E-03    -164.996E-03     328.891E-03    -164.274E-03     45.3765E-03
             605     7.63700E-03     98.5034E-03    -62.1798E+06    -65.3202E+06     923.296E+03     6.36760E+06    -164.538E-03     328.983E-03    -164.445E-03     50.8422E-03    -164.803E-03     328.792E-03    -164.255E-03     50.1287E-03
             606     8.40182E-03     98.5720E-03    -63.7791E+06    -32.1494E+06     14.9320E+06     13.1322E+06    -165.025E-03     329.483E-03    -164.458E-03     53.8055E-03    -165.386E-03     329.460E-03    -164.244E-03     52.9576E-03
             607     9.16330E-03     98.6445E-03    -61.2141E+06    -9.40402E+06     26.2818E+06     5.87966E+06    -166.079E-03     330.609E-03    -164.530E-03     56.9011E-03    -166.508E-03     330.711E-03    -164.296E-03     55.5830E-03
             608     9.92471E-03     98.7205E-03    -45.4036E+06     19.9559E+06     33.6269E+06     3.61655E+06    -165.707E-03     330.275E-03    -164.568E-03     60.6814E-03    -166.138E-03     330.518E-03    -164.363E-03     59.0643E-03
             609     10.6897E-03     98.8015E-03    -34.7708E+06     47.5429E+06     43.0749E+06     5.70219E+06    -164.668E-03     329.226E-03    -164.558E-03     63.5683E-03    -165.120E-03     329.599E-03    -164.361E-03     61.8136E-03
             610     11.4563E-03     98.8833E-03    -31.8674E+06     61.3377E+06     56.1465E+06     9.49702E+06    -165.014E-03     329.583E-03    -164.569E-03     65.8188E-03    -165.517E-03     330.028E-03    -164.331E-03     63.8825E-03
             611     12.2155E-03     98.9679E-03    -18.4663E+06     73.4781E+06     75.3348E+06     7.39501E+06    -164.699E-03     329.300E-03    -164.601E-03     66.2810E-03    -165.212E-03     329.790E-03    -164.304E-03     64.0103E-03
             612     12.9812E-03     99.0549E-03    -2.14169E+06     86.6789E+06     87.2862E+06     8.18271E+06    -164.184E-03     328.750E-03    -164.566E-03     68.7367E-03    -164.655E-03     329.269E-03    -164.252E-03     66.4469E-03
             613     13.7467E-03     99.1426E-03    -2.82920E+06     84.8455E+06     90.0651E+06     10.9119E+06    -164.862E-03     329.396E-03    -164.534E-03     70.2454E-03    -165.320E-03     329.884E-03    -164.203E-03     68.0917E-03
             614     14.5114E-03     99.2133E-03    -6.84663E+06     83.0802E+06     90.9139E+06     1.93656E+06    -164.084E-03     328.588E-03    -164.504E-03     66.6931E-03    -164.550E-03     329.061E-03    -164.160E-03     64.3987E-03
             615     763.507E-06     99.4804E-03    -111.125E+06    -227.617E+06    -111.751E+06    -791.699E+03    -165.273E-03     328.297E-03    -163.023E-03     6.87085E-03    -165.262E-03     327.546E-03    -163.091E-03     6.82907E-03
             616     1.52793E-03     99.4916E-03    -110.106E+06    -217.293E+06    -103.139E+06    -209.345E+03    -164.817E-03     329.074E-03    -164.257E-03     11.8088E-03    -164.884E-03     328.287E-03    -164.298E-03     11.7515E-03
             617     2.28936E-03     99.5124E-03    -104.883E+06    -204.173E+06    -89.9170E+06     806.414E+03    -164.583E-03     329.032E-03    -164.449E-03     16.4956E-03    -164.664E-03     328.279E-03    -164.451E-03     16.4630E-03
             618     3.05432E-03     99.5357E-03    -97.2351E+06    -185.287E+06    -75.0204E+06     2.77465E+06    -163.948E-03     328.387E-03    -164.440E-03     21.0994E-03    -164.047E-03     327.702E-03    -164.405E-03     21.0735E-03
             619     3.81848E-03     99.5666E-03    -92.7420E+06    -166.474E+06    -59.4101E+06     4.68947E+06    -163.873E-03     328.238E-03    -164.366E-03     26.5286E-03    -164.006E-03     327.625E-03    -164.287E-03     26.4613E-03
             620     4.58220E-03     99.6056E-03    -86.9841E+06    -147.089E+06    -43.2665E+06     4.72918E+06    -164.492E-03     328.854E-03    -164.362E-03     31.6663E-03    -164.656E-03     328.312E-03    -164.239E-03     31.4885E-03
             621     5.34571E-03     99.6497E-03    -80.9815E+06    -131.998E+06    -29.5517E+06     1.26583E+06    -165.002E-03     329.438E-03    -164.436E-03     36.9365E-03    -165.187E-03     328.953E-03    -164.275E-03     36.5524E-03
             622     6.10876E-03     99.7009E-03    -76.5672E+06    -117.825E+06    -22.7566E+06    -755.400E+03    -165.071E-03     329.566E-03    -164.495E-03     41.5069E-03    -165.275E-03     329.146E-03    -164.327E-03     40.9538E-03
             623     6.87285E-03     99.7572E-03    -71.3871E+06    -94.5030E+06    -11.4985E+06     1.65266E+06    -165.071E-03     329.615E-03    -164.545E-03     45.4955E-03    -165.311E-03     329.301E-03    -164.362E-03     44.8154E-03
             624     7.63618E-03     99.8194E-03    -73.8662E+06    -77.0217E+06    -5.01116E+06     4.72208E+06    -165.285E-03     329.871E-03    -164.586E-03     49.4152E-03    -165.588E-03     329.653E-03    -164.392E-03     48.6060E-03
             625     8.39853E-03     99.8892E-03    -59.1780E+06    -37.5409E+06     13.1326E+06     8.62508E+06    -165.282E-03     329.908E-03    -164.626E-03     53.1157E-03    -165.612E-03     329.856E-03    -164.420E-03     52.1701E-03
             626     9.16320E-03     99.9634E-03    -45.1678E+06     5.25435E+06     35.6574E+06     8.78793E+06    -164.899E-03     329.554E-03    -164.655E-03     57.1003E-03    -165.278E-03     329.689E-03    -164.419E-03     55.8949E-03
             627     9.92706E-03     100.040E-03    -45.3982E+06     22.9468E+06     35.4227E+06     4.20161E+06    -164.690E-03     329.287E-03    -164.597E-03     61.4503E-03    -165.127E-03     329.541E-03    -164.387E-03     59.8885E-03
             628     10.6902E-03     100.116E-03    -35.5799E+06     47.6801E+06     43.5171E+06     5.03908E+06    -164.851E-03     329.400E-03    -164.550E-03     64.8660E-03    -165.303E-03     329.769E-03    -164.350E-03     63.1895E-03
             629     11.4525E-03     100.201E-03    -32.4190E+06     61.2369E+06     55.2338E+06     4.58016E+06    -164.577E-03     329.118E-03    -164.541E-03     68.0436E-03    -165.076E-03     329.559E-03    -164.306E-03     66.1658E-03
             630     12.2186E-03     100.289E-03    -27.4927E+06     65.1223E+06     65.5087E+06     1.24756E+06    -163.943E-03     328.453E-03    -164.510E-03     69.4884E-03    -164.475E-03     328.928E-03    -164.237E-03     67.2189E-03
             631     12.9836E-03     100.364E-03    -15.5874E+06     74.8406E+06     75.2744E+06     2.41632E+06    -163.277E-03     327.703E-03    -164.426E-03     69.8291E-03    -163.773E-03     328.190E-03    -164.135E-03     67.5889E-03
             632     13.7532E-03     100.456E-03    -3.21487E+06     88.4539E+06     92.8463E+06     4.63125E+06    -164.068E-03     328.457E-03    -164.389E-03     67.2522E-03    -164.537E-03     328.959E-03    -164.049E-03     64.9540E-03
             633     14.5155E-03     100.536E-03    -3.36807E+06     92.9165E+06     99.9929E+06     7.07280E+06    -166.575E-03     331.011E-03    -164.436E-03     62.1175E-03    -167.047E-03     331.511E-03    -164.066E-03     59.8009E-03
             634     765.081E-06     100.797E-03    -112.567E+06    -226.086E+06    -110.706E+06    -766.739E+03    -166.150E-03     328.518E-03    -162.368E-03     6.72552E-03    -166.132E-03     327.775E-03    -162.430E-03     6.66909E-03
             635     1.52608E-03     100.810E-03    -110.211E+06    -217.205E+06    -103.684E+06    -156.326E+03    -164.844E-03     329.189E-03    -164.345E-03     11.8224E-03    -164.911E-03     328.402E-03    -164.388E-03     11.7779E-03
             636     2.29117E-03     100.828E-03    -106.867E+06    -206.407E+06    -93.5054E+06     125.744E+03    -164.234E-03     328.685E-03    -164.451E-03     16.7124E-03    -164.318E-03     327.929E-03    -164.465E-03     16.6491E-03
             637     3.05409E-03     100.851E-03    -102.320E+06    -191.598E+06    -80.6591E+06     1.77563E+06    -164.271E-03     328.695E-03    -164.424E-03     21.0879E-03    -164.379E-03     327.994E-03    -164.401E-03     21.0211E-03
             638     3.81787E-03     100.882E-03    -94.5331E+06    -171.374E+06    -63.7476E+06     4.01913E+06    -164.354E-03     328.785E-03    -164.432E-03     26.4303E-03    -164.483E-03     328.156E-03    -164.365E-03     26.3404E-03
             639     4.58190E-03     100.921E-03    -85.3601E+06    -149.349E+06    -44.6921E+06     5.17272E+06    -164.460E-03     328.921E-03    -164.461E-03     31.7593E-03    -164.610E-03     328.367E-03    -164.344E-03     31.5953E-03
             640     5.34547E-03     100.967E-03    -79.7720E+06    -129.289E+06    -29.0538E+06     6.74447E+06    -164.802E-03     329.307E-03    -164.506E-03     36.7094E-03    -164.984E-03     328.832E-03    -164.348E-03     36.4417E-03
             641     6.10876E-03     101.018E-03    -77.4930E+06    -115.144E+06    -19.4230E+06     4.76690E+06    -165.331E-03     329.906E-03    -164.576E-03     41.4117E-03    -165.546E-03     329.494E-03    -164.394E-03     40.9600E-03
             642     6.87120E-03     101.074E-03    -76.8289E+06    -100.905E+06    -14.4208E+06     5.22511E+06    -165.872E-03     330.537E-03    -164.665E-03     45.6380E-03    -166.123E-03     330.199E-03    -164.479E-03     45.0293E-03
             643     7.63351E-03     101.139E-03    -66.2956E+06    -71.3740E+06     1.69663E+06     7.68276E+06    -165.749E-03     330.517E-03    -164.768E-03     50.0133E-03    -166.028E-03     330.303E-03    -164.560E-03     49.2831E-03
             644     8.39687E-03     101.206E-03    -49.9185E+06     -38.841E+06     19.4420E+06     7.11141E+06    -164.942E-03     329.741E-03    -164.799E-03     54.3802E-03    -165.229E-03     329.656E-03    -164.573E-03     53.4876E-03
             645     9.16019E-03     101.279E-03    -41.2687E+06    -5.97263E+06     29.1054E+06     5.91389E+06    -163.891E-03     328.603E-03    -164.712E-03     57.3812E-03    -164.221E-03     328.681E-03    -164.498E-03     56.2144E-03
             646     9.92687E-03     101.353E-03    -36.1999E+06     29.9393E+06     43.3281E+06     8.30926E+06    -163.866E-03     328.478E-03    -164.612E-03     60.8596E-03    -164.269E-03     328.733E-03    -164.386E-03     59.4643E-03
             647     10.6918E-03     101.436E-03    -36.1552E+06     46.5617E+06     48.3734E+06     6.80073E+06    -164.166E-03     328.687E-03    -164.521E-03     64.3220E-03    -164.618E-03     329.035E-03    -164.294E-03     62.7632E-03
             648     11.4562E-03     101.517E-03    -29.0560E+06     61.5406E+06     55.2613E+06    -1.30768E+06    -163.346E-03     327.768E-03    -164.422E-03     67.5640E-03    -163.832E-03     328.208E-03    -164.192E-03     65.5759E-03
             649     12.2230E-03     101.598E-03    -23.0078E+06     73.3727E+06     71.1946E+06    -1.00313E+06    -164.115E-03     328.496E-03    -164.380E-03     68.6210E-03    -164.641E-03     328.993E-03    -164.097E-03     66.3386E-03
             650     12.9868E-03     101.687E-03    -23.3025E+06     74.9967E+06     83.0507E+06    -1.00533E+06    -165.552E-03     329.975E-03    -164.423E-03     65.9377E-03    -166.108E-03     330.473E-03    -164.083E-03     63.4413E-03
             651     13.7450E-03     101.766E-03    -20.5076E+06     77.0783E+06     85.7742E+06     2.57154E+06    -165.018E-03     329.464E-03    -164.447E-03     66.0742E-03    -165.549E-03     329.947E-03    -164.100E-03     63.6970E-03
             652     14.5097E-03     101.859E-03    -4.40326E+06     90.0367E+06     92.9265E+06     7.84537E+06    -164.540E-03     328.967E-03    -164.427E-03     64.5628E-03    -164.979E-03     329.441E-03    -164.087E-03     62.5703E-03
             653     762.648E-06     102.116E-03    -113.225E+06    -227.786E+06    -110.872E+06     819.709E+03    -163.718E-03     328.932E-03    -165.215E-03     7.92363E-03    -163.714E-03     328.193E-03    -165.274E-03     7.84572E-03
             654     1.52753E-03     102.126E-03    -110.908E+06    -219.123E+06    -103.861E+06     428.854E+03    -164.433E-03     328.869E-03    -164.436E-03     11.4076E-03    -164.501E-03     328.073E-03    -164.476E-03     11.3593E-03
             655     2.29032E-03     102.144E-03    -107.275E+06    -206.728E+06    -92.8398E+06     1.05222E+06    -164.400E-03     328.850E-03    -164.450E-03     15.9544E-03    -164.483E-03     328.090E-03    -164.459E-03     15.9102E-03
             656     3.05472E-03     102.168E-03    -103.200E+06    -192.827E+06    -80.4318E+06    -45.2470E+03    -164.658E-03     329.151E-03    -164.493E-03     20.7636E-03    -164.770E-03     328.446E-03    -164.466E-03     20.6789E-03
             657     3.81740E-03     102.200E-03    -94.8336E+06    -175.187E+06    -65.6192E+06     352.957E+03    -164.816E-03     329.384E-03    -164.568E-03     26.0030E-03    -164.940E-03     328.740E-03    -164.504E-03     25.8704E-03
             658     4.58075E-03     102.237E-03    -88.2703E+06    -156.601E+06    -50.6561E+06     3.78528E+06    -164.729E-03     329.355E-03    -164.626E-03     31.4619E-03    -164.874E-03     328.778E-03    -164.524E-03     31.2825E-03
             659     5.34438E-03     102.284E-03    -82.3831E+06    -134.897E+06    -33.8890E+06     7.52141E+06    -164.711E-03     329.374E-03    -164.663E-03     36.1007E-03    -164.890E-03     328.880E-03    -164.517E-03     35.8729E-03
             660     6.10830E-03     102.335E-03    -77.4070E+06    -112.566E+06    -17.6382E+06     10.3467E+06    -165.058E-03     329.766E-03    -164.708E-03     41.3225E-03    -165.276E-03     329.361E-03    -164.521E-03     41.0346E-03
             661     6.87097E-03     102.396E-03    -71.4779E+06    -98.4084E+06    -8.18412E+06     5.01399E+06    -165.471E-03     330.228E-03    -164.757E-03     46.7501E-03    -165.707E-03     329.884E-03    -164.552E-03     46.2122E-03
             662     7.63379E-03     102.455E-03    -57.0565E+06    -71.8964E+06     6.01810E+06     4.41673E+06    -165.235E-03     330.025E-03    -164.789E-03     51.4950E-03    -165.474E-03     329.788E-03    -164.572E-03     50.7613E-03
             663     8.39781E-03     102.525E-03    -43.5694E+06    -36.8883E+06     25.2348E+06     6.82863E+06    -164.382E-03     329.153E-03    -164.771E-03     55.4290E-03    -164.647E-03     329.060E-03    -164.528E-03     54.5747E-03
             664     9.16309E-03     102.594E-03    -45.0393E+06    -18.0081E+06     26.2195E+06     3.69323E+06    -164.132E-03     328.791E-03    -164.659E-03     58.9937E-03    -164.461E-03     328.820E-03    -164.437E-03     57.8068E-03
             665     9.92576E-03     102.670E-03    -41.2686E+06     16.0422E+06     35.5872E+06     8.05643E+06    -164.075E-03     328.630E-03    -164.555E-03     62.8969E-03    -164.472E-03     328.835E-03    -164.341E-03     61.5345E-03
             666     10.6900E-03     102.751E-03    -31.9820E+06     50.7423E+06     52.3470E+06     6.97640E+06    -163.361E-03     327.825E-03    -164.463E-03     64.4473E-03    -163.809E-03     328.187E-03    -164.229E-03     62.8489E-03
             667     11.4575E-03     102.828E-03    -21.9066E+06     72.8225E+06     67.1638E+06     812.463E+03    -163.860E-03     328.244E-03    -164.384E-03     66.1110E-03    -164.349E-03     328.719E-03    -164.122E-03     64.0618E-03
             668     12.2204E-03     102.917E-03    -15.6876E+06     84.4543E+06     85.5885E+06     5.94144E+06    -165.254E-03     329.667E-03    -164.413E-03     68.5156E-03    -165.772E-03     330.181E-03    -164.084E-03     66.4016E-03
             669     12.9817E-03     103.005E-03    -23.2807E+06     75.8382E+06     84.9662E+06     7.08403E+06    -166.109E-03     330.576E-03    -164.467E-03     67.1829E-03    -166.663E-03     331.070E-03    -164.118E-03     64.8672E-03
             670     13.7488E-03     103.086E-03    -18.8740E+06     77.7975E+06     84.1068E+06     3.81107E+06    -164.611E-03     329.082E-03    -164.471E-03     65.7878E-03    -165.133E-03     329.569E-03    -164.136E-03     63.4029E-03
             671     14.5144E-03     103.170E-03    -4.10161E+06     89.9374E+06     90.8385E+06    -495.672E+03    -161.642E-03     326.006E-03    -164.364E-03     65.9606E-03    -162.084E-03     326.489E-03    -164.034E-03     63.8237E-03
             672     763.750E-06     103.428E-03    -112.426E+06    -229.897E+06    -110.889E+06     777.092E+03    -163.497E-03     328.991E-03    -165.494E-03     9.27747E-03    -163.495E-03     328.243E-03    -165.552E-03     9.13421E-03
             673     1.52673E-03     103.444E-03    -110.394E+06    -220.543E+06    -103.261E+06     1.86050E+06    -164.439E-03     328.899E-03    -164.460E-03     11.6007E-03    -164.506E-03     328.097E-03    -164.496E-03     11.5663E-03
             674     2.29049E-03     103.459E-03    -107.605E+06    -209.158E+06    -93.3526E+06     1.87465E+06    -164.747E-03     329.260E-03    -164.514E-03     16.3584E-03    -164.829E-03     328.491E-03    -164.521E-03     16.3310E-03
             675     3.05288E-03     103.486E-03    -101.553E+06    -192.729E+06    -78.9062E+06     2.71277E+06    -164.931E-03     329.554E-03    -164.623E-03     21.3489E-03    -165.036E-03     328.845E-03    -164.591E-03     21.3236E-03
             676     3.81681E-03     103.516E-03    -97.2999E+06    -176.408E+06    -64.2084E+06     2.72400E+06    -165.119E-03     329.856E-03    -164.737E-03     26.2891E-03    -165.256E-03     329.208E-03    -164.661E-03     26.2031E-03
             677     4.57971E-03     103.556E-03    -93.9839E+06    -162.852E+06    -53.0476E+06     1.37176E+06    -165.062E-03     329.878E-03    -164.816E-03     31.5320E-03    -165.222E-03     329.281E-03    -164.709E-03     31.3277E-03
             678     5.34299E-03     103.600E-03    -87.8800E+06    -143.418E+06    -39.6593E+06     3.64659E+06    -164.728E-03     329.568E-03    -164.841E-03     36.5661E-03    -164.912E-03     329.047E-03    -164.704E-03     36.3190E-03
             679     6.10606E-03     103.653E-03    -73.9940E+06    -115.803E+06    -19.1415E+06     6.03876E+06    -164.336E-03     329.154E-03    -164.818E-03     42.1337E-03    -164.528E-03     328.728E-03    -164.638E-03     41.8382E-03
             680     6.87095E-03     103.710E-03    -59.0905E+06    -88.2105E+06     2.24185E+06     5.28724E+06    -164.204E-03     328.969E-03    -164.766E-03     47.5501E-03    -164.405E-03     328.642E-03    -164.541E-03     47.0841E-03
             681     7.63551E-03     103.775E-03    -55.6076E+06    -73.9784E+06     8.94263E+06     1.47809E+06    -164.309E-03     328.989E-03    -164.680E-03     51.8007E-03    -164.548E-03     328.743E-03    -164.448E-03     50.9636E-03
             682     8.39916E-03     103.839E-03    -53.8613E+06    -54.4314E+06     12.5251E+06     2.82443E+06    -164.074E-03     328.653E-03    -164.578E-03     55.1901E-03    -164.353E-03     328.511E-03    -164.358E-03     54.2018E-03
             683     9.16373E-03     103.910E-03    -45.1647E+06    -18.6269E+06     29.3455E+06     6.74111E+06    -164.128E-03     328.634E-03    -164.507E-03     59.6832E-03    -164.459E-03     328.654E-03    -164.267E-03     58.5748E-03
             684     9.92868E-03     103.987E-03    -37.0079E+06     14.9048E+06     41.2709E+06     3.93781E+06    -164.070E-03     328.492E-03    -164.421E-03     63.1440E-03    -164.460E-03     328.683E-03    -164.183E-03     61.6690E-03
             685     10.6946E-03     104.064E-03    -26.2411E+06     57.2645E+06     57.7163E+06     4.63970E+06    -164.355E-03     328.713E-03    -164.358E-03     65.1188E-03    -164.796E-03     329.097E-03    -164.115E-03     63.4563E-03
             686     11.4565E-03     104.147E-03    -24.4398E+06     78.4086E+06     71.0551E+06     7.21539E+06    -165.286E-03     329.657E-03    -164.370E-03     67.4126E-03    -165.797E-03     330.153E-03    -164.093E-03     65.5262E-03
             687     12.2203E-03     104.234E-03    -24.2846E+06     76.4343E+06     76.1399E+06     11.3890E+06    -164.817E-03     329.210E-03    -164.393E-03     69.4206E-03    -165.356E-03     329.713E-03    -164.088E-03     67.3843E-03
             688     12.9873E-03     104.322E-03    -17.1176E+06     79.6982E+06     84.3384E+06     11.9786E+06    -164.124E-03     328.501E-03    -164.376E-03     70.5004E-03    -164.650E-03     329.003E-03    -164.045E-03     68.3957E-03
             689     13.7455E-03     104.407E-03    -10.4558E+06     85.9850E+06     91.1134E+06     2.05698E+06    -163.292E-03     327.606E-03    -164.314E-03     67.7638E-03    -163.806E-03     328.124E-03    -163.968E-03     65.3075E-03
             690     14.5119E-03     104.475E-03    -3.15019E+06     92.9447E+06     95.4878E+06    -4.28569E+06    -161.062E-03     325.232E-03    -164.170E-03     67.0907E-03    -161.530E-03     325.743E-03    -163.823E-03     64.7427E-03
             691     763.471E-06     104.749E-03    -114.913E+06    -232.334E+06    -113.119E+06     275.409E+03    -164.724E-03     328.930E-03    -164.206E-03     7.64837E-03    -164.715E-03     328.176E-03    -164.269E-03     7.60390E-03
             692     1.52716E-03     104.758E-03    -111.634E+06    -223.404E+06    -105.567E+06     1.85676E+06    -164.584E-03     329.046E-03    -164.462E-03     11.7453E-03    -164.649E-03     328.234E-03    -164.504E-03     11.7493E-03
             693     2.29047E-03     104.778E-03    -107.893E+06    -210.740E+06    -93.5639E+06     2.30111E+06    -164.899E-03     329.471E-03    -164.572E-03     16.6328E-03    -164.980E-03     328.694E-03    -164.578E-03     16.6211E-03
             694     3.05415E-03     104.802E-03    -102.222E+06    -194.305E+06    -77.9090E+06     2.97806E+06    -164.987E-03     329.688E-03    -164.702E-03     21.5457E-03    -165.095E-03     328.971E-03    -164.661E-03     21.5289E-03
             695     3.81636E-03     104.835E-03    -98.6509E+06    -179.058E+06    -64.6535E+06     3.69864E+06    -164.972E-03     329.760E-03    -164.787E-03     27.3303E-03    -165.111E-03     329.101E-03    -164.708E-03     27.2534E-03
             696     4.57927E-03     104.873E-03    -92.0698E+06    -160.660E+06    -48.3282E+06     3.13997E+06    -164.906E-03     329.750E-03    -164.843E-03     32.8486E-03    -165.068E-03     329.155E-03    -164.719E-03     32.6904E-03
             697     5.34264E-03     104.918E-03    -81.5254E+06    -140.773E+06    -32.7043E+06     91.7437E+03    -164.618E-03     329.463E-03    -164.845E-03     38.2213E-03    -164.787E-03     328.937E-03    -164.686E-03     37.9219E-03
             698     6.10728E-03     104.969E-03    -71.1123E+06    -119.262E+06    -19.6585E+06    -812.059E+03    -164.026E-03     328.795E-03    -164.769E-03     43.1483E-03    -164.202E-03     328.352E-03    -164.591E-03     42.7087E-03
             699     6.87170E-03     105.026E-03    -64.9815E+06    -95.9462E+06    -6.33355E+06     3.33399E+06    -163.442E-03     328.081E-03    -164.639E-03     48.2673E-03    -163.650E-03     327.736E-03    -164.437E-03     47.7775E-03
             700     7.63619E-03     105.090E-03    -62.2719E+06    -78.3360E+06     3.88446E+06     3.21317E+06    -163.442E-03     327.937E-03    -164.495E-03     52.3440E-03    -163.699E-03     327.684E-03    -164.272E-03     51.5634E-03
             701     8.40168E-03     105.154E-03    -56.8717E+06    -56.4939E+06     13.7160E+06     2.25305E+06    -163.951E-03     328.335E-03    -164.385E-03     55.5495E-03    -164.243E-03     328.185E-03    -164.152E-03     54.5624E-03
             702     9.16566E-03     105.226E-03    -43.1869E+06    -17.2786E+06     31.9555E+06     4.69512E+06    -164.185E-03     328.506E-03    -164.322E-03     59.9982E-03    -164.509E-03     328.523E-03    -164.074E-03     58.9137E-03
             703     9.93031E-03     105.302E-03    -35.2508E+06     20.3729E+06     46.0031E+06     3.88256E+06    -164.549E-03     328.826E-03    -164.276E-03     62.4950E-03    -164.943E-03     329.034E-03    -164.025E-03     61.0216E-03
             704     10.6933E-03     105.380E-03    -36.5968E+06     51.3096E+06     51.8266E+06     7.90955E+06    -165.097E-03     329.348E-03    -164.251E-03     64.9156E-03    -165.574E-03     329.727E-03    -164.014E-03     63.2804E-03
             705     11.4577E-03     105.467E-03    -33.4294E+06     70.4361E+06     60.7279E+06     13.9135E+06    -165.013E-03     329.279E-03    -164.266E-03     68.3089E-03    -165.537E-03     329.758E-03    -164.016E-03     66.5910E-03
             706     12.2209E-03     105.549E-03    -29.2101E+06     73.1670E+06     66.5829E+06     8.76659E+06    -163.469E-03     327.702E-03    -164.234E-03     69.9573E-03    -164.021E-03     328.218E-03    -163.965E-03     67.8323E-03
             707     12.9846E-03     105.635E-03    -16.4415E+06     83.4230E+06     81.3880E+06     6.00301E+06    -161.230E-03     325.343E-03    -164.114E-03     72.5425E-03    -161.756E-03     325.871E-03    -163.804E-03     70.3992E-03
             708     13.7593E-03     105.720E-03    -7.58657E+06     91.3132E+06     96.2579E+06     1.98702E+06    -161.754E-03     325.724E-03    -163.970E-03     70.4495E-03    -162.267E-03     326.254E-03    -163.610E-03     68.1105E-03
             709     14.5240E-03     105.792E-03    -3.54996E+06     96.5587E+06     101.465E+06    -3.23198E+06    -163.765E-03     327.648E-03    -163.882E-03     65.6150E-03    -164.249E-03     328.168E-03    -163.510E-03     63.2424E-03
             710     763.235E-06     106.062E-03    -115.268E+06    -233.477E+06    -113.688E+06    -89.7467E+03    -165.528E-03     329.798E-03    -164.270E-03     6.61922E-03    -165.514E-03     329.044E-03    -164.333E-03     6.61866E-03
             711     1.52702E-03     106.076E-03    -113.167E+06    -225.818E+06    -106.869E+06    -536.579E+03    -164.743E-03     329.585E-03    -164.843E-03     10.6146E-03    -164.808E-03     328.763E-03    -164.886E-03     10.6133E-03
             712     2.28979E-03     106.095E-03    -108.409E+06    -212.123E+06    -94.1981E+06     382.312E+03    -164.655E-03     329.474E-03    -164.819E-03     16.0591E-03    -164.737E-03     328.693E-03    -164.825E-03     16.0450E-03
             713     3.05247E-03     106.120E-03    -102.355E+06    -195.620E+06    -78.8738E+06     1.09823E+06    -164.561E-03     329.361E-03    -164.800E-03     21.1783E-03    -164.666E-03     328.638E-03    -164.762E-03     21.1689E-03
             714     3.81697E-03     106.152E-03    -96.0586E+06    -179.570E+06    -64.2837E+06     1.05850E+06    -164.190E-03     328.937E-03    -164.747E-03     27.0683E-03    -164.315E-03     328.270E-03    -164.668E-03     27.0013E-03
             715     4.58120E-03     106.190E-03    -87.9597E+06    -158.883E+06    -48.2114E+06     3.21222E+06    -163.889E-03     328.538E-03    -164.649E-03     33.2846E-03    -164.034E-03     327.947E-03    -164.532E-03     33.1612E-03
             716     5.34499E-03     106.235E-03    -78.3756E+06    -137.581E+06    -30.3870E+06     2.20593E+06    -164.041E-03     328.606E-03    -164.565E-03     39.4842E-03    -164.203E-03     328.090E-03    -164.404E-03     39.2019E-03
             717     6.10811E-03     106.285E-03    -75.8903E+06    -123.168E+06    -21.4208E+06     94.1891E+03    -164.080E-03     328.567E-03    -164.487E-03     44.3380E-03    -164.273E-03     328.116E-03    -164.306E-03     43.8865E-03
             718     6.87262E-03     106.340E-03    -70.8575E+06    -102.626E+06    -10.7371E+06     2.28314E+06    -163.648E-03     328.042E-03    -164.395E-03     48.8920E-03    -163.872E-03     327.682E-03    -164.197E-03     48.3528E-03
             719     7.63891E-03     106.403E-03    -61.9611E+06    -77.1289E+06     5.04451E+06     3.36931E+06    -163.484E-03     327.779E-03    -164.295E-03     52.5346E-03    -163.739E-03     327.526E-03    -164.068E-03     51.8281E-03
             720     8.40300E-03     106.471E-03    -55.3967E+06    -52.6187E+06     17.3096E+06     3.07825E+06    -163.805E-03     328.011E-03    -164.205E-03     55.2310E-03    -164.099E-03     327.871E-03    -163.962E-03     54.3100E-03
             721     9.16771E-03     106.541E-03    -51.5662E+06    -23.1864E+06     26.0684E+06     4.22204E+06    -164.300E-03     328.440E-03    -164.140E-03     59.5850E-03    -164.651E-03     328.450E-03    -163.901E-03     58.4738E-03
             722     9.93162E-03     106.618E-03    -48.9823E+06     14.0812E+06     36.6287E+06     8.36794E+06    -164.743E-03     328.855E-03    -164.112E-03     63.5158E-03    -165.175E-03     329.057E-03    -163.878E-03     62.2137E-03
             723     10.6948E-03     106.699E-03    -43.4724E+06     43.7684E+06     44.6895E+06     11.1681E+06    -164.542E-03     328.628E-03    -164.086E-03     66.8116E-03    -165.032E-03     328.989E-03    -163.863E-03     65.2680E-03
             724     11.4591E-03     106.779E-03    -33.6192E+06     65.3205E+06     53.7751E+06     11.8248E+06    -163.385E-03     327.406E-03    -164.020E-03     70.4342E-03    -163.890E-03     327.867E-03    -163.797E-03     68.7639E-03
             725     12.2252E-03     106.868E-03    -23.6587E+06     80.3584E+06     70.2836E+06     5.73127E+06    -162.050E-03     325.977E-03    -163.928E-03     71.1608E-03    -162.587E-03     326.513E-03    -163.659E-03     69.0584E-03
             726     12.9954E-03     106.940E-03    -16.0722E+06     88.1603E+06     87.6442E+06     1.21777E+06    -161.868E-03     325.693E-03    -163.825E-03     71.2689E-03    -162.420E-03     326.247E-03    -163.492E-03     68.9100E-03
             727     13.7585E-03     107.031E-03    -7.12353E+06     96.6737E+06     102.110E+06    -961.849E+03    -163.263E-03     327.023E-03    -163.761E-03     67.0064E-03    -163.783E-03     327.565E-03    -163.380E-03     64.5874E-03
             728     14.5234E-03     107.110E-03    -3.83164E+06     99.5334E+06     103.255E+06    -1.92585E+06    -165.500E-03     329.263E-03    -163.763E-03     60.8152E-03    -165.975E-03     329.778E-03    -163.386E-03     58.4850E-03
             729     762.681E-06     107.383E-03    -113.790E+06    -233.119E+06    -112.033E+06     1.33048E+06    -165.543E-03     330.522E-03    -164.980E-03     6.73842E-03    -165.521E-03     329.769E-03    -165.037E-03     6.74858E-03
             730     1.52420E-03     107.393E-03    -112.837E+06    -225.190E+06    -105.191E+06     1.42259E+06    -164.857E-03     330.013E-03    -165.157E-03     11.3014E-03    -164.925E-03     329.193E-03    -165.192E-03     11.3266E-03
             731     2.28883E-03     107.412E-03    -109.146E+06    -212.602E+06    -94.5948E+06     1.15953E+06    -164.129E-03     329.093E-03    -164.964E-03     17.0794E-03    -164.216E-03     328.314E-03    -164.970E-03     17.0854E-03
             732     3.05333E-03     107.438E-03    -104.671E+06    -198.494E+06    -82.4392E+06     1.06443E+06    -163.795E-03     328.526E-03    -164.732E-03     22.3410E-03    -163.905E-03     327.800E-03    -164.704E-03     22.3167E-03
             733     3.81646E-03     107.467E-03    -95.1806E+06    -179.149E+06    -64.6161E+06     964.243E+03    -163.486E-03     328.028E-03    -164.543E-03     27.8871E-03    -163.607E-03     327.365E-03    -164.468E-03     27.8263E-03
             734     4.58138E-03     107.505E-03    -87.8955E+06    -160.346E+06    -49.5043E+06     1.57004E+06    -163.194E-03     327.551E-03    -164.358E-03     33.4924E-03    -163.334E-03     326.954E-03    -164.245E-03     33.3512E-03
             735     5.34728E-03     107.549E-03    -84.8990E+06    -143.066E+06    -37.5055E+06     3.71862E+06    -163.307E-03     327.506E-03    -164.199E-03     39.2107E-03    -163.482E-03     326.981E-03    -164.056E-03     38.9707E-03
             736     6.11259E-03     107.602E-03    -77.9404E+06    -122.844E+06    -21.1980E+06     4.26768E+06    -163.901E-03     328.031E-03    -164.130E-03     43.7463E-03    -164.104E-03     327.583E-03    -163.945E-03     43.3804E-03
             737     6.87643E-03     107.655E-03    -70.5587E+06    -102.268E+06    -7.78323E+06     3.51706E+06    -164.316E-03     328.432E-03    -164.116E-03     48.0227E-03    -164.547E-03     328.071E-03    -163.904E-03     47.4680E-03
             738     7.63890E-03     107.719E-03    -62.4866E+06    -79.2872E+06     4.52737E+06     3.57624E+06    -164.013E-03     328.109E-03    -164.096E-03     52.1176E-03    -164.268E-03     327.848E-03    -163.868E-03     51.4036E-03
             739     8.40405E-03     107.784E-03    -56.0518E+06    -55.2332E+06     15.6426E+06     4.32610E+06    -163.795E-03     327.840E-03    -164.045E-03     55.4580E-03    -164.083E-03     327.688E-03    -163.805E-03     54.5980E-03
             740     9.16860E-03     107.857E-03    -52.1019E+06    -27.3034E+06     24.8553E+06     6.73684E+06    -163.948E-03     327.928E-03    -163.980E-03     60.1954E-03    -164.292E-03     327.918E-03    -163.740E-03     59.1551E-03
             741     9.93262E-03     107.934E-03    -45.5676E+06     6.39872E+06     35.5824E+06     9.63008E+06    -163.644E-03     327.549E-03    -163.906E-03     64.4192E-03    -164.042E-03     327.706E-03    -163.671E-03     63.2170E-03
             742     10.6990E-03     108.013E-03    -36.3198E+06     40.4569E+06     47.7199E+06     8.94195E+06    -163.392E-03     327.209E-03    -163.817E-03     67.7283E-03    -163.844E-03     327.537E-03    -163.584E-03     66.2138E-03
             743     11.4642E-03     108.096E-03    -27.4507E+06     69.9432E+06     59.8876E+06     5.94112E+06    -162.664E-03     326.377E-03    -163.713E-03     68.8629E-03    -163.161E-03     326.851E-03    -163.475E-03     67.0123E-03
             744     12.2324E-03     108.174E-03    -20.2142E+06     86.9374E+06     76.6434E+06     2.47774E+06    -162.704E-03     326.349E-03    -163.645E-03     68.4204E-03    -163.246E-03     326.906E-03    -163.359E-03     66.1777E-03
             745     12.9946E-03     108.259E-03    -14.1816E+06     93.4138E+06     94.3969E+06    -854.675E+03    -164.693E-03     328.369E-03    -163.675E-03     68.6529E-03    -165.263E-03     328.946E-03    -163.318E-03     66.0975E-03
             746     13.7583E-03     108.345E-03    -9.67013E+06     97.3544E+06     102.085E+06    -23.2124E+03    -165.809E-03     329.563E-03    -163.754E-03     66.9841E-03    -166.353E-03     330.122E-03    -163.371E-03     64.4688E-03
             747     14.5205E-03     108.428E-03    -5.41781E+06     99.4532E+06     101.453E+06     1.26099E+06    -165.091E-03     328.897E-03    -163.806E-03     61.8418E-03    -165.569E-03     329.415E-03    -163.435E-03     59.6114E-03
             748     763.214E-06     108.702E-03    -117.981E+06    -238.168E+06    -115.425E+06     1.96241E+06    -163.459E-03     329.161E-03    -165.702E-03     7.54684E-03    -163.440E-03     328.387E-03    -165.763E-03     7.55545E-03
             749     1.52754E-03     108.711E-03    -113.261E+06    -226.324E+06    -106.171E+06     2.84001E+06    -164.524E-03     329.064E-03    -164.540E-03     12.6344E-03    -164.590E-03     328.240E-03    -164.579E-03     12.6740E-03
             750     2.28993E-03     108.728E-03    -110.173E+06    -213.706E+06    -95.6014E+06     2.80443E+06    -163.978E-03     328.448E-03    -164.470E-03     17.9556E-03    -164.065E-03     327.665E-03    -164.479E-03     17.9843E-03
             751     3.05410E-03     108.752E-03    -104.706E+06    -198.814E+06    -81.7780E+06     1.74162E+06    -163.320E-03     327.614E-03    -164.294E-03     23.1692E-03    -163.432E-03     326.886E-03    -164.263E-03     23.1418E-03
             752     3.82012E-03     108.782E-03    -97.0552E+06    -181.372E+06    -65.2006E+06     1.71133E+06    -163.349E-03     327.477E-03    -164.128E-03     28.1336E-03    -163.477E-03     326.806E-03    -164.050E-03     28.0691E-03
             753     4.58431E-03     108.819E-03    -91.1076E+06    -163.771E+06    -50.1761E+06     1.85697E+06    -163.515E-03     327.545E-03    -164.030E-03     33.1853E-03    -163.664E-03     326.935E-03    -163.911E-03     33.0284E-03
             754     5.34790E-03     108.863E-03    -84.0265E+06    -144.271E+06    -35.6860E+06     1.84651E+06    -163.597E-03     327.568E-03    -163.970E-03     38.3952E-03    -163.769E-03     327.032E-03    -163.818E-03     38.1082E-03
             755     6.11240E-03     108.915E-03    -75.6155E+06    -122.708E+06    -20.2654E+06     3.38828E+06    -163.749E-03     327.684E-03    -163.936E-03     42.5429E-03    -163.941E-03     327.231E-03    -163.749E-03     42.1810E-03
             756     6.87637E-03     108.972E-03    -68.9837E+06    -102.747E+06    -7.16011E+06     3.74306E+06    -164.002E-03     327.923E-03    -163.920E-03     47.0681E-03    -164.222E-03     327.554E-03    -163.707E-03     46.5519E-03
             757     7.64151E-03     109.033E-03    -62.9532E+06    -83.2846E+06     3.18484E+06     3.24535E+06    -164.055E-03     327.960E-03    -163.906E-03     51.6657E-03    -164.304E-03     327.682E-03    -163.678E-03     50.9269E-03
             758     8.40578E-03     109.099E-03    -55.4449E+06    -59.1890E+06     14.8856E+06     4.55258E+06    -163.858E-03     327.736E-03    -163.878E-03     55.5542E-03    -164.136E-03     327.564E-03    -163.637E-03     54.6799E-03
             759     9.17024E-03     109.172E-03    -47.3985E+06    -31.1083E+06     27.0920E+06     6.30080E+06    -163.331E-03     327.144E-03    -163.813E-03     59.8188E-03    -163.648E-03     327.104E-03    -163.564E-03     58.7762E-03
             760     9.93683E-03     109.247E-03    -39.1862E+06     3.68098E+06     40.3084E+06     6.76175E+06    -162.937E-03     326.648E-03    -163.710E-03     63.3820E-03    -163.310E-03     326.777E-03    -163.457E-03     62.0916E-03
             761     10.7017E-03     109.327E-03    -32.3586E+06     42.6546E+06     53.3323E+06     6.36123E+06    -162.812E-03     326.408E-03    -163.595E-03     65.7942E-03    -163.258E-03     326.735E-03    -163.344E-03     64.1826E-03
             762     11.4676E-03     109.408E-03    -26.7585E+06     74.2557E+06     65.1160E+06     4.88990E+06    -163.173E-03     326.684E-03    -163.510E-03     66.0633E-03    -163.683E-03     327.173E-03    -163.254E-03     64.1004E-03
             763     12.2302E-03     109.488E-03    -20.6692E+06     90.0393E+06     79.2430E+06     2.70419E+06    -164.653E-03     328.181E-03    -163.528E-03     68.0359E-03    -165.207E-03     328.751E-03    -163.233E-03     65.7584E-03
             764     12.9956E-03     109.578E-03    -15.9082E+06     93.7182E+06     91.7694E+06     1.80497E+06    -165.832E-03     329.468E-03    -163.636E-03     69.3100E-03    -166.403E-03     330.049E-03    -163.290E-03     66.8330E-03
             765     13.7580E-03     109.662E-03    -11.3784E+06     96.8295E+06     99.5977E+06     2.17030E+06    -165.645E-03     329.390E-03    -163.745E-03     67.6428E-03    -166.199E-03     329.959E-03    -163.371E-03     65.1200E-03
             766     14.5213E-03     109.747E-03    -5.44651E+06     101.289E+06     102.267E+06     1.30936E+06    -164.691E-03     328.483E-03    -163.792E-03     62.7729E-03    -165.183E-03     329.018E-03    -163.420E-03     60.4971E-03
             767     764.458E-06     110.014E-03    -116.960E+06    -241.555E+06    -115.139E+06    -45.0709E+03    -163.427E-03     327.842E-03    -164.415E-03     6.34706E-03    -163.417E-03     327.045E-03    -164.471E-03     6.34203E-03
             768     1.52816E-03     110.028E-03    -114.005E+06    -230.878E+06    -108.806E+06     762.006E+03    -163.547E-03     327.361E-03    -163.814E-03     11.3717E-03    -163.608E-03     326.523E-03    -163.858E-03     11.3951E-03
             769     2.29256E-03     110.043E-03    -109.151E+06    -215.029E+06    -96.5969E+06     998.151E+03    -163.536E-03     327.268E-03    -163.732E-03     16.7819E-03    -163.614E-03     326.477E-03    -163.745E-03     16.7895E-03
             770     3.05716E-03     110.066E-03    -103.363E+06    -198.701E+06    -80.7522E+06     1.23185E+06    -163.647E-03     327.372E-03    -163.725E-03     22.6340E-03    -163.754E-03     326.641E-03    -163.691E-03     22.5899E-03
             771     3.82012E-03     110.097E-03    -97.8189E+06    -182.886E+06    -64.8697E+06     1.77032E+06    -163.751E-03     327.505E-03    -163.753E-03     27.2911E-03    -163.882E-03     326.828E-03    -163.671E-03     27.2190E-03
             772     4.58455E-03     110.134E-03    -90.7778E+06    -164.841E+06    -49.4664E+06     1.40111E+06    -163.862E-03     327.648E-03    -163.787E-03     32.4094E-03    -164.010E-03     327.033E-03    -163.663E-03     32.2303E-03
             773     5.34913E-03     110.178E-03    -82.8304E+06    -144.212E+06    -34.3842E+06     1.48313E+06    -163.909E-03     327.720E-03    -163.812E-03     38.2903E-03    -164.077E-03     327.183E-03    -163.654E-03     37.9876E-03
             774     6.11269E-03     110.230E-03    -76.2408E+06    -125.158E+06    -21.2053E+06     2.60228E+06    -163.593E-03     327.396E-03    -163.803E-03     43.1544E-03    -163.782E-03     326.932E-03    -163.617E-03     42.7905E-03
             775     6.87823E-03     110.286E-03    -69.3551E+06    -104.318E+06    -7.68297E+06     3.71747E+06    -163.444E-03     327.206E-03    -163.762E-03     47.6701E-03    -163.659E-03     326.826E-03    -163.549E-03     47.1967E-03
             776     7.64249E-03     110.349E-03    -61.6429E+06    -83.3186E+06     5.45130E+06     3.10091E+06    -163.715E-03     327.441E-03    -163.725E-03     51.7902E-03    -163.959E-03     327.154E-03    -163.488E-03     51.0877E-03
             777     8.40651E-03     110.414E-03    -54.8548E+06    -62.0233E+06     15.9215E+06     2.58221E+06    -163.777E-03     327.471E-03    -163.693E-03     55.6857E-03    -164.055E-03     327.287E-03    -163.444E-03     54.7384E-03
             778     9.17196E-03     110.484E-03    -47.6782E+06    -33.4328E+06     28.1542E+06     3.92747E+06    -163.491E-03     327.140E-03    -163.649E-03     59.1350E-03    -163.811E-03     327.091E-03    -163.391E-03     57.9964E-03
             779     9.93647E-03     110.560E-03    -40.7607E+06     1.54081E+06     40.8934E+06     4.84247E+06    -163.153E-03     326.730E-03    -163.577E-03     62.3530E-03    -163.534E-03     326.853E-03    -163.316E-03     60.9767E-03
             780     10.7022E-03     110.640E-03    -34.1492E+06     41.8811E+06     53.2554E+06     5.38427E+06    -163.113E-03     326.603E-03    -163.490E-03     64.5457E-03    -163.569E-03     326.932E-03    -163.235E-03     62.8643E-03
             781     11.4678E-03     110.720E-03    -27.2137E+06     75.5744E+06     64.7064E+06     5.52500E+06    -164.114E-03     327.564E-03    -163.450E-03     65.5200E-03    -164.625E-03     328.058E-03    -163.196E-03     63.5789E-03
             782     12.2335E-03     110.807E-03    -21.6769E+06     90.9109E+06     77.5094E+06     4.90861E+06    -165.439E-03     328.960E-03    -163.521E-03     67.5480E-03    -165.990E-03     329.532E-03    -163.234E-03     65.3464E-03
             783     12.9945E-03     110.893E-03    -17.1507E+06     95.0148E+06     90.4259E+06     4.04546E+06    -165.456E-03     329.102E-03    -163.646E-03     68.5752E-03    -166.029E-03     329.689E-03    -163.307E-03     66.1488E-03
             784     13.7582E-03     110.981E-03    -11.2263E+06     98.7909E+06     99.5526E+06     2.87648E+06    -164.471E-03     328.188E-03    -163.717E-03     66.9893E-03    -165.026E-03     328.765E-03    -163.346E-03     64.4850E-03
             785     14.5238E-03     111.059E-03    -5.44249E+06     103.247E+06     102.918E+06     1.12916E+06    -164.340E-03     328.069E-03    -163.729E-03     62.7528E-03    -164.837E-03     328.615E-03    -163.356E-03     60.4666E-03
             786     763.045E-06     111.331E-03    -115.094E+06    -241.461E+06    -113.666E+06     436.536E+03    -164.222E-03     327.417E-03    -163.195E-03     3.66494E-03    -164.220E-03     326.615E-03    -163.246E-03     3.80149E-03
             787     1.52799E-03     111.340E-03    -114.934E+06    -232.690E+06    -109.335E+06     7.98552E+03    -162.881E-03     326.399E-03    -163.519E-03     10.8755E-03    -162.947E-03     325.558E-03    -163.561E-03     10.8841E-03
             788     2.29375E-03     111.356E-03    -109.191E+06    -215.564E+06    -96.7014E+06     425.273E+03    -163.243E-03     326.604E-03    -163.361E-03     15.7483E-03    -163.323E-03     325.813E-03    -163.373E-03     15.7512E-03
             789     3.05736E-03     111.381E-03    -104.764E+06    -200.732E+06    -82.3500E+06     1.21739E+06    -163.718E-03     327.133E-03    -163.415E-03     21.4571E-03    -163.826E-03     326.396E-03    -163.384E-03     21.4259E-03
             790     3.82199E-03     111.411E-03    -99.1457E+06    -184.065E+06    -66.6107E+06     1.61358E+06    -163.853E-03     327.377E-03    -163.524E-03     26.9067E-03    -163.986E-03     326.699E-03    -163.447E-03     26.8301E-03
             791     4.58566E-03     111.448E-03    -91.0102E+06    -165.044E+06    -49.6427E+06     845.587E+03    -163.900E-03     327.513E-03    -163.613E-03     32.6297E-03    -164.050E-03     326.898E-03    -163.490E-03     32.4304E-03
             792     5.34936E-03     111.493E-03    -83.8626E+06    -145.623E+06    -34.5434E+06     1.41585E+06    -163.642E-03     327.294E-03    -163.652E-03     37.9820E-03    -163.814E-03     326.751E-03    -163.492E-03     37.6949E-03
             793     6.11492E-03     111.544E-03    -77.1227E+06    -126.205E+06    -20.4886E+06     2.15889E+06    -163.404E-03     327.045E-03    -163.641E-03     42.6203E-03    -163.600E-03     326.578E-03    -163.448E-03     42.2378E-03
             794     6.87896E-03     111.599E-03    -69.8731E+06    -106.764E+06    -7.48416E+06     1.99656E+06    -163.439E-03     327.047E-03    -163.608E-03     47.2689E-03    -163.656E-03     326.659E-03    -163.390E-03     46.7438E-03
             795     7.64409E-03     111.663E-03    -62.4638E+06    -85.3091E+06     5.03501E+06     2.22857E+06    -163.368E-03     326.937E-03    -163.569E-03     51.2369E-03    -163.612E-03     326.642E-03    -163.330E-03     50.5364E-03
             796     8.40987E-03     111.728E-03    -55.0748E+06    -61.8440E+06     17.2559E+06     2.15631E+06    -163.622E-03     327.157E-03    -163.535E-03     54.9935E-03    -163.904E-03     326.974E-03    -163.279E-03     54.0212E-03
             797     9.17356E-03     111.800E-03    -48.4737E+06    -34.7544E+06     28.3884E+06     3.05464E+06    -163.884E-03     327.399E-03    -163.515E-03     58.2894E-03    -164.209E-03     327.345E-03    -163.252E-03     57.1086E-03
             798     9.93831E-03     111.873E-03    -41.9266E+06    -630.514E+03     40.0728E+06     4.02470E+06    -163.826E-03     327.319E-03    -163.493E-03     61.6464E-03    -164.209E-03     327.435E-03    -163.231E-03     60.2361E-03
             799     10.7036E-03     111.953E-03    -35.3293E+06     39.5467E+06     52.3626E+06     5.16816E+06    -164.378E-03     327.861E-03    -163.483E-03     63.9196E-03    -164.833E-03     328.179E-03    -163.227E-03     62.2441E-03
             800     11.4671E-03     112.036E-03    -29.5641E+06     74.6974E+06     62.7086E+06     5.61314E+06    -165.209E-03     328.727E-03    -163.518E-03     64.8679E-03    -165.722E-03     329.219E-03    -163.270E-03     62.9603E-03
             801     12.2283E-03     112.122E-03    -23.5154E+06     91.2280E+06     75.1658E+06     5.28311E+06    -165.072E-03     328.680E-03    -163.607E-03     66.6876E-03    -165.622E-03     329.252E-03    -163.330E-03     64.5445E-03
             802     12.9939E-03     112.210E-03    -16.2844E+06     97.5113E+06     91.1854E+06     4.82140E+06    -164.158E-03     327.846E-03    -163.688E-03     67.7616E-03    -164.725E-03     328.438E-03    -163.350E-03     65.3913E-03
             803     13.7593E-03     112.294E-03    -10.0721E+06     101.749E+06     101.477E+06     2.99510E+06    -163.737E-03     327.444E-03    -163.707E-03     66.3326E-03    -164.293E-03     328.030E-03    -163.332E-03     63.8362E-03
             804     14.5233E-03     112.375E-03    -5.03265E+06     104.761E+06     103.358E+06     1.52928E+06    -163.994E-03     327.681E-03    -163.687E-03     62.9434E-03    -164.495E-03     328.236E-03    -163.315E-03     60.6506E-03
             805     764.519E-06     112.643E-03    -119.822E+06    -242.983E+06    -117.959E+06     489.369E+03    -163.311E-03     326.463E-03    -163.152E-03     2.23600E-03    -163.318E-03     325.671E-03    -163.216E-03     2.44692E-03
             806     1.52971E-03     112.653E-03    -116.448E+06    -231.989E+06    -109.304E+06    -6.72253E+03    -163.179E-03     326.387E-03    -163.208E-03     10.9469E-03    -163.253E-03     325.549E-03    -163.249E-03     10.9339E-03
             807     2.29265E-03     112.671E-03    -112.057E+06    -217.700E+06    -97.3567E+06     742.654E+03    -163.459E-03     326.721E-03    -163.262E-03     16.0664E-03    -163.551E-03     325.927E-03    -163.270E-03     16.0589E-03
             808     3.05761E-03     112.694E-03    -106.225E+06    -201.934E+06    -82.4107E+06     1.27303E+06    -163.423E-03     326.767E-03    -163.344E-03     21.4230E-03    -163.539E-03     326.029E-03    -163.309E-03     21.3971E-03
             809     3.82162E-03     112.726E-03    -99.6641E+06    -184.377E+06    -66.2665E+06     1.22229E+06    -163.654E-03     327.072E-03    -163.418E-03     26.7597E-03    -163.790E-03     326.392E-03    -163.337E-03     26.6680E-03
             810     4.58624E-03     112.762E-03    -92.5278E+06    -165.987E+06    -49.7885E+06     666.521E+03    -163.832E-03     327.335E-03    -163.503E-03     31.8692E-03    -163.986E-03     326.717E-03    -163.377E-03     31.6752E-03
             811     5.35082E-03     112.808E-03    -84.9787E+06    -146.595E+06    -34.1472E+06     479.420E+03    -163.529E-03     327.082E-03    -163.552E-03     36.6824E-03    -163.706E-03     326.535E-03    -163.387E-03     36.3861E-03
             812     6.11476E-03     112.856E-03    -77.4869E+06    -127.031E+06    -19.9996E+06     1.09174E+06    -163.437E-03     326.988E-03    -163.552E-03     41.8626E-03    -163.636E-03     326.520E-03    -163.355E-03     41.4366E-03
             813     6.87981E-03     112.915E-03    -69.8948E+06    -106.976E+06    -6.71054E+06     1.30177E+06    -163.511E-03     327.050E-03    -163.539E-03     46.2845E-03    -163.732E-03     326.663E-03    -163.316E-03     45.7013E-03
             814     7.64442E-03     112.974E-03    -62.6112E+06    -85.8613E+06     5.42486E+06     1.38269E+06    -163.456E-03     326.975E-03    -163.519E-03     49.8567E-03    -163.703E-03     326.679E-03    -163.276E-03     49.1012E-03
             815     8.40859E-03     113.042E-03    -55.7624E+06    -63.0513E+06     16.6439E+06     1.88324E+06    -163.492E-03     326.981E-03    -163.489E-03     53.8745E-03    -163.774E-03     326.794E-03    -163.234E-03     52.8802E-03
             816     9.17391E-03     113.113E-03    -48.9527E+06    -36.7400E+06     27.6439E+06     2.41015E+06    -163.925E-03     327.398E-03    -163.472E-03     57.2265E-03    -164.251E-03     327.339E-03    -163.210E-03     55.9940E-03
             817     9.93851E-03     113.187E-03    -42.2713E+06    -3.88085E+06     39.0391E+06     3.76883E+06    -164.820E-03     328.316E-03    -163.496E-03     60.4797E-03    -165.201E-03     328.420E-03    -163.234E-03     59.0278E-03
             818     10.7012E-03     113.268E-03    -36.1887E+06     35.8126E+06     51.2210E+06     5.38112E+06    -165.360E-03     328.919E-03    -163.559E-03     63.6924E-03    -165.810E-03     329.219E-03    -163.302E-03     62.0349E-03
             819     11.4639E-03     113.354E-03    -30.1536E+06     74.5521E+06     62.7816E+06     5.96497E+06    -165.008E-03     328.623E-03    -163.615E-03     66.0538E-03    -165.522E-03     329.113E-03    -163.366E-03     64.1988E-03
             820     12.2295E-03     113.438E-03    -24.3263E+06     92.9333E+06     74.9706E+06     4.90312E+06    -164.151E-03     327.808E-03    -163.657E-03     68.1648E-03    -164.710E-03     328.393E-03    -163.381E-03     66.0394E-03
             821     12.9938E-03     113.524E-03    -18.2994E+06     97.5939E+06     88.8925E+06     3.65463E+06    -163.637E-03     327.320E-03    -163.683E-03     68.7377E-03    -164.216E-03     327.922E-03    -163.353E-03     66.3510E-03
             822     13.7587E-03     113.608E-03    -11.0325E+06     103.361E+06     101.120E+06     3.25126E+06    -163.558E-03     327.244E-03    -163.686E-03     66.9990E-03    -164.125E-03     327.845E-03    -163.314E-03     64.5027E-03
             823     14.5238E-03     113.691E-03    -4.88610E+06     107.811E+06     105.641E+06     2.35762E+06    -163.453E-03     327.110E-03    -163.657E-03     63.6753E-03    -163.968E-03     327.685E-03    -163.278E-03     61.3817E-03
             824     765.181E-06     113.956E-03    -120.973E+06    -242.966E+06    -119.066E+06    -418.671E+03    -163.282E-03     325.694E-03    -162.412E-03     3.82376E-03    -163.297E-03     324.914E-03    -162.479E-03     3.92207E-03
             825     1.52852E-03     113.966E-03    -117.181E+06    -232.213E+06    -109.425E+06    -108.572E+03    -163.744E-03     326.765E-03    -163.021E-03     10.3624E-03    -163.825E-03     325.930E-03    -163.061E-03     10.3581E-03
             826     2.29400E-03     113.984E-03    -113.446E+06    -219.393E+06    -97.3392E+06     311.370E+03    -163.334E-03     326.585E-03    -163.252E-03     15.9778E-03    -163.433E-03     325.787E-03    -163.256E-03     15.9497E-03
             827     3.05761E-03     114.008E-03    -107.200E+06    -202.585E+06    -81.8159E+06     625.846E+03    -163.474E-03     326.802E-03    -163.328E-03     21.2958E-03    -163.596E-03     326.062E-03    -163.288E-03     21.2304E-03
             828     3.82258E-03     114.039E-03    -100.228E+06    -184.489E+06    -65.4230E+06     642.262E+03    -163.754E-03     327.176E-03    -163.422E-03     26.8313E-03    -163.897E-03     326.498E-03    -163.336E-03     26.6858E-03
             829     4.58585E-03     114.078E-03    -92.8082E+06    -165.658E+06    -49.0477E+06     545.064E+03    -163.665E-03     327.170E-03    -163.505E-03     31.1328E-03    -163.825E-03     326.555E-03    -163.376E-03     30.9267E-03
             830     5.35004E-03     114.120E-03    -85.5983E+06    -146.822E+06    -33.9331E+06     368.834E+03    -163.411E-03     326.946E-03    -163.535E-03     36.1528E-03    -163.593E-03     326.401E-03    -163.368E-03     35.8290E-03
             831     6.11519E-03     114.171E-03    -78.2852E+06    -127.915E+06    -20.2022E+06     172.474E+03    -163.550E-03     327.087E-03    -163.537E-03     41.8279E-03    -163.755E-03     326.618E-03    -163.339E-03     41.3382E-03
             832     6.87940E-03     114.227E-03    -70.7322E+06    -107.818E+06    -7.32606E+06     597.201E+03    -163.758E-03     327.303E-03    -163.545E-03     45.9499E-03    -163.984E-03     326.916E-03    -163.323E-03     45.3138E-03
             833     7.64382E-03     114.289E-03    -63.4918E+06    -86.7057E+06     4.78532E+06     1.05681E+06    -163.739E-03     327.291E-03    -163.552E-03     49.3734E-03    -163.990E-03     326.995E-03    -163.311E-03     48.5852E-03
             834     8.40894E-03     114.354E-03    -56.5408E+06    -64.3780E+06     15.9867E+06     1.26497E+06    -163.621E-03     327.162E-03    -163.541E-03     53.3140E-03    -163.904E-03     326.970E-03    -163.286E-03     52.3290E-03
             835     9.17381E-03     114.427E-03    -49.7753E+06    -38.7404E+06     26.8612E+06     2.02088E+06    -164.206E-03     327.744E-03    -163.538E-03     57.2946E-03    -164.531E-03     327.677E-03    -163.275E-03     56.0722E-03
             836     9.93690E-03     114.504E-03    -43.1500E+06    -7.53031E+06     38.0668E+06     3.00780E+06    -165.024E-03     328.600E-03    -163.576E-03     61.1495E-03    -165.402E-03     328.688E-03    -163.312E-03     59.7072E-03
             837     10.7003E-03     114.586E-03    -36.5340E+06     31.6056E+06     50.6200E+06     4.96655E+06    -164.757E-03     328.376E-03    -163.619E-03     64.8535E-03    -165.202E-03     328.657E-03    -163.359E-03     63.2107E-03
             838     11.4656E-03     114.668E-03    -30.3413E+06     73.9646E+06     62.2786E+06     6.36851E+06    -164.041E-03     327.651E-03    -163.611E-03     67.2685E-03    -164.559E-03     328.143E-03    -163.362E-03     65.4175E-03
             839     12.2297E-03     114.753E-03    -24.3800E+06      95.509E+06     74.6639E+06     5.70151E+06    -163.721E-03     327.324E-03    -163.602E-03     68.3379E-03    -164.285E-03     327.923E-03    -163.332E-03     66.2248E-03
             840     12.9951E-03     114.837E-03    -18.5448E+06     99.0225E+06     88.3154E+06     3.77453E+06    -163.730E-03     327.352E-03    -163.621E-03     69.3274E-03    -164.315E-03     327.966E-03    -163.296E-03     66.9247E-03
             841     13.7596E-03     114.924E-03    -12.6269E+06     104.151E+06     99.8059E+06     2.49087E+06    -163.544E-03     327.172E-03    -163.628E-03     67.4847E-03    -164.122E-03     327.785E-03    -163.261E-03     64.9580E-03
             842     14.5251E-03     115.003E-03    -5.71790E+06     110.313E+06     106.084E+06     2.22428E+06    -163.211E-03     326.811E-03    -163.600E-03     63.8620E-03    -163.739E-03     327.403E-03    -163.221E-03     61.5403E-03
             843     766.087E-06     115.274E-03    -121.292E+06    -242.421E+06    -119.308E+06    -120.220E+03    -164.154E-03     325.987E-03    -161.833E-03     6.51882E-03    -164.180E-03     325.215E-03    -161.902E-03     6.47885E-03
             844     1.52896E-03     115.278E-03    -118.362E+06    -232.981E+06    -110.609E+06     24.1330E+03    -163.923E-03     327.100E-03    -163.177E-03     9.40314E-03    -164.009E-03     326.269E-03    -163.221E-03     9.45563E-03
             845     2.29260E-03     115.298E-03    -113.996E+06    -219.724E+06    -97.8018E+06     116.132E+03    -163.377E-03     326.779E-03    -163.402E-03     15.1379E-03    -163.479E-03     325.982E-03    -163.407E-03     15.1207E-03
             846     3.05784E-03     115.321E-03    -108.118E+06    -203.099E+06    -82.3578E+06     183.760E+03    -163.619E-03     327.083E-03    -163.465E-03     21.0482E-03    -163.744E-03     326.344E-03    -163.425E-03     20.9425E-03
             847     3.82086E-03     115.354E-03    -101.162E+06    -184.639E+06    -65.8917E+06     155.362E+03    -163.716E-03     327.262E-03    -163.546E-03     26.1335E-03    -163.863E-03     326.586E-03    -163.461E-03     25.9725E-03
             848     4.58587E-03     115.391E-03    -93.7954E+06    -166.010E+06    -49.6795E+06     175.283E+03    -163.338E-03     326.920E-03    -163.582E-03     30.4546E-03    -163.501E-03     326.305E-03    -163.454E-03     30.2492E-03
             849     5.35085E-03     115.434E-03    -86.1320E+06    -146.870E+06    -34.2981E+06     240.119E+03    -163.610E-03     327.201E-03    -163.591E-03     35.6775E-03    -163.793E-03     326.657E-03    -163.425E-03     35.3534E-03
             850     6.11493E-03     115.484E-03    -78.5803E+06    -127.881E+06    -20.2265E+06     158.700E+03    -163.844E-03     327.464E-03    -163.621E-03     40.5972E-03    -164.048E-03     326.994E-03    -163.422E-03     40.1292E-03
             851     6.87933E-03     115.542E-03    -71.3174E+06    -108.645E+06    -7.64577E+06     66.2866E+03    -163.600E-03     327.232E-03    -163.632E-03     44.8843E-03    -163.824E-03     326.840E-03    -163.410E-03     44.2787E-03
             852     7.64352E-03     115.603E-03    -64.1055E+06    -87.6983E+06     4.25852E+06     473.460E+03    -163.767E-03     327.392E-03    -163.625E-03     49.2134E-03    -164.018E-03     327.092E-03    -163.384E-03     48.4240E-03
             853     8.40762E-03     115.669E-03    -57.2114E+06    -65.4676E+06     15.5761E+06     1.06032E+06    -164.275E-03     327.914E-03    -163.639E-03     52.8965E-03    -164.556E-03     327.715E-03    -163.383E-03     51.9380E-03
             854     9.17157E-03     115.741E-03    -50.5288E+06    -40.9607E+06     26.3244E+06     1.50896E+06    -164.351E-03     328.014E-03    -163.663E-03     57.3175E-03    -164.670E-03     327.932E-03    -163.399E-03     56.1669E-03
             855     9.93632E-03     115.820E-03    -44.0526E+06    -9.67343E+06     37.3947E+06     2.24772E+06    -164.052E-03     327.712E-03    -163.660E-03     61.3470E-03    -164.425E-03     327.786E-03    -163.395E-03     59.9717E-03
             856     10.7013E-03     115.899E-03    -37.2277E+06     26.7011E+06     49.2391E+06     3.85267E+06    -163.713E-03     327.338E-03    -163.625E-03     64.3201E-03    -164.149E-03     327.594E-03    -163.363E-03     62.7117E-03
             857     11.4659E-03     115.983E-03    -30.3939E+06     70.8700E+06     61.2412E+06     6.39468E+06    -163.579E-03     327.143E-03    -163.564E-03     66.7575E-03    -164.090E-03     327.620E-03    -163.317E-03     64.9177E-03
             858     12.2312E-03     116.067E-03    -24.6442E+06     98.0578E+06     74.1819E+06     6.36728E+06    -163.621E-03     327.158E-03    -163.537E-03     67.9042E-03    -164.186E-03     327.769E-03    -163.273E-03     65.8169E-03
             859     12.9956E-03     116.151E-03    -18.4166E+06     101.750E+06     88.7922E+06     4.60889E+06    -163.490E-03     327.045E-03    -163.555E-03     68.9691E-03    -164.076E-03     327.669E-03    -163.232E-03     66.6046E-03
             860     13.7610E-03     116.238E-03    -12.4488E+06     107.030E+06     101.284E+06     3.18628E+06    -163.396E-03     326.955E-03    -163.559E-03     67.5076E-03    -163.980E-03     327.581E-03    -163.190E-03     64.9739E-03
             861     14.5252E-03     116.317E-03    -6.36446E+06     112.112E+06     106.124E+06     1.02778E+06    -163.242E-03     326.771E-03    -163.528E-03     63.9028E-03    -163.780E-03     327.377E-03    -163.151E-03     61.5248E-03
             862     763.080E-06     116.580E-03    -122.151E+06    -242.399E+06    -120.146E+06     23.6043E+03    -164.198E-03     327.090E-03    -162.893E-03     7.06371E-03    -164.211E-03     326.319E-03    -162.965E-03     6.98789E-03
             863     1.52842E-03     116.599E-03    -119.162E+06    -233.248E+06    -111.430E+06     5.41519E+03    -163.834E-03     327.428E-03    -163.594E-03     9.36729E-03    -163.918E-03     326.595E-03    -163.640E-03     9.41657E-03
             864     2.29234E-03     116.608E-03    -114.516E+06    -220.061E+06    -98.6088E+06     188.086E+03    -163.837E-03     327.552E-03    -163.716E-03     14.4083E-03    -163.937E-03     326.754E-03    -163.724E-03     14.4220E-03
             865     3.05620E-03     116.637E-03    -108.636E+06    -203.226E+06    -83.1265E+06     59.9014E+03    -163.603E-03     327.366E-03    -163.763E-03     21.1673E-03    -163.729E-03     326.627E-03    -163.726E-03     21.0586E-03
             866     3.82070E-03     116.668E-03    -101.927E+06    -184.758E+06    -66.7012E+06    -30.5339E+03    -163.379E-03     327.131E-03    -163.751E-03     25.5956E-03    -163.526E-03     326.454E-03    -163.669E-03     25.4539E-03
             867     4.58515E-03     116.705E-03    -94.5954E+06    -166.003E+06    -50.2913E+06    -67.6101E+03    -163.452E-03     327.185E-03    -163.732E-03     30.0477E-03    -163.616E-03     326.570E-03    -163.606E-03     29.8510E-03
             868     5.34926E-03     116.748E-03    -87.0057E+06    -146.869E+06    -34.8414E+06    -287.855E+03    -163.957E-03     327.710E-03    -163.753E-03     35.5856E-03    -164.143E-03     327.167E-03    -163.588E-03     35.2612E-03
             869     6.11264E-03     116.800E-03    -79.3008E+06    -128.151E+06    -20.6735E+06    -283.791E+03    -163.899E-03     327.689E-03    -163.790E-03     40.0837E-03    -164.104E-03     327.218E-03    -163.593E-03     39.6338E-03
             870     6.87711E-03     116.854E-03    -71.7663E+06    -108.793E+06    -7.76765E+06    -153.772E+03    -163.382E-03     327.160E-03    -163.778E-03     44.4121E-03    -163.606E-03     326.765E-03    -163.555E-03     43.8250E-03
             871     7.64312E-03     116.917E-03    -64.6254E+06    -88.7666E+06     3.87446E+06    -18.7199E+03    -163.690E-03     327.431E-03    -163.741E-03     49.5233E-03    -163.940E-03     327.125E-03    -163.499E-03     48.7530E-03
             872     8.40693E-03     116.985E-03    -57.3865E+06    -66.8875E+06     15.1615E+06     445.665E+03    -164.329E-03     328.070E-03    -163.741E-03     53.6257E-03    -164.607E-03     327.863E-03    -163.485E-03     52.6883E-03
             873     9.17048E-03     117.056E-03    -50.5987E+06    -42.4255E+06     25.9683E+06     1.14557E+06    -164.173E-03     327.922E-03    -163.749E-03     58.0124E-03    -164.489E-03     327.833E-03    -163.484E-03     56.8765E-03
             874     9.93529E-03     117.133E-03    -44.3063E+06    -11.7888E+06     36.7602E+06     2.26618E+06    -163.515E-03     327.225E-03    -163.710E-03     61.6348E-03    -163.885E-03     327.289E-03    -163.445E-03     60.2664E-03
             875     10.7006E-03     117.213E-03    -38.3520E+06     23.1376E+06     48.2991E+06     3.51202E+06    -163.233E-03     326.870E-03    -163.636E-03     64.1927E-03    -163.667E-03     327.109E-03    -163.373E-03     62.5894E-03
             876     11.4661E-03     117.296E-03    -31.9930E+06     66.4058E+06     59.8005E+06     4.66422E+06    -163.332E-03     326.883E-03    -163.551E-03     66.6068E-03    -163.841E-03     327.340E-03    -163.302E-03     64.7544E-03
             877     12.2311E-03     117.381E-03    -24.7458E+06     98.3806E+06     74.2459E+06     6.20524E+06    -163.410E-03     326.919E-03    -163.509E-03     67.4983E-03    -163.973E-03     327.528E-03    -163.245E-03     65.4277E-03
             878     12.9963E-03     117.466E-03    -18.7983E+06     104.696E+06     88.1996E+06     5.39903E+06    -163.113E-03     326.619E-03    -163.506E-03     68.0137E-03    -163.696E-03     327.252E-03    -163.190E-03     65.7111E-03
             879     13.7617E-03     117.550E-03    -12.6790E+06     109.507E+06     100.927E+06     3.04274E+06    -162.775E-03     326.263E-03    -163.488E-03     67.5916E-03    -163.363E-03     326.902E-03    -163.124E-03     65.0778E-03
             880     14.5275E-03     117.633E-03    -6.32098E+06     114.601E+06     107.790E+06     533.932E+03    -163.157E-03     326.608E-03    -163.451E-03     64.3075E-03    -163.703E-03     327.227E-03    -163.069E-03     61.9337E-03
             881     764.777E-06     117.901E-03    -123.469E+06    -242.598E+06    -121.226E+06     10.7406E+03    -163.260E-03     328.269E-03    -165.009E-03     5.87828E-03    -163.267E-03     327.506E-03    -165.084E-03     5.87819E-03
             882     1.52747E-03     117.908E-03    -120.509E+06    -233.496E+06    -112.540E+06     178.552E+03    -163.631E-03     327.651E-03    -164.020E-03     10.0481E-03    -163.718E-03     326.819E-03    -164.070E-03     10.0581E-03
             883     2.29138E-03     117.928E-03    -115.866E+06    -220.115E+06    -99.7196E+06    -78.4735E+03    -164.153E-03     328.142E-03    -163.989E-03     15.1449E-03    -164.257E-03     327.345E-03    -164.000E-03     15.1300E-03
             884     3.05484E-03     117.949E-03    -109.794E+06    -203.323E+06    -84.2774E+06    -222.691E+03    -163.715E-03     327.739E-03    -164.024E-03     20.8842E-03    -163.844E-03     327.001E-03    -163.991E-03     20.8006E-03
             885     3.81998E-03     117.983E-03    -102.766E+06    -184.688E+06    -67.3543E+06    -179.457E+03    -163.421E-03     327.398E-03    -163.977E-03     25.5315E-03    -163.571E-03     326.723E-03    -163.897E-03     25.4102E-03
             886     4.58415E-03     118.018E-03    -95.3631E+06    -165.747E+06    -50.8501E+06    -348.952E+03    -163.859E-03     327.815E-03    -163.956E-03     29.9436E-03    -164.028E-03     327.205E-03    -163.831E-03     29.7594E-03
             887     5.34810E-03     118.064E-03     -87.839E+06    -146.708E+06    -35.3243E+06    -516.901E+03    -163.696E-03     327.655E-03    -163.959E-03     35.6821E-03    -163.886E-03     327.115E-03    -163.796E-03     35.3670E-03
             888     6.11290E-03     118.114E-03    -80.3243E+06    -127.988E+06    -21.0464E+06    -796.289E+03    -163.376E-03     327.298E-03    -163.923E-03     40.3263E-03    -163.584E-03     326.828E-03    -163.726E-03     39.8894E-03
             889     6.87767E-03     118.169E-03    -72.6729E+06    -109.037E+06    -8.26386E+06    -1.02832E+06    -163.740E-03     327.622E-03    -163.881E-03     45.1082E-03    -163.967E-03     327.228E-03    -163.659E-03     44.5146E-03
             890     7.64089E-03     118.230E-03    -64.9859E+06    -89.3526E+06     3.58813E+06    -803.667E+03    -163.908E-03     327.770E-03    -163.862E-03     49.9343E-03    -164.157E-03     327.461E-03    -163.621E-03     49.1745E-03
             891     8.40622E-03     118.299E-03    -57.7300E+06    -68.2310E+06     14.6294E+06    -411.694E+03    -163.659E-03     327.491E-03    -163.831E-03     53.6519E-03    -163.935E-03     327.277E-03    -163.576E-03     52.7269E-03
             892     9.17142E-03     118.370E-03    -50.5409E+06    -44.2382E+06     25.5791E+06     450.894E+03    -163.614E-03     327.395E-03    -163.782E-03     57.6441E-03    -163.925E-03     327.296E-03    -163.516E-03     56.5099E-03
             893     9.93582E-03     118.447E-03    -43.5467E+06    -14.5086E+06     36.7968E+06     1.72075E+06    -163.391E-03     327.107E-03    -163.716E-03     61.4723E-03    -163.751E-03     327.154E-03    -163.448E-03     60.1123E-03
             894     10.7010E-03     118.526E-03    -36.5187E+06     20.8305E+06     49.0730E+06     2.92797E+06    -163.159E-03     326.794E-03    -163.635E-03     64.6607E-03    -163.581E-03     327.019E-03    -163.367E-03     63.0529E-03
             895     11.4662E-03     118.610E-03    -30.1221E+06     62.7424E+06     60.6679E+06     4.66408E+06    -163.181E-03     326.724E-03    -163.543E-03     67.1789E-03    -163.678E-03     327.161E-03    -163.287E-03     65.3235E-03
             896     12.2312E-03     118.695E-03    -24.4114E+06     96.2083E+06     73.1291E+06     5.75793E+06    -163.105E-03     326.581E-03    -163.476E-03     68.1219E-03    -163.663E-03     327.181E-03    -163.214E-03     66.0471E-03
             897     12.9964E-03     118.779E-03    -17.4474E+06     108.060E+06     87.4936E+06     4.64952E+06    -162.952E-03     326.404E-03    -163.452E-03     68.1276E-03    -163.530E-03     327.049E-03    -163.146E-03     65.8353E-03
             898     13.7623E-03     118.863E-03    -10.5098E+06     112.222E+06     101.314E+06     2.62070E+06    -162.724E-03     326.160E-03    -163.436E-03     67.0144E-03    -163.305E-03     326.808E-03    -163.077E-03     64.4933E-03
             899     14.5286E-03     118.945E-03    -4.84571E+06     116.634E+06     108.756E+06     1.06711E+06    -162.896E-03     326.295E-03    -163.399E-03     63.9961E-03    -163.443E-03     326.924E-03    -163.018E-03     61.6162E-03
             900     761.009E-06     119.213E-03    -125.731E+06    -243.307E+06    -122.992E+06     358.639E+03    -162.917E-03     328.448E-03    -165.531E-03     4.47603E-03    -162.938E-03     327.698E-03    -165.611E-03     4.56528E-03
             901     1.52788E-03     119.224E-03    -122.543E+06    -233.699E+06    -114.408E+06     306.785E+03    -163.824E-03     327.956E-03    -164.132E-03     11.4715E-03    -163.922E-03     327.130E-03    -164.187E-03     11.4473E-03
             902     2.29145E-03     119.242E-03    -117.721E+06    -219.427E+06    -101.015E+06    -87.8350E+03    -164.399E-03     328.536E-03    -164.137E-03     15.6319E-03    -164.512E-03     327.748E-03    -164.153E-03     15.6094E-03
             903     3.05525E-03     119.266E-03    -111.606E+06    -202.772E+06    -85.1799E+06    -673.171E+03    -164.203E-03     328.431E-03    -164.229E-03     19.8056E-03    -164.341E-03     327.701E-03    -164.199E-03     19.7741E-03
             904     3.81876E-03     119.296E-03    -104.250E+06    -184.632E+06    -68.3420E+06    -916.820E+03    -163.806E-03     328.040E-03    -164.234E-03     25.3164E-03    -163.963E-03     327.370E-03    -164.156E-03     25.2092E-03
             905     4.58265E-03     119.335E-03    -96.4184E+06    -165.587E+06    -51.5442E+06    -954.440E+03    -163.622E-03     327.809E-03    -164.187E-03     30.3825E-03    -163.796E-03     327.202E-03    -164.065E-03     30.1986E-03
             906     5.34666E-03     119.377E-03    -88.3872E+06    -146.208E+06    -35.6841E+06    -1.17846E+06    -163.389E-03     327.508E-03    -164.118E-03     35.4728E-03    -163.580E-03     326.969E-03    -163.957E-03     35.1821E-03
             907     6.11204E-03     119.427E-03    -80.1547E+06    -127.298E+06    -21.0513E+06    -1.46409E+06    -163.338E-03     327.378E-03    -164.040E-03     39.8690E-03    -163.544E-03     326.909E-03    -163.844E-03     39.4686E-03
             908     6.87665E-03     119.483E-03    -72.3659E+06    -108.765E+06    -7.96807E+06    -1.69451E+06    -163.842E-03     327.833E-03    -163.991E-03     44.9344E-03    -164.069E-03     327.441E-03    -163.768E-03     44.3656E-03
             909     7.64106E-03     119.547E-03    -64.8694E+06    -89.9796E+06     3.60469E+06    -1.82156E+06    -163.965E-03     327.936E-03    -163.970E-03     49.4421E-03    -164.212E-03     327.622E-03    -163.728E-03     48.7125E-03
             910     8.40497E-03     119.611E-03    -57.5576E+06    -68.8643E+06     14.5513E+06    -1.50211E+06    -163.354E-03     327.273E-03    -163.920E-03     53.2446E-03    -163.625E-03     327.054E-03    -163.664E-03     52.3538E-03
             911     9.17003E-03     119.685E-03    -50.5766E+06    -45.8470E+06     25.2106E+06    -902.953E+03    -162.935E-03     326.758E-03    -163.823E-03     57.4236E-03    -163.242E-03     326.649E-03    -163.557E-03     56.3055E-03
             912     9.93579E-03     119.759E-03    -43.1593E+06    -17.1824E+06     36.3488E+06    -69.6592E+03    -163.040E-03     326.755E-03    -163.715E-03     61.0685E-03    -163.391E-03     326.786E-03    -163.446E-03     59.7251E-03
             913     10.7012E-03     119.840E-03    -36.3679E+06     16.8625E+06     48.3125E+06     2.03797E+06    -163.132E-03     326.753E-03    -163.621E-03     64.3895E-03    -163.545E-03     326.957E-03    -163.351E-03     62.8027E-03
             914     11.4665E-03     119.922E-03    -30.1805E+06     58.1317E+06     59.4295E+06     4.74174E+06    -162.838E-03     326.355E-03    -163.517E-03     66.9558E-03    -163.326E-03     326.769E-03    -163.260E-03     65.1297E-03
             915     12.2324E-03     120.008E-03    -23.8006E+06     96.4729E+06     72.7262E+06     5.48645E+06    -162.687E-03     326.111E-03    -163.424E-03     68.2047E-03    -163.243E-03     326.713E-03    -163.166E-03     66.1394E-03
             916     12.9982E-03     120.092E-03    -17.9364E+06     111.318E+06     86.9854E+06     4.04686E+06    -163.130E-03     326.522E-03    -163.392E-03     68.2095E-03    -163.717E-03     327.188E-03    -163.092E-03     65.8992E-03
             917     13.7628E-03     120.177E-03    -12.0030E+06     114.065E+06     100.817E+06     2.61847E+06    -163.337E-03     326.742E-03    -163.405E-03     66.5846E-03    -163.926E-03     327.401E-03    -163.049E-03     64.0604E-03
             918     14.5270E-03     120.257E-03    -5.88922E+06     118.376E+06     109.242E+06     1.60571E+06    -162.548E-03     325.931E-03    -163.383E-03     63.7122E-03    -163.104E-03     326.569E-03    -163.000E-03     61.3501E-03
             919     766.475E-06     120.527E-03    -127.565E+06    -244.224E+06    -125.445E+06     285.223E+03    -163.509E-03     328.025E-03    -164.515E-03     3.58237E-03    -163.529E-03     327.277E-03    -164.603E-03     3.71892E-03
             920     1.52747E-03     120.540E-03    -124.068E+06    -233.272E+06    -116.182E+06    -101.862E+03    -164.757E-03     328.904E-03    -164.147E-03     11.1877E-03    -164.862E-03     328.085E-03    -164.210E-03     11.1921E-03
             921     2.29071E-03     120.559E-03    -118.840E+06    -218.480E+06    -102.238E+06    -566.881E+03    -164.468E-03     328.828E-03    -164.360E-03     15.2945E-03    -164.589E-03     328.049E-03    -164.382E-03     15.2936E-03
             922     3.05371E-03     120.582E-03    -112.234E+06    -201.283E+06    -85.5833E+06    -1.15831E+06    -164.461E-03     328.897E-03    -164.436E-03     19.7375E-03    -164.605E-03     328.177E-03    -164.409E-03     19.7217E-03
             923     3.81722E-03     120.612E-03    -105.016E+06    -184.139E+06    -68.5974E+06    -1.76376E+06    -163.836E-03     328.270E-03    -164.434E-03     25.1901E-03    -163.998E-03     327.604E-03    -164.357E-03     25.0954E-03
             924     4.58217E-03     120.649E-03    -96.9914E+06    -165.271E+06    -51.9856E+06    -2.01015E+06    -163.286E-03     327.614E-03    -164.328E-03     30.9134E-03    -163.462E-03     327.010E-03    -164.208E-03     30.7147E-03
             925     5.34749E-03     120.692E-03    -88.7560E+06    -145.252E+06    -36.1652E+06    -2.25235E+06    -163.507E-03     327.725E-03    -164.219E-03     35.5477E-03    -163.701E-03     327.193E-03    -164.060E-03     35.2646E-03
             926     6.11086E-03     120.742E-03    -80.8774E+06    -126.884E+06    -21.7025E+06    -2.44113E+06    -163.788E-03     327.949E-03    -164.162E-03     40.2760E-03    -163.998E-03     327.486E-03    -163.969E-03     39.8792E-03
             927     6.87508E-03     120.798E-03    -73.1105E+06    -108.418E+06    -8.56599E+06    -2.45492E+06    -163.703E-03     327.821E-03    -164.118E-03     45.3960E-03    -163.933E-03     327.431E-03    -163.897E-03     44.8413E-03
             928     7.63966E-03     120.861E-03    -65.7080E+06    -89.7369E+06     3.15497E+06    -2.60097E+06    -163.386E-03     327.435E-03    -164.049E-03     49.5515E-03    -163.634E-03     327.123E-03    -163.808E-03     48.8450E-03
             929     8.40470E-03     120.926E-03    -58.6424E+06    -69.1066E+06     13.9240E+06    -2.59324E+06    -162.984E-03     326.931E-03    -163.947E-03     53.4923E-03    -163.258E-03     326.712E-03    -163.692E-03     52.6115E-03
             930     9.17039E-03     120.996E-03    -51.5389E+06    -46.7928E+06     24.4037E+06    -2.23118E+06    -162.798E-03     326.623E-03    -163.825E-03     58.2680E-03    -163.109E-03     326.514E-03    -163.560E-03     57.1362E-03
             931     9.93596E-03     121.073E-03    -45.2965E+06    -19.7061E+06     34.6935E+06    -1.14321E+06    -162.944E-03     326.650E-03    -163.706E-03     61.6566E-03    -163.302E-03     326.676E-03    -163.438E-03     60.2995E-03
             932     10.7010E-03     121.152E-03    -39.2535E+06     10.7359E+06     45.3535E+06     1.53090E+06    -162.907E-03     326.507E-03    -163.600E-03     64.4846E-03    -163.319E-03     326.687E-03    -163.332E-03     62.9123E-03
             933     11.4666E-03     121.235E-03    -32.8719E+06     54.3444E+06     56.9822E+06     3.94685E+06    -162.649E-03     326.131E-03    -163.482E-03     66.8518E-03    -163.138E-03     326.531E-03    -163.228E-03     65.0421E-03
             934     12.2326E-03     121.319E-03    -26.3996E+06     97.0905E+06     70.8888E+06     4.26603E+06    -162.574E-03     325.953E-03    -163.378E-03     68.1733E-03    -163.141E-03     326.565E-03    -163.126E-03     66.1047E-03
             935     12.9979E-03     121.406E-03    -19.4413E+06     112.735E+06     85.7050E+06     3.77825E+06    -162.930E-03     326.269E-03    -163.339E-03     68.8918E-03    -163.527E-03     326.949E-03    -163.046E-03     66.5764E-03
             936     13.7628E-03     121.490E-03    -13.0214E+06     116.207E+06     100.581E+06     2.68388E+06    -163.042E-03     326.385E-03    -163.343E-03     67.6883E-03    -163.645E-03     327.062E-03    -162.990E-03     65.1537E-03
             937     14.5285E-03     121.571E-03    -6.30541E+06     120.252E+06     110.017E+06     1.13285E+06    -162.464E-03     325.782E-03    -163.318E-03     64.4324E-03    -163.031E-03     326.434E-03    -162.933E-03     62.0438E-03
             938     763.034E-06     121.845E-03    -126.695E+06    -243.934E+06    -125.094E+06    -497.274E+03    -165.070E-03     328.807E-03    -163.737E-03     6.30100E-03    -165.092E-03     328.059E-03    -163.825E-03     6.30456E-03
             939     1.52606E-03     121.858E-03    -123.894E+06    -232.668E+06    -116.898E+06    -563.340E+03    -165.020E-03     329.527E-03    -164.507E-03     10.0144E-03    -165.124E-03     328.713E-03    -164.574E-03     10.0522E-03
             940     2.29007E-03     121.873E-03    -119.492E+06    -216.987E+06    -103.910E+06    -1.16719E+06    -164.175E-03     328.775E-03    -164.600E-03     15.6462E-03    -164.301E-03     328.010E-03    -164.632E-03     15.6394E-03
             941     3.05409E-03     121.900E-03    -113.524E+06    -200.030E+06    -87.2267E+06    -1.58551E+06    -164.079E-03     328.605E-03    -164.526E-03     20.4791E-03    -164.227E-03     327.893E-03    -164.508E-03     20.4479E-03
             942     3.81784E-03     121.926E-03    -106.421E+06    -182.469E+06    -69.5758E+06    -2.16070E+06    -163.973E-03     328.449E-03    -164.476E-03     24.9607E-03    -164.141E-03     327.793E-03    -164.405E-03     24.9000E-03
             943     4.58212E-03     121.963E-03    -98.7082E+06    -163.939E+06    -52.9488E+06    -3.01303E+06    -163.661E-03     328.068E-03    -164.408E-03     30.4165E-03    -163.846E-03     327.475E-03    -164.291E-03     30.2547E-03
             944     5.34570E-03     122.007E-03    -90.6049E+06    -144.596E+06    -37.4199E+06    -3.28238E+06    -163.457E-03     327.771E-03    -164.313E-03     35.4355E-03    -163.659E-03     327.246E-03    -164.159E-03     35.1746E-03
             945     6.11085E-03     122.057E-03    -82.4899E+06    -126.184E+06    -22.9096E+06    -3.43165E+06    -163.566E-03     327.794E-03    -164.227E-03     40.8277E-03    -163.783E-03     327.336E-03    -164.039E-03     40.4358E-03
             946     6.87496E-03     122.113E-03    -74.4550E+06    -107.814E+06    -9.78646E+06    -3.82249E+06    -163.370E-03     327.513E-03    -164.143E-03     46.0341E-03    -163.603E-03     327.128E-03    -163.928E-03     45.4807E-03
             947     7.63997E-03     122.174E-03    -66.5906E+06    -89.1915E+06     2.33717E+06    -3.78608E+06    -162.823E-03     326.850E-03    -164.027E-03     50.3361E-03    -163.076E-03     326.542E-03    -163.789E-03     49.6181E-03
             948     8.40577E-03     122.239E-03    -59.0238E+06    -68.9607E+06     13.5423E+06    -3.62851E+06    -162.856E-03     326.750E-03    -163.894E-03     53.9640E-03    -163.131E-03     326.531E-03    -163.641E-03     53.0774E-03
             949     9.17105E-03     122.309E-03    -51.9280E+06    -48.0549E+06     23.6796E+06    -3.13547E+06    -163.158E-03     326.943E-03    -163.785E-03     58.0311E-03    -163.465E-03     326.825E-03    -163.521E-03     56.9263E-03
             950     9.93595E-03     122.387E-03    -45.1202E+06    -22.9606E+06     33.6418E+06    -1.42741E+06    -162.924E-03     326.607E-03    -163.683E-03     61.3555E-03    -163.269E-03     326.613E-03    -163.416E-03     60.0420E-03
             951     10.7018E-03     122.465E-03    -38.2128E+06     6.30013E+06     44.2958E+06     289.636E+03    -162.581E-03     326.147E-03    -163.567E-03     64.2213E-03    -162.975E-03     326.300E-03    -163.299E-03     62.6798E-03
             952     11.4678E-03     122.548E-03    -30.9813E+06     49.6219E+06     56.5750E+06     2.83777E+06    -162.576E-03     326.015E-03    -163.438E-03     67.0685E-03    -163.046E-03     326.386E-03    -163.182E-03     65.2690E-03
             953     12.2328E-03     122.632E-03    -24.5674E+06     96.8683E+06     71.0911E+06     4.57518E+06    -162.614E-03     325.945E-03    -163.331E-03     68.6578E-03    -163.171E-03     326.552E-03    -163.081E-03     66.5995E-03
             954     12.9991E-03     122.718E-03    -19.1416E+06     115.299E+06     84.5433E+06     3.01782E+06    -162.531E-03     325.805E-03    -163.274E-03     69.5175E-03    -163.132E-03     326.502E-03    -162.991E-03     67.1808E-03
             955     13.7655E-03     122.804E-03    -12.2774E+06     117.353E+06     99.7826E+06     1.60352E+06    -162.185E-03     325.435E-03    -163.250E-03     67.2200E-03    -162.785E-03     326.118E-03    -162.903E-03     64.6777E-03
             956     14.5314E-03     122.883E-03    -5.34522E+06     121.899E+06     110.894E+06     1.07610E+06    -162.658E-03     325.876E-03    -163.218E-03     64.1885E-03    -163.224E-03     326.535E-03    -162.833E-03     61.7952E-03
             957     763.711E-06     123.166E-03    -129.577E+06    -242.507E+06    -127.573E+06    -580.954E+03    -165.370E-03     329.665E-03    -164.295E-03     8.20247E-03    -165.428E-03     328.930E-03    -164.393E-03     8.13731E-03
             958     1.52648E-03     123.173E-03    -126.464E+06    -231.647E+06    -118.960E+06    -1.15534E+06    -164.534E-03     329.300E-03    -164.765E-03     10.0721E-03    -164.651E-03     328.500E-03    -164.841E-03     10.0999E-03
             959     2.28971E-03     123.191E-03    -121.598E+06    -215.439E+06    -105.741E+06    -1.38177E+06    -164.095E-03     328.746E-03    -164.651E-03     15.6513E-03    -164.228E-03     327.993E-03    -164.691E-03     15.6442E-03
             960     3.05386E-03     123.214E-03    -115.422E+06    -198.461E+06    -88.9533E+06    -1.92724E+06    -163.852E-03     328.380E-03    -164.527E-03     20.2958E-03    -164.010E-03     327.682E-03    -164.517E-03     20.2872E-03
             961     3.81814E-03     123.244E-03    -107.965E+06    -180.162E+06    -71.0144E+06    -2.82109E+06    -164.024E-03     328.480E-03    -164.456E-03     24.8094E-03    -164.201E-03     327.840E-03    -164.394E-03     24.7755E-03
             962     4.58078E-03     123.279E-03    -99.9586E+06    -162.006E+06    -53.5597E+06    -3.59406E+06    -163.903E-03     328.321E-03    -164.419E-03     30.6101E-03    -164.096E-03     327.740E-03    -164.307E-03     30.4785E-03
             963     5.34603E-03     123.321E-03    -91.8773E+06    -143.446E+06    -37.9331E+06    -4.27046E+06    -163.464E-03     327.807E-03    -164.343E-03     36.0815E-03    -163.673E-03     327.290E-03    -164.191E-03     35.8278E-03
             964     6.11038E-03     123.372E-03    -83.5223E+06    -124.559E+06    -23.7483E+06    -4.85741E+06    -163.105E-03     327.328E-03    -164.223E-03     41.1511E-03    -163.328E-03     326.881E-03    -164.040E-03     40.7682E-03
             965     6.87576E-03     123.427E-03    -75.4134E+06    -106.720E+06    -10.6617E+06    -5.20984E+06    -162.831E-03     326.915E-03    -164.084E-03     45.6575E-03    -163.068E-03     326.536E-03    -163.873E-03     45.1359E-03
             966     7.64121E-03     123.487E-03    -67.4712E+06    -88.6142E+06     1.37607E+06    -5.42680E+06    -162.864E-03     326.813E-03    -163.948E-03     49.6725E-03    -163.117E-03     326.508E-03    -163.715E-03     48.9934E-03
             967     8.40649E-03     123.552E-03    -59.8196E+06    -69.3360E+06     12.4399E+06    -5.12111E+06    -163.257E-03     327.101E-03    -163.844E-03     53.5535E-03    -163.530E-03     326.879E-03    -163.594E-03     52.7107E-03
             968     9.17072E-03     123.624E-03    -52.6951E+06    -49.2149E+06     22.5676E+06    -4.31785E+06    -163.161E-03     326.919E-03    -163.759E-03     57.2442E-03    -163.461E-03     326.792E-03    -163.498E-03     56.2004E-03
             969     9.93615E-03     123.698E-03    -45.3240E+06    -25.7335E+06     32.5359E+06    -3.42841E+06    -162.679E-03     326.331E-03    -163.652E-03     61.1036E-03    -163.016E-03     326.321E-03    -163.386E-03     59.8099E-03
             970     10.7019E-03     123.778E-03    -37.8740E+06     3.31001E+06     43.3744E+06    -1.84615E+06    -162.469E-03     325.995E-03    -163.526E-03     64.1239E-03    -162.853E-03     326.131E-03    -163.259E-03     62.5937E-03
             971     11.4677E-03     123.859E-03    -30.9785E+06     43.6592E+06     55.1453E+06     541.001E+03    -162.358E-03     325.748E-03    -163.390E-03     67.0875E-03    -162.814E-03     326.090E-03    -163.133E-03     65.2914E-03
             972     12.2343E-03     123.946E-03    -23.7957E+06     93.5428E+06     70.3136E+06     3.65503E+06    -162.407E-03     325.678E-03    -163.270E-03     68.8408E-03    -162.952E-03     326.266E-03    -163.020E-03     66.7979E-03
             973     12.9994E-03     124.030E-03    -17.1820E+06     119.728E+06     85.0676E+06     4.15835E+06    -162.302E-03     325.499E-03    -163.197E-03     69.3748E-03    -162.898E-03     326.212E-03    -162.921E-03     67.0813E-03
             974     13.7649E-03     124.116E-03    -12.2307E+06     119.622E+06     99.0000E+06     1.31696E+06    -162.322E-03     325.495E-03    -163.173E-03     66.9799E-03    -162.921E-03     326.188E-03    -162.834E-03     64.4542E-03
             975     14.5316E-03     124.193E-03    -6.68306E+06     122.079E+06     110.101E+06     613.980E+03    -162.885E-03     326.045E-03    -163.160E-03     64.2837E-03    -163.457E-03     326.708E-03    -162.777E-03     61.9055E-03
             976     762.065E-06     124.481E-03    -132.526E+06    -239.805E+06    -129.943E+06    -1.09918E+06    -164.197E-03     329.281E-03    -165.084E-03     7.37186E-03    -164.275E-03     328.553E-03    -165.194E-03     7.35279E-03
             977     1.52665E-03     124.492E-03    -128.530E+06    -229.948E+06    -119.786E+06    -1.60868E+06    -164.156E-03     328.706E-03    -164.550E-03     10.8115E-03    -164.285E-03     327.918E-03    -164.629E-03     10.8181E-03
             978     2.29023E-03     124.507E-03    -123.256E+06    -214.193E+06    -105.984E+06    -1.92121E+06    -164.289E-03     328.752E-03    -164.464E-03     15.8663E-03    -164.431E-03     328.007E-03    -164.504E-03     15.8637E-03
             979     3.05397E-03     124.530E-03    -116.490E+06    -195.876E+06    -89.5528E+06    -2.72763E+06    -164.029E-03     328.463E-03    -164.433E-03     20.8864E-03    -164.197E-03     327.782E-03    -164.428E-03     20.8723E-03
             980     3.81740E-03     124.560E-03    -108.935E+06    -177.830E+06    -71.6969E+06    -3.60500E+06    -163.708E-03     328.079E-03    -164.372E-03     25.4183E-03    -163.893E-03     327.455E-03    -164.314E-03     25.3789E-03
             981     4.58315E-03     124.594E-03    -100.965E+06    -159.917E+06    -54.3845E+06    -4.27200E+06    -163.577E-03     327.869E-03    -164.293E-03     31.0106E-03    -163.776E-03     327.300E-03    -164.186E-03     30.8912E-03
             982     5.34615E-03     124.637E-03    -92.7721E+06    -141.014E+06    -38.3721E+06    -5.11696E+06    -163.504E-03     327.716E-03    -164.212E-03     36.5915E-03    -163.720E-03     327.214E-03    -164.065E-03     36.3529E-03
             983     6.11099E-03     124.685E-03    -84.8492E+06    -122.518E+06    -24.2690E+06    -5.92453E+06    -163.104E-03     327.215E-03    -164.111E-03     41.4945E-03    -163.335E-03     326.781E-03    -163.932E-03     41.1315E-03
             984     6.87611E-03     124.741E-03    -76.9321E+06    -105.175E+06    -11.5188E+06    -6.42476E+06    -162.888E-03     326.875E-03    -163.986E-03     45.7738E-03    -163.131E-03     326.504E-03    -163.780E-03     45.2826E-03
             985     7.64128E-03     124.800E-03    -69.2770E+06    -87.4842E+06     148.685E+03    -6.75081E+06    -163.221E-03     327.100E-03    -163.879E-03     49.9755E-03    -163.481E-03     326.803E-03    -163.651E-03     49.3222E-03
             986     8.40544E-03     124.867E-03    -61.8047E+06    -69.3817E+06     10.9262E+06    -6.83091E+06    -163.187E-03     326.981E-03    -163.794E-03     54.0962E-03    -163.467E-03     326.764E-03    -163.550E-03     53.2587E-03
             987     9.17106E-03     124.936E-03    -54.0977E+06    -49.8844E+06     21.2445E+06    -6.53330E+06    -162.609E-03     326.297E-03    -163.687E-03     57.8098E-03    -162.913E-03     326.169E-03    -163.430E-03     56.7630E-03
             988     9.93705E-03     125.011E-03    -46.7725E+06    -27.1742E+06     31.2377E+06    -5.69588E+06    -162.436E-03     325.990E-03    -163.554E-03     62.2818E-03    -162.778E-03     325.979E-03    -163.290E-03     60.9600E-03
             989     10.7028E-03     125.090E-03     -39.844E+06     350.617E+03     41.5092E+06    -4.29627E+06    -162.556E-03     325.981E-03    -163.425E-03     65.4043E-03    -162.945E-03     326.110E-03    -163.160E-03     63.8380E-03
             990     11.4687E-03     125.171E-03    -32.9476E+06     37.9578E+06     52.8773E+06    -1.40524E+06    -162.491E-03     325.794E-03    -163.303E-03     68.0083E-03    -162.948E-03     326.116E-03    -163.046E-03     66.1908E-03
             991     12.2344E-03     125.257E-03    -26.2633E+06     88.6389E+06     67.2865E+06     1.24952E+06    -162.271E-03     325.453E-03    -163.182E-03     69.7174E-03    -162.819E-03     326.027E-03    -162.936E-03     67.6469E-03
             992     13.0009E-03     125.343E-03     -18.644E+06     120.017E+06     82.6978E+06     2.59989E+06    -162.227E-03     325.328E-03    -163.100E-03     69.5508E-03    -162.824E-03     326.045E-03    -162.834E-03     67.2659E-03
             993     13.7681E-03     125.426E-03    -11.5491E+06     122.436E+06     98.9692E+06     3.01488E+06    -162.837E-03     325.934E-03    -163.097E-03     68.2433E-03    -163.445E-03     326.648E-03    -162.763E-03     65.7095E-03
             994     14.5309E-03     125.511E-03    -6.28987E+06     123.773E+06     110.749E+06     1.08739E+06    -163.065E-03     326.174E-03    -163.110E-03     65.1128E-03    -163.647E-03     326.853E-03    -162.726E-03     62.7064E-03
             995     764.308E-06     125.796E-03    -133.009E+06    -236.717E+06    -130.691E+06    -999.117E+03    -164.200E-03     328.015E-03    -163.815E-03     6.52865E-03    -164.284E-03     327.298E-03    -163.933E-03     6.54714E-03
             996     1.52784E-03     125.807E-03    -130.071E+06    -227.865E+06    -121.008E+06    -1.53321E+06    -164.038E-03     328.057E-03    -164.019E-03     11.5284E-03    -164.177E-03     327.283E-03    -164.105E-03     11.5226E-03
             997     2.29144E-03     125.823E-03    -124.580E+06    -211.795E+06    -106.774E+06    -2.54556E+06    -164.120E-03     328.194E-03    -164.075E-03     16.0956E-03    -164.274E-03     327.466E-03    -164.121E-03     16.1035E-03
             998     3.05470E-03     125.846E-03    -117.959E+06    -193.169E+06    -90.1699E+06    -3.32604E+06    -163.874E-03     327.978E-03    -164.104E-03     21.5419E-03    -164.052E-03     327.313E-03    -164.103E-03     21.5262E-03
             999     3.81937E-03     125.875E-03    -110.680E+06    -175.433E+06    -72.6094E+06    -3.99726E+06    -163.655E-03     327.741E-03    -164.085E-03     26.1584E-03    -163.851E-03     327.132E-03    -164.034E-03     26.1294E-03
            1000     4.58241E-03     125.909E-03    -102.685E+06    -156.920E+06    -55.3997E+06    -5.09847E+06    -163.362E-03     327.393E-03    -164.031E-03     31.4099E-03    -163.574E-03     326.844E-03    -163.932E-03     31.3062E-03
            1001     5.34839E-03     125.952E-03    -94.2882E+06    -138.339E+06    -39.1232E+06    -6.09836E+06    -163.102E-03     327.048E-03    -163.946E-03     37.0906E-03    -163.327E-03     326.561E-03    -163.804E-03     36.8694E-03
            1002     6.11268E-03     125.999E-03    -85.8325E+06    -120.273E+06    -24.3886E+06    -6.74918E+06    -163.190E-03     327.048E-03    -163.858E-03     42.2053E-03    -163.428E-03     326.625E-03    -163.681E-03     41.8545E-03
            1003     6.87744E-03     126.054E-03    -77.7720E+06    -102.779E+06    -11.5906E+06    -7.46602E+06    -163.344E-03     327.131E-03    -163.788E-03     46.9693E-03    -163.594E-03     326.775E-03    -163.584E-03     46.4707E-03
            1004     7.64198E-03     126.114E-03    -69.8068E+06    -85.7627E+06    -63.7805E+03    -8.13369E+06    -163.286E-03     327.010E-03    -163.724E-03     51.5328E-03    -163.552E-03     326.724E-03    -163.498E-03     50.8589E-03
            1005     8.40750E-03     126.181E-03    -61.9665E+06    -68.2134E+06     10.6577E+06    -8.53491E+06    -162.746E-03     326.379E-03    -163.633E-03     54.8893E-03    -163.028E-03     326.168E-03    -163.391E-03     54.0469E-03
            1006     9.17330E-03     126.248E-03    -54.5782E+06    -49.6080E+06     20.5791E+06    -8.57422E+06    -162.315E-03     325.821E-03    -163.506E-03     58.5078E-03    -162.620E-03     325.697E-03    -163.252E-03     57.4594E-03
            1007     9.93922E-03     126.323E-03    -47.2833E+06    -28.5500E+06     30.1758E+06    -7.80373E+06    -162.429E-03     325.802E-03    -163.373E-03     62.9624E-03    -162.770E-03     325.786E-03    -163.112E-03     61.6411E-03
            1008     10.7052E-03     126.402E-03    -40.1124E+06    -2.23661E+06     40.4177E+06    -6.23647E+06    -162.681E-03     325.941E-03    -163.260E-03     65.8604E-03    -163.065E-03     326.058E-03    -162.997E-03     64.2942E-03
            1009     11.4707E-03     126.484E-03    -33.1455E+06     31.5247E+06     51.0485E+06    -3.59820E+06    -162.738E-03     325.900E-03    -163.161E-03     68.2036E-03    -163.181E-03     326.189E-03    -162.904E-03     66.3875E-03
            1010     12.2365E-03     126.568E-03    -26.4322E+06     84.1662E+06     66.4860E+06     27.8700E+03    -162.458E-03     325.522E-03    -163.064E-03     69.9060E-03    -162.997E-03     326.073E-03    -162.815E-03     67.8401E-03
            1011     13.0026E-03     126.654E-03    -20.9079E+06     119.782E+06     80.0031E+06     1.26637E+06    -162.776E-03     325.773E-03    -162.998E-03     69.9819E-03    -163.382E-03     326.499E-03    -162.741E-03     67.6654E-03
            1012     13.7665E-03     126.740E-03    -13.7858E+06     122.227E+06     95.1643E+06     535.236E+03    -162.942E-03     325.954E-03    -163.012E-03     68.1658E-03    -163.558E-03     326.679E-03    -162.693E-03     65.5802E-03
            1013     14.5343E-03     126.823E-03    -5.68243E+06     125.266E+06     111.399E+06     650.732E+03    -162.973E-03     326.019E-03    -163.045E-03     65.0262E-03    -163.558E-03     326.705E-03    -162.662E-03     62.6053E-03
            1014     764.314E-06     127.110E-03    -135.490E+06    -234.297E+06    -133.256E+06    -579.207E+03    -163.551E-03     327.096E-03    -163.545E-03     5.18390E-03    -163.653E-03     326.405E-03    -163.675E-03     5.20955E-03
            1015     1.52819E-03     127.122E-03    -131.622E+06    -224.211E+06    -122.827E+06    -2.03654E+06    -163.821E-03     327.433E-03    -163.612E-03     10.6650E-03    -163.971E-03     326.685E-03    -163.711E-03     10.6999E-03
            1016     2.29204E-03     127.138E-03    -126.101E+06    -208.852E+06    -108.144E+06    -3.00645E+06    -163.300E-03     326.955E-03    -163.654E-03     15.7502E-03    -163.467E-03     326.248E-03    -163.709E-03     15.7991E-03
            1017     3.05700E-03     127.161E-03    -119.232E+06    -190.810E+06    -90.4834E+06    -3.58955E+06    -163.151E-03     326.748E-03    -163.597E-03     21.7309E-03    -163.339E-03     326.098E-03    -163.600E-03     21.7435E-03
            1018     3.82064E-03     127.190E-03    -111.332E+06    -172.187E+06    -72.3048E+06    -4.62949E+06    -163.346E-03     326.918E-03    -163.572E-03     27.3413E-03    -163.550E-03     326.326E-03    -163.522E-03     27.3119E-03
            1019     4.58573E-03     127.224E-03    -102.869E+06    -153.272E+06    -54.7473E+06    -5.86048E+06    -163.347E-03     326.920E-03    -163.573E-03     32.3623E-03    -163.565E-03     326.388E-03    -163.476E-03     32.2698E-03
            1020     5.34954E-03     127.264E-03    -94.4000E+06    -135.282E+06    -38.6341E+06    -6.94723E+06    -163.022E-03     326.568E-03    -163.546E-03     37.7254E-03    -163.252E-03     326.095E-03    -163.406E-03     37.5223E-03
            1021     6.11537E-03     127.314E-03    -86.0706E+06    -117.608E+06    -24.1922E+06    -7.88142E+06    -163.154E-03     326.652E-03    -163.498E-03     42.9657E-03    -163.397E-03     326.243E-03    -163.324E-03     42.6289E-03
            1022     6.87974E-03     127.368E-03    -77.8216E+06    -100.035E+06    -11.2123E+06    -8.70418E+06    -163.468E-03     326.939E-03    -163.471E-03     47.6310E-03    -163.724E-03     326.596E-03    -163.269E-03     47.1489E-03
            1023     7.64459E-03     127.428E-03    -69.9723E+06    -83.3941E+06     217.428E+03    -9.42516E+06    -163.149E-03     326.587E-03    -163.438E-03     51.8286E-03    -163.418E-03     326.311E-03    -163.214E-03     51.1806E-03
            1024     8.40960E-03     127.493E-03    -62.4554E+06    -66.2690E+06     10.6308E+06    -10.0157E+06    -162.612E-03     325.973E-03    -163.361E-03     54.8060E-03    -162.896E-03     325.769E-03    -163.121E-03     53.9977E-03
            1025     9.17541E-03     127.560E-03    -55.0604E+06    -48.5074E+06     20.4282E+06    -10.2461E+06    -162.650E-03     325.915E-03    -163.265E-03     58.6440E-03    -162.957E-03     325.795E-03    -163.012E-03     57.6151E-03
            1026     9.94112E-03     127.635E-03    -47.9417E+06    -29.0666E+06     29.6583E+06    -9.96709E+06    -162.817E-03     325.996E-03    -163.179E-03     62.5601E-03    -163.154E-03     325.973E-03    -162.919E-03     61.2745E-03
            1027     10.7065E-03     127.714E-03    -40.6275E+06    -4.60608E+06     39.3189E+06    -8.98071E+06    -162.717E-03     325.813E-03    -163.096E-03     65.5315E-03    -163.093E-03     325.914E-03    -162.834E-03     63.9891E-03
            1028     11.4721E-03     127.796E-03    -33.0163E+06     25.5359E+06     49.5914E+06    -6.28810E+06    -162.800E-03     325.813E-03    -163.013E-03     68.0760E-03    -163.227E-03     326.070E-03    -162.755E-03     66.2667E-03
            1029     12.2380E-03     127.880E-03    -25.6955E+06     76.4268E+06     64.4700E+06    -1.83250E+06    -162.953E-03     325.894E-03    -162.941E-03     69.5582E-03    -163.469E-03     326.403E-03    -162.692E-03     67.5131E-03
            1030     13.0033E-03     127.967E-03    -18.4191E+06     119.481E+06     79.8168E+06     1.12279E+06    -163.166E-03     326.067E-03    -162.902E-03     70.7926E-03    -163.760E-03     326.789E-03    -162.649E-03     68.4821E-03
            1031     13.7689E-03     128.055E-03    -12.7567E+06     125.938E+06     95.3401E+06    -224.269E+03    -163.214E-03     326.150E-03    -162.936E-03     68.3696E-03    -163.829E-03     326.890E-03    -162.623E-03     65.7896E-03
            1032     14.5329E-03     128.132E-03    -6.96276E+06     124.663E+06     110.122E+06    -852.236E+03    -163.071E-03     326.055E-03    -162.984E-03     65.4121E-03    -163.659E-03     326.743E-03    -162.604E-03     62.9772E-03
            1033     764.569E-06     128.427E-03    -135.109E+06    -230.784E+06    -132.832E+06    -1.84684E+06    -162.547E-03     326.277E-03    -163.731E-03     7.73791E-03    -162.638E-03     325.610E-03    -163.865E-03     7.63245E-03
            1034     1.52784E-03     128.436E-03    -131.347E+06    -220.420E+06    -122.602E+06    -2.40760E+06    -163.015E-03     326.128E-03    -163.113E-03     11.4915E-03    -163.167E-03     325.398E-03    -163.216E-03     11.5307E-03
            1035     2.29337E-03     128.452E-03    -126.047E+06    -205.670E+06    -107.613E+06    -3.37086E+06    -162.758E-03     325.841E-03    -163.083E-03     16.2973E-03    -162.926E-03     325.147E-03    -163.140E-03     16.3655E-03
            1036     3.05812E-03     128.473E-03    -118.988E+06    -187.791E+06    -89.8795E+06    -4.39206E+06    -162.437E-03     325.451E-03    -163.014E-03     21.6512E-03    -162.627E-03     324.814E-03    -163.019E-03     21.6942E-03
            1037     3.82426E-03     128.502E-03    -110.781E+06    -168.515E+06    -71.2077E+06    -5.39826E+06    -162.522E-03     325.475E-03    -162.953E-03     27.7457E-03    -162.729E-03     324.898E-03    -162.904E-03     27.7327E-03
            1038     4.58826E-03     128.538E-03    -102.541E+06    -149.530E+06    -53.6518E+06    -6.36780E+06    -162.983E-03     325.937E-03    -162.954E-03     32.7690E-03    -163.203E-03     325.418E-03    -162.857E-03     32.7121E-03
            1039     5.35328E-03     128.578E-03    -94.0866E+06    -131.490E+06    -37.6626E+06    -7.70138E+06    -163.296E-03     326.300E-03    -163.004E-03     38.3894E-03    -163.530E-03     325.842E-03    -162.865E-03     38.2106E-03
            1040     6.11728E-03     128.626E-03    -85.6021E+06    -114.268E+06    -23.3675E+06    -8.93933E+06    -163.286E-03     326.334E-03    -163.048E-03     43.9083E-03    -163.531E-03     325.937E-03    -162.875E-03     43.5830E-03
            1041     6.88241E-03     128.682E-03    -77.3764E+06    -97.2135E+06    -10.4862E+06    -9.77007E+06    -163.167E-03     326.227E-03    -163.061E-03     48.5051E-03    -163.423E-03     325.894E-03    -162.860E-03     48.0353E-03
            1042     7.64699E-03     128.741E-03    -69.5434E+06    -80.5339E+06     1.05715E+06    -10.4840E+06    -162.958E-03     326.000E-03    -163.042E-03     52.3695E-03    -163.227E-03     325.733E-03    -162.819E-03     51.7437E-03
            1043     8.41280E-03     128.805E-03    -62.0624E+06    -63.6992E+06     11.4604E+06    -11.1953E+06    -162.890E-03     325.893E-03    -163.002E-03     55.7155E-03    -163.176E-03     325.699E-03    -162.763E-03     54.9135E-03
            1044     9.17805E-03     128.872E-03    -54.8438E+06    -46.9006E+06     20.8955E+06    -11.6628E+06    -163.221E-03     326.189E-03    -162.968E-03     59.9299E-03    -163.530E-03     326.076E-03    -162.716E-03     58.8864E-03
            1045     9.94259E-03     128.948E-03    -47.7534E+06    -28.4732E+06     29.8224E+06    -11.7028E+06    -163.303E-03     326.245E-03    -162.942E-03     63.5922E-03    -163.639E-03     326.224E-03    -162.683E-03     62.3006E-03
            1046     10.7081E-03     129.024E-03    -41.0391E+06    -5.13628E+06     38.9358E+06    -11.2733E+06    -163.074E-03     325.977E-03    -162.904E-03     66.3451E-03    -163.449E-03     326.076E-03    -162.642E-03     64.7957E-03
            1047     11.4744E-03     129.108E-03    -34.2522E+06     20.0108E+06     47.6526E+06    -9.54848E+06    -163.069E-03     325.922E-03    -162.853E-03     68.8005E-03    -163.490E-03     326.154E-03    -162.594E-03     66.9757E-03
            1048     12.2392E-03     129.193E-03    -26.6904E+06     67.9868E+06     61.8143E+06    -5.68042E+06    -163.320E-03     326.127E-03    -162.808E-03     70.5524E-03    -163.824E-03     326.599E-03    -162.558E-03     68.4772E-03
            1049     13.0044E-03     129.279E-03    -18.9315E+06     115.844E+06     77.1090E+06    -1.61408E+06    -163.205E-03     325.983E-03    -162.778E-03     71.4467E-03    -163.791E-03     326.689E-03    -162.533E-03     69.1370E-03
            1050     13.7700E-03     129.367E-03    -11.6365E+06     127.679E+06     93.8783E+06     502.030E+03    -163.440E-03     326.259E-03    -162.819E-03     69.6557E-03    -164.052E-03     327.011E-03    -162.518E-03     67.0968E-03
            1051     14.5348E-03     129.448E-03    -5.83893E+06     125.143E+06     110.011E+06    -309.571E+03    -163.536E-03     326.434E-03    -162.897E-03     65.8553E-03    -164.120E-03     327.122E-03    -162.520E-03     63.4520E-03
            1052     764.320E-06     129.738E-03    -134.543E+06    -226.758E+06    -132.163E+06    -1.90860E+06    -162.961E-03     324.134E-03    -161.173E-03     7.46711E-03    -163.043E-03     323.483E-03    -161.310E-03     7.40611E-03
            1053     1.53173E-03     129.747E-03    -131.303E+06    -216.611E+06    -121.970E+06    -2.42084E+06    -161.914E-03     323.941E-03    -162.027E-03     12.7955E-03    -162.068E-03     323.228E-03    -162.132E-03     12.8139E-03
            1054     2.29533E-03     129.765E-03    -125.417E+06    -201.351E+06    -106.490E+06    -3.83006E+06    -162.600E-03     324.723E-03    -162.123E-03     17.5474E-03    -162.768E-03     324.043E-03    -162.182E-03     17.6027E-03
            1055     3.06044E-03     129.784E-03    -118.173E+06    -183.919E+06    -88.8031E+06    -5.20612E+06    -162.352E-03     324.620E-03    -162.268E-03     21.9821E-03    -162.543E-03     323.997E-03    -162.274E-03     22.0537E-03
            1056     3.82532E-03     129.813E-03    -110.149E+06    -165.149E+06    -70.3348E+06    -6.04652E+06    -161.989E-03     324.289E-03    -162.300E-03     28.2406E-03    -162.198E-03     323.726E-03    -162.253E-03     28.2491E-03
            1057     4.59181E-03     129.849E-03    -101.421E+06    -145.468E+06    -52.3187E+06    -7.18943E+06    -162.429E-03     324.748E-03    -162.319E-03     33.3214E-03    -162.651E-03     324.245E-03    -162.222E-03     33.2826E-03
            1058     5.35650E-03     129.890E-03    -92.5924E+06    -127.315E+06    -35.9916E+06    -8.56740E+06    -163.074E-03     325.475E-03    -162.402E-03     38.7247E-03    -163.306E-03     325.031E-03    -162.263E-03     38.5809E-03
            1059     6.12110E-03     129.940E-03    -84.0559E+06    -110.559E+06    -21.5977E+06    -9.71193E+06    -163.135E-03     325.632E-03    -162.497E-03     44.3417E-03    -163.377E-03     325.246E-03    -162.323E-03     44.0504E-03
            1060     6.88595E-03     129.993E-03    -75.9286E+06    -93.8552E+06    -8.91556E+06    -10.6733E+06    -162.841E-03     325.384E-03    -162.543E-03     49.2219E-03    -163.095E-03     325.062E-03    -162.342E-03     48.7728E-03
            1061     7.65192E-03     130.054E-03    -68.0582E+06    -77.3882E+06     2.51609E+06    -11.5515E+06    -162.787E-03     325.335E-03    -162.549E-03     52.8810E-03    -163.053E-03     325.078E-03    -162.325E-03     52.2862E-03
            1062     8.41674E-03     130.115E-03    -60.6301E+06    -61.1583E+06     12.7889E+06    -12.0554E+06    -163.180E-03     325.736E-03    -162.556E-03     56.7303E-03    -163.462E-03     325.549E-03    -162.316E-03     55.9510E-03
            1063     9.18147E-03     130.186E-03    -53.8091E+06    -44.6960E+06     21.9697E+06    -12.3974E+06    -163.492E-03     326.070E-03    -162.579E-03     61.0850E-03    -163.798E-03     325.963E-03    -162.326E-03     60.0616E-03
            1064     9.94698E-03     130.259E-03    -47.3871E+06    -26.9539E+06     30.5792E+06    -12.6950E+06    -163.557E-03     326.157E-03    -162.600E-03     64.7315E-03    -163.894E-03     326.141E-03    -162.339E-03     63.4540E-03
            1065     10.7118E-03     130.339E-03    -40.9539E+06    -4.86463E+06     39.2736E+06    -12.5120E+06    -163.834E-03     326.452E-03    -162.618E-03     67.7551E-03    -164.210E-03     326.552E-03    -162.355E-03     66.2102E-03
            1066     11.4757E-03     130.419E-03    -34.9784E+06     17.1887E+06     47.2251E+06    -11.4122E+06    -163.785E-03     326.419E-03    -162.634E-03     69.7443E-03    -164.202E-03     326.636E-03    -162.372E-03     67.9316E-03
            1067     12.2419E-03     130.505E-03    -28.9461E+06     61.0567E+06     59.5024E+06    -8.50639E+06    -163.528E-03     326.156E-03    -162.628E-03     71.7854E-03    -164.030E-03     326.599E-03    -162.377E-03     69.6898E-03
            1068     13.0068E-03     130.593E-03    -22.0886E+06     110.228E+06     73.5395E+06    -4.99035E+06    -163.503E-03     326.117E-03    -162.614E-03     71.9691E-03    -164.088E-03     326.802E-03    -162.374E-03     69.6447E-03
            1069     13.7721E-03     130.678E-03    -14.2653E+06     125.027E+06     89.9531E+06    -2.78225E+06    -163.583E-03     326.251E-03    -162.668E-03     70.9683E-03    -164.208E-03     327.008E-03    -162.379E-03     68.3329E-03
            1070     14.5368E-03     130.764E-03    -6.03664E+06     123.956E+06     109.457E+06    -1.27005E+06    -164.047E-03     326.827E-03    -162.780E-03     66.2272E-03    -164.634E-03     327.515E-03    -162.404E-03     63.7973E-03
            1071     766.845E-06     131.045E-03    -133.139E+06    -222.828E+06    -130.660E+06    -1.06127E+06    -161.561E-03     321.458E-03    -159.897E-03     6.04971E-03    -161.643E-03     320.821E-03    -160.034E-03     6.09115E-03
            1072     1.53192E-03     131.055E-03    -129.174E+06    -211.676E+06    -119.748E+06    -2.97818E+06    -161.519E-03     322.398E-03    -160.880E-03     12.3963E-03    -161.672E-03     321.703E-03    -160.984E-03     12.4255E-03
            1073     2.29914E-03     131.075E-03    -123.277E+06    -196.580E+06    -104.410E+06    -4.40448E+06    -161.426E-03     322.559E-03    -161.133E-03     17.3553E-03    -161.593E-03     321.897E-03    -161.191E-03     17.4318E-03
            1074     3.06333E-03     131.096E-03    -116.002E+06    -179.808E+06    -86.2246E+06    -5.69473E+06    -161.857E-03     323.165E-03    -161.308E-03     22.7818E-03    -162.048E-03     322.556E-03    -161.310E-03     22.8610E-03
            1075     3.82917E-03     131.122E-03    -107.768E+06    -161.049E+06    -68.0009E+06    -7.08529E+06    -162.013E-03     323.491E-03    -161.478E-03     29.3870E-03    -162.219E-03     322.941E-03    -161.429E-03     29.3910E-03
            1076     4.59413E-03     131.160E-03    -98.9996E+06    -141.005E+06    -50.3975E+06    -8.33002E+06    -162.155E-03     323.765E-03    -161.610E-03     35.0867E-03    -162.374E-03     323.277E-03    -161.514E-03     35.0196E-03
            1077     5.35938E-03     131.202E-03    -90.4442E+06    -123.250E+06    -34.0466E+06    -9.30273E+06    -162.485E-03     324.215E-03    -161.730E-03     40.0690E-03    -162.716E-03     323.786E-03    -161.590E-03     39.9303E-03
            1078     6.12493E-03     131.251E-03    -82.1373E+06    -106.594E+06    -19.6452E+06    -10.4418E+06    -162.630E-03     324.468E-03    -161.838E-03     45.2352E-03    -162.871E-03     324.095E-03    -161.662E-03     44.9711E-03
            1079     6.89027E-03     131.305E-03    -73.9477E+06    -90.1991E+06    -6.90663E+06    -11.5428E+06    -162.917E-03     324.846E-03    -161.930E-03     49.9378E-03    -163.166E-03     324.533E-03    -161.726E-03     49.5266E-03
            1080     7.65518E-03     131.364E-03    -66.2357E+06    -74.2381E+06     4.39427E+06    -12.1603E+06    -163.136E-03     325.152E-03    -162.016E-03     53.0124E-03    -163.396E-03     324.900E-03    -161.790E-03     52.4853E-03
            1081     8.42089E-03     131.428E-03    -58.9972E+06    -58.5735E+06     14.4709E+06    -12.6928E+06    -163.258E-03     325.349E-03    -162.091E-03     56.7649E-03    -163.533E-03     325.164E-03    -161.848E-03     56.0607E-03
            1082     9.18599E-03     131.498E-03    -52.0203E+06    -42.5712E+06     23.6611E+06    -13.0123E+06    -163.583E-03     325.742E-03    -162.159E-03     60.9504E-03    -163.879E-03     325.634E-03    -161.904E-03     60.0128E-03
            1083     9.95059E-03     131.571E-03    -45.4149E+06    -25.2633E+06     32.3203E+06    -12.9130E+06    -163.866E-03     326.095E-03    -162.229E-03     64.2351E-03    -164.189E-03     326.073E-03    -161.965E-03     63.0602E-03
            1084     10.7156E-03     131.651E-03    -39.5474E+06    -3.93726E+06     40.7736E+06    -12.8290E+06    -164.124E-03     326.419E-03    -162.295E-03     67.8201E-03    -164.488E-03     326.511E-03    -162.028E-03     66.3566E-03
            1085     11.4804E-03     131.734E-03    -33.7003E+06     15.4668E+06     48.3087E+06    -11.7946E+06    -164.412E-03     326.776E-03    -162.364E-03     69.8552E-03    -164.814E-03     326.973E-03    -162.096E-03     68.1179E-03
            1086     12.2439E-03     131.816E-03    -27.2947E+06     57.4220E+06     59.8711E+06    -10.2204E+06    -164.087E-03     326.496E-03    -162.409E-03     71.8711E-03    -164.570E-03     326.912E-03    -162.153E-03     69.8156E-03
            1087     13.0095E-03     131.906E-03    -20.1365E+06     106.180E+06     74.1460E+06    -8.22991E+06    -163.892E-03     326.328E-03    -162.436E-03     72.5411E-03    -164.463E-03     326.989E-03    -162.190E-03     70.1854E-03
            1088     13.7737E-03     131.991E-03    -13.4236E+06     120.840E+06     89.4836E+06    -5.30595E+06    -164.071E-03     326.590E-03    -162.519E-03     71.1163E-03    -164.682E-03     327.323E-03    -162.227E-03     68.4583E-03
            1089     14.5391E-03     132.077E-03    -7.43868E+06     120.214E+06     107.087E+06    -2.68282E+06    -164.858E-03     327.523E-03    -162.664E-03     67.2383E-03    -165.442E-03     328.196E-03    -162.292E-03     64.7888E-03
            1090     768.804E-06     132.353E-03    -131.301E+06    -217.795E+06    -128.594E+06    -1.36819E+06    -159.364E-03     319.869E-03    -160.505E-03     8.39415E-03    -159.442E-03     319.252E-03    -160.642E-03     8.37971E-03
            1091     1.53318E-03     132.365E-03    -127.535E+06    -206.563E+06    -118.195E+06    -3.29084E+06    -160.664E-03     320.733E-03    -160.069E-03     11.8042E-03    -160.819E-03     320.056E-03    -160.176E-03     11.8708E-03
            1092     2.29872E-03     132.379E-03    -121.773E+06    -191.301E+06    -102.542E+06    -4.96481E+06    -159.831E-03     320.035E-03    -160.204E-03     17.8196E-03    -160.005E-03     319.398E-03    -160.263E-03     17.8902E-03
            1093     3.06796E-03     132.403E-03    -114.263E+06    -174.679E+06    -84.4065E+06    -6.74771E+06    -160.515E-03     320.746E-03    -160.231E-03     24.4324E-03    -160.709E-03     320.159E-03    -160.234E-03     24.4675E-03
            1094     3.83268E-03     132.432E-03    -105.759E+06    -156.050E+06    -65.9313E+06    -8.33948E+06    -161.617E-03     322.047E-03    -160.430E-03     30.6396E-03    -161.822E-03     321.515E-03    -160.380E-03     30.6295E-03
            1095     4.59866E-03     132.468E-03    -96.9777E+06    -136.793E+06    -48.3429E+06    -9.46975E+06    -161.817E-03     322.489E-03    -160.672E-03     37.0795E-03    -162.035E-03     322.017E-03    -160.574E-03     36.9829E-03
            1096     5.36459E-03     132.512E-03    -87.9516E+06    -119.087E+06    -31.9364E+06    -10.4785E+06    -161.999E-03     322.861E-03    -160.862E-03     42.1513E-03    -162.227E-03     322.446E-03    -160.721E-03     41.9862E-03
            1097     6.12998E-03     132.560E-03    -79.0492E+06    -102.252E+06    -17.1243E+06    -11.5176E+06    -162.575E-03     323.612E-03    -161.038E-03     46.8798E-03    -162.809E-03     323.252E-03    -160.860E-03     46.6203E-03
            1098     6.89552E-03     132.616E-03     -70.612E+06    -86.7798E+06    -4.16975E+06    -12.2869E+06    -163.128E-03     324.350E-03    -161.223E-03     51.3236E-03    -163.367E-03     324.044E-03    -161.015E-03     50.9441E-03
            1099     7.65994E-03     132.676E-03    -62.6425E+06    -71.1275E+06     7.23919E+06    -12.8518E+06    -163.346E-03     324.742E-03    -161.396E-03     54.7037E-03    -163.595E-03     324.495E-03    -161.166E-03     54.2015E-03
            1100     8.42403E-03     132.739E-03    -55.2319E+06    -55.9992E+06     17.2176E+06    -13.2816E+06    -163.595E-03     325.142E-03    -161.546E-03     59.0089E-03    -163.860E-03     324.961E-03    -161.299E-03     58.3128E-03
            1101     9.18936E-03     132.810E-03    -48.3736E+06    -40.5631E+06     26.3210E+06    -13.3574E+06    -164.068E-03     325.755E-03    -161.687E-03     62.9523E-03    -164.352E-03     325.647E-03    -161.427E-03     62.0416E-03
            1102     9.95386E-03     132.885E-03    -42.0759E+06    -24.2351E+06     34.7211E+06    -13.1497E+06    -164.289E-03     326.111E-03    -161.823E-03     65.6656E-03    -164.596E-03     326.083E-03    -161.553E-03     64.5398E-03
            1103     10.7182E-03     132.962E-03    -36.0028E+06    -3.08884E+06     43.3542E+06    -12.5626E+06    -164.315E-03     326.250E-03    -161.936E-03     69.3860E-03    -164.664E-03     326.335E-03    -161.662E-03     67.9696E-03
            1104     11.4829E-03     133.047E-03    -29.8373E+06     15.5951E+06     51.1769E+06    -12.6815E+06    -164.595E-03     326.633E-03    -162.037E-03     71.6358E-03    -164.982E-03     326.820E-03    -161.761E-03     69.9199E-03
            1105     12.2475E-03     133.131E-03    -23.1638E+06     56.3554E+06     62.3986E+06    -12.1336E+06    -164.728E-03     326.850E-03    -162.123E-03     73.2218E-03    -165.190E-03     327.249E-03    -161.859E-03     71.1870E-03
            1106     13.0116E-03     133.217E-03    -17.0137E+06     102.706E+06     75.7055E+06     -9.7881E+06    -164.853E-03     327.061E-03    -162.208E-03     74.5933E-03    -165.408E-03     327.700E-03    -161.954E-03     72.2330E-03
            1107     13.7765E-03     133.307E-03    -10.6430E+06     114.774E+06     87.6735E+06    -6.58356E+06    -165.459E-03     327.810E-03    -162.351E-03     71.9793E-03    -166.040E-03     328.507E-03    -162.064E-03     69.3459E-03
            1108     14.5396E-03     133.389E-03    -5.11312E+06     115.246E+06     103.379E+06    -2.71138E+06    -166.070E-03     328.629E-03    -162.559E-03     68.0516E-03    -166.626E-03     329.277E-03    -162.202E-03     65.6226E-03
            1109     765.337E-06     133.656E-03    -129.929E+06    -211.727E+06    -127.728E+06    -2.15815E+06    -159.292E-03     318.553E-03    -159.261E-03     9.93311E-03    -159.384E-03     317.967E-03    -159.405E-03     9.85451E-03
            1110     1.53484E-03     133.670E-03    -125.940E+06    -200.778E+06    -116.593E+06    -3.81922E+06    -158.475E-03     317.583E-03    -159.108E-03     12.5953E-03    -158.636E-03     316.932E-03    -159.217E-03     12.6516E-03
            1111     2.30391E-03     133.682E-03    -119.686E+06    -185.137E+06    -100.908E+06    -5.84030E+06    -158.975E-03     317.967E-03    -158.992E-03     18.7649E-03    -159.154E-03     317.358E-03    -159.054E-03     18.8246E-03
            1112     3.06996E-03     133.707E-03    -112.016E+06    -167.938E+06    -82.5631E+06    -8.13776E+06    -159.531E-03     318.623E-03    -159.093E-03     25.9660E-03    -159.726E-03     318.064E-03    -159.100E-03     25.9663E-03
            1113     3.83834E-03     133.739E-03    -103.317E+06    -150.591E+06    -63.4833E+06    -9.87341E+06    -160.311E-03     319.604E-03    -159.293E-03     31.8022E-03    -160.517E-03     319.092E-03    -159.242E-03     31.7809E-03
            1114     4.60400E-03     133.776E-03    -94.0178E+06    -132.348E+06    -45.4467E+06    -11.0570E+06    -161.099E-03     320.649E-03    -159.550E-03     38.0902E-03    -161.314E-03     320.193E-03    -159.449E-03     38.0017E-03
            1115     5.37014E-03     133.819E-03    -84.7790E+06    -114.359E+06    -29.2451E+06    -12.2872E+06    -161.760E-03     321.584E-03    -159.824E-03     43.5828E-03    -161.981E-03     321.183E-03    -159.682E-03     43.4160E-03
            1116     6.13605E-03     133.870E-03    -75.7796E+06    -98.3855E+06    -14.6580E+06    -13.0723E+06    -162.551E-03     322.657E-03    -160.106E-03     48.6538E-03    -162.776E-03     322.307E-03    -159.927E-03     48.3972E-03
            1117     6.90021E-03     133.926E-03    -67.2569E+06    -83.2818E+06    -1.65916E+06    -13.5924E+06    -162.836E-03     323.209E-03    -160.373E-03     53.1208E-03    -163.067E-03     322.911E-03    -160.163E-03     52.7612E-03
            1118     7.66620E-03     133.986E-03    -59.1588E+06    -68.4006E+06     9.77175E+06    -14.0931E+06    -163.098E-03     323.696E-03    -160.598E-03     57.0086E-03    -163.336E-03     323.453E-03    -160.365E-03     56.5204E-03
            1119     8.43225E-03     134.051E-03    -51.5829E+06    -53.9103E+06     19.8727E+06    -14.0484E+06    -164.028E-03     324.848E-03    -160.821E-03     61.5883E-03    -164.280E-03     324.668E-03    -160.568E-03     60.9099E-03
            1120     9.19563E-03     134.122E-03    -44.6659E+06    -38.8202E+06     29.0860E+06    -13.7181E+06    -164.644E-03     325.700E-03    -161.056E-03     65.3884E-03    -164.914E-03     325.590E-03    -160.790E-03     64.5119E-03
            1121     9.95995E-03     134.197E-03    -38.2030E+06    -23.2141E+06     37.4282E+06    -13.4085E+06    -164.640E-03     325.909E-03    -161.269E-03     67.8126E-03    -164.931E-03     325.873E-03    -160.993E-03     66.7405E-03
            1122     10.7246E-03     134.275E-03    -32.0679E+06    -2.58130E+06      45.944E+06    -13.0583E+06    -164.745E-03     326.187E-03    -161.442E-03     71.7446E-03    -165.078E-03     326.263E-03    -161.162E-03     70.3736E-03
            1123     11.4888E-03     134.360E-03    -26.3460E+06     18.2038E+06     54.4015E+06    -13.0034E+06    -164.990E-03     326.587E-03    -161.597E-03     73.8903E-03    -165.365E-03     326.775E-03    -161.314E-03     72.2252E-03
            1124     12.2532E-03     134.444E-03    -21.0334E+06     55.6377E+06     64.2722E+06    -12.8610E+06    -165.497E-03     327.237E-03    -161.740E-03     74.8248E-03    -165.944E-03     327.620E-03    -161.469E-03     72.8625E-03
            1125     13.0169E-03     134.533E-03    -15.4962E+06     97.1856E+06     75.9457E+06    -10.1822E+06    -166.423E-03     328.334E-03    -161.910E-03     76.0292E-03    -166.958E-03     328.938E-03    -161.649E-03     73.7292E-03
            1126     13.7790E-03     134.622E-03    -10.8934E+06     108.726E+06      85.766E+06    -5.80648E+06    -167.343E-03     329.496E-03    -162.153E-03     73.6690E-03    -167.917E-03     330.168E-03    -161.866E-03     71.0486E-03
            1127     14.5404E-03     134.709E-03    -5.54866E+06     109.773E+06     100.519E+06    -2.50541E+06    -167.531E-03     329.981E-03    -162.451E-03     68.9996E-03    -168.082E-03     330.611E-03    -162.099E-03     66.5455E-03
            1128     768.634E-06     134.957E-03    -125.657E+06    -204.384E+06    -123.306E+06    -2.69741E+06    -158.185E-03     315.573E-03    -157.388E-03     6.38189E-03    -158.293E-03     315.023E-03    -157.526E-03     6.42542E-03
            1129     1.53793E-03     134.968E-03    -121.730E+06    -193.573E+06    -113.322E+06    -4.94477E+06    -156.986E-03     314.609E-03    -157.623E-03     13.7413E-03    -157.146E-03     313.990E-03    -157.733E-03     13.7744E-03
            1130     2.30570E-03     134.984E-03    -115.896E+06    -177.833E+06    -98.3626E+06    -7.32150E+06    -158.252E-03     315.858E-03    -157.606E-03     19.8822E-03    -158.424E-03     315.275E-03    -157.672E-03     19.9096E-03
            1131     3.07431E-03     135.010E-03    -108.653E+06    -160.847E+06    -79.8628E+06    -9.25763E+06    -158.681E-03     316.542E-03    -157.861E-03     26.9333E-03    -158.875E-03     316.010E-03    -157.869E-03     26.9178E-03
            1132     3.84143E-03     135.040E-03    -100.500E+06    -144.021E+06    -60.9460E+06    -11.1366E+06    -159.149E-03     317.255E-03    -158.105E-03     33.5406E-03    -159.356E-03     316.770E-03    -158.056E-03     33.4925E-03
            1133     4.60992E-03     135.081E-03    -91.6415E+06    -126.684E+06    -43.2048E+06    -12.9377E+06    -160.216E-03     318.599E-03    -158.383E-03     39.2557E-03    -160.429E-03     318.162E-03    -158.283E-03     39.1735E-03
            1134     5.37630E-03     135.125E-03    -82.6336E+06    -109.563E+06    -27.1993E+06    -14.0307E+06    -161.191E-03     319.905E-03    -158.714E-03     45.0716E-03    -161.410E-03     319.520E-03    -158.571E-03     44.9195E-03
            1135     6.14173E-03     135.178E-03    -73.8504E+06    -94.4374E+06    -12.9971E+06    -14.9094E+06    -161.767E-03     320.812E-03    -159.045E-03     50.7263E-03    -161.990E-03     320.474E-03    -158.866E-03     50.4720E-03
            1136     6.90858E-03     135.233E-03    -65.1050E+06    -79.7368E+06    -30.0271E+03    -15.5445E+06    -162.291E-03     321.638E-03    -159.347E-03     55.0698E-03    -162.517E-03     321.350E-03    -159.138E-03     54.7271E-03
            1137     7.67398E-03     135.294E-03    -56.9857E+06    -65.8807E+06     11.3955E+06    -15.6317E+06    -163.294E-03     322.944E-03    -159.650E-03     59.1876E-03    -163.524E-03     322.705E-03    -159.415E-03     58.7380E-03
            1138     8.43773E-03     135.361E-03    -49.3412E+06    -52.3885E+06     21.4441E+06    -15.3707E+06    -164.246E-03     324.217E-03    -159.970E-03     63.3953E-03    -164.486E-03     324.033E-03    -159.716E-03     62.7884E-03
            1139     9.20279E-03     135.434E-03    -42.0853E+06    -37.9514E+06     30.5928E+06    -14.7552E+06    -164.620E-03     324.899E-03    -160.279E-03     66.8845E-03    -164.874E-03     324.780E-03    -160.010E-03     66.1039E-03
            1140     9.96671E-03     135.509E-03    -35.4465E+06    -22.1460E+06     39.1350E+06    -14.0729E+06    -165.098E-03     325.659E-03    -160.561E-03     69.7260E-03    -165.372E-03     325.615E-03    -160.282E-03     68.7542E-03
            1141     10.7308E-03     135.587E-03    -29.5322E+06    -2.01727E+06     47.5901E+06    -12.9669E+06    -165.527E-03     326.350E-03    -160.823E-03     72.8976E-03    -165.840E-03     326.413E-03    -160.539E-03     71.6645E-03
            1142     11.4949E-03     135.673E-03    -24.4907E+06     20.1352E+06     56.1011E+06    -12.3690E+06    -165.907E-03     326.977E-03    -161.071E-03     74.8879E-03    -166.266E-03     327.159E-03    -160.784E-03     73.3658E-03
            1143     12.2580E-03     135.758E-03    -20.2665E+06     55.1528E+06     65.1217E+06    -11.4189E+06    -166.915E-03     328.229E-03    -161.314E-03     76.0062E-03    -167.348E-03     328.598E-03    -161.039E-03     74.1737E-03
            1144     13.0205E-03     135.849E-03    -16.8376E+06     91.2548E+06     74.1458E+06    -9.06738E+06    -167.921E-03     329.509E-03    -161.589E-03     76.9469E-03    -168.443E-03     330.081E-03    -161.326E-03     74.7382E-03
            1145     13.7821E-03     135.941E-03    -12.0857E+06     103.204E+06     84.2537E+06    -5.97478E+06    -168.460E-03     330.379E-03    -161.918E-03     75.2607E-03    -169.031E-03     331.028E-03    -161.629E-03     72.6495E-03
            1146     14.5436E-03     136.028E-03    -5.86641E+06     105.099E+06     99.1046E+06    -2.70346E+06    -169.408E-03     331.708E-03    -162.300E-03     70.6584E-03    -169.953E-03     332.318E-03    -161.948E-03     68.1956E-03
            1147     769.117E-06     136.254E-03    -123.091E+06    -195.775E+06    -120.861E+06    -2.90904E+06    -155.747E-03     311.961E-03    -156.213E-03     4.20748E-03    -155.844E-03     311.445E-03    -156.355E-03     4.32100E-03
            1148     1.54012E-03     136.262E-03    -119.590E+06    -184.523E+06    -111.095E+06    -5.91670E+06    -156.439E-03     312.503E-03    -156.065E-03     14.0273E-03    -156.601E-03     311.922E-03    -156.179E-03     14.0522E-03
            1149     2.30979E-03     136.285E-03    -114.184E+06    -169.752E+06    -96.3664E+06    -8.30130E+06    -156.937E-03     313.233E-03    -156.296E-03     20.7379E-03    -157.113E-03     312.683E-03    -156.366E-03     20.7549E-03
            1150     3.07820E-03     136.306E-03    -107.276E+06    -153.910E+06    -78.5605E+06    -10.1744E+06    -157.576E-03     314.144E-03    -156.568E-03     27.4549E-03    -157.771E-03     313.641E-03    -156.582E-03     27.4625E-03
            1151     3.84777E-03     136.342E-03    -99.0383E+06    -136.358E+06    -59.7764E+06    -12.3363E+06    -158.310E-03     315.179E-03    -156.869E-03     34.7209E-03    -158.519E-03     314.726E-03    -156.827E-03     34.6777E-03
            1152     4.61466E-03     136.381E-03    -90.2529E+06    -120.126E+06    -41.8814E+06    -14.3963E+06    -159.121E-03     316.311E-03    -157.190E-03     40.9454E-03    -159.336E-03     315.900E-03    -157.094E-03     40.8568E-03
            1153     5.38223E-03     136.430E-03    -81.4158E+06    -104.668E+06    -25.9070E+06    -15.5839E+06    -159.952E-03     317.472E-03    -157.520E-03     47.0561E-03    -160.172E-03     317.106E-03    -157.380E-03     46.9087E-03
            1154     6.15000E-03     136.481E-03    -72.8142E+06    -89.4405E+06    -11.7605E+06    -16.5151E+06    -160.775E-03     318.627E-03    -157.852E-03     52.4320E-03    -160.998E-03     318.308E-03    -157.676E-03     52.2174E-03
            1155     6.91615E-03     136.540E-03    -64.8203E+06    -76.3585E+06     423.379E+03    -17.0934E+06    -161.894E-03     320.095E-03    -158.201E-03     57.0075E-03    -162.118E-03     319.817E-03    -157.994E-03     56.7211E-03
            1156     7.68161E-03     136.602E-03    -57.1815E+06    -63.4656E+06     11.3783E+06    -16.9868E+06    -163.203E-03     321.787E-03    -158.584E-03     61.8702E-03    -163.433E-03     321.556E-03    -158.352E-03     61.4793E-03
            1157     8.44690E-03     136.672E-03    -50.1834E+06    -50.7713E+06     21.0212E+06    -16.5804E+06    -164.005E-03     322.982E-03    -158.976E-03     66.2938E-03    -164.245E-03     322.802E-03    -158.725E-03     65.7673E-03
            1158     9.21084E-03     136.743E-03    -43.6533E+06    -37.4943E+06     29.6551E+06    -15.8766E+06    -164.496E-03     323.839E-03    -159.343E-03     69.7376E-03    -164.750E-03     323.718E-03    -159.077E-03     69.0499E-03
            1159     9.97609E-03     136.821E-03    -37.6607E+06    -21.8253E+06     38.0301E+06    -14.6025E+06    -165.676E-03     325.379E-03    -159.703E-03     73.2535E-03    -165.954E-03     325.336E-03    -159.426E-03     72.3613E-03
            1160     10.7385E-03     136.902E-03    -32.1023E+06    -2.52664E+06     46.1900E+06    -13.3396E+06    -166.815E-03     326.897E-03    -160.082E-03     75.2814E-03    -167.127E-03     326.952E-03    -159.801E-03     74.1742E-03
            1161     11.5016E-03     136.985E-03    -26.8603E+06     20.2550E+06     55.1030E+06    -11.5112E+06    -167.490E-03     327.957E-03    -160.467E-03     77.2292E-03    -167.852E-03     328.136E-03    -160.182E-03     75.8313E-03
            1162     12.2640E-03     137.076E-03    -22.0818E+06     53.5961E+06     63.4937E+06    -10.0167E+06    -168.454E-03     329.290E-03    -160.836E-03     78.8109E-03    -168.889E-03     329.652E-03    -160.564E-03     77.0686E-03
            1163     13.0246E-03     137.166E-03    -16.4261E+06     87.4095E+06     73.4186E+06    -8.29043E+06    -169.251E-03     330.469E-03    -161.218E-03     79.4154E-03    -169.759E-03     331.017E-03    -160.954E-03     77.2991E-03
            1164     13.7860E-03     137.259E-03    -10.5753E+06     99.2926E+06     84.9216E+06    -5.74425E+06    -170.042E-03     331.688E-03    -161.647E-03     77.1046E-03    -170.595E-03     332.310E-03    -161.351E-03     74.5659E-03
            1165     14.5467E-03     137.348E-03    -5.55890E+06     99.9230E+06     97.5833E+06    -3.37271E+06    -171.913E-03     334.048E-03    -162.136E-03     72.4843E-03    -172.443E-03     334.631E-03    -161.784E-03     70.0602E-03
            1166     773.230E-06     137.547E-03    -121.825E+06    -185.889E+06    -119.990E+06    -3.86206E+06    -155.043E-03     308.962E-03    -153.919E-03     7.41613E-03    -155.136E-03     308.492E-03    -154.073E-03     7.44089E-03
            1167     1.54092E-03     137.557E-03    -118.327E+06    -174.674E+06    -109.238E+06    -6.28067E+06    -155.785E-03     310.514E-03    -154.729E-03     13.8187E-03    -155.953E-03     309.973E-03    -154.851E-03     13.8501E-03
            1168     2.31160E-03     137.577E-03    -112.820E+06    -161.865E+06    -93.9038E+06    -8.63902E+06    -155.450E-03     310.540E-03    -155.089E-03     21.4180E-03    -155.632E-03     310.022E-03    -155.161E-03     21.4371E-03
            1169     3.08246E-03     137.604E-03    -105.626E+06    -145.987E+06    -76.6125E+06    -10.8938E+06    -156.565E-03     311.900E-03    -155.335E-03     28.5705E-03    -156.766E-03     311.430E-03    -155.354E-03     28.5917E-03
            1170     3.85064E-03     137.639E-03    -97.8359E+06    -128.319E+06    -58.7704E+06    -13.1260E+06    -157.204E-03     312.869E-03    -155.665E-03     35.0984E-03    -157.416E-03     312.449E-03    -155.631E-03     35.1104E-03
            1171     4.62095E-03     137.680E-03    -90.0998E+06    -113.469E+06    -41.6063E+06    -14.8169E+06    -157.410E-03     313.361E-03    -155.951E-03     42.2121E-03    -157.629E-03     312.979E-03    -155.864E-03     42.1657E-03
            1172     5.38984E-03     137.729E-03    -82.2368E+06    -98.9452E+06    -26.0126E+06    -16.1996E+06    -158.291E-03     314.501E-03    -156.210E-03     49.1679E-03    -158.519E-03     314.161E-03    -156.078E-03     49.0599E-03
            1173     6.15741E-03     137.783E-03    -74.6470E+06    -84.8640E+06    -12.4737E+06    -16.9127E+06    -159.816E-03     316.346E-03    -156.530E-03     55.2292E-03    -160.048E-03     316.048E-03    -156.361E-03     55.0745E-03
            1174     6.92470E-03     137.843E-03    -67.7885E+06    -72.8392E+06    -982.050E+03    -17.0457E+06    -161.301E-03     318.228E-03    -156.926E-03     60.1687E-03    -161.536E-03     317.967E-03    -156.727E-03     59.9666E-03
            1175     7.69108E-03     137.908E-03    -61.3954E+06    -60.7691E+06     9.22274E+06    -17.1442E+06    -162.452E-03     319.809E-03    -157.358E-03     65.2009E-03    -162.697E-03     319.594E-03    -157.134E-03     64.9012E-03
            1176     8.45633E-03     137.979E-03    -55.0896E+06    -48.9075E+06     18.5042E+06    -16.8442E+06    -163.411E-03     321.201E-03    -157.790E-03     69.0158E-03    -163.663E-03     321.031E-03    -157.547E-03     68.6222E-03
            1177     9.22225E-03     138.052E-03    -49.1700E+06    -36.2636E+06     26.8730E+06    -16.2294E+06    -164.677E-03     322.905E-03    -158.227E-03     72.7607E-03    -164.946E-03     322.792E-03    -157.969E-03     72.2138E-03
            1178     9.98530E-03     138.132E-03    -43.1327E+06    -22.0464E+06     34.6593E+06    -15.3858E+06    -166.447E-03     325.144E-03    -158.696E-03     76.7022E-03    -166.739E-03     325.103E-03    -158.429E-03     75.9345E-03
            1179     10.7490E-03     138.216E-03    -37.1534E+06     -3.2141E+06     42.9548E+06    -13.9679E+06    -168.138E-03     327.349E-03    -159.211E-03     77.8929E-03    -168.456E-03     327.399E-03    -158.938E-03     76.9423E-03
            1180     11.5097E-03     138.301E-03    -31.2051E+06     17.2795E+06     51.3443E+06    -12.1105E+06    -169.369E-03     329.119E-03    -159.750E-03     79.6228E-03    -169.728E-03     329.279E-03    -159.473E-03     78.3864E-03
            1181     12.2704E-03     138.392E-03    -24.9247E+06     53.6094E+06     61.7800E+06    -10.7558E+06    -170.067E-03     330.333E-03    -160.267E-03     81.2718E-03    -170.500E-03     330.690E-03    -159.999E-03     79.6631E-03
            1182     13.0319E-03     138.486E-03    -18.7708E+06     87.0931E+06     73.3504E+06    -10.4050E+06    -171.108E-03     331.893E-03    -160.784E-03     81.1071E-03    -171.616E-03     332.431E-03    -160.517E-03     79.0834E-03
            1183     13.7910E-03     138.580E-03    -11.6879E+06     92.6647E+06     83.0839E+06    -8.13290E+06    -172.901E-03     334.260E-03    -161.359E-03     78.5785E-03    -173.438E-03     334.844E-03    -161.061E-03     76.0968E-03
            1184     14.5475E-03     138.673E-03    -4.74395E+06     93.8124E+06     95.4998E+06    -3.39132E+06    -174.546E-03     336.542E-03    -161.996E-03     74.2301E-03    -175.059E-03     337.094E-03    -161.648E-03     71.8336E-03
            1185     771.984E-06     138.838E-03    -119.656E+06    -175.692E+06    -117.632E+06    -3.82101E+06    -154.373E-03     307.167E-03    -152.794E-03     7.72045E-03    -154.486E-03     306.751E-03    -152.954E-03     7.77002E-03
            1186     1.54353E-03     138.851E-03    -117.207E+06    -165.548E+06    -108.540E+06    -5.73599E+06    -153.781E-03     307.394E-03    -153.613E-03     13.4235E-03    -153.960E-03     306.896E-03    -153.745E-03     13.5188E-03
            1187     2.31531E-03     138.865E-03    -112.680E+06    -153.451E+06    -93.7747E+06    -8.04830E+06    -154.222E-03     307.986E-03    -153.763E-03     22.9146E-03    -154.417E-03     307.510E-03    -153.846E-03     22.9428E-03
            1188     3.08566E-03     138.899E-03    -106.774E+06    -137.507E+06    -76.9354E+06    -10.3955E+06    -155.087E-03     309.085E-03    -153.998E-03     31.4665E-03    -155.306E-03     308.661E-03    -154.029E-03     31.4651E-03
            1189     3.85631E-03     138.932E-03    -100.184E+06    -121.241E+06    -59.9155E+06    -12.1332E+06    -155.864E-03     310.167E-03    -154.303E-03     37.2859E-03    -156.097E-03     309.788E-03    -154.282E-03     37.3397E-03
            1190     4.62611E-03     138.975E-03    -93.4034E+06    -106.811E+06    -43.4335E+06    -13.6179E+06    -155.907E-03     310.481E-03    -154.574E-03     43.7088E-03    -156.147E-03     310.136E-03    -154.501E-03     43.7631E-03
            1191     5.39714E-03     139.023E-03    -86.7315E+06    -93.1174E+06    -28.4425E+06    -14.9453E+06    -156.479E-03     311.267E-03    -154.787E-03     51.4377E-03    -156.731E-03     310.962E-03    -154.669E-03     51.4244E-03
            1192     6.16735E-03     139.082E-03    -80.1801E+06    -80.8520E+06    -15.3667E+06    -15.6158E+06    -158.320E-03     313.388E-03    -155.067E-03     58.5977E-03    -158.577E-03     313.118E-03    -154.911E-03     58.5326E-03
            1193     6.93490E-03     139.144E-03    -73.6251E+06    -69.2371E+06    -3.98454E+06    -15.9446E+06    -160.184E-03     315.651E-03    -155.468E-03     63.5136E-03    -160.442E-03     315.414E-03    -155.281E-03     63.4400E-03
            1194     7.70181E-03     139.211E-03    -67.0604E+06    -57.2683E+06     6.21183E+06    -16.3511E+06    -161.509E-03     317.438E-03    -155.929E-03     68.6530E-03    -161.774E-03     317.244E-03    -155.718E-03     68.4956E-03
            1195     8.46846E-03     139.284E-03    -60.4470E+06    -46.1714E+06     15.3116E+06    -16.7220E+06    -163.172E-03     319.594E-03    -156.423E-03     72.8137E-03    -163.441E-03     319.441E-03    -156.191E-03     72.5573E-03
            1196     9.23292E-03     139.359E-03    -53.6551E+06    -34.5343E+06     23.5319E+06    -16.8558E+06    -165.465E-03     322.444E-03    -156.980E-03     76.2728E-03    -165.742E-03     322.340E-03    -156.734E-03     75.8874E-03
            1197     9.99730E-03     139.443E-03    -46.7942E+06    -20.7304E+06     31.6117E+06    -16.7817E+06    -167.482E-03     325.084E-03    -157.602E-03     79.4542E-03    -167.775E-03     325.045E-03    -157.346E-03     78.8664E-03
            1198     10.7581E-03     139.529E-03    -39.4341E+06    -4.43812E+06     39.7797E+06    -15.9852E+06    -169.250E-03     327.509E-03    -158.259E-03     80.9052E-03    -169.560E-03     327.547E-03    -157.996E-03     80.1040E-03
            1199     11.5193E-03     139.619E-03    -31.6452E+06     15.9220E+06     48.9268E+06    -15.0342E+06    -171.127E-03     330.071E-03    -158.944E-03     82.3362E-03    -171.469E-03     330.216E-03    -158.676E-03     81.2339E-03
            1200     12.2788E-03     139.710E-03    -23.7751E+06     53.2439E+06     61.2001E+06    -13.3545E+06    -172.575E-03     332.213E-03    -159.638E-03     82.9420E-03    -172.988E-03     332.553E-03    -159.375E-03     81.4631E-03
            1201     13.0368E-03     139.806E-03    -16.7532E+06     85.9158E+06     73.4343E+06    -10.9804E+06    -173.967E-03     334.311E-03    -160.344E-03     82.6589E-03    -174.454E-03     334.831E-03    -160.077E-03     80.7373E-03
            1202     13.7936E-03     139.905E-03    -12.2002E+06     88.2037E+06     81.4575E+06    -9.94173E+06    -175.661E-03     336.751E-03    -161.090E-03     80.5846E-03    -176.184E-03     337.308E-03    -160.793E-03     78.1563E-03
            1203     14.5496E-03     140.001E-03    -6.41692E+06     85.0735E+06     92.2827E+06    -5.53902E+06    -176.856E-03     338.722E-03    -161.867E-03     76.0002E-03    -177.358E-03     339.236E-03    -161.519E-03     73.5845E-03
            1204     769.989E-06     140.126E-03    -124.005E+06    -167.647E+06    -121.242E+06    -2.56052E+06    -151.046E-03     305.129E-03    -154.083E-03     5.23190E-03    -151.178E-03     304.766E-03    -154.266E-03     5.38543E-03
            1205     1.54607E-03     140.134E-03    -121.275E+06    -157.972E+06    -112.237E+06    -4.12284E+06    -151.642E-03     304.005E-03    -152.363E-03     15.1703E-03    -151.848E-03     303.554E-03    -152.520E-03     15.2858E-03
            1206     2.31798E-03     140.157E-03    -117.290E+06    -145.641E+06    -98.2609E+06    -6.08686E+06    -153.010E-03     305.332E-03    -152.322E-03     23.4696E-03    -153.232E-03     304.907E-03    -152.432E-03     23.5987E-03
            1207     3.09121E-03     140.184E-03    -112.156E+06    -130.226E+06    -81.1616E+06    -7.94119E+06    -153.098E-03     305.628E-03    -152.530E-03     31.8970E-03    -153.344E-03     305.249E-03    -152.585E-03     32.0176E-03
            1208     3.86331E-03     140.226E-03    -106.200E+06    -115.156E+06    -63.4182E+06    -9.57621E+06    -153.521E-03     306.220E-03    -152.698E-03     38.9605E-03    -153.783E-03     305.879E-03    -152.694E-03     39.1160E-03
            1209     4.63411E-03     140.264E-03    -99.7254E+06    -101.069E+06     -46.962E+06    -10.8349E+06    -154.500E-03     307.411E-03    -152.911E-03     46.0413E-03    -154.772E-03     307.106E-03    -152.855E-03     46.2251E-03
            1210     5.40549E-03     140.315E-03    -93.3250E+06    -87.4401E+06    -32.0387E+06    -12.0922E+06    -155.635E-03     308.825E-03    -153.190E-03     54.4140E-03    -155.915E-03     308.556E-03    -153.088E-03     54.5446E-03
            1211     6.17614E-03     140.375E-03    -86.7836E+06    -76.1727E+06    -19.1071E+06    -13.5274E+06    -156.768E-03     310.281E-03    -153.513E-03     60.8679E-03    -157.049E-03     310.039E-03    -153.372E-03     60.9721E-03
            1212     6.94630E-03     140.442E-03    -79.7611E+06    -64.7730E+06    -7.64521E+06    -14.8508E+06    -158.346E-03     312.234E-03    -153.888E-03     66.3563E-03    -158.626E-03     312.022E-03    -153.716E-03     66.4396E-03
            1213     7.71446E-03     140.511E-03    -72.4634E+06    -52.5515E+06     2.76086E+06    -16.1967E+06    -160.496E-03     314.845E-03    -154.349E-03     71.5276E-03    -160.777E-03     314.674E-03    -154.154E-03     71.5457E-03
            1214     8.48162E-03     140.586E-03    -64.9589E+06    -42.3436E+06     11.8290E+06    -17.5197E+06    -163.208E-03     318.132E-03    -154.924E-03     76.7534E-03    -163.488E-03     317.997E-03    -154.709E-03     76.6432E-03
            1215     9.24614E-03     140.668E-03    -57.2570E+06    -30.8290E+06     20.4278E+06    -19.0167E+06    -166.353E-03     321.978E-03    -155.624E-03     80.6650E-03    -166.636E-03     321.888E-03    -155.394E-03     80.4048E-03
            1216     10.0071E-03     140.753E-03    -48.8869E+06    -18.2784E+06     28.9231E+06    -20.1196E+06    -168.577E-03     324.987E-03    -156.410E-03     83.1971E-03    -168.865E-03     324.952E-03    -156.167E-03     82.7347E-03
            1217     10.7700E-03     140.844E-03    -40.2371E+06    -3.72867E+06     37.4181E+06    -20.5814E+06    -170.628E-03     327.852E-03    -157.224E-03     85.1267E-03    -170.930E-03     327.890E-03    -156.973E-03     84.3910E-03
            1218     11.5293E-03     140.936E-03    -31.5804E+06     16.5843E+06     47.2619E+06    -20.1520E+06    -173.220E-03     331.297E-03    -158.077E-03     85.8635E-03    -173.552E-03     331.439E-03    -157.819E-03     84.8080E-03
            1219     12.2865E-03     141.033E-03    -23.4699E+06     49.2491E+06     58.6123E+06    -17.7025E+06    -175.585E-03     334.555E-03    -158.970E-03     85.7461E-03    -175.978E-03     334.870E-03    -158.715E-03     84.3187E-03
            1220     13.0426E-03     141.130E-03    -16.1214E+06     80.1062E+06     71.1655E+06    -13.6436E+06    -177.279E-03     337.169E-03    -159.891E-03     85.2296E-03    -177.744E-03     337.656E-03    -159.628E-03     83.3599E-03
            1221     13.7978E-03     141.234E-03    -9.62535E+06     84.8284E+06     82.3161E+06    -8.49722E+06    -178.070E-03     338.889E-03    -160.819E-03     82.8025E-03    -178.575E-03     339.423E-03    -160.517E-03     80.4362E-03
            1222     14.5516E-03     141.331E-03    -5.70797E+06     77.2091E+06     91.8306E+06    -5.45037E+06    -179.131E-03     340.858E-03    -161.727E-03     78.3829E-03    -179.622E-03     341.337E-03    -161.372E-03     75.9573E-03
            1223     774.938E-06     141.404E-03    -135.604E+06    -162.294E+06    -132.383E+06    -1.69141E+06    -148.854E-03     300.473E-03    -151.619E-03     7.07611E-03    -149.021E-03     300.166E-03    -151.849E-03     7.19962E-03
            1224     1.54793E-03     141.418E-03    -132.345E+06    -152.957E+06    -122.376E+06    -2.36993E+06    -151.643E-03     302.137E-03    -150.493E-03     17.2248E-03    -151.899E-03     301.740E-03    -150.691E-03     17.3432E-03
            1225     2.32181E-03     141.441E-03    -127.944E+06    -139.918E+06    -107.330E+06    -3.77231E+06    -151.488E-03     302.392E-03    -150.904E-03     23.8278E-03    -151.758E-03     302.023E-03    -151.052E-03     24.0745E-03
            1226     3.09381E-03     141.469E-03    -122.113E+06    -125.078E+06    -89.3904E+06    -5.06392E+06    -151.095E-03     302.132E-03    -151.037E-03     31.7879E-03    -151.383E-03     301.802E-03    -151.126E-03     32.0858E-03
            1227     3.86872E-03     141.508E-03    -115.615E+06    -109.933E+06    -70.4587E+06    -6.24969E+06    -150.945E-03     301.999E-03    -151.054E-03     39.3560E-03    -151.247E-03     301.705E-03    -151.079E-03     39.6931E-03
            1228     4.64436E-03     141.551E-03    -108.579E+06    -95.5720E+06    -52.7314E+06    -8.10066E+06    -152.585E-03     303.746E-03    -151.161E-03     47.1821E-03    -152.893E-03     303.482E-03    -151.129E-03     47.5498E-03
            1229     5.41545E-03     141.605E-03    -100.515E+06    -81.6487E+06    -36.9261E+06    -10.1422E+06    -154.635E-03     306.107E-03    -151.472E-03     55.9100E-03    -154.942E-03     305.874E-03    -151.392E-03     56.2462E-03
            1230     6.18564E-03     141.666E-03    -92.1308E+06    -70.1078E+06    -23.2384E+06    -12.2843E+06    -155.626E-03     307.495E-03    -151.869E-03     62.8583E-03    -155.925E-03     307.286E-03    -151.750E-03     63.1517E-03
            1231     6.95723E-03     141.732E-03    -83.9204E+06    -58.5604E+06    -11.2647E+06    -14.8154E+06    -157.171E-03     309.458E-03    -152.287E-03     68.7371E-03    -157.464E-03     309.278E-03    -152.137E-03     68.9818E-03
            1232     7.72739E-03     141.809E-03    -75.4056E+06    -46.3412E+06    -267.017E+03    -17.4489E+06    -159.845E-03     312.650E-03    -152.804E-03     73.0968E-03    -160.130E-03     312.504E-03    -152.629E-03     73.3085E-03
            1233     8.49404E-03     141.885E-03    -66.4656E+06    -36.2910E+06     9.50049E+06    -20.3179E+06    -162.909E-03     316.373E-03    -153.464E-03     78.9266E-03    -163.188E-03     316.260E-03    -153.268E-03     78.9754E-03
            1234     9.25895E-03     141.976E-03    -57.0281E+06    -24.7128E+06     19.1190E+06    -22.9360E+06    -166.011E-03     320.257E-03    -154.245E-03     84.1053E-03    -166.288E-03     320.188E-03    -154.031E-03     83.9360E-03
            1235     10.0223E-03     142.064E-03    -47.9984E+06    -13.8376E+06     27.8591E+06    -25.1164E+06    -169.366E-03     324.502E-03    -155.136E-03     86.8715E-03    -169.644E-03     324.480E-03    -154.907E-03     86.4799E-03
            1236     10.7816E-03     142.158E-03    -39.2922E+06    -1.44270E+06     36.3793E+06    -25.7288E+06    -172.680E-03     328.803E-03    -156.124E-03     89.1272E-03    -172.970E-03     328.844E-03    -155.883E-03     88.4485E-03
            1237     11.5396E-03     142.257E-03    -31.6889E+06     16.6965E+06     45.6636E+06    -24.7232E+06    -175.663E-03     332.846E-03    -157.182E-03     89.5423E-03    -175.985E-03     332.982E-03    -156.932E-03     88.5425E-03
            1238     12.2958E-03     142.356E-03    -24.8692E+06     44.0497E+06     55.5336E+06    -22.0945E+06    -178.374E-03     336.652E-03    -158.278E-03     89.2095E-03    -178.755E-03     336.941E-03    -158.028E-03     87.8105E-03
            1239     13.0489E-03     142.461E-03    -18.2272E+06     72.5221E+06     67.9573E+06    -16.8917E+06    -180.212E-03     339.608E-03    -159.396E-03     87.9651E-03    -180.665E-03     340.057E-03    -159.135E-03     86.1368E-03
            1240     13.8011E-03     142.562E-03    -11.6263E+06     76.4798E+06     78.2031E+06    -11.9933E+06    -181.081E-03     341.583E-03    -160.501E-03     84.6359E-03    -181.570E-03     342.075E-03    -160.204E-03     82.3060E-03
            1241     14.5547E-03     142.664E-03    -4.59812E+06     67.8259E+06     89.5978E+06    -6.01891E+06    -181.835E-03     343.408E-03    -161.573E-03     80.1609E-03    -182.303E-03     343.841E-03    -161.217E-03     77.7467E-03
            1242     779.744E-06     142.685E-03    -161.027E+06    -157.081E+06    -160.343E+06    -2.22168E+06    -150.278E-03     296.762E-03    -146.484E-03     10.1053E-03    -150.537E-03     296.575E-03    -146.825E-03     10.1648E-03
            1243     1.55026E-03     142.701E-03    -157.569E+06    -148.439E+06    -147.427E+06    -3.65645E+06    -150.506E-03     299.292E-03    -148.786E-03     15.8565E-03    -150.858E-03     298.994E-03    -149.080E-03     16.0807E-03
            1244     2.32398E-03     142.719E-03    -149.040E+06    -134.844E+06    -128.158E+06    -5.22934E+06    -149.393E-03     298.670E-03    -149.277E-03     24.5871E-03    -149.745E-03     298.388E-03    -149.506E-03     24.8836E-03
            1245     3.10079E-03     142.751E-03    -138.658E+06    -120.758E+06    -105.589E+06    -6.65615E+06    -149.321E-03     298.659E-03    -149.338E-03     32.5983E-03    -149.671E-03     298.395E-03    -149.490E-03     32.9840E-03
            1246     3.87550E-03     142.785E-03    -126.941E+06    -105.743E+06    -82.7955E+06    -7.87806E+06    -149.987E-03     299.407E-03    -149.421E-03     39.7737E-03    -150.329E-03     299.164E-03    -149.497E-03     40.2479E-03
            1247     4.64938E-03     142.833E-03    -114.992E+06    -89.8962E+06    -61.4018E+06    -9.18112E+06    -151.162E-03     300.769E-03    -149.607E-03     48.0283E-03    -151.490E-03     300.548E-03    -149.617E-03     48.5344E-03
            1248     5.42370E-03     142.890E-03    -104.220E+06    -75.8281E+06    -43.1086E+06    -11.0790E+06    -152.649E-03     302.548E-03    -149.899E-03     55.7185E-03    -152.965E-03     302.350E-03    -149.854E-03     56.2405E-03
            1249     6.19775E-03     142.952E-03    -93.9574E+06    -62.6917E+06    -27.6180E+06    -13.8024E+06    -154.692E-03     304.997E-03    -150.305E-03     62.6044E-03    -154.995E-03     304.824E-03    -150.215E-03     63.1110E-03
            1250     6.96791E-03     143.023E-03    -83.5971E+06    -50.2221E+06    -13.8252E+06    -17.3493E+06    -157.075E-03     307.909E-03    -150.834E-03     69.0395E-03    -157.361E-03     307.761E-03    -150.709E-03     69.4764E-03
            1251     7.73666E-03     143.100E-03    -72.9130E+06    -38.1395E+06    -1.26534E+06    -21.3034E+06    -159.593E-03     311.067E-03    -151.474E-03     74.1244E-03    -159.863E-03     310.947E-03    -151.320E-03     74.4770E-03
            1252     8.50460E-03     143.185E-03    -62.2705E+06    -27.7827E+06     9.90341E+06    -25.0408E+06    -162.444E-03     314.659E-03    -152.215E-03     79.8467E-03    -162.702E-03     314.569E-03    -152.035E-03     80.0217E-03
            1253     9.27065E-03     143.277E-03    -52.7973E+06    -18.2519E+06     19.6652E+06    -27.6464E+06    -165.720E-03     318.781E-03    -153.061E-03     84.6336E-03    -165.972E-03     318.724E-03    -152.860E-03     84.6009E-03
            1254     10.0341E-03     143.373E-03    -44.6670E+06    -8.43865E+06     28.8092E+06    -28.7363E+06    -169.757E-03     323.797E-03    -154.040E-03     87.2389E-03    -170.011E-03     323.779E-03    -153.819E-03     87.0146E-03
            1255     10.7936E-03     143.475E-03    -37.9408E+06     1.64818E+06     36.8972E+06    -29.2932E+06    -173.936E-03     329.094E-03    -155.158E-03     89.7857E-03    -174.207E-03     329.130E-03    -154.921E-03     89.2725E-03
            1256     11.5501E-03     143.577E-03    -31.0900E+06     15.9145E+06     45.1513E+06    -28.3014E+06    -177.619E-03     333.995E-03    -156.376E-03     91.2085E-03    -177.920E-03     334.112E-03    -156.129E-03     90.3581E-03
            1257     12.3034E-03     143.686E-03    -24.2763E+06     39.3757E+06     54.5629E+06    -24.9990E+06    -180.409E-03     338.046E-03    -157.637E-03     91.0030E-03    -180.764E-03     338.297E-03    -157.386E-03     89.7523E-03
            1258     13.0561E-03     143.791E-03    -17.3975E+06     63.5673E+06     66.4953E+06    -20.1937E+06    -182.429E-03     341.338E-03    -158.908E-03     89.7552E-03    -182.849E-03     341.729E-03    -158.643E-03     88.0476E-03
            1259     13.8076E-03     143.898E-03    -11.0517E+06     66.6938E+06     76.9785E+06    -14.0292E+06    -184.647E-03     344.838E-03    -160.191E-03     86.4394E-03    -185.103E-03     345.269E-03    -159.887E-03     84.2164E-03
            1260     14.5548E-03     144.000E-03    -6.06334E+06     56.9046E+06     87.7344E+06    -7.19669E+06    -184.615E-03     346.054E-03    -161.440E-03     79.9574E-03    -185.057E-03     346.423E-03    -161.075E-03     77.6158E-03
            1261     772.961E-06     143.964E-03    -201.279E+06    -146.848E+06    -199.169E+06    -4.95794E+06    -149.920E-03     294.517E-03    -144.597E-03     14.0602E-03    -150.310E-03     294.508E-03    -145.088E-03     14.0427E-03
            1262     1.55230E-03     143.975E-03    -193.949E+06    -137.537E+06    -183.676E+06    -9.63532E+06    -147.341E-03     294.579E-03    -147.238E-03     16.6834E-03    -147.828E-03     294.433E-03    -147.675E-03     16.8807E-03
            1263     2.32997E-03     143.997E-03    -182.355E+06    -125.247E+06    -161.194E+06    -14.0371E+06    -147.709E-03     295.080E-03    -147.371E-03     25.0209E-03    -148.189E-03     294.936E-03    -147.731E-03     25.2705E-03
            1264     3.10531E-03     144.024E-03    -166.806E+06    -112.407E+06    -134.457E+06    -17.7350E+06    -148.625E-03     296.234E-03    -147.610E-03     32.2951E-03    -149.080E-03     296.089E-03    -147.877E-03     32.6469E-03
            1265     3.88135E-03     144.065E-03    -148.699E+06    -98.6262E+06    -106.963E+06    -20.7354E+06    -149.666E-03     297.615E-03    -147.950E-03     39.1005E-03    -150.084E-03     297.466E-03    -148.126E-03     39.5587E-03
            1266     4.65598E-03     144.111E-03    -129.069E+06    -84.7753E+06    -80.4223E+06    -22.1687E+06    -150.523E-03     298.842E-03    -148.319E-03     47.3585E-03    -150.895E-03     298.687E-03    -148.411E-03     47.8513E-03
            1267     5.43100E-03     144.169E-03    -109.133E+06    -70.7454E+06    -55.5467E+06    -22.5208E+06    -151.946E-03     300.661E-03    -148.715E-03     54.3695E-03    -152.268E-03     300.505E-03    -148.732E-03     54.9206E-03
            1268     6.20324E-03     144.235E-03    -91.0030E+06    -55.9483E+06    -33.7488E+06    -23.3192E+06    -154.160E-03     303.364E-03    -149.204E-03     60.5033E-03    -154.437E-03     303.218E-03    -149.160E-03     61.1095E-03
            1269     6.97523E-03     144.311E-03    -75.5424E+06    -42.3394E+06    -15.2627E+06    -24.8680E+06    -156.451E-03     306.254E-03    -149.803E-03     67.0648E-03    -156.694E-03     306.123E-03    -149.708E-03     67.6274E-03
            1270     7.74533E-03     144.392E-03    -63.7969E+06    -30.3220E+06     -70.704E+03    -26.4069E+06    -159.115E-03     309.612E-03    -150.497E-03     73.6776E-03    -159.342E-03     309.506E-03    -150.361E-03     74.1236E-03
            1271     8.51287E-03     144.481E-03    -55.7681E+06    -19.8997E+06     12.0172E+06    -27.9207E+06    -162.559E-03     313.869E-03    -151.310E-03     79.6102E-03    -162.786E-03     313.793E-03    -151.140E-03     79.9055E-03
            1272     9.27810E-03     144.577E-03    -49.0097E+06    -10.4606E+06     22.4474E+06    -30.1383E+06    -166.478E-03     318.745E-03    -152.268E-03     84.3858E-03    -166.711E-03     318.703E-03    -152.069E-03     84.4915E-03
            1273     10.0396E-03     144.682E-03    -41.5811E+06    -3.04036E+06     31.5981E+06    -32.2026E+06    -170.348E-03     323.706E-03    -153.358E-03     87.0495E-03    -170.582E-03     323.691E-03    -153.135E-03     86.9598E-03
            1274     10.7999E-03     144.788E-03    -33.0802E+06     4.77958E+06     40.2619E+06    -32.8537E+06    -174.247E-03     328.802E-03    -154.555E-03     89.3644E-03    -174.485E-03     328.823E-03    -154.313E-03     89.0091E-03
            1275     11.5561E-03     144.901E-03    -25.1860E+06     14.0412E+06     48.0419E+06    -31.2088E+06    -178.204E-03     334.044E-03    -155.840E-03     91.3394E-03    -178.455E-03     334.117E-03    -155.584E-03     90.6857E-03
            1276     12.3101E-03     145.012E-03    -19.2778E+06     32.6396E+06     57.2400E+06    -25.8973E+06    -181.482E-03     338.668E-03    -157.186E-03     91.0261E-03    -181.779E-03     338.846E-03    -156.919E-03     90.0503E-03
            1277     13.0615E-03     145.124E-03    -15.7583E+06     56.8265E+06     68.6671E+06    -20.6528E+06    -184.219E-03     342.781E-03    -158.562E-03     89.8866E-03    -184.597E-03     343.106E-03    -158.278E-03     88.4312E-03
            1278     13.8100E-03     145.235E-03    -11.0688E+06     56.5763E+06     76.2153E+06    -15.8954E+06    -186.217E-03     346.159E-03    -159.943E-03     88.1869E-03    -186.648E-03     346.532E-03    -159.627E-03     86.0596E-03
            1279     14.5573E-03     145.347E-03    -4.27706E+06     43.2600E+06     86.7498E+06    -8.11581E+06    -186.362E-03     347.647E-03    -161.285E-03     80.6812E-03    -186.762E-03     347.934E-03    -160.908E-03     78.4434E-03
            1280     780.256E-06     145.230E-03    -201.390E+06    -126.669E+06    -198.150E+06    -8.04829E+06    -147.272E-03     291.613E-03    -144.341E-03     12.6295E-03    -147.669E-03     291.690E-03    -144.857E-03     12.6325E-03
            1281     1.55665E-03     145.248E-03    -194.080E+06    -117.162E+06    -183.304E+06    -15.9086E+06    -146.109E-03     291.937E-03    -145.827E-03     16.1053E-03    -146.620E-03     291.887E-03    -146.293E-03     16.2227E-03
            1282     2.33317E-03     145.265E-03    -183.767E+06    -105.801E+06    -162.975E+06    -23.4194E+06    -147.512E-03     293.683E-03    -146.171E-03     22.4753E-03    -148.020E-03     293.638E-03    -146.566E-03     22.6841E-03
            1283     3.10974E-03     145.301E-03    -171.102E+06    -94.8816E+06    -140.007E+06    -30.4236E+06    -148.464E-03     295.135E-03    -146.672E-03     29.7026E-03    -148.960E-03     295.094E-03    -146.986E-03     29.9605E-03
            1284     3.88388E-03     145.338E-03    -156.227E+06    -83.7240E+06    -116.305E+06    -36.1729E+06    -149.497E-03     296.666E-03    -147.169E-03     36.5567E-03    -149.961E-03     296.616E-03    -147.403E-03     36.8821E-03
            1285     4.65967E-03     145.389E-03    -139.700E+06    -74.0034E+06    -93.2644E+06     -40.736E+06    -150.856E-03     298.541E-03    -147.684E-03     43.7623E-03    -151.277E-03     298.473E-03    -147.841E-03     44.1264E-03
            1286     5.43276E-03     145.448E-03    -121.654E+06    -63.7699E+06    -71.4444E+06    -43.0851E+06    -152.274E-03     300.500E-03    -148.226E-03     50.8775E-03    -152.645E-03     300.420E-03    -148.315E-03     51.2726E-03
            1287     6.20622E-03     145.518E-03    -102.346E+06    -50.2266E+06    -49.1350E+06    -43.3232E+06    -154.055E-03     302.861E-03    -148.807E-03     57.5728E-03    -154.372E-03     302.780E-03    -148.831E-03     58.0054E-03
            1288     6.97767E-03     145.595E-03    -83.4434E+06    -38.8385E+06    -26.9392E+06    -41.8002E+06    -156.101E-03     305.557E-03    -149.455E-03     62.7421E-03    -156.371E-03     305.470E-03    -149.413E-03     63.2298E-03
            1289     7.74859E-03     145.681E-03    -66.0459E+06    -28.7719E+06    -5.92354E+06    -38.3656E+06    -158.947E-03     309.145E-03    -150.198E-03     68.9105E-03    -159.175E-03     309.054E-03    -150.090E-03     69.3870E-03
            1290     8.51683E-03     145.776E-03    -50.4461E+06    -16.4839E+06     13.1215E+06    -35.1514E+06    -162.802E-03     313.882E-03    -151.080E-03     74.6352E-03    -162.999E-03     313.804E-03    -150.917E-03     75.0615E-03
            1291     9.28104E-03     145.880E-03    -37.7782E+06    -4.97008E+06     28.8689E+06    -33.5145E+06    -166.434E-03     318.530E-03    -152.097E-03     79.9877E-03    -166.617E-03     318.478E-03    -151.890E-03     80.2806E-03
            1292     10.0436E-03     145.989E-03    -29.5917E+06     1.85823E+06     39.8296E+06    -33.0389E+06    -170.152E-03     323.363E-03    -153.211E-03     84.6584E-03    -170.332E-03     323.330E-03    -152.971E-03     84.7572E-03
            1293     10.8016E-03     146.103E-03    -25.8998E+06     7.85061E+06     47.2526E+06    -32.4791E+06    -173.934E-03     328.343E-03    -154.409E-03     88.1711E-03    -174.134E-03     328.342E-03    -154.146E-03     88.0320E-03
            1294     11.5589E-03     146.220E-03    -23.0858E+06     14.2149E+06     53.9028E+06    -31.3300E+06    -177.495E-03     333.172E-03    -155.677E-03     91.2246E-03    -177.727E-03     333.217E-03    -155.395E-03     90.7573E-03
            1295     12.3125E-03     146.340E-03    -17.5954E+06     24.6928E+06     61.5067E+06    -28.4404E+06    -181.491E-03     338.503E-03    -157.012E-03     91.8787E-03    -181.755E-03     338.615E-03    -156.714E-03     91.0634E-03
            1296     13.0630E-03     146.457E-03    -9.27679E+06     45.9292E+06     73.5003E+06    -20.8750E+06    -184.740E-03     343.147E-03    -158.406E-03     91.3735E-03    -185.057E-03     343.381E-03    -158.092E-03     90.1378E-03
            1297     13.8119E-03     146.576E-03    -4.56860E+06     47.4024E+06     80.3828E+06    -12.8370E+06    -185.792E-03     345.578E-03    -159.786E-03     89.0723E-03    -186.164E-03     345.869E-03    -159.446E-03     87.2080E-03
            1298     14.5632E-03     146.682E-03    -3.64259E+06     31.0318E+06     87.0546E+06    -6.80136E+06    -187.332E-03     348.470E-03    -161.137E-03     82.0483E-03    -187.698E-03     348.680E-03    -160.742E-03     79.9952E-03
            1299     776.022E-06     146.498E-03    -149.023E+06    -98.3557E+06    -146.648E+06    -9.80452E+06    -145.511E-03     292.609E-03    -147.098E-03     6.90484E-03    -145.813E-03     292.672E-03    -147.472E-03     6.99545E-03
            1300     1.55565E-03     146.515E-03    -144.335E+06    -90.0020E+06    -134.493E+06    -18.7585E+06    -147.213E-03     293.696E-03    -146.483E-03     12.3111E-03    -147.596E-03     293.650E-03    -146.816E-03     12.3525E-03
            1301     2.33179E-03     146.540E-03    -136.999E+06    -79.9720E+06    -117.695E+06    -26.9534E+06    -148.322E-03     295.278E-03    -146.955E-03     17.8118E-03    -148.707E-03     295.235E-03    -147.229E-03     17.9063E-03
            1302     3.10695E-03     146.572E-03    -128.787E+06    -70.3934E+06    -99.3274E+06    -34.4265E+06    -149.237E-03     296.710E-03    -147.473E-03     23.3964E-03    -149.623E-03     296.677E-03    -147.681E-03     23.5312E-03
            1303     3.88444E-03     146.613E-03    -120.300E+06    -61.8147E+06    -82.1930E+06    -41.3547E+06    -150.864E-03     298.901E-03    -148.037E-03     28.9130E-03    -151.239E-03     298.868E-03    -148.184E-03     29.0882E-03
            1304     4.65668E-03     146.667E-03    -111.734E+06    -54.6507E+06    -67.0636E+06    -47.3265E+06    -152.260E-03     300.925E-03    -148.665E-03     33.7500E-03    -152.618E-03     300.886E-03    -148.759E-03     33.9927E-03
            1305     5.43039E-03     146.727E-03    -102.974E+06    -48.4099E+06    -53.2652E+06    -52.6854E+06    -153.045E-03     302.309E-03    -149.265E-03     39.7433E-03    -153.385E-03     302.266E-03    -149.311E-03     39.9993E-03
            1306     6.20271E-03     146.800E-03    -93.2265E+06    -40.4232E+06    -39.3779E+06    -56.0451E+06    -154.280E-03     304.105E-03    -149.825E-03     46.0872E-03    -154.596E-03     304.061E-03    -149.828E-03     46.3586E-03
            1307     6.97359E-03     146.881E-03    -82.0093E+06    -34.7552E+06    -24.2254E+06    -56.2196E+06    -156.438E-03     306.881E-03    -150.443E-03     51.3054E-03    -156.721E-03     306.820E-03    -150.395E-03     51.6679E-03
            1308     7.74217E-03     146.968E-03    -69.0399E+06    -28.7151E+06    -7.87012E+06    -54.1214E+06    -159.305E-03     310.479E-03    -151.175E-03     58.1057E-03    -159.551E-03     310.402E-03    -151.072E-03     58.5084E-03
            1309     8.50842E-03     147.072E-03    -54.8543E+06    -18.0731E+06     9.24076E+06    -50.4495E+06    -162.055E-03     314.061E-03    -152.006E-03     64.6187E-03    -162.269E-03     313.989E-03    -151.854E-03     65.0302E-03
            1310     9.27361E-03     147.178E-03    -41.3574E+06    -7.75098E+06     26.1900E+06    -44.7810E+06    -164.802E-03     317.710E-03    -152.908E-03     70.5929E-03    -164.989E-03     317.647E-03    -152.706E-03     70.9860E-03
            1311     10.0369E-03     147.294E-03    -29.6989E+06    -1.30759E+06     41.8786E+06    -37.7126E+06    -168.139E-03     322.024E-03    -153.885E-03     77.0974E-03    -168.306E-03     321.960E-03    -153.631E-03     77.4032E-03
            1312     10.7985E-03     147.416E-03    -20.4861E+06     6.32756E+06     55.3450E+06    -30.7730E+06    -171.847E-03     326.794E-03    -154.946E-03     81.4728E-03    -172.011E-03     326.747E-03    -154.649E-03     81.6577E-03
            1313     11.5560E-03     147.537E-03    -14.8433E+06     17.1304E+06     65.1079E+06    -27.7692E+06    -175.398E-03     331.474E-03    -156.076E-03     85.8579E-03    -175.589E-03     331.484E-03    -155.754E-03     85.7386E-03
            1314     12.3121E-03     147.666E-03    -11.3992E+06     21.3018E+06     70.9082E+06    -27.0292E+06    -178.818E-03     336.079E-03    -157.261E-03     89.4324E-03    -179.037E-03     336.128E-03    -156.921E-03     88.9215E-03
            1315     13.0640E-03     147.791E-03    -8.97188E+06     32.2884E+06     77.5193E+06    -22.1386E+06    -182.219E-03     340.714E-03    -158.495E-03     91.0091E-03    -182.497E-03     340.850E-03    -158.141E-03     90.0308E-03
            1316     13.8148E-03     147.910E-03    -4.74960E+06     31.7714E+06     82.2336E+06    -11.3166E+06    -185.306E-03     345.086E-03    -159.780E-03     88.2301E-03    -185.625E-03     345.262E-03    -159.408E-03     86.7216E-03
            1317     14.5615E-03     148.022E-03    -73.1958E+03     20.7181E+06     89.6315E+06    -1.36171E+06    -187.403E-03     348.512E-03    -161.109E-03     82.9373E-03    -187.725E-03     348.648E-03    -160.691E-03     81.1131E-03
            1318     777.002E-06     147.775E-03    -89.3781E+06    -68.1898E+06    -86.1815E+06    -10.2158E+06    -145.353E-03     299.849E-03    -154.496E-03     4.61151E-03    -145.514E-03     299.911E-03    -154.698E-03     4.62668E-03
            1319     1.54975E-03     147.786E-03    -85.2248E+06    -60.6378E+06    -76.4482E+06    -18.5536E+06    -151.199E-03     301.388E-03    -150.189E-03     8.30037E-03    -151.428E-03     301.328E-03    -150.360E-03     8.15836E-03
            1320     2.32485E-03     147.818E-03    -80.3847E+06    -53.2919E+06    -61.7321E+06    -26.1552E+06    -152.054E-03     302.828E-03    -150.774E-03     8.49541E-03    -152.287E-03     302.763E-03    -150.888E-03     8.42187E-03
            1321     3.09979E-03     147.847E-03    -73.6290E+06    -45.7919E+06    -45.7309E+06    -32.7924E+06    -153.192E-03     304.558E-03    -151.367E-03     9.98950E-03    -153.427E-03     304.500E-03    -151.422E-03     9.94718E-03
            1322     3.86930E-03     147.897E-03    -66.4263E+06    -38.8911E+06    -30.5103E+06    -38.5008E+06    -154.265E-03     306.253E-03    -151.988E-03     12.5760E-03    -154.496E-03     306.197E-03    -151.988E-03     12.5447E-03
            1323     4.64132E-03     147.947E-03    -60.0584E+06    -33.5120E+06    -17.2990E+06    -43.4582E+06    -154.902E-03     307.479E-03    -152.577E-03     14.6192E-03    -155.125E-03     307.418E-03    -152.528E-03     14.6466E-03
            1324     5.41143E-03     148.011E-03    -54.9560E+06    -28.8675E+06    -6.11018E+06    -47.7505E+06    -155.334E-03     308.431E-03    -153.096E-03     18.0607E-03    -155.555E-03     308.369E-03    -153.005E-03     18.1410E-03
            1325     6.18166E-03     148.083E-03    -51.7534E+06    -25.6116E+06     2.31417E+06    -50.9175E+06    -155.382E-03     308.911E-03    -153.528E-03     22.5588E-03    -155.602E-03     308.847E-03    -153.405E-03     22.7062E-03
            1326     6.95259E-03     148.167E-03    -50.0528E+06    -24.0959E+06     8.29417E+06    -52.7311E+06    -156.224E-03     310.139E-03    -153.915E-03     28.3769E-03    -156.439E-03     310.066E-03    -153.766E-03     28.6006E-03
            1327     7.72077E-03     148.261E-03    -48.8946E+06    -22.0846E+06     13.9547E+06    -53.7090E+06    -157.915E-03     312.257E-03    -154.342E-03     36.2618E-03    -158.128E-03     312.179E-03    -154.170E-03     36.5368E-03
            1328     8.48836E-03     148.365E-03    -47.4738E+06    -16.5968E+06     21.4176E+06    -52.8649E+06    -159.428E-03     314.253E-03    -154.826E-03     44.1677E-03    -159.647E-03     314.184E-03    -154.626E-03     44.5043E-03
            1329     9.25510E-03     148.476E-03    -44.4655E+06    -11.1920E+06     30.9804E+06    -49.8484E+06    -161.403E-03     316.764E-03    -155.361E-03     51.8428E-03    -161.623E-03     316.697E-03    -155.125E-03     52.2342E-03
            1330     10.0194E-03     148.596E-03    -38.3824E+06    -7.96509E+06     42.3073E+06    -44.8194E+06    -164.258E-03     320.239E-03    -155.981E-03     60.0172E-03    -164.464E-03     320.159E-03    -155.702E-03     60.4198E-03
            1331     10.7816E-03     148.723E-03    -29.1003E+06    -3.41968E+06     54.4174E+06    -37.9354E+06    -167.265E-03     323.960E-03    -156.694E-03     65.8480E-03    -167.448E-03     323.870E-03    -156.375E-03     66.2720E-03
            1332     11.5421E-03     148.853E-03    -19.8330E+06     11.8125E+06     68.7113E+06    -29.5097E+06    -170.119E-03     327.598E-03    -157.479E-03     72.2432E-03    -170.308E-03     327.560E-03    -157.123E-03     72.5487E-03
            1333     12.2998E-03     148.984E-03    -14.1798E+06     18.0806E+06     79.9150E+06    -22.3171E+06    -173.049E-03     331.372E-03    -158.323E-03     78.5259E-03    -173.257E-03     331.362E-03    -157.929E-03     78.5182E-03
            1334     13.0589E-03     149.116E-03    -11.6327E+06     24.8452E+06     85.6957E+06    -17.3184E+06    -176.999E-03     336.226E-03    -159.228E-03     82.0716E-03    -177.250E-03     336.277E-03    -158.818E-03     81.5959E-03
            1335     13.8115E-03     149.246E-03    -11.4663E+06     13.7214E+06     81.3415E+06    -9.79109E+06    -181.263E-03     341.493E-03    -160.230E-03     81.8219E-03    -181.540E-03     341.543E-03    -159.827E-03     80.8129E-03
            1336     14.5604E-03     149.364E-03    -8.45616E+06     7.89581E+06     83.5469E+06    -1.78277E+06    -182.658E-03     343.955E-03    -161.297E-03     79.7819E-03    -182.959E-03     344.013E-03    -160.879E-03     78.3236E-03
            1337     769.485E-06     149.051E-03    -32.0396E+06    -38.8983E+06    -29.4473E+06    -9.38205E+06    -158.152E-03     316.395E-03    -158.243E-03     3.28195E-03    -157.975E-03     316.480E-03    -158.288E-03     2.98844E-03
            1338     1.54021E-03     149.082E-03    -29.4504E+06    -34.0765E+06    -21.2119E+06    -16.2343E+06    -160.147E-03     318.740E-03    -158.592E-03    -1.59848E-03    -160.232E-03     318.649E-03    -158.606E-03    -1.88333E-03
            1339     2.30610E-03     149.103E-03    -26.0288E+06    -28.7226E+06    -9.48879E+06    -22.4699E+06    -160.757E-03     320.200E-03    -159.443E-03    -7.76262E-03    -160.839E-03     320.106E-03    -159.411E-03    -7.98495E-03
            1340     3.07106E-03     149.144E-03    -22.4705E+06    -24.0270E+06     3.07722E+06    -27.6598E+06    -160.476E-03     320.492E-03    -160.017E-03    -9.37677E-03    -160.567E-03     320.402E-03    -159.934E-03    -9.65814E-03
            1341     3.83899E-03     149.187E-03    -19.2321E+06    -19.8896E+06     15.0092E+06    -31.5583E+06    -160.021E-03     320.397E-03    -160.375E-03    -10.1743E-03    -160.119E-03     320.304E-03    -160.243E-03    -10.4840E-03
            1342     4.60544E-03     149.243E-03    -17.1234E+06    -16.6736E+06     25.2921E+06    -34.3816E+06    -160.118E-03     320.777E-03    -160.659E-03    -10.8059E-03    -160.224E-03     320.682E-03    -160.483E-03    -11.1147E-03
            1343     5.37136E-03     149.306E-03    -16.5172E+06    -13.8578E+06     33.5570E+06    -35.9600E+06    -159.870E-03     320.793E-03    -160.923E-03    -11.9939E-03    -159.990E-03     320.701E-03    -160.712E-03    -12.2111E-03
            1344     6.13800E-03     149.377E-03    -17.0019E+06    -12.4930E+06     39.8451E+06    -36.9261E+06    -158.532E-03     319.623E-03    -161.091E-03    -11.3066E-03    -158.668E-03     319.533E-03    -160.849E-03    -11.4270E-03
            1345     6.90435E-03     149.459E-03    -17.9233E+06    -12.5211E+06     44.8073E+06    -37.7184E+06    -156.818E-03     317.925E-03    -161.108E-03    -7.85204E-03    -156.965E-03     317.831E-03    -160.840E-03    -7.90263E-03
            1346     7.67371E-03     149.553E-03    -19.4559E+06    -12.0826E+06     49.1825E+06    -38.1753E+06    -155.675E-03     316.692E-03    -161.017E-03    -2.16816E-03    -155.835E-03     316.595E-03    -160.725E-03    -2.14763E-03
            1347     8.44209E-03     149.659E-03    -21.2676E+06    -10.7603E+06     53.3566E+06    -38.1481E+06    -155.787E-03     316.706E-03    -160.918E-03     3.87168E-03    -155.962E-03     316.611E-03    -160.605E-03     4.00799E-03
            1348     9.21005E-03     149.771E-03    -23.3925E+06    -8.79616E+06     57.2369E+06    -37.2333E+06    -156.412E-03     317.289E-03    -160.878E-03     9.96175E-03    -156.604E-03     317.200E-03    -160.545E-03     10.2502E-03
            1349     9.97779E-03     149.895E-03    -25.8876E+06    -7.30401E+06     60.6618E+06    -35.8120E+06    -156.790E-03     317.667E-03    -160.877E-03     18.3634E-03    -156.995E-03     317.580E-03    -160.526E-03     18.7565E-03
            1350     10.7437E-03     150.026E-03    -28.2582E+06    -5.82428E+06     64.0399E+06    -34.1779E+06    -157.402E-03     318.286E-03    -160.884E-03     27.8840E-03    -157.617E-03     318.199E-03    -160.514E-03     28.3511E-03
            1351     11.5091E-03     150.158E-03    -27.1155E+06     873.896E+03     71.4188E+06    -29.3487E+06    -158.780E-03     319.695E-03    -160.916E-03     38.6071E-03    -159.004E-03     319.624E-03    -160.520E-03     39.1035E-03
            1352     12.2752E-03     150.295E-03    -22.3524E+06     8.49866E+06     80.8915E+06    -21.1111E+06    -161.500E-03     322.516E-03    -161.016E-03     51.0154E-03    -161.725E-03     322.463E-03    -160.592E-03     51.4209E-03
            1353     13.0339E-03     150.433E-03    -15.8811E+06     17.1749E+06     87.5533E+06    -14.5754E+06    -165.099E-03     326.308E-03    -161.209E-03     63.4450E-03    -165.323E-03     326.287E-03    -160.773E-03     63.5999E-03
            1354     13.7927E-03     150.571E-03    -7.13661E+06    -480.350E+03     84.2252E+06    -7.21791E+06    -168.516E-03     330.013E-03    -161.498E-03     72.5576E-03    -168.697E-03     329.927E-03    -161.066E-03     72.2561E-03
            1355     14.5517E-03     150.694E-03       359.8E+03     552.133E+03     82.4431E+06    -2.33204E+06    -170.290E-03     332.125E-03    -161.835E-03     75.3859E-03    -170.472E-03     332.072E-03    -161.424E-03     74.6248E-03
            1356     760.098E-06     150.371E-03     19.8668E+06    -15.0688E+06     22.2470E+06    -6.15334E+06    -176.811E-03     347.622E-03    -170.811E-03    -6.40725E-03    -176.406E-03     347.908E-03    -170.706E-03    -6.44909E-03
            1357     1.51425E-03     150.398E-03     19.9627E+06    -13.3947E+06     27.9253E+06    -10.4103E+06    -174.556E-03     348.685E-03    -174.129E-03    -16.7882E-03    -174.503E-03     348.548E-03    -173.999E-03    -17.0516E-03
            1358     2.27149E-03     150.427E-03     19.8310E+06    -10.5973E+06     35.7403E+06    -13.8639E+06    -172.916E-03     347.312E-03    -174.395E-03    -25.4893E-03    -172.865E-03     347.170E-03    -174.230E-03    -25.8109E-03
            1359     3.02948E-03     150.461E-03     18.8241E+06    -8.42507E+06     44.4706E+06    -16.2561E+06    -171.730E-03     346.041E-03    -174.311E-03    -32.5035E-03    -171.698E-03     345.896E-03    -174.103E-03    -32.8733E-03
            1360     3.78772E-03     150.505E-03     16.9417E+06    -6.99233E+06     52.6426E+06    -17.8365E+06    -170.107E-03     344.254E-03    -174.147E-03    -38.1722E-03    -170.093E-03     344.102E-03    -173.898E-03    -38.5839E-03
            1361     4.54602E-03     150.560E-03     14.8138E+06    -5.92948E+06     60.0932E+06    -18.5137E+06    -168.811E-03     342.763E-03    -173.952E-03    -43.1683E-03    -168.818E-03     342.610E-03    -173.664E-03    -43.5886E-03
            1362     5.30434E-03     150.622E-03     12.7977E+06    -5.08960E+06     66.9743E+06    -18.6990E+06    -167.253E-03     341.004E-03    -173.751E-03    -48.4374E-03    -167.281E-03     340.850E-03    -173.427E-03    -48.8079E-03
            1363     6.06259E-03     150.690E-03     10.5626E+06    -4.46015E+06     73.3059E+06    -18.6488E+06    -165.175E-03     338.676E-03    -173.502E-03    -52.5746E-03    -165.225E-03     338.520E-03    -173.144E-03    -52.8902E-03
            1364     6.82433E-03     150.767E-03     8.12239E+06    -4.90048E+06     78.7434E+06    -18.6637E+06    -162.182E-03     335.341E-03    -173.159E-03    -55.5298E-03    -162.257E-03     335.181E-03    -172.770E-03    -55.7792E-03
            1365     7.58691E-03     150.855E-03     5.50746E+06    -4.85002E+06     82.9082E+06    -18.6684E+06    -158.572E-03     331.263E-03    -172.691E-03    -57.6943E-03    -158.671E-03     331.106E-03    -172.277E-03    -57.8696E-03
            1366     8.35298E-03     150.957E-03     2.24855E+06    -4.56122E+06     85.3535E+06    -18.4404E+06    -154.957E-03     327.063E-03    -172.107E-03    -58.3564E-03    -155.079E-03     326.916E-03    -171.676E-03    -58.4478E-03
            1367     9.11798E-03     151.071E-03    -631.402E+03    -4.71841E+06     87.2798E+06    -17.6235E+06    -151.738E-03     323.171E-03    -171.433E-03    -56.9163E-03    -151.875E-03     323.029E-03    -170.989E-03    -56.9191E-03
            1368     9.88445E-03     151.188E-03    -3.06074E+06    -3.79689E+06     89.3410E+06    -16.6797E+06    -147.788E-03     318.430E-03    -170.643E-03    -52.9958E-03    -147.939E-03     318.295E-03    -170.186E-03    -52.9207E-03
            1369     10.6572E-03     151.316E-03    -4.87863E+06    -2.83599E+06     90.7520E+06    -16.1327E+06    -143.765E-03     313.462E-03    -169.697E-03    -45.9113E-03    -143.926E-03     313.332E-03    -169.232E-03    -45.7704E-03
            1370     11.4322E-03     151.449E-03    -7.22000E+06    -1.94284E+06     89.6013E+06    -15.7691E+06    -141.587E-03     310.237E-03    -168.650E-03    -36.6486E-03    -141.755E-03     310.117E-03    -168.189E-03    -36.4287E-03
            1371     12.2063E-03     151.586E-03    -9.28911E+06     944.586E+03     87.9784E+06    -13.4607E+06    -139.928E-03     307.489E-03    -167.561E-03    -23.4171E-03    -140.099E-03     307.384E-03    -167.109E-03    -23.1404E-03
            1372     12.9859E-03     151.731E-03    -9.77239E+06     11.4653E+06     88.5114E+06    -8.80616E+06    -137.833E-03     304.225E-03    -166.392E-03    -4.59733E-03    -138.013E-03     304.168E-03    -165.952E-03    -4.36459E-03
            1373     13.7647E-03     151.871E-03    -5.76757E+06    -9.31963E+06     76.2198E+06    -5.34673E+06    -136.891E-03     301.985E-03    -165.095E-03     18.1969E-03    -137.009E-03     301.848E-03    -164.692E-03     18.1644E-03
            1374     14.5398E-03     152.004E-03     958.658E+03    -5.05111E+06     64.3832E+06    -3.28813E+06    -135.513E-03     299.165E-03    -163.653E-03     41.2511E-03    -135.604E-03     299.072E-03    -163.325E-03     40.9548E-03
            1375     14.5055E-03     75.5165E-03    -950.359E+03     79.4601E+06     88.9829E+06     43.2790E+03    -164.818E-03     329.394E-03    -164.577E-03     61.8053E-03    -165.235E-03     329.832E-03    -164.245E-03     59.4475E-03
            1376     13.7473E-03     75.4382E-03    -8.61036E+06     71.9246E+06     83.9017E+06     2.45625E+06    -166.217E-03     330.770E-03    -164.552E-03     65.8625E-03    -166.682E-03     331.215E-03    -164.224E-03     63.3852E-03
            1377     12.9853E-03     75.3489E-03    -13.4418E+06     67.4786E+06     76.1540E+06     1.54061E+06    -165.521E-03     330.011E-03    -164.490E-03     67.7261E-03    -165.996E-03     330.457E-03    -164.188E-03     65.2897E-03
            1378     12.2192E-03     75.2670E-03    -22.8216E+06     52.7727E+06     62.6009E+06    -1.77986E+06    -164.447E-03     328.921E-03    -164.474E-03     67.6270E-03    -164.921E-03     329.320E-03    -164.205E-03     65.2686E-03
            1379     11.4558E-03     75.1820E-03    -33.5333E+06     37.5981E+06     49.3977E+06    -38.7574E+03    -164.281E-03     328.788E-03    -164.507E-03     67.8125E-03    -164.737E-03     329.115E-03    -164.266E-03     65.8292E-03
            1380     10.6914E-03     75.0990E-03    -34.1501E+06     33.8747E+06     43.4359E+06     1.03246E+06    -164.513E-03     329.061E-03    -164.548E-03     64.4066E-03    -164.924E-03     329.345E-03    -164.331E-03     62.7294E-03
            1381     9.92548E-03     75.0171E-03    -37.3559E+06     26.9778E+06     37.6678E+06     1.75465E+06    -164.508E-03     329.098E-03    -164.590E-03     59.8051E-03    -164.896E-03     329.340E-03    -164.387E-03     58.2915E-03
            1382     9.16253E-03     74.9386E-03    -45.7125E+06     11.1609E+06     28.2366E+06     1.11113E+06    -164.265E-03     328.909E-03    -164.644E-03     57.0140E-03    -164.636E-03     329.075E-03    -164.453E-03     55.7241E-03
            1383     8.39720E-03     74.8714E-03    -56.4496E+06    -19.5505E+06     11.8705E+06    -289.343E+03    -164.322E-03     329.025E-03    -164.703E-03     55.2396E-03    -164.653E-03     329.052E-03    -164.533E-03     54.2562E-03
            1384     7.63274E-03     74.8018E-03    -59.0591E+06    -46.5295E+06     4.68452E+06    -456.551E+03    -164.856E-03     329.628E-03    -164.772E-03     51.9070E-03    -165.133E-03     329.517E-03    -164.596E-03     51.1243E-03
            1385     6.87062E-03     74.7386E-03    -59.4487E+06    -66.2639E+06     500.919E+03    -397.450E+03    -165.142E-03     329.942E-03    -164.800E-03     46.0815E-03    -165.370E-03     329.722E-03    -164.615E-03     45.4260E-03
            1386     6.10700E-03     74.6826E-03    -67.6132E+06    -88.2356E+06    -14.4518E+06     695.434E+03    -165.232E-03     329.985E-03    -164.753E-03     41.1093E-03    -165.431E-03     329.673E-03    -164.599E-03     40.6441E-03
            1387     5.34453E-03     74.6308E-03    -77.1216E+06    -111.982E+06    -29.8038E+06     1.07342E+06    -165.108E-03     329.800E-03    -164.692E-03     36.9330E-03    -165.290E-03     329.397E-03    -164.567E-03     36.6355E-03
            1388     4.58087E-03     74.5852E-03    -82.9315E+06    -128.304E+06    -41.9649E+06     2.23511E+06    -164.712E-03     329.362E-03    -164.650E-03     32.1036E-03    -164.868E-03     328.891E-03    -164.554E-03     31.9281E-03
            1389     3.81668E-03     74.5472E-03    -87.1782E+06    -144.784E+06    -57.1851E+06     2.98177E+06    -164.508E-03     329.139E-03    -164.630E-03     27.0402E-03    -164.624E-03     328.598E-03    -164.580E-03     26.9448E-03
            1390     3.05320E-03     74.5157E-03    -95.4413E+06    -166.320E+06    -74.1030E+06    -777.722E+03    -164.548E-03     329.177E-03    -164.629E-03     21.8195E-03    -164.645E-03     328.560E-03    -164.620E-03     21.7173E-03
            1391     2.29017E-03     74.4899E-03    -101.348E+06    -178.655E+06    -85.2601E+06    -1.64205E+06    -164.561E-03     329.196E-03    -164.635E-03     16.0041E-03    -164.644E-03     328.534E-03    -164.656E-03     15.9562E-03
            1392     1.52629E-03     74.4741E-03    -106.407E+06    -191.011E+06    -96.7754E+06    -357.461E+03    -164.638E-03     329.261E-03    -164.622E-03     10.5880E-03    -164.709E-03     328.566E-03    -164.675E-03     10.5878E-03
            1393     762.896E-06     74.4610E-03    -110.408E+06    -207.154E+06    -108.369E+06    -453.303E+03    -164.875E-03     329.292E-03    -164.417E-03     7.37340E-03    -164.874E-03     328.582E-03    -164.499E-03     7.34281E-03
            1394     14.5141E-03     74.1988E-03    -2.14415E+06     77.4051E+06     87.0519E+06    -286.787E+03    -164.683E-03     329.195E-03    -164.512E-03     61.5867E-03    -165.097E-03     329.624E-03    -164.186E-03     59.2515E-03
            1395     13.7467E-03     74.1186E-03    -4.75976E+06     75.1240E+06     86.8456E+06     5.41570E+06    -164.734E-03     329.276E-03    -164.542E-03     67.0480E-03    -165.180E-03     329.719E-03    -164.209E-03     64.7404E-03
            1396     12.9820E-03     74.0321E-03    -12.8272E+06     68.1365E+06     79.2693E+06     5.04829E+06    -164.892E-03     329.445E-03    -164.553E-03     68.7556E-03    -165.378E-03     329.898E-03    -164.237E-03     66.3366E-03
            1397     12.2190E-03     73.9521E-03    -20.4119E+06     54.5733E+06     66.4066E+06     2.12208E+06    -164.898E-03     329.442E-03    -164.545E-03     67.3161E-03    -165.370E-03     329.844E-03    -164.262E-03     64.9689E-03
            1398     11.4530E-03     73.8656E-03    -24.7322E+06     39.6354E+06     53.5086E+06     165.497E+03    -165.156E-03     329.684E-03    -164.528E-03     67.0538E-03    -165.577E-03     330.003E-03    -164.282E-03     65.0269E-03
            1399     10.6902E-03     73.7801E-03    -31.9658E+06     29.5047E+06     43.7537E+06    -316.358E+03    -164.994E-03     329.517E-03    -164.524E-03     65.0985E-03    -165.392E-03     329.780E-03    -164.301E-03     63.3692E-03
            1400     9.93005E-03     73.6997E-03    -39.0125E+06     24.9558E+06     36.6147E+06     1.64985E+06    -164.254E-03     328.810E-03    -164.557E-03     62.1553E-03    -164.642E-03     329.042E-03    -164.353E-03     60.7217E-03
            1401     9.16237E-03     73.6274E-03    -46.9830E+06     11.8024E+06     27.5106E+06     2.09410E+06    -164.019E-03     328.650E-03    -164.631E-03     57.9684E-03    -164.394E-03     328.820E-03    -164.443E-03     56.7507E-03
            1402     8.39745E-03     73.5533E-03    -48.5567E+06    -11.1018E+06     21.7017E+06    -246.175E+03    -164.783E-03     329.489E-03    -164.706E-03     54.0196E-03    -165.100E-03     329.532E-03    -164.511E-03     53.0075E-03
            1403     7.63512E-03     73.4843E-03    -55.6775E+06    -42.3174E+06     8.42280E+06    -1.36902E+06    -165.106E-03     329.822E-03    -164.716E-03     50.1267E-03    -165.375E-03     329.719E-03    -164.532E-03     49.2629E-03
            1404     6.87074E-03     73.4205E-03    -68.7221E+06    -75.3446E+06    -8.29299E+06    -1.13817E+06    -165.069E-03     329.765E-03    -164.697E-03     45.5277E-03    -165.317E-03     329.526E-03    -164.529E-03     44.8541E-03
            1405     6.10812E-03     73.3648E-03    -68.1954E+06    -89.8163E+06    -13.4106E+06    -1.02037E+06    -165.112E-03     329.786E-03    -164.674E-03     41.1587E-03    -165.311E-03     329.464E-03    -164.512E-03     40.6478E-03
            1406     5.34428E-03     73.3130E-03    -71.9888E+06    -108.197E+06    -26.0547E+06    -428.648E+03    -164.892E-03     329.517E-03    -164.625E-03     36.9175E-03    -165.055E-03     329.115E-03    -164.494E-03     36.5709E-03
            1407     4.58074E-03     73.2691E-03    -80.9981E+06    -130.451E+06    -41.0652E+06    -1.03756E+06    -164.693E-03     329.282E-03    -164.590E-03     31.6916E-03    -164.838E-03     328.797E-03    -164.488E-03     31.4625E-03
            1408     3.81742E-03     73.2302E-03    -87.0407E+06    -144.067E+06    -52.7672E+06    -77.8511E+03    -164.628E-03     329.186E-03    -164.558E-03     26.2779E-03    -164.755E-03     328.646E-03    -164.487E-03     26.1297E-03
            1409     3.05408E-03     73.1982E-03    -94.3014E+06    -163.449E+06    -69.5123E+06     638.183E+03    -164.502E-03     329.018E-03    -164.516E-03     20.9303E-03    -164.606E-03     328.409E-03    -164.490E-03     20.8501E-03
            1410     2.29013E-03     73.1739E-03    -101.773E+06    -180.806E+06    -85.8187E+06    -118.599E+03    -164.432E-03     328.921E-03    -164.489E-03     15.6253E-03    -164.515E-03     328.252E-03    -164.509E-03     15.5959E-03
            1411     1.52732E-03     73.1558E-03    -105.347E+06    -191.942E+06    -96.6634E+06     316.649E+03    -164.666E-03     329.081E-03    -164.415E-03     10.7237E-03    -164.730E-03     328.380E-03    -164.467E-03     10.7384E-03
            1412     764.362E-06     73.1455E-03    -105.135E+06    -205.238E+06    -103.364E+06    -772.088E+03    -164.685E-03     328.793E-03    -164.108E-03     7.01322E-03    -164.669E-03     328.070E-03    -164.175E-03     6.97756E-03
            1413     14.5100E-03     72.8856E-03    -4.75079E+06     74.4466E+06     82.0569E+06     1.59556E+06    -164.303E-03     328.763E-03    -164.460E-03     62.9271E-03    -164.716E-03     329.186E-03    -164.151E-03     60.6942E-03
            1414     13.7460E-03     72.8037E-03    -12.9205E+06     67.2091E+06     78.2411E+06     2.20850E+06    -164.094E-03     328.609E-03    -164.515E-03     66.6641E-03    -164.559E-03     329.039E-03    -164.202E-03     64.3040E-03
            1415     12.9815E-03     72.7151E-03    -11.0825E+06     69.3459E+06     78.6033E+06     755.067E+03    -164.224E-03     328.796E-03    -164.572E-03     66.4966E-03    -164.697E-03     329.248E-03    -164.263E-03     64.0269E-03
            1416     12.2173E-03     72.6335E-03    -9.47594E+06     59.9002E+06     74.2665E+06     2.26099E+06    -164.989E-03     329.594E-03    -164.605E-03     67.3804E-03    -165.421E-03     329.989E-03    -164.306E-03     65.1062E-03
            1417     11.4572E-03     72.5476E-03    -19.8548E+06     40.5750E+06     60.8873E+06     4.40509E+06    -165.223E-03     329.825E-03    -164.602E-03     68.2060E-03    -165.628E-03     330.127E-03    -164.328E-03     66.2876E-03
            1418     10.6922E-03     72.4651E-03    -30.3883E+06     31.7445E+06     46.3485E+06     4.66656E+06    -164.516E-03     329.116E-03    -164.600E-03     66.4204E-03    -164.916E-03     329.387E-03    -164.370E-03     64.7492E-03
            1419     9.92228E-03     72.3844E-03    -38.1513E+06     25.8762E+06     36.6542E+06     3.14161E+06    -164.938E-03     329.558E-03    -164.621E-03     62.0736E-03    -165.326E-03     329.797E-03    -164.420E-03     60.6208E-03
            1420     9.16166E-03     72.3090E-03    -40.4657E+06     15.5299E+06     34.7436E+06    -984.994E+03    -165.750E-03     330.371E-03    -164.621E-03     57.2038E-03    -166.109E-03     330.540E-03    -164.411E-03     55.8727E-03
            1421     8.40019E-03     72.2354E-03    -44.2015E+06    -9.57575E+06     26.7069E+06    -1.49055E+06    -165.448E-03     330.028E-03    -164.580E-03     53.5009E-03    -165.756E-03     330.067E-03    -164.368E-03     52.4090E-03
            1422     7.63560E-03     72.1674E-03    -52.8981E+06    -40.9886E+06     11.2171E+06     229.636E+03    -164.624E-03     329.183E-03    -164.559E-03     49.7658E-03    -164.883E-03     329.076E-03    -164.367E-03     48.9363E-03
            1423     6.87236E-03     72.1042E-03    -62.5675E+06    -73.1915E+06    -5.26194E+06    -1.17160E+06    -164.514E-03     329.091E-03    -164.577E-03     46.0719E-03    -164.737E-03     328.847E-03    -164.406E-03     45.4416E-03
            1424     6.10804E-03     72.0467E-03    -69.3868E+06    -95.9809E+06    -16.2084E+06    -3.74235E+06    -164.893E-03     329.476E-03    -164.583E-03     41.3097E-03    -165.093E-03     329.136E-03    -164.425E-03     40.7639E-03
            1425     5.34482E-03     71.9970E-03    -75.4257E+06    -111.445E+06    -26.7801E+06    -2.92398E+06    -165.003E-03     329.536E-03    -164.534E-03     36.1899E-03    -165.182E-03     329.130E-03    -164.397E-03     35.7611E-03
            1426     4.58150E-03     71.9511E-03    -79.2967E+06    -128.832E+06    -39.5311E+06    -1.00620E+06    -164.832E-03     329.286E-03    -164.454E-03     31.0614E-03    -164.975E-03     328.805E-03    -164.350E-03     30.7861E-03
            1427     3.81840E-03     71.9136E-03    -85.4254E+06    -146.840E+06    -54.0025E+06    -1.47112E+06    -164.536E-03     328.920E-03    -164.384E-03     26.1755E-03    -164.649E-03     328.366E-03    -164.317E-03     25.9874E-03
            1428     3.05464E-03     71.8818E-03    -94.4010E+06    -163.145E+06    -70.3831E+06    -220.361E+03    -164.288E-03     328.629E-03    -164.341E-03     21.2248E-03    -164.389E-03     328.021E-03    -164.320E-03     21.1531E-03
            1429     2.29129E-03     71.8577E-03     -98.874E+06    -179.848E+06    -85.2654E+06    -27.5739E+03    -164.283E-03     328.606E-03    -164.323E-03     16.0657E-03    -164.357E-03     327.938E-03    -164.345E-03     16.0427E-03
            1430     1.52674E-03     71.8396E-03    -100.913E+06    -193.218E+06    -94.8664E+06    -659.456E+03    -164.505E-03     328.767E-03    -164.262E-03     11.2097E-03    -164.551E-03     328.055E-03    -164.310E-03     11.1661E-03
            1431     763.344E-06     71.8276E-03    -102.471E+06    -205.384E+06    -99.4898E+06    -84.0621E+03    -164.513E-03     328.510E-03    -163.997E-03     5.78132E-03    -164.489E-03     327.776E-03    -164.048E-03     5.75074E-03
            1432     14.5118E-03     71.5712E-03    -6.39828E+06     73.3979E+06     80.0964E+06    -537.214E+03    -164.934E-03     329.382E-03    -164.448E-03     60.9359E-03    -165.345E-03     329.799E-03    -164.144E-03     58.6599E-03
            1433     13.7486E-03     71.4836E-03    -4.90921E+06     75.2785E+06     83.8319E+06    -1.73566E+06    -164.232E-03     328.721E-03    -164.489E-03     66.4878E-03    -164.678E-03     329.173E-03    -164.172E-03     64.0335E-03
            1434     12.9843E-03     71.4037E-03    -12.1018E+06     67.8319E+06     77.1895E+06     358.327E+03    -163.811E-03     328.358E-03    -164.547E-03     67.5426E-03    -164.272E-03     328.794E-03    -164.242E-03     65.2027E-03
            1435     12.2179E-03     71.3156E-03    -22.3449E+06     47.1478E+06     62.2574E+06     4.00671E+06    -164.055E-03     328.659E-03    -164.604E-03     67.9954E-03    -164.504E-03     329.016E-03    -164.329E-03     65.8708E-03
            1436     11.4504E-03     71.2304E-03    -23.9928E+06     36.9139E+06     55.2492E+06     3.64174E+06    -164.847E-03     329.498E-03    -164.651E-03     67.2820E-03    -165.265E-03     329.801E-03    -164.393E-03     65.3017E-03
            1437     10.6864E-03     71.1489E-03    -24.4290E+06     38.4626E+06     54.8221E+06     2.98565E+06    -165.742E-03     330.398E-03    -164.656E-03     63.9933E-03    -166.137E-03     330.683E-03    -164.402E-03     62.2065E-03
            1438     9.92875E-03     71.0662E-03    -26.3237E+06     38.2207E+06     52.5001E+06     4.35781E+06    -165.955E-03     330.561E-03    -164.606E-03     60.0774E-03    -166.327E-03     330.823E-03    -164.361E-03     58.5769E-03
            1439     9.16450E-03     70.9889E-03    -34.5811E+06     16.4963E+06     37.3723E+06    -276.468E+03    -165.683E-03     330.203E-03    -164.520E-03     56.6833E-03    -166.019E-03     330.366E-03    -164.307E-03     55.3297E-03
            1440     8.40066E-03     70.9183E-03    -46.6440E+06    -18.0246E+06     21.1855E+06    -3.14238E+06    -165.139E-03     329.612E-03    -164.473E-03     54.0695E-03    -165.441E-03     329.623E-03    -164.273E-03     52.9368E-03
            1441     7.63765E-03     70.8515E-03    -52.1347E+06    -42.1730E+06     13.6409E+06     843.118E+03    -164.860E-03     329.332E-03    -164.472E-03     50.6063E-03    -165.120E-03     329.219E-03    -164.268E-03     49.8098E-03
            1442     6.87227E-03     70.7886E-03    -54.9191E+06    -66.7206E+06     2.70310E+06     1.13688E+06    -164.773E-03     329.234E-03    -164.460E-03     45.7816E-03    -164.978E-03     328.999E-03    -164.271E-03     45.1838E-03
            1443     6.10883E-03     70.7295E-03    -68.0101E+06    -95.2022E+06    -16.5315E+06    -525.813E+03    -164.584E-03     329.015E-03    -164.431E-03     40.6534E-03    -164.775E-03     328.674E-03    -164.277E-03     40.1814E-03
            1444     5.34588E-03     70.6790E-03    -77.4282E+06    -116.337E+06    -31.1486E+06    -1.52310E+06    -164.633E-03     329.035E-03    -164.402E-03     36.3942E-03    -164.812E-03     328.617E-03    -164.277E-03     36.0086E-03
            1445     4.58276E-03     70.6348E-03    -82.1499E+06    -130.908E+06    -42.8540E+06    -1.20224E+06    -164.577E-03     328.934E-03    -164.357E-03     31.8470E-03    -164.730E-03     328.456E-03    -164.263E-03     31.5867E-03
            1446     3.81853E-03     70.5974E-03    -87.0722E+06    -146.197E+06    -56.3843E+06     943.714E+03    -164.347E-03     328.661E-03    -164.314E-03     26.7105E-03    -164.467E-03     328.118E-03    -164.258E-03     26.5965E-03
            1447     3.05467E-03     70.5661E-03    -91.3892E+06    -161.651E+06    -70.5590E+06     462.073E+03    -164.271E-03     328.558E-03    -164.287E-03     21.6331E-03    -164.356E-03     327.951E-03    -164.273E-03     21.5840E-03
            1448     2.29047E-03     70.5414E-03    -98.2052E+06    -179.055E+06    -84.6250E+06    -800.689E+03    -164.294E-03     328.561E-03    -164.267E-03     16.3773E-03    -164.362E-03     327.891E-03    -164.288E-03     16.3308E-03
            1449     1.52791E-03     70.5233E-03    -102.938E+06    -193.078E+06    -96.7544E+06    -1.45812E+06    -164.295E-03     328.530E-03    -164.235E-03     11.6878E-03    -164.348E-03     327.823E-03    -164.290E-03     11.6041E-03
            1450     764.266E-06     70.5115E-03    -105.764E+06    -210.049E+06    -104.732E+06    -1.06121E+06    -164.152E-03     328.542E-03    -164.390E-03     5.73591E-03    -164.137E-03     327.801E-03    -164.455E-03     5.71049E-03
            1451     14.5126E-03     70.2490E-03    -5.10003E+06     75.0755E+06     80.7533E+06    -474.179E+03    -164.507E-03     328.979E-03    -164.472E-03     62.6387E-03    -164.917E-03     329.403E-03    -164.170E-03     60.3739E-03
            1452     13.7467E-03     70.1740E-03    -5.28498E+06     74.4558E+06     82.3049E+06     1.23238E+06    -164.489E-03     329.007E-03    -164.518E-03     67.9572E-03    -164.936E-03     329.461E-03    -164.207E-03     65.5553E-03
            1453     12.9802E-03     70.0833E-03    -10.7683E+06     68.5177E+06     78.7624E+06     3.74465E+06    -164.716E-03     329.273E-03    -164.556E-03     67.6383E-03    -165.184E-03     329.717E-03    -164.246E-03     65.2641E-03
            1454     12.2182E-03     70.0031E-03    -26.6729E+06     43.9469E+06     60.6862E+06    -2.30988E+06    -165.229E-03     329.772E-03    -164.542E-03     66.0415E-03    -165.697E-03     330.125E-03    -164.264E-03     63.7136E-03
            1455     11.4550E-03     69.9144E-03    -28.4599E+06     34.2852E+06     54.1014E+06    -3.91775E+06    -165.537E-03     330.051E-03    -164.514E-03     63.7803E-03    -165.973E-03     330.351E-03    -164.252E-03     61.5926E-03
            1456     10.6938E-03     69.8276E-03    -25.2378E+06     38.2417E+06     53.4976E+06    -1.87027E+06    -165.238E-03     329.722E-03    -164.484E-03     61.5359E-03    -165.632E-03     330.007E-03    -164.235E-03     59.6728E-03
            1457     9.92694E-03     69.7485E-03    -34.7593E+06     29.1604E+06     43.4280E+06    -2.20347E+06    -164.825E-03     329.293E-03    -164.468E-03     61.2135E-03    -165.210E-03     329.531E-03    -164.242E-03     59.6790E-03
            1458     9.16401E-03     69.6719E-03    -41.0504E+06     18.9328E+06     35.9875E+06     977.060E+03    -164.643E-03     329.127E-03    -164.484E-03     58.4225E-03    -165.016E-03     329.316E-03    -164.272E-03     57.1300E-03
            1459     8.39993E-03     69.6020E-03    -43.0676E+06    -6.90468E+06     26.0991E+06     3.07005E+06    -165.103E-03     329.591E-03    -164.488E-03     54.8184E-03    -165.412E-03     329.647E-03    -164.285E-03     53.7892E-03
            1460     7.63552E-03     69.5339E-03    -54.0980E+06    -42.8208E+06     12.0475E+06     3.41714E+06    -165.700E-03     330.141E-03    -164.440E-03     50.8694E-03    -165.971E-03     330.032E-03    -164.239E-03     50.0629E-03
            1461     6.87503E-03     69.4703E-03    -63.4121E+06    -68.5039E+06    -1.73374E+06     4.22317E+06    -165.192E-03     329.543E-03    -164.351E-03     45.8311E-03    -165.434E-03     329.322E-03    -164.168E-03     45.2314E-03
            1462     6.11129E-03     69.4149E-03    -66.0967E+06    -89.8151E+06    -15.6947E+06     3.70934E+06    -164.188E-03     328.498E-03    -164.310E-03     41.5180E-03    -164.377E-03     328.180E-03    -164.163E-03     41.1200E-03
            1463     5.34558E-03     69.3631E-03    -73.9871E+06    -114.390E+06    -31.6494E+06    -424.690E+03    -164.008E-03     328.350E-03    -164.342E-03     37.3859E-03    -164.166E-03     327.931E-03    -164.227E-03     37.0559E-03
            1464     4.58115E-03     69.3182E-03    -84.5100E+06    -134.830E+06    -46.2180E+06    -2.36168E+06    -164.318E-03     328.685E-03    -164.368E-03     31.9560E-03    -164.469E-03     328.192E-03    -164.281E-03     31.6977E-03
            1465     3.81805E-03     69.2812E-03    -89.0261E+06    -147.808E+06    -56.6284E+06    -955.188E+03    -164.395E-03     328.753E-03    -164.358E-03     26.6462E-03    -164.524E-03     328.207E-03    -164.298E-03     26.4947E-03
            1466     3.05454E-03     69.2498E-03    -94.2086E+06    -161.724E+06    -69.4155E+06     473.386E+03    -164.320E-03     328.652E-03    -164.332E-03     21.7424E-03    -164.418E-03     328.044E-03    -164.308E-03     21.6664E-03
            1467     2.29147E-03     69.2252E-03    -97.2011E+06    -175.983E+06    -81.2622E+06     1.49614E+06    -164.221E-03     328.553E-03    -164.332E-03     16.6049E-03    -164.282E-03     327.881E-03    -164.342E-03     16.6073E-03
            1468     1.52665E-03     69.2076E-03    -103.978E+06    -192.774E+06    -96.9114E+06     286.848E+03    -164.031E-03     328.456E-03    -164.425E-03     11.9537E-03    -164.088E-03     327.747E-03    -164.479E-03     11.9384E-03
            1469     762.701E-06     69.1954E-03    -109.427E+06    -212.190E+06    -109.000E+06     460.094E+03    -163.920E-03     329.126E-03    -165.206E-03     6.93701E-03    -163.918E-03     328.394E-03    -165.284E-03     6.91827E-03
            1470     14.5075E-03     68.9357E-03    -3.61473E+06     76.3377E+06     80.4722E+06     1.12347E+06    -164.187E-03     328.719E-03    -164.532E-03     63.1160E-03    -164.602E-03     329.159E-03    -164.235E-03     60.8005E-03
            1471     13.7451E-03     68.8532E-03    -15.4903E+06     66.0531E+06     75.8276E+06     441.540E+03    -165.952E-03     330.497E-03    -164.545E-03     66.0090E-03    -166.432E-03     330.937E-03    -164.239E-03     63.5124E-03
            1472     12.9851E-03     68.7684E-03    -14.3585E+06     67.1272E+06     78.3795E+06    -1.46020E+06    -166.012E-03     330.520E-03    -164.508E-03     66.0101E-03    -166.503E-03     330.971E-03    -164.193E-03     63.4536E-03
            1473     12.2198E-03     68.6834E-03    -11.6138E+06     60.8032E+06     77.0435E+06    -1.84831E+06    -166.063E-03     330.516E-03    -164.453E-03     66.8744E-03    -166.514E-03     330.918E-03    -164.139E-03     64.4841E-03
            1474     11.4599E-03     68.5936E-03    -24.6314E+06     37.8975E+06     58.7000E+06    -2.40351E+06    -165.418E-03     329.796E-03    -164.378E-03     67.0076E-03    -165.847E-03     330.102E-03    -164.104E-03     64.9063E-03
            1475     10.6930E-03     68.5162E-03    -34.5205E+06     29.1209E+06     43.5836E+06    -1.62934E+06    -164.401E-03     328.749E-03    -164.348E-03     65.0855E-03    -164.814E-03     329.017E-03    -164.122E-03     63.3350E-03
            1476     9.92904E-03     68.4319E-03    -32.5093E+06     31.2353E+06     40.6550E+06    -628.903E+03    -164.209E-03     328.597E-03    -164.388E-03     61.4822E-03    -164.579E-03     328.844E-03    -164.183E-03     60.0087E-03
            1477     9.16318E-03     68.3569E-03    -42.8483E+06     14.4109E+06     31.5199E+06     1.14049E+06    -164.632E-03     329.062E-03    -164.430E-03     56.9946E-03    -164.996E-03     329.234E-03    -164.231E-03     55.7085E-03
            1478     8.39929E-03     68.2835E-03    -55.5367E+06    -15.3811E+06     17.0961E+06     3.05830E+06    -165.298E-03     329.712E-03    -164.414E-03     53.2119E-03    -165.643E-03     329.755E-03    -164.225E-03     52.1526E-03
            1479     7.63837E-03     68.2151E-03    -52.7026E+06    -37.5891E+06     11.9671E+06     2.73439E+06    -164.928E-03     329.317E-03    -164.389E-03     49.9900E-03    -165.195E-03     329.230E-03    -164.199E-03     49.1457E-03
            1480     6.87310E-03     68.1533E-03    -61.7935E+06    -67.6647E+06    -1.33364E+06     2.01506E+06    -164.508E-03     328.893E-03    -164.385E-03     46.6849E-03    -164.740E-03     328.669E-03    -164.204E-03     46.0778E-03
            1481     6.10899E-03     68.0997E-03    -69.9734E+06    -90.2526E+06    -14.3015E+06     2.24871E+06    -164.631E-03     329.009E-03    -164.378E-03     42.4077E-03    -164.845E-03     328.695E-03    -164.217E-03     41.9657E-03
            1482     5.34604E-03     68.0475E-03    -72.2936E+06    -106.928E+06    -26.1202E+06     3.27060E+06    -164.398E-03     328.755E-03    -164.357E-03     37.3890E-03    -164.568E-03     328.365E-03    -164.228E-03     37.1087E-03
            1483     4.58240E-03     68.0024E-03    -82.1681E+06    -131.009E+06    -44.7728E+06    -23.4248E+03    -164.080E-03     328.438E-03    -164.358E-03     31.6824E-03    -164.225E-03     327.956E-03    -164.273E-03     31.4750E-03
            1484     3.81819E-03     67.9644E-03    -92.2139E+06    -153.739E+06    -61.5885E+06    -1.24541E+06    -164.184E-03     328.567E-03    -164.382E-03     26.7175E-03    -164.315E-03     328.004E-03    -164.334E-03     26.5748E-03
            1485     3.05443E-03     67.9340E-03    -93.1658E+06    -162.679E+06    -70.2359E+06    -97.9271E+03    -164.386E-03     328.775E-03    -164.389E-03     21.8052E-03    -164.472E-03     328.160E-03    -164.370E-03     21.7355E-03
            1486     2.28998E-03     67.9090E-03    -98.0982E+06    -175.283E+06    -81.8225E+06     707.855E+03    -164.408E-03     328.775E-03    -164.367E-03     16.1461E-03    -164.466E-03     328.101E-03    -164.380E-03     16.1644E-03
            1487     1.52714E-03     67.8916E-03    -104.393E+06    -191.493E+06    -94.3319E+06     2.68993E+06    -164.283E-03     328.648E-03    -164.365E-03     10.6437E-03    -164.348E-03     327.940E-03    -164.408E-03     10.7027E-03
            1488     762.988E-06     67.8795E-03    -107.407E+06    -208.543E+06    -104.710E+06     776.242E+03    -164.161E-03     328.817E-03    -164.656E-03     6.76323E-03    -164.162E-03     328.099E-03    -164.721E-03     6.72569E-03
            1489     14.5106E-03     67.6192E-03    -5.92540E+06     75.0121E+06     81.2989E+06    -767.672E+03    -164.775E-03     329.250E-03    -164.475E-03     60.9537E-03    -165.199E-03     329.684E-03    -164.169E-03     58.5816E-03
            1490     13.7479E-03     67.5315E-03    -10.5232E+06     71.2558E+06     80.0164E+06    -1.15822E+06    -165.085E-03     329.572E-03    -164.487E-03     65.1953E-03    -165.542E-03     330.013E-03    -164.175E-03     62.7718E-03
            1491     12.9830E-03     67.4517E-03    -21.5918E+06     60.6799E+06     71.3134E+06    -707.356E+03    -165.672E-03     330.135E-03    -164.463E-03     68.4634E-03    -166.170E-03     330.565E-03    -164.163E-03     66.0428E-03
            1492     12.2225E-03     67.3628E-03    -16.3499E+06     62.0387E+06     73.7820E+06     3.16302E+06    -165.146E-03     329.603E-03    -164.457E-03     69.4886E-03    -165.620E-03     330.025E-03    -164.155E-03     67.2101E-03
            1493     11.4538E-03     67.2816E-03    -21.7445E+06     45.8461E+06     59.3507E+06     2.24295E+06    -164.882E-03     329.318E-03    -164.436E-03     68.5284E-03    -165.310E-03     329.659E-03    -164.174E-03     66.5272E-03
            1494     10.6918E-03     67.1963E-03    -37.7532E+06     25.9707E+06     38.7514E+06    -1.13375E+06    -165.692E-03     330.074E-03    -164.382E-03     65.3841E-03    -166.115E-03     330.342E-03    -164.171E-03     63.5545E-03
            1495     9.92893E-03     67.1168E-03    -34.1019E+06     30.5077E+06     40.0725E+06    -581.889E+03    -165.363E-03     329.709E-03    -164.346E-03     61.2438E-03    -165.747E-03     329.964E-03    -164.141E-03     59.6629E-03
            1496     9.16588E-03     67.0404E-03    -38.1663E+06     17.5418E+06     33.7690E+06     2.14480E+06    -165.067E-03     329.388E-03    -164.321E-03     58.0244E-03    -165.409E-03     329.559E-03    -164.122E-03     56.8225E-03
            1497     8.40382E-03     66.9650E-03    -53.0361E+06    -19.6490E+06     15.7416E+06    -2.26980E+06    -164.679E-03     328.986E-03    -164.307E-03     54.1955E-03    -165.001E-03     329.004E-03    -164.123E-03     53.0852E-03
            1498     7.63714E-03     66.9010E-03    -59.3267E+06    -46.6017E+06     5.35435E+06    -2.57401E+06    -163.949E-03     328.298E-03    -164.349E-03     50.2039E-03    -164.228E-03     328.186E-03    -164.169E-03     49.2959E-03
            1499     6.87219E-03     66.8385E-03    -59.4359E+06    -65.4428E+06     745.228E+03     1.74754E+06    -164.150E-03     328.578E-03    -164.428E-03     46.0045E-03    -164.373E-03     328.355E-03    -164.243E-03     45.4075E-03
            1500     6.10907E-03     66.7807E-03    -68.3766E+06    -89.7546E+06    -12.1382E+06     1.40709E+06    -164.653E-03     329.100E-03    -164.446E-03     41.4545E-03    -164.861E-03     328.781E-03    -164.278E-03     40.9858E-03
            1501     5.34612E-03     66.7311E-03    -77.0371E+06    -106.176E+06    -26.2263E+06     4.98954E+06    -164.498E-03     328.918E-03    -164.419E-03     37.3911E-03    -164.695E-03     328.540E-03    -164.285E-03     37.1538E-03
            1502     4.58188E-03     66.6867E-03    -81.3766E+06    -125.159E+06    -42.7141E+06     6.04825E+06    -164.163E-03     328.572E-03    -164.409E-03     32.5382E-03    -164.315E-03     328.115E-03    -164.323E-03     32.4476E-03
            1503     3.81762E-03     66.6493E-03    -87.5935E+06    -148.750E+06    -60.7055E+06     1.47964E+06    -164.319E-03     328.734E-03    -164.415E-03     27.2317E-03    -164.434E-03     328.187E-03    -164.376E-03     27.1367E-03
            1504     3.05387E-03     66.6166E-03    -95.8695E+06    -165.501E+06    -74.8940E+06    -1.44014E+06    -164.610E-03     328.992E-03    -164.382E-03     21.5159E-03    -164.700E-03     328.374E-03    -164.377E-03     21.4159E-03
            1505     2.29151E-03     66.5927E-03    -103.009E+06    -178.364E+06    -86.0518E+06    -687.472E+03    -164.737E-03     329.001E-03    -164.264E-03     15.7686E-03    -164.807E-03     328.324E-03    -164.286E-03     15.7371E-03
            1506     1.52765E-03     66.5748E-03    -104.804E+06    -189.629E+06    -94.9370E+06     888.541E+03    -164.701E-03     328.697E-03    -163.996E-03     10.5153E-03    -164.767E-03     327.996E-03    -164.044E-03     10.5348E-03
            1507     765.184E-06     66.5635E-03    -104.904E+06    -203.947E+06    -101.973E+06    -307.211E+03    -164.200E-03     327.707E-03    -163.507E-03     7.00032E-03    -164.195E-03     327.006E-03    -163.569E-03     6.93762E-03
            1508     14.5152E-03     66.2979E-03    -3.31822E+06     76.9056E+06     86.2923E+06     1.83658E+06    -164.820E-03     329.240E-03    -164.421E-03     63.7315E-03    -165.238E-03     329.670E-03    -164.096E-03     61.4757E-03
            1509     13.7478E-03     66.2239E-03    -8.98271E+06     70.9458E+06     80.9622E+06     2.26577E+06    -164.333E-03     328.772E-03    -164.439E-03     66.8423E-03    -164.781E-03     329.205E-03    -164.125E-03     64.5363E-03
            1510     12.9828E-03     66.1287E-03    -17.1840E+06     62.6267E+06     69.8022E+06    -229.835E+03    -164.416E-03     328.870E-03    -164.455E-03     67.7803E-03    -164.887E-03     329.300E-03    -164.171E-03     65.4214E-03
            1511     12.2167E-03     66.0499E-03    -27.6867E+06     54.7152E+06     58.4300E+06    -3.05585E+06    -165.132E-03     329.582E-03    -164.450E-03     66.7504E-03    -165.627E-03     330.003E-03    -164.197E-03     64.3175E-03
            1512     11.4555E-03     65.9635E-03    -29.2591E+06     45.2407E+06     53.5773E+06     393.279E+03    -165.858E-03     330.277E-03    -164.419E-03     65.4163E-03    -166.313E-03     330.634E-03    -164.175E-03     63.2974E-03
            1513     10.6924E-03     65.8766E-03    -27.3098E+06     37.1186E+06     48.0663E+06    -2.83507E+06    -165.365E-03     329.732E-03    -164.367E-03     62.8224E-03    -165.763E-03     330.025E-03    -164.141E-03     60.8947E-03
            1514     9.92926E-03     65.8003E-03    -46.4732E+06     17.4459E+06     30.0664E+06    -2.22892E+06    -164.815E-03     329.145E-03    -164.330E-03     61.5234E-03    -165.226E-03     329.366E-03    -164.138E-03     59.8987E-03
            1515     9.16592E-03     65.7218E-03    -53.8062E+06     7.97334E+06     23.8961E+06     3.38536E+06    -164.622E-03     328.970E-03    -164.348E-03     60.7443E-03    -165.014E-03     329.130E-03    -164.162E-03     59.6131E-03
            1516     8.39985E-03     65.6505E-03    -48.7371E+06    -8.54527E+06     21.1537E+06     1.97455E+06    -164.491E-03     328.881E-03    -164.390E-03     56.0559E-03    -164.814E-03     328.939E-03    -164.201E-03     55.0579E-03
            1517     7.63724E-03     65.5854E-03    -57.0596E+06    -42.2492E+06     7.70883E+06    -177.202E+03    -164.681E-03     329.095E-03    -164.414E-03     51.1416E-03    -164.962E-03     329.001E-03    -164.231E-03     50.2801E-03
            1518     6.87446E-03     65.5216E-03    -66.0754E+06    -67.6018E+06    -5.05912E+06     331.662E+03    -164.426E-03     328.854E-03    -164.428E-03     47.0023E-03    -164.678E-03     328.646E-03    -164.259E-03     46.3784E-03
            1519     6.10959E-03     65.4657E-03    -67.9646E+06    -88.6331E+06    -14.8430E+06     1.31623E+06    -164.171E-03     328.638E-03    -164.467E-03     42.5365E-03    -164.374E-03     328.329E-03    -164.315E-03     42.1015E-03
            1520     5.34430E-03     65.4142E-03    -73.5368E+06    -107.860E+06      -26.52E+06    -438.266E+03    -164.489E-03     328.983E-03    -164.494E-03     37.1268E-03    -164.662E-03     328.590E-03    -164.364E-03     36.7900E-03
            1521     4.58083E-03     65.3711E-03    -82.7332E+06    -126.128E+06    -40.6510E+06    -65.7562E+03    -164.690E-03     329.157E-03    -164.466E-03     31.5662E-03    -164.845E-03     328.688E-03    -164.367E-03     31.3252E-03
            1522     3.81782E-03     65.3316E-03    -87.8295E+06    -143.151E+06    -53.9061E+06     1.82201E+06    -164.607E-03     329.015E-03    -164.408E-03     26.5408E-03    -164.735E-03     328.480E-03    -164.342E-03     26.3913E-03
            1523     3.05491E-03     65.3004E-03    -96.2737E+06    -164.685E+06    -73.0518E+06     1.01624E+06    -164.460E-03     328.792E-03    -164.332E-03     21.3713E-03    -164.557E-03     328.177E-03    -164.319E-03     21.2781E-03
            1524     2.29056E-03     65.2756E-03    -101.647E+06    -178.805E+06    -88.0477E+06    -1.13477E+06    -164.459E-03     328.712E-03    -164.253E-03     16.4893E-03    -164.521E-03     328.035E-03    -164.286E-03     16.4417E-03
            1525     1.52807E-03     65.2585E-03    -103.136E+06    -190.455E+06    -97.5226E+06    -2.59761E+06    -164.490E-03     328.616E-03    -164.126E-03     11.5411E-03    -164.542E-03     327.911E-03    -164.187E-03     11.5073E-03
            1526     763.703E-06     65.2489E-03    -106.154E+06    -206.290E+06    -103.455E+06     246.637E+03    -164.338E-03     328.188E-03    -163.850E-03     7.10389E-03    -164.327E-03     327.482E-03    -163.914E-03     7.10244E-03
            1527     14.5081E-03     64.9887E-03    -6.21432E+06     72.7841E+06     82.1146E+06     1.52763E+06    -165.086E-03     329.517E-03    -164.431E-03     63.4051E-03    -165.514E-03     329.944E-03    -164.117E-03     61.0720E-03
            1528     13.7482E-03     64.8975E-03    -7.02516E+06     73.1099E+06     84.8878E+06     160.261E+03    -165.387E-03     329.823E-03    -164.436E-03     66.3160E-03    -165.850E-03     330.274E-03    -164.108E-03     63.7933E-03
            1529     12.9853E-03     64.8221E-03    -8.87821E+06     70.1238E+06     79.8569E+06     1.73386E+06    -164.917E-03     329.332E-03    -164.416E-03     66.4498E-03    -165.377E-03     329.779E-03    -164.105E-03     64.0217E-03
            1530     12.2210E-03     64.7277E-03    -21.5227E+06     52.5383E+06     61.1536E+06     2.73788E+06    -165.273E-03     329.640E-03    -164.367E-03     66.6369E-03    -165.727E-03     330.027E-03    -164.107E-03     64.3941E-03
            1531     11.4592E-03     64.6452E-03    -27.7875E+06     40.1551E+06     52.1900E+06    -282.245E+03    -165.478E-03     329.812E-03    -164.333E-03     66.2280E-03    -165.915E-03     330.141E-03    -164.090E-03     64.1357E-03
            1532     10.6947E-03     64.5618E-03    -32.8041E+06     32.2120E+06     43.9178E+06    -1.60318E+06    -164.416E-03     328.738E-03    -164.322E-03     64.0091E-03    -164.829E-03     329.022E-03    -164.102E-03     62.1535E-03
            1533     9.92827E-03     64.4851E-03    -41.1346E+06     21.4759E+06     33.7617E+06    -241.675E+03    -163.955E-03     328.320E-03    -164.365E-03     61.6488E-03    -164.345E-03     328.543E-03    -164.168E-03     60.1389E-03
            1534     9.16226E-03     64.4063E-03    -46.8593E+06     9.28532E+06     30.1194E+06     3.21281E+06    -164.086E-03     328.543E-03    -164.457E-03     59.1867E-03    -164.456E-03     328.692E-03    -164.252E-03     58.0244E-03
            1535     8.39970E-03     64.3342E-03    -51.7958E+06    -7.60504E+06     22.0961E+06      5.3943E+06    -164.307E-03     328.830E-03    -164.523E-03     54.9176E-03    -164.646E-03     328.894E-03    -164.327E-03     53.9966E-03
            1536     7.63578E-03     64.2659E-03    -54.8505E+06    -36.6193E+06     8.74770E+06     1.86191E+06    -164.724E-03     329.275E-03    -164.551E-03     51.6820E-03    -164.997E-03     329.198E-03    -164.375E-03     50.9128E-03
            1537     6.87154E-03     64.2067E-03    -60.1727E+06    -67.2255E+06    -2.78488E+06    -3.52023E+06    -164.909E-03     329.472E-03    -164.563E-03     47.6879E-03    -165.134E-03     329.253E-03    -164.392E-03     46.9883E-03
            1538     6.10766E-03     64.1493E-03    -71.7760E+06    -91.2145E+06    -16.5846E+06    -1.83860E+06    -164.881E-03     329.426E-03    -164.544E-03     42.5931E-03    -165.096E-03     329.110E-03    -164.391E-03     42.0985E-03
            1539     5.34540E-03     64.0974E-03    -77.2696E+06    -109.698E+06    -27.3670E+06    -1.12615E+06    -164.961E-03     329.460E-03    -164.499E-03     36.8359E-03    -165.148E-03     329.063E-03    -164.365E-03     36.4789E-03
            1540     4.58249E-03     64.0532E-03    -82.0935E+06    -125.847E+06    -38.9663E+06    -841.071E+03    -164.918E-03     329.333E-03    -164.414E-03     31.2652E-03    -165.073E-03     328.863E-03    -164.308E-03     30.9991E-03
            1541     3.81892E-03     64.0157E-03     -91.025E+06    -145.643E+06    -55.6799E+06     711.332E+03    -164.407E-03     328.743E-03    -164.335E-03     26.5117E-03    -164.545E-03     328.202E-03    -164.270E-03     26.3604E-03
            1542     3.05435E-03     63.9842E-03    -94.0108E+06    -161.170E+06    -69.8365E+06     1.58682E+06    -164.057E-03     328.386E-03    -164.329E-03     21.7124E-03    -164.152E-03     327.780E-03    -164.309E-03     21.6413E-03
            1543     2.29100E-03     63.9600E-03    -98.0576E+06    -175.716E+06    -85.8134E+06     196.267E+03    -164.024E-03     328.416E-03    -164.392E-03     16.4910E-03    -164.075E-03     327.746E-03    -164.424E-03     16.4860E-03
            1544     1.52589E-03     63.9421E-03    -105.302E+06    -193.079E+06    -99.5950E+06    -1.70955E+06    -164.300E-03     328.798E-03    -164.498E-03     11.2756E-03    -164.354E-03     328.085E-03    -164.563E-03     11.2754E-03
            1545     763.124E-06     63.9321E-03    -109.817E+06    -211.506E+06    -108.909E+06    -492.709E+03    -164.819E-03     329.202E-03    -164.384E-03     5.49713E-03    -164.807E-03     328.481E-03    -164.462E-03     5.55483E-03
            1546     14.5151E-03     63.6666E-03    -6.37168E+06     72.2716E+06     80.0954E+06    -1.19591E+06    -165.049E-03     329.457E-03    -164.408E-03     62.2438E-03    -165.474E-03     329.884E-03    -164.103E-03     59.8599E-03
            1547     13.7486E-03     63.5847E-03    -6.04814E+06     73.9832E+06     84.3604E+06    -206.942E+03    -165.088E-03     329.513E-03    -164.426E-03     67.2541E-03    -165.542E-03     329.964E-03    -164.102E-03     64.7936E-03
            1548     12.9846E-03     63.4989E-03    -15.3536E+06     66.1832E+06     79.1307E+06     4.02654E+06    -165.680E-03     330.091E-03    -164.411E-03     68.6829E-03    -166.167E-03     330.529E-03    -164.089E-03     66.2957E-03
            1549     12.2227E-03     63.4154E-03    -17.8258E+06     52.2545E+06     69.9990E+06     5.35851E+06    -165.095E-03     329.474E-03    -164.379E-03     69.3235E-03    -165.541E-03     329.839E-03    -164.079E-03     67.1866E-03
            1550     11.4548E-03     63.3267E-03    -19.7323E+06     40.5738E+06     56.6835E+06     2.91228E+06    -164.106E-03     328.482E-03    -164.376E-03     67.5918E-03    -164.503E-03     328.788E-03    -164.122E-03     65.6349E-03
            1551     10.6913E-03     63.2468E-03    -31.4051E+06     30.8691E+06     42.7524E+06     2.55620E+06    -164.348E-03     328.754E-03    -164.407E-03     65.0119E-03    -164.749E-03     329.030E-03    -164.192E-03     63.2312E-03
            1552     9.92856E-03     63.1689E-03    -33.0509E+06     29.3980E+06     41.5767E+06     1.21930E+06    -164.941E-03     329.387E-03    -164.446E-03     62.7295E-03    -165.315E-03     329.628E-03    -164.233E-03     61.2515E-03
            1553     9.16590E-03     63.0908E-03    -33.3237E+06     19.7689E+06     41.7089E+06     151.472E+03    -164.532E-03     329.027E-03    -164.495E-03     58.7463E-03    -164.867E-03     329.193E-03    -164.267E-03     57.5249E-03
            1554     8.39960E-03     63.0181E-03    -44.6834E+06    -7.62497E+06     28.1781E+06    -81.2892E+03    -163.922E-03     328.482E-03    -164.560E-03     54.6200E-03    -164.232E-03     328.525E-03    -164.343E-03     53.6435E-03
            1555     7.63418E-03     62.9514E-03    -58.6031E+06    -42.1616E+06     6.49739E+06    -362.928E+03    -164.579E-03     329.175E-03    -164.595E-03     50.2800E-03    -164.856E-03     329.075E-03    -164.417E-03     49.5113E-03
            1556     6.87081E-03     62.8873E-03    -63.7511E+06    -71.5484E+06    -5.11945E+06    -2.99531E+06    -165.359E-03     329.942E-03    -164.583E-03     45.0247E-03    -165.589E-03     329.707E-03    -164.412E-03     44.3003E-03
            1557     6.10925E-03     62.8316E-03    -67.6585E+06    -90.6538E+06    -13.0352E+06    -2.24226E+06    -165.115E-03     329.642E-03    -164.527E-03     40.7068E-03    -165.312E-03     329.315E-03    -164.363E-03     40.1414E-03
            1558     5.34512E-03     62.7805E-03    -76.7698E+06    -109.767E+06    -28.1892E+06     894.361E+03    -164.559E-03     329.035E-03    -164.476E-03     37.1338E-03    -164.739E-03     328.634E-03    -164.346E-03     36.8318E-03
            1559     4.58149E-03     62.7356E-03    -83.4432E+06    -127.420E+06    -43.0359E+06     1.43267E+06    -164.484E-03     328.935E-03    -164.451E-03     32.3123E-03    -164.638E-03     328.466E-03    -164.361E-03     32.1427E-03
            1560     3.81806E-03     62.7000E-03    -86.2870E+06    -144.245E+06    -55.5801E+06     1.00729E+06    -164.435E-03     328.869E-03    -164.434E-03     27.2044E-03    -164.552E-03     328.329E-03    -164.377E-03     27.0888E-03
            1561     3.05454E-03     62.6687E-03    -94.4250E+06    -161.609E+06    -71.5734E+06     760.244E+03    -164.302E-03     328.725E-03    -164.423E-03     22.1947E-03    -164.401E-03     328.124E-03    -164.410E-03     22.1309E-03
            1562     2.29010E-03     62.6437E-03    -101.447E+06    -174.864E+06    -84.3546E+06     1.69985E+06    -164.301E-03     328.742E-03    -164.442E-03     16.1452E-03    -164.381E-03     328.088E-03    -164.463E-03     16.1649E-03
            1563     1.52721E-03     62.6266E-03    -106.480E+06    -191.677E+06    -95.6925E+06     2.55818E+06    -164.428E-03     328.888E-03    -164.459E-03     10.9125E-03    -164.499E-03     328.182E-03    -164.505E-03     10.9631E-03
            1564     763.648E-06     62.6125E-03    -109.483E+06    -211.093E+06    -107.141E+06    -464.244E+03    -164.334E-03     328.990E-03    -164.656E-03     5.14042E-03    -164.324E-03     328.267E-03    -164.727E-03     5.18228E-03
            1565     14.5103E-03     62.3501E-03    -3.48478E+06     74.9378E+06     80.5155E+06    -1.38642E+06    -164.204E-03     328.609E-03    -164.405E-03     64.0652E-03    -164.619E-03     329.045E-03    -164.106E-03     61.7310E-03
            1566     13.7471E-03     62.2698E-03    -13.4370E+06     65.8899E+06     76.3138E+06     256.208E+03    -165.166E-03     329.601E-03    -164.435E-03     68.0747E-03    -165.630E-03     330.030E-03    -164.129E-03     65.6804E-03
            1567     12.9834E-03     62.1799E-03    -17.2703E+06     63.8197E+06     74.0808E+06     301.431E+03    -165.323E-03     329.752E-03    -164.429E-03     67.8445E-03    -165.807E-03     330.187E-03    -164.126E-03     65.4195E-03
            1568     12.2189E-03     62.0978E-03    -18.6933E+06     52.3304E+06     69.4138E+06     389.650E+03    -164.769E-03     329.203E-03    -164.433E-03     67.4483E-03    -165.223E-03     329.574E-03    -164.135E-03     65.1742E-03
            1569     11.4578E-03     62.0130E-03    -21.9716E+06     38.7439E+06     59.2204E+06     1.80936E+06    -163.935E-03     328.400E-03    -164.465E-03     66.4831E-03    -164.342E-03     328.695E-03    -164.193E-03     64.4972E-03
            1570     10.6906E-03     61.9319E-03    -18.8796E+06     42.5902E+06     56.5388E+06     3.59656E+06    -164.183E-03     328.710E-03    -164.527E-03     64.8105E-03    -164.550E-03     328.997E-03    -164.279E-03     63.1066E-03
            1571     9.92606E-03     61.8487E-03    -32.1878E+06     31.1993E+06     43.6787E+06     4.94982E+06    -165.191E-03     329.735E-03    -164.544E-03     62.9607E-03    -165.560E-03     329.974E-03    -164.324E-03     61.5565E-03
            1572     9.16273E-03     61.7738E-03    -45.4234E+06     10.6705E+06     30.1387E+06    -99.5725E+03    -165.265E-03     329.790E-03    -164.525E-03     58.8398E-03    -165.630E-03     329.944E-03    -164.324E-03     57.5592E-03
            1573     8.39968E-03     61.7043E-03    -45.8112E+06    -9.49630E+06     28.0183E+06     -48.227E+03    -165.162E-03     329.695E-03    -164.533E-03     54.5892E-03    -165.474E-03     329.730E-03    -164.313E-03     53.5684E-03
            1574     7.63684E-03     61.6326E-03    -49.9058E+06    -32.4099E+06     18.7276E+06     2.46984E+06    -165.059E-03     329.571E-03    -164.512E-03     49.9829E-03    -165.322E-03     329.488E-03    -164.299E-03     49.2342E-03
            1575     6.87434E-03     61.5704E-03    -62.5992E+06    -66.9708E+06    -4.97510E+06     1.81337E+06    -164.657E-03     329.118E-03    -164.461E-03     45.4700E-03    -164.886E-03     328.902E-03    -164.298E-03     44.8714E-03
            1576     6.10931E-03     61.5143E-03    -70.1621E+06    -96.0587E+06    -19.9217E+06    -1.32401E+06    -164.472E-03     328.935E-03    -164.463E-03     41.5319E-03    -164.664E-03     328.595E-03    -164.322E-03     41.0173E-03
            1577     5.34540E-03     61.4656E-03    -73.9791E+06    -112.846E+06    -30.2360E+06    -771.697E+03    -164.257E-03     328.746E-03    -164.489E-03     37.0897E-03    -164.414E-03     328.328E-03    -164.370E-03     36.7306E-03
            1578     4.58060E-03     61.4192E-03    -80.0667E+06    -128.475E+06    -43.5508E+06    -1.15505E+06    -164.087E-03     328.622E-03    -164.536E-03     31.7913E-03    -164.212E-03     328.134E-03    -164.451E-03     31.5725E-03
            1579     3.81668E-03     61.3829E-03    -87.4715E+06    -145.195E+06    -55.7450E+06    -1.71832E+06    -164.519E-03     329.092E-03    -164.573E-03     26.5681E-03    -164.630E-03     328.539E-03    -164.514E-03     26.3963E-03
            1580     3.05346E-03     61.3515E-03    -95.3229E+06    -161.445E+06    -71.3395E+06     1.05144E+06    -164.838E-03     329.346E-03    -164.508E-03     21.5205E-03    -164.940E-03     328.744E-03    -164.492E-03     21.4433E-03
            1581     2.29095E-03     61.3274E-03    -101.693E+06    -175.539E+06    -84.8231E+06     940.621E+03    -164.735E-03     329.116E-03    -164.381E-03     15.9726E-03    -164.820E-03     328.466E-03    -164.403E-03     15.9554E-03
            1582     1.52738E-03     61.3089E-03    -105.119E+06    -190.125E+06    -94.1043E+06     1.20058E+06    -164.381E-03     328.670E-03    -164.289E-03     11.0648E-03    -164.450E-03     327.969E-03    -164.331E-03     11.0814E-03
            1583     763.558E-06     61.2985E-03    -104.708E+06    -205.959E+06    -102.043E+06     770.996E+03    -163.746E-03     328.602E-03    -164.856E-03     5.83214E-03    -163.727E-03     327.889E-03    -164.916E-03     5.83995E-03
            1584     14.5115E-03     61.0369E-03    -4.31492E+06     74.3351E+06     81.1218E+06     262.242E+03    -164.592E-03     329.001E-03    -164.409E-03     62.9169E-03    -165.008E-03     329.431E-03    -164.105E-03     60.6006E-03
            1585     13.7481E-03     60.9474E-03    -9.49586E+06     69.3483E+06     78.9975E+06    -71.3232E+03    -164.800E-03     329.234E-03    -164.434E-03     67.0726E-03    -165.256E-03     329.673E-03    -164.126E-03     64.6179E-03
            1586     12.9854E-03     60.8665E-03    -13.7132E+06     65.0439E+06     74.3806E+06    -1.90218E+06    -164.489E-03     328.944E-03    -164.455E-03     68.4561E-03    -164.959E-03     329.381E-03    -164.158E-03     65.9765E-03
            1587     12.2212E-03     60.7795E-03    -19.5887E+06     49.1972E+06     64.8695E+06    -77.3596E+03    -164.159E-03     328.657E-03    -164.498E-03     68.2525E-03    -164.602E-03     329.017E-03    -164.216E-03     66.0208E-03
            1588     11.4536E-03     60.6990E-03    -24.0520E+06     37.5628E+06     58.7369E+06    -1.28289E+06    -164.739E-03     329.288E-03    -164.549E-03     67.8220E-03    -165.158E-03     329.584E-03    -164.275E-03     65.7948E-03
            1589     10.6911E-03     60.6150E-03    -27.5539E+06     36.9971E+06     55.3069E+06     3.96659E+06    -165.456E-03     330.012E-03    -164.555E-03     64.9849E-03    -165.858E-03     330.286E-03    -164.292E-03     63.2820E-03
            1590     9.92704E-03     60.5332E-03    -32.0177E+06     32.6085E+06     45.1038E+06     5.02377E+06    -165.049E-03     329.565E-03    -164.516E-03     60.2127E-03    -165.423E-03     329.811E-03    -164.292E-03     58.7589E-03
            1591     9.16260E-03     60.4557E-03    -39.9218E+06     12.6011E+06     32.3689E+06    -345.201E+03    -165.126E-03     329.619E-03    -164.493E-03     56.4151E-03    -165.472E-03     329.774E-03    -164.292E-03     55.0745E-03
            1592     8.40053E-03     60.3842E-03    -44.5889E+06    -13.9630E+06     24.5088E+06     2.11512E+06    -165.522E-03     329.992E-03    -164.470E-03     54.0981E-03    -165.820E-03     330.011E-03    -164.263E-03     53.0740E-03
            1593     7.63788E-03     60.3159E-03    -49.1877E+06    -37.4856E+06     15.3608E+06     3.66620E+06    -164.641E-03     329.094E-03    -164.453E-03     51.0085E-03    -164.894E-03     328.994E-03    -164.251E-03     50.2598E-03
            1594     6.87182E-03     60.2553E-03    -51.6158E+06    -58.1286E+06     4.10447E+06     5.32741E+06    -164.047E-03     328.536E-03    -164.489E-03     46.8908E-03    -164.247E-03     328.335E-03    -164.310E-03     46.3800E-03
            1595     6.10796E-03     60.1983E-03    -63.9293E+06    -90.6463E+06    -16.8775E+06     1.37770E+06    -164.530E-03     329.044E-03    -164.514E-03     42.0548E-03    -164.703E-03     328.717E-03    -164.374E-03     41.6135E-03
            1596     5.34482E-03     60.1478E-03    -76.2086E+06    -116.112E+06    -31.2938E+06    -3.08544E+06    -164.711E-03     329.225E-03    -164.514E-03     36.6118E-03    -164.879E-03     328.801E-03    -164.391E-03     36.1803E-03
            1597     4.58177E-03     60.1047E-03    -79.3032E+06    -127.331E+06    -39.7649E+06     666.897E+03    -164.396E-03     328.906E-03    -164.509E-03     31.2778E-03    -164.530E-03     328.422E-03    -164.409E-03     31.0338E-03
            1598     3.81747E-03     60.0656E-03    -87.0915E+06    -147.181E+06    -56.2119E+06     243.674E+03    -164.349E-03     328.859E-03    -164.510E-03     26.1551E-03    -164.453E-03     328.295E-03    -164.452E-03     26.0097E-03
            1599     3.05438E-03     60.0340E-03    -92.7998E+06    -160.823E+06    -68.6611E+06    -420.984E+03    -164.529E-03     329.032E-03    -164.502E-03     21.2714E-03    -164.624E-03     328.425E-03    -164.478E-03     21.1844E-03
            1600     2.29068E-03     60.0102E-03    -96.7211E+06    -173.747E+06    -83.6968E+06     487.430E+03    -164.478E-03     328.938E-03    -164.460E-03     16.4427E-03    -164.547E-03     328.291E-03    -164.486E-03     16.4135E-03
            1601     1.52738E-03     59.9932E-03    -99.7913E+06    -189.121E+06    -96.0110E+06    -1.28538E+06    -164.441E-03     328.891E-03    -164.450E-03     11.7547E-03    -164.485E-03     328.193E-03    -164.511E-03     11.7231E-03
            1602     763.439E-06     59.9828E-03    -106.143E+06    -206.788E+06    -101.688E+06     1.10257E+06    -164.491E-03     329.033E-03    -164.542E-03     6.60765E-03    -164.483E-03     328.316E-03    -164.597E-03     6.59841E-03
            1603     14.5143E-03     59.7157E-03    -3.63852E+06     74.7431E+06     82.4392E+06     1.31066E+06    -164.734E-03     329.137E-03    -164.403E-03     63.5659E-03    -165.145E-03     329.562E-03    -164.094E-03     61.2964E-03
            1604     13.7486E-03     59.6377E-03    -3.15257E+06     75.0630E+06     84.3894E+06     1.63837E+06    -163.919E-03     328.376E-03    -164.457E-03     68.7197E-03    -164.352E-03     328.819E-03    -164.139E-03     66.3956E-03
            1605     12.9811E-03     59.5460E-03    -11.6381E+06     67.1369E+06     77.5237E+06    -1.48683E+06    -163.790E-03     328.319E-03    -164.529E-03     68.5518E-03    -164.256E-03     328.757E-03    -164.222E-03     66.0797E-03
            1606     12.2160E-03     59.4678E-03    -20.3553E+06     49.3664E+06     65.1545E+06    -5.40075E+06    -164.390E-03     328.970E-03    -164.581E-03     67.4614E-03    -164.838E-03     329.333E-03    -164.297E-03     65.0890E-03
            1607     11.4534E-03     59.3801E-03    -24.9920E+06     37.6461E+06     55.6838E+06    -2.20600E+06    -165.760E-03     330.335E-03    -164.576E-03     66.9639E-03    -166.176E-03     330.635E-03    -164.316E-03     64.8956E-03
            1608     10.6911E-03     59.2948E-03    -35.1183E+06     30.5160E+06     47.2855E+06    -832.946E+03    -166.230E-03     330.742E-03    -164.512E-03     64.3696E-03    -166.652E-03     331.010E-03    -164.269E-03     62.5241E-03
            1609     9.92997E-03     59.2157E-03    -36.7965E+06     27.9753E+06     42.0053E+06     771.596E+03    -165.499E-03     329.940E-03    -164.441E-03     61.1837E-03    -165.890E-03     330.178E-03    -164.218E-03     59.6391E-03
            1610     9.16617E-03     59.1410E-03    -37.4316E+06     15.7784E+06     32.9490E+06     4.77640E+06    -164.758E-03     329.168E-03    -164.411E-03     58.3918E-03    -165.096E-03     329.334E-03    -164.215E-03     57.2224E-03
            1611     8.40081E-03     59.0656E-03    -43.7693E+06    -13.0415E+06     18.9093E+06     2.43765E+06    -164.438E-03     328.868E-03    -164.430E-03     55.0305E-03    -164.724E-03     328.897E-03    -164.253E-03     54.0629E-03
            1612     7.63551E-03     59.0015E-03    -52.5124E+06    -42.4579E+06     8.71058E+06     1.17817E+06    -164.536E-03     329.016E-03    -164.480E-03     50.4710E-03    -164.790E-03     328.907E-03    -164.298E-03     49.6411E-03
            1613     6.87256E-03     58.9390E-03    -59.5163E+06    -64.5877E+06     2.17285E+06     3.87941E+06    -164.702E-03     329.217E-03    -164.516E-03     45.8217E-03    -164.933E-03     329.002E-03    -164.325E-03     45.2284E-03
            1614     6.10876E-03     58.8811E-03    -59.7950E+06    -81.5000E+06    -7.70559E+06     2.86888E+06    -164.531E-03     329.043E-03    -164.512E-03     40.8693E-03    -164.707E-03     328.740E-03    -164.346E-03     40.3954E-03
            1615     5.34506E-03     58.8308E-03    -70.9700E+06    -109.756E+06    -27.3533E+06    -125.414E+03    -164.501E-03     328.999E-03    -164.498E-03     36.2314E-03    -164.652E-03     328.587E-03    -164.372E-03     35.8500E-03
            1616     4.58141E-03     58.7873E-03    -84.2070E+06    -131.349E+06    -43.4889E+06     528.305E+03    -164.618E-03     329.097E-03    -164.478E-03     31.7654E-03    -164.769E-03     328.609E-03    -164.383E-03     31.5356E-03
            1617     3.81865E-03     58.7499E-03    -88.3971E+06    -144.803E+06    -55.9265E+06     2.44401E+06    -164.364E-03     328.820E-03    -164.456E-03     27.0193E-03    -164.486E-03     328.277E-03    -164.398E-03     26.9268E-03
            1618     3.05367E-03     58.7181E-03    -88.7407E+06    -159.191E+06    -69.0372E+06     877.808E+03    -164.063E-03     328.555E-03    -164.492E-03     21.6643E-03    -164.145E-03     327.957E-03    -164.478E-03     21.6209E-03
            1619     2.28983E-03     58.6935E-03    -94.5214E+06    -172.716E+06    -83.3195E+06    -1.47525E+06    -164.224E-03     328.806E-03    -164.582E-03     16.1223E-03    -164.286E-03     328.163E-03    -164.611E-03     16.0670E-03
            1620     1.52556E-03     58.6771E-03    -102.943E+06    -189.236E+06    -95.4805E+06     51.3049E+03    -164.584E-03     329.239E-03    -164.655E-03     11.2187E-03    -164.641E-03     328.541E-03    -164.709E-03     11.1904E-03
            1621     763.423E-06     58.6630E-03    -104.888E+06    -208.670E+06    -104.349E+06     1.29625E+06    -164.766E-03     329.446E-03    -164.680E-03     6.71528E-03    -164.747E-03     328.718E-03    -164.747E-03     6.71636E-03
            1622     14.5097E-03     58.4035E-03    -3.33628E+06     73.4710E+06     80.2637E+06    -1.96166E+06    -164.360E-03     328.816E-03    -164.456E-03     63.9590E-03    -164.769E-03     329.241E-03    -164.156E-03     61.5928E-03
            1623     13.7459E-03     58.3183E-03    -10.6994E+06     68.1734E+06     78.8030E+06    -2.27074E+06    -164.186E-03     328.703E-03    -164.517E-03     68.3264E-03    -164.644E-03     329.136E-03    -164.206E-03     65.8723E-03
            1624     12.9839E-03     58.2341E-03    -12.7898E+06     68.1009E+06     77.3686E+06    -151.434E+03    -164.468E-03     329.038E-03    -164.570E-03     68.2795E-03    -164.940E-03     329.481E-03    -164.263E-03     65.8451E-03
            1625     12.2190E-03     58.1499E-03    -20.5446E+06     56.3507E+06     67.2232E+06     1.25388E+06    -165.839E-03     330.395E-03    -164.556E-03     66.7951E-03    -166.307E-03     330.795E-03    -164.272E-03     64.4510E-03
            1626     11.4560E-03     58.0610E-03    -30.8488E+06     37.6430E+06     52.6080E+06     1.96175E+06    -165.762E-03     330.253E-03    -164.491E-03     65.6610E-03    -166.204E-03     330.566E-03    -164.237E-03     63.6276E-03
            1627     10.6921E-03     57.9779E-03    -31.3578E+06     33.6107E+06     43.9095E+06    -3.36402E+06    -164.723E-03     329.177E-03    -164.455E-03     64.3602E-03    -165.120E-03     329.455E-03    -164.238E-03     62.5527E-03
            1628     9.92614E-03     57.8976E-03    -36.1466E+06     19.8418E+06     34.9070E+06    -3.89672E+06    -165.018E-03     329.481E-03    -164.463E-03     62.3415E-03    -165.383E-03     329.686E-03    -164.265E-03     60.7494E-03
            1629     9.16323E-03     57.8233E-03    -44.0676E+06     8.47933E+06     28.1391E+06    -291.323E+03    -165.155E-03     329.618E-03    -164.462E-03     58.9595E-03    -165.510E-03     329.764E-03    -164.270E-03     57.6713E-03
            1630     8.39959E-03     57.7518E-03    -51.5184E+06    -6.69392E+06     19.9161E+06     2.83253E+06    -164.620E-03     329.088E-03    -164.468E-03     54.6473E-03    -164.954E-03     329.158E-03    -164.284E-03     53.6549E-03
            1631     7.63636E-03     57.6835E-03    -57.9005E+06    -36.1625E+06     9.34027E+06     3.15193E+06    -164.794E-03     329.284E-03    -164.489E-03     50.3765E-03    -165.078E-03     329.206E-03    -164.306E-03     49.6069E-03
            1632     6.87330E-03     57.6211E-03    -67.2027E+06    -68.4915E+06    -3.85314E+06     2.00628E+06    -165.001E-03     329.479E-03    -164.478E-03     46.3121E-03    -165.254E-03     329.261E-03    -164.300E-03     45.6837E-03
            1633     6.11006E-03     57.5656E-03    -70.9703E+06    -88.5100E+06    -13.7424E+06     3.84086E+06    -164.469E-03     328.934E-03    -164.465E-03     41.5781E-03    -164.687E-03     328.626E-03    -164.303E-03     41.1262E-03
            1634     5.34511E-03     57.5151E-03    -69.5769E+06    -100.569E+06    -23.2382E+06     5.76836E+06    -164.145E-03     328.629E-03    -164.484E-03     36.6958E-03    -164.306E-03     328.255E-03    -164.354E-03     36.4450E-03
            1635     4.58118E-03     57.4704E-03    -78.6373E+06    -125.666E+06    -42.4920E+06     1.96121E+06    -164.425E-03     328.919E-03    -164.493E-03     31.8255E-03    -164.549E-03     328.441E-03    -164.410E-03     31.6302E-03
            1636     3.81686E-03     57.4332E-03    -88.9067E+06    -145.733E+06    -58.5755E+06    -2.49965E+06    -164.671E-03     329.135E-03    -164.464E-03     26.5656E-03    -164.781E-03     328.582E-03    -164.417E-03     26.3489E-03
            1637     3.05449E-03     57.4020E-03    -94.9394E+06    -160.772E+06    -71.3770E+06    -1.39973E+06    -164.468E-03     328.886E-03    -164.418E-03     20.8209E-03    -164.567E-03     328.284E-03    -164.404E-03     20.6985E-03
            1638     2.29018E-03     57.3778E-03    -99.1636E+06    -173.385E+06    -83.5483E+06     819.011E+03    -164.354E-03     328.747E-03    -164.393E-03     15.3444E-03    -164.429E-03     328.100E-03    -164.416E-03     15.3194E-03
            1639     1.52794E-03     57.3580E-03    -105.058E+06    -189.296E+06    -94.6138E+06     377.698E+03    -164.374E-03     328.765E-03    -164.391E-03     10.3174E-03    -164.438E-03     328.063E-03    -164.437E-03     10.2938E-03
            1640     762.937E-06     57.3494E-03    -107.895E+06    -207.604E+06    -104.540E+06    -204.964E+03    -164.218E-03     328.856E-03    -164.638E-03     6.36357E-03    -164.206E-03     328.135E-03    -164.703E-03     6.35140E-03
            1641     14.5112E-03     57.0846E-03    -2.48678E+06     75.1315E+06     84.1915E+06    -2.76487E+06    -164.198E-03     328.706E-03    -164.508E-03     61.9530E-03    -164.612E-03     329.134E-03    -164.192E-03     59.5096E-03
            1642     13.7474E-03     57.0033E-03    -15.2726E+06     60.6173E+06     71.7304E+06      56.241E+03    -164.564E-03     329.091E-03    -164.527E-03     67.0721E-03    -165.026E-03     329.506E-03    -164.234E-03     64.5633E-03
            1643     12.9795E-03     56.9184E-03    -22.2234E+06     56.0653E+06     64.6285E+06     1.86391E+06    -165.626E-03     330.145E-03    -164.519E-03     68.4684E-03    -166.103E-03     330.554E-03    -164.245E-03     66.0942E-03
            1644     12.2190E-03     56.8268E-03    -22.2851E+06     60.9985E+06     65.3136E+06     3.79160E+06    -166.022E-03     330.505E-03    -164.483E-03     67.8021E-03    -166.502E-03     330.932E-03    -164.212E-03     65.5166E-03
            1645     11.4571E-03     56.7456E-03    -22.7412E+06     51.8152E+06     59.3400E+06    -58.0465E+03    -165.054E-03     329.503E-03    -164.449E-03     66.2873E-03    -165.496E-03     329.876E-03    -164.195E-03     64.1318E-03
            1646     10.6914E-03     56.6632E-03    -31.8935E+06     33.3581E+06     42.2313E+06    -365.786E+03    -164.377E-03     328.818E-03    -164.440E-03     64.6396E-03    -164.775E-03     329.098E-03    -164.231E-03     62.8813E-03
            1647     9.92761E-03     56.5820E-03    -39.9536E+06     16.2045E+06     30.0139E+06    -249.576E+03    -164.693E-03     329.159E-03    -164.466E-03     61.4714E-03    -165.063E-03     329.358E-03    -164.282E-03     59.9524E-03
            1648     9.16349E-03     56.5043E-03    -45.6434E+06     6.84720E+06     28.7600E+06    -2.58552E+06    -165.070E-03     329.570E-03    -164.500E-03     57.2913E-03    -165.434E-03     329.713E-03    -164.300E-03     55.8944E-03
            1649     8.40089E-03     56.4349E-03    -54.9773E+06    -9.29860E+06     21.0202E+06     1.49341E+06    -164.980E-03     329.477E-03    -164.497E-03     54.0964E-03    -165.331E-03     329.538E-03    -164.299E-03     53.0532E-03
            1650     7.63649E-03     56.3672E-03    -57.9404E+06    -35.3639E+06     8.06812E+06     3.34572E+06    -164.637E-03     329.125E-03    -164.488E-03     51.0726E-03    -164.921E-03     329.055E-03    -164.312E-03     50.3500E-03
            1651     6.87198E-03     56.3040E-03    -58.0408E+06    -62.0319E+06    -1.13126E+06    -480.489E+03    -164.542E-03     329.057E-03    -164.515E-03     46.7318E-03    -164.762E-03     328.854E-03    -164.346E-03     46.1028E-03
            1652     6.10798E-03     56.2489E-03    -68.2341E+06    -87.6940E+06    -12.9467E+06     1.40259E+06    -164.709E-03     329.240E-03    -164.531E-03     41.8188E-03    -164.917E-03     328.932E-03    -164.369E-03     41.3415E-03
            1653     5.34542E-03     56.1988E-03    -77.8773E+06    -103.826E+06    -25.9906E+06     4.35921E+06    -164.722E-03     329.224E-03    -164.502E-03     36.8218E-03    -164.922E-03     328.854E-03    -164.368E-03     36.5385E-03
            1654     4.58111E-03     56.1547E-03    -80.2060E+06    -119.822E+06    -39.2834E+06     3.64295E+06    -164.629E-03     329.079E-03    -164.450E-03     31.3565E-03    -164.780E-03     328.635E-03    -164.357E-03     31.1671E-03
            1655     3.81855E-03     56.1150E-03    -85.7766E+06    -141.868E+06    -55.8711E+06     318.377E+03    -164.575E-03     328.966E-03    -164.391E-03     25.9007E-03    -164.681E-03     328.427E-03    -164.341E-03     25.7020E-03
            1656     3.05453E-03     56.0859E-03    -96.2410E+06    -163.680E+06    -71.5165E+06    -2.06187E+06    -164.586E-03     328.909E-03    -164.322E-03     21.1203E-03    -164.680E-03     328.288E-03    -164.303E-03     20.9626E-03
            1657     2.29230E-03     56.0605E-03    -102.510E+06    -174.746E+06    -84.4635E+06     1.17864E+06    -164.487E-03     328.703E-03    -164.216E-03     16.4590E-03    -164.569E-03     328.048E-03    -164.237E-03     16.4376E-03
            1658     1.52690E-03     56.0443E-03    -102.811E+06    -186.621E+06    -93.7493E+06     100.362E+03    -164.487E-03     328.534E-03    -164.047E-03     11.0755E-03    -164.547E-03     327.843E-03    -164.097E-03     11.0467E-03
            1659     764.682E-06     56.0306E-03    -109.978E+06    -208.527E+06    -103.387E+06    -2.05924E+06    -163.972E-03     327.956E-03    -163.984E-03     5.95792E-03    -163.966E-03     327.238E-03    -164.039E-03     5.90401E-03
            1660     14.5110E-03     55.7695E-03    -231.059E+03     74.9932E+06     85.1806E+06     1.99097E+06    -164.409E-03     328.892E-03    -164.484E-03     61.8351E-03    -164.806E-03     329.308E-03    -164.166E-03     59.4930E-03
            1661     13.7446E-03     55.6882E-03    -14.1477E+06     59.9544E+06     73.5336E+06     2.40792E+06    -165.750E-03     330.217E-03    -164.467E-03     66.0480E-03    -166.202E-03     330.619E-03    -164.166E-03     63.5937E-03
            1662     12.9863E-03     55.5973E-03    -21.0461E+06     57.8544E+06     68.5895E+06     2.68955E+06    -165.624E-03     330.048E-03    -164.424E-03     66.3166E-03    -166.108E-03     330.464E-03    -164.135E-03     63.8618E-03
            1663     12.2206E-03     55.5127E-03    -20.8302E+06     55.5994E+06     60.6493E+06    -3.71882E+06    -164.159E-03     328.563E-03    -164.404E-03     66.5557E-03    -164.614E-03     328.965E-03    -164.151E-03     64.1603E-03
            1664     11.4539E-03     55.4268E-03    -25.6749E+06     42.2093E+06     46.7958E+06    -5.34306E+06    -164.478E-03     328.896E-03    -164.417E-03     66.1239E-03    -164.905E-03     329.245E-03    -164.207E-03     63.8512E-03
            1665     10.6918E-03     55.3479E-03    -35.8029E+06     30.1202E+06     40.5731E+06     3.04893E+06    -165.203E-03     329.647E-03    -164.444E-03     64.3018E-03    -165.618E-03     329.924E-03    -164.233E-03     62.5064E-03
            1666     9.92798E-03     55.2640E-03    -42.0209E+06     23.4593E+06     35.4704E+06     2.58835E+06    -164.734E-03     329.189E-03    -164.454E-03     62.0256E-03    -165.131E-03     329.416E-03    -164.250E-03     60.5955E-03
            1667     9.16424E-03     55.1891E-03    -46.3386E+06     12.0343E+06     28.4124E+06     473.818E+03    -164.405E-03     328.892E-03    -164.487E-03     58.3500E-03    -164.780E-03     329.063E-03    -164.295E-03     57.0653E-03
            1668     8.39897E-03     55.1167E-03    -47.0537E+06    -9.41411E+06     22.7677E+06    -483.473E+03    -164.769E-03     329.301E-03    -164.532E-03     54.8290E-03    -165.082E-03     329.348E-03    -164.337E-03     53.7985E-03
            1669     7.63616E-03     55.0511E-03    -49.4536E+06    -31.7095E+06     13.7756E+06    -586.926E+03    -164.838E-03     329.382E-03    -164.544E-03     50.9741E-03    -165.097E-03     329.313E-03    -164.358E-03     50.1516E-03
            1670     6.87222E-03     54.9881E-03    -61.3530E+06    -60.5579E+06    -818.916E+03     1.54119E+06    -164.677E-03     329.227E-03    -164.550E-03     46.2715E-03    -164.917E-03     329.037E-03    -164.377E-03     45.6655E-03
            1671     6.10853E-03     54.9315E-03    -69.5366E+06    -85.7997E+06    -12.9658E+06      434.43E+03    -164.769E-03     329.318E-03    -164.549E-03     40.8738E-03    -164.981E-03     329.016E-03    -164.389E-03     40.3376E-03
            1672     5.34445E-03     54.8815E-03    -77.5472E+06    -104.861E+06    -26.6928E+06    -414.252E+03    -164.878E-03     329.381E-03    -164.503E-03     36.6206E-03    -165.065E-03     328.998E-03    -164.372E-03     36.2205E-03
            1673     4.58291E-03     54.8366E-03    -85.9082E+06    -122.712E+06    -40.8963E+06    -180.928E+03    -164.685E-03     329.127E-03    -164.442E-03     32.1577E-03    -164.859E-03     328.679E-03    -164.344E-03     31.9111E-03
            1674     3.81813E-03     54.8004E-03    -88.9795E+06    -138.882E+06    -54.5558E+06     2.90554E+06    -164.283E-03     328.690E-03    -164.408E-03     27.0033E-03    -164.421E-03     328.179E-03    -164.350E-03     26.8854E-03
            1675     3.05452E-03     54.7684E-03    -94.4145E+06    -161.044E+06    -71.9833E+06     1.45147E+06    -164.329E-03     328.725E-03    -164.396E-03     21.9874E-03    -164.422E-03     328.122E-03    -164.386E-03     21.9206E-03
            1676     2.28957E-03     54.7454E-03    -99.4938E+06    -173.784E+06    -84.3938E+06    -1.67555E+06    -164.592E-03     328.939E-03    -164.348E-03     16.8432E-03    -164.653E-03     328.278E-03    -164.374E-03     16.7797E-03
            1677     1.52826E-03     54.7260E-03    -104.079E+06    -187.271E+06    -95.4704E+06    -1.05446E+06    -164.636E-03     328.827E-03    -164.191E-03     11.8207E-03    -164.690E-03     328.126E-03    -164.246E-03     11.7736E-03
            1678     764.156E-06     54.7169E-03    -107.872E+06    -209.383E+06    -105.978E+06    -1.75696E+06    -164.199E-03     328.265E-03    -164.066E-03     5.73259E-03    -164.175E-03     327.545E-03    -164.136E-03     5.69415E-03
            1679     14.5107E-03     54.4534E-03    -5.15917E+06     70.4438E+06     80.8325E+06     5.04780E+06    -166.377E-03     330.804E-03    -164.426E-03     61.9000E-03    -166.782E-03     331.206E-03    -164.117E-03     59.6034E-03
            1680     13.7515E-03     54.3674E-03    -7.52274E+06     67.1864E+06     84.0259E+06     2.81916E+06    -166.095E-03     330.480E-03    -164.385E-03     65.9718E-03    -166.537E-03     330.890E-03    -164.051E-03     63.5344E-03
            1681     12.9854E-03     54.2794E-03    -10.6750E+06     68.0286E+06     80.4673E+06    -1.06387E+06    -164.270E-03     328.635E-03    -164.365E-03     67.3912E-03    -164.743E-03     329.078E-03    -164.046E-03     64.8661E-03
            1682     12.2209E-03     54.2010E-03    -14.9212E+06     52.9952E+06     64.1860E+06     1.73169E+06    -163.745E-03     328.126E-03    -164.382E-03     67.7492E-03    -164.170E-03     328.501E-03    -164.116E-03     65.5168E-03
            1683     11.4563E-03     54.1114E-03    -27.5268E+06     32.0134E+06     45.3322E+06     5.78676E+06    -164.528E-03     328.936E-03    -164.408E-03     66.8392E-03    -164.931E-03     329.223E-03    -164.188E-03     64.9324E-03
            1684     10.6916E-03     54.0286E-03    -32.6064E+06     32.5659E+06     43.5589E+06     2.73934E+06    -164.964E-03     329.403E-03    -164.439E-03     63.9383E-03    -165.371E-03     329.684E-03    -164.221E-03     62.1606E-03
            1685     9.92815E-03     53.9489E-03    -31.6202E+06     33.0567E+06     42.5364E+06    -1.31615E+06    -164.497E-03     328.963E-03    -164.467E-03     61.7345E-03    -164.868E-03     329.216E-03    -164.256E-03     60.2163E-03
            1686     9.16271E-03     53.8732E-03    -43.0863E+06     12.0320E+06     26.7923E+06    -3.55469E+06    -164.429E-03     328.919E-03    -164.490E-03     58.5429E-03    -164.783E-03     329.086E-03    -164.311E-03     57.2428E-03
            1687     8.39962E-03     53.8000E-03    -47.8386E+06    -15.2601E+06     20.5365E+06    -6.72037E+06    -164.794E-03     329.340E-03    -164.546E-03     54.2557E-03    -165.104E-03     329.367E-03    -164.352E-03     53.1020E-03
            1688     7.63521E-03     53.7331E-03    -50.5143E+06    -32.2674E+06     18.8774E+06    -2.94329E+06    -164.911E-03     329.491E-03    -164.581E-03     50.0925E-03    -165.182E-03     329.415E-03    -164.366E-03     49.1723E-03
            1689     6.87229E-03     53.6712E-03    -64.1317E+06    -58.6149E+06     1.86514E+06     2.78214E+06    -164.835E-03     329.392E-03    -164.557E-03     46.1318E-03    -165.094E-03     329.210E-03    -164.370E-03     45.5075E-03
            1690     6.10906E-03     53.6145E-03    -76.4609E+06    -91.0598E+06    -17.8819E+06     866.580E+03    -164.591E-03     329.125E-03    -164.534E-03     41.6322E-03    -164.826E-03     328.818E-03    -164.381E-03     41.1244E-03
            1691     5.34586E-03     53.5651E-03    -74.2897E+06    -101.841E+06    -24.7013E+06     139.336E+03    -164.400E-03     328.946E-03    -164.546E-03     37.2802E-03    -164.581E-03     328.574E-03    -164.414E-03     36.9198E-03
            1692     4.57988E-03     53.5200E-03    -78.6978E+06    -121.027E+06    -39.8044E+06    -1.98758E+06    -164.209E-03     328.778E-03    -164.569E-03     32.4173E-03    -164.348E-03     328.323E-03    -164.478E-03     32.1277E-03
            1693     3.81745E-03     53.4837E-03    -90.5445E+06    -143.355E+06    -58.1520E+06    -1.07289E+06    -164.323E-03     328.929E-03    -164.606E-03     27.6214E-03    -164.451E-03     328.396E-03    -164.558E-03     27.4497E-03
            1694     3.05328E-03     53.4528E-03    -95.4634E+06    -156.320E+06    -71.0683E+06     1.61593E+06    -164.632E-03     329.244E-03    -164.612E-03     22.4838E-03    -164.733E-03     328.659E-03    -164.602E-03     22.4457E-03
            1695     2.29141E-03     53.4271E-03    -99.3525E+06    -172.771E+06    -86.2610E+06    -636.318E+03    -164.550E-03     329.141E-03    -164.592E-03     16.7584E-03    -164.610E-03     328.488E-03    -164.628E-03     16.7149E-03
            1696     1.52585E-03     53.4110E-03    -104.750E+06    -190.225E+06    -97.9050E+06    -1.65441E+06    -164.345E-03     329.031E-03    -164.686E-03     11.9971E-03    -164.401E-03     328.325E-03    -164.748E-03     11.9529E-03
            1697     762.802E-06     53.3988E-03    -110.488E+06    -212.198E+06    -108.017E+06    -337.483E+03    -164.764E-03     329.659E-03    -164.895E-03     5.85433E-03    -164.746E-03     328.934E-03    -164.967E-03     5.88337E-03
            1698     14.5137E-03     53.1296E-03    -10.6912E+06     66.1108E+06     77.0374E+06     1.80023E+06    -165.390E-03     329.797E-03    -164.407E-03     63.7723E-03    -165.805E-03     330.186E-03    -164.102E-03     61.5393E-03
            1699     13.7497E-03     53.0499E-03    -5.21330E+06     68.2533E+06     83.5131E+06     2.55015E+06    -164.662E-03     329.099E-03    -164.437E-03     69.8574E-03    -165.090E-03     329.508E-03    -164.111E-03     67.5390E-03
            1700     12.9847E-03     52.9687E-03    -7.50735E+06     69.2498E+06     81.1042E+06    -739.651E+03    -164.798E-03     329.259E-03    -164.461E-03     70.3984E-03    -165.251E-03     329.695E-03    -164.145E-03     67.9900E-03
            1701     12.2193E-03     52.8816E-03    -12.8949E+06     56.6174E+06     73.8825E+06     4.93050E+06    -165.472E-03     329.932E-03    -164.461E-03     68.2643E-03    -165.907E-03     330.308E-03    -164.155E-03     66.0558E-03
            1702     11.4560E-03     52.7972E-03    -16.2744E+06     45.5945E+06     66.8081E+06     10.3819E+06    -165.049E-03     329.497E-03    -164.448E-03     66.7890E-03    -165.444E-03     329.802E-03    -164.156E-03     64.9858E-03
            1703     10.6921E-03     52.7105E-03    -27.5855E+06     36.6765E+06     47.2162E+06     1.49227E+06    -164.479E-03     328.890E-03    -164.411E-03     63.7560E-03    -164.871E-03     329.177E-03    -164.188E-03     61.9705E-03
            1704     9.92725E-03     52.6345E-03    -33.9211E+06     30.6811E+06     38.4680E+06    -1.18596E+06    -164.609E-03     329.038E-03    -164.429E-03     60.6587E-03    -164.991E-03     329.296E-03    -164.232E-03     59.0459E-03
            1705     9.16404E-03     52.5553E-03    -37.0368E+06     18.4322E+06     36.3408E+06    -1.50456E+06    -164.663E-03     329.138E-03    -164.476E-03     57.8354E-03    -165.010E-03     329.314E-03    -164.267E-03     56.5155E-03
            1706     8.40002E-03     52.4836E-03    -53.6473E+06    -19.6447E+06     18.3903E+06    -4.98847E+06    -164.520E-03     329.022E-03    -164.502E-03     54.1056E-03    -164.851E-03     329.040E-03    -164.304E-03     52.9145E-03
            1707     7.63674E-03     52.4165E-03    -65.9781E+06    -50.2713E+06     4.89662E+06    -3.49852E+06    -164.402E-03     328.946E-03    -164.544E-03     50.6429E-03    -164.704E-03     328.822E-03    -164.351E-03     49.7361E-03
            1708     6.87243E-03     52.3538E-03    -62.5091E+06    -63.0159E+06    -316.014E+03    -1.25037E+06    -164.187E-03     328.787E-03    -164.600E-03     46.8387E-03    -164.427E-03     328.582E-03    -164.420E-03     46.1744E-03
            1709     6.10788E-03     52.2988E-03    -65.5490E+06    -84.6196E+06    -12.7064E+06    -637.271E+03    -164.219E-03     328.881E-03    -164.662E-03     42.9711E-03    -164.414E-03     328.580E-03    -164.508E-03     42.4981E-03
            1710     5.34345E-03     52.2477E-03    -74.7489E+06    -105.822E+06    -27.2448E+06    -714.850E+03    -164.305E-03     329.030E-03    -164.725E-03     38.2883E-03    -164.480E-03     328.644E-03    -164.599E-03     37.9671E-03
            1711     4.58150E-03     52.2046E-03    -80.1163E+06    -121.407E+06    -39.5754E+06     1.85470E+06    -164.336E-03     329.124E-03    -164.788E-03     32.8698E-03    -164.486E-03     328.674E-03    -164.694E-03     32.6864E-03
            1712     3.81551E-03     52.1672E-03    -86.2195E+06    -140.526E+06    -56.4030E+06     2.25523E+06    -164.664E-03     329.480E-03    -164.816E-03     27.5801E-03    -164.779E-03     328.956E-03    -164.769E-03     27.4595E-03
            1713     3.05324E-03     52.1338E-03    -91.2586E+06    -155.274E+06    -70.5402E+06    -331.284E+03    -164.633E-03     329.472E-03    -164.839E-03     22.2492E-03    -164.705E-03     328.876E-03    -164.834E-03     22.1407E-03
            1714     2.28859E-03     52.1113E-03    -101.718E+06    -175.085E+06    -87.3683E+06    -1.01349E+06    -164.610E-03     329.509E-03    -164.899E-03     16.9945E-03    -164.666E-03     328.837E-03    -164.935E-03     16.9375E-03
            1715     1.52654E-03     52.0936E-03    -108.945E+06    -192.214E+06    -98.4234E+06    -461.389E+03    -164.889E-03     329.860E-03    -164.971E-03     11.4686E-03    -164.958E-03     329.146E-03    -165.026E-03     11.4337E-03
            1716     762.394E-06     52.0815E-03    -110.703E+06    -210.104E+06    -106.099E+06     859.964E+03    -164.934E-03     330.082E-03    -165.148E-03     5.54465E-03    -164.913E-03     329.352E-03    -165.213E-03     5.59531E-03
            1717     14.5107E-03     51.8178E-03    -4.64566E+06     67.3747E+06     75.0593E+06     1.15572E+06    -162.956E-03     327.426E-03    -164.470E-03     65.0811E-03    -163.335E-03     327.810E-03    -164.186E-03     62.9219E-03
            1718     13.7422E-03     51.7348E-03    -9.05562E+06     66.1300E+06     75.0496E+06    -2.50740E+06    -164.666E-03     329.225E-03    -164.559E-03     69.1544E-03    -165.098E-03     329.642E-03    -164.266E-03     66.7573E-03
            1719     12.9797E-03     51.6478E-03    -12.3462E+06     68.4099E+06     79.9030E+06    -552.972E+03    -166.712E-03     331.276E-03    -164.564E-03     67.9153E-03    -167.191E-03     331.722E-03    -164.245E-03     65.3917E-03
            1720     12.2202E-03     51.5630E-03    -19.2447E+06     53.1227E+06     72.9522E+06     181.921E+03    -166.221E-03     330.708E-03    -164.486E-03     66.3160E-03    -166.693E-03     331.087E-03    -164.170E-03     63.8503E-03
            1721     11.4575E-03     51.4795E-03    -22.3209E+06     41.2242E+06     63.5924E+06     1.17166E+06    -165.070E-03     329.503E-03    -164.432E-03     66.4373E-03    -165.493E-03     329.808E-03    -164.142E-03     64.3695E-03
            1722     10.6925E-03     51.3965E-03    -23.2288E+06     42.0832E+06     54.7441E+06     2.71795E+06    -164.815E-03     329.220E-03    -164.405E-03     64.4009E-03    -165.202E-03     329.516E-03    -164.159E-03     62.6360E-03
            1723     9.92909E-03     51.3163E-03    -34.9559E+06     30.6931E+06     41.1279E+06     1.68081E+06    -164.778E-03     329.172E-03    -164.394E-03     61.0175E-03    -165.168E-03     329.428E-03    -164.182E-03     59.4347E-03
            1724     9.16515E-03     51.2393E-03    -41.5047E+06     16.8556E+06     37.6689E+06     4.85224E+06    -164.067E-03     328.524E-03    -164.457E-03     58.4525E-03    -164.437E-03     328.698E-03    -164.233E-03     57.2336E-03
            1725     8.40034E-03     51.1680E-03    -46.0260E+06    -8.42789E+06     25.3709E+06     7.41260E+06    -163.733E-03     328.275E-03    -164.541E-03     55.8337E-03    -164.044E-03     328.319E-03    -164.336E-03     54.9455E-03
            1726     7.63537E-03     51.0999E-03    -55.2295E+06    -46.6969E+06     4.41661E+06     58.8665E+03    -163.887E-03     328.519E-03    -164.631E-03     52.3748E-03    -164.138E-03     328.394E-03    -164.461E-03     51.6051E-03
            1727     6.87081E-03     51.0393E-03    -64.3117E+06    -72.3230E+06    -8.54826E+06    -3.95067E+06    -164.046E-03     328.789E-03    -164.743E-03     48.1307E-03    -164.269E-03     328.552E-03    -164.588E-03     47.4887E-03
            1728     6.10626E-03     50.9819E-03    -64.9368E+06    -83.4087E+06    -13.6431E+06    -255.953E+03    -164.274E-03     329.128E-03    -164.853E-03     43.1164E-03    -164.458E-03     328.825E-03    -164.706E-03     42.6724E-03
            1729     5.34284E-03     50.9310E-03    -72.0867E+06    -105.437E+06    -28.0695E+06    -1.78700E+06    -164.408E-03     329.342E-03    -164.934E-03     37.7485E-03    -164.557E-03     328.943E-03    -164.817E-03     37.3744E-03
            1730     4.57704E-03     50.8877E-03    -83.8608E+06    -125.645E+06    -42.6154E+06     260.345E+03    -164.743E-03     329.738E-03    -164.995E-03     32.8405E-03    -164.892E-03     329.267E-03    -164.904E-03     32.6300E-03
            1731     3.81681E-03     50.8477E-03    -86.8535E+06    -139.333E+06    -53.1000E+06     1.78813E+06    -164.693E-03     329.735E-03    -165.043E-03     27.9042E-03    -164.822E-03     329.216E-03    -164.980E-03     27.7728E-03
            1732     3.05231E-03     50.8185E-03    -91.6181E+06    -155.879E+06     -69.498E+06     2.09893E+06    -164.627E-03     329.733E-03    -165.106E-03     22.6762E-03    -164.712E-03     329.144E-03    -165.095E-03     22.6116E-03
            1733     2.28899E-03     50.7932E-03    -99.1105E+06    -173.561E+06    -83.6018E+06     1.52929E+06    -165.141E-03     330.299E-03    -165.158E-03     17.0601E-03    -165.195E-03     329.629E-03    -165.181E-03     17.0539E-03
            1734     1.52565E-03     50.7739E-03    -107.001E+06    -191.215E+06    -96.8143E+06     637.937E+03    -165.381E-03     330.462E-03    -165.081E-03     11.4855E-03    -165.439E-03     329.745E-03    -165.133E-03     11.4626E-03
            1735     764.579E-06     50.7642E-03    -107.660E+06    -208.942E+06    -106.515E+06     272.744E+03    -164.792E-03     330.122E-03    -165.330E-03     6.58331E-03    -164.751E-03     329.378E-03    -165.403E-03     6.59142E-03
            1736     14.5085E-03     50.5048E-03    -2.81701E+06     69.0905E+06     77.1391E+06    -455.318E+03    -164.975E-03     329.459E-03    -164.484E-03     61.0267E-03    -165.353E-03     329.849E-03    -164.194E-03     58.6920E-03
            1737     13.7471E-03     50.4175E-03    -3.59898E+06     72.1853E+06     82.3190E+06    -951.971E+03    -165.313E-03     329.818E-03    -164.505E-03     65.4913E-03    -165.736E-03     330.245E-03    -164.193E-03     63.0278E-03
            1738     12.9855E-03     50.3255E-03    -12.6538E+06     63.2167E+06     72.7663E+06     218.146E+03    -165.207E-03     329.686E-03    -164.479E-03     66.6432E-03    -165.670E-03     330.118E-03    -164.189E-03     64.1307E-03
            1739     12.2206E-03     50.2463E-03    -24.9742E+06     42.6071E+06     56.2215E+06    -4.46915E+06    -165.364E-03     329.803E-03    -164.439E-03     66.7850E-03    -165.829E-03     330.167E-03    -164.183E-03     64.2757E-03
            1740     11.4553E-03     50.1631E-03    -27.1384E+06     41.7951E+06     58.4615E+06    -3.88501E+06    -165.408E-03     329.851E-03    -164.443E-03     66.8266E-03    -165.854E-03     330.179E-03    -164.172E-03     64.6736E-03
            1741     10.6923E-03     50.0795E-03    -27.9147E+06     42.2613E+06     56.6396E+06     4.03266E+06    -164.933E-03     329.369E-03    -164.437E-03     64.8647E-03    -165.347E-03     329.670E-03    -164.174E-03     63.1647E-03
            1742     9.92866E-03     49.9984E-03    -35.1237E+06     27.8712E+06     40.2731E+06     4.19877E+06    -163.880E-03     328.324E-03    -164.445E-03     62.1568E-03    -164.262E-03     328.565E-03    -164.233E-03     60.6751E-03
            1743     9.16363E-03     49.9259E-03    -38.5299E+06     15.7164E+06     32.7401E+06     7.03725E+06    -163.274E-03     327.836E-03    -164.563E-03     60.5268E-03    -163.619E-03     328.005E-03    -164.366E-03     59.4250E-03
            1744     8.39798E-03     49.8522E-03    -41.0629E+06    -5.43308E+06     24.8339E+06     8.61900E+06    -163.711E-03     328.429E-03    -164.718E-03     57.7445E-03    -163.996E-03     328.477E-03    -164.526E-03     57.0047E-03
            1745     7.63322E-03     49.7847E-03    -47.0048E+06    -38.0020E+06     10.3556E+06     2.47312E+06    -164.278E-03     329.111E-03    -164.833E-03     52.3546E-03    -164.510E-03     329.011E-03    -164.658E-03     51.6201E-03
            1746     6.86872E-03     49.7224E-03    -51.6479E+06    -61.3430E+06     1.44453E+06     129.263E+03    -164.491E-03     329.422E-03    -164.932E-03     47.4730E-03    -164.683E-03     329.210E-03    -164.761E-03     46.8507E-03
            1747     6.10609E-03     49.6639E-03    -67.0265E+06    -85.5219E+06    -14.9614E+06    -170.612E+03    -164.584E-03     329.584E-03    -165.000E-03     42.7466E-03    -164.774E-03     329.277E-03    -164.854E-03     42.2979E-03
            1748     5.34151E-03     49.6154E-03    -80.9682E+06    -110.587E+06    -32.7371E+06     392.353E+03    -164.743E-03     329.792E-03    -165.049E-03     37.4439E-03    -164.927E-03     329.391E-03    -164.935E-03     37.0863E-03
            1749     4.58032E-03     49.5680E-03    -79.7412E+06    -123.335E+06    -42.5069E+06    -238.730E+03    -164.432E-03     329.556E-03    -165.124E-03     32.5289E-03    -164.559E-03     329.086E-03    -165.042E-03     32.2500E-03
            1750     3.81369E-03     49.5320E-03    -87.7919E+06    -142.963E+06    -56.7725E+06    -1.81120E+06    -164.382E-03     329.646E-03    -165.264E-03     27.9634E-03    -164.491E-03     329.100E-03    -165.213E-03     27.7715E-03
            1751     3.05042E-03     49.4997E-03    -100.641E+06    -160.384E+06    -72.3725E+06     1.72180E+06    -165.129E-03     330.496E-03    -165.367E-03     23.0127E-03    -165.240E-03     329.893E-03    -165.350E-03     22.9519E-03
            1752     2.28854E-03     49.4732E-03    -98.3833E+06    -169.227E+06    -81.1975E+06     3.50290E+06    -165.398E-03     330.777E-03    -165.378E-03     17.3151E-03    -165.457E-03     330.121E-03    -165.396E-03     17.3274E-03
            1753     1.52615E-03     49.4566E-03    -100.573E+06    -184.363E+06    -92.9579E+06     2.21227E+06    -165.195E-03     330.621E-03    -165.426E-03     11.8583E-03    -165.238E-03     329.927E-03    -165.478E-03     11.8962E-03
            1754     761.086E-06     49.4447E-03    -109.965E+06    -211.690E+06    -107.141E+06     64.7188E+03    -165.245E-03     331.079E-03    -165.834E-03     6.81437E-03    -165.216E-03     330.329E-03    -165.903E-03     6.79623E-03
            1755     14.5144E-03     49.1832E-03    -2.30503E+06     71.6274E+06     84.4458E+06    -3.20280E+06    -166.743E-03     331.132E-03    -164.389E-03     59.8151E-03    -167.138E-03     331.528E-03    -164.067E-03     57.3449E-03
            1756     13.7518E-03     49.1002E-03    -5.57565E+06     68.8836E+06     84.5469E+06     644.840E+03    -164.488E-03     328.852E-03    -164.364E-03     66.1900E-03    -164.921E-03     329.265E-03    -164.033E-03     63.7549E-03
            1757     12.9825E-03     49.0146E-03    -10.9256E+06     61.0717E+06      72.251E+06     3.70972E+06    -163.010E-03     327.413E-03    -164.402E-03     68.0769E-03    -163.445E-03     327.816E-03    -164.114E-03     65.8015E-03
            1758     12.2170E-03     48.9272E-03    -17.0467E+06     49.0893E+06     57.7616E+06    -595.772E+03    -164.111E-03     328.569E-03    -164.458E-03     67.2899E-03    -164.529E-03     328.934E-03    -164.216E-03     65.0215E-03
            1759     11.4563E-03     48.8452E-03    -29.1613E+06     39.4203E+06     49.6482E+06    -1.95550E+06    -164.863E-03     329.366E-03    -164.503E-03     67.4323E-03    -165.299E-03     329.695E-03    -164.270E-03     65.3629E-03
            1760     10.6925E-03     48.7619E-03    -31.6566E+06     37.8445E+06     49.3993E+06     926.106E+03    -163.876E-03     328.456E-03    -164.580E-03     67.0608E-03    -164.296E-03     328.754E-03    -164.342E-03     65.3680E-03
            1761     9.92654E-03     48.6857E-03    -36.3011E+06     25.6492E+06     36.2442E+06     4.32463E+06    -163.445E-03     328.119E-03    -164.674E-03     64.5369E-03    -163.823E-03     328.354E-03    -164.477E-03     63.1495E-03
            1762     9.15987E-03     48.6109E-03    -41.8694E+06     14.5322E+06     26.9354E+06     4.92444E+06    -164.326E-03     329.109E-03    -164.782E-03     61.2925E-03    -164.677E-03     329.284E-03    -164.608E-03     60.1541E-03
            1763     8.39570E-03     48.5358E-03    -40.7652E+06    -2.23839E+06     27.0475E+06     1.34215E+06    -164.939E-03     329.820E-03    -164.881E-03     56.3308E-03    -165.236E-03     329.886E-03    -164.684E-03     55.3645E-03
            1764     7.63243E-03     48.4671E-03    -53.9387E+06    -36.3697E+06     10.6108E+06     2.94684E+06    -164.811E-03     329.730E-03    -164.920E-03     50.5985E-03    -165.080E-03     329.649E-03    -164.736E-03     49.7932E-03
            1765     6.87010E-03     48.4043E-03    -62.5651E+06    -64.0025E+06    -2.77942E+06     3.61257E+06    -164.495E-03     329.473E-03    -164.978E-03     46.3072E-03    -164.730E-03     329.267E-03    -164.809E-03     45.6717E-03
            1766     6.10423E-03     48.3486E-03    -61.7465E+06    -80.1152E+06    -9.92963E+06     4.04890E+06    -164.395E-03     329.466E-03    -165.071E-03     42.3239E-03    -164.574E-03     329.170E-03    -164.915E-03     41.9020E-03
            1767     5.34236E-03     48.2944E-03    -73.3022E+06    -105.981E+06    -28.5982E+06     249.317E+03    -164.361E-03     329.527E-03    -165.166E-03     37.9481E-03    -164.525E-03     329.138E-03    -165.049E-03     37.5889E-03
            1768     4.57671E-03     48.2534E-03    -85.6264E+06    -128.880E+06    -46.4628E+06    -1.37734E+06    -164.479E-03     329.761E-03    -165.282E-03     33.2106E-03    -164.633E-03     329.289E-03    -165.203E-03     32.9250E-03
            1769     3.81423E-03     48.2141E-03    -89.7470E+06    -142.695E+06    -58.9135E+06     3.15400E+06    -164.970E-03     330.348E-03    -165.378E-03     27.8915E-03    -165.089E-03     329.814E-03    -165.336E-03     27.8058E-03
            1770     3.05159E-03     48.1797E-03    -94.6704E+06    -158.985E+06    -72.8530E+06    -520.385E+03    -165.098E-03     330.546E-03    -165.448E-03     22.5077E-03    -165.174E-03     329.936E-03    -165.445E-03     22.3960E-03
            1771     2.28782E-03     48.1550E-03    -102.740E+06    -172.507E+06    -85.8036E+06    -1.16687E+06    -165.086E-03     330.650E-03    -165.564E-03     17.1253E-03    -165.145E-03     329.982E-03    -165.594E-03     17.0476E-03
            1772     1.52408E-03     48.1368E-03    -104.253E+06    -182.923E+06    -93.0035E+06     2.98779E+06    -165.477E-03     331.182E-03    -165.706E-03     11.5994E-03    -165.534E-03     330.493E-03    -165.754E-03     11.6600E-03
            1773     763.429E-06     48.1255E-03    -107.979E+06    -205.622E+06    -102.315E+06     2.66176E+06    -165.747E-03     331.625E-03    -165.878E-03     6.78685E-03    -165.727E-03     330.906E-03    -165.935E-03     6.79331E-03
            1774     14.5138E-03     47.8638E-03    -3.12028E+06     69.1737E+06     82.6722E+06    -2.63276E+06    -165.333E-03     329.683E-03    -164.350E-03     62.1572E-03    -165.732E-03     330.077E-03    -164.032E-03     59.6998E-03
            1775     13.7485E-03     47.7859E-03    -7.60797E+06     65.1632E+06     80.6896E+06    -2.06345E+06    -164.349E-03     328.710E-03    -164.362E-03     67.1535E-03    -164.793E-03     329.124E-03    -164.042E-03     64.6151E-03
            1776     12.9866E-03     47.7017E-03    -13.6708E+06     64.7972E+06     77.6061E+06     3.06289E+06    -163.177E-03     327.614E-03    -164.437E-03     69.0528E-03    -163.640E-03     328.034E-03    -164.123E-03     66.8082E-03
            1777     12.2209E-03     47.6130E-03    -15.5566E+06     54.7811E+06     68.6517E+06     9.19256E+06    -162.390E-03     326.957E-03    -164.567E-03     69.5528E-03    -162.811E-03     327.318E-03    -164.281E-03     67.6199E-03
            1778     11.4523E-03     47.5282E-03    -24.8077E+06     35.7319E+06     45.7620E+06     4.82250E+06    -162.662E-03     327.355E-03    -164.693E-03     69.6897E-03    -163.054E-03     327.653E-03    -164.480E-03     67.8662E-03
            1779     10.6858E-03     47.4484E-03    -35.3938E+06     28.6179E+06     35.0294E+06    -4.42409E+06    -163.754E-03     328.594E-03    -164.840E-03     67.9758E-03    -164.159E-03     328.874E-03    -164.655E-03     66.1863E-03
            1780     9.92001E-03     47.3699E-03    -34.4850E+06     30.5319E+06     41.2473E+06    -1.65254E+06    -165.404E-03     330.357E-03    -164.953E-03     63.7292E-03    -165.789E-03     330.609E-03    -164.741E-03     62.1833E-03
            1781     9.15912E-03     47.2911E-03    -45.5994E+06     14.2646E+06     28.3463E+06    -106.417E+03    -166.293E-03     331.202E-03    -164.909E-03     58.9938E-03    -166.668E-03     331.384E-03    -164.722E-03     57.6488E-03
            1782     8.39769E-03     47.2175E-03    -52.1114E+06    -6.82671E+06     20.4074E+06     773.383E+03    -165.341E-03     330.220E-03    -164.880E-03     54.7158E-03    -165.688E-03     330.299E-03    -164.692E-03     53.5662E-03
            1783     7.63431E-03     47.1493E-03    -54.3433E+06    -29.0658E+06     14.8004E+06     4.84748E+06    -164.431E-03     329.365E-03    -164.934E-03     50.9994E-03    -164.719E-03     329.315E-03    -164.740E-03     50.1804E-03
            1784     6.86839E-03     47.0891E-03    -71.3796E+06    -67.0286E+06    -8.50114E+06     3.15715E+06    -164.412E-03     329.408E-03    -164.996E-03     47.0779E-03    -164.677E-03     329.206E-03    -164.837E-03     46.4335E-03
            1785     6.10680E-03     47.0296E-03    -69.7170E+06    -84.0584E+06    -15.2113E+06     3.43465E+06    -164.032E-03     329.155E-03    -165.122E-03     42.8920E-03    -164.238E-03     328.859E-03    -164.976E-03     42.4475E-03
            1786     5.33980E-03     46.9806E-03    -67.4674E+06    -99.1770E+06    -23.7282E+06     2.12204E+06    -164.072E-03     329.361E-03    -165.290E-03     38.0926E-03    -164.214E-03     328.981E-03    -165.167E-03     37.7532E-03
            1787     4.57679E-03     46.9339E-03    -86.2866E+06    -129.611E+06    -47.1237E+06    -190.569E+03    -165.110E-03     330.495E-03    -165.385E-03     32.8509E-03    -165.250E-03     330.006E-03    -165.308E-03     32.5845E-03
            1788     3.81443E-03     46.8939E-03    -91.8376E+06    -143.780E+06    -58.3032E+06     334.669E+03    -165.404E-03     330.809E-03    -165.405E-03     27.7089E-03    -165.529E-03     330.267E-03    -165.354E-03     27.5588E-03
            1789     3.05091E-03     46.8625E-03    -88.8727E+06    -153.829E+06    -69.2201E+06     411.293E+03    -165.133E-03     330.551E-03    -165.418E-03     22.4514E-03    -165.208E-03     329.967E-03    -165.413E-03     22.3510E-03
            1790     2.28751E-03     46.8362E-03     -98.162E+06    -172.411E+06    -85.5055E+06    -853.685E+03    -165.316E-03     330.779E-03    -165.463E-03     16.4745E-03    -165.375E-03     330.127E-03    -165.498E-03     16.4080E-03
            1791     1.52562E-03     46.8167E-03    -106.962E+06    -187.519E+06    -96.5662E+06    -1.61320E+06    -165.553E-03     331.018E-03    -165.464E-03     10.8812E-03    -165.623E-03     330.325E-03    -165.520E-03     10.8319E-03
            1792     761.859E-06     46.8043E-03    -102.122E+06    -202.433E+06    -102.897E+06    -874.901E+03    -165.607E-03     330.992E-03    -165.385E-03     6.35762E-03    -165.568E-03     330.296E-03    -165.458E-03     6.32944E-03
            1793     14.5108E-03     46.5482E-03    -938.177E+03     68.7233E+06     80.6089E+06    -374.238E+03    -163.229E-03     327.700E-03    -164.471E-03     65.0238E-03    -163.609E-03     328.087E-03    -164.166E-03     62.7354E-03
            1794     13.7482E-03     46.4678E-03    -11.6202E+06     61.5487E+06     75.6369E+06     309.959E+03    -164.658E-03     329.203E-03    -164.544E-03     69.7079E-03    -165.109E-03     329.611E-03    -164.238E-03     67.2563E-03
            1795     12.9820E-03     46.3859E-03    -17.1397E+06     61.6625E+06     73.4328E+06     3.53930E+06    -163.850E-03     328.460E-03    -164.611E-03     71.2446E-03    -164.324E-03     328.880E-03    -164.308E-03     68.9965E-03
            1796     12.2155E-03     46.3017E-03    -26.9132E+06     50.7711E+06     62.2367E+06     6.87527E+06    -162.599E-03     327.329E-03    -164.730E-03     71.0115E-03    -163.068E-03     327.703E-03    -164.453E-03     69.0438E-03
            1797     11.4487E-03     46.2170E-03    -24.7350E+06     43.1631E+06     52.4226E+06     3.29870E+06    -163.251E-03     328.120E-03    -164.869E-03     67.7587E-03    -163.666E-03     328.448E-03    -164.633E-03     65.8816E-03
            1798     10.6834E-03     46.1308E-03    -28.5726E+06     36.1774E+06     42.8393E+06     102.618E+03    -165.179E-03     330.117E-03    -164.939E-03     63.2846E-03    -165.574E-03     330.415E-03    -164.735E-03     61.4311E-03
            1799     9.92354E-03     46.0490E-03    -35.3972E+06     23.9158E+06     38.1690E+06    -2.73538E+06    -166.312E-03     331.244E-03    -164.933E-03     60.3843E-03    -166.693E-03     331.474E-03    -164.725E-03     58.6811E-03
            1800     9.16103E-03     45.9697E-03    -43.9598E+06     10.9255E+06     28.1120E+06    -4.74507E+06    -165.468E-03     330.353E-03    -164.885E-03     57.7802E-03    -165.835E-03     330.521E-03    -164.696E-03     56.2777E-03
            1801     8.39710E-03     45.9008E-03    -57.2921E+06    -9.68391E+06     16.6259E+06     689.831E+03    -164.294E-03     329.223E-03    -164.929E-03     55.7096E-03    -164.659E-03     329.302E-03    -164.749E-03     54.5712E-03
            1802     7.63118E-03     45.8342E-03    -58.1257E+06    -32.8436E+06     12.4542E+06     3.63306E+06    -164.379E-03     329.431E-03    -165.053E-03     52.9053E-03    -164.681E-03     329.375E-03    -164.859E-03     52.1041E-03
            1803     6.86926E-03     45.7695E-03    -56.4037E+06    -54.3994E+06     3.12679E+06     1.01673E+06    -164.423E-03     329.578E-03    -165.155E-03     48.0440E-03    -164.652E-03     329.405E-03    -164.979E-03     47.3308E-03
            1804     6.10289E-03     45.7152E-03    -75.7469E+06    -89.8993E+06    -20.7347E+06     419.436E+03    -164.468E-03     329.713E-03    -165.245E-03     43.3879E-03    -164.691E-03     329.408E-03    -165.109E-03     42.8902E-03
            1805     5.34075E-03     45.6624E-03    -83.1340E+06    -105.717E+06    -30.3248E+06     5.56610E+06    -165.086E-03     330.416E-03    -165.329E-03     38.4369E-03    -165.293E-03     330.040E-03    -165.207E-03     38.1810E-03
            1806     4.57767E-03     45.6142E-03    -76.4533E+06    -114.714E+06    -36.5860E+06     4.50993E+06    -165.326E-03     330.674E-03    -165.348E-03     32.7137E-03    -165.451E-03     330.228E-03    -165.254E-03     32.4999E-03
            1807     3.81398E-03     45.5760E-03    -85.7805E+06    -142.307E+06    -56.2085E+06    -2.45585E+06    -165.330E-03     330.660E-03    -165.331E-03     27.0754E-03    -165.420E-03     330.104E-03    -165.281E-03     26.8233E-03
            1808     3.05126E-03     45.5431E-03    -98.6658E+06    -159.345E+06    -71.8090E+06    -1.31810E+06    -165.529E-03     330.813E-03    -165.284E-03     21.8677E-03    -165.633E-03     330.210E-03    -165.269E-03     21.7187E-03
            1809     2.28955E-03     45.5164E-03    -99.6723E+06    -169.357E+06    -83.2474E+06     2.26938E+06    -165.550E-03     330.714E-03    -165.164E-03     16.4231E-03    -165.618E-03     330.070E-03    -165.190E-03     16.3999E-03
            1810     1.52622E-03     45.4983E-03    -102.031E+06    -185.263E+06    -96.0760E+06    -891.206E+03    -165.389E-03     330.377E-03    -164.988E-03     11.0954E-03    -165.431E-03     329.679E-03    -165.052E-03     11.0427E-03
            1811     763.952E-06     45.4862E-03    -110.753E+06    -207.873E+06    -107.426E+06    -3.55211E+06    -165.315E-03     329.889E-03    -164.574E-03     5.88602E-03    -165.301E-03     329.176E-03    -164.649E-03     5.82559E-03
            1812     14.5071E-03     45.2334E-03     629.182E+03     69.2609E+06     80.6824E+06     2.14600E+06    -162.286E-03     326.892E-03    -164.606E-03     64.6015E-03    -162.645E-03     327.265E-03    -164.304E-03     62.5045E-03
            1813     13.7402E-03     45.1501E-03    -11.4549E+06     61.3561E+06     74.0375E+06     3.82881E+06    -163.206E-03     327.953E-03    -164.747E-03     67.7728E-03    -163.645E-03     328.354E-03    -164.449E-03     65.4253E-03
            1814     12.9780E-03     45.0692E-03    -18.7435E+06     61.2705E+06     71.9526E+06     3.82860E+06    -164.518E-03     329.363E-03    -164.845E-03     68.9445E-03    -165.003E-03     329.791E-03    -164.547E-03     66.5418E-03
            1815     12.2140E-03     44.9877E-03    -23.0207E+06     55.8103E+06     66.7580E+06    -789.609E+03    -166.092E-03     330.944E-03    -164.852E-03     67.9521E-03    -166.568E-03     331.342E-03    -164.565E-03     65.5925E-03
            1816     11.4519E-03     44.8985E-03    -24.6968E+06     44.9755E+06     58.6067E+06    -3.81744E+06    -166.096E-03     330.890E-03    -164.794E-03     64.5980E-03    -166.534E-03     331.230E-03    -164.531E-03     62.3801E-03
            1817     10.6908E-03     44.8131E-03    -30.7410E+06     35.2315E+06     44.8678E+06     1.15275E+06    -164.928E-03     329.675E-03    -164.747E-03     62.9202E-03    -165.331E-03     329.964E-03    -164.529E-03     61.1177E-03
            1818     9.92499E-03     44.7293E-03    -40.2573E+06     17.8213E+06     30.2554E+06     4.00118E+06    -164.110E-03     328.896E-03    -164.786E-03     62.1429E-03    -164.488E-03     329.107E-03    -164.603E-03     60.6560E-03
            1819     9.16032E-03     44.6545E-03    -34.4064E+06     15.8020E+06     36.1408E+06     1.21291E+06    -163.611E-03     328.559E-03    -164.947E-03     58.8623E-03    -163.951E-03     328.728E-03    -164.740E-03     57.4538E-03
            1820     8.39353E-03     44.5859E-03    -45.0651E+06    -7.96832E+06     21.8297E+06     906.504E+03    -164.112E-03     329.190E-03    -165.078E-03     55.9425E-03    -164.415E-03     329.242E-03    -164.892E-03     54.8747E-03
            1821     7.63142E-03     44.5144E-03    -62.6502E+06    -49.5707E+06     188.834E+03    -2.19916E+06    -164.613E-03     329.793E-03    -165.181E-03     52.4191E-03    -164.886E-03     329.667E-03    -165.017E-03     51.5390E-03
            1822     6.86580E-03     44.4539E-03    -56.9895E+06    -58.6872E+06     5.07362E+06    -2.41247E+06    -164.745E-03     330.061E-03    -165.316E-03     47.3876E-03    -164.973E-03     329.864E-03    -165.123E-03     46.5724E-03
            1823     6.10367E-03     44.3965E-03    -58.6633E+06    -70.3618E+06    -990.083E+03     4.27914E+06    -165.489E-03     330.854E-03    -165.365E-03     42.7959E-03    -165.678E-03     330.588E-03    -165.183E-03     42.3159E-03
            1824     5.34067E-03     44.3421E-03    -71.5506E+06    -97.6520E+06    -21.4193E+06     3.45348E+06    -165.702E-03     331.019E-03    -165.318E-03     38.2171E-03    -165.877E-03     330.656E-03    -165.180E-03     37.8852E-03
            1825     4.57786E-03     44.2966E-03    -79.5086E+06    -117.392E+06    -36.2536E+06     900.591E+03    -165.427E-03     330.695E-03    -165.268E-03     32.8192E-03    -165.581E-03     330.255E-03    -165.164E-03     32.5342E-03
            1826     3.81517E-03     44.2567E-03    -86.2783E+06    -137.174E+06    -51.4200E+06     3.10580E+06    -165.541E-03     330.742E-03    -165.201E-03     27.1766E-03    -165.663E-03     330.221E-03    -165.134E-03     27.0233E-03
            1827     3.05270E-03     44.2239E-03    -95.1780E+06    -160.251E+06    -70.9363E+06     923.191E+03    -165.470E-03     330.553E-03    -165.083E-03     21.8752E-03    -165.563E-03     329.947E-03    -165.067E-03     21.7582E-03
            1828     2.28893E-03     44.1982E-03    -99.9381E+06    -171.141E+06    -83.5451E+06    -778.739E+03    -165.162E-03     330.143E-03    -164.981E-03     16.8515E-03    -165.232E-03     329.495E-03    -165.006E-03     16.7678E-03
            1829     1.52642E-03     44.1796E-03    -102.952E+06    -182.848E+06    -92.6457E+06     1.05990E+06    -165.057E-03     329.968E-03    -164.911E-03     11.7083E-03    -165.114E-03     329.283E-03    -164.959E-03     11.6780E-03
            1830     763.305E-06     44.1685E-03    -112.454E+06    -209.885E+06    -104.317E+06     1.32434E+06    -165.009E-03     329.835E-03    -164.826E-03     6.90819E-03    -165.006E-03     329.098E-03    -164.880E-03     6.90876E-03
            1831     14.5107E-03     43.9203E-03    -3.43251E+06     64.1126E+06     78.4050E+06     6.05451E+06    -163.914E-03     328.596E-03    -164.682E-03     63.6677E-03    -164.284E-03     328.955E-03    -164.378E-03     61.5866E-03
            1832     13.7446E-03     43.8384E-03    -10.2953E+06     65.6782E+06     77.0705E+06     3.81394E+06    -163.560E-03     328.333E-03    -164.774E-03     65.5347E-03    -164.006E-03     328.752E-03    -164.469E-03     63.1260E-03
            1833     12.9753E-03     43.7523E-03    -14.2902E+06     68.3447E+06     74.9548E+06    -1.20183E+06    -165.486E-03     330.301E-03    -164.816E-03     65.1832E-03    -165.973E-03     330.763E-03    -164.519E-03     62.5577E-03
            1834     12.2152E-03     43.6629E-03    -21.1803E+06     56.5042E+06     65.2025E+06    -1.89309E+06    -166.626E-03     331.382E-03    -164.755E-03     65.9398E-03    -167.095E-03     331.787E-03    -164.481E-03     63.4882E-03
            1835     11.4562E-03     43.5779E-03    -28.1780E+06     39.1382E+06     52.6436E+06    -355.691E+03    -165.680E-03     330.364E-03    -164.685E-03     66.7173E-03    -166.121E-03     330.692E-03    -164.437E-03     64.5152E-03
            1836     10.6897E-03     43.4996E-03    -32.0150E+06     31.7016E+06     44.3262E+06     774.610E+03    -163.946E-03     328.657E-03    -164.711E-03     66.7090E-03    -164.351E-03     328.932E-03    -164.489E-03     64.9481E-03
            1837     9.92422E-03     43.4150E-03    -37.2939E+06     27.1818E+06     38.8970E+06     1.11512E+06    -162.968E-03     327.830E-03    -164.862E-03     64.3202E-03    -163.350E-03     328.063E-03    -164.652E-03     62.9243E-03
            1838     9.15715E-03     43.3404E-03    -44.0532E+06     11.9323E+06     32.2790E+06     614.483E+03    -163.803E-03     328.846E-03    -165.042E-03     59.2655E-03    -164.175E-03     329.010E-03    -164.834E-03     57.9210E-03
            1839     8.39514E-03     43.2662E-03    -47.1408E+06    -9.25702E+06     20.5034E+06     1.03271E+06    -164.612E-03     329.757E-03    -165.145E-03     55.0789E-03    -164.927E-03     329.813E-03    -164.961E-03     53.9406E-03
            1840     7.62982E-03     43.1990E-03    -48.6665E+06    -38.1340E+06     10.5068E+06    -2.14002E+06    -164.618E-03     329.862E-03    -165.245E-03     51.4770E-03    -164.852E-03     329.758E-03    -165.066E-03     50.5298E-03
            1841     6.86710E-03     43.1353E-03    -64.3522E+06    -68.1822E+06    -2.33447E+06    -2.63976E+06    -165.392E-03     330.711E-03    -165.319E-03     47.3036E-03    -165.630E-03     330.485E-03    -165.138E-03     46.5167E-03
            1842     6.10388E-03     43.0757E-03    -66.1708E+06    -77.1540E+06    -4.78393E+06     714.150E+03    -165.889E-03     331.206E-03    -165.317E-03     42.5509E-03    -166.104E-03     330.927E-03    -165.133E-03     41.9878E-03
            1843     5.34126E-03     43.0239E-03    -65.2930E+06     -91.278E+06    -13.4387E+06     1.62672E+06    -165.576E-03     330.839E-03    -165.262E-03     37.6176E-03    -165.733E-03     330.479E-03    -165.102E-03     37.1792E-03
            1844     4.57807E-03     42.9774E-03    -81.0002E+06    -119.591E+06    -37.3690E+06     2.07439E+06    -165.464E-03     330.648E-03    -165.185E-03     32.7679E-03    -165.607E-03     330.188E-03    -165.081E-03     32.4680E-03
            1845     3.81540E-03     42.9375E-03    -88.1211E+06    -139.006E+06    -51.5515E+06    -82.9412E+03    -165.348E-03     330.473E-03    -165.125E-03     27.7204E-03    -165.474E-03     329.942E-03    -165.054E-03     27.5046E-03
            1846     3.05241E-03     42.9053E-03    -89.9930E+06    -153.505E+06    -64.4501E+06     374.161E+03    -165.150E-03     330.217E-03    -165.067E-03     22.5227E-03    -165.239E-03     329.630E-03    -165.036E-03     22.3895E-03
            1847     2.28986E-03     42.8808E-03    -96.7840E+06    -169.949E+06    -80.7536E+06     426.034E+03    -165.050E-03     330.073E-03    -165.023E-03     17.2777E-03    -165.110E-03     329.423E-03    -165.040E-03     17.2134E-03
            1848     1.52597E-03     42.8614E-03    -102.859E+06    -185.570E+06    -93.2655E+06    -971.967E+03    -164.885E-03     329.939E-03    -165.053E-03     11.5577E-03    -164.930E-03     329.237E-03    -165.102E-03     11.5049E-03
            1849     762.268E-06     42.8515E-03    -106.203E+06    -208.113E+06    -102.792E+06    -264.382E+03    -164.982E-03     330.302E-03    -165.320E-03     6.52014E-03    -164.952E-03     329.550E-03    -165.378E-03     6.50080E-03
            1850     14.5053E-03     42.6045E-03    -6.67120E+06     62.7659E+06     77.6745E+06     1.31688E+06    -165.242E-03     329.979E-03    -164.737E-03     62.8272E-03    -165.634E-03     330.345E-03    -164.430E-03     60.5622E-03
            1851     13.7423E-03     42.5212E-03    -8.33203E+06     66.6592E+06     80.6054E+06     2.93364E+06    -166.704E-03     331.420E-03    -164.716E-03     67.0370E-03    -167.151E-03     331.841E-03    -164.398E-03     64.5492E-03
            1852     12.9855E-03     42.4328E-03    -7.78715E+06     70.8859E+06     80.8496E+06     4.06021E+06    -165.804E-03     330.466E-03    -164.662E-03     66.4846E-03    -166.266E-03     330.918E-03    -164.349E-03     63.9822E-03
            1853     12.2198E-03     42.3464E-03    -15.3019E+06     59.6476E+06     64.3497E+06     2.18962E+06    -163.447E-03     328.103E-03    -164.656E-03     67.2251E-03    -163.887E-03     328.513E-03    -164.398E-03     64.9543E-03
            1854     11.4491E-03     42.2636E-03    -28.0068E+06     37.5979E+06     47.5416E+06     2.47974E+06    -163.209E-03     327.977E-03    -164.768E-03     68.5995E-03    -163.630E-03     328.295E-03    -164.544E-03     66.6287E-03
            1855     10.6870E-03     42.1801E-03    -27.3027E+06     36.6438E+06     52.5799E+06     3.63032E+06    -164.400E-03     329.327E-03    -164.927E-03     66.9832E-03    -164.800E-03     329.607E-03    -164.677E-03     65.2366E-03
            1856     9.92192E-03     42.1037E-03    -33.0179E+06     32.0008E+06     44.8922E+06     3.24170E+06    -164.574E-03     329.573E-03    -164.999E-03     63.6337E-03    -164.955E-03     329.821E-03    -164.773E-03     62.1836E-03
            1857     9.15901E-03     42.0207E-03    -47.3960E+06     8.72293E+06     25.9852E+06    -2.60222E+06    -164.455E-03     329.513E-03    -165.059E-03     59.8004E-03    -164.823E-03     329.670E-03    -164.873E-03     58.4703E-03
            1858     8.39434E-03     41.9496E-03    -53.4549E+06    -13.7347E+06     18.0941E+06    -7.30525E+06    -164.683E-03     329.842E-03    -165.159E-03     55.4997E-03    -165.025E-03     329.893E-03    -164.971E-03     54.2061E-03
            1859     7.63092E-03     41.8817E-03    -48.5071E+06    -26.6295E+06     19.8407E+06    -157.031E+03    -165.268E-03     330.514E-03    -165.246E-03     51.8298E-03    -165.541E-03     330.463E-03    -165.038E-03     50.8937E-03
            1860     6.86684E-03     41.8156E-03    -55.2284E+06    -57.3351E+06     3.95942E+06     999.545E+03    -165.643E-03     330.884E-03    -165.241E-03     47.3085E-03    -165.861E-03     330.691E-03    -165.058E-03     46.5851E-03
            1861     6.10483E-03     41.7568E-03    -77.9866E+06    -99.6958E+06    -24.2902E+06    -7.41561E+06    -165.456E-03     330.649E-03    -165.193E-03     42.6804E-03    -165.678E-03     330.311E-03    -165.057E-03     41.9653E-03
            1862     5.34169E-03     41.7050E-03    -80.8784E+06    -107.517E+06    -25.4873E+06    -3.67166E+06    -165.350E-03     330.555E-03    -165.205E-03     38.3135E-03    -165.556E-03     330.167E-03    -165.059E-03     37.7991E-03
            1863     4.57885E-03     41.6588E-03    -74.4552E+06    -111.997E+06    -28.6833E+06     2.61659E+06    -165.225E-03     330.420E-03    -165.195E-03     33.4464E-03    -165.365E-03     329.982E-03    -165.068E-03     33.1571E-03
            1864     3.81546E-03     41.6193E-03    -81.4022E+06    -136.627E+06    -49.8540E+06     329.697E+03    -164.992E-03     330.165E-03    -165.173E-03     28.1621E-03    -165.087E-03     329.631E-03    -165.106E-03     27.9295E-03
            1865     3.05174E-03     41.5878E-03    -91.4308E+06    -154.750E+06    -65.3526E+06    -610.465E+03    -164.996E-03     330.198E-03    -165.202E-03     22.8993E-03    -165.079E-03     329.598E-03    -165.171E-03     22.7421E-03
            1866     2.28829E-03     41.5613E-03    -96.4716E+06    -168.074E+06    -78.8800E+06     397.092E+03    -165.163E-03     330.379E-03    -165.217E-03     17.4747E-03    -165.212E-03     329.721E-03    -165.227E-03     17.4169E-03
            1867     1.52608E-03     41.5447E-03    -100.365E+06    -185.507E+06    -91.8446E+06     20.1561E+03    -165.328E-03     330.516E-03    -165.187E-03     11.7773E-03    -165.350E-03     329.794E-03    -165.232E-03     11.7520E-03
            1868     763.545E-06     41.5316E-03    -104.474E+06    -208.351E+06    -102.201E+06     1.04602E+06    -165.554E-03     330.433E-03    -164.879E-03     6.76025E-03    -165.513E-03     329.666E-03    -164.936E-03     6.72149E-03
            1869     14.5064E-03     41.2852E-03    -2.29137E+06     59.8875E+06     75.0680E+06    -1.19059E+06    -165.520E-03     330.127E-03    -164.606E-03     59.2155E-03    -165.878E-03     330.472E-03    -164.315E-03     56.8921E-03
            1870     13.7468E-03     41.1974E-03    -7.67152E+06     65.7391E+06     76.3013E+06     574.374E+03    -165.188E-03     329.792E-03    -164.603E-03     65.0604E-03    -165.622E-03     330.210E-03    -164.306E-03     62.5477E-03
            1871     12.9805E-03     41.1141E-03    -13.8839E+06     65.9012E+06     76.1945E+06     2.24235E+06    -163.400E-03     328.075E-03    -164.675E-03     68.8821E-03    -163.870E-03     328.509E-03    -164.370E-03     66.4988E-03
            1872     12.2151E-03     41.0354E-03    -10.8399E+06     60.8033E+06     74.0550E+06     4.95323E+06    -163.216E-03     328.023E-03    -164.807E-03     69.9952E-03    -163.645E-03     328.414E-03    -164.509E-03     67.8196E-03
            1873     11.4516E-03     40.9506E-03    -9.89427E+06     48.2873E+06     65.7154E+06     4.73005E+06    -164.069E-03     328.987E-03    -164.919E-03     67.8580E-03    -164.439E-03     329.304E-03    -164.646E-03     65.9203E-03
            1874     10.6834E-03     40.8624E-03    -27.9814E+06     33.1244E+06     48.8793E+06     3.31971E+06    -164.649E-03     329.630E-03    -164.980E-03     64.0644E-03    -165.043E-03     329.899E-03    -164.743E-03     62.2474E-03
            1875     9.92265E-03     40.7828E-03    -38.8877E+06     26.3335E+06     37.8765E+06     4.18059E+06    -164.884E-03     329.906E-03    -165.022E-03     61.9890E-03    -165.287E-03     330.154E-03    -164.814E-03     60.3762E-03
            1876     9.15831E-03     40.7056E-03    -33.9460E+06     23.2065E+06     38.9779E+06     1.99661E+06    -164.558E-03     329.666E-03    -165.107E-03     60.1000E-03    -164.908E-03     329.864E-03    -164.897E-03     58.7476E-03
            1877     8.39350E-03     40.6321E-03    -41.1061E+06    -3.18429E+06     28.3171E+06    -3.20288E+06    -165.095E-03     330.279E-03    -165.184E-03     56.1584E-03    -165.397E-03     330.342E-03    -164.978E-03     54.9642E-03
            1878     7.63071E-03     40.5618E-03    -60.8062E+06    -40.1991E+06     7.99316E+06    -4.21788E+06    -165.787E-03     330.975E-03    -165.188E-03     52.2535E-03    -166.083E-03     330.889E-03    -165.001E-03     51.2610E-03
            1879     6.86936E-03     40.4966E-03    -62.3875E+06    -62.0320E+06     1.16704E+06    -723.978E+03    -165.197E-03     330.398E-03    -165.201E-03     47.9247E-03    -165.440E-03     330.197E-03    -165.015E-03     47.1574E-03
            1880     6.10450E-03     40.4396E-03    -61.6423E+06    -83.5175E+06    -10.2796E+06    -647.576E+03    -164.842E-03     330.083E-03    -165.241E-03     43.9338E-03    -165.016E-03     329.771E-03    -165.082E-03     43.3192E-03
            1881     5.34094E-03     40.3863E-03    -75.1227E+06    -112.078E+06    -32.3249E+06    -5.19737E+06    -165.082E-03     330.353E-03    -165.271E-03     39.7169E-03    -165.238E-03     329.938E-03    -165.162E-03     39.2276E-03
            1882     4.57769E-03     40.3401E-03    -79.7681E+06    -124.994E+06    -38.5246E+06    -5.57924E+06    -165.157E-03     330.485E-03    -165.328E-03     34.4327E-03    -165.301E-03     330.014E-03    -165.224E-03     34.0613E-03
            1883     3.81424E-03     40.3018E-03    -81.0655E+06    -134.276E+06    -46.4563E+06     1.60548E+06    -165.174E-03     330.534E-03    -165.360E-03     28.6507E-03    -165.293E-03     330.024E-03    -165.280E-03     28.4545E-03
            1884     3.05157E-03     40.2686E-03    -86.0112E+06    -152.429E+06    -63.8665E+06     2.14894E+06    -165.268E-03     330.625E-03    -165.357E-03     22.9761E-03    -165.342E-03     330.040E-03    -165.330E-03     22.8546E-03
            1885     2.28862E-03     40.2439E-03    -92.9100E+06    -169.098E+06    -77.4715E+06    -578.684E+03    -165.321E-03     330.685E-03    -165.364E-03     17.1520E-03    -165.366E-03     330.028E-03    -165.371E-03     17.0519E-03
            1886     1.52511E-03     40.2238E-03    -100.631E+06    -185.800E+06    -90.2936E+06     227.249E+03    -165.432E-03     330.778E-03    -165.346E-03     11.6717E-03    -165.464E-03     330.063E-03    -165.382E-03     11.6187E-03
            1887     762.692E-06     40.2142E-03    -103.349E+06    -207.598E+06    -100.685E+06     1.01909E+06    -165.700E-03     330.759E-03    -165.059E-03     6.96617E-03    -165.655E-03     329.994E-03    -165.111E-03     6.90936E-03
            1888     14.5167E-03     39.9676E-03    -6.39208E+06     61.5228E+06     73.8970E+06     2.43808E+06    -164.767E-03     329.277E-03    -164.509E-03     64.1369E-03    -165.135E-03     329.624E-03    -164.219E-03     62.1090E-03
            1889     13.7475E-03     39.8843E-03    -9.80239E+06     68.9008E+06     76.3309E+06    -523.856E+03    -162.471E-03     327.080E-03    -164.608E-03     67.9081E-03    -162.914E-03     327.510E-03    -164.312E-03     65.5295E-03
            1890     12.9787E-03     39.8055E-03    -15.4323E+06     65.5699E+06     72.5821E+06    -4.91302E+06    -162.356E-03     327.134E-03    -164.778E-03     68.2416E-03    -162.834E-03     327.580E-03    -164.487E-03     65.7474E-03
            1891     12.2120E-03     39.7162E-03    -18.3237E+06     54.0155E+06     67.8847E+06    -5.53835E+06    -164.782E-03     329.680E-03    -164.898E-03     68.5425E-03    -165.236E-03     330.064E-03    -164.611E-03     66.1225E-03
            1892     11.4497E-03     39.6305E-03    -19.8076E+06     39.4059E+06     61.2328E+06     992.883E+03    -165.792E-03     330.707E-03    -164.915E-03     66.5758E-03    -166.204E-03     331.011E-03    -164.637E-03     64.3998E-03
            1893     10.6904E-03     39.5475E-03    -19.7250E+06     40.3229E+06     58.5111E+06     7.82120E+06    -164.644E-03     329.578E-03    -164.934E-03     64.1375E-03    -165.024E-03     329.862E-03    -164.671E-03     62.3601E-03
            1894     9.92181E-03     39.4662E-03    -25.8710E+06     34.2554E+06     49.0090E+06     1.27764E+06    -164.013E-03     329.019E-03    -165.006E-03     61.7355E-03    -164.379E-03     329.272E-03    -164.773E-03     60.0942E-03
            1895     9.15753E-03     39.3884E-03    -39.5939E+06     18.9220E+06     36.7229E+06     3.26995E+06    -164.613E-03     329.711E-03    -165.097E-03     59.4273E-03    -164.984E-03     329.901E-03    -164.884E-03     58.0842E-03
            1896     8.39475E-03     39.3136E-03    -41.4610E+06     2.91641E+06     31.5129E+06     7.09231E+06    -165.104E-03     330.276E-03    -165.172E-03     56.4543E-03    -165.422E-03     330.366E-03    -164.959E-03     55.4306E-03
            1897     7.63180E-03     39.2415E-03    -46.8596E+06    -34.1236E+06     15.3412E+06    -716.979E+03    -164.781E-03     330.012E-03    -165.231E-03     53.0593E-03    -165.026E-03     329.925E-03    -165.037E-03     52.0974E-03
            1898     6.86657E-03     39.1807E-03    -64.2441E+06    -71.2792E+06    -5.45890E+06    -2.04082E+06    -164.684E-03     329.999E-03    -165.315E-03     49.5799E-03    -164.915E-03     329.765E-03    -165.146E-03     48.8266E-03
            1899     6.10330E-03     39.1209E-03    -66.8488E+06    -86.4276E+06    -12.5388E+06     837.028E+03    -165.043E-03     330.455E-03    -165.412E-03     45.1069E-03    -165.234E-03     330.138E-03    -165.252E-03     44.5774E-03
            1900     5.33971E-03     39.0685E-03    -67.7862E+06    -103.484E+06    -27.3711E+06    -1.00681E+06    -165.187E-03     330.637E-03    -165.450E-03     39.6401E-03    -165.317E-03     330.239E-03    -165.339E-03     39.1976E-03
            1901     4.57616E-03     39.0215E-03    -78.2159E+06    -128.875E+06    -43.9896E+06    -4.78161E+06    -165.229E-03     330.729E-03    -165.500E-03     34.0814E-03    -165.341E-03     330.234E-03    -165.420E-03     33.6575E-03
            1902     3.81380E-03     38.9821E-03    -86.8770E+06    -144.179E+06    -52.8230E+06    -5.34764E+06    -165.357E-03     330.920E-03    -165.563E-03     28.7808E-03    -165.469E-03     330.366E-03    -165.492E-03     28.4495E-03
            1903     3.05069E-03     38.9500E-03    -90.6861E+06    -151.592E+06    -64.6165E+06    -1.38106E+06    -165.479E-03     331.053E-03    -165.574E-03     23.5414E-03    -165.565E-03     330.468E-03    -165.546E-03     23.3747E-03
            1904     2.28830E-03     38.9235E-03    -96.1136E+06    -169.260E+06    -79.1245E+06     1.56697E+06    -165.555E-03     331.129E-03    -165.573E-03     17.9670E-03    -165.605E-03     330.467E-03    -165.584E-03     17.9164E-03
            1905     1.52601E-03     38.9067E-03    -100.814E+06    -186.871E+06    -91.6908E+06     898.616E+03    -165.604E-03     331.171E-03    -165.567E-03     12.2694E-03    -165.633E-03     330.450E-03    -165.608E-03     12.2376E-03
            1906     762.596E-06     38.8930E-03    -103.632E+06    -204.742E+06    -102.590E+06    -588.195E+03    -165.641E-03     331.227E-03    -165.586E-03     6.56227E-03    -165.598E-03     330.486E-03    -165.651E-03     6.51256E-03
            1907     14.5035E-03     38.6503E-03    -17.3957E+06     62.5131E+06     70.4621E+06    -3.53438E+06    -162.872E-03     327.490E-03    -164.618E-03     64.5624E-03    -163.248E-03     327.812E-03    -164.331E-03     62.4192E-03
            1908     13.7412E-03     38.5714E-03    -6.50337E+06     71.4957E+06     82.8248E+06    -2.52833E+06    -163.648E-03     328.416E-03    -164.768E-03     67.4658E-03    -164.068E-03     328.823E-03    -164.448E-03     64.9402E-03
            1909     12.9785E-03     38.4895E-03    -6.86453E+06     69.9323E+06     83.2646E+06     962.553E+03    -165.206E-03     330.042E-03    -164.836E-03     68.1040E-03    -165.671E-03     330.489E-03    -164.511E-03     65.5344E-03
            1910     12.2165E-03     38.3992E-03    -16.6616E+06     53.3467E+06     66.2120E+06    -1.65163E+06    -164.744E-03     329.572E-03    -164.827E-03     67.4091E-03    -165.191E-03     329.957E-03    -164.549E-03     64.9909E-03
            1911     11.4525E-03     38.3113E-03    -31.2864E+06     30.5945E+06     45.6027E+06    -3.68268E+06    -163.762E-03     328.634E-03    -164.872E-03     68.0708E-03    -164.190E-03     328.928E-03    -164.643E-03     65.9523E-03
            1912     10.6848E-03     38.2306E-03    -32.3787E+06     30.3957E+06     46.7254E+06    -3.95900E+06    -164.561E-03     329.555E-03    -164.995E-03     67.9970E-03    -164.973E-03     329.825E-03    -164.758E-03     66.1227E-03
            1913     9.92405E-03     38.1503E-03    -23.5633E+06     35.1690E+06     53.4393E+06     1.40901E+06    -164.964E-03     330.057E-03    -165.093E-03     64.8316E-03    -165.325E-03     330.304E-03    -164.843E-03     63.2436E-03
            1914     9.15913E-03     38.0720E-03    -30.1915E+06     27.5403E+06     43.5992E+06     7.77242E+06    -164.674E-03     329.827E-03    -165.153E-03     62.0810E-03    -165.010E-03     330.027E-03    -164.931E-03     60.9187E-03
            1915     8.39501E-03     37.9937E-03    -47.5227E+06    -4.90681E+06     23.4193E+06     5.69046E+06    -164.441E-03     329.684E-03    -165.243E-03     58.9436E-03    -164.765E-03     329.755E-03    -165.050E-03     57.9765E-03
            1916     7.62921E-03     37.9280E-03    -48.8274E+06    -34.6607E+06     15.7199E+06     4.70969E+06    -164.521E-03     329.909E-03    -165.388E-03     53.9822E-03    -164.779E-03     329.826E-03    -165.189E-03     53.1108E-03
            1917     6.86492E-03     37.8611E-03    -48.2953E+06    -57.0239E+06     6.88933E+06     3.48525E+06    -164.988E-03     330.489E-03    -165.501E-03     49.0028E-03    -165.180E-03     330.287E-03    -165.313E-03     48.2757E-03
            1918     6.10187E-03     37.8026E-03    -63.0873E+06    -90.8034E+06    -13.9876E+06    -2.68096E+06    -165.255E-03     330.817E-03    -165.562E-03     44.3066E-03    -165.427E-03     330.484E-03    -165.409E-03     43.6749E-03
            1919     5.33930E-03     37.7487E-03    -72.2357E+06    -105.729E+06    -24.6688E+06    -2.46184E+06    -165.124E-03     330.764E-03    -165.640E-03     39.7634E-03    -165.291E-03     330.371E-03    -165.505E-03     39.2636E-03
            1920     4.57671E-03     37.7029E-03    -75.7551E+06    -119.134E+06    -37.2035E+06     560.097E+03    -165.138E-03     330.860E-03    -165.722E-03     34.9190E-03    -165.268E-03     330.407E-03    -165.625E-03     34.5735E-03
            1921     3.81258E-03     37.6632E-03    -85.9883E+06    -146.252E+06    -56.6824E+06    -1.83794E+06    -165.380E-03     331.183E-03    -165.803E-03     29.5933E-03    -165.474E-03     330.617E-03    -165.749E-03     29.3263E-03
            1922     3.05002E-03     37.6299E-03    -94.9607E+06    -160.598E+06    -72.1280E+06    -2.97061E+06    -165.532E-03     331.408E-03    -165.876E-03     24.0209E-03    -165.604E-03     330.785E-03    -165.866E-03     23.8107E-03
            1923     2.28661E-03     37.6047E-03    -99.9629E+06    -170.429E+06    -85.3307E+06    -2.29552E+06    -165.717E-03     331.663E-03    -165.946E-03     18.3735E-03    -165.766E-03     331.001E-03    -165.981E-03     18.2481E-03
            1924     1.52398E-03     37.5848E-03    -105.135E+06    -186.705E+06    -94.6238E+06    -783.293E+03    -166.023E-03     332.018E-03    -165.995E-03     12.7485E-03    -166.072E-03     331.307E-03    -166.045E-03     12.6914E-03
            1925     762.626E-06     37.5749E-03    -105.071E+06    -203.979E+06    -100.773E+06     137.099E+03    -166.312E-03     332.099E-03    -165.787E-03     6.71995E-03    -166.283E-03     331.372E-03    -165.843E-03     6.69076E-03
            1926     14.5113E-03     37.3345E-03    -3.80309E+06     66.5412E+06     78.5314E+06    -3.10416E+06    -163.162E-03     327.791E-03    -164.629E-03     59.9317E-03    -163.499E-03     328.114E-03    -164.328E-03     57.4209E-03
            1927     13.7428E-03     37.2589E-03    -11.5609E+06     64.0214E+06     75.1506E+06    -4.58103E+06    -164.169E-03     328.881E-03    -164.712E-03     63.9201E-03    -164.594E-03     329.271E-03    -164.412E-03     61.2216E-03
            1928     12.9795E-03     37.1639E-03    -14.5886E+06     59.8830E+06     72.1762E+06    -1.81573E+06    -164.395E-03     329.168E-03    -164.774E-03     68.0768E-03    -164.865E-03     329.590E-03    -164.478E-03     65.4690E-03
            1929     12.2177E-03     37.0840E-03    -21.3790E+06     56.2039E+06     66.9145E+06     6.94111E+06    -163.103E-03     327.982E-03    -164.879E-03     69.8708E-03    -163.574E-03     328.383E-03    -164.595E-03     67.6360E-03
            1930     11.4477E-03     37.0021E-03    -23.9112E+06     43.7664E+06     55.1040E+06     4.78200E+06    -162.784E-03     327.818E-03    -165.034E-03     70.8900E-03    -163.203E-03     328.147E-03    -164.787E-03     69.0265E-03
            1931     10.6833E-03     36.9115E-03    -33.2723E+06     27.8168E+06     40.0639E+06    -5.71798E+06    -163.869E-03     329.057E-03    -165.188E-03     69.3381E-03    -164.273E-03     329.325E-03    -164.980E-03     67.4943E-03
            1932     9.91796E-03     36.8305E-03    -48.1525E+06     12.5550E+06     29.4385E+06    -6.38644E+06    -165.180E-03     330.481E-03    -165.301E-03     66.6746E-03    -165.601E-03     330.690E-03    -165.102E-03     64.9641E-03
            1933     9.15600E-03     36.7537E-03    -42.1692E+06     20.4854E+06     36.2634E+06     503.020E+03    -165.262E-03     330.654E-03    -165.392E-03     63.7964E-03    -165.644E-03     330.854E-03    -165.179E-03     62.4456E-03
            1934     8.39024E-03     36.6790E-03    -36.3952E+06     10.9330E+06     35.9449E+06     3.86004E+06    -165.169E-03     330.648E-03    -165.479E-03     59.2669E-03    -165.480E-03     330.765E-03    -165.263E-03     58.2134E-03
            1935     7.62796E-03     36.6070E-03    -48.4915E+06    -30.4530E+06     17.8459E+06     578.127E+03    -165.521E-03     331.058E-03    -165.538E-03     53.3310E-03    -165.794E-03     331.000E-03    -165.334E-03     52.3029E-03
            1936     6.86627E-03     36.5433E-03    -55.5134E+06    -58.0732E+06     6.37182E+06     913.385E+03    -165.133E-03     330.738E-03    -165.605E-03     48.9824E-03    -165.360E-03     330.544E-03    -165.409E-03     48.1378E-03
            1937     6.10232E-03     36.4833E-03    -60.0413E+06    -80.8470E+06    -6.26465E+06     2.75709E+06    -164.690E-03     330.407E-03    -165.717E-03     45.1040E-03    -164.864E-03     330.099E-03    -165.544E-03     44.5304E-03
            1938     5.33797E-03     36.4308E-03    -66.9475E+06    -102.540E+06    -22.0696E+06     650.202E+03    -164.806E-03     330.670E-03    -165.864E-03     40.6271E-03    -164.947E-03     330.273E-03    -165.728E-03     40.1865E-03
            1939     4.57336E-03     36.3838E-03    -79.0589E+06    -122.186E+06    -41.0164E+06    -288.406E+03    -165.228E-03     331.222E-03    -165.995E-03     35.6111E-03    -165.365E-03     330.764E-03    -165.908E-03     35.2894E-03
            1940     3.81151E-03     36.3426E-03    -86.3077E+06    -143.213E+06    -56.6306E+06     483.221E+03    -165.595E-03     331.701E-03    -166.106E-03     29.7602E-03    -165.708E-03     331.165E-03    -166.057E-03     29.5220E-03
            1941     3.04837E-03     36.3106E-03    -91.5007E+06    -162.166E+06    -70.3007E+06    -420.003E+03    -165.849E-03     332.048E-03    -166.199E-03     23.9998E-03    -165.914E-03     331.419E-03    -166.182E-03     23.8107E-03
            1942     2.28657E-03     36.2830E-03    -98.9097E+06    -172.841E+06    -84.9663E+06    -1.27760E+06    -166.079E-03     332.337E-03    -166.258E-03     18.1187E-03    -166.125E-03     331.665E-03    -166.289E-03     17.9991E-03
            1943     1.52423E-03     36.2653E-03    -102.860E+06    -185.996E+06    -95.7531E+06    -1.22747E+06    -166.201E-03     332.527E-03    -166.326E-03     12.3411E-03    -166.242E-03     331.822E-03    -166.386E-03     12.2480E-03
            1944     761.570E-06     36.2506E-03    -107.357E+06    -207.062E+06    -104.774E+06    -2.02250E+06    -166.576E-03     332.853E-03    -166.277E-03     6.87567E-03    -166.548E-03     332.121E-03    -166.345E-03     6.78211E-03
            1945     14.5087E-03     36.0242E-03     4.18124E+06     70.5928E+06     84.4606E+06     153.454E+03    -164.112E-03     328.664E-03    -164.551E-03     61.7135E-03    -164.481E-03     329.052E-03    -164.238E-03     59.2169E-03
            1946     13.7478E-03     35.9376E-03    -7.21181E+06     64.0422E+06     75.8403E+06     172.669E+03    -162.718E-03     327.354E-03    -164.636E-03     67.6326E-03    -163.145E-03     327.763E-03    -164.339E-03     65.1458E-03
            1947     12.9817E-03     35.8550E-03    -20.5753E+06     52.3626E+06     64.4878E+06    -719.325E+03    -161.522E-03     326.336E-03    -164.814E-03     70.6167E-03    -161.994E-03     326.734E-03    -164.538E-03     68.2105E-03
            1948     12.2078E-03     35.7708E-03    -23.0364E+06     55.5969E+06     65.2585E+06    -1.04124E+06    -162.781E-03     327.819E-03    -165.039E-03     70.1655E-03    -163.257E-03     328.222E-03    -164.760E-03     67.8435E-03
            1949     11.4478E-03     35.6826E-03    -27.9564E+06     46.3148E+06     57.6035E+06     274.903E+03    -164.213E-03     329.393E-03    -165.180E-03     68.6413E-03    -164.673E-03     329.751E-03    -164.919E-03     66.5182E-03
            1950     10.6820E-03     35.5992E-03    -31.5758E+06     31.8795E+06     45.6352E+06     3.38747E+06    -163.999E-03     329.283E-03    -165.284E-03     66.7291E-03    -164.410E-03     329.563E-03    -165.056E-03     64.9533E-03
            1951     9.91660E-03     35.5117E-03    -33.6636E+06     21.1233E+06     38.2077E+06    -5.54115E+06    -164.256E-03     329.672E-03    -165.416E-03     63.0470E-03    -164.629E-03     329.890E-03    -165.207E-03     61.2960E-03
            1952     9.15202E-03     35.4343E-03    -44.6889E+06     8.78037E+06     30.9885E+06    -10.4710E+06    -165.095E-03     330.628E-03    -165.532E-03     59.9913E-03    -165.478E-03     330.793E-03    -165.325E-03     58.3127E-03
            1953     8.39170E-03     35.3587E-03    -49.3027E+06     1.72220E+06     28.7267E+06    -1.63412E+06    -165.216E-03     330.843E-03    -165.628E-03     58.3323E-03    -165.575E-03     330.951E-03    -165.415E-03     57.1127E-03
            1954     7.62870E-03     35.2868E-03    -46.7979E+06    -23.7126E+06     20.5495E+06     618.629E+03    -164.890E-03     330.627E-03    -165.737E-03     55.3328E-03    -165.166E-03     330.593E-03    -165.532E-03     54.3296E-03
            1955     6.86376E-03     35.2256E-03    -60.2597E+06    -61.4320E+06     751.039E+03     1.36141E+06    -165.009E-03     330.867E-03    -165.858E-03     51.6281E-03    -165.244E-03     330.669E-03    -165.678E-03     50.8524E-03
            1956     6.09963E-03     35.1652E-03    -68.8186E+06    -82.8965E+06    -11.6159E+06     2.28177E+06    -165.228E-03     331.216E-03    -165.988E-03     46.7272E-03    -165.432E-03     330.915E-03    -165.826E-03     46.1659E-03
            1957     5.33598E-03     35.1126E-03    -66.8594E+06    -96.3856E+06    -19.5651E+06     3.23660E+06    -165.459E-03     331.563E-03    -166.104E-03     40.6816E-03    -165.606E-03     331.188E-03    -165.965E-03     40.2426E-03
            1958     4.57404E-03     35.0628E-03    -76.3933E+06    -120.582E+06    -38.3175E+06     1.48283E+06    -165.603E-03     331.797E-03    -166.194E-03     34.8474E-03    -165.714E-03     331.321E-03    -166.100E-03     34.4852E-03
            1959     3.81029E-03     35.0233E-03    -89.3679E+06    -144.243E+06    -58.1712E+06    -1.30577E+06    -165.726E-03     332.013E-03    -166.288E-03     29.2078E-03    -165.825E-03     331.453E-03    -166.240E-03     28.8895E-03
            1960     3.04828E-03     34.9881E-03    -94.6961E+06    -159.844E+06    -70.4527E+06    -235.109E+03    -166.118E-03     332.493E-03    -166.376E-03     23.7275E-03    -166.181E-03     331.861E-03    -166.359E-03     23.5333E-03
            1961     2.28564E-03     34.9628E-03    -98.8031E+06    -171.966E+06    -82.6609E+06    -530.899E+03    -166.389E-03     332.793E-03    -166.405E-03     17.9319E-03    -166.426E-03     332.109E-03    -166.426E-03     17.8151E-03
            1962     1.52389E-03     34.9417E-03    -103.004E+06    -185.756E+06    -93.8254E+06    -149.547E+03    -166.375E-03     332.796E-03    -166.421E-03     12.1967E-03    -166.422E-03     332.091E-03    -166.471E-03     12.1147E-03
            1963     762.011E-06     34.9321E-03    -113.017E+06    -210.716E+06    -108.081E+06     567.848E+03    -166.414E-03     332.951E-03    -166.538E-03     7.03221E-03    -166.405E-03     332.222E-03    -166.609E-03     6.96146E-03
            1964     14.5123E-03     34.7055E-03    -1.30871E+06     66.2472E+06     78.1830E+06    -1.07893E+06    -162.191E-03     326.809E-03    -164.618E-03     64.7046E-03    -162.583E-03     327.204E-03    -164.321E-03     62.3704E-03
            1965     13.7431E-03     34.6261E-03    -9.89737E+06     65.7711E+06     78.2122E+06     3.52486E+06    -162.505E-03     327.307E-03    -164.801E-03     70.5174E-03    -162.963E-03     327.735E-03    -164.491E-03     68.1092E-03
            1966     12.9727E-03     34.5453E-03    -17.1966E+06     58.3379E+06     73.4551E+06     2.82624E+06    -163.633E-03     328.583E-03    -164.950E-03     69.4375E-03    -164.111E-03     328.994E-03    -164.642E-03     66.9922E-03
            1967     12.2149E-03     34.4517E-03    -17.7193E+06     51.6842E+06     65.9948E+06    -2.88116E+06    -163.826E-03     328.874E-03    -165.049E-03     67.6396E-03    -164.270E-03     329.247E-03    -164.768E-03     65.2377E-03
            1968     11.4468E-03     34.3673E-03    -21.3521E+06     42.6953E+06     58.5500E+06    -2.61128E+06    -164.177E-03     329.331E-03    -165.153E-03     67.6816E-03    -164.603E-03     329.662E-03    -164.892E-03     65.4853E-03
            1969     10.6844E-03     34.2800E-03    -26.9888E+06     35.8948E+06     52.2873E+06    -2.54021E+06    -164.872E-03     330.116E-03    -165.244E-03     66.5375E-03    -165.281E-03     330.405E-03    -164.995E-03     64.5854E-03
            1970     9.92136E-03     34.1972E-03    -26.9117E+06     30.6892E+06     46.5281E+06    -798.836E+03    -164.349E-03     329.682E-03    -165.333E-03     63.3423E-03    -164.713E-03     329.924E-03    -165.106E-03     61.6326E-03
            1971     9.15644E-03     34.1159E-03    -31.8842E+06     14.8385E+06     34.9955E+06    -944.977E+03    -163.621E-03     329.100E-03    -165.480E-03     60.2656E-03    -163.945E-03     329.262E-03    -165.280E-03     58.7938E-03
            1972     8.38955E-03     34.0406E-03    -46.7817E+06    -13.9104E+06     18.1059E+06    -7.06860E+06    -163.345E-03     329.049E-03    -165.705E-03     58.7404E-03    -163.652E-03     329.089E-03    -165.526E-03     57.4657E-03
            1973     7.62267E-03     33.9713E-03    -59.0623E+06    -42.8859E+06     6.15135E+06    -3.08834E+06    -164.129E-03     330.094E-03    -165.965E-03     55.4994E-03    -164.411E-03     329.997E-03    -165.787E-03     54.4919E-03
            1974     6.85915E-03     33.9043E-03    -53.9634E+06    -55.8928E+06     5.71580E+06    -99.4883E+03    -165.381E-03     331.546E-03    -166.165E-03     50.1085E-03    -165.601E-03     331.360E-03    -165.977E-03     49.2352E-03
            1975     6.09750E-03     33.8455E-03    -56.8774E+06    -75.0809E+06    -2.66987E+06    -995.145E+03    -165.911E-03     332.180E-03    -166.269E-03     45.4342E-03    -166.089E-03     331.898E-03    -166.091E-03     44.6850E-03
            1976     5.33617E-03     33.7902E-03    -77.6177E+06    -102.781E+06    -25.7130E+06     2.31966E+06    -166.030E-03     332.338E-03    -166.308E-03     41.0746E-03    -166.224E-03     331.966E-03    -166.175E-03     40.5812E-03
            1977     4.57295E-03     33.7436E-03    -83.1869E+06    -119.616E+06    -39.7900E+06     5.04373E+06    -166.084E-03     332.431E-03    -166.347E-03     35.5659E-03    -166.236E-03     331.981E-03    -166.252E-03     35.2363E-03
            1978     3.81091E-03     33.7019E-03    -83.5520E+06    -136.001E+06    -51.9175E+06     3.35322E+06    -166.088E-03     332.485E-03    -166.397E-03     29.7164E-03    -166.178E-03     331.947E-03    -166.338E-03     29.4462E-03
            1979     3.04784E-03     33.6678E-03    -93.6693E+06    -156.774E+06    -69.3804E+06     689.697E+03    -166.227E-03     332.672E-03    -166.445E-03     24.0879E-03    -166.288E-03     332.048E-03    -166.429E-03     23.8857E-03
            1980     2.28629E-03     33.6395E-03    -103.087E+06    -171.628E+06    -84.3372E+06    -116.120E+03    -166.373E-03     332.855E-03    -166.482E-03     18.0594E-03    -166.425E-03     332.176E-03    -166.506E-03     17.9268E-03
            1981     1.52390E-03     33.6218E-03    -110.000E+06    -188.954E+06    -97.4901E+06     479.248E+03    -166.521E-03     333.008E-03    -166.488E-03     12.4430E-03    -166.588E-03     332.298E-03    -166.542E-03     12.3753E-03
            1982     762.049E-06     33.6074E-03    -112.173E+06    -208.690E+06    -106.078E+06     515.460E+03    -166.820E-03     333.060E-03    -166.239E-03     7.18880E-03    -166.805E-03     332.336E-03    -166.304E-03     7.14517E-03
            1983     14.5026E-03     33.3931E-03    -3.61520E+06     64.0696E+06     77.4636E+06     153.822E+03    -160.974E-03     325.692E-03    -164.717E-03     62.6367E-03    -161.375E-03     326.083E-03    -164.418E-03     60.2906E-03
            1984     13.7369E-03     33.3146E-03    -14.6589E+06     61.4112E+06     75.0216E+06    -544.014E+03    -163.835E-03     328.723E-03    -164.888E-03     67.3041E-03    -164.309E-03     329.145E-03    -164.580E-03     64.7217E-03
            1985     12.9815E-03     33.2181E-03    -13.4583E+06     62.3673E+06     76.5763E+06    -4.37808E+06    -164.924E-03     329.888E-03    -164.964E-03     68.2452E-03    -165.402E-03     330.318E-03    -164.652E-03     65.5809E-03
            1986     12.2132E-03     33.1422E-03    -17.4353E+06     51.2471E+06     67.3415E+06    -2.80220E+06    -164.156E-03     329.173E-03    -165.016E-03     69.2010E-03    -164.608E-03     329.549E-03    -164.729E-03     66.7573E-03
            1987     11.4487E-03     33.0497E-03    -19.9851E+06     42.6905E+06     59.2660E+06     1.82142E+06    -164.203E-03     329.311E-03    -165.108E-03     69.9361E-03    -164.616E-03     329.633E-03    -164.845E-03     67.9271E-03
            1988     10.6833E-03     32.9620E-03    -19.7351E+06     41.1668E+06     55.6849E+06    -2.18787E+06    -164.328E-03     329.547E-03    -165.219E-03     67.5474E-03    -164.714E-03     329.847E-03    -164.972E-03     65.6351E-03
            1989     9.91859E-03     32.8789E-03    -35.0058E+06     28.0758E+06     40.2046E+06    -627.635E+03    -163.520E-03     328.870E-03    -165.350E-03     65.5470E-03    -163.912E-03     329.121E-03    -165.139E-03     63.8623E-03
            1990     9.15442E-03     32.8008E-03    -43.1973E+06     12.6157E+06     27.7895E+06     194.775E+03    -163.070E-03     328.634E-03    -165.565E-03     63.6532E-03    -163.433E-03     328.809E-03    -165.381E-03     62.2558E-03
            1991     8.38830E-03     32.7275E-03    -40.9350E+06    -6.27262E+06     23.5578E+06    -2.14343E+06    -164.059E-03     329.879E-03    -165.820E-03     59.4407E-03    -164.354E-03     329.938E-03    -165.634E-03     58.2095E-03
            1992     7.62502E-03     32.6518E-03    -56.1298E+06    -42.4111E+06     7.37663E+06    -2.65915E+06    -164.798E-03     330.813E-03    -166.015E-03     53.7150E-03    -165.065E-03     330.709E-03    -165.836E-03     52.6391E-03
            1993     6.86215E-03     32.5846E-03    -66.1127E+06    -66.5862E+06    -4.60483E+06    -4.32044E+06    -164.920E-03     331.107E-03    -166.187E-03     49.2533E-03    -165.166E-03     330.896E-03    -166.018E-03     48.2749E-03
            1994     6.09800E-03     32.5241E-03    -66.4234E+06    -80.9646E+06    -10.7665E+06    -1.58205E+06    -165.424E-03     331.775E-03    -166.351E-03     45.1963E-03    -165.625E-03     331.485E-03    -166.191E-03     44.4057E-03
            1995     5.33335E-03     32.4706E-03    -73.2388E+06    -101.143E+06    -25.1019E+06     224.255E+03    -165.814E-03     332.279E-03    -166.465E-03     40.7133E-03    -165.979E-03     331.899E-03    -166.338E-03     40.1273E-03
            1996     4.57170E-03     32.4206E-03    -84.0796E+06    -121.377E+06    -41.5449E+06     352.151E+03    -166.144E-03     332.690E-03    -166.546E-03     35.8309E-03    -166.297E-03     332.234E-03    -166.455E-03     35.3956E-03
            1997     3.80953E-03     32.3809E-03    -89.3064E+06    -135.563E+06    -52.3324E+06      3.2012E+06    -166.521E-03     333.111E-03    -166.590E-03     30.4222E-03    -166.655E-03     332.599E-03    -166.526E-03     30.1414E-03
            1998     3.04814E-03     32.3454E-03    -92.2227E+06    -152.473E+06    -65.1898E+06     3.75853E+06    -166.511E-03     333.109E-03    -166.598E-03     24.6662E-03    -166.602E-03     332.522E-03    -166.569E-03     24.5001E-03
            1999     2.28517E-03     32.3187E-03    -99.9386E+06    -171.667E+06    -82.3903E+06     2.49543E+06    -166.484E-03     333.092E-03    -166.608E-03     18.4321E-03    -166.548E-03     332.431E-03    -166.626E-03     18.3456E-03
            2000     1.52353E-03     32.2985E-03    -105.437E+06    -186.970E+06    -96.6168E+06     183.236E+03    -166.658E-03     333.262E-03    -166.603E-03     12.6607E-03    -166.712E-03     332.564E-03    -166.662E-03     12.5912E-03
            2001     761.788E-06     32.2864E-03    -108.748E+06    -208.803E+06    -108.173E+06    -1.77734E+06    -166.839E-03     333.322E-03    -166.482E-03     7.35862E-03    -166.788E-03     332.582E-03    -166.563E-03     7.31568E-03
            2002     14.5104E-03     32.0850E-03    -5.14946E+06     64.0341E+06     80.7356E+06     2.98287E+06    -162.954E-03     327.595E-03    -164.642E-03     60.4510E-03    -163.362E-03     327.978E-03    -164.323E-03     58.1159E-03
            2003     13.7475E-03     31.9914E-03    -6.05922E+06     66.5371E+06     77.7562E+06     1.33417E+06    -162.440E-03     327.206E-03    -164.767E-03     66.8980E-03    -162.872E-03     327.628E-03    -164.466E-03     64.4258E-03
            2004     12.9741E-03     31.9085E-03    -12.3155E+06     61.5522E+06     71.1682E+06    -5.95813E+06    -162.343E-03     327.281E-03    -164.937E-03     69.8122E-03    -162.803E-03     327.709E-03    -164.653E-03     67.2389E-03
            2005     12.2114E-03     31.8212E-03    -25.1977E+06     51.5499E+06     63.3016E+06    -4.22790E+06    -164.333E-03     329.418E-03    -165.085E-03     71.2562E-03    -164.821E-03     329.816E-03    -164.807E-03     68.8423E-03
            2006     11.4487E-03     31.7341E-03    -28.8246E+06     44.8329E+06     55.1703E+06    -2.63325E+06    -164.753E-03     329.912E-03    -165.159E-03     71.1428E-03    -165.213E-03     330.269E-03    -164.906E-03     69.0329E-03
            2007     10.6843E-03     31.6459E-03    -34.1052E+06     30.1556E+06     42.2110E+06    -2.34649E+06    -163.251E-03     328.527E-03    -165.276E-03     68.9561E-03    -163.675E-03     328.815E-03    -165.059E-03     67.0445E-03
            2008     9.91840E-03     31.5640E-03    -32.1999E+06     30.7585E+06     41.5576E+06    -2.97829E+06    -162.870E-03     328.380E-03    -165.510E-03     65.5619E-03    -163.262E-03     328.646E-03    -165.300E-03     63.7806E-03
            2009     9.14969E-03     31.4874E-03    -40.4382E+06     18.9004E+06     35.2581E+06    -3.86423E+06    -164.083E-03     329.826E-03    -165.743E-03     63.0905E-03    -164.463E-03     330.028E-03    -165.536E-03     61.5324E-03
            2010     8.38795E-03     31.4038E-03    -53.6736E+06    -5.64230E+06     21.8962E+06     2.52050E+06    -165.261E-03     331.153E-03    -165.892E-03     59.7927E-03    -165.622E-03     331.240E-03    -165.696E-03     58.6017E-03
            2011     7.62606E-03     31.3339E-03    -48.8389E+06    -29.3885E+06     15.3258E+06     2.02734E+06    -164.929E-03     330.959E-03    -166.030E-03     55.1526E-03    -165.196E-03     330.904E-03    -165.840E-03     54.1173E-03
            2012     6.86015E-03     31.2673E-03    -63.6415E+06    -67.5429E+06    -7.05930E+06    -934.903E+03    -164.657E-03     330.852E-03    -166.195E-03     51.4599E-03    -164.884E-03     330.634E-03    -166.040E-03     50.6045E-03
            2013     6.09637E-03     31.2044E-03    -82.7128E+06    -96.3329E+06    -27.3640E+06    -1.64873E+06    -165.325E-03     331.693E-03    -166.368E-03     46.3052E-03    -165.559E-03     331.371E-03    -166.245E-03     45.5888E-03
            2014     5.33539E-03     31.1488E-03    -78.3049E+06    -104.114E+06    -27.7177E+06    -2.22332E+06    -165.797E-03     332.329E-03    -166.532E-03     40.6163E-03    -165.980E-03     331.946E-03    -166.406E-03     39.9498E-03
            2015     4.57112E-03     31.1011E-03    -79.0781E+06    -114.955E+06    -36.4492E+06    -383.521E+03    -165.928E-03     332.583E-03    -166.655E-03     35.4799E-03    -166.057E-03     332.131E-03    -166.556E-03     34.9782E-03
            2016     3.80861E-03     31.0568E-03    -93.1013E+06    -138.862E+06    -56.5013E+06    -812.446E+03    -166.271E-03     333.023E-03    -166.751E-03     30.2125E-03    -166.392E-03     332.484E-03    -166.697E-03     29.8439E-03
            2017     3.04662E-03     31.0238E-03    -99.8578E+06    -156.564E+06    -71.0541E+06    -568.131E+03    -166.610E-03     333.423E-03    -166.814E-03     24.7476E-03    -166.718E-03     332.827E-03    -166.797E-03     24.4900E-03
            2018     2.28555E-03     30.9958E-03    -99.0243E+06    -169.387E+06    -81.9033E+06     774.214E+03    -166.752E-03     333.594E-03    -166.842E-03     19.0850E-03    -166.826E-03     332.953E-03    -166.862E-03     18.9630E-03
            2019     1.52362E-03     30.9764E-03    -103.103E+06    -183.964E+06    -93.4838E+06     309.587E+03    -166.911E-03     333.748E-03    -166.837E-03     13.1631E-03    -166.962E-03     333.060E-03    -166.888E-03     13.0888E-03
            2020     761.816E-06     30.9633E-03    -110.964E+06    -209.472E+06    -106.447E+06     1.76326E+06    -166.872E-03     333.780E-03    -166.908E-03     7.10226E-03    -166.818E-03     333.018E-03    -166.975E-03     7.10938E-03
            2021     14.5117E-03     30.7645E-03    -4.83371E+06     64.3416E+06     79.9666E+06    -320.221E+03    -162.486E-03     327.055E-03    -164.569E-03     63.8591E-03    -162.894E-03     327.443E-03    -164.256E-03     61.5519E-03
            2022     13.7424E-03     30.6849E-03    -6.58791E+06     67.0430E+06     79.4224E+06     623.235E+03    -161.448E-03     326.202E-03    -164.754E-03     70.4726E-03    -161.889E-03     326.628E-03    -164.445E-03     68.0638E-03
            2023     12.9786E-03     30.5963E-03    -12.7475E+06     64.9605E+06     70.3617E+06     4.00592E+06    -162.159E-03     327.107E-03    -164.948E-03     71.0498E-03    -162.616E-03     327.545E-03    -164.672E-03     68.7290E-03
            2024     12.2103E-03     30.5039E-03    -18.4686E+06     56.7848E+06     63.2503E+06    -499.317E+03    -163.532E-03     328.655E-03    -165.123E-03     71.1596E-03    -163.987E-03     329.062E-03    -164.862E-03     68.8764E-03
            2025     11.4459E-03     30.4142E-03    -24.7723E+06     43.4441E+06     55.6995E+06    -6.77585E+06    -163.523E-03     328.807E-03    -165.284E-03     70.3579E-03    -163.979E-03     329.168E-03    -165.033E-03     68.0279E-03
            2026     10.6804E-03     30.3330E-03    -34.3462E+06     31.1080E+06     43.7015E+06    -4.72006E+06    -163.339E-03     328.795E-03    -165.456E-03     69.3443E-03    -163.779E-03     329.097E-03    -165.233E-03     67.2620E-03
            2027     9.91389E-03     30.2482E-03    -38.9849E+06     25.9845E+06     36.4766E+06    -3.88402E+06    -164.332E-03     329.959E-03    -165.627E-03     66.1533E-03    -164.742E-03     330.217E-03    -165.426E-03     64.3061E-03
            2028     9.15417E-03     30.1672E-03    -42.3709E+06     16.2680E+06     32.7469E+06    -1.56991E+06    -165.040E-03     330.814E-03    -165.773E-03     63.2611E-03    -165.423E-03     331.009E-03    -165.572E-03     61.7075E-03
            2029     8.38872E-03     30.0865E-03    -51.4781E+06    -11.8039E+06     19.6507E+06    -844.540E+03    -164.508E-03     330.429E-03    -165.921E-03     59.9938E-03    -164.846E-03     330.486E-03    -165.731E-03     58.7237E-03
            2030     7.62228E-03     30.0149E-03    -54.4326E+06    -36.7567E+06     10.7293E+06    -163.128E+03    -164.650E-03     330.765E-03    -166.116E-03     55.1245E-03    -164.932E-03     330.693E-03    -165.930E-03     53.9938E-03
            2031     6.86044E-03     29.9482E-03    -54.2789E+06    -53.6015E+06     6.60097E+06     3.87278E+06    -165.368E-03     331.668E-03    -166.300E-03     51.1376E-03    -165.597E-03     331.496E-03    -166.111E-03     50.2839E-03
            2032     6.09755E-03     29.8839E-03    -64.4248E+06    -82.0240E+06    -12.2419E+06     915.722E+03    -165.328E-03     331.763E-03    -166.436E-03     46.3913E-03    -165.519E-03     331.471E-03    -166.284E-03     45.6792E-03
            2033     5.33277E-03     29.8282E-03    -83.8492E+06    -113.733E+06    -36.4960E+06    -4.04136E+06    -165.503E-03     332.085E-03    -166.582E-03     41.7443E-03    -165.701E-03     331.688E-03    -166.478E-03     41.0908E-03
            2034     4.57198E-03     29.7787E-03    -88.9570E+06    -123.224E+06    -44.1984E+06    -944.579E+03    -165.977E-03     332.722E-03    -166.745E-03     36.8204E-03    -166.153E-03     332.275E-03    -166.659E-03     36.3479E-03
            2035     3.80907E-03     29.7369E-03    -86.8934E+06    -133.836E+06    -54.3663E+06     623.302E+03    -166.107E-03     332.992E-03    -166.885E-03     31.0726E-03    -166.219E-03     332.479E-03    -166.836E-03     30.7505E-03
            2036     3.04624E-03     29.7001E-03    -96.2295E+06    -156.464E+06    -74.5267E+06    -2.95896E+06    -166.429E-03     333.446E-03    -167.017E-03     25.2399E-03    -166.521E-03     332.857E-03    -167.023E-03     24.9685E-03
            2037     2.28386E-03     29.6734E-03    -103.150E+06    -172.799E+06    -85.9310E+06    -2.22920E+06    -166.922E-03     334.055E-03    -167.133E-03     19.3608E-03    -167.009E-03     333.412E-03    -167.163E-03     19.1815E-03
            2038     1.52234E-03     29.6523E-03    -107.018E+06    -185.453E+06    -95.1904E+06     1.20024E+06    -167.146E-03     334.329E-03    -167.183E-03     13.3343E-03    -167.206E-03     333.639E-03    -167.235E-03     13.2542E-03
            2039     761.462E-06     29.6403E-03    -109.450E+06    -205.928E+06    -104.706E+06     1.96368E+06    -167.608E-03     334.539E-03    -166.931E-03     7.25713E-03    -167.543E-03     333.772E-03    -166.997E-03     7.23862E-03
            2040     14.5070E-03     29.4552E-03    -3.99876E+06     65.5988E+06     78.3029E+06     984.572E+03    -161.083E-03     325.740E-03    -164.657E-03     65.8333E-03    -161.490E-03     326.138E-03    -164.355E-03     63.6110E-03
            2041     13.7423E-03     29.3696E-03    -11.0738E+06     64.2672E+06     78.2911E+06    -1.74946E+06    -163.307E-03     328.156E-03    -164.849E-03     70.4976E-03    -163.775E-03     328.586E-03    -164.535E-03     67.9636E-03
            2042     12.9756E-03     29.2811E-03    -13.1947E+06     66.0411E+06     77.3214E+06     3.01005E+06    -163.899E-03     328.869E-03    -164.970E-03     71.0658E-03    -164.381E-03     329.314E-03    -164.660E-03     68.6484E-03
            2043     12.2129E-03     29.1889E-03    -12.5589E+06     56.3942E+06     68.1104E+06     2.79633E+06    -162.688E-03     327.787E-03    -165.099E-03     70.0658E-03    -163.127E-03     328.184E-03    -164.822E-03     67.7694E-03
            2044     11.4450E-03     29.1016E-03    -20.7984E+06     40.2569E+06     53.9273E+06    -6.22157E+06    -162.475E-03     327.765E-03    -165.290E-03     68.0471E-03    -162.908E-03     328.111E-03    -165.049E-03     65.6471E-03
            2045     10.6786E-03     29.0159E-03    -24.6735E+06     39.9017E+06     51.7924E+06    -5.88567E+06    -163.711E-03     329.212E-03    -165.501E-03     66.3405E-03    -164.136E-03     329.541E-03    -165.264E-03     64.1309E-03
            2046     9.91709E-03     28.9290E-03    -38.8730E+06     27.1537E+06     37.1690E+06    -1.89398E+06    -164.462E-03     330.098E-03    -165.636E-03     65.1845E-03    -164.880E-03     330.367E-03    -165.433E-03     63.3215E-03
            2047     9.15032E-03     28.8477E-03    -51.2871E+06     5.58835E+06     21.4846E+06    -4.35451E+06    -164.514E-03     330.283E-03    -165.769E-03     63.6150E-03    -164.915E-03     330.460E-03    -165.595E-03     61.9737E-03
            2048     8.38732E-03     28.7699E-03    -47.3653E+06    -10.7083E+06     23.6003E+06    -4.73279E+06    -164.501E-03     330.484E-03    -165.983E-03     60.3397E-03    -164.831E-03     330.540E-03    -165.781E-03     58.9423E-03
            2049     7.62441E-03     28.6970E-03    -62.6984E+06    -36.9787E+06     10.0865E+06     2.21194E+06    -164.798E-03     330.970E-03    -166.172E-03     55.8128E-03    -165.113E-03     330.903E-03    -165.978E-03     54.7068E-03
            2050     6.86007E-03     28.6259E-03    -71.6264E+06    -60.8020E+06    -2.38763E+06     4.04283E+06    -165.036E-03     331.390E-03    -166.354E-03     52.1109E-03    -165.327E-03     331.217E-03    -166.174E-03     51.2433E-03
            2051     6.09684E-03     28.5654E-03    -66.7633E+06    -78.8460E+06    -9.39639E+06     3.71052E+06    -165.075E-03     331.631E-03    -166.556E-03     47.8392E-03    -165.290E-03     331.357E-03    -166.392E-03     47.1544E-03
            2052     5.33392E-03     28.5083E-03    -74.6350E+06    -101.798E+06    -31.0912E+06     3.03751E+06    -165.349E-03     332.087E-03    -166.738E-03     43.0576E-03    -165.511E-03     331.714E-03    -166.638E-03     42.5409E-03
            2053     4.56897E-03     28.4570E-03    -89.3691E+06    -129.108E+06    -53.3147E+06    -4.16934E+06    -165.951E-03     332.872E-03    -166.921E-03     37.7949E-03    -166.095E-03     332.396E-03    -166.871E-03     37.3085E-03
            2054     3.80740E-03     28.4138E-03    -93.3770E+06    -140.614E+06    -61.3290E+06    -3.91819E+06    -166.519E-03     333.605E-03    -167.086E-03     31.7795E-03    -166.653E-03     333.085E-03    -167.053E-03     31.4161E-03
            2055     3.04547E-03     28.3788E-03    -92.9687E+06    -151.533E+06    -70.6694E+06    -56.7456E+03    -166.813E-03     334.006E-03    -167.194E-03     25.4840E-03    -166.918E-03     333.449E-03    -167.193E-03     25.2666E-03
            2056     2.28393E-03     28.3484E-03    -102.015E+06    -174.995E+06    -87.7686E+06    -1.28974E+06    -167.044E-03     334.316E-03    -167.272E-03     18.9949E-03    -167.123E-03     333.669E-03    -167.309E-03     18.8067E-03
            2057     1.52285E-03     28.3291E-03    -108.260E+06    -188.846E+06    -99.0213E+06    -2.19874E+06    -167.246E-03     334.587E-03    -167.341E-03     12.9095E-03    -167.293E-03     333.880E-03    -167.405E-03     12.7634E-03
            2058     760.689E-06     28.3152E-03    -111.400E+06    -206.209E+06    -107.520E+06    -1.79715E+06    -167.528E-03     334.907E-03    -167.379E-03     7.52177E-03    -167.463E-03     334.130E-03    -167.457E-03     7.43550E-03
            2059     14.5062E-03     28.1398E-03    -4.27406E+06     67.4634E+06     80.4333E+06     2.65641E+06    -162.779E-03     327.453E-03    -164.675E-03     62.7375E-03    -163.197E-03     327.864E-03    -164.364E-03     60.4151E-03
            2060     13.7407E-03     28.0542E-03    -6.45085E+06     69.4126E+06     82.1360E+06     1.48561E+06    -163.715E-03     328.514E-03    -164.799E-03     67.8684E-03    -164.172E-03     328.957E-03    -164.480E-03     65.3302E-03
            2061     12.9797E-03     27.9615E-03    -15.5897E+06     63.4205E+06     74.8861E+06    -4.41013E+06    -163.396E-03     328.299E-03    -164.903E-03     69.1389E-03    -163.895E-03     328.750E-03    -164.598E-03     66.4787E-03
            2062     12.2126E-03     27.8775E-03    -15.5409E+06     55.2679E+06     70.3818E+06    -2.89356E+06    -162.718E-03     327.778E-03    -165.060E-03     70.1550E-03    -163.184E-03     328.181E-03    -164.766E-03     67.7044E-03
            2063     11.4474E-03     27.7871E-03    -18.2791E+06     44.7922E+06     60.2390E+06    -479.608E+03    -163.365E-03     328.587E-03    -165.222E-03     69.4313E-03    -163.796E-03     328.937E-03    -164.959E-03     67.1586E-03
            2064     10.6841E-03     27.6984E-03    -28.6359E+06     36.2012E+06     48.3360E+06    -1.60901E+06    -163.486E-03     328.865E-03    -165.380E-03     67.0629E-03    -163.918E-03     329.185E-03    -165.149E-03     64.9337E-03
            2065     9.91601E-03     27.6136E-03    -35.7733E+06     29.1353E+06     38.4559E+06    -905.390E+03    -163.249E-03     328.821E-03    -165.571E-03     66.0428E-03    -163.661E-03     329.097E-03    -165.369E-03     64.2266E-03
            2066     9.15266E-03     27.5306E-03    -43.2993E+06     11.9639E+06     28.8977E+06    -1.32665E+06    -163.559E-03     329.369E-03    -165.809E-03     63.7990E-03    -163.948E-03     329.562E-03    -165.619E-03     62.1676E-03
            2067     8.38699E-03     27.4514E-03    -54.2368E+06    -14.8390E+06     20.2169E+06    -346.193E+03    -164.180E-03     330.246E-03    -166.067E-03     61.3703E-03    -164.543E-03     330.306E-03    -165.865E-03     60.0485E-03
            2068     7.62289E-03     27.3764E-03    -61.6068E+06    -38.2718E+06     7.95499E+06     122.507E+03    -164.627E-03     330.912E-03    -166.285E-03     57.9671E-03    -164.942E-03     330.849E-03    -166.100E-03     56.8876E-03
            2069     6.85908E-03     27.3096E-03    -69.7320E+06    -66.8636E+06    -7.57083E+06    -1.98036E+06    -164.655E-03     331.166E-03    -166.511E-03     53.6890E-03    -164.926E-03     330.974E-03    -166.350E-03     52.7478E-03
            2070     6.09419E-03     27.2441E-03    -78.0350E+06    -88.8836E+06    -17.8288E+06     1.70598E+06    -165.158E-03     331.923E-03    -166.765E-03     49.0170E-03    -165.413E-03     331.637E-03    -166.612E-03     48.3282E-03
            2071     5.33111E-03     27.1877E-03    -76.2815E+06    -95.8205E+06    -24.9353E+06     6.32708E+06    -166.006E-03     332.964E-03    -166.958E-03     43.5795E-03    -166.199E-03     332.620E-03    -166.833E-03     43.1085E-03
            2072     4.56982E-03     27.1355E-03    -78.3042E+06    -113.969E+06    -42.9059E+06     1.82015E+06    -166.401E-03     333.473E-03    -167.072E-03     37.3903E-03    -166.514E-03     333.030E-03    -167.008E-03     36.9464E-03
            2073     3.80664E-03     27.0909E-03    -91.3763E+06    -142.808E+06    -62.4791E+06    -4.11731E+06    -166.722E-03     333.907E-03    -167.185E-03     31.1458E-03    -166.829E-03     333.362E-03    -167.157E-03     30.7312E-03
            2074     3.04562E-03     27.0536E-03    -101.158E+06    -161.071E+06    -74.6085E+06      -3.185E+06    -167.032E-03     334.308E-03    -167.276E-03     25.3921E-03    -167.145E-03     333.708E-03    -167.269E-03     25.0902E-03
            2075     2.28423E-03     27.0259E-03    -103.803E+06    -172.640E+06    -85.8474E+06     305.262E+03    -167.191E-03     334.513E-03    -167.322E-03     19.4763E-03    -167.263E-03     333.855E-03    -167.350E-03     19.2955E-03
            2076     1.52208E-03     27.0041E-03    -109.051E+06    -189.076E+06    -100.620E+06    -1.36454E+06    -167.419E-03     334.735E-03    -167.316E-03     13.1912E-03    -167.455E-03     334.015E-03    -167.386E-03     13.0301E-03
            2077     761.892E-06     26.9914E-03    -112.434E+06    -210.556E+06    -111.939E+06    -2.07083E+06    -167.213E-03     334.765E-03    -167.552E-03     7.24388E-03    -167.149E-03     333.973E-03    -167.644E-03     7.11844E-03
            2078     14.5131E-03     26.8285E-03    -10.7092E+06     62.8561E+06     76.1846E+06    -1.23489E+06    -164.259E-03     328.823E-03    -164.565E-03     63.3504E-03    -164.706E-03     329.235E-03    -164.259E-03     60.8807E-03
            2079     13.7478E-03     26.7378E-03    -6.95772E+06     68.5374E+06     83.1741E+06     1.72159E+06    -163.041E-03     327.717E-03    -164.676E-03     68.9686E-03    -163.503E-03     328.156E-03    -164.350E-03     66.4678E-03
            2080     12.9783E-03     26.6486E-03    -9.94815E+06     68.3712E+06     77.9911E+06    -1.37273E+06    -162.102E-03     326.928E-03    -164.826E-03     69.4111E-03    -162.585E-03     327.392E-03    -164.521E-03     66.8099E-03
            2081     12.2121E-03     26.5646E-03    -16.6722E+06     59.4768E+06     69.1218E+06    -3.14711E+06    -162.892E-03     327.893E-03    -165.002E-03     70.6290E-03    -163.372E-03     328.326E-03    -164.718E-03     68.1370E-03
            2082     11.4477E-03     26.4673E-03    -25.4558E+06     43.5598E+06     56.8674E+06    -1.16323E+06    -162.886E-03     328.064E-03    -165.179E-03     70.8037E-03    -163.351E-03     328.429E-03    -164.921E-03     68.5290E-03
            2083     10.6814E-03     26.3855E-03    -33.9846E+06     30.7121E+06     43.0295E+06    -1.79828E+06    -162.573E-03     327.958E-03    -165.385E-03     70.2096E-03    -163.015E-03     328.264E-03    -165.165E-03     68.1334E-03
            2084     9.91766E-03     26.2973E-03    -33.4094E+06     30.4095E+06     41.6571E+06     2.14247E+06    -163.025E-03     328.680E-03    -165.654E-03     69.4638E-03    -163.424E-03     328.947E-03    -165.442E-03     67.7785E-03
            2085     9.15050E-03     26.2146E-03    -41.0744E+06     18.4262E+06     33.8624E+06     6.22817E+06    -163.386E-03     329.315E-03    -165.929E-03     66.4395E-03    -163.769E-03     329.520E-03    -165.727E-03     65.0235E-03
            2086     8.38578E-03     26.1344E-03    -56.6547E+06    -18.4357E+06     13.9197E+06     2.09460E+06    -163.666E-03     329.870E-03    -166.204E-03     63.2040E-03    -164.023E-03     329.919E-03    -166.025E-03     61.9592E-03
            2087     7.62043E-03     26.0583E-03    -60.3475E+06    -47.0517E+06     2.78643E+06    -2.08623E+06    -164.435E-03     330.923E-03    -166.489E-03     59.1379E-03    -164.728E-03     330.827E-03    -166.319E-03     58.0438E-03
            2088     6.85659E-03     25.9886E-03    -60.1775E+06    -61.9805E+06    -1.35918E+06    -1.56027E+06    -165.560E-03     332.287E-03    -166.726E-03     53.6656E-03    -165.805E-03     332.102E-03    -166.556E-03     52.6717E-03
            2089     6.09407E-03     25.9256E-03    -67.9925E+06    -84.4614E+06    -13.3153E+06    -2.15890E+06    -166.085E-03     332.970E-03    -166.885E-03     48.2054E-03    -166.302E-03     332.684E-03    -166.730E-03     47.3840E-03
            2090     5.33125E-03     25.8636E-03    -78.0105E+06    -102.858E+06    -25.1501E+06    -2.32245E+06    -166.388E-03     333.398E-03    -167.010E-03     42.6689E-03    -166.594E-03     333.035E-03    -166.873E-03     42.0066E-03
            2091     4.56907E-03     25.8128E-03    -79.9600E+06    -109.995E+06    -32.6485E+06     1.32211E+06    -166.619E-03     333.727E-03    -167.108E-03     36.9840E-03    -166.789E-03     333.318E-03    -166.996E-03     36.4852E-03
            2092     3.80810E-03     25.7677E-03    -84.6476E+06    -135.210E+06    -52.6825E+06     4.15285E+06    -166.629E-03     333.811E-03    -167.181E-03     31.5093E-03    -166.748E-03     333.302E-03    -167.126E-03     31.2053E-03
            2093     3.04520E-03     25.7310E-03    -96.2092E+06    -164.673E+06    -75.9239E+06     116.655E+03    -166.904E-03     334.166E-03    -167.262E-03     25.6183E-03    -166.981E-03     333.541E-03    -167.264E-03     25.3405E-03
            2094     2.28326E-03     25.7011E-03    -104.268E+06    -174.827E+06    -86.5522E+06    -2.29579E+06    -167.294E-03     334.619E-03    -167.325E-03     19.4115E-03    -167.342E-03     333.930E-03    -167.353E-03     19.1696E-03
            2095     1.52304E-03     25.6799E-03    -109.581E+06    -187.545E+06    -97.3025E+06     134.540E+03    -167.350E-03     334.686E-03    -167.337E-03     13.1792E-03    -167.396E-03     333.965E-03    -167.392E-03     13.0256E-03
            2096     760.915E-06     25.6669E-03    -112.928E+06    -213.649E+06    -110.680E+06     1.96255E+06    -167.444E-03     334.803E-03    -167.359E-03     7.68931E-03    -167.400E-03     334.019E-03    -167.439E-03     7.57934E-03
            2097     14.5069E-03     25.5068E-03    -7.58415E+06     64.3002E+06     77.2015E+06    -3.46513E+06    -163.574E-03     328.098E-03    -164.524E-03     65.3837E-03    -164.012E-03     328.514E-03    -164.221E-03     62.9239E-03
            2098     13.7450E-03     25.4239E-03    -7.99124E+06     66.5105E+06     81.0516E+06    -6.01866E+06    -163.254E-03     327.897E-03    -164.644E-03     69.1112E-03    -163.737E-03     328.354E-03    -164.323E-03     66.3085E-03
            2099     12.9794E-03     25.3400E-03    -8.55764E+06     69.0812E+06     82.7420E+06     1.90732E+06    -162.191E-03     327.002E-03    -164.811E-03     70.3133E-03    -162.679E-03     327.465E-03    -164.485E-03     67.7551E-03
            2100     12.2151E-03     25.2435E-03    -21.1161E+06     53.6452E+06     65.6247E+06     5.00756E+06    -161.476E-03     326.484E-03    -165.008E-03     72.4604E-03    -161.960E-03     326.894E-03    -164.727E-03     70.1742E-03
            2101     11.4480E-03     25.1601E-03    -27.8026E+06     35.4436E+06     49.3878E+06     3.35435E+06    -161.337E-03     326.611E-03    -165.275E-03     74.0272E-03    -161.787E-03     326.946E-03    -165.039E-03     71.9446E-03
            2102     10.6799E-03     25.0685E-03    -25.4302E+06     34.2314E+06     47.9907E+06     174.995E+03    -162.649E-03     328.232E-03    -165.582E-03     73.0181E-03    -163.065E-03     328.539E-03    -165.355E-03     71.0360E-03
            2103     9.91243E-03     24.9827E-03    -34.7350E+06     30.4890E+06     42.3931E+06     2.18750E+06    -163.641E-03     329.485E-03    -165.843E-03     69.8441E-03    -164.061E-03     329.766E-03    -165.625E-03     68.0631E-03
            2104     9.14857E-03     24.8968E-03    -39.2916E+06     20.3090E+06     34.5680E+06     3.21992E+06    -163.989E-03     330.063E-03    -166.074E-03     65.8971E-03    -164.373E-03     330.279E-03    -165.873E-03     64.3924E-03
            2105     8.38365E-03     24.8171E-03    -42.9550E+06    -8.90901E+06     23.5178E+06    -2.77100E+06    -164.287E-03     330.606E-03    -166.318E-03     61.4243E-03    -164.607E-03     330.673E-03    -166.126E-03     59.9789E-03
            2106     7.61929E-03     24.7405E-03    -56.2606E+06    -44.0680E+06     9.14717E+06    -1.45619E+06    -164.823E-03     331.388E-03    -166.565E-03     57.6259E-03    -165.109E-03     331.291E-03    -166.374E-03     56.4519E-03
            2107     6.85608E-03     24.6661E-03    -63.8842E+06     -64.023E+06    -915.904E+03    -1.64454E+06    -165.985E-03     332.730E-03    -166.745E-03     52.5385E-03    -166.247E-03     332.541E-03    -166.565E-03     51.5171E-03
            2108     6.09473E-03     24.6021E-03    -67.8767E+06    -83.0770E+06    -10.7883E+06    -2.70473E+06    -166.620E-03     333.459E-03    -166.839E-03     47.5279E-03    -166.836E-03     333.171E-03    -166.674E-03     46.6024E-03
            2109     5.33291E-03     24.5429E-03    -76.0222E+06    -102.564E+06    -26.2671E+06    -2.28283E+06    -166.315E-03     333.221E-03    -166.907E-03     43.0666E-03    -166.493E-03     332.842E-03    -166.779E-03     42.3576E-03
            2110     4.57008E-03     24.4897E-03    -83.8320E+06    -119.789E+06    -39.8143E+06    -2.40908E+06    -166.308E-03     333.329E-03    -167.022E-03     37.4547E-03    -166.459E-03     332.873E-03    -166.926E-03     36.9051E-03
            2111     3.80682E-03     24.4453E-03    -88.7329E+06    -138.161E+06    -51.8382E+06     1.65464E+06    -166.767E-03     333.893E-03    -167.125E-03     31.5079E-03    -166.905E-03     333.374E-03    -167.056E-03     31.1444E-03
            2112     3.04571E-03     24.4073E-03    -93.7794E+06    -157.451E+06    -69.2287E+06     4.63182E+06    -167.065E-03     334.216E-03    -167.150E-03     25.3071E-03    -167.151E-03     333.615E-03    -167.132E-03     25.0651E-03
            2113     2.28476E-03     24.3769E-03     -99.746E+06    -172.208E+06    -84.9059E+06     927.760E+03    -167.066E-03     334.235E-03    -167.169E-03     19.0225E-03    -167.086E-03     333.539E-03    -167.199E-03     18.8144E-03
            2114     1.52220E-03     24.3562E-03    -107.219E+06    -190.238E+06    -96.6278E+06    -1.42587E+06    -167.163E-03     334.387E-03    -167.224E-03     12.9642E-03    -167.193E-03     333.641E-03    -167.275E-03     12.8013E-03
            2115     761.158E-06     24.3429E-03    -112.622E+06    -213.509E+06    -106.797E+06     486.624E+03    -167.528E-03     334.611E-03    -167.083E-03     7.25876E-03    -167.500E-03     333.847E-03    -167.144E-03     7.12184E-03
            2116     14.5135E-03     24.1938E-03     210.582E+03     70.5920E+06     81.1677E+06    -3.74737E+06    -161.874E-03     326.345E-03    -164.471E-03     62.3042E-03    -162.286E-03     326.773E-03    -164.168E-03     59.8279E-03
            2117     13.7445E-03     24.1086E-03    -5.12137E+06     68.6597E+06     80.9312E+06    -5.56939E+06    -161.082E-03     325.769E-03    -164.687E-03     69.9877E-03    -161.551E-03     326.229E-03    -164.375E-03     67.2570E-03
            2118     12.9812E-03     24.0229E-03    -16.5760E+06     61.4111E+06     74.0129E+06     317.969E+03    -161.618E-03     326.549E-03    -164.931E-03     74.6642E-03    -162.126E-03     327.002E-03    -164.626E-03     72.1485E-03
            2119     12.2108E-03     23.9371E-03    -18.5664E+06     51.0012E+06     67.8084E+06     1.10854E+06    -161.144E-03     326.352E-03    -165.208E-03     75.3579E-03    -161.618E-03     326.745E-03    -164.916E-03     73.0680E-03
            2120     11.4404E-03     23.8463E-03    -21.0256E+06     38.1049E+06     59.2652E+06     3.68352E+06    -162.318E-03     327.814E-03    -165.495E-03     74.6567E-03    -162.746E-03     328.130E-03    -165.224E-03     72.6225E-03
            2121     10.6763E-03     23.7519E-03    -27.6318E+06     33.1398E+06     49.0259E+06     6.78645E+06    -163.954E-03     329.660E-03    -165.706E-03     71.1267E-03    -164.385E-03     329.968E-03    -165.469E-03     69.1200E-03
            2122     9.91402E-03     23.6652E-03    -32.8849E+06     28.9814E+06     41.6959E+06    -347.385E+03    -164.186E-03     330.068E-03    -165.882E-03     67.1808E-03    -164.608E-03     330.355E-03    -165.668E-03     65.1673E-03
            2123     9.14911E-03     23.5786E-03    -38.5483E+06     18.8788E+06     36.7998E+06     266.672E+03    -164.424E-03     330.508E-03    -166.083E-03     64.8613E-03    -164.817E-03     330.723E-03    -165.871E-03     63.2275E-03
            2124     8.38575E-03     23.4983E-03    -46.3321E+06    -5.64540E+06     27.3656E+06     3.54285E+06    -165.314E-03     331.575E-03    -166.261E-03     60.8226E-03    -165.670E-03     331.668E-03    -166.049E-03     59.4302E-03
            2125     7.62265E-03     23.4210E-03    -50.6448E+06    -34.7710E+06     15.8316E+06     487.610E+03    -165.681E-03     332.074E-03    -166.393E-03     56.7229E-03    -165.967E-03     332.011E-03    -166.190E-03     55.5145E-03
            2126     6.85895E-03     23.3462E-03    -62.6062E+06    -65.9940E+06    -3.31146E+06    -545.980E+03    -165.441E-03     331.956E-03    -166.515E-03     52.2874E-03    -165.693E-03     331.761E-03    -166.345E-03     51.3092E-03
            2127     6.09509E-03     23.2793E-03    -70.4243E+06    -89.7511E+06    -16.4916E+06    -2.85075E+06    -165.835E-03     332.496E-03    -166.660E-03     47.2808E-03    -166.054E-03     332.194E-03    -166.510E-03     46.3748E-03
            2128     5.33224E-03     23.2215E-03    -72.9520E+06    -103.430E+06    -26.2438E+06    -3.09631E+06    -166.333E-03     333.099E-03    -166.767E-03     42.4815E-03    -166.500E-03     332.718E-03    -166.642E-03     41.7222E-03
            2129     4.56970E-03     23.1681E-03    -80.7905E+06    -122.009E+06    -41.0231E+06    -681.538E+03    -166.614E-03     333.439E-03    -166.825E-03     36.8537E-03    -166.746E-03     332.970E-03    -166.736E-03     36.3017E-03
            2130     3.80862E-03     23.1220E-03    -88.7543E+06    -142.753E+06    -53.2755E+06    -1.66444E+06    -166.831E-03     333.691E-03    -166.860E-03     30.6140E-03    -166.951E-03     333.144E-03    -166.791E-03     30.1554E-03
            2131     3.04696E-03     23.0832E-03     -95.033E+06    -155.993E+06    -66.1826E+06     89.8133E+03    -166.778E-03     333.641E-03    -166.863E-03     24.7970E-03    -166.869E-03     333.038E-03    -166.830E-03     24.4632E-03
            2132     2.28450E-03     23.0547E-03    -99.0337E+06    -168.049E+06    -80.7618E+06     2.17066E+06    -166.850E-03     333.707E-03    -166.857E-03     18.7362E-03    -166.873E-03     333.019E-03    -166.873E-03     18.5355E-03
            2133     1.52325E-03     23.0324E-03    -104.900E+06    -189.507E+06    -94.6229E+06     1.05427E+06    -167.046E-03     333.855E-03    -166.809E-03     12.5443E-03    -167.069E-03     333.104E-03    -166.855E-03     12.4293E-03
            2134     762.199E-06     23.0182E-03    -111.416E+06    -214.729E+06    -105.800E+06    -1.92800E+06    -167.024E-03     333.626E-03    -166.601E-03     6.92198E-03    -166.994E-03     332.869E-03    -166.657E-03     6.79768E-03
            2135     14.5131E-03     22.8862E-03     2.07149E+06     73.6910E+06     83.2584E+06    -1.47082E+06    -161.043E-03     325.548E-03    -164.505E-03     63.8561E-03    -161.457E-03     325.990E-03    -164.199E-03     61.4369E-03
            2136     13.7430E-03     22.8014E-03    -4.82720E+06     66.4677E+06     78.4589E+06    -2.24626E+06    -159.246E-03     324.037E-03    -164.791E-03     72.3485E-03    -159.700E-03     324.483E-03    -164.488E-03     69.8110E-03
            2137     12.9695E-03     22.7091E-03    -13.4219E+06     56.8043E+06     69.7095E+06    -5.16040E+06    -160.524E-03     325.644E-03    -165.120E-03     73.5223E-03    -161.005E-03     326.077E-03    -164.834E-03     70.8788E-03
            2138     12.2065E-03     22.6230E-03    -18.2475E+06     52.1198E+06     66.6452E+06    -2.93818E+06    -163.217E-03     328.600E-03    -165.382E-03     73.2456E-03    -163.713E-03     329.022E-03    -165.098E-03     70.6207E-03
            2139     11.4454E-03     22.5303E-03    -25.6091E+06     43.5881E+06     61.4901E+06    -651.906E+03    -164.714E-03     330.255E-03    -165.541E-03     73.1936E-03    -165.191E-03     330.617E-03    -165.259E-03     70.9312E-03
            2140     10.6808E-03     22.4340E-03    -33.2233E+06     32.5545E+06     48.6663E+06     1.05704E+06    -164.533E-03     330.173E-03    -165.639E-03     70.1697E-03    -164.993E-03     330.488E-03    -165.395E-03     68.0476E-03
            2141     9.91473E-03     22.3477E-03    -40.0597E+06     20.2189E+06     34.0854E+06     3.44420E+06    -164.622E-03     330.366E-03    -165.744E-03     66.6502E-03    -165.052E-03     330.627E-03    -165.545E-03     64.7020E-03
            2142     9.14994E-03     22.2622E-03    -43.3858E+06     13.2782E+06     33.0584E+06     5.04286E+06    -165.062E-03     330.959E-03    -165.897E-03     63.5237E-03    -165.458E-03     331.152E-03    -165.688E-03     61.9166E-03
            2143     8.38535E-03     22.1773E-03    -45.6956E+06    -3.09001E+06     29.5070E+06     3.62068E+06    -165.434E-03     331.463E-03    -166.029E-03     59.7951E-03    -165.790E-03     331.561E-03    -165.811E-03     58.4020E-03
            2144     7.62367E-03     22.0990E-03    -52.1108E+06    -34.9212E+06     14.7726E+06     1.78094E+06    -165.696E-03     331.813E-03    -166.117E-03     56.1815E-03    -165.993E-03     331.759E-03    -165.917E-03     54.9632E-03
            2145     6.86087E-03     22.0286E-03    -55.8372E+06    -59.8442E+06     1.37067E+06     3.38373E+06    -165.486E-03     331.698E-03    -166.211E-03     52.0916E-03    -165.721E-03     331.518E-03    -166.037E-03     51.1406E-03
            2146     6.09700E-03     21.9594E-03    -64.2303E+06    -86.8993E+06    -16.7176E+06    -1.42045E+06    -165.682E-03     331.990E-03    -166.308E-03     46.5814E-03    -165.869E-03     331.689E-03    -166.172E-03     45.7505E-03
            2147     5.33435E-03     21.8996E-03    -73.5663E+06    -108.375E+06    -27.6855E+06    -4.34381E+06    -166.399E-03     332.780E-03    -166.381E-03     40.5546E-03    -166.568E-03     332.383E-03    -166.256E-03     39.7821E-03
            2148     4.57293E-03     21.8454E-03    -80.5470E+06    -122.829E+06    -38.1651E+06    -582.096E+03    -166.603E-03     332.975E-03    -166.372E-03     35.1897E-03    -166.760E-03     332.521E-03    -166.268E-03     34.6217E-03
            2149     3.81058E-03     21.7994E-03    -86.8370E+06    -142.407E+06    -54.2128E+06     12.6754E+03    -166.330E-03     332.666E-03    -166.336E-03     29.5995E-03    -166.458E-03     332.138E-03    -166.274E-03     29.1746E-03
            2150     3.04785E-03     21.7622E-03    -91.5284E+06    -157.729E+06    -66.6766E+06    -615.202E+03    -166.245E-03     332.582E-03    -166.337E-03     23.9249E-03    -166.323E-03     331.974E-03    -166.309E-03     23.5796E-03
            2151     2.28615E-03     21.7314E-03    -100.230E+06    -170.392E+06    -81.0601E+06     822.115E+03    -166.458E-03     332.769E-03    -166.312E-03     18.2357E-03    -166.490E-03     332.079E-03    -166.325E-03     18.0114E-03
            2152     1.52462E-03     21.7096E-03    -104.616E+06    -185.810E+06    -93.4776E+06     2.33060E+06    -166.435E-03     332.676E-03    -166.241E-03     12.3036E-03    -166.460E-03     331.941E-03    -166.287E-03     12.2156E-03
            2153     761.765E-06     21.6975E-03    -108.750E+06    -214.032E+06    -106.113E+06     258.531E+03    -166.322E-03     332.521E-03    -166.199E-03     6.83005E-03    -166.273E-03     331.755E-03    -166.261E-03     6.77879E-03
            2154     14.5060E-03     21.5715E-03    -4.41048E+06     69.5235E+06     79.6080E+06    -7.01579E+06    -160.800E-03     325.457E-03    -164.657E-03     62.6962E-03    -161.246E-03     325.904E-03    -164.353E-03     60.0829E-03
            2155     13.7415E-03     21.4921E-03    -7.33540E+06     63.3148E+06     77.7062E+06    -4.06436E+06    -161.941E-03     326.822E-03    -164.881E-03     69.8713E-03    -162.426E-03     327.280E-03    -164.573E-03     67.0272E-03
            2156     12.9777E-03     21.4004E-03    -9.25504E+06     60.7396E+06     74.4027E+06     1.48026E+06    -162.118E-03     327.206E-03    -165.088E-03     70.2553E-03    -162.577E-03     327.633E-03    -164.791E-03     67.7365E-03
            2157     12.2081E-03     21.3049E-03    -26.8694E+06     48.9756E+06     57.7720E+06     1.03493E+06    -163.906E-03     329.135E-03    -165.229E-03     70.3984E-03    -164.417E-03     329.557E-03    -164.973E-03     67.8629E-03
            2158     11.4432E-03     21.2092E-03    -31.6321E+06     41.6949E+06     49.6080E+06     1.09023E+06    -164.797E-03     330.119E-03    -165.322E-03     70.1767E-03    -165.295E-03     330.509E-03    -165.089E-03     67.8096E-03
            2159     10.6795E-03     21.1193E-03    -33.8207E+06     32.3612E+06     46.2283E+06    -3.41904E+06    -164.475E-03     329.911E-03    -165.436E-03     68.6988E-03    -164.933E-03     330.229E-03    -165.202E-03     66.5377E-03
            2160     9.91589E-03     21.0289E-03    -40.1673E+06     24.9502E+06     39.6042E+06    -510.350E+03    -165.359E-03     330.885E-03    -165.525E-03     65.9189E-03    -165.799E-03     331.155E-03    -165.305E-03     63.9964E-03
            2161     9.15467E-03     20.9421E-03    -44.2295E+06     11.7774E+06     31.6730E+06     818.689E+03    -165.805E-03     331.372E-03    -165.567E-03     62.2577E-03    -166.205E-03     331.565E-03    -165.361E-03     60.5348E-03
            2162     8.39252E-03     20.8598E-03    -42.7896E+06    -4.92409E+06     28.7037E+06     648.457E+03    -165.183E-03     330.826E-03    -165.643E-03     59.1719E-03    -165.515E-03     330.906E-03    -165.431E-03     57.7565E-03
            2163     7.62624E-03     20.7809E-03    -45.9640E+06    -31.2386E+06     18.8803E+06     2.08136E+06    -165.424E-03     331.153E-03    -165.730E-03     54.9878E-03    -165.698E-03     331.098E-03    -165.523E-03     53.8216E-03
            2164     6.86293E-03     20.7073E-03    -58.1236E+06    -61.0219E+06     3.10904E+06     412.522E+03    -166.134E-03     331.890E-03    -165.756E-03     49.8076E-03    -166.379E-03     331.703E-03    -165.568E-03     48.7992E-03
            2165     6.10101E-03     20.6406E-03    -65.3272E+06    -79.1238E+06    -9.96509E+06     4.05457E+06    -166.226E-03     331.943E-03    -165.717E-03     44.5962E-03    -166.427E-03     331.660E-03    -165.557E-03     43.8507E-03
            2166     5.33860E-03     20.5775E-03    -74.9994E+06    -107.444E+06    -30.4113E+06     2.37107E+06    -166.109E-03     331.751E-03    -165.641E-03     39.0143E-03    -166.266E-03     331.348E-03    -165.529E-03     38.3902E-03
            2167     4.57585E-03     20.5252E-03    -84.3188E+06    -129.289E+06    -46.7161E+06    -2.49342E+06    -165.915E-03     331.490E-03    -165.574E-03     33.5091E-03    -166.056E-03     331.007E-03    -165.498E-03     32.9331E-03
            2168     3.81306E-03     20.4791E-03    -89.6656E+06    -142.017E+06    -57.2369E+06    -687.178E+03    -165.736E-03     331.256E-03    -165.520E-03     27.9510E-03    -165.864E-03     330.728E-03    -165.470E-03     27.5154E-03
            2169     3.05095E-03     20.4415E-03     -94.744E+06    -159.759E+06    -70.2935E+06     968.597E+03    -165.718E-03     331.167E-03    -165.449E-03     22.4016E-03    -165.802E-03     330.556E-03    -165.431E-03     22.0600E-03
            2170     2.28807E-03     20.4108E-03    -99.0945E+06    -171.598E+06    -82.0352E+06     964.653E+03    -165.444E-03     330.837E-03    -165.393E-03     16.9196E-03    -165.477E-03     330.151E-03    -165.411E-03     16.6838E-03
            2171     1.52466E-03     20.3895E-03    -104.250E+06    -184.565E+06    -93.8970E+06     248.167E+03    -165.347E-03     330.742E-03    -165.395E-03     11.3837E-03    -165.374E-03     330.019E-03    -165.446E-03     11.2536E-03
            2172     762.860E-06     20.3762E-03    -107.176E+06    -210.222E+06    -104.957E+06     2.01778E+06    -165.683E-03     330.948E-03    -165.266E-03     6.08994E-03    -165.633E-03     330.184E-03    -165.330E-03     6.07165E-03
            2173     14.5065E-03     20.2589E-03    -3.06247E+06     67.8860E+06     77.1167E+06    -965.717E+03    -161.064E-03     325.715E-03    -164.651E-03     61.5659E-03    -161.486E-03     326.144E-03    -164.360E-03     59.1156E-03
            2174     13.7417E-03     20.1729E-03    -10.8851E+06     62.3667E+06     75.7005E+06    -1.02354E+06    -164.365E-03     329.168E-03    -164.803E-03     67.4028E-03    -164.864E-03     329.630E-03    -164.499E-03     64.5148E-03
            2175     12.9763E-03     20.0863E-03    -15.9819E+06     64.0631E+06     76.1862E+06     3.55223E+06    -165.353E-03     330.201E-03    -164.848E-03     68.7027E-03    -165.860E-03     330.659E-03    -164.537E-03     66.0729E-03
            2176     12.2155E-03     19.9894E-03    -21.9684E+06     53.1581E+06     64.2687E+06    -2.84555E+06    -164.305E-03     329.167E-03    -164.861E-03     68.7752E-03    -164.803E-03     329.588E-03    -164.585E-03     66.1776E-03
            2177     11.4511E-03     19.8936E-03    -24.9798E+06     41.8009E+06      52.425E+06    -6.40108E+06    -163.661E-03     328.593E-03    -164.932E-03     67.1035E-03    -164.131E-03     328.970E-03    -164.694E-03     64.5719E-03
            2178     10.6854E-03     19.8038E-03    -35.9694E+06     30.4814E+06     43.2493E+06    -1.29938E+06    -164.406E-03     329.441E-03    -165.035E-03     66.0439E-03    -164.866E-03     329.756E-03    -164.811E-03     63.8635E-03
            2179     9.92153E-03     19.7094E-03    -39.6359E+06     25.0878E+06     38.0318E+06    -4.89639E+06    -164.850E-03     329.961E-03    -165.111E-03     64.7746E-03    -165.277E-03     330.225E-03    -164.899E-03     62.8713E-03
            2180     9.15700E-03     19.6228E-03    -43.1729E+06     11.3134E+06     29.3303E+06    -7.19175E+06    -165.273E-03     330.429E-03    -165.156E-03     62.2430E-03    -165.665E-03     330.623E-03    -164.963E-03     60.4921E-03
            2181     8.39222E-03     19.5426E-03    -53.8745E+06    -14.2052E+06     20.1524E+06    -376.829E+03    -166.302E-03     331.465E-03    -165.163E-03     58.4722E-03    -166.668E-03     331.531E-03    -164.963E-03     57.0793E-03
            2182     7.63120E-03     19.4617E-03    -58.5608E+06    -35.2124E+06     11.7009E+06     4.37213E+06    -166.633E-03     331.709E-03    -165.076E-03     52.6384E-03    -166.949E-03     331.658E-03    -164.881E-03     51.5391E-03
            2183     6.86902E-03     19.3879E-03    -59.1497E+06    -56.7815E+06     2.83816E+06     3.58899E+06    -166.516E-03     331.450E-03    -164.934E-03     46.6862E-03    -166.768E-03     331.284E-03    -164.752E-03     45.7417E-03
            2184     6.10678E-03     19.3198E-03    -66.2691E+06    -78.5635E+06    -8.85342E+06     3.51644E+06    -166.258E-03     331.021E-03    -164.764E-03     41.4700E-03    -166.468E-03     330.744E-03    -164.598E-03     40.6849E-03
            2185     5.34397E-03     19.2601E-03    -75.0168E+06    -102.305E+06    -27.8799E+06     4.22062E+06    -165.614E-03     330.182E-03    -164.568E-03     36.0145E-03    -165.785E-03     329.804E-03    -164.450E-03     35.3869E-03
            2186     4.58094E-03     19.2058E-03    -80.4414E+06    -125.465E+06    -46.0607E+06     798.369E+03    -165.203E-03     329.596E-03    -164.394E-03     30.4972E-03    -165.327E-03     329.123E-03    -164.325E-03     29.9434E-03
            2187     3.81813E-03     19.1614E-03    -86.5556E+06    -143.019E+06    -57.1158E+06    -1.98749E+06    -165.004E-03     329.246E-03    -164.242E-03     25.2819E-03    -165.103E-03     328.696E-03    -164.195E-03     24.7780E-03
            2188     3.05465E-03     19.1224E-03    -94.9945E+06    -160.433E+06    -70.6977E+06    -2.13308E+06    -164.616E-03     328.692E-03    -164.076E-03     20.1479E-03    -164.694E-03     328.071E-03    -164.059E-03     19.7280E-03
            2189     2.29157E-03     19.0941E-03    -100.499E+06    -172.030E+06    -82.7633E+06    -1.74894E+06    -164.237E-03     328.170E-03    -163.933E-03     14.9706E-03    -164.278E-03     327.487E-03    -163.951E-03     14.6643E-03
            2190     1.52794E-03     19.0721E-03    -106.101E+06    -185.226E+06    -92.7898E+06    -569.354E+03    -164.021E-03     327.849E-03    -163.828E-03     10.0128E-03    -164.051E-03     327.120E-03    -163.870E-03     9.84092E-03
            2191     763.544E-06     19.0579E-03    -112.216E+06    -210.604E+06    -105.195E+06     293.260E+03    -163.925E-03     327.644E-03    -163.720E-03     5.07340E-03    -163.894E-03     326.865E-03    -163.778E-03     5.03876E-03
            2192     14.5111E-03     18.9487E-03     720.582E+03     74.4624E+06     84.3717E+06     7.95281E+06    -164.331E-03     328.860E-03    -164.528E-03     62.4095E-03    -164.755E-03     329.305E-03    -164.216E-03     60.0628E-03
            2193     13.7444E-03     18.8560E-03    -6.85474E+06     69.1441E+06     81.8575E+06     2.51948E+06    -164.944E-03     329.504E-03    -164.560E-03     65.8273E-03    -165.431E-03     329.975E-03    -164.241E-03     63.0486E-03
            2194     12.9851E-03     18.7648E-03    -18.3698E+06     61.2947E+06     73.4445E+06    -7.82992E+06    -165.268E-03     329.820E-03    -164.552E-03     68.6954E-03    -165.797E-03     330.288E-03    -164.247E-03     65.7824E-03
            2195     12.2212E-03     18.6733E-03    -16.1545E+06     57.0488E+06     72.1672E+06    -6.48827E+06    -164.565E-03     329.141E-03    -164.576E-03     71.8125E-03    -165.070E-03     329.582E-03    -164.274E-03     69.0780E-03
            2196     11.4546E-03     18.5821E-03    -21.8506E+06     43.7792E+06     59.7041E+06    -97.8442E+03    -164.757E-03     329.355E-03    -164.598E-03     72.0433E-03    -165.219E-03     329.722E-03    -164.331E-03     69.7692E-03
            2197     10.6908E-03     18.4848E-03    -28.4644E+06     33.4567E+06     44.6136E+06     183.878E+03    -165.591E-03     330.162E-03    -164.571E-03     68.3632E-03    -166.017E-03     330.477E-03    -164.356E-03     66.2657E-03
            2198     9.92669E-03     18.3957E-03    -37.6688E+06     23.2956E+06     31.8123E+06    -2.31240E+06    -165.500E-03     330.023E-03    -164.523E-03     63.1392E-03    -165.897E-03     330.277E-03    -164.343E-03     61.2521E-03
            2199     9.16081E-03     18.3077E-03    -48.8582E+06     4.60317E+06     22.7299E+06    -5.19990E+06    -166.165E-03     330.627E-03    -164.462E-03     57.8321E-03    -166.544E-03     330.783E-03    -164.284E-03     56.1593E-03
            2200     8.39999E-03     18.2200E-03    -55.9471E+06    -20.8201E+06     14.9876E+06    -5.46029E+06    -167.282E-03     331.582E-03    -164.300E-03     52.4118E-03    -167.634E-03     331.617E-03    -164.113E-03     50.8864E-03
            2201     7.63913E-03     18.1422E-03    -61.1235E+06    -41.3879E+06     7.88126E+06    -2.03432E+06    -167.387E-03     331.409E-03    -164.022E-03     47.5091E-03    -167.699E-03     331.334E-03    -163.834E-03     46.2308E-03
            2202     6.87736E-03     18.0693E-03    -62.3388E+06    -58.0917E+06     962.966E+03     1.56106E+06    -166.715E-03     330.408E-03    -163.693E-03     42.5349E-03    -166.975E-03     330.238E-03    -163.513E-03     41.5183E-03
            2203     6.11480E-03     18.0022E-03    -66.5730E+06    -80.8898E+06    -11.8901E+06     1.33086E+06    -165.875E-03     329.225E-03    -163.350E-03     37.0828E-03    -166.081E-03     328.943E-03    -163.196E-03     36.2231E-03
            2204     5.35252E-03     17.9430E-03    -70.9908E+06    -98.5262E+06    -21.3994E+06     690.582E+03    -165.067E-03     328.098E-03    -163.032E-03     31.8369E-03    -165.237E-03     327.728E-03    -162.893E-03     31.1223E-03
            2205     4.58907E-03     17.8911E-03    -77.4829E+06    -117.391E+06    -36.9855E+06     3.61437E+06    -164.331E-03     327.034E-03    -162.702E-03     26.9246E-03    -164.477E-03     326.595E-03    -162.605E-03     26.4068E-03
            2206     3.82513E-03     17.8452E-03    -84.1458E+06    -141.907E+06    -55.7604E+06     1.01606E+06    -163.634E-03     326.019E-03    -162.385E-03     21.9718E-03    -163.736E-03     325.481E-03    -162.336E-03     21.5064E-03
            2207     3.06117E-03     17.8095E-03    -89.1810E+06    -159.833E+06    -67.4099E+06    -1.72890E+06    -162.985E-03     325.106E-03    -162.120E-03     17.3198E-03    -163.053E-03     324.486E-03    -162.096E-03     16.9080E-03
            2208     2.29580E-03     17.7799E-03    -98.3156E+06    -173.591E+06     -82.573E+06    -2.06798E+06    -162.597E-03     324.436E-03    -161.839E-03     12.8544E-03    -162.652E-03     323.768E-03    -161.858E-03     12.5421E-03
            2209     1.53123E-03     17.7594E-03    -106.274E+06    -188.619E+06    -95.1167E+06    -1.20855E+06    -162.100E-03     323.652E-03    -161.552E-03     8.46954E-03    -162.140E-03     322.931E-03    -161.600E-03     8.26088E-03
            2210     766.246E-06     17.7464E-03    -110.118E+06    -210.733E+06    -105.337E+06    -2.76562E+06    -161.496E-03     322.924E-03    -161.429E-03     4.29926E-03    -161.450E-03     322.132E-03    -161.490E-03     4.20038E-03
            2211     14.5124E-03     17.6239E-03    -7.13125E+06     69.5522E+06     81.8408E+06    -4.42692E+06    -165.591E-03     329.970E-03    -164.379E-03     61.9207E-03    -166.056E-03     330.419E-03    -164.060E-03     59.2650E-03
            2212     13.7541E-03     17.5434E-03    -6.58099E+06     70.0286E+06     84.7091E+06     4.08932E+06    -164.029E-03     328.436E-03    -164.407E-03     71.2392E-03    -164.515E-03     328.901E-03    -164.075E-03     68.6752E-03
            2213     12.9838E-03     17.4479E-03    -9.50812E+06     67.5799E+06     79.2574E+06     2.39370E+06    -164.211E-03     328.672E-03    -164.461E-03     74.8772E-03    -164.695E-03     329.131E-03    -164.149E-03     72.4477E-03
            2214     12.2174E-03     17.3604E-03    -17.1309E+06     54.4698E+06     68.3566E+06     711.042E+03    -166.247E-03     330.697E-03    -164.450E-03     73.2864E-03    -166.741E-03     331.126E-03    -164.163E-03     70.7503E-03
            2215     11.4553E-03     17.2622E-03    -23.7050E+06     41.2296E+06     57.1474E+06     5.73346E+06    -167.742E-03     332.058E-03    -164.316E-03     70.7356E-03    -168.201E-03     332.414E-03    -164.056E-03     68.5565E-03
            2216     10.6941E-03     17.1670E-03    -25.3713E+06     36.3454E+06     47.1162E+06     19.9296E+03    -168.305E-03     332.375E-03    -164.069E-03     65.4069E-03    -168.726E-03     332.698E-03    -163.850E-03     63.2246E-03
            2217     9.93259E-03     17.0777E-03    -31.9929E+06     30.4710E+06     40.4550E+06    -2.16521E+06    -168.925E-03     332.675E-03    -163.751E-03     58.8707E-03    -169.326E-03     332.954E-03    -163.546E-03     56.7993E-03
            2218     9.17520E-03     16.9875E-03    -43.2016E+06     9.34284E+06     29.6063E+06     2.30448E+06    -168.709E-03     332.062E-03    -163.353E-03     53.4394E-03    -169.072E-03     332.219E-03    -163.156E-03     51.8186E-03
            2219     8.41336E-03     16.9033E-03    -48.0013E+06    -17.3264E+06     18.1741E+06    -2.21148E+06    -167.778E-03     330.696E-03    -162.918E-03     48.2021E-03    -168.085E-03     330.719E-03    -162.732E-03     46.7762E-03
            2220     7.65039E-03     16.8238E-03    -52.4612E+06    -41.2685E+06     10.5227E+06    -7.47821E+06    -167.253E-03     329.722E-03    -162.470E-03     42.5547E-03    -167.517E-03     329.624E-03    -162.281E-03     41.2028E-03
            2221     6.88923E-03     16.7521E-03    -65.9379E+06    -67.6999E+06    -4.05197E+06    -6.53172E+06    -166.486E-03     328.446E-03    -161.960E-03     37.0190E-03    -166.735E-03     328.233E-03    -161.787E-03     35.8339E-03
            2222     6.12738E-03     16.6877E-03    -72.0073E+06    -83.5800E+06    -14.2620E+06    -2.23359E+06    -165.228E-03     326.666E-03    -161.438E-03     32.1761E-03    -165.447E-03     326.375E-03    -161.284E-03     31.2523E-03
            2223     5.36332E-03     16.6297E-03    -74.0011E+06    -100.591E+06    -23.8368E+06     65.6766E+03    -164.133E-03     325.064E-03    -160.931E-03     27.3468E-03    -164.302E-03     324.682E-03    -160.797E-03     26.6199E-03
            2224     4.59961E-03     16.5790E-03    -80.6424E+06    -119.483E+06    -37.0745E+06     524.306E+03    -162.980E-03     323.415E-03    -160.434E-03     22.8033E-03    -163.122E-03     322.954E-03    -160.330E-03     22.2239E-03
            2225     3.83477E-03     16.5359E-03    -88.5159E+06    -137.957E+06    -54.3961E+06     2.77065E+06    -161.863E-03     321.818E-03    -159.955E-03     18.3735E-03    -161.978E-03     321.288E-03    -159.899E-03     17.9536E-03
            2226     3.06845E-03     16.5005E-03    -92.6846E+06    -157.536E+06    -69.2804E+06     2.06822E+06    -160.987E-03     320.504E-03    -159.517E-03     14.0449E-03    -161.057E-03     319.888E-03    -159.501E-03     13.7001E-03
            2227     2.30286E-03     16.4724E-03    -97.7792E+06    -173.504E+06    -81.4781E+06     767.927E+03    -160.013E-03     319.156E-03    -159.143E-03     10.3459E-03    -160.058E-03     318.475E-03    -159.157E-03     10.0731E-03
            2228     1.53564E-03     16.4528E-03    -105.096E+06    -188.254E+06    -96.2731E+06    -212.382E+03    -159.220E-03     318.086E-03    -158.866E-03     6.93872E-03    -159.261E-03     317.373E-03    -158.922E-03     6.75809E-03
            2229     767.581E-06     16.4418E-03    -109.477E+06    -213.049E+06    -108.188E+06    -178.671E+03    -158.977E-03     317.654E-03    -158.678E-03     4.12412E-03    -158.926E-03     316.860E-03    -158.751E-03     4.02159E-03
            2230     14.5162E-03     16.3124E-03    -4.93626E+06     66.5600E+06     76.7612E+06    -6.70828E+06    -163.348E-03     327.716E-03    -164.367E-03     66.3852E-03    -163.784E-03     328.148E-03    -164.073E-03     63.8718E-03
            2231     13.7430E-03     16.2269E-03    -15.5237E+06     59.1877E+06     70.6901E+06    -1.29349E+06    -164.951E-03     329.372E-03    -164.421E-03     73.1555E-03    -165.456E-03     329.827E-03    -164.131E-03     70.4652E-03
            2232     12.9812E-03     16.1361E-03    -14.9232E+06     62.2251E+06     75.2959E+06     4.61847E+06    -167.742E-03     332.121E-03    -164.379E-03     71.8351E-03    -168.243E-03     332.571E-03    -164.071E-03     69.2594E-03
            2233     12.2216E-03     16.0351E-03    -19.2133E+06     54.0877E+06     66.3700E+06     3.01889E+06    -170.075E-03     334.190E-03    -164.115E-03     67.1355E-03    -170.573E-03     334.619E-03    -163.833E-03     64.4349E-03
            2234     11.4637E-03     15.9426E-03    -24.1735E+06     46.8276E+06     57.9426E+06     52.5597E+03    -170.742E-03     334.451E-03    -163.709E-03     63.1071E-03    -171.217E-03     334.838E-03    -163.452E-03     60.5679E-03
            2235     10.7031E-03     15.8459E-03    -30.8339E+06     39.2589E+06     50.1708E+06     1.90962E+06    -170.727E-03     333.948E-03    -163.221E-03     59.3459E-03    -171.170E-03     334.276E-03    -162.982E-03     57.0913E-03
            2236     9.94637E-03     15.7537E-03    -35.4056E+06     29.9244E+06     40.8067E+06     2.56816E+06    -170.956E-03     333.588E-03    -162.632E-03     54.7292E-03    -171.362E-03     333.856E-03    -162.420E-03     52.7072E-03
            2237     9.18578E-03     15.6678E-03    -38.0688E+06     18.7852E+06     35.6272E+06     2.66391E+06    -170.584E-03     332.549E-03    -161.965E-03     50.0354E-03    -170.948E-03     332.741E-03    -161.759E-03     48.3725E-03
            2238     8.42631E-03     15.5863E-03    -45.4419E+06    -7.79148E+06     24.5885E+06    -664.762E+03    -169.404E-03     330.638E-03    -161.235E-03     43.9459E-03    -169.725E-03     330.700E-03    -161.034E-03     42.4880E-03
            2239     7.66708E-03     15.5080E-03    -53.9866E+06    -42.0236E+06     9.28490E+06    -3.31290E+06    -167.495E-03     327.985E-03    -160.490E-03     37.5843E-03    -167.765E-03     327.887E-03    -160.304E-03     36.2640E-03
            2240     6.90489E-03     15.4389E-03    -59.8871E+06    -67.1595E+06    -2.72355E+06    -4.76982E+06    -165.838E-03     325.604E-03    -159.766E-03     32.1171E-03    -166.063E-03     325.386E-03    -159.595E-03     30.9536E-03
            2241     6.14125E-03     15.3768E-03    -67.9032E+06    -86.2191E+06    -14.2558E+06    -4.12590E+06    -164.503E-03     323.539E-03    -159.037E-03     27.0919E-03    -164.703E-03     323.234E-03    -158.884E-03     26.1203E-03
            2242     5.37812E-03     15.3210E-03    -77.2228E+06    -106.424E+06    -28.8816E+06    -1.27163E+06    -162.899E-03     321.195E-03    -158.296E-03     22.4028E-03    -163.080E-03     320.808E-03    -158.174E-03     21.6342E-03
            2243     4.61263E-03     15.2729E-03    -81.0923E+06    -124.202E+06    -41.2620E+06    -1.05804E+06    -161.280E-03     318.864E-03    -157.584E-03     17.8996E-03    -161.417E-03     318.393E-03    -157.493E-03     17.2456E-03
            2244     3.84586E-03     15.2322E-03    -83.8990E+06    -136.834E+06    -51.0851E+06     463.255E+03    -159.620E-03     316.556E-03    -156.937E-03     14.0147E-03    -159.719E-03     316.021E-03    -156.872E-03     13.5064E-03
            2245     3.07933E-03     15.1978E-03    -93.2358E+06    -154.315E+06    -69.5903E+06     2.23279E+06    -158.057E-03     314.422E-03    -156.365E-03     10.8589E-03    -158.134E-03     313.823E-03    -156.354E-03     10.4942E-03
            2246     2.31001E-03     15.1736E-03    -99.4128E+06    -172.593E+06    -83.4295E+06     1.92064E+06    -156.774E-03     312.734E-03    -155.960E-03     8.05137E-03    -156.818E-03     312.055E-03    -155.983E-03     7.78255E-03
            2247     1.53980E-03     15.1546E-03    -102.074E+06    -185.265E+06    -91.4618E+06     1.86121E+06    -155.941E-03     311.690E-03    -155.748E-03     5.43987E-03    -155.978E-03     310.976E-03    -155.789E-03     5.26816E-03
            2248     770.141E-06     15.1436E-03    -110.686E+06    -213.862E+06    -105.599E+06     2.73321E+06    -155.780E-03     311.451E-03    -155.672E-03     3.18844E-03    -155.744E-03     310.665E-03    -155.729E-03     3.08381E-03
            2249     14.5050E-03     14.9995E-03    -2.64755E+06     71.2262E+06     78.7944E+06     3.17109E+06    -166.183E-03     330.649E-03    -164.466E-03     66.0799E-03    -166.618E-03     331.099E-03    -164.172E-03     63.6545E-03
            2250     13.7491E-03     14.9076E-03    -11.7400E+06     66.9147E+06     75.9562E+06    -2.23570E+06    -170.314E-03     334.611E-03    -164.297E-03     68.1553E-03    -170.840E-03     335.113E-03    -163.998E-03     65.0831E-03
            2251     12.9906E-03     14.8107E-03    -20.5408E+06     57.2773E+06     69.0664E+06    -5.81059E+06    -172.307E-03     336.219E-03    -163.913E-03     66.4884E-03    -172.844E-03     336.687E-03    -163.621E-03     63.4210E-03
            2252     12.2332E-03     14.7122E-03    -22.1033E+06     52.5743E+06     65.5842E+06    -4.65815E+06    -172.793E-03     336.190E-03    -163.397E-03     64.0030E-03    -173.305E-03     336.621E-03    -163.114E-03     61.1122E-03
            2253     11.4745E-03     14.6174E-03    -26.9314E+06     45.8287E+06     55.7076E+06    -4.14343E+06    -173.501E-03     336.243E-03    -162.742E-03     60.0326E-03    -173.986E-03     336.634E-03    -162.491E-03     57.3532E-03
            2254     10.7190E-03     14.5245E-03    -29.8457E+06     40.6497E+06     49.1435E+06     2.06580E+06    -173.329E-03     335.308E-03    -161.978E-03     54.9020E-03    -173.764E-03     335.639E-03    -161.748E-03     52.5954E-03
            2255     9.95809E-03     14.4329E-03    -34.6976E+06     31.2350E+06     42.0408E+06     3.67013E+06    -172.264E-03     333.404E-03    -161.140E-03     48.6075E-03    -172.650E-03     333.656E-03    -160.925E-03     46.5949E-03
            2256     9.20105E-03     14.3479E-03    -39.7560E+06     16.0260E+06     33.4902E+06    -1.91948E+06    -171.584E-03     331.804E-03    -160.220E-03     43.0083E-03    -171.937E-03     331.976E-03    -160.018E-03     41.1626E-03
            2257     8.44456E-03     14.2658E-03    -43.7812E+06    -7.15056E+06     25.1813E+06    -1.29541E+06    -170.116E-03     329.349E-03    -159.233E-03     37.6300E-03    -170.428E-03     329.407E-03    -159.033E-03     35.9986E-03
            2258     7.68434E-03     14.1968E-03    -50.1078E+06    -38.2649E+06     12.5660E+06     419.441E+03    -167.827E-03     326.050E-03    -158.223E-03     32.4796E-03    -168.078E-03     325.952E-03    -158.032E-03     31.1037E-03
            2259     6.92195E-03     14.1293E-03    -57.7474E+06    -65.6181E+06    -2.13621E+06     282.718E+03    -165.629E-03     322.847E-03    -157.218E-03     27.3520E-03    -165.839E-03     322.626E-03    -157.050E-03     26.2096E-03
            2260     6.15984E-03     14.0697E-03    -66.6123E+06    -89.4525E+06    -17.6509E+06    -470.314E+03    -163.695E-03     319.903E-03    -156.208E-03     22.0543E-03    -163.880E-03     319.586E-03    -156.070E-03     21.0713E-03
            2261     5.39447E-03     14.0183E-03    -71.7953E+06    -108.274E+06    -28.2350E+06    -1.91551E+06    -161.580E-03     316.796E-03    -155.215E-03     17.2686E-03    -161.730E-03     316.388E-03    -155.095E-03     16.3965E-03
            2262     4.62838E-03     13.9728E-03    -79.4922E+06    -124.015E+06    -41.1065E+06    -520.409E+03    -159.061E-03     313.335E-03    -154.275E-03     13.3107E-03    -159.195E-03     312.867E-03    -154.185E-03     12.5861E-03
            2263     3.86111E-03     13.9356E-03    -83.7640E+06    -138.871E+06    -53.4392E+06     949.641E+03    -156.634E-03     310.103E-03    -153.469E-03     10.4530E-03    -156.737E-03     309.572E-03    -153.414E-03     9.88854E-03
            2264     3.08933E-03     13.9062E-03    -87.9154E+06    -153.150E+06    -66.7508E+06     1.20558E+06    -154.703E-03     307.536E-03    -152.833E-03     7.98570E-03    -154.769E-03     306.941E-03    -152.817E-03     7.56658E-03
            2265     2.31808E-03     13.8817E-03    -97.1961E+06    -169.633E+06    -83.0942E+06     341.006E+03    -153.463E-03     305.798E-03    -152.334E-03     5.41290E-03    -153.515E-03     305.144E-03    -152.363E-03     5.10723E-03
            2266     1.54636E-03     13.8660E-03    -100.529E+06    -185.714E+06    -89.1716E+06    -687.301E+03    -152.614E-03     304.573E-03    -151.959E-03     3.45258E-03    -152.651E-03     303.859E-03    -151.990E-03     3.20671E-03
            2267     773.004E-06     13.8535E-03    -108.252E+06    -210.473E+06    -101.164E+06     224.073E+03    -152.035E-03     303.627E-03    -151.592E-03     1.73961E-03    -151.988E-03     302.851E-03    -151.635E-03     1.59240E-03
            2268     14.5141E-03     13.6734E-03    -6.89085E+06     70.8242E+06     79.3233E+06     2.24708E+06    -171.147E-03     335.439E-03    -164.293E-03     61.5973E-03    -171.609E-03     335.898E-03    -163.989E-03     58.9670E-03
            2269     13.7546E-03     13.5800E-03    -3.06309E+06     76.4784E+06     87.8195E+06    -1.50962E+06    -173.441E-03     337.349E-03    -163.908E-03     67.6414E-03    -173.954E-03     337.867E-03    -163.575E-03     64.5620E-03
            2270     12.9994E-03     13.4832E-03    -10.5945E+06     68.9981E+06     80.6687E+06    -876.831E+03    -175.016E-03     338.340E-03    -163.324E-03     67.8280E-03    -175.532E-03     338.830E-03    -163.006E-03     64.8745E-03
            2271     12.2421E-03     13.3884E-03    -21.0706E+06     52.8139E+06     62.9331E+06    -2.26085E+06    -176.119E-03     338.665E-03    -162.546E-03     63.8328E-03    -176.621E-03     339.098E-03    -162.277E-03     60.9746E-03
            2272     11.4871E-03     13.2905E-03    -27.3544E+06     38.2153E+06     48.2547E+06    -8.12642E+06    -176.732E-03     338.338E-03    -161.606E-03     58.1709E-03    -177.192E-03     338.697E-03    -161.381E-03     55.4291E-03
            2273     10.7322E-03     13.1977E-03    -32.8818E+06     31.9464E+06     44.3231E+06    -3.64511E+06    -176.457E-03     337.007E-03    -160.550E-03     51.1424E-03    -176.891E-03     337.310E-03    -160.327E-03     48.6652E-03
            2274     9.98061E-03     13.1133E-03    -36.8368E+06     28.6850E+06     41.4964E+06     2.18521E+06    -174.993E-03     334.371E-03    -159.379E-03     44.7528E-03    -175.394E-03     334.624E-03    -159.159E-03     42.6646E-03
            2275     9.22376E-03     13.0275E-03    -39.3600E+06     15.8630E+06     31.0028E+06    -1.38427E+06    -172.392E-03     330.532E-03    -158.140E-03     38.6890E-03    -172.740E-03     330.707E-03    -157.951E-03     36.7907E-03
            2276     8.46300E-03     12.9540E-03    -42.9801E+06    -9.09421E+06     21.3550E+06    -1.38379E+06    -169.831E-03     326.758E-03    -156.926E-03     32.5348E-03    -170.124E-03     326.804E-03    -156.744E-03     30.8442E-03
            2277     7.70286E-03     12.8842E-03    -50.2664E+06    -40.3024E+06     11.3090E+06     966.161E+03    -168.035E-03     323.725E-03    -155.690E-03     26.8767E-03    -168.276E-03     323.612E-03    -155.502E-03     25.4270E-03
            2278     6.94303E-03     12.8239E-03    -59.1764E+06    -65.6418E+06    -3.35752E+06     2.20801E+06    -165.632E-03     320.007E-03    -154.375E-03     21.4834E-03    -165.841E-03     319.783E-03    -154.211E-03     20.2245E-03
            2279     6.17809E-03     12.7684E-03    -64.5287E+06    -85.8764E+06    -16.1149E+06     1.65043E+06    -162.500E-03     315.577E-03    -153.077E-03     16.8262E-03    -162.681E-03     315.270E-03    -152.939E-03     15.7605E-03
            2280     5.41371E-03     12.7200E-03    -70.6606E+06    -106.142E+06    -28.8629E+06    -56.4303E+03    -159.325E-03     311.193E-03    -151.868E-03     12.8315E-03    -159.473E-03     310.797E-03    -151.756E-03     11.8667E-03
            2281     4.64566E-03     12.6817E-03    -78.7925E+06    -123.872E+06    -41.8646E+06    -303.137E+03    -156.218E-03     307.013E-03    -150.795E-03     10.0541E-03    -156.345E-03     306.542E-03    -150.710E-03     9.23517E-03
            2282     3.87317E-03     12.6487E-03    -90.8900E+06    -143.271E+06    -58.1113E+06     13.3354E+03    -153.713E-03     303.577E-03    -149.863E-03     7.65762E-03    -153.833E-03     303.034E-03    -149.814E-03     7.02177E-03
            2283     3.10224E-03     12.6216E-03    -96.5449E+06    -156.032E+06    -68.8876E+06     1.72886E+06    -151.683E-03     300.753E-03    -149.070E-03     5.19763E-03    -151.772E-03     300.147E-03    -149.048E-03     4.72651E-03
            2284     2.32795E-03     12.6008E-03    -98.4965E+06    -164.931E+06    -79.0147E+06     2.71961E+06    -149.996E-03     298.397E-03    -148.401E-03     3.47951E-03    -150.043E-03     297.738E-03    -148.414E-03     3.16413E-03
            2285     1.55268E-03     12.5850E-03    -106.275E+06    -184.374E+06    -92.7836E+06     345.039E+03    -148.785E-03     296.629E-03    -147.845E-03     2.22438E-03    -148.834E-03     295.920E-03    -147.887E-03     1.97508E-03
            2286     777.446E-06     12.5768E-03    -109.999E+06    -210.864E+06    -106.809E+06    -426.137E+03    -147.889E-03     295.268E-03    -147.379E-03     1.49433E-03    -147.828E-03     294.506E-03    -147.448E-03     1.32735E-03
            2287     14.5192E-03     12.3486E-03    -1.47827E+06     73.4372E+06     82.1618E+06    -1.28160E+06    -173.603E-03     337.563E-03    -163.961E-03     64.9202E-03    -174.049E-03     338.027E-03    -163.654E-03     62.2656E-03
            2288     13.7621E-03     12.2549E-03    -11.1058E+06     64.9425E+06     76.8256E+06    -630.064E+03    -175.544E-03     338.954E-03    -163.410E-03     69.1747E-03    -176.061E-03     339.439E-03    -163.104E-03     66.1952E-03
            2289     13.0037E-03     12.1538E-03    -16.2130E+06     64.0176E+06     76.2772E+06     1.15640E+06    -178.178E-03     340.843E-03    -162.664E-03     66.2449E-03    -178.704E-03     341.317E-03    -162.352E-03     63.3091E-03
            2290     12.2530E-03     12.0562E-03    -20.0843E+06     60.1316E+06     66.4995E+06     365.149E+03    -180.210E-03     341.834E-03    -161.623E-03     60.5226E-03    -180.724E-03     342.297E-03    -161.349E-03     57.5223E-03
            2291     11.5023E-03     11.9615E-03    -25.8167E+06     45.9590E+06     53.6906E+06    -1.06315E+06    -180.072E-03     340.446E-03    -160.374E-03     54.0467E-03    -180.543E-03     340.833E-03    -160.135E-03     51.2000E-03
            2292     10.7501E-03     11.8717E-03    -36.8083E+06     27.5005E+06     39.7730E+06    -1.36015E+06    -178.660E-03     337.659E-03    -158.999E-03     47.3141E-03    -179.085E-03     337.937E-03    -158.787E-03     44.7697E-03
            2293     9.99506E-03     11.7869E-03    -39.6593E+06     24.3583E+06     34.1855E+06    -2.92293E+06    -176.770E-03     334.307E-03    -157.537E-03     41.4643E-03    -177.161E-03     334.544E-03    -157.344E-03     39.1903E-03
            2294     9.24093E-03     11.7123E-03    -41.9236E+06     16.6852E+06     29.0876E+06    -2.63462E+06    -174.135E-03     330.152E-03    -156.017E-03     34.8829E-03    -174.498E-03     330.342E-03    -155.834E-03     32.8483E-03
            2295     8.48491E-03     11.6420E-03    -50.1348E+06    -11.7267E+06     15.2238E+06    -491.705E+03    -171.245E-03     325.696E-03    -154.451E-03     27.5814E-03    -171.562E-03     325.751E-03    -154.285E-03     25.7840E-03
            2296     7.72567E-03     11.5771E-03    -53.4460E+06    -43.5201E+06     6.25379E+06     512.971E+03    -168.007E-03     320.897E-03    -152.891E-03     21.0370E-03    -168.259E-03     320.788E-03    -152.719E-03     19.4505E-03
            2297     6.96316E-03     11.5206E-03    -57.0215E+06    -64.1570E+06    -1.65392E+06     374.675E+03    -164.415E-03     315.761E-03    -151.346E-03     16.0742E-03    -164.628E-03     315.549E-03    -151.178E-03     14.6611E-03
            2298     6.20109E-03     11.4728E-03    -64.2283E+06    -84.2456E+06    -14.6325E+06     1.74174E+06    -160.349E-03     310.225E-03    -149.876E-03     12.7988E-03    -160.540E-03     309.931E-03    -149.734E-03     11.5992E-03
            2299     5.43161E-03     11.4316E-03    -71.0278E+06    -104.067E+06    -29.0477E+06     1.52966E+06    -156.380E-03     304.946E-03    -148.566E-03     9.95566E-03    -156.545E-03     304.574E-03    -148.457E-03     8.92509E-03
            2300     4.66001E-03     11.3982E-03    -78.0190E+06    -122.787E+06    -41.8913E+06     265.022E+03    -153.469E-03     300.883E-03    -147.414E-03     7.47695E-03    -153.610E-03     300.434E-03    -147.333E-03     6.58806E-03
            2301     3.88915E-03     11.3689E-03    -89.5316E+06    -143.655E+06    -58.0183E+06     659.638E+03    -150.924E-03     297.284E-03    -146.360E-03     5.52402E-03    -151.056E-03     296.757E-03    -146.312E-03     4.80715E-03
            2302     3.11330E-03     11.3463E-03    -98.2561E+06    -158.165E+06    -72.6306E+06     844.223E+03    -148.488E-03     293.916E-03    -145.428E-03     4.00825E-03    -148.597E-03     293.329E-03    -145.420E-03     3.45631E-03
            2303     2.33712E-03     11.3288E-03    -99.9751E+06    -164.665E+06    -79.3162E+06     2.54768E+06    -146.465E-03     291.154E-03    -144.690E-03     2.99837E-03    -146.518E-03     290.502E-03    -144.703E-03     2.64090E-03
            2304     1.55894E-03     11.3160E-03    -105.271E+06    -179.536E+06    -90.5319E+06     3.40552E+06    -144.922E-03     289.075E-03    -144.153E-03     1.88825E-03    -144.970E-03     288.375E-03    -144.193E-03     1.68489E-03
            2305     779.043E-06     11.3090E-03    -106.408E+06    -209.255E+06    -106.790E+06     474.766E+03    -143.997E-03     287.974E-03    -143.977E-03     1.23906E-03    -143.927E-03     287.232E-03    -144.053E-03     1.07713E-03
            2306     14.5202E-03     11.0194E-03     1.08671E+06     77.0862E+06     87.2154E+06     4.44340E+06    -177.863E-03     341.668E-03    -163.806E-03     69.8601E-03    -178.315E-03     342.145E-03    -163.483E-03     67.3002E-03
            2307     13.7667E-03     10.9232E-03    -17.7348E+06     59.2691E+06     72.3231E+06     4.63833E+06    -181.882E-03     344.822E-03    -162.940E-03     70.3325E-03    -182.438E-03     345.316E-03    -162.638E-03     67.1918E-03
            2308     13.0189E-03     10.8216E-03    -17.9279E+06     62.4662E+06     70.2861E+06    -3.99204E+06    -183.501E-03     345.306E-03    -161.805E-03     63.3974E-03    -184.049E-03     345.809E-03    -161.518E-03     60.0673E-03
            2309     12.2673E-03     10.7209E-03    -12.9657E+06     62.1593E+06     72.3106E+06    -4.77809E+06    -183.285E-03     343.770E-03    -160.485E-03     56.0298E-03    -183.782E-03     344.233E-03    -160.195E-03     52.7824E-03
            2310     11.5177E-03     10.6289E-03    -25.3020E+06     42.9840E+06     58.1847E+06     1.10231E+06    -182.512E-03     341.486E-03    -158.974E-03     48.5184E-03    -182.989E-03     341.858E-03    -158.709E-03     45.4785E-03
            2311     10.7675E-03     10.5447E-03    -30.6522E+06     35.0923E+06     45.7490E+06     1.11678E+06    -180.558E-03     337.872E-03    -157.315E-03     41.3821E-03    -180.977E-03     338.176E-03    -157.092E-03     38.6659E-03
            2312     10.0163E-03     10.4659E-03    -35.7702E+06     28.3607E+06     34.9795E+06    -5.07357E+06    -178.053E-03     333.621E-03    -155.569E-03     34.1885E-03    -178.427E-03     333.869E-03    -155.383E-03     31.6420E-03
            2313     9.26149E-03     10.3940E-03    -43.9009E+06     10.9362E+06     24.4354E+06    -4.02756E+06    -175.412E-03     329.169E-03    -153.757E-03     27.3065E-03    -175.767E-03     329.337E-03    -153.587E-03     24.9928E-03
            2314     8.50643E-03     10.3291E-03    -52.3100E+06    -15.4880E+06     12.4179E+06    -877.491E+03    -171.820E-03     323.719E-03    -151.899E-03     21.8157E-03    -172.146E-03     323.769E-03    -151.739E-03     19.7978E-03
            2315     7.74868E-03     10.2742E-03    -59.4860E+06    -43.4866E+06     2.52644E+06     1.42085E+06    -167.026E-03     317.125E-03    -150.099E-03     17.3292E-03    -167.310E-03     317.037E-03    -149.937E-03     15.6013E-03
            2316     6.98642E-03     10.2250E-03    -61.7504E+06    -63.9533E+06    -4.93121E+06     2.18322E+06    -161.934E-03     310.377E-03    -148.444E-03     13.7398E-03    -162.173E-03     310.184E-03    -148.286E-03     12.2637E-03
            2317     6.21719E-03     10.1845E-03    -67.4887E+06    -83.7636E+06    -16.6155E+06     89.7083E+03    -157.495E-03     304.451E-03    -146.956E-03     10.9433E-03    -157.700E-03     304.168E-03    -146.820E-03     9.62518E-03
            2318     5.44822E-03     10.1512E-03    -78.4210E+06    -104.228E+06    -30.5489E+06     2.38478E+06    -153.908E-03     299.532E-03    -145.624E-03     8.82825E-03    -154.096E-03     299.160E-03    -145.512E-03     7.75970E-03
            2319     4.67634E-03     10.1210E-03    -85.0579E+06    -122.153E+06    -44.6325E+06     4.81190E+06    -150.730E-03     295.145E-03    -144.415E-03     6.89838E-03    -150.894E-03     294.702E-03    -144.337E-03     6.04825E-03
            2320     3.89991E-03     10.0978E-03    -87.9465E+06    -139.849E+06    -58.7134E+06     3.08772E+06    -147.839E-03     291.188E-03    -143.349E-03     5.46156E-03    -147.964E-03     290.675E-03    -143.312E-03     4.73658E-03
            2321     3.12339E-03     10.0797E-03    -93.2165E+06    -154.947E+06    -73.2584E+06    -184.318E+03    -145.431E-03     287.876E-03    -142.445E-03     4.38988E-03    -145.525E-03     287.304E-03    -142.452E-03     3.79024E-03
            2322     2.34392E-03     10.0652E-03    -98.6920E+06    -166.763E+06    -84.7946E+06    -1.65482E+06    -143.453E-03     285.183E-03    -141.730E-03     3.19517E-03    -143.511E-03     284.548E-03    -141.769E-03     2.76007E-03
            2323     1.56323E-03     10.0561E-03    -103.634E+06    -177.759E+06    -91.0568E+06    -1.05434E+06    -142.010E-03     283.239E-03    -141.228E-03     2.16453E-03    -142.061E-03     282.557E-03    -141.275E-03     1.89294E-03
            2324     782.340E-06     10.0492E-03    -109.623E+06    -207.961E+06    -100.706E+06    -249.022E+03    -141.216E-03     282.136E-03    -140.919E-03     1.00854E-03    -141.186E-03     281.408E-03    -140.962E-03     834.954E-06
            2325     14.5206E-03     9.68688E-03    -6.93139E+06     71.8004E+06     82.7254E+06     5.33967E+06    -185.113E-03     348.739E-03    -163.626E-03     68.8248E-03    -185.605E-03     349.221E-03    -163.306E-03     66.0637E-03
            2326     13.7741E-03     9.57690E-03    -3.39305E+06     76.7297E+06     90.3633E+06     2.43472E+06    -188.377E-03     350.794E-03    -162.416E-03     68.1710E-03    -188.936E-03     351.351E-03    -162.071E-03     64.6350E-03
            2327     13.0297E-03     9.48042E-03    -10.2042E+06     72.1242E+06     81.9282E+06    -371.014E+03    -188.818E-03     349.709E-03    -160.890E-03     60.6891E-03    -189.383E-03     350.256E-03    -160.571E-03     56.9906E-03
            2328     12.2853E-03     9.38624E-03    -16.3741E+06     57.2052E+06     65.4603E+06     485.472E+03    -186.998E-03     346.173E-03    -159.174E-03     52.6269E-03    -187.507E-03     346.637E-03    -158.906E-03     49.2070E-03
            2329     11.5371E-03     9.29605E-03    -23.4289E+06     41.1119E+06     50.9657E+06    -5.61816E+06    -184.696E-03     342.062E-03    -157.366E-03     44.1945E-03    -185.151E-03     342.433E-03    -157.137E-03     40.9243E-03
            2330     10.7885E-03     9.21657E-03    -31.6245E+06     32.2214E+06     41.9341E+06    -7.31269E+06    -182.726E-03     338.181E-03    -155.455E-03     36.1310E-03    -183.153E-03     338.490E-03    -155.247E-03     33.0890E-03
            2331     10.0376E-03     9.14346E-03    -36.9373E+06     26.8686E+06     34.4135E+06    -604.546E+03    -179.599E-03     333.033E-03    -153.433E-03     28.6061E-03    -179.997E-03     333.296E-03    -153.247E-03     25.9377E-03
            2332     9.28621E-03     9.07836E-03    -44.1275E+06     10.4516E+06     23.5917E+06     1.65112E+06    -174.826E-03     326.224E-03    -151.398E-03     22.3054E-03    -175.193E-03     326.405E-03    -151.232E-03     19.9359E-03
            2333     8.52895E-03     9.02254E-03    -51.3614E+06    -14.5383E+06     12.3361E+06     432.509E+03    -169.356E-03     318.823E-03    -149.467E-03     18.2214E-03    -169.687E-03     318.885E-03    -149.310E-03     16.1271E-03
            2334     7.76711E-03     8.97520E-03     -56.277E+06    -43.0028E+06     3.24958E+06     645.098E+03    -164.105E-03     311.807E-03    -147.702E-03     15.7336E-03    -164.386E-03     311.726E-03    -147.542E-03     13.9154E-03
            2335     7.00145E-03     8.93699E-03    -64.7560E+06    -66.7840E+06    -7.12398E+06     2.87755E+06    -159.264E-03     305.364E-03    -146.100E-03     13.5800E-03    -159.520E-03     305.174E-03    -145.945E-03     12.0701E-03
            2336     6.23391E-03     8.90397E-03    -73.9633E+06    -83.7543E+06    -19.3485E+06     4.19266E+06    -155.066E-03     299.712E-03    -144.646E-03     11.2734E-03    -155.307E-03     299.450E-03    -144.514E-03     10.0269E-03
            2337     5.46095E-03     8.87506E-03    -79.5148E+06    -102.652E+06    -31.1611E+06     3.36324E+06    -151.375E-03     294.724E-03    -143.350E-03     9.57032E-03    -151.577E-03     294.371E-03    -143.241E-03     8.52605E-03
            2338     4.68580E-03     8.85227E-03    -84.2190E+06    -121.139E+06    -43.1953E+06     2.79215E+06    -147.968E-03     290.193E-03    -142.226E-03     8.28454E-03    -148.135E-03     289.757E-03    -142.144E-03     7.41988E-03
            2339     3.90915E-03     8.83398E-03    -87.6289E+06    -136.531E+06    -54.8431E+06     1.26518E+06    -145.169E-03     286.456E-03    -141.286E-03     6.94264E-03    -145.306E-03     285.956E-03    -141.236E-03     6.22241E-03
            2340     3.12913E-03     8.81890E-03     -92.799E+06    -151.358E+06    -68.1415E+06    -577.687E+03    -142.973E-03     283.492E-03    -140.519E-03     5.78543E-03    -143.076E-03     282.928E-03    -140.506E-03     5.19173E-03
            2341     2.34854E-03     8.80892E-03    -99.3197E+06    -166.700E+06    -82.2514E+06    -1.92563E+06    -141.374E-03     281.280E-03    -139.906E-03     4.55760E-03    -141.443E-03     280.646E-03    -139.932E-03     4.10651E-03
            2342     1.56651E-03     8.80104E-03    -105.421E+06    -180.159E+06    -93.9775E+06    -2.33155E+06    -140.245E-03     279.660E-03    -139.415E-03     3.19169E-03    -140.307E-03     278.982E-03    -139.471E-03     2.89331E-03
            2343     783.342E-06     8.79634E-03    -114.498E+06    -210.499E+06    -102.820E+06    -2.61777E+06    -139.459E-03     278.477E-03    -139.018E-03     1.87215E-03    -139.464E-03     277.763E-03    -139.061E-03     1.70271E-03
            2344     14.5285E-03     8.33212E-03    -11.1474E+06     68.4852E+06     77.6584E+06    -3.61357E+06    -191.388E-03     354.611E-03    -163.223E-03     66.4417E-03    -191.918E-03     355.120E-03    -162.918E-03     63.1585E-03
            2345     13.7870E-03     8.23448E-03    -3.70491E+06     76.9899E+06     88.5910E+06    -2.64532E+06    -192.201E-03     353.919E-03    -161.718E-03     66.5347E-03    -192.782E-03     354.504E-03    -161.382E-03     62.7046E-03
            2346     13.0424E-03     8.13207E-03    -11.1856E+06     71.5583E+06     84.3053E+06     2.79307E+06    -192.158E-03     352.124E-03    -159.966E-03     59.2102E-03    -192.739E-03     352.676E-03    -159.632E-03     55.4749E-03
            2347     12.3000E-03     8.04513E-03    -20.9486E+06     59.9501E+06     69.7493E+06     5.40216E+06    -191.074E-03     349.047E-03    -157.973E-03     50.1624E-03    -191.628E-03     349.538E-03    -157.680E-03     46.5800E-03
            2348     11.5556E-03     7.96381E-03    -18.7858E+06     50.9529E+06     54.8245E+06     3.33241E+06    -188.244E-03     344.052E-03    -155.808E-03     41.2464E-03    -188.696E-03     344.462E-03    -155.581E-03     37.9485E-03
            2349     10.8082E-03     7.88702E-03    -27.7773E+06     30.9703E+06     35.2671E+06    -2.45864E+06    -184.227E-03     337.807E-03    -153.580E-03     32.3167E-03    -184.612E-03     338.103E-03    -153.409E-03     29.2491E-03
            2350     10.0605E-03     7.82174E-03    -41.1414E+06     18.6546E+06     26.7978E+06     404.181E+03    -178.654E-03     330.076E-03    -151.422E-03     25.5588E-03    -179.045E-03     330.310E-03    -151.255E-03     22.8376E-03
            2351     9.30554E-03     7.76764E-03    -46.9409E+06     9.37977E+06     24.7355E+06     5.47810E+06    -172.165E-03     321.579E-03    -149.414E-03     21.7234E-03    -172.550E-03     321.759E-03    -149.235E-03     19.4213E-03
            2352     8.54605E-03     7.72333E-03    -52.2737E+06    -11.2971E+06     14.6285E+06     6.25361E+06    -166.116E-03     313.695E-03    -147.579E-03     18.9146E-03    -166.461E-03     313.772E-03    -147.413E-03     16.9549E-03
            2353     7.78153E-03     7.68544E-03    -56.2360E+06    -41.1278E+06     3.72709E+06     2.27365E+06    -160.864E-03     306.815E-03    -145.950E-03     16.2091E-03    -161.152E-03     306.746E-03    -145.791E-03     14.4739E-03
            2354     7.01336E-03     7.65379E-03    -62.4101E+06    -65.4908E+06    -3.47189E+06     290.505E+03    -156.470E-03     300.982E-03    -144.511E-03     14.2437E-03    -156.727E-03     300.795E-03    -144.343E-03     12.7464E-03
            2355     6.24164E-03     7.62711E-03    -72.6765E+06    -84.5036E+06    -14.6872E+06     1.73505E+06    -152.588E-03     295.795E-03    -143.206E-03     13.0927E-03    -152.831E-03     295.523E-03    -143.052E-03     11.8664E-03
            2356     5.46876E-03     7.60615E-03    -74.2767E+06    -100.459E+06    -23.4692E+06     52.2403E+03    -148.950E-03     291.019E-03    -142.069E-03     11.8475E-03    -149.143E-03     290.661E-03    -141.933E-03     10.8068E-03
            2357     4.69173E-03     7.58844E-03    -74.9999E+06    -117.075E+06    -31.8277E+06    -2.86964E+06    -145.851E-03     286.979E-03    -141.127E-03     10.5565E-03    -146.002E-03     286.540E-03    -141.008E-03     9.65933E-03
            2358     3.91219E-03     7.57402E-03    -83.2987E+06    -135.293E+06    -46.0448E+06    -3.95963E+06    -143.398E-03     283.755E-03    -140.357E-03     9.18347E-03    -143.537E-03     283.253E-03    -140.271E-03     8.44228E-03
            2359     3.13186E-03     7.56378E-03    -90.7097E+06    -151.970E+06    -61.2237E+06    -3.66656E+06    -141.566E-03     281.313E-03    -139.747E-03     7.58459E-03    -141.680E-03     280.746E-03    -139.701E-03     7.01368E-03
            2360     2.34928E-03     7.55491E-03    -97.2500E+06    -168.640E+06    -75.7305E+06    -2.84346E+06    -140.304E-03     279.586E-03    -139.282E-03     5.89619E-03    -140.372E-03     278.933E-03    -139.275E-03     5.48199E-03
            2361     1.56692E-03     7.54924E-03    -103.361E+06    -182.848E+06    -89.8181E+06    -1.61038E+06    -139.390E-03     278.335E-03    -138.944E-03     4.17261E-03    -139.445E-03     277.638E-03    -138.979E-03     3.90613E-03
            2362     783.805E-06     7.54663E-03    -108.162E+06    -213.822E+06    -104.995E+06    -2.22119E+06    -139.061E-03     277.708E-03    -138.647E-03     2.53257E-03    -139.024E-03     276.955E-03    -138.705E-03     2.42503E-03
            2363     14.5368E-03     6.98484E-03    -9.24555E+06     70.1093E+06     78.0937E+06    -2.92776E+06    -196.033E-03     358.881E-03    -162.849E-03     70.2550E-03    -196.582E-03     359.420E-03    -162.546E-03     66.7893E-03
            2364     13.7931E-03     6.88048E-03    -15.2709E+06     65.0498E+06     76.0139E+06    -675.526E+03    -197.157E-03     358.202E-03    -161.045E-03     67.2424E-03    -197.775E-03     358.777E-03    -160.737E-03     63.2697E-03
            2365     13.0542E-03     6.78706E-03    -15.9696E+06     66.5588E+06     75.4000E+06    -652.435E+03    -196.305E-03     355.297E-03    -158.992E-03     55.3358E-03    -196.897E-03     355.852E-03    -158.689E-03     51.3232E-03
            2366     12.3121E-03     6.69842E-03    -20.6824E+06     59.5758E+06     66.5725E+06    -1.71071E+06    -194.133E-03     350.860E-03    -156.727E-03     43.8069E-03    -194.680E-03     351.354E-03    -156.451E-03     39.9097E-03
            2367     11.5722E-03     6.62483E-03    -20.2148E+06     50.9269E+06     58.0691E+06     4.16473E+06    -189.947E-03     344.300E-03    -154.353E-03     34.6434E-03    -190.410E-03     344.705E-03    -154.107E-03     31.1758E-03
            2368     10.8288E-03     6.55878E-03    -24.2442E+06     34.4275E+06     44.3134E+06     11.3787E+06    -182.677E-03     334.711E-03    -152.034E-03     28.7761E-03    -183.059E-03     335.002E-03    -151.827E-03     25.9093E-03
            2369     10.0753E-03     6.50709E-03    -34.6404E+06     21.4806E+06     32.0052E+06     8.71965E+06    -175.033E-03     324.972E-03    -149.940E-03     24.9210E-03    -175.391E-03     325.192E-03    -149.760E-03     22.4311E-03
            2370     9.31717E-03     6.46472E-03    -43.0745E+06     8.55906E+06     26.1032E+06     3.11036E+06    -168.653E-03     316.757E-03    -148.104E-03     22.0936E-03    -169.007E-03     316.913E-03    -147.923E-03     19.8901E-03
            2371     8.55433E-03     6.42883E-03    -47.9289E+06    -11.0789E+06     22.8236E+06     2.20718E+06    -163.107E-03     309.595E-03    -146.488E-03     19.6521E-03    -163.435E-03     309.648E-03    -146.288E-03     17.7531E-03
            2372     7.78860E-03     6.39989E-03    -56.7001E+06    -36.4608E+06     13.7887E+06     3.95296E+06    -158.174E-03     303.223E-03    -145.049E-03     17.8750E-03    -158.480E-03     303.159E-03    -144.845E-03     16.3074E-03
            2373     7.01899E-03     6.37600E-03    -64.0146E+06    -61.7599E+06     2.39542E+06     795.797E+03    -153.802E-03     297.593E-03    -143.791E-03     16.6650E-03    -154.077E-03     297.416E-03    -143.597E-03     15.3315E-03
            2374     6.24606E-03     6.35591E-03    -62.9050E+06    -79.9715E+06    -4.12388E+06    -4.97245E+06    -150.075E-03     292.805E-03    -142.730E-03     15.4888E-03    -150.279E-03     292.515E-03    -142.544E-03     14.3016E-03
            2375     5.46900E-03     6.33991E-03    -68.2020E+06    -99.5523E+06    -14.0665E+06    -6.83115E+06    -147.144E-03     288.986E-03    -141.842E-03     14.3321E-03    -147.294E-03     288.582E-03    -141.669E-03     13.3244E-03
            2376     4.69145E-03     6.32720E-03    -76.1431E+06    -119.085E+06    -27.4417E+06    -5.74796E+06    -144.743E-03     285.838E-03    -141.096E-03     12.9377E-03    -144.878E-03     285.360E-03    -140.950E-03     12.1217E-03
            2377     3.91188E-03     6.31710E-03    -79.4683E+06    -136.413E+06    -42.2019E+06    -4.90940E+06    -142.817E-03     283.295E-03    -140.478E-03     11.1186E-03    -142.918E-03     282.753E-03    -140.376E-03     10.4558E-03
            2378     3.13045E-03     6.30840E-03    -83.9599E+06    -154.951E+06    -58.3771E+06    -4.47027E+06    -141.451E-03     281.436E-03    -139.985E-03     9.08938E-03    -141.511E-03     280.819E-03    -139.931E-03     8.58386E-03
            2379     2.34934E-03     6.30245E-03    -89.6323E+06    -172.226E+06    -72.9705E+06    -3.75568E+06    -140.360E-03     279.982E-03    -139.623E-03     6.84692E-03    -140.388E-03     279.295E-03    -139.608E-03     6.47939E-03
            2380     1.56584E-03     6.29822E-03    -96.0003E+06    -187.586E+06    -83.7051E+06    -2.70958E+06    -139.699E-03     279.095E-03    -139.396E-03     4.59247E-03    -139.713E-03     278.356E-03    -139.404E-03     4.35449E-03
            2381     782.606E-06     6.29508E-03    -100.334E+06    -215.668E+06    -95.3418E+06    -211.422E+03    -139.407E-03     278.727E-03    -139.320E-03     2.53937E-03    -139.319E-03     277.887E-03    -139.338E-03     2.45950E-03
            2382     14.5338E-03     5.62457E-03    -7.08085E+06     72.1545E+06     78.9165E+06     869.181E+03    -203.595E-03     366.268E-03    -162.673E-03     71.9548E-03    -204.170E-03     366.845E-03    -162.373E-03     68.1849E-03
            2383     13.8027E-03     5.52037E-03    -13.5730E+06     68.7754E+06     78.2854E+06     1.52686E+06    -203.950E-03     364.430E-03    -160.481E-03     64.8095E-03    -204.586E-03     365.037E-03    -160.169E-03     60.5248E-03
            2384     13.0684E-03     5.43164E-03    -16.1278E+06     66.9876E+06     74.5477E+06    -566.597E+03    -201.382E-03     359.427E-03    -158.045E-03     50.9024E-03    -201.976E-03     359.987E-03    -157.746E-03     46.6350E-03
            2385     12.3335E-03     5.35327E-03    -19.1157E+06     58.0243E+06     59.7884E+06     1.14840E+06    -195.556E-03     351.052E-03    -155.497E-03     39.6906E-03    -196.063E-03     351.527E-03    -155.254E-03     35.9003E-03
            2386     11.5906E-03     5.28617E-03    -27.1939E+06     40.6611E+06     47.1099E+06     1.03088E+06    -187.283E-03     340.377E-03    -153.094E-03     31.3398E-03    -187.732E-03     340.739E-03    -152.878E-03     27.9986E-03
            2387     10.8393E-03     5.24003E-03    -31.6471E+06     28.5771E+06     46.5184E+06     4.80458E+06    -178.617E-03     329.605E-03    -150.988E-03     26.6895E-03    -179.027E-03     329.870E-03    -150.751E-03     23.8887E-03
            2388     10.0834E-03     5.19896E-03    -29.9831E+06     27.4864E+06     44.9328E+06     7.80443E+06    -171.224E-03     320.356E-03    -149.131E-03     24.0583E-03    -171.586E-03     320.579E-03    -148.903E-03     21.8083E-03
            2389     9.32312E-03     5.16595E-03    -34.1760E+06     17.5944E+06     38.8292E+06     4.31194E+06    -165.199E-03     312.716E-03    -147.516E-03     21.7409E-03    -165.536E-03     312.881E-03    -147.298E-03     19.8098E-03
            2390     8.55892E-03     5.13957E-03    -42.1458E+06    -7.29076E+06     32.2603E+06    -1.77732E+06    -159.889E-03     306.033E-03    -146.144E-03     20.4046E-03    -160.201E-03     306.076E-03    -145.911E-03     18.7166E-03
            2391     7.78940E-03     5.11860E-03    -47.4276E+06    -35.5201E+06     23.1784E+06    -3.94442E+06    -155.410E-03     300.378E-03    -144.968E-03     19.5170E-03    -155.678E-03     300.285E-03    -144.732E-03     18.0833E-03
            2392     7.01706E-03     5.10099E-03    -50.4165E+06    -57.2886E+06     13.2804E+06    -4.09583E+06    -151.750E-03     295.715E-03    -143.965E-03     18.6571E-03    -151.973E-03     295.518E-03    -143.742E-03     17.4668E-03
            2393     6.24205E-03     5.08743E-03    -52.0207E+06    -76.5847E+06     2.85354E+06    -6.63945E+06    -148.743E-03     291.867E-03    -143.124E-03     17.3081E-03    -148.910E-03     291.570E-03    -142.924E-03     16.2950E-03
            2394     5.46587E-03     5.07558E-03    -57.7929E+06    -100.408E+06    -14.3585E+06    -7.40675E+06    -146.360E-03     288.776E-03    -142.416E-03     15.5420E-03    -146.468E-03     288.365E-03    -142.259E-03     14.7013E-03
            2395     4.68695E-03     5.06604E-03    -65.8674E+06    -123.365E+06    -32.6049E+06    -7.79138E+06    -144.620E-03     286.449E-03    -141.829E-03     13.6522E-03    -144.701E-03     285.953E-03    -141.718E-03     12.9468E-03
            2396     3.90748E-03     5.05854E-03    -69.5281E+06    -141.886E+06    -43.6063E+06    -5.90732E+06    -143.294E-03     284.650E-03    -141.356E-03     11.6923E-03    -143.344E-03     284.077E-03    -141.268E-03     11.1367E-03
            2397     3.12748E-03     5.05239E-03    -71.8271E+06    -158.813E+06    -54.2690E+06    -2.50776E+06    -142.144E-03     283.117E-03    -140.973E-03     9.46090E-03    -142.150E-03     282.463E-03    -140.910E-03     9.06643E-03
            2398     2.34542E-03     5.04781E-03    -77.3617E+06    -174.544E+06    -65.3883E+06    -1.25222E+06    -141.414E-03     282.084E-03    -140.670E-03     7.11950E-03    -141.395E-03     281.363E-03    -140.632E-03     6.83645E-03
            2399     1.56461E-03     5.04477E-03    -83.3429E+06    -191.246E+06    -73.1079E+06    -537.415E+03    -140.959E-03     281.359E-03    -140.400E-03     4.76169E-03    -140.928E-03     280.573E-03    -140.367E-03     4.58451E-03
            2400     783.152E-06     5.04177E-03    -89.7893E+06    -217.122E+06    -85.9513E+06     440.107E+03    -140.142E-03     280.603E-03    -140.462E-03     2.23213E-03    -140.011E-03     279.737E-03    -140.446E-03     2.07823E-03
            2401     14.5412E-03     4.24971E-03    -4.91111E+06     73.5553E+06     79.7034E+06    -2.13611E+06    -211.881E-03     374.545E-03    -162.663E-03     73.9898E-03    -212.478E-03     375.154E-03    -162.364E-03     69.8995E-03
            2402     13.8096E-03     4.15438E-03    -6.25123E+06     71.9957E+06     78.9751E+06     282.573E+03    -210.778E-03     370.842E-03    -160.064E-03     64.6880E-03    -211.397E-03     371.466E-03    -159.764E-03     60.2486E-03
            2403     13.0786E-03     4.06868E-03    -12.6284E+06     65.7426E+06     71.8450E+06     1.75540E+06    -204.019E-03     361.361E-03    -157.342E-03     48.7060E-03    -204.559E-03     361.884E-03    -157.060E-03     44.7446E-03
            2404     12.3416E-03     4.00659E-03    -24.5225E+06     53.6313E+06     59.3417E+06     7.54045E+06    -194.054E-03     348.812E-03    -154.758E-03     37.8440E-03    -194.542E-03     349.234E-03    -154.503E-03     34.5953E-03
            2405     11.5962E-03     3.95950E-03    -33.2248E+06     38.5019E+06     46.9618E+06     7.72670E+06    -183.718E-03     336.198E-03    -152.480E-03     30.3036E-03    -184.153E-03     336.517E-03    -152.253E-03     27.5560E-03
            2406     10.8446E-03     3.92486E-03    -32.7362E+06     31.3885E+06     45.0990E+06    -2.01291E+06    -175.190E-03     325.749E-03    -150.559E-03     25.9081E-03    -175.573E-03     325.998E-03    -150.331E-03     23.4619E-03
            2407     10.0868E-03     3.89568E-03    -34.5979E+06     25.3995E+06     45.1826E+06    -2.96852E+06    -168.125E-03     317.065E-03    -148.940E-03     23.9923E-03    -168.478E-03     317.256E-03    -148.701E-03     22.0457E-03
            2408     9.32293E-03     3.87248E-03    -34.1075E+06     23.5906E+06     43.8272E+06     1.01357E+06    -161.960E-03     309.536E-03    -147.576E-03     22.1310E-03    -162.284E-03     309.696E-03    -147.341E-03     20.5889E-03
            2409     8.55435E-03     3.85446E-03    -35.1121E+06     2.60725E+06     32.4218E+06    -1.73133E+06    -157.249E-03     303.682E-03    -146.433E-03     20.9066E-03    -157.513E-03     303.737E-03    -146.224E-03     19.6267E-03
            2410     7.78404E-03     3.83997E-03    -40.2050E+06    -33.4296E+06     14.9459E+06    -7.70439E+06    -153.735E-03     299.209E-03    -145.474E-03     19.6489E-03    -153.935E-03     299.105E-03    -145.293E-03     18.5154E-03
            2411     7.01076E-03     3.82812E-03    -42.7964E+06    -56.3861E+06     3.23252E+06    -11.0025E+06    -150.854E-03     295.525E-03    -144.671E-03     17.9976E-03    -151.003E-03     295.313E-03    -144.511E-03     16.9753E-03
            2412     6.23582E-03     3.81779E-03    -47.0219E+06    -79.8480E+06    -8.49974E+06    -8.92166E+06    -148.552E-03     292.552E-03    -144.000E-03     16.1927E-03    -148.656E-03     292.231E-03    -143.859E-03     15.3349E-03
            2413     5.45882E-03     3.81014E-03    -51.2457E+06    -103.309E+06    -22.8820E+06    -6.33798E+06    -146.770E-03     290.194E-03    -143.424E-03     14.3485E-03    -146.828E-03     289.770E-03    -143.314E-03     13.6729E-03
            2414     4.68128E-03     3.80332E-03    -54.6068E+06    -125.350E+06    -37.4484E+06    -5.53262E+06    -145.333E-03     288.268E-03    -142.935E-03     12.3748E-03    -145.348E-03     287.753E-03    -142.861E-03     11.8287E-03
            2415     3.90247E-03     3.79739E-03    -60.8558E+06    -148.392E+06    -47.8004E+06    -4.91015E+06    -144.196E-03     286.749E-03    -142.553E-03     10.2847E-03    -144.185E-03     286.135E-03    -142.489E-03     9.84424E-03
            2416     3.12257E-03     3.79340E-03    -66.3857E+06    -164.861E+06    -52.9458E+06    -2.69651E+06    -143.353E-03     285.603E-03    -142.250E-03     8.17466E-03    -143.319E-03     284.904E-03    -142.180E-03     7.86296E-03
            2417     2.34308E-03     3.79010E-03    -69.6955E+06    -176.587E+06    -58.0536E+06     273.491E+03    -142.694E-03     284.682E-03    -141.989E-03     6.20603E-03    -142.627E-03     283.913E-03    -141.922E-03     6.00766E-03
            2418     1.56220E-03     3.78683E-03    -75.4372E+06    -191.721E+06    -62.4627E+06     1.69238E+06    -142.096E-03     283.900E-03    -141.804E-03     4.26979E-03    -142.037E-03     283.072E-03    -141.729E-03     4.13533E-03
            2419     780.754E-06     3.78737E-03    -83.3651E+06    -216.005E+06    -75.5553E+06     2.71988E+06    -141.815E-03     283.515E-03    -141.700E-03     2.34740E-03    -141.662E-03     282.686E-03    -141.644E-03     2.24709E-03
            2420     14.5292E-03     2.86458E-03     981.238E+03     73.4584E+06     79.3663E+06     324.213E+03    -222.815E-03     385.779E-03    -162.964E-03     80.0173E-03    -223.379E-03     386.376E-03    -162.675E-03     76.0917E-03
            2421     13.8108E-03     2.77109E-03    -7.98808E+06     64.4768E+06     71.2341E+06     1.24264E+06    -217.761E-03     377.665E-03    -159.904E-03     57.1212E-03    -218.304E-03     378.206E-03    -159.630E-03     53.0924E-03
            2422     13.0834E-03     2.71000E-03    -15.1409E+06     61.4232E+06     69.6296E+06     6.92337E+06    -204.386E-03     361.377E-03    -156.991E-03     36.9594E-03    -204.848E-03     361.805E-03    -156.710E-03     33.6798E-03
            2423     12.3436E-03     2.66514E-03    -25.7306E+06     52.4316E+06     61.0373E+06     3.93027E+06    -190.325E-03     344.820E-03    -154.495E-03     27.6108E-03    -190.752E-03     345.168E-03    -154.229E-03     24.9344E-03
            2424     11.5963E-03     2.63542E-03    -30.7869E+06     46.6514E+06     53.8589E+06    -375.691E+03    -179.964E-03     332.407E-03    -152.443E-03     24.3348E-03    -180.352E-03     332.697E-03    -152.197E-03     22.2064E-03
            2425     10.8411E-03     2.61346E-03    -29.7004E+06     39.2507E+06     47.5688E+06    -970.723E+03    -172.422E-03     323.143E-03    -150.721E-03     22.5093E-03    -172.756E-03     323.374E-03    -150.497E-03     20.8074E-03
            2426     10.0805E-03     2.59579E-03    -31.1287E+06     25.8163E+06     33.3754E+06    -6.74890E+06    -165.819E-03     315.064E-03    -149.245E-03     20.9578E-03    -166.100E-03     315.230E-03    -149.071E-03     19.5493E-03
            2427     9.31589E-03     2.58231E-03    -34.1411E+06     18.7353E+06     19.1395E+06    -9.19050E+06    -160.286E-03     308.310E-03    -148.024E-03     19.3965E-03    -160.533E-03     308.448E-03    -147.906E-03     18.2283E-03
            2428     8.54763E-03     2.57110E-03    -36.1537E+06     4.53487E+06     7.43100E+06    -5.21488E+06    -156.348E-03     303.387E-03    -147.039E-03     17.8417E-03    -156.556E-03     303.462E-03    -146.956E-03     16.9324E-03
            2429     7.77600E-03     2.56116E-03    -39.3639E+06    -26.4463E+06    -6.62385E+06    -6.05873E+06    -153.503E-03     299.718E-03    -146.215E-03     15.9087E-03    -153.657E-03     299.658E-03    -146.153E-03     15.1318E-03
            2430     7.00336E-03     2.55355E-03    -43.7233E+06    -58.2824E+06    -20.3770E+06    -8.72925E+06    -151.093E-03     296.605E-03    -145.512E-03     14.0930E-03    -151.196E-03     296.405E-03    -145.466E-03     13.3903E-03
            2431     6.22849E-03     2.54755E-03    -48.0655E+06    -85.7449E+06    -30.7488E+06    -8.69858E+06    -149.098E-03     294.023E-03    -144.925E-03     12.4980E-03    -149.154E-03     293.694E-03    -144.885E-03     11.8774E-03
            2432     5.45270E-03     2.54185E-03    -50.8503E+06    -108.962E+06    -35.8116E+06    -6.47160E+06    -147.576E-03     292.022E-03    -144.446E-03     10.8734E-03    -147.591E-03     291.574E-03    -144.394E-03     10.3632E-03
            2433     4.67567E-03     2.53739E-03    -54.5551E+06    -130.175E+06    -41.2725E+06    -2.74343E+06    -146.311E-03     290.346E-03    -144.035E-03     9.23099E-03    -146.304E-03     289.803E-03    -143.974E-03     8.85510E-03
            2434     3.89766E-03     2.53404E-03    -57.3861E+06    -150.460E+06    -47.9216E+06    -623.759E+03    -145.241E-03     288.926E-03    -143.685E-03     7.58643E-03    -145.205E-03     288.292E-03    -143.623E-03     7.31650E-03
            2435     3.11922E-03     2.53089E-03    -60.6175E+06    -167.984E+06    -52.6932E+06    -719.133E+03    -144.438E-03     287.844E-03    -143.406E-03     6.07514E-03    -144.369E-03     287.119E-03    -143.338E-03     5.87564E-03
            2436     2.33978E-03     2.52858E-03    -64.3575E+06    -179.969E+06    -53.9472E+06     142.145E+03    -143.742E-03     286.948E-03    -143.206E-03     4.62050E-03    -143.649E-03     286.148E-03    -143.122E-03     4.47186E-03
            2437     1.55985E-03     2.52806E-03    -69.4448E+06    -191.168E+06    -53.3126E+06     1.69532E+06    -143.256E-03     286.355E-03    -143.099E-03     2.95596E-03    -143.175E-03     285.504E-03    -142.988E-03     2.84106E-03
            2438     780.057E-06     2.52624E-03    -78.9424E+06    -211.934E+06    -66.7756E+06     654.300E+03    -143.176E-03     286.166E-03    -142.990E-03     1.66386E-03    -142.980E-03     285.350E-03    -142.902E-03     1.60939E-03
            2439     14.5276E-03     1.45191E-03    -5.97943E+06     70.4420E+06     78.1364E+06     3.42107E+06    -249.190E-03     412.813E-03    -163.623E-03     64.4574E-03    -249.678E-03     413.313E-03    -163.326E-03     61.0717E-03
            2440     13.8132E-03     1.38381E-03    -13.4578E+06     62.8330E+06     74.8999E+06     7.26065E+06    -222.524E-03     382.329E-03    -159.805E-03     30.6958E-03    -222.911E-03     382.682E-03    -159.502E-03     28.3854E-03
            2441     13.0868E-03     1.34734E-03    -14.5906E+06     65.6289E+06     79.0408E+06     4.76425E+06    -201.526E-03     358.356E-03    -156.831E-03     18.0061E-03    -201.868E-03     358.654E-03    -156.509E-03     16.0982E-03
            2442     12.3465E-03     1.33403E-03    -14.6766E+06     62.3666E+06     71.3608E+06     1.58426E+06    -187.015E-03     341.497E-03    -154.482E-03     15.3135E-03    -187.317E-03     341.764E-03    -154.194E-03     13.8050E-03
            2443     11.5921E-03     1.31643E-03    -18.6596E+06     54.5011E+06     51.1482E+06    -3.34115E+06    -177.008E-03     329.574E-03    -152.565E-03     14.2821E-03    -177.274E-03     329.819E-03    -152.361E-03     13.1596E-03
            2444     10.8355E-03     1.30492E-03    -23.8530E+06     40.4170E+06     28.1121E+06    -7.74059E+06    -169.904E-03     320.885E-03    -150.981E-03     12.8071E-03    -170.132E-03     321.090E-03    -150.864E-03     11.8329E-03
            2445     10.0745E-03     1.29723E-03    -25.9621E+06     26.8450E+06     10.2044E+06    -6.68341E+06    -164.460E-03     314.122E-03    -149.662E-03     12.0609E-03    -164.648E-03     314.284E-03    -149.612E-03     11.2796E-03
            2446     9.30866E-03     1.29249E-03    -32.7180E+06     13.7855E+06    -7.18534E+06    -4.90551E+06    -160.218E-03     308.760E-03    -148.541E-03     11.3006E-03    -160.391E-03     308.886E-03    -148.550E-03     10.6972E-03
            2447     8.54011E-03     1.28602E-03    -39.2316E+06     1.20700E+06    -21.2024E+06    -6.00309E+06    -156.761E-03     304.352E-03    -147.591E-03     10.3803E-03    -156.920E-03     304.438E-03    -147.642E-03     9.87830E-03
            2448     7.77033E-03     1.28118E-03    -40.9050E+06    -24.8167E+06    -29.2512E+06    -5.70014E+06    -153.888E-03     300.705E-03    -146.818E-03     8.93307E-03    -153.998E-03     300.667E-03    -146.868E-03     8.49435E-03
            2449     6.99746E-03     1.27745E-03    -43.0476E+06    -59.6807E+06    -35.0791E+06    -4.82820E+06    -151.643E-03     297.827E-03    -146.184E-03     7.66515E-03    -151.699E-03     297.621E-03    -146.210E-03     7.28633E-03
            2450     6.22368E-03     1.27446E-03    -46.6575E+06    -88.6782E+06    -39.8562E+06    -4.43733E+06    -149.841E-03     295.482E-03    -145.641E-03     6.73100E-03    -149.865E-03     295.142E-03    -145.644E-03     6.40669E-03
            2451     5.44823E-03     1.27162E-03    -51.6208E+06    -114.504E+06    -43.7287E+06    -3.17172E+06    -148.273E-03     293.454E-03    -145.181E-03     5.83652E-03    -148.276E-03     292.995E-03    -145.159E-03     5.57405E-03
            2452     4.67171E-03     1.26940E-03    -54.1105E+06    -134.714E+06    -45.9077E+06    -1.77678E+06    -146.987E-03     291.785E-03    -144.798E-03     4.88417E-03    -146.963E-03     291.225E-03    -144.754E-03     4.68007E-03
            2453     3.89456E-03     1.26746E-03    -55.5157E+06    -152.264E+06    -47.2016E+06    -746.953E+03    -145.982E-03     290.467E-03    -144.485E-03     4.11272E-03    -145.930E-03     289.815E-03    -144.419E-03     3.96454E-03
            2454     3.11638E-03     1.26621E-03    -56.8949E+06    -168.638E+06    -49.2429E+06     938.187E+03    -145.139E-03     289.377E-03    -144.237E-03     3.30206E-03    -145.053E-03     288.636E-03    -144.157E-03     3.20358E-03
            2455     2.33758E-03     1.26533E-03    -59.9365E+06    -180.859E+06    -50.3291E+06     1.17528E+06    -144.578E-03     288.639E-03    -144.060E-03     2.36526E-03    -144.456E-03     287.811E-03    -143.963E-03     2.29617E-03
            2456     1.55892E-03     1.26436E-03    -66.0702E+06    -190.064E+06    -49.5746E+06    -75.9797E+03    -144.265E-03     288.175E-03    -143.910E-03     1.60267E-03    -144.162E-03     287.311E-03    -143.787E-03     1.55712E-03
            2457     779.822E-06     1.26419E-03    -74.6688E+06    -210.611E+06    -65.0172E+06     174.955E+03    -143.958E-03     287.711E-03    -143.752E-03     978.097E-06    -143.723E-03     286.876E-03    -143.664E-03     969.515E-06


