********************************************************************************
Field Output Report, written Tue May 28 18:23:59 2024

Source 1
---------

   ODB: G:/Abaqus_calc_2019/1740/Vel_20/odb/zeides_2a_16_red_150_cal_10_vel_20_fric_0100.odb
   Step: Step-1
   Frame: Increment   3086260: Step Time =   0.4060

Loc 1 : Nodal values from source 1

Output sorted by column "Nodal Label".

Field Output reported at nodes for region: DIE_2A_16_D0_36-1.Region_1
   Computation algorithm: EXTRAPOLATE_COMPUTE_AVERAGE
   Averaged at nodes
   Averaging regions: ODB_REGIONS

      Node Label     COORD.COOR1     COORD.COOR2
                          @Loc 1          @Loc 1
-------------------------------------------------
               1     20.1975E-03     122.860E-03


Field Output reported at nodes for region: DIE_2A_16_D0_36-1.Region_2
   Computation algorithm: EXTRAPOLATE_COMPUTE_AVERAGE
   Averaged at nodes
   Averaging regions: ODB_REGIONS

      Node Label     COORD.COOR1     COORD.COOR2
                          @Loc 1          @Loc 1
-------------------------------------------------
               1     20.1975E-03     122.860E-03


Field Output reported at nodes for part: WIRE-1
   Computation algorithm: EXTRAPOLATE_COMPUTE_AVERAGE
   Averaged at nodes
   Averaging regions: ODB_REGIONS

      Node Label     COORD.COOR1     COORD.COOR2           S.S11           S.S22           S.S33           S.S12         PE.PE11         PE.PE22         PE.PE33         PE.PE12         LE.LE11         LE.LE22         LE.LE33         LE.LE12
                          @Loc 1          @Loc 1          @Loc 1          @Loc 1          @Loc 1          @Loc 1          @Loc 1          @Loc 1          @Loc 1          @Loc 1          @Loc 1          @Loc 1          @Loc 1          @Loc 1
-------------------------------------------------------------------------------------------------------------------------------------------------------------------------------------------------------------------------------------------------
               1    -36.9598E-09     56.3903E-03    -21.6855E+06    -74.3553E+06    -21.5301E+06     66.4821E+03    -15.5785E-03     31.1683E-03    -15.5899E-03     2.10463E-03    -15.5479E-03     30.8593E-03    -15.5582E-03     2.10517E-03
               2     17.7241E-03     57.2087E-03    -1.28307E+06     154.712E+06     91.7597E+06     183.982E+03    -15.9945E-03     31.6998E-03    -15.7053E-03     102.546E-03    -17.1359E-03     33.1198E-03    -15.4690E-03     103.529E-03
               3     17.5482E-03     114.063E-03     14.0121E+06    -15.1785E+06     19.8700E+06     5.23641E+06     11.0626E-03     10.4342E-03    -21.4968E-03     1.55985E-03     11.1095E-03     10.2928E-03    -21.3957E-03     1.62740E-03
               4    -677.289E-09     113.019E-03     22.8148E+06    -394.639E+03     21.1246E+06    -806.113E+03    -18.0228E-03     36.4824E-03    -18.4596E-03    -199.422E-06    -17.9392E-03     36.4164E-03    -18.3865E-03    -209.940E-06
               5     71.6901E-09    -305.311E-18    -13.6102E+06    -59.9298E+06    -13.5029E+06    -371.122E+03    -13.6451E-03     27.2430E-03    -13.5979E-03     102.327E-06    -13.6066E-03     26.9827E-03    -13.5588E-03     97.5645E-06
               6     17.6476E-03    -305.311E-18     4.07643E+06     95.9049E+06     68.5224E+06     3.63501E+06    -36.6029E-03     55.1528E-03    -18.5499E-03     53.5541E-03    -36.8646E-03     55.5776E-03    -18.3522E-03     53.4992E-03
               7     886.126E-06     56.3923E-03    -21.3330E+06    -73.9367E+06    -20.6995E+06     46.7911E+03    -15.5815E-03     31.1707E-03    -15.5892E-03     3.53277E-03    -15.5509E-03     30.8620E-03    -15.5546E-03     3.53285E-03
               8     1.77222E-03     56.3969E-03    -20.3942E+06    -72.6416E+06    -18.2077E+06     83.8637E+03    -15.5860E-03     31.1795E-03    -15.5935E-03     6.54379E-03    -15.5563E-03     30.8723E-03    -15.5496E-03     6.54388E-03
               9     2.65836E-03     56.4045E-03    -19.0353E+06    -71.5462E+06    -14.4948E+06     119.735E+03    -15.5941E-03     31.2000E-03    -15.6060E-03     9.76090E-03    -15.5647E-03     30.8911E-03    -15.5471E-03     9.76094E-03
              10     3.54445E-03     56.4150E-03    -17.3012E+06    -69.7236E+06    -10.5539E+06     204.170E+03    -15.6056E-03     31.2232E-03    -15.6176E-03     13.0876E-03    -15.5760E-03     30.9153E-03    -15.5442E-03     13.0881E-03
              11     4.43063E-03     56.4289E-03    -15.5331E+06    -67.5183E+06    -6.78361E+06     46.0860E+03    -15.6257E-03     31.2532E-03    -15.6275E-03     16.5355E-03    -15.5962E-03     30.9485E-03    -15.5409E-03     16.5334E-03
              12     5.31672E-03     56.4458E-03    -13.8233E+06    -65.8342E+06    -3.58951E+06     54.2001E+03    -15.6569E-03     31.2924E-03    -15.6355E-03     20.1222E-03    -15.6263E-03     30.9894E-03    -15.5379E-03     20.1194E-03
              13     6.20291E-03     56.4663E-03    -12.1544E+06    -64.2826E+06    -884.201E+03     224.660E+03    -15.7014E-03     31.3433E-03    -15.6419E-03     23.8528E-03    -15.6690E-03     31.0422E-03    -15.5355E-03     23.8512E-03
              14     7.08899E-03     56.4901E-03    -10.6248E+06    -62.7998E+06     982.303E+03     270.088E+03    -15.7515E-03     31.3964E-03    -15.6449E-03     27.7350E-03    -15.7171E-03     31.0984E-03    -15.5335E-03     27.7327E-03
              15     7.97520E-03     56.5179E-03    -9.28881E+06    -59.7130E+06     2.43425E+06     241.354E+03    -15.8064E-03     31.4500E-03    -15.6437E-03     31.7313E-03    -15.7729E-03     31.1645E-03    -15.5314E-03     31.7271E-03
              16     8.86127E-03     56.5491E-03    -8.50668E+06    -57.5854E+06     2.99755E+06     13.7613E+03    -15.8740E-03     31.5143E-03    -15.6403E-03     35.7904E-03    -15.8421E-03     31.2390E-03    -15.5294E-03     35.7809E-03
              17     9.74753E-03     56.5844E-03    -7.53289E+06    -54.8939E+06     3.23170E+06     346.226E+03    -15.9532E-03     31.5876E-03    -15.6345E-03     39.8842E-03    -15.9231E-03     31.3266E-03    -15.5278E-03     39.8760E-03
              18     10.6335E-03     56.6233E-03    -6.56415E+06    -49.4089E+06     2.44929E+06     357.176E+03    -16.0308E-03     31.6506E-03    -15.6197E-03     43.8734E-03    -16.0065E-03     31.4205E-03    -15.5263E-03     43.8614E-03
              19     11.5199E-03     56.6659E-03    -6.06672E+06    -40.5549E+06     3.03462E+06    -111.895E+03    -16.0497E-03     31.6549E-03    -15.6052E-03     48.2912E-03    -16.0427E-03     31.4736E-03    -15.5225E-03     48.2683E-03
              20     12.4060E-03     56.7130E-03    -5.30762E+06    -33.6457E+06     1.78046E+06     69.0803E+03    -16.1888E-03     31.7707E-03    -15.5818E-03     54.1745E-03    -16.1971E-03     31.6355E-03    -15.5165E-03     54.1475E-03
              21     13.2922E-03     56.7665E-03    -4.91426E+06    -25.8840E+06    -3.20088E+06     358.005E+03    -16.2891E-03     31.8292E-03    -15.5401E-03     58.1032E-03    -16.3163E-03     31.7563E-03    -15.5115E-03     58.0729E-03
              22     14.1786E-03     56.8206E-03    -5.64908E+06    -1.25858E+06    -960.166E+03    -660.671E+03    -16.2335E-03     31.7418E-03    -15.5082E-03     63.0403E-03    -16.3316E-03     31.8181E-03    -15.5030E-03     62.9935E-03
              23     15.0649E-03     56.8838E-03    -5.73970E+06     30.8905E+06    -5.15541E+06    -1.19576E+06    -17.1388E-03     32.5731E-03    -15.4343E-03     84.4582E-03    -17.4054E-03     32.9439E-03    -15.4965E-03     84.4171E-03
              24     15.9505E-03     56.9779E-03    -5.56354E+06     84.2643E+06    -8.29400E+06    -43.3352E+03    -18.6297E-03     33.9727E-03    -15.3430E-03     121.977E-03    -19.5541E-03     35.2006E-03    -15.4986E-03     122.186E-03
              25     16.8367E-03     57.1120E-03    -3.62060E+06     138.984E+06     44.2370E+06     398.368E+03    -17.6036E-03     33.1135E-03    -15.5098E-03     122.519E-03    -18.9079E-03     34.7700E-03    -15.4849E-03     123.231E-03
              26     17.7245E-03     58.1855E-03    -2.13075E+06     153.882E+06     91.2240E+06     184.399E+03    -16.2715E-03     31.9734E-03    -15.7019E-03     103.275E-03    -17.4216E-03     33.3977E-03    -15.4658E-03     104.254E-03
              27     17.7235E-03     59.1647E-03    -2.15374E+06     153.878E+06     91.5520E+06     473.276E+03    -17.0259E-03     32.7298E-03    -15.7039E-03     101.624E-03    -18.1769E-03     34.1540E-03    -15.4662E-03     102.594E-03
              28     17.7236E-03     60.1404E-03    -5.29297E+06     150.848E+06     88.6506E+06     140.534E+03    -16.7512E-03     32.4689E-03    -15.7177E-03     98.8971E-03    -17.8977E-03     33.8750E-03    -15.4855E-03     99.8713E-03
              29     17.7233E-03     61.1186E-03    -1.52826E+06     154.036E+06     88.7023E+06     1.41607E+06    -15.9766E-03     31.6740E-03    -15.6974E-03     103.976E-03    -17.1407E-03     33.1222E-03    -15.4750E-03     104.990E-03
              30     17.7263E-03     62.1055E-03     1.25243E+06     156.635E+06     91.7283E+06    -2.44633E+06    -16.5342E-03     32.2037E-03    -15.6695E-03     111.074E-03    -17.7482E-03     33.7121E-03    -15.4398E-03     112.047E-03
              31     17.7226E-03     63.0773E-03    -2.87228E+06     153.037E+06     91.6191E+06    -1.82395E+06    -17.4302E-03     33.1172E-03    -15.6871E-03     106.241E-03    -18.6209E-03     34.5754E-03    -15.4467E-03     107.193E-03
              32     17.7245E-03     64.0530E-03    -3.27845E+06     152.703E+06     90.3183E+06     1.59048E+06    -16.4724E-03     32.1808E-03    -15.7084E-03     101.324E-03    -17.6104E-03     33.5874E-03    -15.4735E-03     102.314E-03
              33     17.7238E-03     65.0327E-03    -2.69953E+06     153.560E+06     90.8298E+06    -6.05725E+03    -16.3130E-03     32.0196E-03    -15.7066E-03     103.033E-03    -17.4650E-03     33.4438E-03    -15.4712E-03     104.012E-03
              34     17.7239E-03     66.0115E-03    -1.84453E+06     154.254E+06     91.0162E+06     366.767E+03    -16.2856E-03     31.9920E-03    -15.7064E-03     103.015E-03    -17.4346E-03     33.4182E-03    -15.4724E-03     103.996E-03
              35     17.7245E-03     66.9864E-03    -2.83925E+06     153.483E+06     90.1410E+06    -214.584E+03    -16.2174E-03     31.9189E-03    -15.7015E-03     102.313E-03    -17.3598E-03     33.3347E-03    -15.4692E-03     103.284E-03
              36     17.7235E-03     67.9662E-03    -2.50725E+06     154.160E+06     91.1754E+06    -19.5980E+03    -17.2122E-03     32.9009E-03    -15.6886E-03     102.709E-03    -18.3641E-03     34.3267E-03    -15.4527E-03     103.669E-03
              37     17.7242E-03     68.9459E-03    -2.84902E+06     154.053E+06     90.8109E+06     171.076E+03    -16.7340E-03     32.4304E-03    -15.6964E-03     102.529E-03    -17.8846E-03     33.8544E-03    -15.4616E-03     103.501E-03
              38     17.7240E-03     69.9212E-03    -2.23165E+06     154.990E+06     91.3141E+06     22.7562E+03    -16.1052E-03     31.8106E-03    -15.7055E-03     102.415E-03    -17.2514E-03     33.2344E-03    -15.4704E-03     103.395E-03
              39     17.7243E-03     70.9009E-03    -1.69611E+06     155.757E+06     91.7834E+06     161.204E+03    -16.4697E-03     32.1694E-03    -15.6998E-03     103.634E-03    -17.6238E-03     33.6043E-03    -15.4642E-03     104.612E-03
              40     17.7238E-03     71.8799E-03    -1.54126E+06     155.865E+06     91.5081E+06     831.825E+03    -15.9170E-03     31.6319E-03    -15.7149E-03     103.999E-03    -17.0714E-03     33.0688E-03    -15.4811E-03     104.991E-03
              41     17.7243E-03     72.8546E-03    -2.06631E+06     156.023E+06     91.2983E+06     94.1123E+03    -16.1746E-03     31.8811E-03    -15.7065E-03     103.452E-03    -17.3289E-03     33.3172E-03    -15.4732E-03     104.432E-03
              42     17.7239E-03     73.8324E-03    -3.78374E+06     155.078E+06     90.8669E+06    -597.203E+03    -17.7712E-03     33.4441E-03    -15.6728E-03     101.633E-03    -18.9184E-03     34.8648E-03    -15.4379E-03     102.565E-03
              43     17.7237E-03     74.8142E-03    -2.37895E+06     156.532E+06     91.7254E+06     707.781E+03    -17.1456E-03     32.8362E-03    -15.6906E-03     101.486E-03    -18.2873E-03     34.2593E-03    -15.4555E-03     102.442E-03
              44     17.7243E-03     75.7906E-03    -1.87153E+06     157.242E+06     91.6846E+06    -181.072E+03    -15.9988E-03     31.7065E-03    -15.7077E-03     102.927E-03    -17.1495E-03     33.1429E-03    -15.4746E-03     103.906E-03
              45     17.7241E-03     76.7683E-03    -3.29476E+06     156.001E+06     90.6207E+06    -579.747E+03    -16.6502E-03     32.3382E-03    -15.6881E-03     102.763E-03    -17.8052E-03     33.7726E-03    -15.4564E-03     103.725E-03
              46     17.7240E-03     77.7475E-03    -2.03434E+06     157.515E+06     91.7749E+06     852.536E+03    -16.7193E-03     32.4109E-03    -15.6916E-03     103.168E-03    -17.8766E-03     33.8540E-03    -15.4582E-03     104.148E-03
              47     17.7241E-03     78.7263E-03    -1.33749E+06     158.995E+06     92.3389E+06     1.02248E+06    -15.9651E-03     31.6711E-03    -15.7060E-03     103.829E-03    -17.1261E-03     33.1239E-03    -15.4729E-03     104.830E-03
              48     17.7243E-03     79.7012E-03    -2.16666E+06     159.183E+06     92.2599E+06    -59.1717E+03    -16.5890E-03     32.2803E-03    -15.6913E-03     103.314E-03    -17.7523E-03     33.7334E-03    -15.4576E-03     104.289E-03
              49     17.7237E-03     80.6815E-03    -2.92864E+06     158.698E+06     91.6361E+06     194.907E+03    -17.0262E-03     32.7085E-03    -15.6823E-03     101.749E-03    -18.1787E-03     34.1483E-03    -15.4500E-03     102.708E-03
              50     17.7243E-03     81.6583E-03    -2.64769E+06     159.036E+06     91.3693E+06     200.399E+03    -16.4515E-03     32.1423E-03    -15.6909E-03     102.046E-03    -17.6023E-03     33.5834E-03    -15.4608E-03     103.017E-03
              51     17.7240E-03     82.6371E-03    -2.74612E+06     159.162E+06     91.6890E+06    -67.0943E+03    -16.7981E-03     32.4861E-03    -15.6880E-03     102.610E-03    -17.9552E-03     33.9326E-03    -15.4564E-03     103.575E-03
              52     17.7238E-03     83.6160E-03    -2.73712E+06     159.263E+06     91.7158E+06     378.096E+03    -16.7642E-03     32.4558E-03    -15.6916E-03     101.916E-03    -17.9161E-03     33.8974E-03    -15.4600E-03     102.883E-03
              53     17.7243E-03     84.5921E-03    -2.84090E+06     159.279E+06     91.4425E+06    -327.040E+03    -16.4523E-03     32.1434E-03    -15.6911E-03     101.468E-03    -17.6006E-03     33.5819E-03    -15.4608E-03     102.433E-03
              54     17.7240E-03     85.5716E-03    -2.30709E+06     160.235E+06     91.8937E+06    -123.150E+03    -16.7423E-03     32.4204E-03    -15.6781E-03     101.937E-03    -17.8956E-03     33.8679E-03    -15.4477E-03     102.903E-03
              55     17.7246E-03     86.5503E-03    -1.62391E+06     161.019E+06     92.5153E+06     479.212E+03    -16.4474E-03     32.1310E-03    -15.6836E-03     102.728E-03    -17.6028E-03     33.5839E-03    -15.4521E-03     103.706E-03
              56     17.7240E-03     87.5282E-03    -2.19857E+06     160.644E+06     92.2942E+06     327.168E+03    -16.1901E-03     31.8806E-03    -15.6905E-03     103.138E-03    -17.3516E-03     33.3369E-03    -15.4588E-03     104.121E-03
              57     17.7246E-03     88.5047E-03    -2.42076E+06     161.231E+06     92.0495E+06     266.118E+03    -16.6818E-03     32.3408E-03    -15.6591E-03     102.797E-03    -17.8469E-03     33.8029E-03    -15.4291E-03     103.776E-03
              58     17.7251E-03     89.4836E-03    -2.64941E+06     161.104E+06     91.3789E+06    -201.940E+03    -16.7096E-03     32.3372E-03    -15.6275E-03     103.237E-03    -17.8779E-03     33.8029E-03    -15.4004E-03     104.209E-03
              59     17.7254E-03     90.4645E-03    -1.43604E+06     162.173E+06     92.5918E+06    -562.894E+03    -16.3417E-03     31.9644E-03    -15.6227E-03     105.941E-03    -17.5304E-03     33.4552E-03    -15.3928E-03     106.923E-03
              60     17.7257E-03     91.4401E-03    -1.32153E+06     161.523E+06     92.9383E+06    -283.519E+03    -16.6658E-03     32.2691E-03    -15.6032E-03     106.083E-03    -17.8536E-03     33.7560E-03    -15.3708E-03     107.058E-03
              61     17.7258E-03     92.4189E-03    -3.25644E+06     158.743E+06     91.5964E+06    -235.175E+03    -17.1977E-03     32.7753E-03    -15.5776E-03     104.378E-03    -18.3772E-03     34.2411E-03    -15.3451E-03     105.340E-03
              62     17.7260E-03     93.3962E-03    -3.09836E+06     157.597E+06     90.8390E+06    -147.259E+03    -16.9327E-03     32.4892E-03    -15.5565E-03     101.992E-03    -18.0878E-03     33.9293E-03    -15.3264E-03     102.953E-03
              63     17.7271E-03     94.3720E-03    -2.29002E+06     157.252E+06     91.4924E+06    -384.066E+03    -17.1557E-03     32.6791E-03    -15.5234E-03     101.307E-03    -18.2963E-03     34.1045E-03    -15.2906E-03     102.251E-03
              64     17.7267E-03     95.3546E-03    -2.76013E+06     155.561E+06     91.6087E+06    -613.992E+03    -18.2335E-03     33.7122E-03    -15.4787E-03     102.745E-03    -19.3908E-03     35.1463E-03    -15.2422E-03     103.672E-03
              65     17.7279E-03     96.3331E-03    -3.22979E+06     153.654E+06     91.0986E+06    -662.178E+03    -18.5019E-03     33.9474E-03    -15.4455E-03     102.222E-03    -19.6583E-03     35.3736E-03    -15.2081E-03     103.146E-03
              66     17.7278E-03     97.3120E-03    -2.19885E+06     152.144E+06     90.6419E+06    -868.533E+03    -18.5551E-03     33.9630E-03    -15.4079E-03     101.399E-03    -19.6959E-03     35.3732E-03    -15.1721E-03     102.315E-03
              67     17.7292E-03     98.2926E-03    -1.80062E+06     149.986E+06     90.2671E+06    -210.658E+03    -18.9386E-03     34.3065E-03    -15.3679E-03     101.328E-03    -20.0715E-03     35.7037E-03    -15.1315E-03     102.238E-03
              68     17.7286E-03     99.2729E-03    -1.33163E+06     147.592E+06     91.1335E+06    -688.152E+03    -19.8918E-03     35.2264E-03    -15.3345E-03     100.471E-03    -21.0283E-03     36.6177E-03    -15.0909E-03     101.358E-03
              69     17.7294E-03     100.252E-03    -4.80296E+06     141.536E+06     88.7119E+06    -2.10794E+06    -21.4589E-03     36.7424E-03    -15.2835E-03     97.8354E-03    -22.5958E-03     38.1074E-03    -15.0382E-03     98.6676E-03
              70     17.7291E-03     101.236E-03    -957.528E+03     140.611E+06     86.4388E+06    -213.450E+03    -22.7847E-03     37.9846E-03    -15.1999E-03     102.835E-03    -23.9391E-03     39.3843E-03    -14.9702E-03     103.667E-03
              71     17.7318E-03     102.231E-03     216.389E+03     138.349E+06     87.9136E+06    -3.82991E+06    -24.7506E-03     39.8810E-03    -15.1304E-03     110.666E-03    -25.9683E-03     41.3358E-03    -14.8918E-03     111.427E-03
              72     17.7293E-03     103.210E-03    -1.88757E+06     130.785E+06     89.6464E+06    -2.95066E+06    -26.5405E-03     41.6429E-03    -15.1023E-03     106.940E-03    -27.7310E-03     43.0306E-03    -14.8410E-03     107.649E-03
              73     17.7316E-03     104.196E-03    -2.98279E+06     124.918E+06     88.3857E+06    -1.63122E+06    -28.5594E-03     43.5880E-03    -15.0286E-03     104.343E-03    -29.7214E-03     44.9267E-03    -14.7635E-03     104.998E-03
              74     17.7311E-03     105.189E-03    -3.21522E+06     118.925E+06     89.8501E+06    -2.96163E+06    -32.7682E-03     47.6777E-03    -14.9095E-03     107.037E-03    -33.9593E-03     49.0195E-03    -14.6280E-03     107.580E-03
              75     17.7321E-03     106.188E-03    -4.04931E+06     115.677E+06     91.9915E+06    -1.34067E+06    -35.7946E-03     50.6207E-03    -14.8261E-03     111.974E-03    -37.0421E-03     51.9982E-03    -14.5280E-03     112.468E-03
              76     17.7327E-03     107.187E-03    -356.164E+03     111.491E+06     93.3314E+06    -1.67801E+06    -37.4553E-03     52.2089E-03    -14.7536E-03     119.749E-03    -38.7442E-03     53.6223E-03    -14.4481E-03     120.189E-03
              77     17.7339E-03     108.188E-03    -4.89534E+06     102.837E+06     89.0055E+06    -4.85205E+06    -40.0523E-03     54.6996E-03    -14.6473E-03     128.306E-03    -41.4063E-03     56.1442E-03    -14.3442E-03     128.603E-03
              78     17.7344E-03     109.195E-03    -306.337E+03     91.5907E+06     82.6075E+06    -4.66911E+06    -41.7077E-03     56.2479E-03    -14.5403E-03     140.262E-03    -43.0855E-03     57.7118E-03    -14.2596E-03     140.446E-03
              79     17.7366E-03     110.201E-03    -10.3503E+06     69.5083E+06     44.2813E+06    -13.6459E+06    -39.6913E-03     54.0790E-03    -14.3878E-03     154.057E-03    -41.0489E-03     55.5194E-03    -14.2522E-03     154.035E-03
              80     17.7376E-03     111.201E-03    -120.142E+03     31.9353E+06     11.7519E+06    -20.4129E+06    -28.7868E-03     43.2629E-03    -14.4761E-03     159.882E-03    -29.7296E-03     44.2859E-03    -14.4635E-03     159.755E-03
              81     17.7392E-03     112.173E-03     8.11492E+06     4.28807E+06     7.13821E+06    -7.64466E+06    -4.75877E-03     20.1860E-03    -15.4272E-03     133.647E-03    -5.07520E-03     20.5315E-03    -15.4095E-03     133.643E-03
              82     17.7092E-03     113.099E-03    -5.22118E+06    -9.08245E+06     7.82531E+06     1.37110E+06     10.8469E-03     7.99446E-03    -18.8414E-03     55.1109E-03     10.7908E-03     7.96574E-03    -18.7815E-03     55.1458E-03
              83     16.6699E-03     113.913E-03    -577.716E+03     14.0142E+06     39.3566E+06     3.29197E+06     7.90069E-03     14.2084E-03    -22.1091E-03     12.0637E-03     7.81495E-03     14.2170E-03    -21.9318E-03     12.1061E-03
              84     15.7654E-03     113.796E-03    -15.9874E+06     1.93413E+06     46.2472E+06    -3.08193E+06    -7.67665E-03     30.5766E-03    -22.8999E-03     20.7733E-03    -7.82973E-03     30.5416E-03    -22.6483E-03     20.7277E-03
              85     14.9037E-03     113.659E-03    -9.55120E+06    -5.55786E+06     34.1398E+06    -8.18887E+06    -19.3611E-03     42.2755E-03    -22.9145E-03     14.3624E-03    -19.4597E-03     42.2059E-03    -22.7219E-03     14.2477E-03
              86     14.0347E-03     113.552E-03     1.59663E+06    -145.491E+03     40.2099E+06    -6.02715E+06    -20.1299E-03     42.8694E-03    -22.7395E-03     6.89517E-03    -20.1853E-03     42.8041E-03    -22.5405E-03     6.81012E-03
              87     13.1627E-03     113.468E-03     6.81925E+06    -3.65684E+06     50.0192E+06    -2.93490E+06    -23.6066E-03     46.1552E-03    -22.5486E-03     2.34448E-03    -23.6431E-03     46.0521E-03    -22.3031E-03     2.29799E-03
              88     12.2928E-03     113.395E-03     10.0972E+06      747.35E+03     49.2111E+06    -2.75705E+06    -26.5246E-03     48.6309E-03    -22.1064E-03     41.6539E-06    -26.5494E-03     48.5464E-03    -21.8760E-03    -3.53050E-06
              89     11.4242E-03     113.331E-03     12.7578E+06    -2.81961E+06     48.0304E+06    -2.00534E+06    -27.1789E-03     48.7126E-03    -21.5337E-03    -621.208E-06    -27.1831E-03     48.6084E-03    -21.3080E-03    -656.200E-06
              90     10.5538E-03     113.275E-03     14.1045E+06     1.09609E+06     48.7098E+06    -1.62693E+06    -26.2045E-03     47.1396E-03    -20.9351E-03    -670.559E-06    -26.2081E-03     47.0524E-03    -20.7136E-03    -699.298E-06
              91     9.68143E-03     113.228E-03     15.0230E+06    -1.18829E+06     47.5212E+06    -1.75246E+06    -24.6895E-03     45.0766E-03    -20.3871E-03    -504.469E-06    -24.6831E-03     44.9787E-03    -20.1695E-03    -533.270E-06
              92     8.80654E-03     113.187E-03     15.6879E+06     630.253E+03     45.1169E+06    -1.64148E+06    -23.1747E-03     43.0809E-03    -19.9063E-03    -230.060E-06    -23.1638E-03     42.9949E-03    -19.7043E-03    -256.009E-06
              93     7.92986E-03     113.152E-03     16.2593E+06    -731.871E+03     41.6363E+06    -1.57459E+06    -21.9331E-03     41.4363E-03    -19.5032E-03    -11.2611E-06    -21.9120E-03     41.3478E-03    -19.3175E-03    -35.2738E-06
              94     7.05147E-03     113.123E-03     16.9571E+06     637.400E+03     39.3277E+06    -1.72536E+06    -20.9214E-03     40.0909E-03    -19.1694E-03     132.307E-06    -20.8954E-03     40.0118E-03    -18.9983E-03     107.139E-06
              95     6.17212E-03     113.098E-03     17.9166E+06    -829.702E+03     35.0824E+06    -1.69710E+06    -20.0901E-03     38.9807E-03    -18.8906E-03     198.534E-06    -20.0509E-03     38.8991E-03    -18.7400E-03     174.337E-06
              96     5.29162E-03     113.076E-03     18.8026E+06     281.176E+03     31.9859E+06    -1.41611E+06    -19.4339E-03     38.1042E-03    -18.6703E-03     205.371E-06    -19.3873E-03     38.0314E-03    -18.5380E-03     185.286E-06
              97     4.41056E-03     113.059E-03     19.5886E+06    -541.716E+03     28.9198E+06    -1.36980E+06    -18.9608E-03     37.4626E-03    -18.5018E-03     168.144E-06    -18.9045E-03     37.3890E-03    -18.3848E-03     149.050E-06
              98     3.52882E-03     113.045E-03     20.4145E+06    -17.3087E+03     26.1354E+06    -1.13370E+06    -18.6239E-03     36.9976E-03    -18.3737E-03     107.871E-06    -18.5602E-03     36.9295E-03    -18.2726E-03     92.1549E-06
              99     2.64692E-03     113.034E-03     21.0681E+06    -584.577E+03     23.9874E+06     -838.37E+03    -18.3886E-03     36.6767E-03    -18.2881E-03     26.2882E-06    -18.3177E-03     36.6080E-03    -18.1979E-03     14.6780E-06
             100     1.76451E-03     113.026E-03     21.4310E+06     123.269E+03     22.8951E+06    -638.323E+03    -18.2455E-03     36.4898E-03    -18.2443E-03    -68.9589E-06    -18.1722E-03     36.4257E-03    -18.1611E-03    -77.7235E-06
             101     882.250E-06     113.022E-03     22.2138E+06    -603.467E+03     21.6431E+06    -763.424E+03    -18.1072E-03     36.4536E-03    -18.3463E-03    -160.337E-06    -18.0271E-03     36.3865E-03    -18.2695E-03    -170.449E-06
             102     284.911E-09     112.037E-03     18.4085E+06    -1.72422E+06     18.5619E+06    -460.172E+03    -16.6464E-03     33.4395E-03    -16.7931E-03     308.935E-06    -16.5791E-03     33.3770E-03    -16.7245E-03     302.809E-06
             103    -145.487E-09     111.059E-03     13.7894E+06    -2.87102E+06     14.4491E+06    -393.166E+03    -14.2559E-03     28.4103E-03    -14.1544E-03     959.871E-06    -14.2038E-03     28.3549E-03    -14.0980E-03     954.542E-06
             104     194.772E-09     110.086E-03     8.96343E+06    -5.98555E+06     9.09235E+06    -1.32928E+06    -12.5275E-03     25.0338E-03    -12.5063E-03     1.21547E-03    -12.4872E-03     24.9777E-03    -12.4651E-03     1.19806E-03
             105    -204.823E-09     109.114E-03    -623.716E+03    -10.3766E+06    -454.050E+03    -1.43156E+06    -11.3664E-03     22.7468E-03    -11.3804E-03     1.48602E-03    -11.3538E-03     22.6965E-03    -11.3667E-03     1.46733E-03
             106     191.134E-09     108.146E-03    -13.9135E+06    -15.4500E+06    -13.7020E+06    -1.69794E+06    -10.6873E-03     21.3802E-03    -10.6929E-03     1.74833E-03    -10.7146E-03     21.3430E-03    -10.7188E-03     1.72627E-03
             107    -186.185E-09     107.177E-03    -29.6754E+06    -22.4028E+06    -29.5058E+06    -2.18254E+06    -10.3765E-03     20.7638E-03    -10.3873E-03     1.93764E-03    -10.4496E-03     20.7377E-03    -10.4593E-03     1.90937E-03
             108     162.294E-09     106.209E-03    -48.2767E+06    -30.3208E+06    -48.0282E+06    -2.60621E+06    -10.3558E-03     20.7409E-03    -10.3851E-03     2.08715E-03    -10.4835E-03     20.7290E-03    -10.5113E-03     2.05344E-03
             109    -189.780E-09     105.241E-03    -67.5779E+06    -38.7870E+06    -67.6775E+06    -2.67525E+06    -10.5680E-03     21.1664E-03    -10.5983E-03     2.18158E-03    -10.7515E-03     21.1686E-03    -10.7825E-03     2.14701E-03
             110     160.032E-09     104.272E-03    -73.2703E+06    -45.8624E+06    -73.6202E+06    -1.82546E+06    -10.9759E-03     21.9612E-03    -10.9853E-03     2.24217E-03    -11.1690E-03     21.9449E-03    -11.1806E-03     2.21858E-03
             111    -153.220E-09     103.302E-03    -60.9081E+06    -49.1250E+06    -61.5472E+06    -132.935E+03    -11.5031E-03     23.0242E-03    -11.5211E-03     2.27823E-03    -11.6471E-03     22.9562E-03    -11.6693E-03     2.27647E-03
             112     104.719E-09     102.331E-03    -46.1868E+06    -46.7751E+06    -46.5459E+06     1.50416E+06    -12.0682E-03     24.1645E-03    -12.0962E-03     2.26420E-03    -12.1638E-03     24.0651E-03    -12.1942E-03     2.28356E-03
             113    -112.475E-09     101.359E-03    -36.0366E+06    -40.8256E+06    -36.0998E+06     2.22882E+06    -12.6324E-03     25.2719E-03    -12.6395E-03     2.24136E-03    -12.7010E-03     25.1724E-03    -12.7086E-03     2.27004E-03
             114     104.471E-09     100.387E-03    -29.7287E+06    -33.7196E+06    -29.5254E+06     2.03443E+06    -13.1467E-03     26.3006E-03    -13.1539E-03     2.21969E-03    -13.2036E-03     26.2180E-03    -13.2095E-03     2.24584E-03
             115    -109.148E-09     99.4124E-03    -25.3935E+06    -27.8257E+06    -25.3877E+06     1.48192E+06    -13.6078E-03     27.2232E-03    -13.6155E-03     2.20165E-03    -13.6575E-03     27.1578E-03    -13.6652E-03     2.22064E-03
             116     97.9646E-09     98.4377E-03    -22.3042E+06    -23.9248E+06    -21.9124E+06     843.611E+03    -14.0083E-03     28.0241E-03    -14.0158E-03     2.19295E-03    -14.0533E-03     27.9687E-03    -14.0583E-03     2.20368E-03
             117    -97.8220E-09     97.4621E-03    -19.3222E+06    -22.6625E+06    -19.2375E+06         843.121    -14.3477E-03     28.7108E-03    -14.3631E-03     2.18760E-03    -14.3835E-03     28.6535E-03    -14.3985E-03     2.18742E-03
             118     68.9934E-09     96.4859E-03    -17.3175E+06    -23.1882E+06    -17.2858E+06    -392.014E+03    -14.6365E-03     29.2834E-03    -14.6469E-03     2.17652E-03    -14.6644E-03     29.2177E-03    -14.6746E-03     2.17125E-03
             119    -60.4798E-09     95.5093E-03    -16.8458E+06    -24.8486E+06    -16.8298E+06    -571.973E+03    -14.8648E-03     29.7338E-03    -14.8690E-03     2.16918E-03    -14.8885E-03     29.6584E-03    -14.8927E-03     2.16156E-03
             120     42.4146E-09     94.5322E-03    -16.4859E+06    -26.3369E+06    -16.5287E+06    -335.744E+03    -15.0400E-03     30.0908E-03    -15.0507E-03     2.16250E-03    -15.0603E-03     30.0070E-03    -15.0713E-03     2.15791E-03
             121    -45.9456E-09     93.5550E-03    -15.9851E+06    -27.9612E+06    -15.7569E+06    -639.466E+03    -15.1813E-03     30.3810E-03    -15.1997E-03     2.15750E-03    -15.1978E-03     30.2873E-03    -15.2148E-03     2.14898E-03
             122     17.3359E-09     92.5773E-03    -16.3133E+06    -30.4568E+06    -16.4260E+06    -886.866E+03    -15.2962E-03     30.6043E-03    -15.3081E-03     2.15190E-03    -15.3097E-03     30.4995E-03    -15.3224E-03     2.14017E-03
             123    -13.3027E-09     91.5998E-03    -17.6718E+06    -33.6303E+06    -17.5528E+06    -994.294E+03    -15.3874E-03     30.7769E-03    -15.3895E-03     2.14102E-03    -15.4015E-03     30.6599E-03    -15.4029E-03     2.12790E-03
             124     4.77020E-09     90.6217E-03    -18.4621E+06    -36.7901E+06    -18.6016E+06    -932.211E+03    -15.4512E-03     30.9052E-03    -15.4540E-03     2.13362E-03    -15.4632E-03     30.7750E-03    -15.4668E-03     2.12128E-03
             125    -4.77080E-09     89.6439E-03    -19.6490E+06    -39.8618E+06    -19.5251E+06    -934.399E+03    -15.4885E-03     30.9900E-03    -15.5015E-03     2.13694E-03    -15.5006E-03     30.8475E-03    -15.5128E-03     2.12457E-03
             126    -19.0057E-09     88.6657E-03    -20.5886E+06    -43.1669E+06    -20.6412E+06    -1.06670E+06    -15.5168E-03     31.0477E-03    -15.5309E-03     2.13516E-03    -15.5272E-03     30.8917E-03    -15.5416E-03     2.12108E-03
             127     15.2272E-09     87.6879E-03    -22.1411E+06    -46.7328E+06    -22.0798E+06    -1.08744E+06    -15.5409E-03     31.0854E-03    -15.5445E-03     2.13329E-03    -15.5519E-03     30.9160E-03    -15.5550E-03     2.11894E-03
             128    -19.1352E-09     86.7096E-03    -22.7339E+06    -50.0143E+06    -22.8867E+06    -918.391E+03    -15.5524E-03     31.1105E-03    -15.5581E-03     2.13583E-03    -15.5603E-03     30.9266E-03    -15.5670E-03     2.12366E-03
             129     9.07292E-09     85.7318E-03    -23.4331E+06    -52.8747E+06    -23.3727E+06    -785.273E+03    -15.5596E-03     31.1265E-03    -15.5668E-03     2.12399E-03    -15.5662E-03     30.9300E-03    -15.5731E-03     2.11354E-03
             130    -13.2110E-09     84.7535E-03    -23.8105E+06    -55.4274E+06    -23.8822E+06    -755.226E+03    -15.5656E-03     31.1386E-03    -15.5730E-03     2.12386E-03    -15.5696E-03     30.9307E-03    -15.5776E-03     2.11379E-03
             131     1.23939E-09     83.7756E-03    -24.3339E+06    -57.7921E+06    -24.3303E+06    -670.890E+03    -15.5683E-03     31.1473E-03    -15.5790E-03     2.11906E-03    -15.5709E-03     30.9290E-03    -15.5816E-03     2.11008E-03
             132    -10.2912E-09     82.7974E-03    -24.6649E+06    -59.9490E+06    -24.6786E+06    -653.130E+03    -15.5740E-03     31.1540E-03    -15.5800E-03     2.12566E-03    -15.5746E-03     30.9258E-03    -15.5807E-03     2.11691E-03
             133     6.40745E-09     81.8195E-03    -24.8074E+06    -61.9438E+06    -24.8344E+06    -593.246E+03    -15.5722E-03     31.1557E-03    -15.5836E-03     2.12533E-03    -15.5704E-03     30.9180E-03    -15.5819E-03     2.11735E-03
             134    -25.0651E-09     80.8413E-03    -24.9034E+06    -63.7584E+06    -24.9171E+06    -494.153E+03    -15.5738E-03     31.1584E-03    -15.5846E-03     2.12701E-03    -15.5698E-03     30.9119E-03    -15.5806E-03     2.12032E-03
             135     22.4110E-09     79.8634E-03    -24.9500E+06    -65.2960E+06    -24.9752E+06    -457.559E+03    -15.5756E-03     31.1637E-03    -15.5881E-03     2.13493E-03    -15.5695E-03     30.9097E-03    -15.5822E-03     2.12870E-03
             136    -44.3419E-09     78.8852E-03    -24.9381E+06    -66.7201E+06    -24.9603E+06    -381.974E+03    -15.5779E-03     31.1655E-03    -15.5877E-03     2.13323E-03    -15.5696E-03     30.9044E-03    -15.5796E-03     2.12798E-03
             137     46.6050E-09     77.9073E-03    -24.8581E+06    -67.9535E+06    -24.8530E+06    -365.254E+03    -15.5833E-03     31.1714E-03    -15.5881E-03     2.13604E-03    -15.5730E-03     30.9038E-03    -15.5778E-03     2.13101E-03
             138    -59.3682E-09     76.9291E-03    -24.5596E+06    -69.0541E+06    -24.6031E+06    -312.186E+03    -15.5809E-03     31.1766E-03    -15.5957E-03     2.13160E-03    -15.5679E-03     30.9027E-03    -15.5830E-03     2.12725E-03
             139     43.2037E-09     75.9512E-03    -24.3622E+06    -69.9909E+06    -24.3711E+06    -258.858E+03    -15.5854E-03     31.1821E-03    -15.5966E-03     2.13302E-03    -15.5704E-03     30.9028E-03    -15.5817E-03     2.12936E-03
             140    -49.0405E-09     74.9731E-03    -24.0855E+06    -70.8106E+06    -24.1172E+06    -236.311E+03    -15.5903E-03     31.1911E-03    -15.6008E-03     2.12779E-03    -15.5731E-03     30.9070E-03    -15.5838E-03     2.12442E-03
             141     33.7463E-09     73.9951E-03    -23.8125E+06    -71.5057E+06    -23.7920E+06    -229.989E+03    -15.5937E-03     31.1981E-03    -15.6044E-03     2.12303E-03    -15.5746E-03     30.9096E-03    -15.5851E-03     2.11974E-03
             142    -39.1570E-09     73.0170E-03    -23.4970E+06    -72.1477E+06    -23.5695E+06    -154.960E+03    -15.5991E-03     31.2039E-03    -15.6049E-03     2.13298E-03    -15.5777E-03     30.9115E-03    -15.5840E-03     2.13066E-03
             143     31.3467E-09     72.0390E-03    -23.2863E+06    -72.6447E+06    -23.2079E+06    -171.115E+03    -15.5987E-03     31.2040E-03    -15.6053E-03     2.12251E-03    -15.5762E-03     30.9083E-03    -15.5823E-03     2.11998E-03
             144    -36.4005E-09     71.0609E-03    -22.9220E+06    -73.1407E+06    -23.0278E+06    -112.869E+03    -15.6019E-03     31.2065E-03    -15.6046E-03     2.11736E-03    -15.5771E-03     30.9075E-03    -15.5804E-03     2.11558E-03
             145     33.4765E-09     70.0829E-03    -22.8183E+06    -73.3251E+06    -22.7093E+06    -114.840E+03    -15.6022E-03     31.2127E-03    -15.6105E-03     2.11726E-03    -15.5770E-03     30.9121E-03    -15.5846E-03     2.11546E-03
             146    -46.1694E-09     69.1049E-03    -22.7146E+06    -73.7564E+06    -22.7990E+06    -94.9880E+03    -15.6038E-03     31.2131E-03    -15.6094E-03     2.13088E-03    -15.5773E-03     30.9104E-03    -15.5835E-03     2.12934E-03
             147     45.8407E-09     68.1268E-03    -22.7151E+06    -73.9155E+06    -22.6881E+06     26.5561E+03    -15.6053E-03     31.2128E-03    -15.6075E-03     2.13710E-03    -15.5788E-03     30.9091E-03    -15.5808E-03     2.13713E-03
             148    -51.1699E-09     67.1488E-03    -22.6397E+06    -74.1393E+06    -22.5760E+06    -116.185E+03    -15.6059E-03     31.2182E-03    -15.6122E-03     2.12795E-03    -15.5789E-03     30.9131E-03    -15.5848E-03     2.12613E-03
             149     43.9495E-09     66.1706E-03    -22.3942E+06    -74.3227E+06    -22.4746E+06     17.9636E+03    -15.6134E-03     31.2301E-03    -15.6167E-03     2.12708E-03    -15.5850E-03     30.9236E-03    -15.5888E-03     2.12700E-03
             150    -45.5487E-09     65.1928E-03    -22.3971E+06    -74.3276E+06    -22.2889E+06    -67.2292E+03    -15.6117E-03     31.2361E-03    -15.6244E-03     2.11961E-03    -15.5836E-03     30.9293E-03    -15.5956E-03     2.11842E-03
             151     23.8260E-09     64.2145E-03    -22.0884E+06    -74.4040E+06    -22.2497E+06    -56.4682E+03    -15.6138E-03     31.2397E-03    -15.6259E-03     2.12461E-03    -15.5841E-03     30.9320E-03    -15.5972E-03     2.12357E-03
             152    -27.4193E-09     63.2366E-03    -22.3060E+06    -74.3967E+06    -22.1956E+06    -10.8418E+03    -15.6138E-03     31.2338E-03    -15.6200E-03     2.12413E-03    -15.5852E-03     30.9264E-03    -15.5907E-03     2.12367E-03
             153     19.1606E-09     62.2584E-03    -22.1461E+06    -74.4322E+06    -22.1933E+06    -36.9283E+03    -15.6097E-03     31.2281E-03    -15.6184E-03     2.13264E-03    -15.5803E-03     30.9203E-03    -15.5893E-03     2.13184E-03
             154    -28.9970E-09     61.2805E-03    -22.0871E+06    -74.3867E+06    -22.1443E+06     63.9185E+03    -15.6006E-03     31.2189E-03    -15.6183E-03     2.13484E-03    -15.5710E-03     30.9111E-03    -15.5891E-03     2.13535E-03
             155     4.62011E-09     60.3023E-03    -22.2257E+06     -74.425E+06    -22.1334E+06    -35.2451E+03    -15.5967E-03     31.2062E-03    -15.6095E-03     2.12873E-03    -15.5678E-03     30.8985E-03    -15.5800E-03     2.12796E-03
             156    -3.88475E-09     59.3244E-03    -22.0158E+06    -74.5035E+06    -22.1177E+06     26.3611E+03    -15.5960E-03     31.1994E-03    -15.6034E-03     2.11902E-03    -15.5660E-03     30.8910E-03    -15.5740E-03     2.11904E-03
             157    -13.1346E-09     58.3463E-03    -21.9656E+06    -74.4654E+06    -21.8307E+06    -24.8729E+03    -15.5903E-03     31.1903E-03    -15.6000E-03     2.10809E-03    -15.5605E-03     30.8816E-03    -15.5693E-03     2.10746E-03
             158     12.4930E-09     57.3684E-03    -21.5327E+06    -74.5303E+06    -21.7196E+06    -24.3570E+03    -15.5836E-03     31.1790E-03    -15.5954E-03     2.11039E-03    -15.5517E-03     30.8691E-03    -15.5647E-03     2.10977E-03
             159     41.0143E-09     55.4124E-03    -21.9467E+06    -74.4763E+06    -21.9985E+06    -65.3720E+03    -15.5716E-03     31.1552E-03    -15.5836E-03     2.11024E-03    -15.5414E-03     30.8466E-03    -15.5538E-03     2.10909E-03
             160    -69.0216E-09     54.4343E-03    -22.1336E+06    -74.2750E+06    -22.1896E+06     143.320E+03    -15.5613E-03     31.1361E-03    -15.5748E-03     2.10767E-03    -15.5321E-03     30.8291E-03    -15.5460E-03     2.10921E-03
             161     70.2944E-09     53.4565E-03    -22.3288E+06    -74.1493E+06    -22.1237E+06    -110.400E+03    -15.5622E-03     31.1253E-03    -15.5631E-03     2.11430E-03    -15.5342E-03     30.8190E-03    -15.5338E-03     2.11257E-03
             162    -72.9399E-09     52.4784E-03    -21.9334E+06    -74.3229E+06    -22.1971E+06     28.4953E+03    -15.5514E-03     31.1219E-03    -15.5704E-03     2.12448E-03    -15.5211E-03     30.8143E-03    -15.5418E-03     2.12453E-03
             163     36.8456E-09     51.5006E-03    -22.3382E+06    -74.0874E+06    -22.1032E+06     90.0686E+03    -15.5540E-03     31.1132E-03    -15.5592E-03     2.11977E-03    -15.5262E-03     30.8073E-03    -15.5299E-03     2.12062E-03
             164    -9.36868E-09     50.5225E-03    -22.2695E+06    -74.0475E+06    -22.4237E+06    -52.6489E+03    -15.5609E-03     31.0944E-03    -15.5336E-03     2.11618E-03    -15.5323E-03     30.7891E-03    -15.5060E-03     2.11519E-03
             165     26.5091E-09     49.5448E-03    -22.4697E+06    -74.0047E+06    -22.3905E+06     62.9748E+03    -15.5352E-03     31.0726E-03    -15.5373E-03     2.08742E-03    -15.5078E-03     30.7677E-03    -15.5094E-03     2.08793E-03
             166    -48.4941E-09     48.5667E-03    -22.4245E+06    -73.9428E+06    -22.4792E+06     13.9615E+03    -15.5154E-03     31.0473E-03    -15.5319E-03     2.06455E-03    -15.4877E-03     30.7428E-03    -15.5046E-03     2.06443E-03
             167     38.5615E-09     47.5890E-03    -22.4654E+06    -73.8582E+06    -22.4116E+06     32.9136E+03    -15.5009E-03     31.0130E-03    -15.5121E-03     2.07129E-03    -15.4736E-03     30.7088E-03    -15.4845E-03     2.07141E-03
             168    -49.8904E-09     46.6110E-03    -22.4045E+06    -73.8762E+06    -22.4432E+06    -18.4657E+03    -15.4711E-03     30.9650E-03    -15.4939E-03     2.08674E-03    -15.4434E-03     30.6607E-03    -15.4666E-03     2.08620E-03
             169     18.2673E-09     45.6333E-03    -22.3814E+06    -73.8323E+06    -22.3487E+06     12.3423E+03    -15.4441E-03     30.9031E-03    -15.4590E-03     2.07799E-03    -15.4166E-03     30.5988E-03    -15.4312E-03     2.07784E-03
             170    -14.5916E-09     44.6556E-03    -22.2417E+06    -73.8325E+06    -22.2479E+06    -9.83676E+03    -15.4224E-03     30.8334E-03    -15.4110E-03     2.05994E-03    -15.3943E-03     30.5288E-03    -15.3830E-03     2.05952E-03
             171     28.9989E-09     43.6780E-03    -22.0394E+06    -73.7295E+06    -22.0704E+06     40.6739E+03    -15.3700E-03     30.7482E-03    -15.3782E-03     2.04387E-03    -15.3412E-03     30.4436E-03    -15.3497E-03     2.04410E-03
             172    -60.3388E-09     42.7005E-03    -22.0623E+06    -73.6900E+06    -22.0007E+06    -1.65380E+03    -15.3116E-03     30.6494E-03    -15.3378E-03     2.01262E-03    -15.2832E-03     30.3449E-03    -15.3090E-03     2.01231E-03
             173     44.1494E-09     41.7230E-03    -22.0040E+06    -73.6017E+06    -22.0825E+06     66.7062E+03    -15.2783E-03     30.5374E-03    -15.2591E-03     1.99095E-03    -15.2496E-03     30.2334E-03    -15.2309E-03     1.99153E-03
             174     3.33725E-09     40.7457E-03    -22.1796E+06    -73.4880E+06    -22.0650E+06     12.5710E+03    -15.2143E-03     30.4031E-03    -15.1887E-03     1.99120E-03    -15.1867E-03     30.0998E-03    -15.1604E-03     1.99108E-03
             175    -5.98095E-09     39.7686E-03    -22.0194E+06    -73.4811E+06    -22.1272E+06     6.40723E+03    -15.1154E-03     30.2538E-03    -15.1384E-03     1.97944E-03    -15.0869E-03     29.9505E-03    -15.1105E-03     1.97924E-03
             176    -35.0521E-09     38.7915E-03    -22.2748E+06    -73.4005E+06    -22.2079E+06     25.4511E+03    -15.0201E-03     30.0821E-03    -15.0620E-03     1.95153E-03    -14.9928E-03     29.7797E-03    -15.0343E-03     1.95158E-03
             177     739.928E-12     37.8147E-03    -22.5859E+06    -73.3857E+06    -22.6526E+06     5.20156E+03    -14.9403E-03     29.8922E-03    -14.9518E-03     1.91913E-03    -14.9140E-03     29.5909E-03    -14.9259E-03     1.91893E-03
             178     10.7045E-09     36.8380E-03    -22.9845E+06    -73.2691E+06    -22.9450E+06     38.3694E+03    -14.8503E-03     29.6863E-03    -14.8360E-03     1.89566E-03    -14.8257E-03     29.3866E-03    -14.8112E-03     1.89589E-03
             179     1.88673E-09     35.8616E-03    -23.1582E+06    -73.3736E+06    -23.1237E+06    -110.278E+03    -14.7210E-03     29.4531E-03    -14.7321E-03     1.87281E-03    -14.6969E-03     29.1534E-03    -14.7077E-03     1.87112E-03
             180    -35.3227E-09     34.8854E-03     -23.011E+06    -73.5669E+06    -23.1019E+06    -16.0010E+03    -14.5862E-03     29.1978E-03    -14.6116E-03     1.83495E-03    -14.5611E-03     28.8968E-03    -14.5870E-03     1.83448E-03
             181     21.1992E-09     33.9095E-03    -22.9318E+06    -73.5219E+06    -22.8667E+06     37.6854E+03    -14.4487E-03     28.9083E-03    -14.4597E-03     1.81471E-03    -14.4235E-03     28.6072E-03    -14.4341E-03     1.81494E-03
             182    -27.3465E-09     32.9338E-03    -22.7318E+06    -73.4853E+06    -22.7863E+06     6.76938E+03    -14.2830E-03     28.5786E-03    -14.2956E-03     1.78560E-03    -14.2570E-03     28.2772E-03    -14.2700E-03     1.78543E-03
             183     9.10935E-09     31.9586E-03    -22.5074E+06    -73.2620E+06    -22.5348E+06     120.809E+03    -14.1021E-03     28.2176E-03    -14.1155E-03     1.73316E-03    -14.0757E-03     27.9167E-03    -14.0893E-03     1.73448E-03
             184    -16.4591E-09     30.9836E-03    -22.2933E+06    -72.9533E+06    -22.2527E+06     60.3346E+03    -13.9065E-03     27.8207E-03    -13.9142E-03     1.69093E-03    -13.8799E-03     27.5205E-03    -13.8874E-03     1.69147E-03
             185     9.23610E-09     30.0092E-03    -21.8790E+06    -72.6962E+06    -21.9725E+06     104.629E+03    -13.6821E-03     27.3810E-03    -13.6988E-03     1.65187E-03    -13.6542E-03     27.0811E-03    -13.6716E-03     1.65299E-03
             186    -34.0274E-09     29.0350E-03    -21.5629E+06    -72.3531E+06    -21.5130E+06     132.981E+03    -13.4397E-03     26.9003E-03    -13.4606E-03     1.59766E-03    -13.4114E-03     26.6011E-03    -13.4320E-03     1.59916E-03
             187     21.1869E-09     28.0615E-03    -20.9966E+06    -71.9888E+06    -21.0619E+06     105.132E+03    -13.1828E-03     26.3834E-03    -13.2006E-03     1.53379E-03    -13.1528E-03     26.0845E-03    -13.1711E-03     1.53494E-03
             188    -41.8618E-09     27.0884E-03    -20.5983E+06    -71.5204E+06    -20.6008E+06     161.695E+03    -12.9027E-03     25.8352E-03    -12.9324E-03     1.46601E-03    -12.8721E-03     25.5373E-03    -12.9019E-03     1.46790E-03
             189     8.78344E-09     26.1160E-03    -20.3041E+06    -71.0271E+06    -20.3300E+06     126.807E+03    -12.6166E-03     25.2550E-03    -12.6384E-03     1.38942E-03    -12.5856E-03     24.9589E-03    -12.6077E-03     1.39087E-03
             190    -15.6867E-09     25.1440E-03    -19.9554E+06    -70.3058E+06    -20.0720E+06     292.763E+03    -12.3231E-03     24.6470E-03    -12.3239E-03     1.32022E-03    -12.2918E-03     24.3535E-03    -12.2934E-03     1.32382E-03
             191     19.1046E-09     24.1728E-03    -19.7070E+06    -69.3055E+06    -19.6417E+06     314.318E+03    -12.0092E-03     24.0222E-03    -12.0129E-03     1.25720E-03    -11.9788E-03     23.7327E-03    -11.9821E-03     1.26110E-03
             192    -29.0207E-09     23.2020E-03    -19.0514E+06    -68.2233E+06    -19.1786E+06     345.671E+03    -11.6808E-03     23.3780E-03    -11.6972E-03     1.19624E-03    -11.6493E-03     23.0924E-03    -11.6666E-03     1.20054E-03
             193     7.51758E-09     22.2320E-03    -18.5685E+06    -67.0203E+06    -18.5231E+06     406.440E+03    -11.3594E-03     22.7458E-03    -11.3864E-03     1.14327E-03    -11.3282E-03     22.4645E-03    -11.3549E-03     1.14836E-03
             194    -34.2693E-09     21.2625E-03    -17.6525E+06    -65.6154E+06    -17.7418E+06     438.589E+03    -11.0737E-03     22.1613E-03    -11.0876E-03     1.09005E-03    -11.0411E-03     21.8846E-03    -11.0555E-03     1.09557E-03
             195     34.7853E-09     20.2935E-03    -16.4649E+06    -63.8285E+06    -16.4996E+06     654.179E+03    -10.8168E-03     21.6143E-03    -10.7975E-03     1.02934E-03    -10.7826E-03     21.3430E-03    -10.7636E-03     1.03766E-03
             196    -1.88296E-09     19.3251E-03    -14.7969E+06     -61.751E+06    -14.7474E+06     620.238E+03    -10.5647E-03     21.1180E-03    -10.5533E-03     951.788E-06    -10.5278E-03     20.8521E-03    -10.5160E-03     959.677E-06
             197    -10.4793E-09     18.3572E-03    -12.5192E+06    -59.3203E+06    -12.7267E+06     832.554E+03    -10.3376E-03     20.6843E-03    -10.3467E-03     889.414E-06    -10.2957E-03     20.4243E-03    -10.3062E-03     900.053E-06
             198     3.81914E-09     17.3894E-03    -9.54015E+06    -56.3939E+06    -9.44877E+06     980.429E+03    -10.1453E-03     20.2772E-03    -10.1319E-03     838.673E-06    -10.0975E-03     20.0228E-03    -10.0835E-03     851.225E-06
             199     27.3790E-09     16.4224E-03    -6.72961E+06    -53.6772E+06    -6.66517E+06     685.249E+03    -9.93517E-03     19.8578E-03    -9.92258E-03     776.135E-06    -9.88131E-03     19.6088E-03    -9.86832E-03     784.886E-06
             200    -35.6939E-09     15.4554E-03    -4.68215E+06    -51.8669E+06    -4.69505E+06     440.352E+03    -9.65256E-03     19.3462E-03    -9.69363E-03     662.553E-06    -9.59394E-03     19.1005E-03    -9.63511E-03     668.155E-06
             201    -29.5676E-09     14.4893E-03    -4.42024E+06    -50.9294E+06    -4.33082E+06     131.024E+03    -9.32501E-03     18.6545E-03    -9.32950E-03     460.940E-06    -9.26697E-03     18.4126E-03    -9.27089E-03     462.569E-06
             202     87.8149E-09     13.5238E-03    -6.36073E+06    -50.5243E+06    -6.40440E+06     75.1797E+03    -8.94022E-03     17.7739E-03    -8.83366E-03     301.609E-06    -8.88947E-03     17.5398E-03    -8.78319E-03     302.531E-06
             203     43.6099E-09     12.5593E-03    -8.75239E+06    -50.1838E+06    -8.64634E+06     96.7729E+03    -8.38338E-03     16.6491E-03    -8.26574E-03     192.412E-06    -8.34183E-03     16.4235E-03    -8.22351E-03     193.616E-06
             204     36.2903E-09     11.5959E-03    -11.7018E+06    -50.1533E+06    -11.7058E+06    -92.6391E+03    -7.68852E-03     15.2951E-03    -7.60661E-03     108.519E-06    -7.65733E-03     15.0783E-03    -7.57545E-03     107.275E-06
             205     30.2538E-09     10.6340E-03    -14.9662E+06    -50.3917E+06    -14.9218E+06    -84.3066E+03    -7.00289E-03     13.9466E-03    -6.94374E-03     88.9262E-06    -6.98302E-03     13.7380E-03    -6.92358E-03     87.7805E-06
             206     9.57667E-09     9.67324E-03    -17.5594E+06    -50.7872E+06    -17.3120E+06    -144.877E+03    -6.54705E-03     13.0309E-03    -6.48386E-03     164.339E-06    -6.53609E-03     12.8276E-03    -6.47132E-03     162.405E-06
             207     66.4755E-09     8.71314E-03    -18.0697E+06    -51.3638E+06    -17.9470E+06    -162.538E+03    -6.52964E-03     13.0244E-03    -6.49477E-03     384.182E-06    -6.51948E-03     12.8199E-03    -6.48383E-03     382.022E-06
             208    -78.7729E-09     7.75236E-03    -16.3996E+06    -51.9579E+06    -16.2610E+06    -165.887E+03    -7.01133E-03     14.0422E-03    -7.03087E-03     581.339E-06    -6.99442E-03     13.8298E-03    -7.01305E-03     579.144E-06
             209     57.8022E-09     6.79023E-03    -13.3019E+06    -52.8126E+06    -13.1931E+06    -322.671E+03    -7.91419E-03     15.8269E-03    -7.91274E-03     727.119E-06    -7.88501E-03     15.6013E-03    -7.88284E-03     722.905E-06
             210    -32.8519E-09     5.82601E-03    -9.48429E+06    -53.8917E+06    -9.51346E+06    -373.083E+03    -9.00795E-03     18.0364E-03    -9.02845E-03     850.614E-06    -8.96346E-03     17.7945E-03    -8.98412E-03     845.749E-06
             211    -28.7380E-09     4.85955E-03    -5.62083E+06    -55.1306E+06    -5.74556E+06    -389.037E+03    -10.1671E-03     20.3650E-03    -10.1979E-03     845.733E-06    -10.1070E-03     20.1059E-03    -10.1385E-03     840.663E-06
             212     34.1487E-09     3.89095E-03    -3.79118E+06    -56.1700E+06    -3.81628E+06    -314.250E+03    -11.2895E-03     22.5892E-03    -11.2997E-03     771.226E-06    -11.2215E-03     22.3194E-03    -11.2319E-03     767.126E-06
             213    -57.9176E-09     2.92028E-03    -4.91492E+06    -57.1272E+06    -4.97614E+06    -302.853E+03    -12.2596E-03     24.5488E-03    -12.2893E-03     641.011E-06    -12.1941E-03     24.2776E-03    -12.2242E-03     637.057E-06
             214     28.2509E-09     1.94776E-03    -8.70201E+06    -58.3253E+06    -8.80987E+06    -339.199E+03    -13.0148E-03     26.0461E-03    -13.0313E-03     478.726E-06    -12.9609E-03     25.7799E-03    -12.9782E-03     474.313E-06
             215    -29.2443E-09     974.167E-06    -12.4288E+06    -59.3789E+06    -12.4380E+06    -313.479E+03    -13.4845E-03     26.9455E-03    -13.4610E-03     256.395E-06    -13.4424E-03     26.6847E-03    -13.4191E-03     252.353E-06
             216     887.790E-06    -305.311E-18    -13.5122E+06    -59.2843E+06    -13.1604E+06     5.85872E+03    -13.6676E-03     27.2898E-03    -13.6223E-03     200.030E-06    -13.6300E-03     27.0321E-03    -13.5825E-03     200.109E-06
             217     1.77551E-03    -305.311E-18    -13.1474E+06    -60.7865E+06    -12.6782E+06    -120.191E+03    -13.7456E-03     27.4154E-03    -13.6698E-03     382.798E-06    -13.7048E-03     27.1489E-03    -13.6260E-03     381.221E-06
             218     2.66314E-03    -305.311E-18    -12.8555E+06    -63.2892E+06    -13.6968E+06    -203.410E+03    -13.8700E-03     27.5829E-03    -13.7129E-03     592.711E-06    -13.8227E-03     27.3050E-03    -13.6710E-03     590.046E-06
             219     3.55060E-03    -305.311E-18    -13.0749E+06    -64.5733E+06    -16.4613E+06    -172.115E+03    -14.0298E-03     27.7876E-03    -13.7578E-03     820.592E-06    -13.9776E-03     27.5075E-03    -13.7275E-03     818.316E-06
             220     4.43798E-03    -305.311E-18    -12.9002E+06    -66.1381E+06    -20.2892E+06    -1.22289E+06    -14.2310E-03     28.0403E-03    -13.8093E-03     1.03959E-03    -14.1701E-03     27.7577E-03    -13.7962E-03     1.02373E-03
             221     5.32511E-03    -305.311E-18    -11.8406E+06    -66.8993E+06    -23.8906E+06    -1.79452E+06    -14.4755E-03     28.3477E-03    -13.8721E-03     1.29013E-03    -14.4031E-03     28.0650E-03    -13.8774E-03     1.26687E-03
             222     6.21202E-03    -305.311E-18    -10.6521E+06    -69.2298E+06    -25.8918E+06    -1.80379E+06    -14.7737E-03     28.7325E-03    -13.9588E-03     1.57504E-03    -14.6890E-03     28.4393E-03    -13.9724E-03     1.55162E-03
             223     7.09861E-03    -305.311E-18    -9.22574E+06    -71.8146E+06    -29.1048E+06    -2.27712E+06    -15.1212E-03     29.1754E-03    -14.0542E-03     1.88336E-03    -15.0210E-03     28.8719E-03    -14.0823E-03     1.85380E-03
             224     7.98492E-03    -305.311E-18    -7.27313E+06    -71.6224E+06    -33.9086E+06    -2.86846E+06    -15.5081E-03     29.6597E-03    -14.1516E-03     2.22271E-03    -15.3914E-03     29.3613E-03    -14.2067E-03     2.18545E-03
             225     8.87082E-03    -305.311E-18    -4.89077E+06    -69.1401E+06    -37.8346E+06    -3.13118E+06    -15.9639E-03     30.2289E-03    -14.2650E-03     2.60254E-03    -15.8332E-03     29.9452E-03    -14.3468E-03     2.56182E-03
             226     9.75636E-03    -305.311E-18    -1.90871E+06    -64.0021E+06    -40.8923E+06    -3.84388E+06    -16.5266E-03     30.9241E-03    -14.3976E-03     3.14058E-03    -16.3840E-03     30.6662E-03    -14.5065E-03     3.09057E-03
             227     10.6410E-03    -305.311E-18     2.01876E+06    -55.3014E+06    -41.9785E+06    -4.32883E+06    -17.2190E-03     31.7771E-03    -14.5581E-03     3.63342E-03    -17.0679E-03     31.5586E-03    -14.6908E-03     3.57702E-03
             228     11.5257E-03    -305.311E-18     6.68051E+06    -41.2592E+06    -41.1023E+06    -4.86441E+06    -18.0845E-03     32.8351E-03    -14.7506E-03     4.58076E-03    -17.9317E-03     32.6788E-03    -14.9060E-03     4.51728E-03
             229     12.4077E-03    -305.311E-18     11.9285E+06    -18.3113E+06    -35.8159E+06    -4.89395E+06    -18.9945E-03     33.9790E-03    -14.9845E-03     4.93670E-03    -18.8564E-03     33.9222E-03    -15.1544E-03     4.87237E-03
             230     13.2927E-03    -305.311E-18     15.0007E+06     16.2845E+06    -25.1957E+06    -1.74235E+06    -20.3092E-03     35.5831E-03    -15.2740E-03     6.38386E-03    -20.2213E-03     35.6794E-03    -15.4453E-03     6.36015E-03
             231     14.1694E-03    -305.311E-18     13.4650E+06     46.9867E+06    -5.69466E+06     1.13013E+06    -22.6591E-03     38.3603E-03    -15.7012E-03     10.2713E-03    -22.6521E-03     38.5844E-03    -15.8173E-03     10.2825E-03
             232     15.0487E-03    -305.311E-18     9.71130E+06     64.8053E+06     24.4520E+06     1.02925E+06    -26.6133E-03     42.9612E-03    -16.3479E-03     13.2663E-03    -26.6944E-03     43.2363E-03    -16.3337E-03     13.2764E-03
             233     15.9222E-03    -305.311E-18     5.48258E+06      77.852E+06     50.9684E+06     3.39061E+06    -31.1483E-03     48.3169E-03    -17.1687E-03     26.5088E-03    -31.3118E-03     48.6240E-03    -17.0347E-03     26.5449E-03
             234     16.7683E-03    -305.311E-18     3.65783E+06     89.7348E+06     64.7047E+06     4.94885E+06    -34.8970E-03     52.9774E-03    -18.0804E-03     46.1563E-03    -35.1287E-03     53.3517E-03    -17.8923E-03     46.1619E-03
             235     17.6811E-03     1.00644E-03    -1.60383E+06     99.0036E+06     66.7717E+06     6.30196E+06    -39.1186E-03     56.7508E-03    -17.6322E-03     49.1499E-03    -39.4403E-03     57.2292E-03    -17.4396E-03     49.1089E-03
             236     17.7068E-03     2.03028E-03    -3.40114E+06     110.258E+06     71.3125E+06     7.25696E+06    -41.3356E-03     57.5880E-03    -16.2524E-03     56.6003E-03    -41.7725E-03     58.1998E-03    -16.0508E-03     56.5349E-03
             237     17.7151E-03     3.04040E-03    -555.903E+03     121.737E+06     79.7962E+06     4.57061E+06    -43.8125E-03     59.3665E-03    -15.5540E-03     67.4781E-03    -44.3426E-03     60.0977E-03    -15.3307E-03     67.3367E-03
             238     17.7189E-03     4.05660E-03    -2.97236E+06     127.032E+06     82.5846E+06     2.43680E+06    -46.4715E-03     61.7494E-03    -15.2779E-03     71.5850E-03    -47.0985E-03     62.5785E-03    -15.0449E-03     71.4049E-03
             239     17.7184E-03     5.06574E-03    -3.70749E+06     131.068E+06     83.8578E+06     2.19022E+06    -44.6957E-03     59.9615E-03    -15.2658E-03     76.1977E-03    -45.3911E-03     60.8665E-03    -15.0312E-03     76.0683E-03
             240     17.7197E-03     6.07366E-03    -1.53868E+06     134.894E+06     85.2827E+06     1.88874E+06    -40.6823E-03     56.0181E-03    -15.3358E-03     79.2046E-03    -41.4088E-03     56.9711E-03    -15.1028E-03     79.1600E-03
             241     17.7197E-03     7.07139E-03    -918.253E+03     136.854E+06     85.3484E+06     413.220E+03    -38.4536E-03     53.8259E-03    -15.3723E-03     82.3492E-03    -39.2117E-03     54.8192E-03    -15.1427E-03     82.3444E-03
             242     17.7197E-03     8.07432E-03    -2.16169E+06     137.565E+06     84.5702E+06     486.274E+03    -37.7983E-03     53.1889E-03    -15.3907E-03     84.1247E-03    -38.5910E-03     54.2175E-03    -15.1642E-03     84.1595E-03
             243     17.7195E-03     9.07416E-03    -2.25921E+06     138.897E+06     84.3223E+06     733.894E+03    -35.9887E-03     51.4240E-03    -15.4353E-03     87.3903E-03    -36.8230E-03     52.4989E-03    -15.2118E-03     87.4905E-03
             244     17.7200E-03     10.0702E-03    -2.31596E+06     140.149E+06     84.2505E+06     635.144E+03    -34.3309E-03     49.7974E-03    -15.4664E-03     89.3046E-03    -35.1973E-03     50.9088E-03    -15.2451E-03     89.4657E-03
             245     17.7199E-03     11.0667E-03    -2.45103E+06     141.266E+06     84.6908E+06     391.536E+03    -33.2117E-03     48.6978E-03    -15.4861E-03     90.9447E-03    -34.1099E-03     49.8432E-03    -15.2639E-03     91.1583E-03
             246     17.7203E-03     12.0609E-03    -2.26989E+06     142.367E+06     85.3821E+06     360.312E+03    -32.2569E-03     47.7582E-03    -15.5013E-03     92.3664E-03    -33.1845E-03     48.9355E-03    -15.2775E-03     92.6325E-03
             247     17.7203E-03     13.0546E-03    -2.26781E+06     143.000E+06     85.8500E+06     366.951E+03    -31.3619E-03     46.8754E-03    -15.5135E-03     92.9440E-03    -32.3110E-03     48.0752E-03    -15.2883E-03     93.2589E-03
             248     17.7207E-03     14.0465E-03    -2.10573E+06     143.366E+06     86.1944E+06     374.406E+03    -30.3602E-03     45.8829E-03    -15.5227E-03     93.0471E-03    -31.3227E-03     47.0969E-03    -15.2966E-03     93.4082E-03
             249     17.7211E-03     15.0377E-03    -2.05524E+06     143.691E+06     86.6487E+06     78.6872E+03    -29.6701E-03     45.1896E-03    -15.5195E-03     93.6817E-03    -30.6481E-03     46.4192E-03    -15.2916E-03     94.0787E-03
             250     17.7214E-03     16.0294E-03    -2.40678E+06     143.633E+06     86.4014E+06     97.8532E+03    -29.0410E-03     44.5537E-03    -15.5127E-03     94.3536E-03    -30.0341E-03     45.7976E-03    -15.2854E-03     94.7876E-03
             251     17.7219E-03     17.0195E-03    -2.81213E+06     143.682E+06     86.1276E+06     352.563E+03    -27.8663E-03     43.3879E-03    -15.5216E-03     95.2858E-03    -28.8770E-03     44.6489E-03    -15.2952E-03     95.7732E-03
             252     17.7221E-03     18.0087E-03    -2.70209E+06     144.264E+06     86.4804E+06     269.088E+03    -26.6195E-03     42.1568E-03    -15.5373E-03     96.2295E-03    -27.6464E-03     43.4355E-03    -15.3101E-03     96.7673E-03
             253     17.7225E-03     18.9958E-03    -2.51661E+06     144.846E+06     86.2993E+06     293.446E+03    -25.6064E-03     41.1502E-03    -15.5438E-03     96.9432E-03    -26.6441E-03     42.4429E-03    -15.3187E-03     97.5245E-03
             254     17.7228E-03     19.9830E-03    -2.32808E+06     145.619E+06     86.4701E+06     306.694E+03    -24.6970E-03     40.2472E-03    -15.5502E-03     97.5245E-03    -25.7441E-03     41.5523E-03    -15.3257E-03     98.1443E-03
             255     17.7230E-03     20.9686E-03    -2.46684E+06     146.440E+06     87.2706E+06     330.411E+03    -23.9609E-03     39.5216E-03    -15.5607E-03     98.2776E-03    -25.0227E-03     40.8415E-03    -15.3332E-03     98.9348E-03
             256     17.7231E-03     21.9539E-03    -2.71718E+06     147.099E+06     87.7063E+06     167.510E+03    -23.2962E-03     38.8662E-03    -15.5699E-03     98.8723E-03    -24.3709E-03     40.1991E-03    -15.3407E-03     99.5610E-03
             257     17.7233E-03     22.9387E-03    -2.36989E+06     147.816E+06     87.6608E+06     216.135E+03    -22.2362E-03     37.8193E-03    -15.5831E-03     99.4333E-03    -23.3178E-03     39.1630E-03    -15.3557E-03     100.160E-03
             258     17.7236E-03     23.9213E-03    -2.24343E+06     148.331E+06     87.8343E+06     275.877E+03    -21.4945E-03     37.0877E-03    -15.5932E-03     100.261E-03    -22.5857E-03     38.4428E-03    -15.3658E-03     101.021E-03
             259     17.7235E-03     24.9048E-03    -2.41899E+06     148.524E+06     88.2514E+06        -413.063    -21.0945E-03     36.6980E-03    -15.6036E-03     100.539E-03    -22.1947E-03     38.0610E-03    -15.3742E-03     101.319E-03
             260     17.7236E-03     25.8867E-03    -2.41367E+06     148.924E+06     88.4070E+06     103.787E+03    -20.5600E-03     36.1744E-03    -15.6145E-03     101.012E-03    -21.6683E-03     37.5465E-03    -15.3849E-03     101.819E-03
             261     17.7237E-03     26.8686E-03    -2.32067E+06     149.354E+06     88.4541E+06     339.859E+03    -20.0696E-03     35.6914E-03    -15.6217E-03     100.875E-03    -21.1776E-03     37.0647E-03    -15.3927E-03     101.703E-03
             262     17.7237E-03     27.8494E-03    -2.37380E+06     149.916E+06     88.8356E+06     180.173E+03    -19.6436E-03     35.2768E-03    -15.6332E-03     100.683E-03    -20.7543E-03     36.6537E-03    -15.4030E-03     101.528E-03
             263     17.7236E-03     28.8304E-03    -2.14983E+06     150.409E+06     89.0719E+06     214.430E+03    -19.0557E-03     34.7029E-03    -15.6472E-03     100.832E-03    -20.1692E-03     36.0845E-03    -15.4168E-03     101.697E-03
             264     17.7239E-03     29.8110E-03    -2.25552E+06     150.611E+06     89.2630E+06     20.4780E+03    -18.5808E-03     34.2393E-03    -15.6585E-03     101.507E-03    -19.7026E-03     35.6290E-03    -15.4273E-03     102.389E-03
             265     17.7236E-03     30.7904E-03    -2.42152E+06     150.677E+06     89.3440E+06    -181.058E+03    -18.3669E-03     34.0259E-03    -15.6590E-03     101.429E-03    -19.4899E-03     35.4161E-03    -15.4272E-03     102.318E-03
             266     17.7242E-03     31.7702E-03    -2.37425E+06     151.099E+06     89.2223E+06    -521.452E+03    -18.2457E-03     33.8934E-03    -15.6476E-03     102.277E-03    -19.3783E-03     35.2952E-03    -15.4172E-03     103.174E-03
             267     17.7242E-03     32.7514E-03    -1.07224E+06     152.710E+06     90.8958E+06    -57.2852E+03    -17.9573E-03     33.6110E-03    -15.6537E-03     103.956E-03    -19.1023E-03     35.0307E-03    -15.4191E-03     104.874E-03
             268     17.7241E-03     33.7314E-03    -824.826E+03     153.042E+06     90.9655E+06     329.502E+03    -17.2939E-03     32.9644E-03    -15.6705E-03     104.504E-03    -18.4420E-03     34.3891E-03    -15.4364E-03     105.443E-03
             269     17.7244E-03     34.7066E-03    -2.60059E+06     151.628E+06     89.4753E+06     147.493E+03    -17.6818E-03     33.3400E-03    -15.6582E-03     103.506E-03    -18.8285E-03     34.7562E-03    -15.4269E-03     104.437E-03
             270     17.7239E-03     35.6882E-03    -3.34595E+06     151.041E+06     89.1682E+06     199.159E+03    -18.3006E-03     33.9490E-03    -15.6484E-03     103.285E-03    -19.4532E-03     35.3673E-03    -15.4167E-03     104.209E-03
             271     17.7242E-03     36.6686E-03    -2.81920E+06     151.650E+06     89.8441E+06     450.053E+03    -17.5805E-03     33.2519E-03    -15.6714E-03     103.812E-03    -18.7397E-03     34.6789E-03    -15.4380E-03     104.764E-03
             272     17.7239E-03     37.6447E-03    -2.21850E+06     151.932E+06     90.0230E+06     129.284E+03    -16.7830E-03     32.4702E-03    -15.6872E-03     102.519E-03    -17.9235E-03     33.8811E-03    -15.4541E-03     103.477E-03
             273     17.7243E-03     38.6229E-03    -2.54247E+06     151.546E+06     89.6529E+06    -39.4746E+03    -16.9133E-03     32.5966E-03    -15.6833E-03     102.326E-03    -18.0501E-03     34.0024E-03    -15.4511E-03     103.275E-03
             274     17.7237E-03     39.6029E-03    -2.29561E+06     152.109E+06     89.6857E+06     228.394E+03    -16.8694E-03     32.5472E-03    -15.6779E-03     102.788E-03    -18.0108E-03     33.9604E-03    -15.4467E-03     103.744E-03
             275     17.7250E-03     40.5793E-03    -1.76643E+06     152.748E+06     90.4150E+06     727.169E+03    -16.6266E-03     32.3092E-03    -15.6826E-03     102.550E-03    -17.7662E-03     33.7226E-03    -15.4495E-03     103.521E-03
             276     17.7233E-03     41.5590E-03    -1.81498E+06     152.712E+06     91.1568E+06    -596.001E+03    -16.6649E-03     32.3678E-03    -15.7029E-03     101.627E-03    -17.8083E-03     33.7825E-03    -15.4659E-03     102.582E-03
             277     17.7241E-03     42.5346E-03    -4.48334E+06     150.876E+06     89.1645E+06    -612.816E+03    -17.4256E-03     33.1188E-03    -15.6932E-03     101.174E-03    -18.5821E-03     34.5364E-03    -15.4597E-03     102.126E-03
             278     17.7232E-03     43.5151E-03    -1.37643E+06     153.780E+06     90.3967E+06     1.95642E+06    -17.2197E-03     32.9005E-03    -15.6808E-03     103.293E-03    -18.3700E-03     34.3297E-03    -15.4498E-03     104.276E-03
             279     17.7254E-03     44.4997E-03     716.944E+03     155.927E+06     92.2745E+06    -794.049E+03    -16.0080E-03     31.7117E-03    -15.7037E-03     107.897E-03    -17.1890E-03     33.1813E-03    -15.4695E-03     108.882E-03
             280     17.7230E-03     45.4699E-03    -3.30501E+06     152.635E+06     90.9805E+06    -1.49179E+06    -17.2408E-03     32.9390E-03    -15.6981E-03     105.105E-03    -18.4196E-03     34.3841E-03    -15.4598E-03     106.060E-03
             281     17.7239E-03     46.4498E-03    -3.59818E+06     152.237E+06     90.1401E+06     947.448E+03    -17.6523E-03     33.3366E-03    -15.6844E-03     100.476E-03    -18.7901E-03     34.7407E-03    -15.4492E-03     101.433E-03
             282     17.7243E-03     47.4289E-03    -3.22061E+06     152.879E+06     89.6854E+06    -345.105E+03    -16.3078E-03     31.9979E-03    -15.6901E-03     103.196E-03    -17.4671E-03     33.4284E-03    -15.4587E-03     104.177E-03
             283     17.7246E-03     48.4089E-03    -999.703E+03     154.840E+06     91.5563E+06    -666.322E+03    -15.7510E-03     31.4484E-03    -15.6974E-03     106.321E-03    -16.9286E-03     32.9066E-03    -15.4627E-03     107.317E-03
             284     17.7245E-03     49.3853E-03    -797.634E+03     155.061E+06     92.5018E+06     21.7737E+03    -16.4981E-03     32.1877E-03    -15.6896E-03     107.363E-03    -17.6849E-03     33.6539E-03    -15.4508E-03     108.351E-03
             285     17.7239E-03     50.3632E-03    -3.35223E+06     152.797E+06     90.4384E+06     390.805E+03    -17.4500E-03     33.1242E-03    -15.6742E-03     105.599E-03    -18.6302E-03     34.5726E-03    -15.4387E-03     106.566E-03
             286     17.7242E-03     51.3423E-03    -3.40440E+06     152.857E+06     89.8477E+06     697.035E+03    -16.7262E-03     32.4169E-03    -15.6908E-03     103.915E-03    -17.8914E-03     33.8522E-03    -15.4582E-03     104.901E-03
             287     17.7240E-03     52.3175E-03    -2.63850E+06     153.581E+06     90.3974E+06     221.338E+03    -16.2009E-03     31.9038E-03    -15.7029E-03     103.019E-03    -17.3528E-03     33.3294E-03    -15.4698E-03     104.005E-03
             288     17.7241E-03     53.2963E-03    -2.53338E+06     153.513E+06     90.6709E+06     247.055E+03    -16.3239E-03     32.0261E-03    -15.7022E-03     102.522E-03    -17.4678E-03     33.4430E-03    -15.4678E-03     103.497E-03
             289     17.7240E-03     54.2740E-03    -2.20070E+06     153.864E+06     91.2580E+06     109.946E+03    -16.4472E-03     32.1481E-03    -15.7009E-03     102.726E-03    -17.5934E-03     33.5680E-03    -15.4645E-03     103.698E-03
             290     17.7242E-03     55.2511E-03    -2.70871E+06     153.354E+06     90.7153E+06    -564.559E+03    -16.8932E-03     32.5788E-03    -15.6855E-03     101.967E-03    -18.0373E-03     33.9945E-03    -15.4504E-03     102.923E-03
             291     17.7241E-03     56.2306E-03    -2.30634E+06     153.800E+06     91.1152E+06     42.8567E+03    -16.7850E-03     32.4737E-03    -15.6887E-03     101.736E-03    -17.9272E-03     33.8895E-03    -15.4528E-03     102.704E-03
             292     886.096E-06     57.3703E-03    -21.2601E+06    -74.0087E+06    -20.6947E+06     11.9595E+03    -15.5878E-03     31.1833E-03    -15.5955E-03     3.53690E-03    -15.5568E-03     30.8742E-03    -15.5608E-03     3.53653E-03
             293     1.77222E-03     57.3750E-03    -20.3978E+06    -72.7016E+06    -18.1269E+06     25.4509E+03    -15.5936E-03     31.1940E-03    -15.6004E-03     6.54873E-03    -15.5640E-03     30.8865E-03    -15.5560E-03     6.54806E-03
             294     2.65832E-03     57.3824E-03    -19.0109E+06    -71.6165E+06    -14.4720E+06     50.8886E+03    -15.5999E-03     31.2126E-03    -15.6127E-03     9.76820E-03    -15.5703E-03     30.9032E-03    -15.5536E-03     9.76735E-03
             295     3.54446E-03     57.3931E-03    -17.3019E+06    -69.7927E+06    -10.4371E+06     23.9284E+03    -15.6109E-03     31.2354E-03    -15.6246E-03     13.0958E-03    -15.5814E-03     30.9270E-03    -15.5505E-03     13.0940E-03
             296     4.43056E-03     57.4068E-03    -15.4904E+06    -67.4229E+06    -6.61773E+06     92.6107E+03    -15.6297E-03     31.2637E-03    -15.6340E-03     16.5435E-03    -15.6003E-03     30.9592E-03    -15.5469E-03     16.5419E-03
             297     5.31673E-03     57.4239E-03    -13.7902E+06    -65.9557E+06    -3.39824E+06     83.9080E+03    -15.6614E-03     31.3036E-03    -15.6422E-03     20.1283E-03    -15.6307E-03     30.9996E-03    -15.5436E-03     20.1259E-03
             298     6.20283E-03     57.4442E-03    -12.1137E+06    -64.4969E+06    -1.00198E+06     169.494E+03    -15.7024E-03     31.3492E-03    -15.6468E-03     23.8640E-03    -15.6694E-03     31.0471E-03    -15.5407E-03     23.8617E-03
             299     7.08901E-03     57.4683E-03    -10.4578E+06    -62.7228E+06     1.16259E+06     179.400E+03    -15.7536E-03     31.4036E-03    -15.6501E-03     27.7354E-03    -15.7187E-03     31.1056E-03    -15.5382E-03     27.7320E-03
             300     7.97511E-03     57.4958E-03    -9.03077E+06    -59.9883E+06     2.54963E+06     315.985E+03    -15.8109E-03     31.4596E-03    -15.6487E-03     31.7271E-03    -15.7759E-03     31.1722E-03    -15.5358E-03     31.7237E-03
             301     8.86133E-03     57.5274E-03    -7.83520E+06    -57.2857E+06     3.65426E+06     479.517E+03    -15.8838E-03     31.5305E-03    -15.6466E-03     35.7777E-03    -15.8500E-03     31.2548E-03    -15.5339E-03     35.7742E-03
             302     9.74735E-03     57.5623E-03    -6.97082E+06    -55.3619E+06     3.35926E+06     235.039E+03    -15.9489E-03     31.5880E-03    -15.6391E-03     39.8643E-03    -15.9155E-03     31.3236E-03    -15.5319E-03     39.8547E-03
             303     10.6337E-03     57.6015E-03    -6.13094E+06    -49.1450E+06     2.36949E+06     369.137E+03    -16.0265E-03     31.6480E-03    -15.6216E-03     43.8852E-03    -16.0003E-03     31.4188E-03    -15.5296E-03     43.8733E-03
             304     11.5196E-03     57.6438E-03    -5.42549E+06    -40.1340E+06     3.36251E+06     139.379E+03    -16.0701E-03     31.6790E-03    -15.6089E-03     48.1123E-03    -16.0610E-03     31.4984E-03    -15.5260E-03     48.0925E-03
             305     12.4061E-03     57.6910E-03    -5.00196E+06    -34.0114E+06     2.00143E+06    -108.992E+03    -16.1138E-03     31.6985E-03    -15.5847E-03     54.0351E-03    -16.1202E-03     31.5605E-03    -15.5181E-03     54.0061E-03
             306     13.2923E-03     57.7445E-03    -4.77155E+06    -26.2230E+06    -2.85082E+06     396.217E+03    -16.3075E-03     31.8492E-03    -15.5417E-03     58.0746E-03    -16.3339E-03     31.7739E-03    -15.5110E-03     58.0447E-03
             307     14.1782E-03     57.7988E-03    -4.68234E+06     343.309E+03     216.115E+03     475.085E+03    -16.4548E-03     31.9723E-03    -15.5175E-03     62.7925E-03    -16.5525E-03     32.0540E-03    -15.5101E-03     62.7594E-03
             308     15.0647E-03     57.8613E-03    -5.65637E+06     31.1914E+06    -5.11356E+06    -562.460E+03    -17.1805E-03     32.6288E-03    -15.4483E-03     84.7268E-03    -17.4472E-03     33.0010E-03    -15.5109E-03     84.6936E-03
             309     15.9507E-03     57.9574E-03    -5.62061E+06     82.9053E+06    -8.97511E+06    -857.021E+03    -18.3757E-03     33.7243E-03    -15.3486E-03     122.325E-03    -19.2986E-03     34.9476E-03    -15.5055E-03     122.531E-03
             310     16.8368E-03     58.0893E-03    -3.32039E+06     139.370E+06     44.6981E+06    -98.6785E+03    -17.5638E-03     33.0730E-03    -15.5092E-03     122.798E-03    -18.8725E-03     34.7350E-03    -15.4830E-03     123.510E-03
             311     886.108E-06     58.3483E-03    -21.5870E+06    -74.0114E+06    -20.9220E+06    -31.9997E+03    -15.5937E-03     31.1941E-03    -15.6003E-03     3.54007E-03    -15.5640E-03     30.8857E-03    -15.5663E-03     3.53913E-03
             312     1.77220E-03     58.3529E-03    -20.6164E+06    -72.7046E+06    -18.3371E+06    -23.4174E+03    -15.5981E-03     31.2039E-03    -15.6058E-03     6.55523E-03    -15.5693E-03     30.8969E-03    -15.5621E-03     6.55394E-03
             313     2.65832E-03     58.3605E-03    -19.2080E+06    -71.6385E+06    -14.5478E+06    -38.8457E+03    -15.6047E-03     31.2232E-03    -15.6185E-03     9.77410E-03    -15.5759E-03     30.9141E-03    -15.5595E-03     9.77209E-03
             314     3.54442E-03     58.3711E-03    -17.5426E+06    -69.7912E+06    -10.5089E+06    -8.42307E+03    -15.6152E-03     31.2455E-03    -15.6303E-03     13.1033E-03    -15.5868E-03     30.9375E-03    -15.5562E-03     13.1011E-03
             315     4.43056E-03     58.3849E-03    -15.7668E+06    -67.5699E+06    -6.84606E+06     35.5371E+03    -15.6331E-03     31.2722E-03    -15.6391E-03     16.5521E-03    -15.6046E-03     30.9677E-03    -15.5525E-03     16.5498E-03
             316     5.31668E-03     58.4018E-03    -13.9272E+06    -65.9139E+06    -3.60834E+06     94.8861E+03    -15.6643E-03     31.3108E-03    -15.6466E-03     20.1391E-03    -15.6340E-03     31.0076E-03    -15.5488E-03     20.1368E-03
             317     6.20283E-03     58.4224E-03    -12.2173E+06    -64.6514E+06    -1.10281E+06     72.0273E+03    -15.7065E-03     31.3582E-03    -15.6517E-03     23.8696E-03    -15.6736E-03     31.0556E-03    -15.5457E-03     23.8660E-03
             318     7.08895E-03     58.4462E-03    -10.7848E+06    -62.7929E+06     862.908E+03     211.282E+03    -15.7565E-03     31.4105E-03    -15.6541E-03     27.7424E-03    -15.7227E-03     31.1130E-03    -15.5431E-03     27.7394E-03
             319     7.97511E-03     58.4740E-03    -9.50281E+06    -60.2447E+06     2.29488E+06     308.878E+03    -15.8173E-03     31.4707E-03    -15.6534E-03     31.7322E-03    -15.7839E-03     31.1831E-03    -15.5408E-03     31.7287E-03
             320     8.86119E-03     58.5052E-03    -8.13767E+06    -57.3561E+06     3.19426E+06     334.497E+03    -15.8805E-03     31.5301E-03    -15.6496E-03     35.7974E-03    -15.8473E-03     31.2552E-03    -15.5387E-03     35.7920E-03
             321     9.74743E-03     58.5406E-03    -6.90913E+06    -55.0918E+06     3.44641E+06     334.209E+03    -15.9539E-03     31.5975E-03    -15.6435E-03     39.8459E-03    -15.9208E-03     31.3342E-03    -15.5364E-03     39.8375E-03
             322     10.6335E-03     58.5792E-03    -6.09438E+06    -49.5982E+06     2.06462E+06     266.243E+03    -16.0288E-03     31.6538E-03    -15.6250E-03     43.9055E-03    -16.0013E-03     31.4226E-03    -15.5339E-03     43.8923E-03
             323     11.5198E-03     58.6224E-03    -5.37647E+06    -39.3134E+06     3.53249E+06     207.961E+03    -16.1252E-03     31.7398E-03    -15.6146E-03     48.1033E-03    -16.1174E-03     31.5631E-03    -15.5321E-03     48.0843E-03
             324     12.4056E-03     58.6685E-03    -4.87116E+06    -34.5592E+06     2.01921E+06     20.1918E+03    -16.1742E-03     31.7696E-03    -15.5954E-03     53.7707E-03    -16.1792E-03     31.6289E-03    -15.5282E-03     53.7430E-03
             325     13.2922E-03     58.7226E-03    -4.09696E+06    -26.3611E+06    -2.87506E+06     75.3458E+03    -16.2821E-03     31.8336E-03    -15.5515E-03     58.1868E-03    -16.3048E-03     31.7565E-03    -15.5217E-03     58.1530E-03
             326     14.1784E-03     58.7772E-03    -4.09564E+06     265.709E+03     304.984E+03     329.189E+03    -16.5596E-03     32.0888E-03    -15.5292E-03     62.8960E-03    -16.6552E-03     32.1699E-03    -15.5221E-03     62.8605E-03
             327     15.0639E-03     58.8397E-03    -4.18229E+06     31.4551E+06    -3.99925E+06     601.553E+03    -16.8268E-03     32.2822E-03    -15.4554E-03     84.6594E-03    -17.0870E-03     32.6508E-03    -15.5149E-03     84.6436E-03
             328     15.9506E-03     58.9349E-03    -5.14556E+06     83.9351E+06    -7.52417E+06    -612.426E+03    -18.0262E-03     33.3628E-03    -15.3366E-03     122.933E-03    -18.9479E-03     34.5860E-03    -15.4884E-03     123.148E-03
             329     16.8385E-03     59.0670E-03    -4.42825E+06     138.618E+06     44.3474E+06    -728.443E+03    -18.0680E-03     33.5645E-03    -15.4965E-03     122.445E-03    -19.3804E-03     35.2247E-03    -15.4694E-03     123.144E-03
             330     886.091E-06     59.3263E-03    -21.7623E+06    -73.9577E+06    -21.1534E+06    -15.2270E+03    -15.5988E-03     31.2031E-03    -15.6043E-03     3.54788E-03    -15.5697E-03     30.8956E-03    -15.5713E-03     3.54715E-03
             331     1.77220E-03     59.3310E-03    -20.8894E+06    -72.6521E+06    -18.5546E+06    -85.8554E+03    -15.6024E-03     31.2127E-03    -15.6103E-03     6.55981E-03    -15.5746E-03     30.9067E-03    -15.5675E-03     6.55771E-03
             332     2.65830E-03     59.3385E-03    -19.5088E+06    -71.6508E+06    -14.7870E+06    -58.5971E+03    -15.6082E-03     31.2312E-03    -15.6230E-03     9.77961E-03    -15.5806E-03     30.9229E-03    -15.5647E-03     9.77734E-03
             333     3.54441E-03     59.3492E-03    -17.8487E+06    -69.8593E+06    -10.7855E+06    -3.09696E+03    -15.6182E-03     31.2527E-03    -15.6345E-03     13.1097E-03    -15.5909E-03     30.9453E-03    -15.5612E-03     13.1076E-03
             334     4.43053E-03     59.3629E-03    -16.0536E+06    -67.5684E+06    -7.12348E+06    -1.36499E+03    -15.6367E-03     31.2797E-03    -15.6430E-03     16.5607E-03    -15.6093E-03     30.9760E-03    -15.5574E-03     16.5579E-03
             335     5.31666E-03     59.3800E-03    -14.2743E+06    -65.9995E+06    -3.95748E+06    -5.96538E+03    -15.6677E-03     31.3180E-03    -15.6503E-03     20.1482E-03    -15.6386E-03     31.0154E-03    -15.5537E-03     20.1446E-03
             336     6.20278E-03     59.4003E-03    -12.5962E+06    -64.6632E+06    -1.38245E+06     74.9232E+03    -15.7100E-03     31.3657E-03    -15.6556E-03     23.8765E-03    -15.6786E-03     31.0640E-03    -15.5505E-03     23.8729E-03
             337     7.08892E-03     59.4244E-03    -10.9757E+06    -63.1007E+06     586.448E+03     183.871E+03    -15.7608E-03     31.4190E-03    -15.6582E-03     27.7516E-03    -15.7271E-03     31.1206E-03    -15.5478E-03     27.7482E-03
             338     7.97505E-03     59.4519E-03    -9.52950E+06    -60.3205E+06     2.06249E+06     358.892E+03    -15.8165E-03     31.4733E-03    -15.6569E-03     31.7488E-03    -15.7828E-03     31.1857E-03    -15.5453E-03     31.7460E-03
             339     8.86122E-03     59.4835E-03    -8.42541E+06    -57.2634E+06     3.08127E+06     236.811E+03    -15.8788E-03     31.5321E-03    -15.6533E-03     35.8020E-03    -15.8471E-03     31.2582E-03    -15.5426E-03     35.7954E-03
             340     9.74732E-03     59.5184E-03    -7.30250E+06    -55.1484E+06     3.23990E+06     132.734E+03    -15.9590E-03     31.6059E-03    -15.6469E-03     39.8675E-03    -15.9274E-03     31.3432E-03    -15.5402E-03     39.8565E-03
             341     10.6335E-03     59.5577E-03    -6.33931E+06    -49.7146E+06     2.01858E+06     279.085E+03    -16.0326E-03     31.6618E-03    -15.6292E-03     43.9141E-03    -16.0061E-03     31.4305E-03    -15.5378E-03     43.9010E-03
             342     11.5196E-03     59.5999E-03    -5.73679E+06    -39.1677E+06     3.44687E+06     265.113E+03    -16.1077E-03     31.7252E-03    -15.6176E-03     48.2446E-03    -16.1016E-03     31.5498E-03    -15.5352E-03     48.2264E-03
             343     12.4058E-03     59.6475E-03    -5.07720E+06    -34.0779E+06     1.89627E+06    -26.1829E+03    -16.2941E-03     31.8949E-03    -15.6007E-03     53.8352E-03    -16.3011E-03     31.7573E-03    -15.5345E-03     53.8066E-03
             344     13.2917E-03     59.6996E-03    -4.92138E+06    -27.6054E+06    -3.87426E+06     26.6275E+03    -16.2935E-03     31.8533E-03    -15.5598E-03     58.3510E-03    -16.3171E-03     31.7726E-03    -15.5320E-03     58.3166E-03
             345     14.1779E-03     59.7563E-03    -4.18792E+06     439.543E+03     735.828E+03     183.194E+03    -16.2227E-03     31.7529E-03    -15.5303E-03     63.5486E-03    -16.3190E-03     31.8339E-03    -15.5212E-03     63.5128E-03
             346     15.0643E-03     59.8174E-03    -2.72465E+06     31.9257E+06    -2.90788E+06    -238.424E+03    -16.7748E-03     32.2205E-03    -15.4458E-03     84.0487E-03    -17.0302E-03     32.5880E-03    -15.5027E-03     84.0222E-03
             347     15.9528E-03     59.9107E-03    -1.79054E+06     85.2919E+06    -5.49477E+06     315.225E+03    -18.4909E-03     33.8304E-03    -15.3395E-03     122.798E-03    -19.3968E-03     35.0487E-03    -15.4881E-03     123.013E-03
             348     16.8364E-03     60.0486E-03    -3.32716E+06     139.393E+06     45.2718E+06     615.856E+03    -18.2367E-03     33.7507E-03    -15.5139E-03     121.950E-03    -19.5359E-03     35.4016E-03    -15.4849E-03     122.659E-03
             349     886.095E-06     60.3044E-03    -21.8613E+06    -73.9252E+06    -21.1853E+06    -10.3888E+03    -15.6018E-03     31.2113E-03    -15.6094E-03     3.55333E-03    -15.5732E-03     30.9041E-03    -15.5765E-03     3.55267E-03
             350     1.77219E-03     60.3090E-03    -20.9904E+06    -72.5624E+06    -18.6452E+06    -29.3929E+03    -15.6066E-03     31.2209E-03    -15.6143E-03     6.56314E-03    -15.5794E-03     30.9157E-03    -15.5719E-03     6.56177E-03
             351     2.65828E-03     60.3166E-03    -19.6933E+06    -71.7046E+06    -14.9922E+06    -43.9302E+03    -15.6115E-03     31.2382E-03    -15.6267E-03     9.78411E-03    -15.5844E-03     30.9301E-03    -15.5691E-03     9.78203E-03
             352     3.54440E-03     60.3271E-03    -18.0514E+06    -69.9147E+06    -11.0154E+06     14.6212E+03    -15.6220E-03     31.2600E-03    -15.6380E-03     13.1154E-03    -15.5953E-03     30.9529E-03    -15.5655E-03     13.1135E-03
             353     4.43051E-03     60.3410E-03    -16.3099E+06    -67.5140E+06    -7.32533E+06    -6.51604E+03    -15.6405E-03     31.2871E-03    -15.6466E-03     16.5677E-03    -15.6141E-03     30.9844E-03    -15.5617E-03     16.5649E-03
             354     5.31664E-03     60.3579E-03    -14.5830E+06    -66.0574E+06    -4.21734E+06         994.617    -15.6708E-03     31.3247E-03    -15.6539E-03     20.1560E-03    -15.6428E-03     31.0226E-03    -15.5580E-03     20.1525E-03
             355     6.20276E-03     60.3785E-03    -12.9346E+06    -64.7644E+06    -1.78648E+06     45.8520E+03    -15.7111E-03     31.3696E-03    -15.6584E-03     23.8892E-03    -15.6807E-03     31.0685E-03    -15.5547E-03     23.8853E-03
             356     7.08890E-03     60.4023E-03    -11.3930E+06    -63.1933E+06     257.466E+03     73.4638E+03    -15.7603E-03     31.4214E-03    -15.6611E-03     27.7668E-03    -15.7281E-03     31.1237E-03    -15.5517E-03     27.7620E-03
             357     7.97502E-03     60.4301E-03    -9.84626E+06    -60.5949E+06     1.76796E+06     169.801E+03    -15.8142E-03     31.4738E-03    -15.6596E-03     31.7609E-03    -15.7813E-03     31.1857E-03    -15.5486E-03     31.7556E-03
             358     8.86117E-03     60.4613E-03    -8.33789E+06    -57.0151E+06     3.09318E+06     234.636E+03    -15.8769E-03     31.5326E-03    -15.6557E-03     35.8188E-03    -15.8452E-03     31.2598E-03    -15.5454E-03     35.8122E-03
             359     9.74731E-03     60.4967E-03    -7.32514E+06    -55.1942E+06     3.19043E+06     101.582E+03    -15.9532E-03     31.6022E-03    -15.6490E-03     39.8944E-03    -15.9216E-03     31.3394E-03    -15.5424E-03     39.8830E-03
             360     10.6335E-03     60.5354E-03    -6.59827E+06    -50.0498E+06     1.66240E+06     268.524E+03    -16.0154E-03     31.6447E-03    -15.6293E-03     43.9476E-03    -15.9892E-03     31.4126E-03    -15.5389E-03     43.9345E-03
             361     11.5196E-03     60.5784E-03    -5.85745E+06    -38.9396E+06     3.34429E+06     290.828E+03    -16.0706E-03     31.6864E-03    -15.6157E-03     48.3105E-03    -16.0654E-03     31.5124E-03    -15.5341E-03     48.2927E-03
             362     12.4059E-03     60.6249E-03    -5.23303E+06    -33.6826E+06     2.00303E+06     11.3321E+03    -16.2989E-03     31.8974E-03    -15.5984E-03     54.0351E-03    -16.3074E-03     31.7618E-03    -15.5320E-03     54.0070E-03
             363     13.2918E-03     60.6789E-03    -5.11330E+06    -27.9781E+06    -4.07045E+06     59.6564E+03    -16.2912E-03     31.8487E-03    -15.5574E-03     58.1528E-03    -16.3152E-03     31.7670E-03    -15.5298E-03     58.1186E-03
             364     14.1786E-03     60.7324E-03    -5.15188E+06     476.831E+03    -115.234E+03     75.8410E+03    -16.1426E-03     31.6660E-03    -15.5234E-03     63.2739E-03    -16.2415E-03     31.7486E-03    -15.5172E-03     63.2372E-03
             365     15.0658E-03     60.7964E-03    -5.65921E+06     33.9245E+06    -3.45819E+06    -1.06194E+06    -17.7892E-03     33.2582E-03    -15.4690E-03     83.4861E-03    -18.0670E-03     33.6464E-03    -15.5273E-03     83.4419E-03
             366     15.9486E-03     60.8889E-03    -6.20440E+06     83.1781E+06    -9.67264E+06    -749.119E+03    -18.5575E-03     33.9455E-03    -15.3880E-03     120.440E-03    -19.4652E-03     35.1546E-03    -15.5480E-03     120.644E-03
             367     16.8373E-03     61.0268E-03    -3.81976E+06     137.676E+06     41.1499E+06     1.04637E+06    -16.8543E-03     32.3779E-03    -15.5236E-03     122.770E-03    -18.1453E-03     34.0248E-03    -15.5119E-03     123.506E-03
             368     886.089E-06     61.2824E-03    -21.8143E+06    -73.9121E+06    -21.2130E+06     13.2269E+03    -15.6043E-03     31.2204E-03    -15.6161E-03     3.55691E-03    -15.5755E-03     30.9133E-03    -15.5833E-03     3.55655E-03
             369     1.77218E-03     61.2871E-03    -20.9216E+06    -72.5361E+06    -18.6562E+06    -14.8425E+03    -15.6093E-03     31.2275E-03    -15.6182E-03     6.56444E-03    -15.5817E-03     30.9223E-03    -15.5760E-03     6.56326E-03
             370     2.65829E-03     61.2946E-03    -19.5724E+06    -71.7367E+06    -14.8594E+06     17.9867E+03    -15.6167E-03     31.2478E-03    -15.6311E-03     9.78552E-03    -15.5892E-03     30.9392E-03    -15.5730E-03     9.78423E-03
             371     3.54437E-03     61.3053E-03    -17.9508E+06    -69.9673E+06    -10.9324E+06     27.5135E+03    -15.6269E-03     31.2692E-03    -15.6424E-03     13.1187E-03    -15.5996E-03     30.9616E-03    -15.5696E-03     13.1169E-03
             372     4.43050E-03     61.3190E-03    -16.2188E+06    -67.5018E+06    -7.36494E+06     59.5904E+03    -15.6434E-03     31.2935E-03    -15.6502E-03     16.5736E-03    -15.6165E-03     30.9908E-03    -15.5656E-03     16.5716E-03
             373     5.31660E-03     61.3361E-03    -14.5312E+06      -66.07E+06    -4.25803E+06     35.7472E+03    -15.6722E-03     31.3293E-03    -15.6572E-03     20.1638E-03    -15.6438E-03     31.0271E-03    -15.5616E-03     20.1607E-03
             374     6.20275E-03     61.3564E-03    -12.8787E+06    -64.8040E+06    -1.83947E+06     23.5388E+03    -15.7109E-03     31.3721E-03    -15.6612E-03     23.8999E-03    -15.6801E-03     31.0708E-03    -15.5578E-03     23.8957E-03
             375     7.08886E-03     61.3805E-03    -11.4021E+06    -63.3136E+06     152.973E+03     113.609E+03    -15.7577E-03     31.4209E-03    -15.6632E-03     27.7785E-03    -15.7252E-03     31.1227E-03    -15.5541E-03     27.7742E-03
             376     7.97503E-03     61.4080E-03    -10.0603E+06    -60.4808E+06     1.57260E+06    -21.7561E+03    -15.8086E-03     31.4691E-03    -15.6605E-03     31.7803E-03    -15.7766E-03     31.1821E-03    -15.5503E-03     31.7726E-03
             377     8.86114E-03     61.4396E-03    -8.70739E+06    -57.1916E+06     2.60742E+06    -73.8544E+03    -15.8664E-03     31.5212E-03    -15.6548E-03     35.8518E-03    -15.8355E-03     31.2488E-03    -15.5462E-03     35.8412E-03
             378     9.74734E-03     61.4746E-03    -7.38765E+06    -55.1338E+06     3.13680E+06     133.007E+03    -15.9351E-03     31.5833E-03    -15.6481E-03     39.9193E-03    -15.9039E-03     31.3210E-03    -15.5418E-03     39.9084E-03
             379     10.6335E-03     61.5137E-03    -6.37954E+06    -50.3136E+06     1.59780E+06     119.586E+03    -16.0019E-03     31.6290E-03    -15.6271E-03     43.9497E-03    -15.9741E-03     31.3953E-03    -15.5369E-03     43.9347E-03
             380     11.5198E-03     61.5560E-03    -5.54956E+06    -38.9867E+06     3.21043E+06     258.362E+03    -16.0702E-03     31.6824E-03    -15.6122E-03     48.3301E-03    -16.0632E-03     31.5080E-03    -15.5316E-03     48.3119E-03
             381     12.4058E-03     61.6036E-03    -5.14498E+06    -33.4597E+06     1.99839E+06     308.244E+03    -16.1725E-03     31.7636E-03    -15.5911E-03     54.1455E-03    -16.1805E-03     31.6287E-03    -15.5251E-03     54.1217E-03
             382     13.2921E-03     61.6564E-03    -4.96653E+06    -27.5773E+06    -3.92778E+06     226.706E+03    -16.3551E-03     31.9036E-03    -15.5486E-03     58.0923E-03    -16.3790E-03     31.8235E-03    -15.5210E-03     58.0602E-03
             383     14.1780E-03     61.7108E-03    -4.79214E+06     822.527E+03     347.127E+03     49.9672E+03    -16.8258E-03     32.3650E-03    -15.5392E-03     63.2906E-03    -16.9261E-03     32.4502E-03    -15.5317E-03     63.2506E-03
             384     15.0630E-03     61.7742E-03    -6.11989E+06     34.0218E+06    -2.95033E+06     1.04640E+06    -17.5699E-03     33.0669E-03    -15.4970E-03     85.7058E-03    -17.8502E-03     33.4548E-03    -15.5522E-03     85.6916E-03
             385     15.9474E-03     61.8729E-03    -7.75012E+06     81.6744E+06    -12.3302E+06     1.14575E+06    -17.6697E-03     33.0378E-03    -15.3681E-03     121.682E-03    -18.5717E-03     34.2381E-03    -15.5369E-03     121.923E-03
             386     16.8365E-03     61.9933E-03    -3.42907E+06     136.880E+06     39.5541E+06    -1.23656E+06    -16.9553E-03     32.4356E-03    -15.4803E-03     125.505E-03    -18.2638E-03     34.1031E-03    -15.4760E-03     126.224E-03
             387     886.075E-06     62.2605E-03    -21.8490E+06    -73.9112E+06    -21.2685E+06    -7.75402E+03    -15.6107E-03     31.2288E-03    -15.6181E-03     3.55718E-03    -15.5819E-03     30.9218E-03    -15.5856E-03     3.55655E-03
             388     1.77218E-03     62.2650E-03    -21.0134E+06    -72.5075E+06    -18.7305E+06    -19.0333E+03    -15.6125E-03     31.2347E-03    -15.6222E-03     6.56690E-03    -15.5854E-03     30.9299E-03    -15.5802E-03     6.56566E-03
             389     2.65826E-03     62.2727E-03    -19.6476E+06    -71.8255E+06    -14.9853E+06     9.64757E+03    -15.6196E-03     31.2542E-03    -15.6346E-03     9.78822E-03    -15.5922E-03     30.9455E-03    -15.5769E-03     9.78683E-03
             390     3.54438E-03     62.2832E-03    -17.9829E+06    -69.9722E+06    -11.0302E+06     54.9431E+03    -15.6289E-03     31.2744E-03    -15.6455E-03     13.1240E-03    -15.6017E-03     30.9670E-03    -15.5731E-03     13.1226E-03
             391     4.43047E-03     62.2971E-03    -16.2158E+06    -67.5577E+06    -7.47293E+06     40.9174E+03    -15.6435E-03     31.2963E-03    -15.6528E-03     16.5805E-03    -15.6164E-03     30.9934E-03    -15.5687E-03     16.5783E-03
             392     5.31662E-03     62.3141E-03    -14.4370E+06    -66.0399E+06    -4.28326E+06     55.5384E+03    -15.6707E-03     31.3300E-03    -15.6592E-03     20.1729E-03    -15.6419E-03     31.0278E-03    -15.5639E-03     20.1701E-03
             393     6.20271E-03     62.3346E-03    -12.8490E+06    -64.8399E+06    -1.83040E+06     48.3327E+03    -15.7081E-03     31.3710E-03    -15.6629E-03     23.9087E-03    -15.6771E-03     31.0695E-03    -15.5594E-03     23.9049E-03
             394     7.08889E-03     62.3585E-03    -11.2515E+06    -63.3877E+06     138.761E+03     33.3019E+03    -15.7515E-03     31.4154E-03    -15.6638E-03     27.7905E-03    -15.7181E-03     31.1166E-03    -15.5549E-03     27.7852E-03
             395     7.97499E-03     62.3862E-03    -9.76601E+06    -60.1948E+06     1.69935E+06    -58.9826E+03    -15.8003E-03     31.4604E-03    -15.6601E-03     31.7917E-03    -15.7675E-03     31.1743E-03    -15.5501E-03     31.7835E-03
             396     8.86121E-03     62.4174E-03    -8.52843E+06    -57.2410E+06     2.79716E+06    -210.618E+03    -15.8541E-03     31.5083E-03    -15.6543E-03     35.8559E-03    -15.8225E-03     31.2352E-03    -15.5449E-03     35.8435E-03
             397     9.74731E-03     62.4528E-03    -7.39499E+06    -55.4147E+06     3.06438E+06    -132.497E+03    -15.9218E-03     31.5676E-03    -15.6458E-03     39.9220E-03    -15.8900E-03     31.3039E-03    -15.5394E-03     39.9077E-03
             398     10.6336E-03     62.4915E-03    -6.34973E+06    -50.1997E+06     1.81268E+06    -44.8613E+03    -16.0065E-03     31.6320E-03    -15.6254E-03     43.9498E-03    -15.9791E-03     31.3985E-03    -15.5344E-03     43.9327E-03
             399     11.5196E-03     62.5344E-03    -5.52536E+06    -39.4933E+06     3.26697E+06     121.374E+03    -16.0521E-03     31.6625E-03    -15.6103E-03     48.3375E-03    -16.0443E-03     31.4853E-03    -15.5287E-03     48.3176E-03
             400     12.4061E-03     62.5811E-03    -4.88453E+06    -33.4997E+06     2.23037E+06     477.914E+03    -16.1358E-03     31.7232E-03    -15.5874E-03     53.9507E-03    -16.1426E-03     31.5873E-03    -15.5206E-03     53.9292E-03
             401     13.2925E-03     62.6346E-03    -4.91335E+06    -27.2529E+06    -3.36329E+06     475.794E+03    -16.3866E-03     31.9331E-03    -15.5464E-03     58.2530E-03    -16.4117E-03     31.8537E-03    -15.5166E-03     58.2239E-03
             402     14.1781E-03     62.6896E-03    -5.15308E+06     451.667E+03     318.626E+03     605.645E+03    -16.7883E-03     32.3226E-03    -15.5344E-03     64.7214E-03    -16.8919E-03     32.4087E-03    -15.5260E-03     64.6885E-03
             403     15.0633E-03     62.7544E-03    -3.86216E+06     31.9928E+06    -2.85649E+06     1.53862E+06    -16.2828E-03     31.7357E-03    -15.4529E-03     85.2153E-03    -16.5364E-03     32.0974E-03    -15.5080E-03     85.2152E-03
             404     15.9560E-03     62.8449E-03    -1.52530E+06     83.8601E+06    -7.89187E+06     815.053E+03    -17.5642E-03     32.8617E-03    -15.2975E-03     120.846E-03    -18.4491E-03     34.0618E-03    -15.4563E-03     121.068E-03
             405     16.8401E-03     62.9786E-03    -1.61175E+06     139.264E+06     43.8208E+06    -1.19801E+06    -18.5069E-03     33.9655E-03    -15.4585E-03     123.811E-03    -19.8156E-03     35.6358E-03    -15.4390E-03     124.494E-03
             406     886.093E-06     63.2385E-03    -21.9436E+06    -73.8968E+06    -21.2737E+06    -25.2254E+03    -15.6148E-03     31.2355E-03    -15.6207E-03     3.55340E-03    -15.5866E-03     30.9288E-03    -15.5881E-03     3.55254E-03
             407     1.77215E-03     63.2432E-03    -21.0386E+06    -72.5269E+06    -18.7977E+06     15.7557E+03    -15.6155E-03     31.2409E-03    -15.6254E-03     6.57014E-03    -15.5884E-03     30.9361E-03    -15.5837E-03     6.56935E-03
             408     2.65827E-03     63.2507E-03    -19.7422E+06    -71.8277E+06    -15.1332E+06    -9.57815E+03    -15.6207E-03     31.2578E-03    -15.6370E-03     9.79467E-03    -15.5935E-03     30.9494E-03    -15.5799E-03     9.79303E-03
             409     3.54435E-03     63.2614E-03    -18.0332E+06    -70.0138E+06    -11.1968E+06    -31.6398E+03    -15.6285E-03     31.2757E-03    -15.6472E-03     13.1302E-03    -15.6012E-03     30.9683E-03    -15.5755E-03     13.1277E-03
             410     4.43049E-03     63.2751E-03    -16.2005E+06    -67.5345E+06    -7.47768E+06    -18.2863E+03    -15.6425E-03     31.2970E-03    -15.6544E-03     16.5870E-03    -15.6153E-03     30.9942E-03    -15.5704E-03     16.5841E-03
             411     5.31658E-03     63.2922E-03    -14.4042E+06    -66.0840E+06    -4.29031E+06    -34.5135E+03    -15.6677E-03     31.3280E-03    -15.6603E-03     20.1791E-03    -15.6386E-03     31.0256E-03    -15.5650E-03     20.1752E-03
             412     6.20276E-03     63.3126E-03    -12.6039E+06    -64.8563E+06    -1.70253E+06     4.26274E+03    -15.7029E-03     31.3664E-03    -15.6635E-03     23.9151E-03    -15.6708E-03     31.0643E-03    -15.5597E-03     23.9106E-03
             413     7.08884E-03     63.3366E-03    -11.0759E+06    -63.3055E+06     346.497E+03    -62.4472E+03    -15.7456E-03     31.4095E-03    -15.6639E-03     27.7915E-03    -15.7117E-03     31.1106E-03    -15.5543E-03     27.7850E-03
             414     7.97507E-03     63.3641E-03    -9.71032E+06    -60.1113E+06     1.77284E+06    -117.907E+03    -15.7918E-03     31.4507E-03    -15.6589E-03     31.7953E-03    -15.7589E-03     31.1648E-03    -15.5488E-03     31.7863E-03
             415     8.86114E-03     63.3957E-03    -8.54072E+06    -57.0961E+06     2.86362E+06    -158.223E+03    -15.8495E-03     31.5021E-03    -15.6526E-03     35.8402E-03    -15.8183E-03     31.2295E-03    -15.5431E-03     35.8285E-03
             416     9.74745E-03     63.4306E-03    -7.52635E+06    -55.5655E+06     3.06152E+06    -228.062E+03    -15.9260E-03     31.5705E-03    -15.6445E-03     39.8999E-03    -15.8947E-03     31.3064E-03    -15.5378E-03     39.8843E-03
             417     10.6335E-03     63.4698E-03    -6.77477E+06    -50.3143E+06     1.53760E+06    -114.118E+03    -16.0020E-03     31.6254E-03    -15.6234E-03     43.9355E-03    -15.9761E-03     31.3924E-03    -15.5330E-03     43.9174E-03
             418     11.5199E-03     63.5121E-03    -6.06852E+06    -39.6877E+06     2.98921E+06    -23.0292E+03    -16.0635E-03     31.6727E-03    -15.6092E-03     48.2438E-03    -16.0577E-03     31.4958E-03    -15.5279E-03     48.2220E-03
             419     12.4059E-03     63.5594E-03    -5.26557E+06    -34.0199E+06     1.72987E+06     253.720E+03    -16.2152E-03     31.8041E-03    -15.5889E-03     53.8711E-03    -16.2225E-03     31.6669E-03    -15.5233E-03     53.8464E-03
             420     13.2918E-03     63.6123E-03    -4.44032E+06    -27.1051E+06    -3.08072E+06     485.050E+03    -16.3993E-03     31.9518E-03    -15.5526E-03     58.3432E-03    -16.4233E-03     31.8728E-03    -15.5222E-03     58.3139E-03
             421     14.1785E-03     63.6680E-03    -4.33366E+06    -432.127E+03     390.456E+03     679.822E+03    -16.0598E-03     31.5787E-03    -15.5189E-03     63.9682E-03    -16.1556E-03     31.6565E-03    -15.5100E-03     63.9391E-03
             422     15.0663E-03     63.7318E-03    -3.28696E+06     32.1506E+06    -3.27973E+06    -191.538E+03    -16.4490E-03     31.8702E-03    -15.4213E-03     82.6250E-03    -16.6968E-03     32.2300E-03    -15.4795E-03     82.5991E-03
             423     15.9491E-03     63.8200E-03    -3.80836E+06     85.2597E+06    -6.35993E+06    -1.21749E+06    -18.6450E-03     33.9619E-03    -15.3168E-03     120.702E-03    -19.5700E-03     35.1945E-03    -15.4667E-03     120.891E-03
             424     16.8353E-03     63.9605E-03    -4.54463E+06     139.054E+06     44.4086E+06     245.001E+03    -18.2612E-03     33.7607E-03    -15.4995E-03     122.955E-03    -19.5825E-03     35.4308E-03    -15.4725E-03     123.653E-03
             425     886.060E-06     64.2166E-03    -21.8652E+06    -73.8749E+06    -21.3413E+06    -32.5579E+03    -15.6150E-03     31.2394E-03    -15.6244E-03     3.55426E-03    -15.5862E-03     30.9327E-03    -15.5923E-03     3.55330E-03
             426     1.77218E-03     64.2212E-03    -21.0361E+06    -72.5772E+06    -18.8325E+06    -13.8498E+03    -15.6167E-03     31.2437E-03    -15.6270E-03     6.57333E-03    -15.5894E-03     30.9387E-03    -15.5854E-03     6.57216E-03
             427     2.65824E-03     64.2288E-03    -19.6474E+06    -71.7478E+06    -15.0930E+06    -28.6289E+03    -15.6211E-03     31.2595E-03    -15.6383E-03     9.79859E-03    -15.5936E-03     30.9513E-03    -15.5813E-03     9.79670E-03
             428     3.54437E-03     64.2394E-03    -18.0043E+06    -69.9423E+06    -11.1470E+06    -133.010E+03    -15.6277E-03     31.2760E-03    -15.6482E-03     13.1349E-03    -15.6005E-03     30.9689E-03    -15.5765E-03     13.1311E-03
             429     4.43045E-03     64.2532E-03    -16.1886E+06    -67.5882E+06    -7.53880E+06    -131.935E+03    -15.6399E-03     31.2945E-03    -15.6546E-03     16.5924E-03    -15.6125E-03     30.9915E-03    -15.5708E-03     16.5880E-03
             430     5.31662E-03     64.2702E-03    -14.4045E+06    -66.0448E+06    -4.28093E+06    -94.0868E+03    -15.6643E-03     31.3244E-03    -15.6601E-03     20.1838E-03    -15.6353E-03     31.0222E-03    -15.5648E-03     20.1791E-03
             431     6.20271E-03     64.2907E-03    -12.7577E+06    -64.8754E+06    -1.75875E+06    -152.171E+03    -15.6983E-03     31.3611E-03    -15.6628E-03     23.9153E-03    -15.6669E-03     31.0591E-03    -15.5590E-03     23.9088E-03
             432     7.08892E-03     64.3146E-03    -11.0945E+06    -63.2318E+06     378.320E+03    -126.721E+03    -15.7424E-03     31.4053E-03    -15.6630E-03     27.7881E-03    -15.7088E-03     31.1068E-03    -15.5533E-03     27.7807E-03
             433     7.97499E-03     64.3423E-03    -9.68616E+06    -60.1235E+06     1.83966E+06    -121.349E+03    -15.7897E-03     31.4477E-03    -15.6580E-03     31.7757E-03    -15.7567E-03     31.1616E-03    -15.5476E-03     31.7667E-03
             434     8.86128E-03     64.3735E-03    -8.49236E+06    -57.0437E+06     2.86480E+06    -84.3063E+03    -15.8590E-03     31.5107E-03    -15.6517E-03     35.8295E-03    -15.8276E-03     31.2384E-03    -15.5424E-03     35.8187E-03
             435     9.74727E-03     64.4088E-03    -7.63910E+06    -55.5696E+06     2.93125E+06    -52.6494E+03    -15.9374E-03     31.5818E-03    -15.6444E-03     39.8647E-03    -15.9064E-03     31.3180E-03    -15.5381E-03     39.8513E-03
             436     10.6336E-03     64.4475E-03    -6.89960E+06    -50.3849E+06     1.36422E+06    -109.256E+03    -16.0200E-03     31.6445E-03    -15.6245E-03     43.9046E-03    -15.9945E-03     31.4116E-03    -15.5346E-03     43.8865E-03
             437     11.5196E-03     64.4905E-03    -6.22305E+06    -39.7611E+06     2.67780E+06    -89.5933E+03    -16.0899E-03     31.7012E-03    -15.6113E-03     48.2041E-03    -16.0844E-03     31.5246E-03    -15.5312E-03     48.1813E-03
             438     12.4059E-03     64.5372E-03    -5.60807E+06    -34.0720E+06     1.40781E+06     1.49236E+03    -16.2692E-03     31.8630E-03    -15.5938E-03     53.9330E-03    -16.2779E-03     31.7268E-03    -15.5292E-03     53.9049E-03
             439     13.2923E-03     64.5907E-03    -5.41151E+06    -27.4269E+06    -3.68858E+06     74.3746E+03    -16.3550E-03     31.9123E-03    -15.5573E-03     58.4711E-03    -16.3827E-03     31.8341E-03    -15.5282E-03     58.4366E-03
             440     14.1775E-03     64.6462E-03    -4.23733E+06    -465.502E+03     763.423E+03    -3.98899E+03    -16.0159E-03     31.5403E-03    -15.5243E-03     63.1414E-03    -16.1103E-03     31.6157E-03    -15.5137E-03     63.1039E-03
             441     15.0645E-03     64.7072E-03    -3.98957E+06     32.9799E+06    -2.22809E+06    -314.937E+03    -16.9796E-03     32.4228E-03    -15.4433E-03     83.4507E-03    -17.2412E-03     32.7938E-03    -15.4965E-03     83.4211E-03
             442     15.9522E-03     64.8032E-03    -4.91376E+06     84.8143E+06    -8.38761E+06     418.914E+03    -18.6987E-03     34.0370E-03    -15.3383E-03     122.240E-03    -19.6242E-03     35.2704E-03    -15.4961E-03     122.459E-03
             443     16.8382E-03     64.9352E-03    -3.67602E+06     138.618E+06     42.6205E+06     673.371E+03    -17.7515E-03     33.2542E-03    -15.5027E-03     123.681E-03    -19.0624E-03     34.9205E-03    -15.4853E-03     124.400E-03
             444     886.098E-06     65.1946E-03    -22.0218E+06    -73.8424E+06    -21.3880E+06    -55.5478E+03    -15.6146E-03     31.2380E-03    -15.6234E-03     3.55409E-03    -15.5866E-03     30.9318E-03    -15.5913E-03     3.55284E-03
             445     1.77215E-03     65.1993E-03    -21.1042E+06    -72.5433E+06    -18.8873E+06    -59.2171E+03    -15.6162E-03     31.2427E-03    -15.6265E-03     6.57623E-03    -15.5892E-03     30.9380E-03    -15.5852E-03     6.57447E-03
             446     2.65827E-03     65.2068E-03    -19.7402E+06    -71.6644E+06    -15.1921E+06    -124.274E+03    -15.6192E-03     31.2566E-03    -15.6374E-03     9.80338E-03    -15.5922E-03     30.9492E-03    -15.5809E-03     9.80026E-03
             447     3.54434E-03     65.2175E-03    -18.0397E+06    -69.8153E+06    -11.1876E+06    -169.158E+03    -15.6253E-03     31.2725E-03    -15.6471E-03     13.1395E-03    -15.5984E-03     30.9661E-03    -15.5757E-03     13.1352E-03
             448     4.43049E-03     65.2312E-03    -16.2520E+06    -67.5424E+06    -7.50434E+06    -258.492E+03    -15.6382E-03     31.2920E-03    -15.6538E-03     16.5959E-03    -15.6112E-03     30.9893E-03    -15.5698E-03     16.5898E-03
             449     5.31658E-03     65.2483E-03    -14.3879E+06    -66.1265E+06    -4.29258E+06    -210.340E+03    -15.6628E-03     31.3218E-03    -15.6591E-03     20.1834E-03    -15.6335E-03     31.0192E-03    -15.5638E-03     20.1771E-03
             450     6.20277E-03     65.2687E-03    -12.6608E+06    -64.7435E+06    -1.62082E+06    -162.671E+03    -15.7004E-03     31.3626E-03    -15.6622E-03     23.9110E-03    -15.6689E-03     31.0610E-03    -15.5581E-03     23.9044E-03
             451     7.08884E-03     65.2927E-03    -11.1769E+06    -63.2658E+06     356.530E+03    -255.656E+03    -15.7444E-03     31.4070E-03    -15.6625E-03     27.7754E-03    -15.7112E-03     31.1084E-03    -15.5528E-03     27.7664E-03
             452     7.97510E-03     65.3202E-03    -9.67757E+06    -60.1270E+06     1.77877E+06    -200.036E+03    -15.8028E-03     31.4610E-03    -15.6581E-03     31.7615E-03    -15.7697E-03     31.1749E-03    -15.5480E-03     31.7515E-03
             453     8.86111E-03     65.3517E-03    -8.43782E+06    -57.2848E+06     2.78306E+06    -40.8640E+03    -15.8657E-03     31.5187E-03    -15.6530E-03     35.8100E-03    -15.8336E-03     31.2452E-03    -15.5437E-03     35.7998E-03
             454     9.74745E-03     65.3868E-03    -7.35316E+06    -55.4980E+06     3.03124E+06     78.5324E+03    -15.9552E-03     31.6018E-03    -15.6467E-03     39.8549E-03    -15.9231E-03     31.3378E-03    -15.5404E-03     39.8431E-03
             455     10.6334E-03     65.4257E-03    -6.78948E+06    -50.3527E+06     1.36519E+06     47.8952E+03    -16.0467E-03     31.6748E-03    -15.6281E-03     43.9051E-03    -16.0207E-03     31.4420E-03    -15.5385E-03     43.8890E-03
             456     11.5197E-03     65.4685E-03    -6.34296E+06    -39.6774E+06     2.74112E+06    -41.9684E+03    -16.0877E-03     31.7039E-03    -15.6162E-03     48.1897E-03    -16.0830E-03     31.5279E-03    -15.5358E-03     48.1675E-03
             457     12.4058E-03     65.5153E-03    -5.81525E+06    -34.2612E+06     1.36459E+06    -51.2783E+03    -16.2800E-03     31.8785E-03    -15.5986E-03     54.1120E-03    -16.2896E-03     31.7419E-03    -15.5337E-03     54.0831E-03
             458     13.2914E-03     65.5691E-03    -5.33078E+06    -27.5574E+06    -3.80380E+06    -196.408E+03    -16.2359E-03     31.7935E-03    -15.5576E-03     58.2109E-03    -16.2621E-03     31.7140E-03    -15.5289E-03     58.1735E-03
             459     14.1792E-03     65.6233E-03    -5.38916E+06      86.562E+03     193.905E+03    -188.254E+03    -16.1671E-03     31.6914E-03    -15.5242E-03     63.0306E-03    -16.2676E-03     31.7725E-03    -15.5156E-03     62.9901E-03
             460     15.0647E-03     65.6862E-03    -4.89706E+06     32.6865E+06    -2.95154E+06     215.343E+03    -17.0356E-03     32.4840E-03    -15.4484E-03     84.5332E-03    -17.3035E-03     32.8590E-03    -15.5034E-03     84.5113E-03
             461     15.9495E-03     65.7801E-03    -4.74125E+06     84.2547E+06    -8.45290E+06     255.334E+03    -18.4741E-03     33.8147E-03    -15.3406E-03     121.739E-03    -19.3903E-03     35.0377E-03    -15.4982E-03     121.954E-03
             462     16.8369E-03     65.9132E-03    -3.72605E+06     138.621E+06     42.5160E+06     223.754E+03    -17.7413E-03     33.2427E-03    -15.5014E-03     122.424E-03    -19.0430E-03     34.8999E-03    -15.4844E-03     123.133E-03
             463     886.058E-06     66.1727E-03    -22.1362E+06    -73.7530E+06    -21.5204E+06    -41.5011E+03    -15.6135E-03     31.2316E-03    -15.6181E-03     3.55775E-03    -15.5861E-03     30.9262E-03    -15.5866E-03     3.55669E-03
             464     1.77218E-03     66.1773E-03    -21.2431E+06    -72.4437E+06    -18.9832E+06    -122.985E+03    -15.6136E-03     31.2372E-03    -15.6236E-03     6.57898E-03    -15.5873E-03     30.9334E-03    -15.5827E-03     6.57640E-03
             465     2.65825E-03     66.1849E-03    -19.8639E+06    -71.5462E+06    -15.2864E+06    -175.605E+03    -15.6163E-03     31.2510E-03    -15.6346E-03     9.80635E-03    -15.5899E-03     30.9444E-03    -15.5785E-03     9.80257E-03
             466     3.54438E-03     66.1955E-03    -18.1923E+06    -69.7014E+06    -11.2680E+06    -260.283E+03    -15.6233E-03     31.2679E-03    -15.6446E-03     13.1421E-03    -15.5972E-03     30.9625E-03    -15.5735E-03     13.1367E-03
             467     4.43047E-03     66.2093E-03    -16.3850E+06    -67.4158E+06    -7.50759E+06    -294.556E+03    -15.6379E-03     31.2899E-03    -15.6520E-03     16.5954E-03    -15.6118E-03     30.9880E-03    -15.5680E-03     16.5889E-03
             468     5.31663E-03     66.2263E-03    -14.6360E+06    -66.1331E+06    -4.37819E+06    -354.148E+03    -15.6654E-03     31.3232E-03    -15.6578E-03     20.1815E-03    -15.6372E-03     31.0210E-03    -15.5626E-03     20.1734E-03
             469     6.20272E-03     66.2467E-03    -12.8543E+06    -64.8029E+06    -1.90971E+06    -287.258E+03    -15.7027E-03     31.3633E-03    -15.6606E-03     23.9097E-03    -15.6716E-03     31.0621E-03    -15.5576E-03     23.9015E-03
             470     7.08892E-03     66.2707E-03    -11.2009E+06    -63.0621E+06     264.146E+03    -279.035E+03    -15.7552E-03     31.4174E-03    -15.6622E-03     27.7715E-03    -15.7223E-03     31.1201E-03    -15.5532E-03     27.7621E-03
             471     7.97497E-03     66.2983E-03    -9.88853E+06    -60.3279E+06     1.50132E+06    -295.864E+03    -15.8126E-03     31.4714E-03    -15.6589E-03     31.7694E-03    -15.7799E-03     31.1851E-03    -15.5496E-03     31.7581E-03
             472     8.86122E-03     66.3297E-03    -8.59121E+06    -57.4197E+06     2.49342E+06    -129.178E+03    -15.8774E-03     31.5318E-03    -15.6544E-03     35.8049E-03    -15.8454E-03     31.2582E-03    -15.5462E-03     35.7935E-03
             473     9.74724E-03     66.3648E-03    -7.44948E+06    -55.6695E+06     2.76968E+06    -27.6214E+03    -15.9661E-03     31.6151E-03    -15.6490E-03     39.8874E-03    -15.9338E-03     31.3508E-03    -15.5436E-03     39.8743E-03
             474     10.6335E-03     66.4039E-03    -6.42112E+06    -50.2468E+06     1.42262E+06     115.463E+03    -16.0421E-03     31.6730E-03    -15.6309E-03     43.9169E-03    -16.0145E-03     31.4401E-03    -15.5416E-03     43.9017E-03
             475     11.5195E-03     66.4463E-03    -5.84450E+06    -39.7955E+06     2.59430E+06     179.342E+03    -16.0908E-03     31.7084E-03    -15.6176E-03     48.2144E-03    -16.0832E-03     31.5312E-03    -15.5384E-03     48.1951E-03
             476     12.4057E-03     66.4935E-03    -5.37009E+06    -34.0807E+06     1.32223E+06    -21.7779E+03    -16.1656E-03     31.7613E-03    -15.5958E-03     54.2439E-03    -16.1730E-03     31.6248E-03    -15.5319E-03     54.2158E-03
             477     13.2925E-03     66.5471E-03    -5.24696E+06    -27.7414E+06    -4.29400E+06    -43.5993E+03    -16.2685E-03     31.8190E-03    -15.5505E-03     58.1889E-03    -16.2931E-03     31.7390E-03    -15.5242E-03     58.1534E-03
             478     14.1774E-03     66.6009E-03    -4.75445E+06     193.167E+03      130.14E+03     87.7768E+03    -16.2729E-03     31.7955E-03    -15.5226E-03     63.0042E-03    -16.3708E-03     31.8768E-03    -15.5153E-03     62.9670E-03
             479     15.0648E-03     66.6644E-03    -5.20650E+06     32.7559E+06    -4.28172E+06    -18.1225E+03    -16.9558E-03     32.3984E-03    -15.4426E-03     84.5982E-03    -17.2227E-03     32.7755E-03    -15.5039E-03     84.5738E-03
             480     15.9522E-03     66.7586E-03    -5.66084E+06     84.0688E+06    -9.68039E+06     124.598E+03    -18.4942E-03     33.8278E-03    -15.3336E-03     122.395E-03    -19.4183E-03     35.0584E-03    -15.4957E-03     122.609E-03
             481     16.8363E-03     66.8926E-03    -3.81154E+06     139.051E+06     43.0905E+06     66.9043E+03    -17.7610E-03     33.2618E-03    -15.5007E-03     122.731E-03    -19.0664E-03     34.9223E-03    -15.4814E-03     123.437E-03
             482     886.109E-06     67.1507E-03    -22.2540E+06    -73.6491E+06    -21.6335E+06    -77.7186E+03    -15.6086E-03     31.2220E-03    -15.6134E-03     3.55961E-03    -15.5818E-03     30.9175E-03    -15.5825E-03     3.55807E-03
             483     1.77216E-03     67.1554E-03    -21.3405E+06    -72.2685E+06    -19.0525E+06    -146.275E+03    -15.6101E-03     31.2293E-03    -15.6192E-03     6.57902E-03    -15.5845E-03     30.9266E-03    -15.5787E-03     6.57614E-03
             484     2.65829E-03     67.1629E-03    -19.9505E+06    -71.4186E+06    -15.2796E+06    -246.788E+03    -15.6145E-03     31.2458E-03    -15.6313E-03     9.80566E-03    -15.5887E-03     30.9400E-03    -15.5752E-03     9.80095E-03
             485     3.54436E-03     67.1736E-03    -18.2902E+06    -69.5944E+06    -11.2965E+06    -248.179E+03    -15.6228E-03     31.2646E-03    -15.6418E-03     13.1418E-03    -15.5973E-03     30.9599E-03    -15.5709E-03     13.1365E-03
             486     4.43051E-03     67.1873E-03    -16.5766E+06    -67.3028E+06    -7.68402E+06    -311.238E+03    -15.6388E-03     31.2881E-03    -15.6493E-03     16.5946E-03    -15.6135E-03     30.9873E-03    -15.5661E-03     16.5878E-03
             487     5.31660E-03     67.2044E-03    -14.8583E+06    -66.0578E+06    -4.58815E+06    -319.752E+03    -15.6682E-03     31.3240E-03    -15.6558E-03     20.1819E-03    -15.6409E-03     31.0228E-03    -15.5615E-03     20.1742E-03
             488     6.20277E-03     67.2248E-03    -13.2306E+06    -64.6652E+06    -2.29874E+06    -485.894E+03    -15.7075E-03     31.3662E-03    -15.6587E-03     23.9115E-03    -15.6779E-03     31.0668E-03    -15.5573E-03     23.9007E-03
             489     7.08885E-03     67.2487E-03    -11.5461E+06      -63.12E+06    -280.170E+03    -481.362E+03    -15.7590E-03     31.4195E-03    -15.6605E-03     27.7908E-03    -15.7269E-03     31.1231E-03    -15.5536E-03     27.7788E-03
             490     7.97504E-03     67.2764E-03    -10.0504E+06    -60.4147E+06     1.28910E+06    -264.697E+03    -15.8160E-03     31.4750E-03    -15.6590E-03     31.7779E-03    -15.7836E-03     31.1888E-03    -15.5504E-03     31.7670E-03
             491     8.86112E-03     67.3077E-03    -8.83625E+06    -57.4276E+06     2.19479E+06    -312.449E+03    -15.8866E-03     31.5412E-03    -15.6547E-03     35.8429E-03    -15.8554E-03     31.2685E-03    -15.5476E-03     35.8291E-03
             492     9.74732E-03     67.3430E-03    -7.54952E+06    -55.7126E+06     2.50183E+06    -313.621E+03    -15.9649E-03     31.6144E-03    -15.6495E-03     39.9261E-03    -15.9328E-03     31.3504E-03    -15.5453E-03     39.9093E-03
             493     10.6334E-03     67.3818E-03    -6.49264E+06    -50.5814E+06     1.04794E+06    -148.000E+03    -16.0176E-03     31.6476E-03    -15.6300E-03     43.9400E-03    -15.9893E-03     31.4136E-03    -15.5420E-03     43.9215E-03
             494     11.5197E-03     67.4247E-03    -5.32018E+06    -39.6562E+06     2.79085E+06    -26.0085E+03    -16.0689E-03     31.6849E-03    -15.6160E-03     48.2805E-03    -16.0592E-03     31.5074E-03    -15.5368E-03     48.2586E-03
             495     12.4059E-03     67.4713E-03    -4.50727E+06    -34.0879E+06     1.78762E+06    -20.9502E+03    -16.1592E-03     31.7534E-03    -15.5943E-03     54.0303E-03    -16.1629E-03     31.6150E-03    -15.5294E-03     54.0021E-03
             496     13.2920E-03     67.5249E-03    -4.18950E+06    -27.5734E+06    -3.52393E+06     19.3752E+03    -16.2155E-03     31.7638E-03    -15.5483E-03     58.1216E-03    -16.2362E-03     31.6820E-03    -15.5199E-03     58.0871E-03
             497     14.1790E-03     67.5798E-03    -4.51782E+06    -171.872E+03     251.864E+03     90.9126E+03    -16.3619E-03     31.8820E-03    -15.5201E-03     63.1583E-03    -16.4585E-03     31.9612E-03    -15.5120E-03     63.1207E-03
             498     15.0644E-03     67.6414E-03    -4.74267E+06     32.4481E+06    -3.71197E+06     247.553E+03    -17.0077E-03     32.4536E-03    -15.4460E-03     84.6535E-03    -17.2736E-03     32.8287E-03    -15.5047E-03     84.6324E-03
             499     15.9497E-03     67.7372E-03    -4.52800E+06     84.3103E+06    -9.26093E+06     235.440E+03    -18.0187E-03     33.3418E-03    -15.3231E-03     122.270E-03    -18.9328E-03     34.5660E-03    -15.4850E-03     122.496E-03
             500     16.8389E-03     67.8696E-03    -3.62662E+06     138.955E+06     42.6536E+06     40.5308E+03    -17.8707E-03     33.3490E-03    -15.4784E-03     122.723E-03    -19.1726E-03     35.0077E-03    -15.4613E-03     123.431E-03
             501     886.065E-06     68.1288E-03    -22.3906E+06    -73.4697E+06    -21.7358E+06    -105.661E+03    -15.6057E-03     31.2151E-03    -15.6095E-03     3.56152E-03    -15.5796E-03     30.9118E-03    -15.5791E-03     3.55962E-03
             502     1.77220E-03     68.1334E-03    -21.4226E+06    -72.1008E+06    -19.1427E+06    -199.979E+03    -15.6066E-03     31.2224E-03    -15.6158E-03     6.57513E-03    -15.5815E-03     30.9208E-03    -15.5759E-03     6.57155E-03
             503     2.65827E-03     68.1410E-03    -20.0694E+06    -71.2517E+06    -15.3679E+06    -251.957E+03    -15.6128E-03     31.2411E-03    -15.6282E-03     9.80307E-03    -15.5878E-03     30.9364E-03    -15.5726E-03     9.79830E-03
             504     3.54440E-03     68.1516E-03    -18.3706E+06    -69.5359E+06    -11.4421E+06    -304.187E+03    -15.6225E-03     31.2615E-03    -15.6391E-03     13.1387E-03    -15.5972E-03     30.9574E-03    -15.5688E-03     13.1327E-03
             505     4.43049E-03     68.1654E-03    -16.5694E+06    -67.1970E+06    -7.85667E+06    -274.145E+03    -15.6396E-03     31.2863E-03    -15.6467E-03     16.5952E-03    -15.6142E-03     30.9863E-03    -15.5645E-03     16.5889E-03
             506     5.31663E-03     68.1824E-03    -14.8041E+06    -65.9254E+06    -4.74526E+06    -381.411E+03    -15.6697E-03     31.3233E-03    -15.6536E-03     20.1836E-03    -15.6421E-03     31.0229E-03    -15.5603E-03     20.1751E-03
             507     6.20274E-03     68.2028E-03    -13.1504E+06    -64.4074E+06    -2.34663E+06    -458.384E+03    -15.7110E-03     31.3684E-03    -15.6573E-03     23.9221E-03    -15.6814E-03     31.0702E-03    -15.5566E-03     23.9116E-03
             508     7.08889E-03     68.2268E-03    -11.8155E+06    -63.1074E+06    -464.281E+03    -579.435E+03    -15.7582E-03     31.4178E-03    -15.6596E-03     27.7989E-03    -15.7271E-03     31.1221E-03    -15.5533E-03     27.7856E-03
             509     7.97501E-03     68.2544E-03    -10.2901E+06    -60.5779E+06     989.062E+03    -558.113E+03    -15.8147E-03     31.4724E-03    -15.6577E-03     31.7976E-03    -15.7829E-03     31.1862E-03    -15.5500E-03     31.7830E-03
             510     8.86117E-03     68.2859E-03    -8.74383E+06    -57.2614E+06     2.23499E+06    -474.076E+03    -15.8827E-03     31.5366E-03    -15.6539E-03     35.8717E-03    -15.8514E-03     31.2645E-03    -15.5470E-03     35.8558E-03
             511     9.74728E-03     68.3210E-03    -7.65622E+06    -55.7134E+06     2.53737E+06    -543.716E+03    -15.9492E-03     31.5976E-03    -15.6484E-03     39.9432E-03    -15.9176E-03     31.3337E-03    -15.5438E-03     39.9235E-03
             512     10.6335E-03     68.3600E-03    -6.65236E+06     -50.735E+06     1.03809E+06    -494.890E+03    -16.0081E-03     31.6362E-03    -15.6281E-03     43.9396E-03    -15.9804E-03     31.4017E-03    -15.5397E-03     43.9166E-03
             513     11.5197E-03     68.4024E-03    -5.81252E+06    -39.7531E+06     2.61904E+06    -392.193E+03    -16.0598E-03     31.6730E-03    -15.6132E-03     48.2586E-03    -16.0522E-03     31.4960E-03    -15.5341E-03     48.2319E-03
             514     12.4058E-03     68.4497E-03    -4.95313E+06    -34.0263E+06     1.72217E+06    -274.373E+03    -16.2016E-03     31.7948E-03    -15.5932E-03     54.0418E-03    -16.2076E-03     31.6575E-03    -15.5281E-03     54.0102E-03
             515     13.2920E-03     68.5027E-03    -4.12715E+06    -27.9233E+06    -3.30786E+06    -12.7776E+03    -16.2729E-03     31.8250E-03    -15.5521E-03     58.0297E-03    -16.2931E-03     31.7410E-03    -15.5222E-03     57.9946E-03
             516     14.1782E-03     68.5571E-03    -3.60444E+06    -254.286E+03     917.522E+03     178.175E+03    -16.2425E-03     31.7651E-03    -15.5226E-03     63.0299E-03    -16.3349E-03     31.8412E-03    -15.5125E-03     62.9939E-03
             517     15.0646E-03     68.6208E-03    -3.26766E+06     32.0677E+06    -3.21310E+06     292.447E+03    -16.8101E-03     32.2479E-03    -15.4378E-03     84.6565E-03    -17.0686E-03     32.6179E-03    -15.4956E-03     84.6372E-03
             518     15.9523E-03     68.7138E-03    -3.70123E+06     84.2549E+06    -8.44785E+06     504.055E+03    -18.3191E-03     33.6386E-03    -15.3195E-03     122.279E-03    -19.2305E-03     34.8605E-03    -15.4786E-03     122.501E-03
             519     16.8373E-03     68.8477E-03    -3.51640E+06     139.603E+06     43.4144E+06     377.193E+03    -18.0048E-03     33.4913E-03    -15.4865E-03     122.624E-03    -19.3073E-03     35.1510E-03    -15.4667E-03     123.332E-03
             520     886.110E-06     69.1068E-03    -22.4148E+06    -73.1897E+06    -21.8345E+06    -135.887E+03    -15.6033E-03     31.2131E-03    -15.6097E-03     3.55606E-03    -15.5776E-03     30.9113E-03    -15.5803E-03     3.55377E-03
             521     1.77216E-03     69.1115E-03    -21.5744E+06    -71.9386E+06    -19.3141E+06    -238.796E+03    -15.6040E-03     31.2182E-03    -15.6142E-03     6.57346E-03    -15.5796E-03     30.9179E-03    -15.5752E-03     6.56938E-03
             522     2.65829E-03     69.1190E-03    -20.1858E+06    -71.0949E+06    -15.6337E+06    -280.599E+03    -15.6106E-03     31.2364E-03    -15.6257E-03     9.80199E-03    -15.5860E-03     30.9330E-03    -15.5715E-03     9.79685E-03
             523     3.54438E-03     69.1297E-03    -18.5231E+06    -69.3543E+06    -11.6833E+06    -385.614E+03    -15.6214E-03     31.2581E-03    -15.6367E-03     13.1388E-03    -15.5969E-03     30.9555E-03    -15.5677E-03     13.1317E-03
             524     4.43051E-03     69.1434E-03    -16.6438E+06    -67.1752E+06    -8.09597E+06    -449.162E+03    -15.6382E-03     31.2827E-03    -15.6445E-03     16.5968E-03    -15.6128E-03     30.9833E-03    -15.5635E-03     16.5883E-03
             525     5.31662E-03     69.1605E-03    -14.7437E+06    -65.6248E+06    -4.82427E+06    -509.736E+03    -15.6689E-03     31.3205E-03    -15.6516E-03     20.1900E-03    -15.6413E-03     31.0217E-03    -15.5592E-03     20.1798E-03
             526     6.20277E-03     69.1809E-03    -12.9964E+06     -64.443E+06    -2.23845E+06    -541.928E+03    -15.7098E-03     31.3664E-03    -15.6566E-03     23.9271E-03    -15.6795E-03     31.0677E-03    -15.5555E-03     23.9156E-03
             527     7.08889E-03     69.2049E-03    -11.3966E+06    -62.8887E+06    -154.764E+03    -459.223E+03    -15.7586E-03     31.4177E-03    -15.6591E-03     27.8023E-03    -15.7263E-03     31.1221E-03    -15.5521E-03     27.7905E-03
             528     7.97503E-03     69.2325E-03    -10.1778E+06    -60.3889E+06     1.14501E+06    -736.300E+03    -15.8113E-03     31.4681E-03    -15.6568E-03     31.8091E-03    -15.7794E-03     31.1824E-03    -15.5488E-03     31.7921E-03
             529     8.86117E-03     69.2639E-03    -9.00692E+06    -57.4563E+06     2.02557E+06    -687.959E+03    -15.8695E-03     31.5211E-03    -15.6516E-03     35.8855E-03    -15.8389E-03     31.2487E-03    -15.5451E-03     35.8669E-03
             530     9.74733E-03     69.2991E-03    -7.87438E+06    -55.4792E+06     2.51679E+06    -572.704E+03    -15.9357E-03     31.5811E-03    -15.6454E-03     39.9235E-03    -15.9055E-03     31.3187E-03    -15.5410E-03     39.9034E-03
             531     10.6335E-03     69.3379E-03    -6.94965E+06    -50.7021E+06     988.111E+03    -789.532E+03    -16.0086E-03     31.6338E-03    -15.6252E-03     43.9347E-03    -15.9823E-03     31.4000E-03    -15.5366E-03     43.9079E-03
             532     11.5196E-03     69.3807E-03    -6.02749E+06    -39.9605E+06     2.35708E+06    -623.361E+03    -16.0768E-03     31.6872E-03    -15.6104E-03     48.2792E-03    -16.0696E-03     31.5099E-03    -15.5319E-03     48.2495E-03
             533     12.4059E-03     69.4274E-03    -5.40230E+06    -34.1550E+06     1.34404E+06    -374.951E+03    -16.1820E-03     31.7723E-03    -15.5903E-03     53.9848E-03    -16.1895E-03     31.6355E-03    -15.5262E-03     53.9520E-03
             534     13.2923E-03     69.4810E-03    -5.52443E+06    -27.9677E+06    -4.03299E+06    -284.409E+03    -16.2698E-03     31.8180E-03    -15.5482E-03     58.1928E-03    -16.2961E-03     31.7371E-03    -15.5198E-03     58.1541E-03
             535     14.1779E-03     69.5355E-03    -4.72072E+06    -1.11651E+06     17.9579E+03    -88.2641E+03    -16.2584E-03     31.7775E-03    -15.5191E-03     63.2478E-03    -16.3540E-03     31.8523E-03    -15.5105E-03     63.2084E-03
             536     15.0653E-03     69.5973E-03    -4.42600E+06     31.9721E+06    -3.35194E+06     487.463E+03    -17.0276E-03     32.4724E-03    -15.4448E-03     83.9995E-03    -17.2906E-03     32.8429E-03    -15.5015E-03     83.9811E-03
             537     15.9508E-03     69.6924E-03    -5.01558E+06     84.3642E+06    -9.05915E+06     691.895E+03    -18.5372E-03     33.8753E-03    -15.3381E-03     121.597E-03    -19.4556E-03     35.1017E-03    -15.4985E-03     121.816E-03
             538     16.8365E-03     69.8272E-03    -3.53526E+06     139.472E+06     42.7664E+06     258.594E+03    -17.6799E-03     33.1811E-03    -15.5012E-03     122.541E-03    -18.9817E-03     34.8414E-03    -15.4844E-03     123.250E-03
             539     886.063E-06     70.0849E-03    -22.4954E+06    -72.9186E+06    -21.8688E+06    -161.645E+03    -15.6027E-03     31.2128E-03    -15.6101E-03     3.55171E-03    -15.5777E-03     30.9126E-03    -15.5811E-03     3.54909E-03
             540     1.77220E-03     70.0895E-03    -21.5830E+06    -71.6944E+06    -19.3993E+06    -251.924E+03    -15.6037E-03     31.2176E-03    -15.6138E-03     6.57344E-03    -15.5796E-03     30.9186E-03    -15.5756E-03     6.56919E-03
             541     2.65827E-03     70.0971E-03    -20.2191E+06    -70.8866E+06    -15.7473E+06    -401.996E+03    -15.6097E-03     31.2347E-03    -15.6251E-03     9.80151E-03    -15.5853E-03     30.9326E-03    -15.5717E-03     9.79480E-03
             542     3.54440E-03     70.1077E-03    -18.4635E+06    -69.1097E+06    -11.7685E+06    -506.753E+03    -15.6195E-03     31.2551E-03    -15.6356E-03     13.1398E-03    -15.5949E-03     30.9537E-03    -15.5675E-03     13.1312E-03
             543     4.43050E-03     70.1215E-03    -16.6226E+06    -66.9459E+06    -8.04058E+06    -666.551E+03    -15.6372E-03     31.2811E-03    -15.6440E-03     16.5976E-03    -15.6121E-03     30.9827E-03    -15.5630E-03     16.5863E-03
             544     5.31664E-03     70.1385E-03    -14.7711E+06    -65.5108E+06    -4.87293E+06    -718.309E+03    -15.6658E-03     31.3164E-03    -15.6506E-03     20.1939E-03    -15.6385E-03     31.0182E-03    -15.5586E-03     20.1811E-03
             545     6.20276E-03     70.1590E-03    -12.9947E+06    -64.3353E+06    -2.25519E+06    -710.436E+03    -15.7053E-03     31.3606E-03    -15.6553E-03     23.9298E-03    -15.6751E-03     31.0624E-03    -15.5544E-03     23.9161E-03
             546     7.08890E-03     70.1829E-03    -11.2528E+06    -62.9132E+06    -169.771E+03    -735.518E+03    -15.7541E-03     31.4114E-03    -15.6573E-03     27.8109E-03    -15.7210E-03     31.1155E-03    -15.5506E-03     27.7957E-03
             547     7.97505E-03     70.2106E-03    -9.73698E+06    -60.1257E+06     1.44621E+06    -546.091E+03    -15.8097E-03     31.4651E-03    -15.6554E-03     31.8080E-03    -15.7764E-03     31.1797E-03    -15.5469E-03     31.7934E-03
             548     8.86118E-03     70.2419E-03    -8.76113E+06    -57.5566E+06     2.26483E+06    -618.614E+03    -15.8612E-03     31.5115E-03    -15.6503E-03     35.8659E-03    -15.8296E-03     31.2379E-03    -15.5428E-03     35.8482E-03
             549     9.74739E-03     70.2771E-03    -7.75143E+06    -55.2970E+06     2.42163E+06    -693.004E+03    -15.9330E-03     31.5749E-03    -15.6419E-03     39.9230E-03    -15.9023E-03     31.3134E-03    -15.5384E-03     39.9013E-03
             550     10.6335E-03     70.3160E-03    -6.98612E+06    -50.4878E+06     972.161E+03    -770.182E+03    -16.0068E-03     31.6290E-03    -15.6223E-03     43.9170E-03    -15.9810E-03     31.3964E-03    -15.5341E-03     43.8905E-03
             551     11.5198E-03     70.3586E-03    -6.45423E+06    -40.2793E+06     2.11349E+06    -779.661E+03    -16.0679E-03     31.6755E-03    -15.6076E-03     48.2954E-03    -16.0620E-03     31.4975E-03    -15.5292E-03     48.2638E-03
             552     12.4058E-03     70.4057E-03    -5.71001E+06    -34.4710E+06     945.640E+03    -461.437E+03    -16.2434E-03     31.8320E-03    -15.5885E-03     53.9889E-03    -16.2515E-03     31.6947E-03    -15.5256E-03     53.9548E-03
             553     13.2919E-03     70.4586E-03    -5.22788E+06    -27.7492E+06    -4.04358E+06    -352.787E+03    -16.2704E-03     31.8196E-03    -15.5492E-03     57.7964E-03    -16.2954E-03     31.7392E-03    -15.5216E-03     57.7568E-03
             554     14.1793E-03     70.5133E-03    -5.94315E+06    -1.21217E+06    -509.423E+03    -236.414E+03    -16.3750E-03     31.8996E-03    -15.5246E-03     62.7938E-03    -16.4757E-03     31.9763E-03    -15.5168E-03     62.7519E-03
             555     15.0638E-03     70.5763E-03    -5.01090E+06     31.1589E+06    -4.00720E+06     297.160E+03    -17.3747E-03     32.8374E-03    -15.4627E-03     84.5792E-03    -17.6416E-03     33.2087E-03    -15.5206E-03     84.5562E-03
             556     15.9493E-03     70.6710E-03    -4.06774E+06     84.0708E+06    -9.57251E+06     597.567E+03    -18.2393E-03     33.5925E-03    -15.3533E-03     122.013E-03    -19.1553E-03     34.8203E-03    -15.5171E-03     122.244E-03
             557     16.8379E-03     70.8033E-03    -3.28246E+06     139.710E+06     42.4086E+06     336.608E+03    -17.3941E-03     32.8944E-03    -15.5003E-03     122.890E-03    -18.6993E-03     34.5609E-03    -15.4861E-03     123.612E-03
             558     886.110E-06     71.0629E-03    -22.6200E+06    -72.6147E+06    -22.0511E+06    -184.003E+03    -15.6037E-03     31.2104E-03    -15.6067E-03     3.55242E-03    -15.5796E-03     30.9122E-03    -15.5789E-03     3.54951E-03
             559     1.77216E-03     71.0675E-03    -21.7171E+06    -71.3799E+06    -19.5258E+06    -351.406E+03    -15.6054E-03     31.2187E-03    -15.6133E-03     6.57442E-03    -15.5822E-03     30.9217E-03    -15.5760E-03     6.56889E-03
             560     2.65829E-03     71.0751E-03    -20.3036E+06    -70.5407E+06    -15.8263E+06    -511.099E+03    -15.6089E-03     31.2340E-03    -15.6251E-03     9.80165E-03    -15.5854E-03     30.9338E-03    -15.5725E-03     9.79353E-03
             561     3.54438E-03     71.0857E-03    -18.6227E+06    -68.8248E+06    -11.8836E+06    -690.819E+03    -15.6169E-03     31.2523E-03    -15.6353E-03     13.1419E-03    -15.5934E-03     30.9527E-03    -15.5679E-03     13.1309E-03
             562     4.43052E-03     71.0995E-03    -16.7817E+06    -66.6355E+06    -8.18414E+06    -797.998E+03    -15.6336E-03     31.2766E-03    -15.6430E-03     16.6014E-03    -15.6096E-03     30.9802E-03    -15.5629E-03     16.5883E-03
             563     5.31662E-03     71.1166E-03    -14.9839E+06    -65.3682E+06    -5.02980E+06    -896.724E+03    -15.6611E-03     31.3105E-03    -15.6494E-03     20.1970E-03    -15.6348E-03     31.0136E-03    -15.5580E-03     20.1819E-03
             564     6.20278E-03     71.1370E-03    -13.2175E+06    -64.2006E+06    -2.56500E+06    -932.169E+03    -15.6988E-03     31.3515E-03    -15.6527E-03     23.9363E-03    -15.6695E-03     31.0548E-03    -15.5533E-03     23.9197E-03
             565     7.08891E-03     71.1610E-03    -11.6679E+06    -62.7922E+06    -449.276E+03    -943.382E+03    -15.7490E-03     31.4037E-03    -15.6547E-03     27.8146E-03    -15.7177E-03     31.1094E-03    -15.5490E-03     27.7966E-03
             566     7.97505E-03     71.1886E-03    -10.1321E+06    -60.4078E+06     971.537E+03    -829.667E+03    -15.8014E-03     31.4534E-03    -15.6521E-03     31.8096E-03    -15.7690E-03     31.1678E-03    -15.5449E-03     31.7915E-03
             567     8.86122E-03     71.2200E-03    -8.47272E+06    -57.2061E+06     2.19201E+06    -685.014E+03    -15.8630E-03     31.5099E-03    -15.6469E-03     35.8554E-03    -15.8303E-03     31.2377E-03    -15.5407E-03     35.8368E-03
             568     9.74736E-03     71.2551E-03    -7.38259E+06    -55.4067E+06     2.30160E+06    -731.259E+03    -15.9266E-03     31.5653E-03    -15.6387E-03     39.9151E-03    -15.8938E-03     31.3028E-03    -15.5361E-03     39.8929E-03
             569     10.6336E-03     71.2941E-03    -6.71847E+06    -50.3833E+06     862.056E+03    -557.923E+03    -16.0158E-03     31.6348E-03    -15.6190E-03     43.9269E-03    -15.9887E-03     31.4025E-03    -15.5319E-03     43.9031E-03
             570     11.5196E-03     71.3366E-03    -6.30592E+06    -40.3208E+06     1.92507E+06    -586.001E+03    -16.0750E-03     31.6801E-03    -15.6051E-03     48.2373E-03    -16.0680E-03     31.5020E-03    -15.5278E-03     48.2081E-03
             571     12.4061E-03     71.3837E-03    -5.94831E+06    -34.5346E+06     504.392E+03    -649.404E+03    -16.2344E-03     31.8197E-03    -15.5853E-03     54.1085E-03    -16.2429E-03     31.6831E-03    -15.5241E-03     54.0721E-03
             572     13.2920E-03     71.4371E-03    -5.65534E+06    -28.2670E+06    -4.61543E+06    -237.897E+03    -16.4819E-03     32.0346E-03    -15.5526E-03     57.9946E-03    -16.5079E-03     31.9535E-03    -15.5265E-03     57.9558E-03
             573     14.1769E-03     71.4910E-03    -5.46921E+06    -1.22934E+06    -656.753E+03     82.7916E+03    -16.4886E-03     32.0261E-03    -15.5375E-03     63.1400E-03    -16.5876E-03     32.1033E-03    -15.5311E-03     63.1018E-03
             574     15.0648E-03     71.5547E-03    -5.93683E+06     31.2634E+06    -5.53597E+06    -512.248E+03    -17.1027E-03     32.5673E-03    -15.4646E-03     84.9457E-03    -17.3716E-03     32.9422E-03    -15.5290E-03     84.9146E-03
             575     15.9516E-03     71.6493E-03    -5.54839E+06     83.3197E+06    -11.1066E+06    -483.345E+03    -18.3748E-03     33.7295E-03    -15.3546E-03     120.823E-03    -19.2863E-03     34.9492E-03    -15.5229E-03     121.033E-03
             576     16.8368E-03     71.7802E-03    -3.04484E+06     140.094E+06     42.7266E+06     506.593E+03    -17.4358E-03     32.9511E-03    -15.5153E-03     121.846E-03    -18.7339E-03     34.6118E-03    -15.5004E-03     122.565E-03
             577     886.069E-06     72.0410E-03    -22.9228E+06    -72.2050E+06    -22.2995E+06    -249.498E+03    -15.6014E-03     31.2077E-03    -15.6063E-03     3.55495E-03    -15.5790E-03     30.9123E-03    -15.5799E-03     3.55120E-03
             578     1.77219E-03     72.0456E-03    -21.9816E+06    -70.9560E+06    -19.7581E+06    -437.502E+03    -15.6036E-03     31.2157E-03    -15.6121E-03     6.57639E-03    -15.5821E-03     30.9215E-03    -15.5761E-03     6.56975E-03
             579     2.65826E-03     72.0531E-03    -20.5955E+06    -70.1501E+06    -16.0663E+06    -643.160E+03    -15.6079E-03     31.2317E-03    -15.6239E-03     9.80557E-03    -15.5860E-03     30.9343E-03    -15.5726E-03     9.79575E-03
             580     3.54440E-03     72.0638E-03    -18.8820E+06    -68.4522E+06    -12.0969E+06    -786.974E+03    -15.6150E-03     31.2492E-03    -15.6342E-03     13.1451E-03    -15.5930E-03     30.9523E-03    -15.5681E-03     13.1328E-03
             581     4.43050E-03     72.0775E-03    -17.0845E+06    -66.3332E+06    -8.49293E+06    -957.462E+03    -15.6285E-03     31.2697E-03    -15.6412E-03     16.6050E-03    -15.6060E-03     30.9757E-03    -15.5627E-03     16.5899E-03
             582     5.31665E-03     72.0946E-03    -15.2135E+06    -65.0910E+06    -5.29195E+06    -1.06541E+06    -15.6561E-03     31.3032E-03    -15.6472E-03     20.1989E-03    -15.6310E-03     31.0084E-03    -15.5572E-03     20.1816E-03
             583     6.20277E-03     72.1150E-03    -13.4860E+06    -64.0569E+06    -2.80592E+06    -1.12325E+06    -15.6954E-03     31.3459E-03    -15.6505E-03     23.9374E-03    -15.6672E-03     31.0506E-03    -15.5521E-03     23.9184E-03
             584     7.08893E-03     72.1390E-03    -11.8507E+06    -62.7225E+06    -842.879E+03    -1.06220E+06    -15.7410E-03     31.3923E-03    -15.6513E-03     27.8191E-03    -15.7102E-03     31.0992E-03    -15.5474E-03     27.7996E-03
             585     7.97507E-03     72.1667E-03    -10.3683E+06    -60.2406E+06     542.636E+03    -1.17662E+06    -15.7957E-03     31.4436E-03    -15.6479E-03     31.8135E-03    -15.7642E-03     31.1598E-03    -15.5428E-03     31.7908E-03
             586     8.86124E-03     72.1980E-03    -8.96613E+06    -57.2899E+06     1.48949E+06    -1.22520E+06    -15.8563E-03     31.4981E-03    -15.6418E-03     35.8688E-03    -15.8250E-03     31.2272E-03    -15.5383E-03     35.8433E-03
             587     9.74740E-03     72.2332E-03    -7.57330E+06    -55.4608E+06     1.94135E+06    -876.310E+03    -15.9355E-03     31.5706E-03    -15.6351E-03     39.9016E-03    -15.9030E-03     31.3087E-03    -15.5340E-03     39.8776E-03
             588     10.6336E-03     72.2719E-03    -6.58937E+06    -50.7067E+06     539.469E+03    -616.117E+03    -16.0184E-03     31.6346E-03    -15.6162E-03     43.9463E-03    -15.9897E-03     31.4009E-03    -15.5305E-03     43.9217E-03
             589     11.5198E-03     72.3149E-03    -5.68795E+06    -39.8718E+06     2.15142E+06    -586.635E+03    -16.0935E-03     31.6974E-03    -15.6040E-03     48.2355E-03    -16.0844E-03     31.5204E-03    -15.5271E-03     48.2063E-03
             590     12.4058E-03     72.3614E-03    -5.09422E+06    -35.0218E+06     709.391E+03    -583.107E+03    -16.2116E-03     31.7965E-03    -15.5848E-03     54.0969E-03    -16.2155E-03     31.6558E-03    -15.5231E-03     54.0613E-03
             591     13.2922E-03     72.4155E-03    -4.92943E+06    -28.9579E+06    -4.78744E+06    -249.805E+03    -16.3474E-03     31.8925E-03    -15.5451E-03     58.3254E-03    -16.3683E-03     31.8070E-03    -15.5199E-03     58.2870E-03
             592     14.1789E-03     72.4697E-03    -4.91175E+06    -1.05570E+06    -658.401E+03    -43.2301E+03    -16.5354E-03     32.0617E-03    -15.5263E-03     63.5409E-03    -16.6323E-03     32.1393E-03    -15.5209E-03     63.5010E-03
             593     15.0637E-03     72.5322E-03    -4.81319E+06     31.7044E+06    -4.72265E+06     73.3727E+03    -17.0699E-03     32.5263E-03    -15.4564E-03     85.2621E-03    -17.3346E-03     32.9001E-03    -15.5190E-03     85.2390E-03
             594     15.9493E-03     72.6279E-03    -5.71657E+06     83.5080E+06    -10.3297E+06    -267.812E+03    -18.3331E-03     33.6769E-03    -15.3438E-03     122.320E-03    -19.2534E-03     34.9033E-03    -15.5083E-03     122.533E-03
             595     16.8354E-03     72.7588E-03    -4.42113E+06     139.474E+06     42.3449E+06    -336.686E+03    -17.6822E-03     33.1855E-03    -15.5033E-03     122.859E-03    -18.9919E-03     34.8518E-03    -15.4874E-03     123.564E-03
             596     886.102E-06     73.0190E-03    -23.1971E+06    -71.6722E+06    -22.6017E+06    -288.598E+03    -15.5993E-03     31.2048E-03    -15.6055E-03     3.55994E-03    -15.5786E-03     30.9129E-03    -15.5810E-03     3.55568E-03
             597     1.77217E-03     73.0236E-03    -22.2947E+06    -70.4702E+06    -20.0564E+06    -523.653E+03    -15.6000E-03     31.2102E-03    -15.6102E-03     6.57668E-03    -15.5803E-03     30.9193E-03    -15.5760E-03     6.56893E-03
             598     2.65830E-03     73.0312E-03    -20.8898E+06    -69.6679E+06    -16.3493E+06    -746.098E+03    -15.6050E-03     31.2265E-03    -15.6216E-03     9.80675E-03    -15.5849E-03     30.9324E-03    -15.5720E-03     9.79560E-03
             599     3.54437E-03     73.0418E-03    -19.1666E+06    -68.0838E+06    -12.4118E+06    -938.403E+03    -15.6122E-03     31.2440E-03    -15.6318E-03     13.1475E-03    -15.5916E-03     30.9497E-03    -15.5673E-03     13.1333E-03
             600     4.43053E-03     73.0556E-03    -17.3111E+06    -65.8991E+06    -8.74458E+06    -1.08588E+06    -15.6260E-03     31.2647E-03    -15.6388E-03     16.6072E-03    -15.6049E-03     30.9736E-03    -15.5618E-03     16.5904E-03
             601     5.31663E-03     73.0726E-03    -15.5336E+06    -64.7988E+06    -5.64022E+06    -1.25741E+06    -15.6530E-03     31.2975E-03    -15.6445E-03     20.1999E-03    -15.6295E-03     31.0051E-03    -15.5562E-03     20.1801E-03
             602     6.20280E-03     73.0931E-03    -13.7386E+06    -63.8130E+06    -3.21854E+06    -1.33726E+06    -15.6892E-03     31.3364E-03    -15.6472E-03     23.9398E-03    -15.6621E-03     31.0433E-03    -15.5508E-03     23.9180E-03
             603     7.08892E-03     73.1170E-03    -11.9989E+06    -62.6081E+06    -1.21923E+06    -1.41581E+06    -15.7349E-03     31.3826E-03    -15.6477E-03     27.8194E-03    -15.7045E-03     31.0908E-03    -15.5456E-03     27.7954E-03
             604     7.97511E-03     73.1447E-03    -10.3614E+06    -59.9138E+06     372.586E+03    -1.43334E+06    -15.7889E-03     31.4332E-03    -15.6443E-03     31.8195E-03    -15.7575E-03     31.1513E-03    -15.5405E-03     31.7936E-03
             605     8.86123E-03     73.1761E-03    -9.05666E+06    -57.2267E+06     1.41991E+06    -1.49121E+06    -15.8533E-03     31.4923E-03    -15.6390E-03     35.8620E-03    -15.8224E-03     31.2220E-03    -15.5357E-03     35.8331E-03
             606     9.74746E-03     73.2111E-03    -7.85596E+06    -55.8598E+06     1.64703E+06    -1.33391E+06    -15.9426E-03     31.5752E-03    -15.6326E-03     39.9303E-03    -15.9106E-03     31.3122E-03    -15.5320E-03     39.9004E-03
             607     10.6335E-03     73.2502E-03    -6.64133E+06    -50.6902E+06     429.256E+03    -1.04673E+06    -16.0200E-03     31.6342E-03    -15.6142E-03     43.9527E-03    -15.9914E-03     31.4008E-03    -15.5289E-03     43.9225E-03
             608     11.5198E-03     73.2926E-03    -5.75889E+06    -40.1581E+06     1.95082E+06    -812.273E+03    -16.0625E-03     31.6634E-03    -15.6009E-03     48.2857E-03    -16.0531E-03     31.4853E-03    -15.5246E-03     48.2536E-03
             609     12.4060E-03     73.3400E-03    -5.01978E+06    -34.9020E+06     901.467E+03    -657.634E+03    -16.2058E-03     31.7875E-03    -15.5817E-03     54.1780E-03    -16.2098E-03     31.6472E-03    -15.5193E-03     54.1414E-03
             610     13.2920E-03     73.3928E-03    -4.23369E+06    -29.4319E+06    -4.70360E+06    -684.215E+03    -16.3258E-03     31.8664E-03    -15.5406E-03     58.2168E-03    -16.3426E-03     31.7773E-03    -15.5153E-03     58.1728E-03
             611     14.1782E-03     73.4479E-03    -3.06424E+06    -1.07766E+06     144.789E+03    -416.507E+03    -16.2510E-03     31.7650E-03    -15.5141E-03     63.2584E-03    -16.3388E-03     31.8377E-03    -15.5073E-03     63.2147E-03
             612     15.0650E-03     73.5112E-03    -2.82788E+06     31.0745E+06    -3.90990E+06     344.780E+03    -16.5805E-03     32.0033E-03    -15.4228E-03     85.1762E-03    -16.8339E-03     32.3683E-03    -15.4833E-03     85.1591E-03
             613     15.9530E-03     73.6045E-03    -3.09534E+06     83.6316E+06    -9.22694E+06     840.206E+03    -17.9429E-03     33.2277E-03    -15.2848E-03     123.250E-03    -18.8542E-03     34.4516E-03    -15.4477E-03     123.483E-03
             614     16.8404E-03     73.7387E-03    -3.33712E+06     140.580E+06     43.5467E+06     93.5600E+03    -18.3383E-03     33.7909E-03    -15.4526E-03     122.785E-03    -19.6423E-03     35.4558E-03    -15.4338E-03     123.481E-03
             615     886.071E-06     73.9970E-03    -23.4929E+06    -71.0756E+06    -22.8854E+06    -333.897E+03    -15.5958E-03     31.1997E-03    -15.6039E-03     3.55634E-03    -15.5770E-03     30.9116E-03    -15.5812E-03     3.55150E-03
             616     1.77219E-03     74.0017E-03    -22.5805E+06    -69.8687E+06    -20.3593E+06    -604.038E+03    -15.5974E-03     31.2049E-03    -15.6076E-03     6.57839E-03    -15.5795E-03     30.9179E-03    -15.5753E-03     6.56960E-03
             617     2.65827E-03     74.0092E-03    -21.1709E+06    -69.1326E+06    -16.6617E+06    -869.541E+03    -15.6006E-03     31.2193E-03    -15.6187E-03     9.80752E-03    -15.5823E-03     30.9287E-03    -15.5711E-03     9.79478E-03
             618     3.54441E-03     74.0199E-03    -19.4379E+06    -67.5862E+06    -12.6888E+06    -1.10398E+06    -15.6088E-03     31.2375E-03    -15.6288E-03     13.1473E-03    -15.5899E-03     30.9465E-03    -15.5660E-03     13.1310E-03
             619     4.43051E-03     74.0336E-03    -17.5736E+06    -65.4997E+06    -9.09714E+06    -1.29435E+06    -15.6237E-03     31.2592E-03    -15.6355E-03     16.6083E-03    -15.6040E-03     30.9709E-03    -15.5605E-03     16.5888E-03
             620     5.31666E-03     74.0507E-03    -15.6393E+06    -64.3368E+06    -5.91955E+06    -1.46501E+06    -15.6494E-03     31.2906E-03    -15.6412E-03     20.2036E-03    -15.6266E-03     31.0011E-03    -15.5548E-03     20.1811E-03
             621     6.20278E-03     74.0711E-03    -13.8325E+06    -63.5175E+06    -3.45561E+06    -1.65233E+06    -15.6859E-03     31.3300E-03    -15.6441E-03     23.9401E-03    -15.6593E-03     31.0389E-03    -15.5492E-03     23.9143E-03
             622     7.08897E-03     74.0951E-03    -12.1550E+06    -62.2840E+06    -1.38047E+06    -1.73862E+06    -15.7321E-03     31.3771E-03    -15.6449E-03     27.8192E-03    -15.7027E-03     31.0874E-03    -15.5439E-03     27.7910E-03
             623     7.97508E-03     74.1227E-03    -10.6438E+06    -59.7779E+06     115.093E+03    -1.79758E+06    -15.7817E-03     31.4230E-03    -15.6413E-03     31.8138E-03    -15.7516E-03     31.1425E-03    -15.5386E-03     31.7831E-03
             624     8.86133E-03     74.1541E-03    -9.17363E+06    -57.0271E+06     1.26965E+06    -1.72411E+06    -15.8512E-03     31.4872E-03    -15.6360E-03     35.8725E-03    -15.8210E-03     31.2183E-03    -15.5337E-03     35.8406E-03
             625     9.74738E-03     74.1893E-03    -7.92223E+06    -55.9711E+06     1.46192E+06    -1.71657E+06    -15.9316E-03     31.5610E-03    -15.6294E-03     39.9428E-03    -15.8994E-03     31.2978E-03    -15.5295E-03     39.9080E-03
             626     10.6337E-03     74.2281E-03    -6.82391E+06    -50.8735E+06     53.2408E+03    -1.54252E+06    -15.9996E-03     31.6089E-03    -15.6093E-03     43.9869E-03    -15.9711E-03     31.3754E-03    -15.5253E-03     43.9504E-03
             627     11.5197E-03     74.2709E-03    -5.81510E+06    -40.4354E+06     1.63680E+06    -1.17404E+06    -16.0532E-03     31.6485E-03    -15.5953E-03     48.2863E-03    -16.0432E-03     31.4696E-03    -15.5201E-03     48.2495E-03
             628     12.4061E-03     74.3175E-03    -4.78269E+06    -34.7309E+06     865.269E+03    -971.655E+03    -16.2018E-03     31.7780E-03    -15.5762E-03     54.1348E-03    -16.2049E-03     31.6383E-03    -15.5146E-03     54.0942E-03
             629     13.2923E-03     74.3715E-03    -4.81344E+06    -29.1560E+06    -4.98122E+06    -959.534E+03    -16.2625E-03     31.7955E-03    -15.5330E-03     58.4123E-03    -16.2824E-03     31.7092E-03    -15.5087E-03     58.3648E-03
             630     14.1781E-03     74.4258E-03    -4.73469E+06    -2.48274E+06    -1.23474E+06    -568.832E+03    -16.1279E-03     31.6275E-03    -15.4997E-03     63.3202E-03    -16.2198E-03     31.6974E-03    -15.4954E-03     63.2751E-03
             631     15.0656E-03     74.4875E-03    -4.24983E+06     30.5670E+06    -4.52469E+06    -131.811E+03    -16.7391E-03     32.1535E-03    -15.4144E-03     83.6830E-03    -16.9960E-03     32.5169E-03    -15.4752E-03     83.6586E-03
             632     15.9518E-03     74.5822E-03    -4.39796E+06     83.3106E+06    -10.1585E+06     166.236E+03    -18.2778E-03     33.5724E-03    -15.2947E-03     120.760E-03    -19.1835E-03     34.7878E-03    -15.4599E-03     120.975E-03
             633     16.8373E-03     74.7164E-03    -3.30695E+06     140.632E+06     42.8055E+06      616.03E+03    -18.1415E-03     33.6116E-03    -15.4702E-03     121.577E-03    -19.4348E-03     35.2684E-03    -15.4553E-03     122.276E-03
             634     886.104E-06     74.9751E-03    -23.7613E+06    -70.3849E+06    -23.1715E+06    -383.951E+03    -15.5926E-03     31.1931E-03    -15.6005E-03     3.55866E-03    -15.5757E-03     30.9093E-03    -15.5799E-03     3.55317E-03
             635     1.77217E-03     74.9797E-03    -22.8450E+06    -69.1788E+06    -20.6453E+06    -687.558E+03    -15.5940E-03     31.1982E-03    -15.6042E-03     6.57763E-03    -15.5781E-03     30.9154E-03    -15.5740E-03     6.56776E-03
             636     2.65830E-03     74.9873E-03    -21.4444E+06    -68.4950E+06    -16.9438E+06    -1.00763E+06    -15.5980E-03     31.2134E-03    -15.6155E-03     9.80625E-03    -15.5815E-03     30.9268E-03    -15.5698E-03     9.79172E-03
             637     3.54438E-03     74.9979E-03    -19.7112E+06    -67.0022E+06    -13.0182E+06    -1.28378E+06    -15.6056E-03     31.2311E-03    -15.6254E-03     13.1470E-03    -15.5885E-03     30.9439E-03    -15.5648E-03     13.1284E-03
             638     4.43054E-03     75.0117E-03    -17.7897E+06    -64.9233E+06    -9.41172E+06    -1.57943E+06    -15.6188E-03     31.2507E-03    -15.6320E-03     16.6081E-03    -15.6005E-03     30.9661E-03    -15.5591E-03     16.5850E-03
             639     5.31665E-03     75.0287E-03    -15.8630E+06    -63.8741E+06    -6.24450E+06    -1.81105E+06    -15.6451E-03     31.2826E-03    -15.6375E-03     20.2032E-03    -15.6237E-03     30.9962E-03    -15.5531E-03     20.1763E-03
             640     6.20283E-03     75.0491E-03    -14.0122E+06    -63.0728E+06    -3.62626E+06    -1.93710E+06    -15.6846E-03     31.3258E-03    -15.6412E-03     23.9412E-03    -15.6594E-03     31.0374E-03    -15.5475E-03     23.9116E-03
             641     7.08893E-03     75.0731E-03    -12.3181E+06    -61.9885E+06    -1.61516E+06    -2.06127E+06    -15.7291E-03     31.3710E-03    -15.6420E-03     27.8174E-03    -15.7005E-03     31.0834E-03    -15.5423E-03     27.7850E-03
             642     7.97516E-03     75.1007E-03    -10.7204E+06    -59.4755E+06    -130.917E+03    -2.11765E+06    -15.7821E-03     31.4204E-03    -15.6383E-03     31.8139E-03    -15.7524E-03     31.1419E-03    -15.5371E-03     31.7791E-03
             643     8.86123E-03     75.1321E-03    -9.31486E+06    -57.0084E+06     924.735E+03    -2.12907E+06    -15.8421E-03     31.4749E-03    -15.6327E-03     35.8766E-03    -15.8121E-03     31.2067E-03    -15.5319E-03     35.8394E-03
             644     9.74755E-03     75.1673E-03    -7.99126E+06    -55.7018E+06     1.25737E+06    -2.08129E+06    -15.9160E-03     31.5415E-03    -15.6255E-03     39.9394E-03    -15.8842E-03     31.2800E-03    -15.5269E-03     39.8998E-03
             645     10.6336E-03     75.2061E-03    -6.99517E+06    -51.1981E+06    -306.079E+03    -1.95513E+06    -15.9767E-03     31.5810E-03    -15.6042E-03     43.9446E-03    -15.9481E-03     31.3466E-03    -15.5214E-03     43.9028E-03
             646     11.5200E-03     75.2487E-03    -5.98370E+06    -40.5325E+06     1.41154E+06    -1.70330E+06    -16.0707E-03     31.6615E-03    -15.5907E-03     48.3077E-03    -16.0611E-03     31.4826E-03    -15.5162E-03     48.2641E-03
             647     12.4059E-03     75.2958E-03    -5.14384E+06    -35.0080E+06     492.125E+03    -1.39847E+06    -16.2115E-03     31.7842E-03    -15.5727E-03     54.1416E-03    -16.2154E-03     31.6442E-03    -15.5120E-03     54.0955E-03
             648     13.2922E-03     75.3491E-03    -4.39831E+06    -29.2915E+06    -4.82227E+06    -770.289E+03    -16.1715E-03     31.7004E-03    -15.5288E-03     57.9380E-03    -16.1889E-03     31.6121E-03    -15.5041E-03     57.8934E-03
             649     14.1797E-03     75.4033E-03    -5.09189E+06    -2.78783E+06    -1.43735E+06    -194.737E+03    -16.2798E-03     31.7777E-03    -15.4979E-03     62.7855E-03    -16.3722E-03     31.8462E-03    -15.4936E-03     62.7447E-03
             650     15.0641E-03     75.4666E-03    -5.48428E+06     30.2405E+06    -5.10552E+06     15.4965E+03    -17.2913E-03     32.7236E-03    -15.4323E-03     84.2553E-03    -17.5556E-03     33.0906E-03    -15.4937E-03     84.2293E-03
             651     15.9494E-03     75.5600E-03    -5.62699E+06     83.1294E+06    -11.6914E+06     177.288E+03    -18.7248E-03     34.0558E-03    -15.3311E-03     122.513E-03    -19.6485E-03     35.2886E-03    -15.5019E-03     122.727E-03
             652     16.8362E-03     75.6948E-03    -4.30306E+06     139.936E+06     40.7857E+06     12.6822E+03    -17.6777E-03     33.1750E-03    -15.4973E-03     123.365E-03    -18.9889E-03     34.8494E-03    -15.4901E-03     124.075E-03
             653     886.075E-06     75.9531E-03    -24.0313E+06    -69.5669E+06    -23.4433E+06    -448.915E+03    -15.5885E-03     31.1848E-03    -15.5963E-03     3.56016E-03    -15.5738E-03     30.9058E-03    -15.5778E-03     3.55383E-03
             654     1.77220E-03     75.9578E-03    -23.0983E+06    -68.4072E+06    -20.9204E+06    -808.275E+03    -15.5914E-03     31.1917E-03    -15.6003E-03     6.57728E-03    -15.5774E-03     30.9136E-03    -15.5723E-03     6.56585E-03
             655     2.65827E-03     75.9653E-03    -21.6804E+06    -67.7485E+06    -17.2294E+06    -1.14618E+06    -15.5957E-03     31.2077E-03    -15.6120E-03     9.80628E-03    -15.5811E-03     30.9256E-03    -15.5685E-03     9.78996E-03
             656     3.54442E-03     75.9760E-03    -19.9017E+06    -66.2592E+06    -13.2861E+06    -1.52700E+06    -15.6020E-03     31.2241E-03    -15.6221E-03     13.1460E-03    -15.5865E-03     30.9413E-03    -15.5636E-03     13.1242E-03
             657     4.43052E-03     75.9897E-03    -18.0162E+06    -64.2317E+06    -9.66843E+06    -1.85568E+06    -15.6147E-03     31.2433E-03    -15.6286E-03     16.6060E-03    -15.5982E-03     30.9629E-03    -15.5577E-03     16.5793E-03
             658     5.31669E-03     76.0067E-03    -16.1457E+06    -63.2979E+06    -6.50019E+06    -2.12106E+06    -15.6424E-03     31.2768E-03    -15.6344E-03     20.2020E-03    -15.6229E-03     30.9941E-03    -15.5517E-03     20.1711E-03
             659     6.20279E-03     76.0271E-03    -14.3067E+06    -62.6326E+06    -4.03007E+06    -2.31480E+06    -15.6793E-03     31.3167E-03    -15.6374E-03     23.9407E-03    -15.6556E-03     31.0315E-03    -15.5460E-03     23.9063E-03
             660     7.08900E-03     76.0511E-03    -12.5183E+06    -61.5387E+06    -1.91396E+06    -2.44208E+06    -15.7275E-03     31.3660E-03    -15.6385E-03     27.8174E-03    -15.7002E-03     31.0813E-03    -15.5407E-03     27.7801E-03
             661     7.97509E-03     76.0787E-03    -10.9014E+06    -59.2140E+06    -456.883E+03    -2.53556E+06    -15.7797E-03     31.4147E-03    -15.6350E-03     31.8177E-03    -15.7508E-03     31.1382E-03    -15.5356E-03     31.7775E-03
             662     8.86136E-03     76.1101E-03    -9.37798E+06    -56.7451E+06     663.073E+03    -2.54584E+06    -15.8400E-03     31.4696E-03    -15.6296E-03     35.8735E-03    -15.8103E-03     31.2033E-03    -15.5304E-03     35.8309E-03
             663     9.74741E-03     76.1452E-03    -8.14898E+06    -55.6901E+06     956.397E+03    -2.46760E+06    -15.9069E-03     31.5293E-03    -15.6224E-03     39.9171E-03    -15.8755E-03     31.2685E-03    -15.5250E-03     39.8726E-03
             664     10.6338E-03     76.1842E-03    -7.10673E+06    -51.0902E+06    -408.147E+03    -2.32753E+06    -15.9920E-03     31.5943E-03    -15.6024E-03     43.9121E-03    -15.9639E-03     31.3609E-03    -15.5200E-03     43.8654E-03
             665     11.5197E-03     76.2266E-03    -6.32477E+06    -40.8642E+06     1.04469E+06    -2.12367E+06    -16.0479E-03     31.6364E-03    -15.5884E-03     48.3133E-03    -16.0390E-03     31.4569E-03    -15.5148E-03     48.2644E-03
             666     12.4063E-03     76.2740E-03    -5.59781E+06    -35.5102E+06    -29.1821E+03    -1.66591E+06    -16.1915E-03     31.7602E-03    -15.5687E-03     54.1138E-03    -16.1961E-03     31.6190E-03    -15.5093E-03     54.0644E-03
             667     13.2924E-03     76.3269E-03    -5.35890E+06    -30.1202E+06    -5.72046E+06    -1.04861E+06    -16.3853E-03     31.9160E-03    -15.5307E-03     57.9499E-03    -16.4052E-03     31.8265E-03    -15.5078E-03     57.9010E-03
             668     14.1771E-03     76.3815E-03    -4.41979E+06    -2.93860E+06    -1.30704E+06    -525.642E+03    -16.3639E-03     31.8744E-03    -15.5105E-03     62.9828E-03    -16.4534E-03     31.9416E-03    -15.5064E-03     62.9373E-03
             669     15.0655E-03     76.4442E-03    -3.80028E+06     29.4876E+06    -4.99635E+06     192.419E+03    -16.9723E-03     32.4082E-03    -15.4359E-03     84.6478E-03    -17.2266E-03     32.7682E-03    -15.4981E-03     84.6259E-03
             670     15.9522E-03     76.5395E-03    -3.85113E+06     83.2103E+06    -11.2066E+06     664.653E+03    -18.3321E-03     33.6461E-03    -15.3139E-03     122.696E-03    -19.2453E-03     34.8735E-03    -15.4851E-03     122.922E-03
             671     16.8380E-03     76.6724E-03    -3.27699E+06     141.009E+06     41.7601E+06     30.6252E+03    -17.8303E-03     33.3065E-03    -15.4762E-03     123.210E-03    -19.1381E-03     34.9821E-03    -15.4671E-03     123.918E-03
             672     886.109E-06     76.9312E-03    -24.2618E+06    -68.6160E+06    -23.6887E+06    -516.700E+03    -15.5841E-03     31.1782E-03    -15.5942E-03     3.55849E-03    -15.5716E-03     30.9047E-03    -15.5779E-03     3.55128E-03
             673     1.77218E-03     76.9358E-03    -23.3654E+06    -67.5124E+06    -21.1992E+06    -928.288E+03    -15.5878E-03     31.1847E-03    -15.5969E-03     6.57564E-03    -15.5761E-03     30.9119E-03    -15.5711E-03     6.56265E-03
             674     2.65831E-03     76.9434E-03    -21.9096E+06    -66.8604E+06    -17.5285E+06    -1.36384E+06    -15.5921E-03     31.2005E-03    -15.6083E-03     9.80589E-03    -15.5795E-03     30.9235E-03    -15.5673E-03     9.78676E-03
             675     3.54439E-03     76.9539E-03    -20.1341E+06    -65.3724E+06    -13.5400E+06    -1.78181E+06    -15.5987E-03     31.2172E-03    -15.6186E-03     13.1436E-03    -15.5852E-03     30.9395E-03    -15.5623E-03     13.1185E-03
             676     4.43055E-03     76.9677E-03    -18.2141E+06    -63.4824E+06    -9.85381E+06    -2.13834E+06    -15.6129E-03     31.2386E-03    -15.6257E-03     16.6043E-03    -15.5982E-03     30.9625E-03    -15.5565E-03     16.5739E-03
             677     5.31666E-03     76.9847E-03    -16.2742E+06    -62.5887E+06    -6.69911E+06    -2.44116E+06    -15.6389E-03     31.2703E-03    -15.6314E-03     20.2008E-03    -15.6207E-03     30.9916E-03    -15.5506E-03     20.1658E-03
             678     6.20285E-03     77.0052E-03    -14.3912E+06    -62.0262E+06    -4.19228E+06    -2.72483E+06    -15.6766E-03     31.3112E-03    -15.6346E-03     23.9380E-03    -15.6539E-03     31.0294E-03    -15.5448E-03     23.8983E-03
             679     7.08895E-03     77.0291E-03    -12.6144E+06    -61.0816E+06    -2.15961E+06    -2.90094E+06    -15.7229E-03     31.3583E-03    -15.6354E-03     27.8199E-03    -15.6964E-03     31.0764E-03    -15.5393E-03     27.7766E-03
             680     7.97518E-03     77.0568E-03    -10.9336E+06    -58.7841E+06    -634.348E+03    -3.00163E+06    -15.7781E-03     31.4101E-03    -15.6320E-03     31.8167E-03    -15.7497E-03     31.1361E-03    -15.5341E-03     31.7705E-03
             681     8.86127E-03     77.0880E-03    -9.50237E+06    -56.5886E+06     392.437E+03    -2.98150E+06    -15.8400E-03     31.4668E-03    -15.6268E-03     35.8704E-03    -15.8107E-03     31.2018E-03    -15.5290E-03     35.8222E-03
             682     9.74756E-03     77.1233E-03    -8.20845E+06    -55.5187E+06     704.280E+03    -2.83932E+06    -15.9198E-03     31.5401E-03    -15.6203E-03     39.9029E-03    -15.8886E-03     31.2806E-03    -15.5244E-03     39.8535E-03
             683     10.6336E-03     77.1620E-03    -7.20042E+06    -51.1390E+06    -778.828E+03    -2.71271E+06    -15.9998E-03     31.6008E-03    -15.6010E-03     43.9275E-03    -15.9716E-03     31.3678E-03    -15.5203E-03     43.8759E-03
             684     11.5200E-03     77.2050E-03    -6.27835E+06    -41.1520E+06     726.508E+03    -2.36759E+06    -16.0391E-03     31.6266E-03    -15.5875E-03     48.2546E-03    -16.0291E-03     31.4460E-03    -15.5151E-03     48.2025E-03
             685     12.4060E-03     77.2514E-03    -5.69507E+06    -36.0678E+06    -538.510E+03    -1.95172E+06    -16.2046E-03     31.7721E-03    -15.5675E-03     54.1378E-03    -16.2082E-03     31.6290E-03    -15.5096E-03     54.0846E-03
             686     13.2921E-03     77.3056E-03    -5.08046E+06    -30.4434E+06    -6.19795E+06    -1.75436E+06    -16.4043E-03     31.9337E-03    -15.5294E-03     58.1093E-03    -16.4218E-03     31.8431E-03    -15.5089E-03     58.0512E-03
             687     14.1794E-03     77.3594E-03    -4.50150E+06    -3.50305E+06    -2.13534E+06    -1.23439E+06    -16.4498E-03     31.9611E-03    -15.5113E-03     62.9551E-03    -16.5381E-03     32.0272E-03    -15.5104E-03     62.9001E-03
             688     15.0638E-03     77.4223E-03    -3.69707E+06     28.3685E+06    -5.69897E+06    -454.343E+03    -17.0529E-03     32.4957E-03    -15.4428E-03     84.3832E-03    -17.3052E-03     32.8521E-03    -15.5071E-03     84.3526E-03
             689     15.9502E-03     77.5165E-03    -3.41283E+06     82.4898E+06    -11.4935E+06     254.358E+03    -18.1644E-03     33.4860E-03    -15.3215E-03     121.453E-03    -19.0657E-03     34.7013E-03    -15.4937E-03     121.676E-03
             690     16.8379E-03     77.6505E-03    -3.02267E+06     141.381E+06     41.7980E+06     752.976E+03    -17.6971E-03     33.1763E-03    -15.4793E-03     122.361E-03    -18.9973E-03     34.8465E-03    -15.4709E-03     123.079E-03
             691     886.072E-06     77.9092E-03    -24.5060E+06    -67.5442E+06    -23.9118E+06    -582.534E+03    -15.5843E-03     31.1735E-03    -15.5892E-03     3.56074E-03    -15.5742E-03     30.9060E-03    -15.5753E-03     3.55269E-03
             692     1.77220E-03     77.9139E-03    -23.5378E+06    -66.4398E+06    -21.3845E+06    -1.06915E+06    -15.5845E-03     31.1790E-03    -15.5945E-03     6.57462E-03    -15.5750E-03     30.9120E-03    -15.5709E-03     6.55982E-03
             693     2.65828E-03     77.9214E-03    -22.1209E+06    -65.8120E+06    -17.7228E+06    -1.58250E+06    -15.5877E-03     31.1932E-03    -15.6055E-03     9.80235E-03    -15.5774E-03     30.9221E-03    -15.5666E-03     9.78040E-03
             694     3.54443E-03     77.9320E-03    -20.3583E+06    -64.4065E+06    -13.7724E+06    -2.03781E+06    -15.5957E-03     31.2112E-03    -15.6155E-03     13.1412E-03    -15.5845E-03     30.9390E-03    -15.5614E-03     13.1128E-03
             695     4.43053E-03     77.9457E-03    -18.4542E+06    -62.5864E+06    -10.1214E+06    -2.45003E+06    -15.6098E-03     31.2324E-03    -15.6226E-03     16.6025E-03    -15.5973E-03     30.9615E-03    -15.5557E-03     16.5681E-03
             696     5.31670E-03     77.9628E-03    -16.5147E+06    -61.7776E+06    -6.94440E+06    -2.81691E+06    -15.6355E-03     31.2639E-03    -15.6285E-03     20.1977E-03    -15.6193E-03     30.9900E-03    -15.5497E-03     20.1578E-03
             697     6.20281E-03     77.9831E-03    -14.6482E+06    -61.2724E+06    -4.46548E+06    -3.12647E+06    -15.6722E-03     31.3037E-03    -15.6315E-03     23.9384E-03    -15.6515E-03     31.0264E-03    -15.5438E-03     23.8935E-03
             698     7.08901E-03     78.0072E-03    -12.8678E+06    -60.4797E+06    -2.48000E+06    -3.39777E+06    -15.7188E-03     31.3509E-03    -15.6321E-03     27.8197E-03    -15.6940E-03     31.0729E-03    -15.5381E-03     27.7700E-03
             699     7.97513E-03     78.0347E-03    -11.2102E+06    -58.3694E+06    -1.04429E+06    -3.50554E+06    -15.7743E-03     31.4027E-03    -15.6284E-03     31.8236E-03    -15.7474E-03     31.1318E-03    -15.5328E-03     31.7709E-03
             700     8.86136E-03     78.0662E-03    -9.63055E+06    -56.3198E+06     45.2818E+03    -3.48713E+06    -15.8426E-03     31.4664E-03    -15.6237E-03     35.8698E-03    -15.8140E-03     31.2034E-03    -15.5279E-03     35.8151E-03
             701     9.74746E-03     78.1011E-03    -8.18107E+06    -55.4376E+06     302.933E+03    -3.39147E+06    -15.9288E-03     31.5464E-03    -15.6176E-03     39.9280E-03    -15.8970E-03     31.2879E-03    -15.5238E-03     39.8715E-03
             702     10.6337E-03     78.1403E-03    -7.00710E+06    -51.0493E+06    -1.10059E+06    -3.16496E+06    -16.0057E-03     31.6047E-03    -15.5991E-03     43.9300E-03    -15.9762E-03     31.3723E-03    -15.5204E-03     43.8725E-03
             703     11.5198E-03     78.1825E-03    -6.04304E+06    -41.6532E+06     244.390E+03    -2.81627E+06    -16.0671E-03     31.6537E-03    -15.5866E-03     48.2288E-03    -16.0545E-03     31.4711E-03    -15.5163E-03     48.1708E-03
             704     12.4061E-03     78.2299E-03    -5.10099E+06    -36.0875E+06    -645.496E+03    -2.34678E+06    -16.2413E-03     31.8106E-03    -15.5693E-03     54.2048E-03    -16.2418E-03     31.6667E-03    -15.5128E-03     54.1464E-03
             705     13.2924E-03     78.2832E-03    -4.85563E+06    -30.6362E+06    -6.44812E+06    -2.12147E+06    -16.3936E-03     31.9254E-03    -15.5318E-03     58.1077E-03    -16.4093E-03     31.8338E-03    -15.5126E-03     58.0450E-03
             706     14.1773E-03     78.3380E-03    -4.54120E+06    -4.40753E+06    -2.53480E+06    -1.54227E+06    -16.4492E-03     31.9630E-03    -15.5138E-03     62.8508E-03    -16.5358E-03     32.0252E-03    -15.5135E-03     62.7919E-03
             707     15.0651E-03     78.4002E-03    -4.99529E+06     27.6890E+06    -6.59905E+06    -706.883E+03    -17.1872E-03     32.6348E-03    -15.4476E-03     84.7181E-03    -17.4450E-03     32.9923E-03    -15.5135E-03     84.6837E-03
             708     15.9507E-03     78.4955E-03    -5.73379E+06     81.1811E+06    -13.4531E+06    -81.9246E+03    -18.4878E-03     33.8225E-03    -15.3347E-03     121.958E-03    -19.4005E-03     35.0420E-03    -15.5114E-03     122.172E-03
             709     16.8363E-03     78.6270E-03    -3.37546E+06     141.356E+06     41.2386E+06     667.085E+03    -17.5304E-03     33.0276E-03    -15.4972E-03     122.819E-03    -18.8371E-03     34.7045E-03    -15.4911E-03     123.542E-03
             710     886.112E-06     78.8873E-03    -24.6021E+06    -66.3011E+06    -24.0267E+06    -669.274E+03    -15.5805E-03     31.1682E-03    -15.5877E-03     3.55917E-03    -15.5726E-03     30.9072E-03    -15.5760E-03     3.54999E-03
             711     1.77217E-03     78.8918E-03    -23.6464E+06    -65.2002E+06    -21.4862E+06    -1.24221E+06    -15.5822E-03     31.1742E-03    -15.5919E-03     6.57443E-03    -15.5749E-03     30.9137E-03    -15.5705E-03     6.55739E-03
             712     2.65831E-03     78.8995E-03    -22.1793E+06    -64.6384E+06    -17.7718E+06    -1.78272E+06    -15.5859E-03     31.1893E-03    -15.6034E-03     9.80122E-03    -15.5775E-03     30.9242E-03    -15.5663E-03     9.77668E-03
             713     3.54440E-03     78.9100E-03    -20.4058E+06    -63.3020E+06    -13.8565E+06    -2.30652E+06    -15.5929E-03     31.2061E-03    -15.6132E-03     13.1387E-03    -15.5834E-03     30.9397E-03    -15.5611E-03     13.1068E-03
             714     4.43056E-03     78.9238E-03    -18.4940E+06    -61.5921E+06    -10.2391E+06    -2.75118E+06    -15.6067E-03     31.2268E-03    -15.6201E-03     16.5986E-03    -15.5956E-03     30.9611E-03    -15.5552E-03     16.5603E-03
             715     5.31667E-03     78.9407E-03    -16.5861E+06    -60.8013E+06    -7.09320E+06    -3.17455E+06    -15.6324E-03     31.2582E-03    -15.6258E-03     20.1949E-03    -15.6178E-03     30.9894E-03    -15.5490E-03     20.1504E-03
             716     6.20285E-03     78.9612E-03    -14.7078E+06    -60.4353E+06    -4.65327E+06     -3.5557E+06    -15.6689E-03     31.2975E-03    -15.6287E-03     23.9337E-03    -15.6494E-03     31.0248E-03    -15.5430E-03     23.8832E-03
             717     7.08898E-03     78.9851E-03    -12.9887E+06    -59.7454E+06    -2.70990E+06    -3.81165E+06    -15.7157E-03     31.3448E-03    -15.6291E-03     27.8179E-03    -15.6922E-03     31.0709E-03    -15.5372E-03     27.7629E-03
             718     7.97518E-03     79.0128E-03    -11.3748E+06    -57.8077E+06    -1.38907E+06    -4.04902E+06    -15.7697E-03     31.3948E-03    -15.6250E-03     31.8245E-03    -15.7439E-03     31.1274E-03    -15.5317E-03     31.7648E-03
             719     8.86132E-03     79.0440E-03    -9.77625E+06    -55.9493E+06    -431.386E+03    -4.15717E+06    -15.8399E-03     31.4596E-03    -15.6197E-03     35.8894E-03    -15.8118E-03     31.1994E-03    -15.5266E-03     35.8260E-03
             720     9.74753E-03     79.0794E-03    -8.31703E+06    -55.2880E+06    -154.707E+03    -4.06503E+06    -15.9255E-03     31.5394E-03    -15.6139E-03     39.9515E-03    -15.8939E-03     31.2825E-03    -15.5224E-03     39.8863E-03
             721     10.6337E-03     79.1180E-03    -7.04874E+06    -51.1109E+06    -1.48035E+06    -3.79925E+06    -16.0119E-03     31.6079E-03    -15.5961E-03     43.9594E-03    -15.9820E-03     31.3759E-03    -15.5191E-03     43.8937E-03
             722     11.5199E-03     79.1609E-03    -5.99026E+06    -41.5970E+06     88.1034E+03    -3.46707E+06    -16.1120E-03     31.6984E-03    -15.5864E-03     48.2889E-03    -16.0991E-03     31.5162E-03    -15.5169E-03     48.2225E-03
             723     12.4060E-03     79.2075E-03    -5.03202E+06    -36.7138E+06    -936.597E+03    -3.01455E+06    -16.2805E-03     31.8526E-03    -15.5721E-03     54.2524E-03    -16.2795E-03     31.7061E-03    -15.5163E-03     54.1853E-03
             724     13.2919E-03     79.2618E-03    -4.39541E+06    -31.1248E+06    -6.33288E+06    -2.15989E+06    -16.2997E-03     31.8334E-03    -15.5337E-03     58.2266E-03    -16.3123E-03     31.7383E-03    -15.5139E-03     58.1638E-03
             725     14.1791E-03     79.3156E-03    -4.65614E+06    -5.26907E+06    -2.70347E+06    -1.43217E+06    -16.3230E-03     31.8309E-03    -15.5080E-03     63.3323E-03    -16.4088E-03     31.8894E-03    -15.5071E-03     63.2752E-03
             726     15.0639E-03     79.3786E-03    -4.75051E+06     26.4453E+06    -6.83047E+06    -565.896E+03    -17.0250E-03     32.4574E-03    -15.4323E-03     85.1239E-03    -17.2787E-03     32.8078E-03    -15.4980E-03     85.0925E-03
             727     15.9508E-03     79.4731E-03    -4.77395E+06     81.0581E+06    -13.0219E+06     368.291E+03    -18.3421E-03     33.6524E-03    -15.3103E-03     122.735E-03    -19.2533E-03     34.8722E-03    -15.4861E-03     122.957E-03
             728     16.8372E-03     79.6066E-03    -3.65509E+06     141.537E+06     41.2403E+06     275.433E+03    -17.8301E-03     33.3047E-03    -15.4746E-03     123.309E-03    -19.1415E-03     34.9860E-03    -15.4683E-03     124.023E-03
             729     886.071E-06     79.8652E-03    -24.6247E+06    -64.8825E+06    -24.0443E+06    -756.124E+03    -15.5772E-03     31.1640E-03    -15.5869E-03     3.55961E-03    -15.5714E-03     30.9102E-03    -15.5773E-03     3.54931E-03
             730     1.77220E-03     79.8699E-03    -23.7053E+06    -63.8012E+06    -21.5410E+06    -1.38305E+06    -15.5793E-03     31.1690E-03    -15.5896E-03     6.57192E-03    -15.5742E-03     30.9157E-03    -15.5705E-03     6.55307E-03
             731     2.65828E-03     79.8774E-03    -22.2802E+06    -63.3296E+06    -17.9107E+06    -2.01793E+06    -15.5836E-03     31.1843E-03    -15.6007E-03     9.80008E-03    -15.5774E-03     30.9261E-03    -15.5661E-03     9.77250E-03
             732     3.54442E-03     79.8881E-03    -20.5240E+06    -62.0840E+06    -13.9880E+06    -2.55277E+06    -15.5906E-03     31.2014E-03    -15.6108E-03     13.1379E-03    -15.5833E-03     30.9414E-03    -15.5610E-03     13.1029E-03
             733     4.43053E-03     79.9017E-03    -18.6231E+06    -60.4397E+06    -10.4019E+06    -3.08522E+06    -15.6038E-03     31.2214E-03    -15.6176E-03     16.5962E-03    -15.5948E-03     30.9619E-03    -15.5550E-03     16.5536E-03
             734     5.31670E-03     79.9188E-03    -16.6548E+06    -59.7199E+06    -7.29822E+06    -3.56635E+06    -15.6292E-03     31.2521E-03    -15.6229E-03     20.1912E-03    -15.6162E-03     30.9892E-03    -15.5486E-03     20.1416E-03
             735     6.20283E-03     79.9391E-03    -14.7845E+06    -59.4472E+06    -4.82253E+06    -3.98904E+06    -15.6669E-03     31.2930E-03    -15.6260E-03     23.9304E-03    -15.6491E-03     31.0256E-03    -15.5425E-03     23.8744E-03
             736     7.08901E-03     79.9632E-03    -12.9345E+06    -58.9536E+06    -2.89095E+06    -4.33370E+06    -15.7122E-03     31.3386E-03    -15.6264E-03     27.8148E-03    -15.6893E-03     31.0689E-03    -15.5366E-03     27.7531E-03
             737     7.97517E-03     79.9907E-03    -11.2308E+06    -57.0297E+06    -1.53012E+06    -4.57018E+06    -15.7660E-03     31.3882E-03    -15.6221E-03     31.8260E-03    -15.7404E-03     31.1247E-03    -15.5308E-03     31.7596E-03
             738     8.86136E-03     80.0222E-03    -9.78920E+06    -55.4426E+06    -597.378E+03    -4.75949E+06    -15.8316E-03     31.4484E-03    -15.6169E-03     35.8943E-03    -15.8040E-03     31.1910E-03    -15.5253E-03     35.8232E-03
             739     9.74754E-03     80.0572E-03    -8.42968E+06    -55.0693E+06    -427.828E+03    -4.72240E+06    -15.9178E-03     31.5283E-03    -15.6105E-03     39.9658E-03    -15.8868E-03     31.2731E-03    -15.5205E-03     39.8921E-03
             740     10.6337E-03     80.0963E-03    -7.33445E+06    -51.2180E+06    -1.88347E+06    -4.43643E+06    -16.0077E-03     31.6001E-03    -15.5924E-03     43.9805E-03    -15.9785E-03     31.3685E-03    -15.5169E-03     43.9066E-03
             741     11.5199E-03     80.1386E-03    -6.40584E+06    -41.6561E+06    -315.107E+03    -4.02515E+06    -16.1112E-03     31.6939E-03    -15.5828E-03     48.4165E-03    -16.0996E-03     31.5127E-03    -15.5147E-03     48.3429E-03
             742     12.4059E-03     80.1861E-03    -5.72985E+06    -37.2376E+06    -1.63521E+06    -3.47523E+06    -16.2180E-03     31.7840E-03    -15.5660E-03     54.4013E-03    -16.2186E-03     31.6368E-03    -15.5118E-03     54.3284E-03
             743     13.2923E-03     80.2392E-03    -5.23997E+06    -32.3381E+06    -7.12316E+06    -2.54039E+06    -16.2136E-03     31.7372E-03    -15.5236E-03     58.2484E-03    -16.2274E-03     31.6383E-03    -15.5047E-03     58.1810E-03
             744     14.1781E-03     80.2936E-03    -4.12539E+06    -5.83737E+06    -2.58608E+06    -1.59005E+06    -16.2170E-03     31.7111E-03    -15.4940E-03     63.2819E-03    -16.2992E-03     31.7653E-03    -15.4925E-03     63.2233E-03
             745     15.0658E-03     80.3568E-03    -3.81959E+06     25.2921E+06    -6.77888E+06    -724.296E+03    -16.8436E-03     32.2545E-03    -15.4109E-03     84.8892E-03    -17.0900E-03     32.5968E-03    -15.4759E-03     84.8568E-03
             746     15.9519E-03     80.4509E-03    -4.22402E+06     80.7535E+06    -12.6454E+06     59.6378E+03    -18.3067E-03     33.5924E-03    -15.2856E-03     122.334E-03    -19.2135E-03     34.8074E-03    -15.4598E-03     122.551E-03
             747     16.8392E-03     80.5843E-03    -3.52244E+06     142.060E+06     41.6192E+06     261.973E+03    -18.1095E-03     33.5682E-03    -15.4588E-03     122.317E-03    -19.4139E-03     35.2438E-03    -15.4515E-03     123.020E-03
             748     886.108E-06     80.8434E-03    -24.5690E+06    -63.3167E+06    -23.9872E+06    -827.897E+03    -15.5761E-03     31.1603E-03    -15.5841E-03     3.55636E-03    -15.5724E-03     30.9141E-03    -15.5766E-03     3.54514E-03
             749     1.77217E-03     80.8479E-03    -23.6114E+06    -62.2314E+06    -21.4894E+06    -1.53759E+06    -15.5774E-03     31.1650E-03    -15.5876E-03     6.57208E-03    -15.5742E-03     30.9194E-03    -15.5706E-03     6.55123E-03
             750     2.65831E-03     80.8555E-03    -22.1799E+06    -61.8679E+06    -17.8186E+06    -2.22125E+06    -15.5812E-03     31.1801E-03    -15.5989E-03     9.79708E-03    -15.5768E-03     30.9290E-03    -15.5661E-03     9.76688E-03
             751     3.54440E-03     80.8660E-03    -20.4140E+06    -60.7708E+06    -13.9492E+06    -2.83004E+06    -15.5888E-03     31.1976E-03    -15.6088E-03     13.1350E-03    -15.5829E-03     30.9439E-03    -15.5608E-03     13.0963E-03
             752     4.43055E-03     80.8799E-03    -18.5064E+06    -59.0931E+06    -10.4204E+06    -3.41070E+06    -15.6018E-03     31.2170E-03    -15.6152E-03     16.5926E-03    -15.5941E-03     30.9640E-03    -15.5547E-03     16.5458E-03
             753     5.31668E-03     80.8968E-03    -16.6436E+06    -58.5562E+06    -7.40304E+06    -3.94979E+06    -15.6269E-03     31.2472E-03    -15.6204E-03     20.1897E-03    -15.6154E-03     30.9903E-03    -15.5483E-03     20.1351E-03
             754     6.20285E-03     80.9173E-03    -14.8185E+06    -58.3151E+06    -5.02895E+06    -4.41447E+06    -15.6632E-03     31.2861E-03    -15.6230E-03     23.9307E-03    -15.6468E-03     31.0247E-03    -15.5421E-03     23.8692E-03
             755     7.08900E-03     80.9411E-03    -13.0951E+06    -57.9019E+06    -3.08343E+06    -4.91118E+06    -15.7097E-03     31.3333E-03    -15.6236E-03     27.8153E-03    -15.6889E-03     31.0694E-03    -15.5361E-03     27.7462E-03
             756     7.97518E-03     80.9688E-03    -11.3927E+06    -56.3146E+06    -1.75479E+06    -5.19496E+06    -15.7608E-03     31.3803E-03    -15.6195E-03     31.8260E-03    -15.7367E-03     31.1210E-03    -15.5301E-03     31.7515E-03
             757     8.86136E-03     81.0000E-03    -9.80224E+06    -54.7430E+06    -741.854E+03    -5.29434E+06    -15.8261E-03     31.4402E-03    -15.6141E-03     35.8971E-03    -15.7994E-03     31.1865E-03    -15.5242E-03     35.8191E-03
             758     9.74754E-03     81.0353E-03    -8.56505E+06    -54.8589E+06    -731.487E+03    -5.26619E+06    -15.9047E-03     31.5119E-03    -15.6071E-03     39.9693E-03    -15.8742E-03     31.2583E-03    -15.5188E-03     39.8887E-03
             759     10.6338E-03     81.0741E-03    -7.52137E+06    -51.1722E+06    -2.32590E+06    -4.97145E+06    -15.9932E-03     31.5810E-03    -15.5877E-03     44.0151E-03    -15.9644E-03     31.3505E-03    -15.5142E-03     43.9343E-03
             760     11.5199E-03     81.1169E-03    -6.58139E+06    -41.8993E+06    -896.667E+03    -4.58855E+06    -16.0483E-03     31.6233E-03    -15.5750E-03     48.4687E-03    -16.0364E-03     31.4419E-03    -15.5092E-03     48.3880E-03
             761     12.4063E-03     81.1638E-03    -5.55304E+06    -37.7178E+06    -2.08965E+06    -3.88124E+06    -16.1163E-03     31.6695E-03    -15.5532E-03     54.2593E-03    -16.1144E-03     31.5200E-03    -15.5009E-03     54.1815E-03
             762     13.2925E-03     81.2173E-03    -5.20366E+06    -33.1728E+06    -7.87994E+06    -2.95787E+06    -16.2286E-03     31.7363E-03    -15.5078E-03     58.2484E-03    -16.2399E-03     31.6343E-03    -15.4915E-03     58.1754E-03
             763     14.1791E-03     81.2716E-03    -5.27055E+06    -7.23102E+06    -4.08575E+06    -1.99779E+06    -16.2676E-03     31.7475E-03    -15.4799E-03     63.2369E-03    -16.3511E-03     31.7985E-03    -15.4822E-03     63.1729E-03
             764     15.0646E-03     81.3341E-03    -4.75840E+06     24.8669E+06    -7.77872E+06    -1.00881E+06    -17.0270E-03     32.4326E-03    -15.4057E-03     84.4498E-03    -17.2763E-03     32.7759E-03    -15.4737E-03     84.4125E-03
             765     15.9516E-03     81.4287E-03    -5.02809E+06     80.2240E+06    -13.6739E+06    -373.983E+03    -18.6040E-03     33.8988E-03    -15.2948E-03     121.981E-03    -19.5127E-03     35.1141E-03    -15.4722E-03     122.187E-03
             766     16.8358E-03     81.5634E-03    -4.13999E+06     141.510E+06     40.6808E+06    -3.58131E+03    -17.9310E-03     33.4026E-03    -15.4716E-03     122.349E-03    -19.2358E-03     35.0771E-03    -15.4674E-03     123.049E-03
             767     886.078E-06     81.8213E-03    -24.4523E+06    -61.5677E+06    -23.9134E+06    -946.878E+03    -15.5740E-03     31.1566E-03    -15.5826E-03     3.55444E-03    -15.5723E-03     30.9190E-03    -15.5775E-03     3.54169E-03
             768     1.77220E-03     81.8260E-03    -23.5126E+06    -60.4949E+06    -21.3971E+06    -1.70210E+06    -15.5754E-03     31.1611E-03    -15.5858E-03     6.56858E-03    -15.5743E-03     30.9239E-03    -15.5709E-03     6.54560E-03
             769     2.65828E-03     81.8335E-03    -22.0625E+06    -60.2691E+06    -17.7241E+06    -2.45812E+06    -15.5795E-03     31.1766E-03    -15.5971E-03     9.79450E-03    -15.5769E-03     30.9331E-03    -15.5664E-03     9.76125E-03
             770     3.54442E-03     81.8442E-03    -20.2459E+06    -59.2433E+06    -13.8781E+06    -3.16447E+06    -15.5858E-03     31.1926E-03    -15.6067E-03     13.1324E-03    -15.5814E-03     30.9462E-03    -15.5609E-03     13.0894E-03
             771     4.43054E-03     81.8578E-03    -18.2884E+06    -57.6857E+06    -10.3890E+06    -3.79662E+06    -15.5990E-03     31.2117E-03    -15.6127E-03     16.5912E-03    -15.5923E-03     30.9654E-03    -15.5545E-03     16.5394E-03
             772     5.31669E-03     81.8749E-03    -16.3241E+06    -57.2458E+06    -7.30260E+06    -4.33177E+06    -15.6249E-03     31.2429E-03    -15.6180E-03     20.1870E-03    -15.6138E-03     30.9918E-03    -15.5478E-03     20.1275E-03
             773     6.20284E-03     81.8952E-03    -14.4861E+06    -57.0865E+06    -4.90350E+06    -4.84968E+06    -15.6613E-03     31.2820E-03    -15.6207E-03     23.9287E-03    -15.6453E-03     31.0261E-03    -15.5414E-03     23.8616E-03
             774     7.08901E-03     81.9192E-03    -12.8200E+06    -56.6842E+06    -2.97102E+06    -5.30331E+06    -15.7067E-03     31.3278E-03    -15.6212E-03     27.8139E-03    -15.6864E-03     31.0694E-03    -15.5352E-03     27.7397E-03
             775     7.97518E-03     81.9467E-03    -11.3173E+06    -55.3597E+06    -1.77382E+06    -5.77779E+06    -15.7581E-03     31.3750E-03    -15.6170E-03     31.8250E-03    -15.7350E-03     31.1204E-03    -15.5292E-03     31.7430E-03
             776     8.86136E-03     81.9782E-03    -9.93097E+06    -54.2891E+06    -1.06960E+06    -5.83437E+06    -15.8185E-03     31.4293E-03    -15.6107E-03     35.9043E-03    -15.7927E-03     31.1785E-03    -15.5230E-03     35.8193E-03
             777     9.74758E-03     82.0132E-03    -8.69972E+06    -54.3765E+06    -968.032E+03    -5.69769E+06    -15.8946E-03     31.4982E-03    -15.6036E-03     39.9679E-03    -15.8651E-03     31.2475E-03    -15.5170E-03     39.8817E-03
             778     10.6337E-03     82.0522E-03    -7.58160E+06    -51.0311E+06    -2.64878E+06    -5.68808E+06    -15.9686E-03     31.5515E-03    -15.5829E-03     44.0299E-03    -15.9398E-03     31.3223E-03    -15.5112E-03     43.9399E-03
             779     11.5200E-03     82.0947E-03    -6.39490E+06    -42.0106E+06    -1.17696E+06    -5.28339E+06    -16.0228E-03     31.5915E-03    -15.5687E-03     48.3943E-03    -16.0093E-03     31.4096E-03    -15.5044E-03     48.3046E-03
             780     12.4062E-03     82.1419E-03    -5.40447E+06    -38.4416E+06    -2.42686E+06    -4.64367E+06    -16.1344E-03     31.6822E-03    -15.5478E-03     54.0535E-03    -16.1302E-03     31.5293E-03    -15.4963E-03     53.9658E-03
             781     13.2926E-03     82.1950E-03    -4.59573E+06    -34.2049E+06    -7.97989E+06    -3.51072E+06    -16.2245E-03     31.7288E-03    -15.5043E-03     58.0547E-03    -16.2312E-03     31.6209E-03    -15.4879E-03     57.9746E-03
             782     14.1787E-03     82.2497E-03    -4.43177E+06    -8.07935E+06    -4.18977E+06    -2.26438E+06    -16.3669E-03     31.8459E-03    -15.4790E-03     62.9908E-03    -16.4447E-03     31.8914E-03    -15.4818E-03     62.9230E-03
             783     15.0656E-03     82.3122E-03    -4.57813E+06     23.6182E+06    -8.40015E+06    -1.22284E+06    -17.2189E-03     32.6305E-03    -15.4116E-03     84.8108E-03    -17.4657E-03     32.9693E-03    -15.4812E-03     84.7694E-03
             784     15.9502E-03     82.4078E-03    -4.05398E+06     79.4537E+06    -14.9922E+06    -270.763E+03    -18.4506E-03     33.7447E-03    -15.2941E-03     122.866E-03    -19.3557E-03     34.9609E-03    -15.4784E-03     123.081E-03
             785     16.8388E-03     82.5406E-03    -3.20718E+06     141.496E+06     39.7801E+06     10.6352E+03    -17.8843E-03     33.3480E-03    -15.4637E-03     122.992E-03    -19.1886E-03     35.0278E-03    -15.4653E-03     123.700E-03
             786     886.099E-06     82.7995E-03    -24.3370E+06    -59.5922E+06    -23.7612E+06    -1.06795E+06    -15.5735E-03     31.1537E-03    -15.5802E-03     3.55206E-03    -15.5743E-03     30.9255E-03    -15.5773E-03     3.53774E-03
             787     1.77218E-03     82.8040E-03    -23.3843E+06    -58.6388E+06    -21.2946E+06    -1.86958E+06    -15.5726E-03     31.1566E-03    -15.5840E-03     6.56730E-03    -15.5737E-03     30.9283E-03    -15.5716E-03     6.54217E-03
             788     2.65830E-03     82.8116E-03    -21.9373E+06    -58.4183E+06    -17.6705E+06    -2.72972E+06    -15.5762E-03     31.1709E-03    -15.5947E-03     9.79362E-03    -15.5758E-03     30.9364E-03    -15.5665E-03     9.75686E-03
             789     3.54441E-03     82.8221E-03    -20.1021E+06    -57.5121E+06    -13.8373E+06    -3.57746E+06    -15.5827E-03     31.1867E-03    -15.6040E-03     13.1309E-03    -15.5801E-03     30.9487E-03    -15.5607E-03     13.0826E-03
             790     4.43055E-03     82.8359E-03    -18.1301E+06    -56.1804E+06    -10.3634E+06    -4.24257E+06    -15.5954E-03     31.2053E-03    -15.6099E-03     16.5899E-03    -15.5902E-03     30.9663E-03    -15.5540E-03     16.5324E-03
             791     5.31669E-03     82.8528E-03    -16.1921E+06    -55.8366E+06    -7.31154E+06    -4.80987E+06    -15.6214E-03     31.2364E-03    -15.6150E-03     20.1865E-03    -15.6117E-03     30.9922E-03    -15.5471E-03     20.1209E-03
             792     6.20285E-03     82.8733E-03    -14.3279E+06    -55.7761E+06    -4.87258E+06    -5.30125E+06    -15.6578E-03     31.2756E-03    -15.6177E-03     23.9289E-03    -15.6429E-03     31.0259E-03    -15.5404E-03     23.8559E-03
             793     7.08902E-03     82.8971E-03    -12.5179E+06    -55.3867E+06    -2.91904E+06    -5.83153E+06    -15.7019E-03     31.3198E-03    -15.6179E-03     27.8160E-03    -15.6820E-03     31.0673E-03    -15.5340E-03     27.7349E-03
             794     7.97519E-03     82.9248E-03    -10.9367E+06    -54.3361E+06    -1.60028E+06    -6.13354E+06    -15.7548E-03     31.3691E-03    -15.6143E-03     31.8237E-03    -15.7315E-03     31.1187E-03    -15.5276E-03     31.7371E-03
             795     8.86139E-03     82.9560E-03    -9.72709E+06    -53.8149E+06    -932.846E+03    -6.19373E+06    -15.8142E-03     31.4229E-03    -15.6087E-03     35.8944E-03    -15.7882E-03     31.1740E-03    -15.5212E-03     35.8048E-03
             796     9.74758E-03     82.9913E-03    -8.49051E+06    -53.6724E+06    -981.883E+03    -6.30219E+06    -15.8886E-03     31.4888E-03    -15.6002E-03     39.9698E-03    -15.8591E-03     31.2414E-03    -15.5149E-03     39.8757E-03
             797     10.6338E-03     83.0300E-03    -7.34116E+06    -50.5771E+06    -2.59463E+06    -6.38140E+06    -15.9703E-03     31.5504E-03    -15.5801E-03     44.0007E-03    -15.9410E-03     31.3230E-03    -15.5091E-03     43.9017E-03
             798     11.5200E-03     83.0728E-03    -6.36273E+06    -42.3137E+06    -1.43707E+06    -6.06166E+06    -16.0241E-03     31.5902E-03    -15.5661E-03     48.3540E-03    -16.0097E-03     31.4071E-03    -15.5027E-03     48.2543E-03
             799     12.4063E-03     83.1197E-03    -5.45847E+06    -38.9740E+06    -2.82945E+06    -5.29511E+06    -16.1786E-03     31.7252E-03    -15.5465E-03     54.0780E-03    -16.1734E-03     31.5704E-03    -15.4963E-03     53.9818E-03
             800     13.2924E-03     83.1730E-03    -4.71294E+06    -35.4886E+06    -8.70834E+06    -4.45877E+06    -16.3385E-03     31.8461E-03    -15.5076E-03     58.0868E-03    -16.3429E-03     31.7331E-03    -15.4929E-03     57.9942E-03
             801     14.1788E-03     83.2275E-03    -3.69892E+06    -9.37370E+06    -4.64071E+06    -3.08755E+06    -16.4131E-03     31.9000E-03    -15.4869E-03     63.1413E-03    -16.4851E-03     31.9390E-03    -15.4911E-03     63.0626E-03
             802     15.0642E-03     83.2907E-03    -2.90502E+06     22.2448E+06    -7.97340E+06    -1.35120E+06    -16.9661E-03     32.3819E-03    -15.4158E-03     84.7668E-03    -17.2018E-03     32.7093E-03    -15.4837E-03     84.7255E-03
             803     15.9524E-03     83.3852E-03    -3.77742E+06     78.5850E+06    -15.0344E+06    -343.073E+03    -18.3992E-03     33.6881E-03    -15.2888E-03     122.509E-03    -19.3006E-03     34.8986E-03    -15.4725E-03     122.722E-03
             804     16.8370E-03     83.5190E-03    -3.76019E+06     141.661E+06     39.4927E+06     122.045E+03    -18.0480E-03     33.5093E-03    -15.4612E-03     122.479E-03    -19.3530E-03     35.1892E-03    -15.4637E-03     123.184E-03
             805     886.082E-06     83.7774E-03    -24.0062E+06    -57.4188E+06    -23.4418E+06    -1.13640E+06    -15.5700E-03     31.1483E-03    -15.5783E-03     3.54935E-03    -15.5728E-03     30.9301E-03    -15.5774E-03     3.53415E-03
             806     1.77219E-03     83.7821E-03    -23.0969E+06    -56.6170E+06    -21.0362E+06    -2.04879E+06    -15.5706E-03     31.1520E-03    -15.5814E-03     6.56667E-03    -15.5736E-03     30.9330E-03    -15.5710E-03     6.53922E-03
             807     2.65829E-03     83.7896E-03    -21.6634E+06    -56.3104E+06    -17.5065E+06    -3.01265E+06    -15.5725E-03     31.1639E-03    -15.5914E-03     9.79277E-03    -15.5740E-03     30.9393E-03    -15.5659E-03     9.75235E-03
             808     3.54442E-03     83.8002E-03    -19.9041E+06    -55.5469E+06    -13.7133E+06    -3.97775E+06    -15.5786E-03     31.1791E-03    -15.6005E-03     13.1306E-03    -15.5780E-03     30.9505E-03    -15.5597E-03     13.0772E-03
             809     4.43055E-03     83.8139E-03    -17.9731E+06     -54.576E+06    -10.2466E+06    -4.70846E+06    -15.5918E-03     31.1986E-03    -15.6068E-03     16.5909E-03    -15.5883E-03     30.9672E-03    -15.5528E-03     16.5273E-03
             810     5.31670E-03     83.8309E-03    -16.0421E+06    -54.3126E+06    -7.26063E+06    -5.26933E+06    -15.6164E-03     31.2278E-03    -15.6114E-03     20.1889E-03    -15.6082E-03     30.9909E-03    -15.5457E-03     20.1173E-03
             811     6.20286E-03     83.8512E-03    -14.1742E+06    -54.3516E+06    -4.86667E+06    -5.84586E+06    -15.6517E-03     31.2654E-03    -15.6137E-03     23.9326E-03    -15.6381E-03     31.0227E-03    -15.5387E-03     23.8527E-03
             812     7.08903E-03     83.8752E-03    -12.4300E+06    -53.9438E+06    -2.87131E+06    -6.39869E+06    -15.6961E-03     31.3099E-03    -15.6138E-03     27.8212E-03    -15.6780E-03     31.0645E-03    -15.5319E-03     27.7329E-03
             813     7.97522E-03     83.9026E-03    -10.8717E+06    -53.6739E+06    -1.55777E+06    -6.56127E+06    -15.7491E-03     31.3601E-03    -15.6111E-03     31.8252E-03    -15.7265E-03     31.1129E-03    -15.5252E-03     31.7331E-03
             814     8.86139E-03     83.9341E-03    -9.38962E+06    -52.9149E+06    -792.635E+03    -6.61513E+06    -15.8113E-03     31.4163E-03    -15.6051E-03     35.8958E-03    -15.7851E-03     31.1713E-03    -15.5187E-03     35.8007E-03
             815     9.74762E-03     83.9691E-03    -8.09299E+06    -52.7925E+06    -891.401E+03    -6.95081E+06    -15.8899E-03     31.4862E-03    -15.5963E-03     39.9812E-03    -15.8598E-03     31.2426E-03    -15.5125E-03     39.8788E-03
             816     10.6338E-03     84.0082E-03    -7.01393E+06    -50.0942E+06    -2.59684E+06    -6.98313E+06    -15.9789E-03     31.5559E-03    -15.5770E-03     44.0293E-03    -15.9487E-03     31.3305E-03    -15.5072E-03     43.9226E-03
             817     11.5200E-03     84.0506E-03    -6.12623E+06    -42.4250E+06    -1.63447E+06    -6.70154E+06    -16.0279E-03     31.5915E-03    -15.5636E-03     48.3313E-03    -16.0118E-03     31.4078E-03    -15.5013E-03     48.2233E-03
             818     12.4063E-03     84.0977E-03    -5.12131E+06    -39.4200E+06    -3.04427E+06    -6.12061E+06    -16.1894E-03     31.7341E-03    -15.5447E-03     54.1655E-03    -16.1816E-03     31.5769E-03    -15.4953E-03     54.0587E-03
             819     13.2925E-03     84.1511E-03    -4.61537E+06    -36.0420E+06    -9.02105E+06    -5.23140E+06    -16.3857E-03     31.8930E-03    -15.5073E-03     58.2830E-03    -16.3886E-03     31.7777E-03    -15.4935E-03     58.1803E-03
             820     14.1782E-03     84.2057E-03    -4.56685E+06    -11.3595E+06    -5.69394E+06    -3.84915E+06    -16.3926E-03     31.8794E-03    -15.4868E-03     63.3410E-03    -16.4647E-03     31.9115E-03    -15.4922E-03     63.2527E-03
             821     15.0655E-03     84.2684E-03    -4.52563E+06     20.0790E+06    -9.10220E+06    -1.80796E+06    -17.0347E-03     32.4528E-03    -15.4181E-03     84.6422E-03    -17.2736E-03     32.7734E-03    -15.4862E-03     84.5945E-03
             822     15.9504E-03     84.3627E-03    -4.88294E+06     77.7647E+06    -15.8408E+06    -16.0378E+03    -18.5321E-03     33.8272E-03    -15.2951E-03     122.843E-03    -19.4396E-03     35.0394E-03    -15.4800E-03     123.060E-03
             823     16.8373E-03     84.4986E-03    -3.98625E+06     141.810E+06     38.9747E+06     178.770E+03    -17.9029E-03     33.3673E-03    -15.4643E-03     122.847E-03    -19.2096E-03     35.0502E-03    -15.4693E-03     123.556E-03
             824     886.100E-06     84.7556E-03    -23.5253E+06    -55.0960E+06    -22.9975E+06    -1.21533E+06    -15.5669E-03     31.1402E-03    -15.5732E-03     3.55037E-03    -15.5713E-03     30.9322E-03    -15.5742E-03     3.53415E-03
             825     1.77219E-03     84.7601E-03    -22.6284E+06    -54.3645E+06    -20.5798E+06    -2.20865E+06    -15.5674E-03     31.1449E-03    -15.5775E-03     6.56478E-03    -15.5720E-03     30.9359E-03    -15.5688E-03     6.53526E-03
             826     2.65830E-03     84.7677E-03    -21.2229E+06    -53.9838E+06    -17.1266E+06    -3.30521E+06    -15.5681E-03     31.1552E-03    -15.5871E-03     9.79287E-03    -15.5713E-03     30.9411E-03    -15.5637E-03     9.74868E-03
             827     3.54443E-03     84.7782E-03    -19.5001E+06    -53.4298E+06    -13.3245E+06    -4.28973E+06    -15.5740E-03     31.1705E-03    -15.5965E-03     13.1312E-03    -15.5750E-03     30.9513E-03    -15.5574E-03     13.0737E-03
             828     4.43056E-03     84.7920E-03    -17.6521E+06    -52.7420E+06    -9.88394E+06    -5.13039E+06    -15.5871E-03     31.1901E-03    -15.6030E-03     16.5918E-03    -15.5851E-03     30.9669E-03    -15.5503E-03     16.5228E-03
             829     5.31672E-03     84.8088E-03    -15.7083E+06    -52.7277E+06    -7.04470E+06    -5.78595E+06    -15.6102E-03     31.2171E-03    -15.6069E-03     20.1921E-03    -15.6030E-03     30.9874E-03    -15.5429E-03     20.1138E-03
             830     6.20287E-03     84.8293E-03    -13.8496E+06    -52.7257E+06    -4.69786E+06    -6.36418E+06    -15.6436E-03     31.2521E-03    -15.6085E-03     23.9395E-03    -15.6310E-03     31.0168E-03    -15.5354E-03     23.8529E-03
             831     7.08906E-03     84.8531E-03    -12.2234E+06    -52.6209E+06    -2.79482E+06    -6.81914E+06    -15.6877E-03     31.2959E-03    -15.6082E-03     27.8327E-03    -15.6706E-03     31.0567E-03    -15.5282E-03     27.7389E-03
             832     7.97523E-03     84.8808E-03    -10.7067E+06    -52.8166E+06    -1.52302E+06    -7.07662E+06    -15.7416E-03     31.3472E-03    -15.6056E-03     31.8359E-03    -15.7195E-03     31.1040E-03    -15.5211E-03     31.7372E-03
             833     8.86146E-03     84.9119E-03    -9.17616E+06    -51.9074E+06    -779.677E+03    -7.32935E+06    -15.8038E-03     31.4027E-03    -15.5989E-03     35.9207E-03    -15.7780E-03     31.1623E-03    -15.5142E-03     35.8165E-03
             834     9.74763E-03     84.9472E-03    -7.80885E+06    -51.8170E+06    -762.406E+03    -7.50101E+06    -15.8898E-03     31.4805E-03    -15.5907E-03     40.0207E-03    -15.8598E-03     31.2411E-03    -15.5081E-03     39.9112E-03
             835     10.6339E-03     84.9859E-03    -6.91275E+06    -49.7646E+06    -2.64243E+06    -7.47219E+06    -15.9712E-03     31.5430E-03    -15.5718E-03     44.0650E-03    -15.9409E-03     31.3191E-03    -15.5028E-03     43.9519E-03
             836     11.5201E-03     85.0288E-03    -6.13293E+06    -42.0319E+06    -1.60232E+06    -7.26754E+06    -16.0600E-03     31.6199E-03    -15.5599E-03     48.3629E-03    -16.0446E-03     31.4382E-03    -15.4981E-03     48.2475E-03
             837     12.4062E-03     85.0754E-03    -5.46281E+06    -39.9316E+06    -3.35609E+06    -6.89581E+06    -16.2317E-03     31.7758E-03    -15.5440E-03     54.1850E-03    -16.2245E-03     31.6171E-03    -15.4950E-03     54.0680E-03
             838     13.2925E-03     85.1293E-03    -5.00369E+06    -37.0091E+06    -9.29024E+06    -5.75477E+06    -16.2853E-03     31.7912E-03    -15.5059E-03     58.2486E-03    -16.2882E-03     31.6719E-03    -15.4914E-03     58.1394E-03
             839     14.1790E-03     85.1836E-03    -4.92250E+06    -12.4722E+06    -5.88531E+06    -4.23498E+06    -16.3827E-03     31.8652E-03    -15.4825E-03     63.3389E-03    -16.4547E-03     31.8926E-03    -15.4867E-03     63.2455E-03
             840     15.0644E-03     85.2464E-03    -4.89509E+06     17.1671E+06    -9.99413E+06    -2.51524E+06    -17.2019E-03     32.6194E-03    -15.4175E-03     84.8340E-03    -17.4389E-03     32.9289E-03    -15.4852E-03     84.7762E-03
             841     15.9513E-03     85.3415E-03    -4.36939E+06     75.8878E+06    -17.7151E+06    -352.001E+03    -18.3610E-03     33.6471E-03    -15.2861E-03     123.085E-03    -19.2598E-03     34.8512E-03    -15.4784E-03     123.302E-03
             842     16.8379E-03     85.4756E-03    -3.16545E+06     142.128E+06     37.7613E+06     303.303E+03    -17.7994E-03     33.2459E-03    -15.4466E-03     123.169E-03    -19.1013E-03     34.9317E-03    -15.4593E-03     123.884E-03
             843     886.090E-06     85.7336E-03    -23.0453E+06    -52.5983E+06    -22.4666E+06    -1.31557E+06    -15.5614E-03     31.1288E-03    -15.5674E-03     3.55074E-03    -15.5678E-03     30.9319E-03    -15.5701E-03     3.53323E-03
             844     1.77220E-03     85.7383E-03    -22.0613E+06    -51.8941E+06    -20.0359E+06    -2.41157E+06    -15.5612E-03     31.1331E-03    -15.5718E-03     6.56402E-03    -15.5673E-03     30.9347E-03    -15.5648E-03     6.53189E-03
             845     2.65831E-03     85.7457E-03    -20.6633E+06    -51.4923E+06    -16.5213E+06    -3.53980E+06    -15.5618E-03     31.1433E-03    -15.5815E-03     9.79264E-03    -15.5667E-03     30.9399E-03    -15.5595E-03     9.74542E-03
             846     3.54443E-03     85.7563E-03    -18.9735E+06    -51.2139E+06    -12.7710E+06    -4.57799E+06    -15.5676E-03     31.1586E-03    -15.5909E-03     13.1330E-03    -15.5701E-03     30.9489E-03    -15.5530E-03     13.0718E-03
             847     4.43058E-03     85.7699E-03    -17.1460E+06    -50.6775E+06    -9.42974E+06    -5.45998E+06    -15.5790E-03     31.1759E-03    -15.5969E-03     16.5961E-03    -15.5781E-03     30.9616E-03    -15.5457E-03     16.5228E-03
             848     5.31673E-03     85.7870E-03    -15.3662E+06    -50.9517E+06    -6.75996E+06    -6.24360E+06    -15.6001E-03     31.2002E-03    -15.6001E-03     20.1992E-03    -15.5942E-03     30.9785E-03    -15.5377E-03     20.1151E-03
             849     6.20292E-03     85.8072E-03    -13.6297E+06    -51.0946E+06    -4.69995E+06    -6.83875E+06    -15.6308E-03     31.2307E-03    -15.5999E-03     23.9558E-03    -15.6195E-03     31.0032E-03    -15.5295E-03     23.8630E-03
             850     7.08909E-03     85.8312E-03    -11.9862E+06    -51.3345E+06    -2.84324E+06    -7.23685E+06    -15.6738E-03     31.2729E-03    -15.5990E-03     27.8544E-03    -15.6573E-03     31.0398E-03    -15.5214E-03     27.7552E-03
             851     7.97531E-03     85.8586E-03    -10.4736E+06    -51.6023E+06    -1.45473E+06    -7.58576E+06    -15.7295E-03     31.3259E-03    -15.5964E-03     31.8644E-03    -15.7080E-03     31.0883E-03    -15.5137E-03     31.7591E-03
             852     8.86148E-03     85.8901E-03    -9.08199E+06    -50.7207E+06    -699.599E+03    -7.99004E+06    -15.7935E-03     31.3833E-03    -15.5897E-03     35.9573E-03    -15.7692E-03     31.1486E-03    -15.5065E-03     35.8446E-03
             853     9.74775E-03     85.9250E-03    -7.83070E+06    -51.1351E+06    -779.859E+03    -8.08452E+06    -15.8749E-03     31.4565E-03    -15.5816E-03     40.0752E-03    -15.8460E-03     31.2205E-03    -15.5000E-03     39.9583E-03
             854     10.6339E-03     85.9641E-03    -6.84905E+06    -49.2633E+06    -2.63466E+06    -7.88010E+06    -15.9736E-03     31.5365E-03    -15.5630E-03     44.1122E-03    -15.9436E-03     31.3150E-03    -15.4948E-03     43.9939E-03
             855     11.5202E-03     86.0064E-03     -6.1386E+06    -41.7280E+06    -1.83073E+06    -7.68414E+06    -16.0733E-03     31.6247E-03    -15.5514E-03     48.4783E-03    -16.0581E-03     31.4449E-03    -15.4912E-03     48.3576E-03
             856     12.4063E-03     86.0539E-03    -5.61453E+06    -39.8643E+06    -3.56751E+06    -7.26275E+06    -16.2290E-03     31.7658E-03    -15.5368E-03     54.3610E-03    -16.2224E-03     31.6081E-03    -15.4887E-03     54.2393E-03
             857     13.2923E-03     86.1068E-03    -5.17928E+06    -38.6224E+06    -10.5108E+06    -6.23654E+06    -16.3385E-03     31.8364E-03    -15.4979E-03     58.2989E-03    -16.3382E-03     31.7110E-03    -15.4869E-03     58.1834E-03
             858     14.1787E-03     86.1615E-03    -4.47533E+06    -13.9793E+06    -6.86314E+06    -4.79475E+06    -16.3519E-03     31.8272E-03    -15.4753E-03     63.4351E-03    -16.4181E-03     31.8478E-03    -15.4829E-03     63.3346E-03
             859     15.0653E-03     86.2250E-03    -3.84758E+06     15.6781E+06    -10.5344E+06    -3.05475E+06    -17.1509E-03     32.5594E-03    -15.4085E-03     85.1214E-03    -17.3801E-03     32.8612E-03    -15.4783E-03     85.0572E-03
             860     15.9510E-03     86.3188E-03    -4.29367E+06     73.5518E+06    -20.6382E+06    -1.27547E+06    -18.5342E-03     33.8062E-03    -15.2720E-03     122.453E-03    -19.4239E-03     35.0016E-03    -15.4756E-03     122.652E-03
             861     16.8378E-03     86.4535E-03    -3.27641E+06     141.674E+06     35.9862E+06    -26.3318E+03    -17.7885E-03     33.2309E-03    -15.4424E-03     122.762E-03    -19.0880E-03     34.9174E-03    -15.4631E-03     123.469E-03
             862     886.105E-06     86.7117E-03    -22.4320E+06    -49.8227E+06    -21.9671E+06    -1.49157E+06    -15.5527E-03     31.1113E-03    -15.5586E-03     3.55611E-03    -15.5608E-03     30.9267E-03    -15.5637E-03     3.53633E-03
             863     1.77221E-03     86.7162E-03    -21.5033E+06    -49.2526E+06    -19.4849E+06    -2.63263E+06    -15.5519E-03     31.1150E-03    -15.5631E-03     6.56490E-03    -15.5598E-03     30.9282E-03    -15.5579E-03     6.52993E-03
             864     2.65832E-03     86.7238E-03    -20.1283E+06    -48.9558E+06    -16.0113E+06    -3.73278E+06    -15.5516E-03     31.1240E-03    -15.5724E-03     9.79570E-03    -15.5582E-03     30.9318E-03    -15.5523E-03     9.74600E-03
             865     3.54447E-03     86.7343E-03    -18.4835E+06    -48.7866E+06    -12.2993E+06    -4.81930E+06    -15.5555E-03     31.1368E-03    -15.5813E-03     13.1383E-03    -15.5597E-03     30.9379E-03    -15.5453E-03     13.0740E-03
             866     4.43061E-03     86.7480E-03    -16.6774E+06    -48.5204E+06    -9.06038E+06    -5.80264E+06    -15.5646E-03     31.1509E-03    -15.5864E-03     16.6058E-03    -15.5650E-03     30.9462E-03    -15.5371E-03     16.5281E-03
             867     5.31679E-03     86.7649E-03    -14.8553E+06    -48.9701E+06    -6.39507E+06    -6.59197E+06    -15.5840E-03     31.1728E-03    -15.5888E-03     20.2139E-03    -15.5789E-03     30.9596E-03    -15.5282E-03     20.1253E-03
             868     6.20296E-03     86.7853E-03    -13.1785E+06    -49.4126E+06    -4.45831E+06    -7.26830E+06    -15.6132E-03     31.2007E-03    -15.5875E-03     23.9790E-03    -15.6023E-03     30.9806E-03    -15.5191E-03     23.8807E-03
             869     7.08919E-03     86.8091E-03    -11.6176E+06    -50.0031E+06    -2.80129E+06    -7.68520E+06    -15.6536E-03     31.2388E-03    -15.5852E-03     27.8881E-03    -15.6372E-03     31.0118E-03    -15.5099E-03     27.7832E-03
             870     7.97538E-03     86.8367E-03    -10.2093E+06    -50.2550E+06    -1.38943E+06    -8.00891E+06    -15.7083E-03     31.2902E-03    -15.5819E-03     31.9138E-03    -15.6876E-03     31.0588E-03    -15.5011E-03     31.8030E-03
             871     8.86164E-03     86.8679E-03    -8.98066E+06    -49.3479E+06    -597.035E+03    -8.42142E+06    -15.7755E-03     31.3503E-03    -15.5748E-03     36.0238E-03    -15.7527E-03     31.1222E-03    -15.4932E-03     35.9055E-03
             872     9.74781E-03     86.9031E-03    -7.85295E+06    -50.4585E+06    -789.399E+03    -8.64513E+06    -15.8547E-03     31.4215E-03    -15.5668E-03     40.1440E-03    -15.8269E-03     31.1889E-03    -15.4862E-03     40.0199E-03
             873     10.6341E-03     86.9418E-03    -6.68818E+06    -48.7057E+06    -2.66204E+06    -8.56002E+06    -15.9562E-03     31.5036E-03    -15.5474E-03     44.2534E-03    -15.9262E-03     31.2847E-03    -15.4804E-03     44.1264E-03
             874     11.5202E-03     86.9847E-03    -5.65432E+06    -41.6207E+06    -1.85061E+06    -8.16693E+06    -16.0515E-03     31.5869E-03    -15.5354E-03     48.6437E-03    -16.0339E-03     31.4068E-03    -15.4761E-03     48.5168E-03
             875     12.4066E-03     87.0314E-03    -4.79219E+06    -39.9507E+06    -3.24408E+06    -7.69264E+06    -16.1793E-03     31.6997E-03    -15.5204E-03     54.4429E-03    -16.1688E-03     31.5397E-03    -15.4717E-03     54.3158E-03
             876     13.2930E-03     87.0852E-03    -4.59451E+06    -39.2916E+06    -10.4274E+06    -6.83533E+06    -16.3543E-03     31.8350E-03    -15.4807E-03     58.6503E-03    -16.3503E-03     31.7055E-03    -15.4692E-03     58.5272E-03
             877     14.1785E-03     87.1395E-03    -4.57693E+06    -15.7851E+06    -7.89779E+06    -5.47570E+06    -16.5278E-03     31.9892E-03    -15.4614E-03     63.6848E-03    -16.5908E-03     32.0028E-03    -15.4714E-03     63.5750E-03
             878     15.0653E-03     87.2021E-03    -4.20966E+06     13.7941E+06    -11.0873E+06    -3.79090E+06    -17.3113E-03     32.7191E-03    -15.4078E-03     85.0344E-03    -17.5379E-03     33.0119E-03    -15.4771E-03     84.9598E-03
             879     15.9512E-03     87.2986E-03    -3.99369E+06     71.8891E+06    -21.9329E+06     -1.6919E+06    -18.6499E-03     33.9241E-03    -15.2742E-03     122.346E-03    -19.5343E-03     35.1131E-03    -15.4823E-03     122.540E-03
             880     16.8365E-03     87.4305E-03    -3.02059E+06     140.945E+06     34.4306E+06    -123.904E+03    -17.7427E-03     33.1862E-03    -15.4435E-03     122.870E-03    -19.0413E-03     34.8746E-03    -15.4713E-03     123.580E-03
             881     886.106E-06     87.6897E-03    -21.7535E+06    -46.7352E+06    -21.2042E+06    -1.67586E+06    -15.5402E-03     31.0858E-03    -15.5456E-03     3.55540E-03    -15.5505E-03     30.9144E-03    -15.5523E-03     3.53324E-03
             882     1.77223E-03     87.6944E-03    -20.8317E+06    -46.5059E+06    -18.8608E+06    -2.81317E+06    -15.5376E-03     31.0876E-03    -15.5500E-03     6.56812E-03    -15.5470E-03     30.9127E-03    -15.5467E-03     6.53081E-03
             883     2.65836E-03     87.7018E-03    -19.4616E+06    -46.2944E+06    -15.4756E+06    -3.97290E+06    -15.5356E-03     31.0937E-03    -15.5582E-03     9.80213E-03    -15.5435E-03     30.9131E-03    -15.5402E-03     9.74935E-03
             884     3.54450E-03     87.7124E-03    -17.7309E+06    -46.2292E+06    -11.7620E+06    -5.11026E+06    -15.5363E-03     31.1023E-03    -15.5660E-03     13.1486E-03    -15.5412E-03     30.9143E-03    -15.5321E-03     13.0806E-03
             885     4.43068E-03     87.7260E-03    -15.9496E+06    -46.2274E+06    -8.48430E+06    -6.10198E+06    -15.5425E-03     31.1128E-03    -15.5703E-03     16.6211E-03    -15.5435E-03     30.9177E-03    -15.5226E-03     16.5396E-03
             886     5.31686E-03     87.7429E-03    -14.2693E+06    -46.9567E+06    -5.94730E+06    -6.92023E+06    -15.5591E-03     31.1304E-03    -15.5713E-03     20.2379E-03    -15.5546E-03     30.9258E-03    -15.5123E-03     20.1451E-03
             887     6.20309E-03     87.7632E-03    -12.7430E+06    -47.6102E+06    -4.06703E+06    -7.53766E+06    -15.5858E-03     31.1546E-03    -15.5689E-03     24.0137E-03    -15.5759E-03     30.9423E-03    -15.5017E-03     23.9120E-03
             888     7.08929E-03     87.7871E-03    -11.2817E+06    -48.4579E+06    -2.53744E+06    -8.13845E+06    -15.6229E-03     31.1880E-03    -15.5651E-03     27.9376E-03    -15.6075E-03     30.9678E-03    -15.4911E-03     27.8269E-03
             889     7.97557E-03     87.8145E-03    -9.71119E+06    -48.9510E+06    -1.19532E+06    -8.52957E+06    -15.6746E-03     31.2345E-03    -15.5599E-03     31.9893E-03    -15.6536E-03     31.0087E-03    -15.4808E-03     31.8719E-03
             890     8.86178E-03     87.8459E-03    -8.40967E+06    -48.1171E+06    -207.274E+03    -8.68120E+06    -15.7397E-03     31.2919E-03    -15.5522E-03     36.1203E-03    -15.7164E-03     31.0685E-03    -15.4713E-03     35.9988E-03
             891     9.74811E-03     87.8809E-03    -7.38857E+06    -49.2216E+06    -131.416E+03    -9.07088E+06    -15.8247E-03     31.3692E-03    -15.5445E-03     40.2605E-03    -15.7972E-03     31.1411E-03    -15.4631E-03     40.1310E-03
             892     10.6343E-03     87.9199E-03    -6.50105E+06    -48.2398E+06    -2.27524E+06    -9.24464E+06    -15.9103E-03     31.4341E-03    -15.5239E-03     44.4071E-03    -15.8805E-03     31.2167E-03    -15.4559E-03     44.2715E-03
             893     11.5207E-03     87.9624E-03    -5.48773E+06    -41.4167E+06    -1.38085E+06    -8.95833E+06    -16.0059E-03     31.5166E-03    -15.5107E-03     48.8287E-03    -15.9884E-03     31.3366E-03    -15.4496E-03     48.6918E-03
             894     12.4068E-03     88.0096E-03    -4.69959E+06    -40.2536E+06    -2.83633E+06    -8.31342E+06    -16.2015E-03     31.6984E-03    -15.4969E-03     54.5795E-03    -16.1906E-03     31.5362E-03    -15.4459E-03     54.4444E-03
             895     13.2929E-03     88.0627E-03    -3.93923E+06    -39.5343E+06    -9.52347E+06    -7.54987E+06    -16.4095E-03     31.8725E-03    -15.4629E-03     58.6359E-03    -16.4031E-03     31.7393E-03    -15.4475E-03     58.5035E-03
             896     14.1799E-03     88.1178E-03    -3.71538E+06    -16.8863E+06    -7.41218E+06    -6.27602E+06    -16.6872E-03     32.1373E-03    -15.4501E-03     63.7793E-03    -16.7452E-03     32.1437E-03    -15.4573E-03     63.6588E-03
             897     15.0643E-03     88.1813E-03    -3.55955E+06     11.0400E+06    -10.7187E+06    -4.40235E+06    -17.2371E-03     32.6384E-03    -15.4013E-03     85.4224E-03    -17.4575E-03     32.9164E-03    -15.4657E-03     85.3407E-03
             898     15.9509E-03     88.2754E-03    -3.95457E+06     69.4702E+06    -22.4301E+06    -1.95295E+06    -18.3320E-03     33.5826E-03    -15.2506E-03     123.568E-03    -19.2095E-03     34.7577E-03    -15.4577E-03     123.765E-03
             899     16.8383E-03     88.4100E-03    -3.68088E+06     140.024E+06     32.8971E+06    -61.5840E+03    -17.8820E-03     33.2877E-03    -15.4057E-03     123.682E-03    -19.1787E-03     34.9730E-03    -15.4389E-03     124.396E-03
             900     886.125E-06     88.6678E-03    -20.3733E+06    -43.4794E+06    -19.7490E+06    -1.67444E+06    -15.5197E-03     31.0500E-03    -15.5303E-03     3.55736E-03    -15.5299E-03     30.8908E-03    -15.5365E-03     3.53523E-03
             901     1.77226E-03     88.6723E-03    -19.5644E+06    -43.6108E+06    -17.5176E+06    -2.92508E+06    -15.5186E-03     31.0509E-03    -15.5323E-03     6.57169E-03    -15.5279E-03     30.8867E-03    -15.5283E-03     6.53296E-03
             902     2.65840E-03     88.6799E-03    -18.2593E+06    -43.4023E+06    -14.4735E+06    -4.23280E+06    -15.5117E-03     31.0496E-03    -15.5379E-03     9.81122E-03    -15.5193E-03     30.8802E-03    -15.5208E-03     9.75510E-03
             903     3.54458E-03     88.6903E-03    -16.6550E+06    -43.5623E+06    -10.9744E+06    -5.45703E+06    -15.5086E-03     31.0520E-03    -15.5435E-03     13.1634E-03    -15.5131E-03     30.8746E-03    -15.5110E-03     13.0909E-03
             904     4.43077E-03     88.7040E-03    -14.8683E+06    -43.8919E+06    -7.66581E+06    -6.42976E+06    -15.5114E-03     31.0580E-03    -15.5466E-03     16.6428E-03    -15.5116E-03     30.8717E-03    -15.4997E-03     16.5571E-03
             905     5.31700E-03     88.7208E-03    -13.1903E+06    -44.9665E+06    -4.98756E+06    -7.12147E+06    -15.5246E-03     31.0715E-03    -15.5469E-03     20.2674E-03    -15.5190E-03     30.8740E-03    -15.4875E-03     20.1720E-03
             906     6.20323E-03     88.7411E-03    -11.7297E+06    -45.8123E+06    -3.15175E+06    -7.70187E+06    -15.5453E-03     31.0879E-03    -15.5426E-03     24.0569E-03    -15.5343E-03     30.8818E-03    -15.4749E-03     23.9531E-03
             907     7.08952E-03     88.7649E-03    -10.4271E+06    -46.5131E+06    -1.73464E+06    -8.40325E+06    -15.5780E-03     31.1141E-03    -15.5361E-03     28.0037E-03    -15.5622E-03     30.9012E-03    -15.4622E-03     27.8897E-03
             908     7.97577E-03     88.7925E-03    -9.28780E+06    -47.6662E+06    -721.231E+03    -8.95949E+06    -15.6239E-03     31.1525E-03    -15.5287E-03     32.0806E-03    -15.6032E-03     30.9318E-03    -15.4497E-03     31.9578E-03
             909     8.86213E-03     88.8236E-03    -7.98299E+06    -47.0193E+06     172.258E+03    -9.13902E+06    -15.6836E-03     31.2020E-03    -15.5184E-03     36.2457E-03    -15.6603E-03     30.9829E-03    -15.4378E-03     36.1184E-03
             910     9.74837E-03     88.8588E-03    -6.83331E+06    -47.8369E+06     606.532E+03    -9.32767E+06    -15.7720E-03     31.2817E-03    -15.5097E-03     40.4060E-03    -15.7448E-03     31.0587E-03    -15.4274E-03     40.2733E-03
             911     10.6348E-03     88.8976E-03    -6.05220E+06    -47.3483E+06    -1.33022E+06    -9.63569E+06    -15.8697E-03     31.3595E-03    -15.4899E-03     44.5503E-03    -15.8403E-03     31.1444E-03    -15.4191E-03     44.4098E-03
             912     11.5209E-03     88.9404E-03    -5.42996E+06    -41.2166E+06    -1.02206E+06    -9.53057E+06    -15.9605E-03     31.4351E-03    -15.4746E-03     49.0077E-03    -15.9434E-03     31.2554E-03    -15.4121E-03     48.8636E-03
             913     12.4074E-03     88.9874E-03    -4.58029E+06    -40.0054E+06    -2.40201E+06    -8.95187E+06    -16.2632E-03     31.7269E-03    -15.4638E-03     54.8674E-03    -16.2528E-03     31.5652E-03    -15.4111E-03     54.7241E-03
             914     13.2936E-03     89.0410E-03    -4.56274E+06    -40.3151E+06    -9.95731E+06    -8.15440E+06    -16.5877E-03     32.0254E-03    -15.4377E-03     59.0172E-03    -16.5832E-03     31.8905E-03    -15.4224E-03     58.8764E-03
             915     14.1783E-03     89.0960E-03    -4.00232E+06    -18.1711E+06    -7.45134E+06    -7.02898E+06    -16.4550E-03     31.8816E-03    -15.4266E-03     64.2635E-03    -16.5123E-03     31.8817E-03    -15.4317E-03     64.1343E-03
             916     15.0663E-03     89.1593E-03    -3.60232E+06     8.56896E+06    -10.8056E+06    -4.76867E+06    -17.1352E-03     32.5051E-03    -15.3699E-03     85.5330E-03    -17.3534E-03     32.7723E-03    -15.4311E-03     85.4469E-03
             917     15.9531E-03     89.2530E-03    -4.64727E+06     66.4920E+06    -24.1255E+06    -2.02266E+06    -18.4207E-03     33.6365E-03    -15.2158E-03     122.453E-03    -19.2826E-03     34.7879E-03    -15.4261E-03     122.642E-03
             918     16.8391E-03     89.3881E-03    -3.77404E+06     139.316E+06     31.9576E+06    -539.710E+03    -17.7677E-03     33.1422E-03    -15.3746E-03     122.959E-03    -19.0498E-03     34.8129E-03    -15.4113E-03     123.661E-03
             919     886.153E-06     89.6457E-03    -19.2205E+06    -40.2279E+06    -18.5239E+06    -1.61974E+06    -15.4904E-03     30.9917E-03    -15.5013E-03     3.56155E-03    -15.5013E-03     30.8454E-03    -15.5078E-03     3.54013E-03
             920     1.77230E-03     89.6504E-03    -18.2630E+06    -40.4791E+06    -16.2172E+06    -3.01841E+06    -15.4877E-03     30.9910E-03    -15.5033E-03     6.57978E-03    -15.4969E-03     30.8387E-03    -15.4992E-03     6.53985E-03
             921     2.65849E-03     89.6578E-03    -17.0065E+06    -40.3355E+06    -13.2663E+06    -4.41642E+06    -15.4775E-03     30.9849E-03    -15.5074E-03     9.82371E-03    -15.4850E-03     30.8273E-03    -15.4906E-03     9.76524E-03
             922     3.54468E-03     89.6683E-03    -15.5333E+06    -40.7548E+06    -9.92485E+06    -5.69083E+06    -15.4695E-03     30.9807E-03    -15.5111E-03     13.1819E-03    -15.4740E-03     30.8141E-03    -15.4792E-03     13.1064E-03
             923     4.43092E-03     89.6818E-03    -13.9695E+06    -41.5136E+06    -6.75915E+06    -6.71135E+06    -15.4675E-03     30.9801E-03    -15.5126E-03     16.6700E-03    -15.4679E-03     30.8031E-03    -15.4659E-03     16.5807E-03
             924     5.31717E-03     89.6988E-03    -12.2836E+06    -43.0278E+06    -4.11546E+06    -7.41612E+06    -15.4743E-03     30.9855E-03    -15.5111E-03     20.3061E-03    -15.4683E-03     30.7950E-03    -15.4515E-03     20.2070E-03
             925     6.20348E-03     89.7189E-03    -10.5713E+06    -43.9119E+06    -2.14438E+06    -8.01066E+06    -15.4890E-03     30.9936E-03    -15.5045E-03     24.1108E-03    -15.4765E-03     30.7938E-03    -15.4362E-03     24.0032E-03
             926     7.08978E-03     89.7428E-03    -9.17189E+06    -44.7453E+06    -633.873E+03    -8.48742E+06    -15.5147E-03     31.0102E-03    -15.4955E-03     28.0768E-03    -15.4967E-03     30.8027E-03    -15.4205E-03     27.9618E-03
             927     7.97616E-03     89.7702E-03    -8.14391E+06    -46.0454E+06     438.904E+03    -8.95835E+06    -15.5585E-03     31.0444E-03    -15.4859E-03     32.1750E-03    -15.5361E-03     30.8284E-03    -15.4051E-03     32.0524E-03
             928     8.86248E-03     89.8015E-03    -7.26920E+06    -45.7434E+06     879.338E+03    -9.51361E+06    -15.6131E-03     31.0850E-03    -15.4718E-03     36.3733E-03    -15.5890E-03     30.8701E-03    -15.3906E-03     36.2413E-03
             929     9.74894E-03     89.8365E-03    -6.22429E+06    -46.7657E+06     1.13049E+06    -9.67940E+06    -15.7098E-03     31.1704E-03    -15.4606E-03     40.5767E-03    -15.6818E-03     30.9510E-03    -15.3781E-03     40.4397E-03
             930     10.6352E-03     89.8755E-03    -5.51226E+06    -46.1974E+06    -560.100E+03    -9.72158E+06    -15.8320E-03     31.2736E-03    -15.4415E-03     44.7098E-03    -15.8027E-03     31.0623E-03    -15.3694E-03     44.5683E-03
             931     11.5217E-03     89.9181E-03    -5.02472E+06    -40.4822E+06    -243.157E+03    -9.87117E+06    -15.9653E-03     31.3946E-03    -15.4294E-03     49.1767E-03    -15.9483E-03     31.2169E-03    -15.3646E-03     49.0283E-03
             932     12.4078E-03     89.9653E-03    -4.59740E+06    -40.3759E+06    -2.14438E+06    -9.44385E+06    -16.2830E-03     31.7048E-03    -15.4218E-03     55.2858E-03    -16.2726E-03     31.5410E-03    -15.3673E-03     55.1361E-03
             933     13.2936E-03     90.0194E-03    -4.22234E+06    -40.7212E+06    -9.44223E+06    -8.57649E+06    -16.4578E-03     31.8530E-03    -15.3952E-03     59.3744E-03    -16.4516E-03     31.7146E-03    -15.3772E-03     59.2287E-03
             934     14.1810E-03     90.0740E-03    -4.52012E+06    -19.1583E+06    -7.70030E+06    -7.43884E+06    -16.5005E-03     31.8826E-03    -15.3821E-03     64.1595E-03    -16.5583E-03     31.8787E-03    -15.3863E-03     64.0248E-03
             935     15.0663E-03     90.1363E-03    -4.29878E+06     5.67468E+06    -11.1279E+06    -5.39727E+06    -17.5272E-03     32.8703E-03    -15.3430E-03     85.7372E-03    -17.7463E-03     33.1265E-03    -15.4007E-03     85.6410E-03
             936     15.9505E-03     90.2334E-03    -3.82011E+06     63.0812E+06    -26.0276E+06    -2.43395E+06    -18.6886E-03     33.8890E-03    -15.2005E-03     121.897E-03    -19.5417E-03     35.0281E-03    -15.4165E-03     122.077E-03
             937     16.8377E-03     90.3626E-03    -2.83148E+06     138.083E+06     30.0266E+06    -672.412E+03    -17.6356E-03     32.9967E-03    -15.3611E-03     123.403E-03    -18.9210E-03     34.6752E-03    -15.4071E-03     124.107E-03
             938     886.177E-06     90.6238E-03    -18.2627E+06    -36.9460E+06    -17.7936E+06    -1.66142E+06    -15.4478E-03     30.9022E-03    -15.4543E-03     3.56552E-03    -15.4598E-03     30.7698E-03    -15.4632E-03     3.54357E-03
             939     1.77239E-03     90.6282E-03    -17.4441E+06    -37.1295E+06    -15.4736E+06    -3.15686E+06    -15.4393E-03     30.8965E-03    -15.4572E-03     6.59232E-03    -15.4503E-03     30.7586E-03    -15.4554E-03     6.55062E-03
             940     2.65859E-03     90.6358E-03    -16.1278E+06    -37.2168E+06    -12.2040E+06    -4.57262E+06    -15.4274E-03     30.8893E-03    -15.4618E-03     9.84162E-03    -15.4366E-03     30.7444E-03    -15.4455E-03     9.78116E-03
             941     3.54485E-03     90.6461E-03    -14.6298E+06    -37.8890E+06    -8.70023E+06    -5.79441E+06    -15.4160E-03     30.8815E-03    -15.4654E-03     13.2077E-03    -15.4220E-03     30.7262E-03    -15.4328E-03     13.1309E-03
             942     4.43112E-03     90.6597E-03    -13.1166E+06    -39.1099E+06    -5.66640E+06    -6.76663E+06    -15.4077E-03     30.8728E-03    -15.4651E-03     16.7041E-03    -15.4089E-03     30.7050E-03    -15.4177E-03     16.6142E-03
             943     5.31745E-03     90.6765E-03    -11.6207E+06    -40.7641E+06    -3.37428E+06    -7.70457E+06    -15.4061E-03     30.8659E-03    -15.4599E-03     20.3554E-03    -15.4011E-03     30.6847E-03    -15.4008E-03     20.2527E-03
             944     6.20379E-03     90.6967E-03    -10.1228E+06    -42.0989E+06    -1.67581E+06    -8.39265E+06    -15.4128E-03     30.8627E-03    -15.4499E-03     24.1795E-03    -15.4013E-03     30.6706E-03    -15.3825E-03     24.0670E-03
             945     7.09020E-03     90.7204E-03    -8.70039E+06    -43.2437E+06    -114.146E+03    -8.69393E+06    -15.4328E-03     30.8712E-03    -15.4384E-03     28.1639E-03    -15.4154E-03     30.6697E-03    -15.3636E-03     28.0464E-03
             946     7.97660E-03     90.7479E-03    -7.40775E+06    -44.4012E+06     1.14431E+06    -9.03979E+06    -15.4717E-03     30.8976E-03    -15.4259E-03     32.2910E-03    -15.4490E-03     30.6876E-03    -15.3450E-03     32.1674E-03
             947     8.86308E-03     90.7791E-03    -6.41576E+06    -44.1379E+06     1.70687E+06    -9.49554E+06    -15.5355E-03     30.9453E-03    -15.4098E-03     36.5164E-03    -15.5105E-03     30.7359E-03    -15.3279E-03     36.3848E-03
             948     9.74949E-03     90.8141E-03    -5.78685E+06    -45.7989E+06     1.64312E+06    -9.84983E+06    -15.6376E-03     31.0346E-03    -15.3970E-03     40.7737E-03    -15.6095E-03     30.8186E-03    -15.3140E-03     40.6347E-03
             949     10.6360E-03     90.8531E-03    -5.05224E+06    -45.1809E+06     31.7326E+03    -9.90843E+06    -15.8030E-03     31.1820E-03    -15.3789E-03     44.9558E-03    -15.7736E-03     30.9741E-03    -15.3059E-03     44.8120E-03
             950     11.5222E-03     90.8958E-03    -4.52444E+06    -39.5614E+06     502.729E+03    -9.93130E+06    -15.9871E-03     31.3588E-03    -15.3717E-03     49.4471E-03    -15.9701E-03     31.1838E-03    -15.3052E-03     49.2980E-03
             951     12.4085E-03     90.9432E-03    -4.23286E+06    -40.4840E+06    -1.46820E+06    -9.74888E+06    -16.1692E-03     31.5351E-03    -15.3659E-03     55.6850E-03    -16.1577E-03     31.3691E-03    -15.3084E-03     55.5318E-03
             952     13.2950E-03     90.9974E-03    -3.95823E+06    -41.6129E+06    -9.33385E+06    -8.82705E+06    -16.4343E-03     31.7705E-03    -15.3362E-03     59.6007E-03    -16.4253E-03     31.6268E-03    -15.3168E-03     59.4521E-03
             953     14.1804E-03     91.0514E-03    -3.77802E+06    -19.3624E+06    -6.76132E+06    -7.67090E+06    -16.8078E-03     32.1451E-03    -15.3373E-03     64.4113E-03    -16.8640E-03     32.1388E-03    -15.3375E-03     64.2726E-03
             954     15.0661E-03     91.1160E-03    -3.93550E+06     3.16258E+06    -10.7923E+06    -5.79534E+06    -17.5145E-03     32.8240E-03    -15.3096E-03     86.4386E-03    -17.7277E-03     33.0658E-03    -15.3624E-03     86.3380E-03
             955     15.9539E-03     91.2105E-03    -4.78220E+06     59.3482E+06    -27.6207E+06    -3.42843E+06    -18.6445E-03     33.8041E-03    -15.1596E-03     122.571E-03    -19.5050E-03     34.9385E-03    -15.3769E-03     122.744E-03
             956     16.8392E-03     91.3423E-03    -3.30527E+06     137.107E+06     29.5703E+06    -1.37319E+06    -17.9717E-03     33.3013E-03    -15.3296E-03     123.726E-03    -19.2698E-03     34.9887E-03    -15.3758E-03     124.419E-03
             957     886.250E-06     91.6016E-03    -17.3102E+06    -33.5968E+06    -16.7106E+06    -1.69044E+06    -15.3844E-03     30.7747E-03    -15.3903E-03     3.57478E-03    -15.3980E-03     30.6561E-03    -15.4000E-03     3.55246E-03
             958     1.77248E-03     91.6062E-03    -16.5271E+06    -33.6864E+06    -14.4016E+06    -3.16344E+06    -15.3737E-03     30.7672E-03    -15.3935E-03     6.60839E-03    -15.3867E-03     30.6437E-03    -15.3927E-03     6.56664E-03
             959     2.65877E-03     91.6135E-03    -15.3880E+06    -34.0577E+06    -11.0964E+06    -4.61194E+06    -15.3582E-03     30.7564E-03    -15.3982E-03     9.86548E-03    -15.3698E-03     30.6247E-03    -15.3820E-03     9.80456E-03
             960     3.54507E-03     91.6240E-03    -13.9253E+06    -35.0943E+06    -7.56621E+06    -5.79932E+06    -15.3425E-03     30.7436E-03    -15.4011E-03     13.2393E-03    -15.3506E-03     30.5997E-03    -15.3679E-03     13.1625E-03
             961     4.43142E-03     91.6374E-03    -12.3215E+06    -36.6271E+06    -4.61212E+06    -6.80902E+06    -15.3281E-03     30.7268E-03    -15.3987E-03     16.7474E-03    -15.3305E-03     30.5688E-03    -15.3508E-03     16.6570E-03
             962     5.31780E-03     91.6542E-03    -10.8292E+06    -38.3121E+06    -2.45866E+06    -7.72663E+06    -15.3187E-03     30.7088E-03    -15.3902E-03     20.4155E-03    -15.3145E-03     30.5374E-03    -15.3312E-03     20.3125E-03
             963     6.20424E-03     91.6743E-03    -9.63615E+06    -40.2614E+06    -1.05878E+06    -8.44322E+06    -15.3189E-03     30.6960E-03    -15.3770E-03     24.2585E-03    -15.3085E-03     30.5114E-03    -15.3100E-03     24.1455E-03
             964     7.09072E-03     91.6980E-03    -8.48277E+06    -41.6881E+06     110.305E+03    -8.92881E+06    -15.3324E-03     30.6938E-03    -15.3613E-03     28.2748E-03    -15.3165E-03     30.4994E-03    -15.2880E-03     28.1545E-03
             965     7.97724E-03     91.7253E-03    -7.30321E+06    -42.8842E+06     1.39855E+06    -9.28688E+06    -15.3683E-03     30.7146E-03    -15.3463E-03     32.4315E-03    -15.3476E-03     30.5116E-03    -15.2665E-03     32.3050E-03
             966     8.86377E-03     91.7566E-03    -6.29832E+06    -42.8119E+06     2.14662E+06    -9.47206E+06    -15.4391E-03     30.7682E-03    -15.3291E-03     36.7097E-03    -15.4161E-03     30.5646E-03    -15.2472E-03     36.5787E-03
             967     9.75031E-03     91.7917E-03    -5.47072E+06    -44.3621E+06     2.33680E+06    -9.80292E+06    -15.5614E-03     30.8778E-03    -15.3164E-03     41.0076E-03    -15.5346E-03     30.6674E-03    -15.2325E-03     40.8695E-03
             968     10.6368E-03     91.8306E-03    -4.90057E+06    -44.3690E+06     665.071E+03    -10.1040E+06    -15.7384E-03     31.0380E-03    -15.2996E-03     45.3246E-03    -15.7103E-03     30.8330E-03    -15.2248E-03     45.1786E-03
             969     11.5231E-03     91.8737E-03    -4.28488E+06    -38.7363E+06     1.17583E+06    -10.0352E+06    -15.9391E-03     31.2327E-03    -15.2936E-03     49.9003E-03    -15.9230E-03     31.0605E-03    -15.2254E-03     49.7501E-03
             970     12.4095E-03     91.9208E-03    -3.73032E+06    -40.3532E+06    -717.829E+03    -9.78763E+06    -16.1586E-03     31.4505E-03    -15.2919E-03     55.8624E-03    -16.1458E-03     31.2833E-03    -15.2316E-03     55.7089E-03
             971     13.2958E-03     91.9749E-03    -3.97194E+06    -42.0811E+06    -8.84009E+06    -9.10003E+06    -16.4613E-03     31.7286E-03    -15.2674E-03     60.1963E-03    -16.4524E-03     31.5819E-03    -15.2448E-03     60.0444E-03
             972     14.1818E-03     92.0307E-03    -3.64386E+06    -19.9246E+06    -6.03485E+06    -8.19275E+06    -16.8494E-03     32.1241E-03    -15.2747E-03     65.3626E-03    -16.9059E-03     32.1145E-03    -15.2707E-03     65.2173E-03
             973     15.0681E-03     92.0932E-03    -3.17770E+06     839.613E+03    -9.79991E+06    -6.43239E+06    -17.5313E-03     32.7861E-03    -15.2549E-03     86.3081E-03    -17.7370E-03     33.0120E-03    -15.3005E-03     86.1992E-03
             974     15.9529E-03     92.1890E-03    -3.27726E+06     57.3451E+06    -26.6088E+06    -3.88953E+06    -18.7772E-03     33.8881E-03    -15.1109E-03     122.416E-03    -19.6273E-03     35.0074E-03    -15.3224E-03     122.579E-03
             975     16.8396E-03     92.3203E-03    -3.21450E+06     135.429E+06     29.3625E+06    -1.46685E+06    -18.3716E-03     33.6648E-03    -15.2932E-03     123.182E-03    -19.6617E-03     35.3391E-03    -15.3381E-03     123.866E-03
             976     886.303E-06     92.5794E-03    -16.1796E+06    -30.3679E+06    -15.4871E+06    -1.54197E+06    -15.2952E-03     30.6021E-03    -15.3070E-03     3.58611E-03    -15.3096E-03     30.4963E-03    -15.3169E-03     3.56574E-03
             977     1.77265E-03     92.5838E-03    -15.5390E+06    -30.3824E+06    -13.0169E+06    -2.90841E+06    -15.2861E-03     30.5945E-03    -15.3084E-03     6.62537E-03    -15.3009E-03     30.4840E-03    -15.3069E-03     6.58695E-03
             978     2.65898E-03     92.5912E-03    -14.5104E+06    -30.9130E+06    -9.79007E+06    -4.30950E+06    -15.2665E-03     30.5790E-03    -15.3125E-03     9.89326E-03    -15.2802E-03     30.4598E-03    -15.2956E-03     9.83629E-03
             979     3.54538E-03     92.6015E-03    -13.2369E+06    -32.2587E+06    -6.48114E+06    -5.62420E+06    -15.2444E-03     30.5579E-03    -15.3135E-03     13.2797E-03    -15.2548E-03     30.4255E-03    -15.2799E-03     13.2053E-03
             980     4.43181E-03     92.6150E-03    -11.7826E+06    -34.0171E+06    -3.67482E+06    -6.77348E+06    -15.2238E-03     30.5324E-03    -15.3086E-03     16.8032E-03    -15.2285E-03     30.3852E-03    -15.2606E-03     16.7134E-03
             981     5.31829E-03     92.6317E-03    -10.3204E+06    -35.9955E+06    -1.63941E+06    -7.68907E+06    -15.2083E-03     30.5057E-03    -15.2974E-03     20.4889E-03    -15.2062E-03     30.3439E-03    -15.2384E-03     20.3866E-03
             982     6.20483E-03     92.6518E-03    -8.98431E+06    -38.3679E+06    -240.353E+03    -8.31158E+06    -15.2044E-03     30.4863E-03    -15.2819E-03     24.3548E-03    -15.1946E-03     30.3091E-03    -15.2145E-03     24.2436E-03
             983     7.09141E-03     92.6753E-03    -7.93469E+06    -39.8712E+06     807.873E+03    -8.89822E+06    -15.2139E-03     30.4770E-03    -15.2632E-03     28.4039E-03    -15.1988E-03     30.2899E-03    -15.1898E-03     28.2841E-03
             984     7.97803E-03     92.7027E-03    -6.99213E+06    -41.4502E+06     1.89562E+06    -9.35312E+06    -15.2515E-03     30.4972E-03    -15.2457E-03     32.6064E-03    -15.2320E-03     30.3002E-03    -15.1659E-03     32.4792E-03
             985     8.86467E-03     92.7338E-03    -6.10215E+06    -41.7336E+06     2.71419E+06    -9.47234E+06    -15.3254E-03     30.5533E-03    -15.2279E-03     36.9401E-03    -15.3037E-03     30.3538E-03    -15.1449E-03     36.8094E-03
             986     9.75132E-03     92.7690E-03    -5.39165E+06    -42.8410E+06     3.06649E+06    -9.70351E+06    -15.4617E-03     30.6764E-03    -15.2147E-03     41.3262E-03    -15.4377E-03     30.4723E-03    -15.1295E-03     41.1896E-03
             987     10.6378E-03     92.8081E-03    -4.82857E+06    -43.1889E+06     1.64522E+06    -10.1412E+06    -15.6299E-03     30.8292E-03    -15.1993E-03     45.6995E-03    -15.6044E-03     30.6284E-03    -15.1214E-03     45.5535E-03
             988     11.5244E-03     92.8511E-03    -4.34288E+06    -38.1072E+06     1.99165E+06    -10.2131E+06    -15.8589E-03     31.0524E-03    -15.1935E-03     50.3599E-03    -15.8450E-03     30.8820E-03    -15.1220E-03     50.2079E-03
             989     12.4107E-03     92.8987E-03    -3.89166E+06    -39.8340E+06     211.753E+03    -9.89996E+06    -16.2693E-03     31.4696E-03    -15.2002E-03     56.3163E-03    -16.2596E-03     31.3040E-03    -15.1358E-03     56.1612E-03
             990     13.2966E-03     92.9526E-03    -3.21798E+06    -42.2522E+06    -7.54766E+06    -9.25960E+06    -16.5312E-03     31.7202E-03    -15.1890E-03     60.4933E-03    -16.5204E-03     31.5699E-03    -15.1608E-03     60.3392E-03
             991     14.1833E-03     93.0083E-03    -3.54086E+06    -20.4696E+06    -5.04089E+06    -8.59684E+06    -16.7336E-03     31.9332E-03    -15.1997E-03     65.6556E-03    -16.7895E-03     31.9185E-03    -15.1900E-03     65.5057E-03
             992     15.0681E-03     93.0728E-03    -3.44600E+06    -1.05022E+06    -8.74321E+06    -7.49437E+06    -17.6371E-03     32.8235E-03    -15.1864E-03     86.5199E-03    -17.8442E-03     33.0399E-03    -15.2236E-03     86.3969E-03
             993     15.9551E-03     93.1660E-03    -3.50063E+06     53.9566E+06    -26.6680E+06    -4.46122E+06    -19.4110E-03     34.4725E-03    -15.0614E-03     123.341E-03    -20.2647E-03     35.5826E-03    -15.2679E-03     123.484E-03
             994     16.8402E-03     93.3003E-03    -3.75316E+06     133.159E+06     28.2688E+06    -1.24830E+06    -18.7061E-03     33.9700E-03    -15.2639E-03     122.879E-03    -19.9890E-03     35.6303E-03    -15.3102E-03     123.551E-03
             995     886.429E-06     93.5568E-03    -15.6895E+06    -27.6569E+06    -14.7913E+06    -1.16085E+06    -15.1792E-03     30.3753E-03    -15.1962E-03     3.59698E-03    -15.1961E-03     30.2813E-03    -15.2073E-03     3.58154E-03
             996     1.77282E-03     93.5614E-03    -15.0227E+06    -27.3593E+06    -12.2184E+06    -2.41328E+06    -15.1671E-03     30.3619E-03    -15.1948E-03     6.64672E-03    -15.1849E-03     30.2647E-03    -15.1944E-03     6.61473E-03
             997     2.65930E-03     93.5687E-03    -13.9501E+06    -27.8959E+06    -8.74981E+06    -3.82700E+06    -15.1446E-03     30.3429E-03    -15.1983E-03     9.92622E-03    -15.1614E-03     30.2365E-03    -15.1814E-03     9.87554E-03
             998     3.54578E-03     93.5790E-03    -12.5894E+06    -29.3090E+06    -5.25184E+06    -5.22053E+06    -15.1183E-03     30.3168E-03    -15.1985E-03     13.3275E-03    -15.1315E-03     30.1964E-03    -15.1640E-03     13.2583E-03
             999     4.43233E-03     93.5924E-03    -11.1799E+06    -31.3272E+06    -2.47595E+06    -6.50590E+06    -15.0924E-03     30.2842E-03    -15.1918E-03     16.8681E-03    -15.0998E-03     30.1479E-03    -15.1426E-03     16.7818E-03
            1000     5.31892E-03     93.6090E-03    -9.87333E+06    -33.7282E+06    -691.738E+03    -7.48555E+06    -15.0715E-03     30.2493E-03    -15.1778E-03     20.5774E-03    -15.0717E-03     30.0968E-03    -15.1180E-03     20.4779E-03
            1001     6.20558E-03     93.6289E-03    -8.75031E+06    -36.5107E+06     404.717E+03    -8.16080E+06    -15.0620E-03     30.2212E-03    -15.1592E-03     24.4749E-03    -15.0546E-03     30.0519E-03    -15.0915E-03     24.3658E-03
            1002     7.09229E-03     93.6525E-03    -7.81903E+06    -38.1140E+06     1.31537E+06    -8.58711E+06    -15.0694E-03     30.2070E-03    -15.1376E-03     28.5677E-03    -15.0570E-03     30.0276E-03    -15.0644E-03     28.4521E-03
            1003     7.97903E-03     93.6797E-03    -7.17737E+06    -39.8473E+06     2.29001E+06    -9.06408E+06    -15.1097E-03     30.2279E-03    -15.1182E-03     32.8292E-03    -15.0939E-03     30.0385E-03    -15.0386E-03     32.7060E-03
            1004     8.86581E-03     93.7109E-03    -6.40564E+06    -40.5624E+06     3.04920E+06    -9.46953E+06    -15.1941E-03     30.2940E-03    -15.0999E-03     37.2361E-03    -15.1760E-03     30.1003E-03    -15.0165E-03     37.1058E-03
            1005     9.75252E-03     93.7461E-03    -5.53673E+06    -41.6340E+06     3.55967E+06    -9.59910E+06    -15.3292E-03     30.4159E-03    -15.0867E-03     41.6998E-03    -15.3083E-03     30.2172E-03    -15.0005E-03     41.5650E-03
            1006     10.6393E-03     93.7853E-03    -5.00783E+06    -41.6347E+06     2.55176E+06    -9.94577E+06    -15.5381E-03     30.6119E-03    -15.0738E-03     46.1095E-03    -15.5169E-03     30.4177E-03    -14.9934E-03     45.9664E-03
            1007     11.5258E-03     93.8284E-03    -4.49174E+06    -37.2765E+06     2.82487E+06    -10.3803E+06    -15.8173E-03     30.8900E-03    -15.0728E-03     50.8638E-03    -15.8064E-03     30.7227E-03    -14.9981E-03     50.7099E-03
            1008     12.4122E-03     93.8763E-03    -3.65047E+06    -39.4871E+06     1.15095E+06    -10.1421E+06    -16.2288E-03     31.3139E-03    -15.0851E-03     56.9691E-03    -16.2195E-03     31.1481E-03    -15.0168E-03     56.8114E-03
            1009     13.2983E-03     93.9307E-03    -3.60336E+06    -42.7866E+06    -7.32497E+06    -9.32575E+06    -16.7238E-03     31.8077E-03    -15.0839E-03     61.2806E-03    -16.7150E-03     31.6554E-03    -15.0532E-03     61.1254E-03
            1010     14.1834E-03     93.9863E-03    -3.79341E+06    -20.8855E+06    -4.49848E+06    -8.46815E+06    -16.8704E-03     31.9821E-03    -15.1117E-03     66.1956E-03    -16.9279E-03     31.9651E-03    -15.0984E-03     66.0473E-03
            1011     15.0711E-03     94.0504E-03    -4.68304E+06    -1.82278E+06    -8.03799E+06    -7.71261E+06    -17.9028E-03     33.0206E-03    -15.1178E-03     86.7328E-03    -18.1170E-03     33.2350E-03    -15.1485E-03     86.6050E-03
            1012     15.9556E-03     94.1452E-03    -5.11999E+06     49.8258E+06    -26.1507E+06    -5.28265E+06    -19.7426E-03     34.7605E-03    -15.0179E-03     123.470E-03    -20.6035E-03     35.8559E-03    -15.2135E-03     123.599E-03
            1013     16.8397E-03     94.2806E-03    -3.35726E+06     130.149E+06     29.4246E+06    -1.79002E+06    -18.8081E-03     34.0418E-03    -15.2337E-03     122.560E-03    -20.0836E-03     35.6820E-03    -15.2704E-03     123.217E-03
            1014     886.513E-06     94.5342E-03    -16.1747E+06    -25.5088E+06    -15.4512E+06    -908.189E+03    -15.0330E-03     30.0806E-03    -15.0476E-03     3.61005E-03    -15.0545E-03     29.9989E-03    -15.0644E-03     3.59790E-03
            1015     1.77311E-03     94.5386E-03    -15.2105E+06    -24.7150E+06    -12.4264E+06    -2.02888E+06    -15.0140E-03     30.0606E-03    -15.0466E-03     6.67254E-03    -15.0362E-03     29.9771E-03    -15.0509E-03     6.64556E-03
            1016     2.65967E-03     94.5460E-03    -13.9602E+06    -25.1106E+06    -8.36647E+06     -3.2732E+06    -14.9870E-03     30.0372E-03    -15.0502E-03     9.96470E-03    -15.0084E-03     29.9442E-03    -15.0354E-03     9.92125E-03
            1017     3.54631E-03     94.5562E-03    -12.6011E+06    -26.3995E+06    -4.51576E+06    -4.66080E+06    -14.9558E-03     30.0054E-03    -15.0496E-03     13.3836E-03    -14.9743E-03     29.8985E-03    -15.0156E-03     13.3218E-03
            1018     4.43298E-03     94.5695E-03    -11.2822E+06    -28.6799E+06    -1.69350E+06    -5.93243E+06    -14.9248E-03     29.9661E-03    -15.0413E-03     16.9473E-03    -14.9377E-03     29.8420E-03    -14.9919E-03     16.8686E-03
            1019     5.31973E-03     94.5860E-03    -10.1924E+06    -31.4942E+06    -88.4144E+03    -6.92334E+06    -14.8988E-03     29.9238E-03    -15.0249E-03     20.6854E-03    -14.9048E-03     29.7819E-03    -14.9649E-03     20.5933E-03
            1020     6.20654E-03     94.6059E-03    -9.28535E+06    -34.5622E+06     699.926E+03    -7.69853E+06    -14.8849E-03     29.8879E-03    -15.0030E-03     24.6227E-03    -14.8834E-03     29.7287E-03    -14.9359E-03     24.5198E-03
            1021     7.09339E-03     94.6293E-03    -8.50154E+06    -36.6664E+06     1.32907E+06    -8.15761E+06    -14.8904E-03     29.8689E-03    -14.9785E-03     28.7708E-03    -14.8834E-03     29.6977E-03    -14.9064E-03     28.6610E-03
            1022     7.98032E-03     94.6566E-03    -7.82475E+06    -38.1827E+06     2.37727E+06    -8.47590E+06    -14.9350E-03     29.8923E-03    -14.9573E-03     33.1070E-03    -14.9248E-03     29.7119E-03    -14.8787E-03     32.9918E-03
            1023     8.86719E-03     94.6877E-03    -7.43044E+06    -39.0082E+06     3.13067E+06    -9.08004E+06    -15.0286E-03     29.9673E-03    -14.9387E-03     37.6031E-03    -15.0178E-03     29.7826E-03    -14.8557E-03     37.4781E-03
            1024     9.75412E-03     94.7230E-03    -6.90736E+06    -40.5138E+06     3.44841E+06    -9.54577E+06    -15.1917E-03     30.1181E-03    -14.9264E-03     42.1499E-03    -15.1789E-03     29.9270E-03    -14.8404E-03     42.0162E-03
            1025     10.6409E-03     94.7622E-03    -5.96649E+06    -40.0687E+06     2.97538E+06    -9.94351E+06    -15.4596E-03     30.3785E-03    -14.9189E-03     46.6870E-03    -15.4459E-03     30.1927E-03    -14.8373E-03     46.5443E-03
            1026     11.5275E-03     94.8057E-03    -5.11878E+06    -35.9755E+06     3.61603E+06    -10.4698E+06    -15.7703E-03     30.6966E-03    -14.9262E-03     51.4913E-03    -15.7655E-03     30.5354E-03    -14.8486E-03     51.3366E-03
            1027     12.4139E-03     94.8537E-03    -4.50795E+06    -39.4940E+06     1.51501E+06    -10.6242E+06    -16.2169E-03     31.1633E-03    -14.9464E-03     57.6272E-03    -16.2123E-03     30.9981E-03    -14.8750E-03     57.4636E-03
            1028     13.3002E-03     94.9084E-03    -3.67520E+06    -42.7809E+06    -6.37004E+06    -10.0789E+06    -16.7759E-03     31.7324E-03    -14.9566E-03     61.9741E-03    -16.7687E-03     31.5789E-03    -14.9211E-03     61.8093E-03
            1029     14.1864E-03     94.9651E-03    -3.29303E+06    -21.2764E+06    -3.29410E+06      -8.948E+06    -17.3269E-03     32.3351E-03    -15.0082E-03     66.4838E-03    -17.3839E-03     32.3145E-03    -14.9891E-03     66.3278E-03
            1030     15.0704E-03     95.0279E-03    -2.37248E+06    -3.56771E+06    -5.77034E+06    -7.37291E+06    -18.4160E-03     33.4679E-03    -15.0518E-03     87.7139E-03    -18.6229E-03     33.6704E-03    -15.0721E-03     87.5878E-03
            1031     15.9552E-03     95.1264E-03    -2.73511E+06     46.9633E+06    -21.8061E+06    -4.89122E+06    -19.6096E-03     34.5859E-03    -14.9763E-03     124.215E-03    -20.4607E-03     35.6573E-03    -15.1495E-03     124.361E-03
            1032     16.8431E-03     95.2564E-03    -3.46061E+06     127.335E+06     31.8693E+06    -1.97686E+06    -19.1187E-03     34.3111E-03    -15.1924E-03     123.001E-03    -20.4000E-03     35.9397E-03    -15.2127E-03     123.662E-03
            1033     886.717E-06     95.5112E-03    -16.5601E+06    -23.5998E+06    -16.0914E+06    -937.991E+03    -14.8524E-03     29.7166E-03    -14.8642E-03     3.62259E-03    -14.8776E-03     29.6460E-03    -14.8864E-03     3.61009E-03
            1034     1.77339E-03     95.5156E-03    -15.8687E+06    -22.5584E+06    -13.4059E+06    -1.76302E+06    -14.8240E-03     29.6846E-03    -14.8606E-03     6.70055E-03    -14.8513E-03     29.6144E-03    -14.8719E-03     6.67706E-03
            1035     2.66017E-03     95.5229E-03    -14.7870E+06    -22.8109E+06    -9.18685E+06    -2.65529E+06    -14.7880E-03     29.6497E-03    -14.8617E-03     10.0118E-03    -14.8157E-03     29.5706E-03    -14.8531E-03     9.97642E-03
            1036     3.54695E-03     95.5331E-03    -13.5648E+06    -23.7025E+06    -4.88244E+06    -3.80185E+06    -14.7489E-03     29.6085E-03    -14.8595E-03     13.4525E-03    -14.7756E-03     29.5170E-03    -14.8299E-03     13.4019E-03
            1037     4.43382E-03     95.5463E-03    -12.3815E+06    -26.2395E+06    -1.59543E+06    -5.02906E+06    -14.7137E-03     29.5648E-03    -14.8511E-03     17.0420E-03    -14.7357E-03     29.4543E-03    -14.8031E-03     16.9751E-03
            1038     5.32074E-03     95.5627E-03    -11.3280E+06    -29.3445E+06     142.867E+03    -6.00962E+06    -14.6844E-03     29.5176E-03    -14.8332E-03     20.8140E-03    -14.6994E-03     29.3878E-03    -14.7735E-03     20.7339E-03
            1039     6.20773E-03     95.5825E-03    -10.5383E+06    -32.5607E+06     789.311E+03    -6.87533E+06    -14.6677E-03     29.4762E-03    -14.8085E-03     24.7971E-03    -14.6754E-03     29.3286E-03    -14.7421E-03     24.7051E-03
            1040     7.09479E-03     95.6059E-03    -9.90449E+06    -35.2288E+06     1.09834E+06    -7.49226E+06    -14.6735E-03     29.4549E-03    -14.7814E-03     29.0088E-03    -14.6752E-03     29.2931E-03    -14.7104E-03     28.9080E-03
            1041     7.98186E-03     95.6330E-03    -9.24971E+06    -36.6884E+06     1.92662E+06    -7.94278E+06    -14.7193E-03     29.4765E-03    -14.7572E-03     33.4375E-03    -14.7177E-03     29.3062E-03    -14.6810E-03     33.3295E-03
            1042     8.86900E-03     95.6642E-03      -8.719E+06    -37.5557E+06     3.08954E+06    -8.20203E+06    -14.8315E-03     29.5713E-03    -14.7398E-03     38.0233E-03    -14.8290E-03     29.3956E-03    -14.6573E-03     37.9101E-03
            1043     9.75600E-03     95.6994E-03    -8.39218E+06    -38.5633E+06     3.70552E+06    -9.09009E+06    -15.0428E-03     29.7737E-03    -14.7308E-03     42.7065E-03    -15.0405E-03     29.5939E-03    -14.6442E-03     42.5792E-03
            1044     10.6429E-03     95.7390E-03    -7.73701E+06    -38.4550E+06     3.10548E+06    -10.2446E+06    -15.3555E-03     30.0846E-03    -14.7291E-03     47.4104E-03    -15.3530E-03     29.9091E-03    -14.6466E-03     47.2643E-03
            1045     11.5295E-03     95.7827E-03    -6.73658E+06    -34.7583E+06     3.97058E+06    -10.6013E+06    -15.7476E-03     30.4946E-03    -14.7470E-03     52.2284E-03    -15.7530E-03     30.3413E-03    -14.6670E-03     52.0724E-03
            1046     12.4162E-03     95.8309E-03    -5.74101E+06    -38.0439E+06     2.29813E+06    -11.1784E+06    -16.3425E-03     31.1266E-03    -14.7841E-03     58.4694E-03    -16.3475E-03     30.9695E-03    -14.7091E-03     58.2987E-03
            1047     13.3018E-03     95.8865E-03    -4.89838E+06    -43.3404E+06    -6.22415E+06    -11.3220E+06    -16.9783E-03     31.7932E-03    -14.8148E-03     62.7560E-03    -16.9769E-03     31.6385E-03    -14.7760E-03     62.5750E-03
            1048     14.1871E-03     95.9429E-03    -3.17405E+06    -22.0780E+06    -2.33866E+06    -10.0569E+06    -17.5159E-03     32.4045E-03    -14.8886E-03     67.5716E-03    -17.5737E-03     32.3794E-03    -14.8636E-03     67.4008E-03
            1049     15.0727E-03     96.0086E-03    -2.51950E+06    -5.86145E+06    -4.73082E+06    -7.65543E+06    -18.4715E-03     33.4191E-03    -14.9476E-03     88.7339E-03    -18.6787E-03     33.6102E-03    -14.9591E-03     88.6049E-03
            1050     15.9591E-03     96.1030E-03    -3.58232E+06     43.4939E+06    -20.6285E+06    -4.49920E+06    -20.1647E-03     35.0612E-03    -14.8964E-03     124.658E-03    -21.0210E-03     36.1190E-03    -15.0574E-03     124.796E-03
            1051     16.8419E-03     96.2377E-03    -3.59385E+06     125.353E+06     33.0499E+06    -1.75566E+06    -19.8431E-03     34.9900E-03    -15.1469E-03     122.968E-03    -21.1281E-03     36.6114E-03    -15.1582E-03     123.617E-03
            1052     886.846E-06     96.4878E-03    -17.3726E+06    -22.0117E+06    -16.7759E+06    -677.290E+03    -14.6233E-03     29.2629E-03    -14.6396E-03     3.64009E-03    -14.6539E-03     29.2024E-03    -14.6664E-03     3.63099E-03
            1053     1.77381E-03     96.4922E-03    -17.1204E+06    -20.9854E+06    -14.6322E+06    -1.19739E+06    -14.5910E-03     29.2222E-03    -14.6312E-03     6.73746E-03    -14.6250E-03     29.1634E-03    -14.6491E-03     6.72133E-03
            1054     2.66073E-03     96.4994E-03    -16.3593E+06    -21.0523E+06    -10.7837E+06    -1.87211E+06    -14.5466E-03     29.1750E-03    -14.6284E-03     10.0675E-03    -14.5824E-03     29.1092E-03    -14.6280E-03     10.0423E-03
            1055     3.54778E-03     96.5095E-03    -15.2695E+06    -21.6013E+06    -6.14401E+06    -2.69739E+06    -14.4971E-03     29.1215E-03    -14.6243E-03     13.5296E-03    -14.5335E-03     29.0447E-03    -14.6016E-03     13.4934E-03
            1056     4.43484E-03     96.5227E-03    -14.2167E+06    -24.0311E+06    -2.14364E+06    -3.69827E+06    -14.4549E-03     29.0710E-03    -14.6161E-03     17.1485E-03    -14.4884E-03     28.9749E-03    -14.5714E-03     17.0989E-03
            1057     5.32198E-03     96.5389E-03    -13.3731E+06    -27.3816E+06    -86.3154E+03    -4.71385E+06    -14.4222E-03     29.0196E-03    -14.5974E-03     20.9602E-03    -14.4498E-03     28.9028E-03    -14.5388E-03     20.8971E-03
            1058     6.20920E-03     96.5587E-03    -12.7787E+06    -30.6100E+06     414.671E+03    -5.59356E+06    -14.4038E-03     28.9737E-03    -14.5699E-03     24.9974E-03    -14.4249E-03     28.8395E-03    -14.5049E-03     24.9222E-03
            1059     7.09645E-03     96.5819E-03    -12.3588E+06    -33.5458E+06     498.904E+03    -6.48348E+06    -14.4129E-03     28.9534E-03    -14.5405E-03     29.2822E-03    -14.4283E-03     28.8044E-03    -14.4714E-03     29.1947E-03
            1060     7.98380E-03     96.6091E-03    -11.9330E+06    -35.1905E+06     1.09865E+06    -7.17568E+06    -14.4671E-03     28.9819E-03    -14.5149E-03     33.8051E-03    -14.4796E-03     28.8240E-03    -14.4410E-03     33.7075E-03
            1061     8.87108E-03     96.6402E-03    -11.2672E+06    -36.4772E+06     2.25733E+06    -7.59146E+06    -14.6046E-03     29.1031E-03    -14.4985E-03     38.5146E-03    -14.6150E-03     28.9375E-03    -14.4179E-03     38.4098E-03
            1062     9.75835E-03     96.6757E-03    -10.4605E+06    -35.9941E+06     3.57966E+06    -8.43289E+06    -14.8608E-03     29.3542E-03    -14.4934E-03     43.3652E-03    -14.8721E-03     29.1902E-03    -14.4082E-03     43.2468E-03
            1063     10.6453E-03     96.7154E-03    -9.93913E+06    -36.1945E+06     3.32052E+06    -9.99670E+06    -15.2314E-03     29.7321E-03    -14.5007E-03     48.1809E-03    -15.2433E-03     29.5706E-03    -14.4172E-03     48.0385E-03
            1064     11.5322E-03     96.7594E-03    -9.09719E+06    -33.6316E+06     3.67355E+06    -10.9566E+06    -15.7399E-03     30.2698E-03    -14.5299E-03     53.2077E-03    -15.7583E-03     30.1258E-03    -14.4495E-03     53.0475E-03
            1065     12.4183E-03     96.8083E-03    -8.08367E+06    -36.1141E+06     2.27689E+06    -11.5669E+06    -16.4230E-03     31.0070E-03    -14.5840E-03     59.6486E-03    -16.4426E-03     30.8631E-03    -14.5086E-03     59.4731E-03
            1066     13.3045E-03     96.8643E-03    -7.48005E+06    -43.3008E+06    -6.43794E+06    -12.0140E+06    -17.1286E-03     31.7648E-03    -14.6362E-03     64.2218E-03    -17.1405E-03     31.6151E-03    -14.5947E-03     64.0317E-03
            1067     14.1897E-03     96.9219E-03    -6.77850E+06    -23.4945E+06    -3.54701E+06    -11.1492E+06    -17.6905E-03     32.4186E-03    -14.7281E-03     68.8957E-03    -17.7635E-03     32.3945E-03    -14.7019E-03     68.7105E-03
            1068     15.0753E-03     96.9863E-03    -5.61176E+06    -8.17369E+06    -5.52639E+06    -8.91450E+06    -19.0657E-03     33.8864E-03    -14.8207E-03     89.0036E-03    -19.2857E-03     34.0735E-03    -14.8283E-03     88.8545E-03
            1069     15.9587E-03     97.0835E-03    -5.08746E+06     39.8341E+06    -21.3723E+06    -5.31492E+06    -21.0304E-03     35.8472E-03    -14.8169E-03     124.834E-03    -21.8962E-03     36.8984E-03    -14.9741E-03     124.947E-03
            1070     16.8437E-03     97.2181E-03    -3.72623E+06     122.514E+06     32.1508E+06    -2.00670E+06    -20.2083E-03     35.3083E-03    -15.1000E-03     122.914E-03    -21.4916E-03     36.9201E-03    -15.1115E-03     123.547E-03
            1071     887.168E-06     97.4640E-03    -19.3263E+06    -21.4364E+06    -18.4292E+06     78.8402E+03    -14.3374E-03     28.6941E-03    -14.3567E-03     3.66148E-03    -14.3762E-03     28.6417E-03    -14.3897E-03     3.66218E-03
            1072     1.77426E-03     97.4683E-03    -19.2001E+06    -20.1098E+06    -16.0258E+06    -135.960E+03    -14.3076E-03     28.6570E-03    -14.3494E-03     6.78081E-03    -14.3512E-03     28.6076E-03    -14.3726E-03     6.77846E-03
            1073     2.66149E-03     97.4754E-03    -18.6914E+06    -19.8572E+06    -12.3824E+06    -646.269E+03    -14.2594E-03     28.6055E-03    -14.3461E-03     10.1328E-03    -14.3062E-03     28.5514E-03    -14.3521E-03     10.1236E-03
            1074     3.54872E-03     97.4854E-03    -17.9678E+06    -20.2823E+06    -8.03287E+06    -1.20362E+06    -14.2005E-03     28.5404E-03    -14.3399E-03     13.6191E-03    -14.2495E-03     28.4769E-03    -14.3246E-03     13.6024E-03
            1075     4.43608E-03     97.4985E-03    -17.1915E+06    -22.3512E+06    -3.78537E+06    -1.88923E+06    -14.1464E-03     28.4767E-03    -14.3303E-03     17.2678E-03    -14.1948E-03     28.3958E-03    -14.2919E-03     17.2418E-03
            1076     5.32348E-03     97.5147E-03    -16.5213E+06    -25.5303E+06    -1.11410E+06    -2.87039E+06    -14.1077E-03     28.4195E-03    -14.3118E-03     21.1211E-03    -14.1522E-03     28.3180E-03    -14.2564E-03     21.0820E-03
            1077     6.21095E-03     97.5343E-03    -16.0126E+06    -28.8769E+06    -403.829E+03    -3.89718E+06    -14.0911E-03     28.3744E-03    -14.2833E-03     25.2178E-03    -14.1296E-03     28.2547E-03    -14.2202E-03     25.1649E-03
            1078     7.09851E-03     97.5575E-03    -15.6704E+06    -31.5267E+06    -300.536E+03    -4.98611E+06    -14.1098E-03     28.3624E-03    -14.2526E-03     29.5825E-03    -14.1434E-03     28.2293E-03    -14.1856E-03     29.5147E-03
            1079     7.98604E-03     97.5846E-03    -15.3041E+06    -33.6001E+06     120.265E+03    -6.06529E+06    -14.1848E-03     28.4121E-03    -14.2274E-03     34.2078E-03    -14.2149E-03     28.2683E-03    -14.1558E-03     34.1250E-03
            1080     8.87363E-03     97.6158E-03    -14.5513E+06    -34.7824E+06     1.18207E+06    -7.13833E+06    -14.3538E-03     28.5667E-03    -14.2129E-03     39.0688E-03    -14.3813E-03     28.4157E-03    -14.1355E-03     38.9704E-03
            1081     9.76103E-03     97.6513E-03    -13.3568E+06    -33.9503E+06     2.72112E+06    -8.21128E+06    -14.6487E-03     28.8616E-03    -14.2129E-03     44.0966E-03    -14.6760E-03     28.7130E-03    -14.1307E-03     43.9817E-03
            1082     10.6483E-03     97.6915E-03    -12.2304E+06    -33.3826E+06     3.49020E+06    -9.44304E+06    -15.0996E-03     29.3314E-03    -14.2318E-03     49.0720E-03    -15.1270E-03     29.1868E-03    -14.1482E-03     48.9373E-03
            1083     11.5350E-03     97.7359E-03    -11.3668E+06    -31.7642E+06     3.55595E+06    -11.1059E+06    -15.6755E-03     29.9487E-03    -14.2732E-03     54.3044E-03    -15.7077E-03     29.8174E-03    -14.1928E-03     54.1428E-03
            1084     12.4217E-03     97.7856E-03    -10.1426E+06    -34.5590E+06     2.39367E+06    -11.9546E+06    -16.4051E-03     30.7478E-03    -14.3426E-03     60.8922E-03    -16.4374E-03     30.6144E-03    -14.2658E-03     60.7121E-03
            1085     13.3073E-03     97.8420E-03    -9.28043E+06    -41.8292E+06    -5.61565E+06    -12.3797E+06    -17.3359E-03     31.7545E-03    -14.4186E-03     65.4511E-03    -17.3607E-03     31.6142E-03    -14.3726E-03     65.2561E-03
            1086     14.1930E-03     97.9003E-03    -8.03404E+06    -24.3791E+06    -4.03176E+06    -12.4754E+06    -18.2749E-03     32.8182E-03    -14.5433E-03     69.7334E-03    -18.3535E-03     32.7934E-03    -14.5164E-03     69.5292E-03
            1087     15.0765E-03     97.9663E-03    -6.30442E+06    -10.7425E+06    -6.31524E+06    -10.8386E+06    -19.9844E-03     34.6724E-03    -14.6880E-03     90.4848E-03    -20.2088E-03     34.8546E-03    -14.6948E-03     90.3052E-03
            1088     15.9605E-03     98.0642E-03    -4.57631E+06     35.4984E+06    -19.0507E+06    -7.02508E+06    -21.7279E-03     36.4777E-03    -14.7499E-03     125.650E-03    -22.5950E-03     37.5099E-03    -14.8900E-03     125.736E-03
            1089     16.8440E-03     98.1976E-03    -2.62128E+06     119.016E+06     34.5593E+06    -2.38289E+06    -20.5665E-03     35.6299E-03    -15.0635E-03     122.453E-03    -21.8432E-03     37.2196E-03    -15.0594E-03     123.072E-03
            1090     887.383E-06     98.4395E-03    -22.3022E+06    -22.6399E+06    -21.0949E+06     1.16217E+06    -13.9959E-03     28.0078E-03    -14.0119E-03     3.68011E-03    -14.0440E-03     27.9576E-03    -14.0522E-03     3.69483E-03
            1091     1.77490E-03     98.4438E-03    -22.2981E+06    -20.3915E+06    -18.4710E+06     1.56997E+06    -13.9626E-03     27.9701E-03    -14.0075E-03     6.82667E-03    -14.0178E-03     27.9273E-03    -14.0379E-03     6.84642E-03
            1092     2.66234E-03     98.4509E-03    -22.1844E+06    -19.3814E+06    -14.5430E+06     1.33327E+06    -13.9151E-03     27.9210E-03    -14.0059E-03     10.2070E-03    -13.9769E-03     27.8775E-03    -14.0184E-03     10.2234E-03
            1093     3.54993E-03     98.4608E-03    -21.6566E+06    -19.6775E+06    -10.1636E+06     847.581E+03    -13.8567E-03     27.8579E-03    -14.0012E-03     13.7201E-03    -13.9219E-03     27.8059E-03    -13.9921E-03     13.7300E-03
            1094     4.43753E-03     98.4737E-03    -20.8431E+06    -21.3247E+06    -5.87596E+06     256.352E+03    -13.7958E-03     27.7873E-03    -13.9915E-03     17.3984E-03    -13.8609E-03     27.7197E-03    -13.9597E-03     17.4002E-03
            1095     5.32526E-03     98.4898E-03    -20.0790E+06    -24.0179E+06    -2.59642E+06    -602.934E+03    -13.7498E-03     27.7240E-03    -13.9742E-03     21.2914E-03    -13.8122E-03     27.6373E-03    -13.9232E-03     21.2818E-03
            1096     6.21305E-03     98.5093E-03    -19.4766E+06    -27.0664E+06    -1.20866E+06    -1.86121E+06    -13.7380E-03     27.6856E-03    -13.9476E-03     25.4480E-03    -13.7952E-03     27.5810E-03    -13.8861E-03     25.4217E-03
            1097     7.10086E-03     98.5324E-03    -18.9330E+06    -29.5736E+06    -1.05254E+06    -3.22302E+06    -13.7714E-03     27.6884E-03    -13.9170E-03     29.8976E-03    -13.8229E-03     27.5707E-03    -13.8519E-03     29.8530E-03
            1098     7.98874E-03     98.5595E-03    -18.2400E+06    -31.2771E+06    -478.291E+03    -4.86619E+06    -13.8766E-03     27.7706E-03    -13.8939E-03     34.6432E-03    -13.9238E-03     27.6433E-03    -13.8245E-03     34.5763E-03
            1099     8.87649E-03     98.5908E-03    -17.1606E+06    -32.5131E+06     674.339E+03    -6.65749E+06    -14.0860E-03     27.9706E-03    -13.8846E-03     39.6650E-03    -14.1289E-03     27.8352E-03    -13.8092E-03     39.5733E-03
            1100     9.76418E-03     98.6267E-03    -15.8143E+06    -31.8194E+06     2.18937E+06    -8.13933E+06    -14.4215E-03     28.3132E-03    -13.8916E-03     44.8763E-03    -14.4632E-03     28.1793E-03    -13.8116E-03     44.7630E-03
            1101     10.6515E-03     98.6671E-03    -14.4205E+06    -31.2503E+06     3.14550E+06    -9.27223E+06    -14.9390E-03     28.8600E-03    -13.9210E-03     50.0909E-03    -14.9797E-03     28.7294E-03    -13.8390E-03     49.9591E-03
            1102     11.5386E-03     98.7123E-03    -12.9619E+06    -28.1955E+06     4.14122E+06    -11.1750E+06    -15.6159E-03     29.5940E-03    -13.9781E-03     55.4408E-03    -15.6618E-03     29.4818E-03    -13.8978E-03     55.2789E-03
            1103     12.4249E-03     98.7622E-03    -11.2973E+06    -33.6003E+06     2.12706E+06    -12.8237E+06    -16.5013E-03     30.5685E-03    -14.0672E-03     62.0184E-03    -16.5405E-03     30.4421E-03    -13.9914E-03     61.8272E-03
            1104     13.3111E-03     98.8199E-03    -9.49639E+06    -39.6148E+06    -5.45606E+06    -13.3275E+06    -17.7095E-03     31.8828E-03    -14.1733E-03     67.0162E-03    -17.7395E-03     31.7543E-03    -14.1293E-03     66.8084E-03
            1105     14.1947E-03     98.8797E-03    -8.26377E+06    -23.2713E+06    -4.38663E+06    -14.2505E+06    -18.8922E-03     33.2320E-03    -14.3398E-03     71.2868E-03    -18.9754E-03     33.2160E-03    -14.3160E-03     71.0575E-03
            1106     15.0798E-03     98.9457E-03    -6.44628E+06    -14.5148E+06    -7.09777E+06    -12.4643E+06    -20.4372E-03     34.9659E-03    -14.5288E-03     92.1585E-03    -20.6593E-03     35.1343E-03    -14.5339E-03     91.9554E-03
            1107     15.9621E-03     99.0463E-03    -6.24346E+06     30.9915E+06    -17.8017E+06    -8.24875E+06    -22.4643E-03     37.1054E-03    -14.6412E-03     127.095E-03    -23.3395E-03     38.1202E-03    -14.7661E-03     127.154E-03
            1108     16.8451E-03     99.1778E-03    -4.40512E+06     114.363E+06     35.5098E+06    -3.50155E+06    -21.6678E-03     36.6740E-03    -15.0062E-03     122.355E-03    -22.9550E-03     38.2485E-03    -14.9880E-03     122.941E-03
            1109     887.821E-06     99.4143E-03    -25.5475E+06    -26.0994E+06    -24.4447E+06     2.41524E+06    -13.5942E-03     27.2053E-03    -13.6110E-03     3.70310E-03    -13.6487E-03     27.1473E-03    -13.6584E-03     3.73404E-03
            1110     1.77554E-03     99.4185E-03    -25.7723E+06    -22.5517E+06    -21.6204E+06     3.75882E+06    -13.5590E-03     27.1643E-03    -13.6054E-03     6.87563E-03    -13.6238E-03     27.1203E-03    -13.6434E-03     6.92372E-03
            1111     2.66344E-03     99.4256E-03    -25.7393E+06    -19.8991E+06    -17.1364E+06     4.02598E+06    -13.5129E-03     27.1180E-03    -13.6052E-03     10.2825E-03    -13.5880E-03     27.0808E-03    -13.6247E-03     10.3338E-03
            1112     3.55128E-03     99.4354E-03    -25.3704E+06    -19.6056E+06    -12.1387E+06     3.45621E+06    -13.4619E-03     27.0670E-03    -13.6052E-03     13.8269E-03    -13.5429E-03     27.0236E-03    -13.6006E-03     13.8706E-03
            1113     4.43928E-03     99.4483E-03    -24.6151E+06    -20.8345E+06    -7.66009E+06     2.71684E+06    -13.4074E-03     27.0063E-03    -13.5989E-03     17.5367E-03    -13.4894E-03     26.9492E-03    -13.5713E-03     17.5705E-03
            1114     5.32730E-03     99.4642E-03    -23.6383E+06    -22.9512E+06    -4.11536E+06     1.77632E+06    -13.3651E-03     26.9499E-03    -13.5847E-03     21.4684E-03    -13.4445E-03     26.8758E-03    -13.5378E-03     21.4898E-03
            1115     6.21542E-03     99.4836E-03    -22.6649E+06    -25.1151E+06    -2.08378E+06     317.678E+03    -13.3570E-03     26.9190E-03    -13.5621E-03     25.6820E-03    -13.4316E-03     26.8301E-03    -13.5032E-03     25.6841E-03
            1116     7.10359E-03     99.5067E-03    -21.5347E+06    -27.2887E+06    -1.43631E+06    -1.72022E+06    -13.4098E-03     26.9455E-03    -13.5357E-03     30.2193E-03    -13.4770E-03     26.8435E-03    -13.4720E-03     30.1945E-03
            1117     7.99172E-03     99.5338E-03    -20.2084E+06    -28.5461E+06    -705.498E+03    -3.83241E+06    -13.5455E-03     27.0620E-03    -13.5165E-03     35.0972E-03    -13.6060E-03     26.9514E-03    -13.4493E-03     35.0441E-03
            1118     8.87981E-03     99.5653E-03    -18.7658E+06    -29.3735E+06     672.095E+03    -6.25837E+06    -13.7929E-03     27.3066E-03    -13.5138E-03     40.2874E-03    -13.8481E-03     27.1890E-03    -13.4406E-03     40.2015E-03
            1119     9.76768E-03     99.6013E-03    -17.1181E+06    -29.8107E+06     1.89386E+06    -8.05226E+06    -14.1848E-03     27.7143E-03    -13.5296E-03     45.7019E-03    -14.2351E-03     27.5926E-03    -13.4520E-03     45.5903E-03
            1120     10.6553E-03     99.6423E-03    -15.3737E+06    -28.9072E+06     3.06756E+06    -9.40688E+06    -14.7610E-03     28.3315E-03    -13.5705E-03     51.1754E-03    -14.8095E-03     28.2138E-03    -13.4909E-03     51.0425E-03
            1121     11.5424E-03     99.6880E-03    -13.5685E+06    -24.2663E+06     4.55767E+06    -11.5532E+06    -15.5685E-03     29.2120E-03    -13.6435E-03     56.7776E-03    -15.6235E-03     29.1195E-03    -13.5658E-03     56.6114E-03
            1122     12.4289E-03     99.7392E-03    -11.6958E+06    -31.2610E+06     2.43219E+06    -13.9233E+06    -16.7309E-03     30.4922E-03    -13.7613E-03     63.6376E-03    -16.7764E-03     30.3781E-03    -13.6869E-03     63.4321E-03
            1123     13.3138E-03     99.7975E-03    -9.52195E+06    -38.8660E+06    -5.96839E+06    -15.0520E+06    -17.9870E-03     31.8857E-03    -13.8986E-03     68.9809E-03    -18.0182E-03     31.7624E-03    -13.8583E-03     68.7506E-03
            1124     14.1994E-03     99.8595E-03    -7.91581E+06    -20.0368E+06    -2.93881E+06    -15.5843E+06    -19.2757E-03     33.3797E-03    -14.1040E-03     73.5138E-03    -19.3659E-03     33.3792E-03    -14.0781E-03     73.2662E-03
            1125     15.0813E-03     99.9263E-03    -6.25214E+06    -18.0545E+06    -6.59090E+06    -14.6561E+06    -21.1294E-03     35.4689E-03    -14.3395E-03     93.6722E-03    -21.3521E-03     35.6244E-03    -14.3372E-03     93.4364E-03
            1126     15.9660E-03     100.027E-03    -4.02347E+06     24.8423E+06    -17.2941E+06    -8.90333E+06    -23.3280E-03     37.8298E-03    -14.5018E-03     128.373E-03    -24.1859E-03     38.8119E-03    -14.6185E-03     128.409E-03
            1127     16.8471E-03     100.162E-03    -3.95264E+06     111.214E+06     36.4285E+06    -3.44791E+06    -22.9310E-03     37.8579E-03    -14.9270E-03     121.962E-03    -24.2082E-03     39.4103E-03    -14.9004E-03     122.518E-03
            1128     888.131E-06     100.388E-03    -29.5528E+06    -31.8454E+06    -28.4837E+06     3.39816E+06    -13.1362E-03     26.2866E-03    -13.1504E-03     3.73198E-03    -13.1965E-03     26.2116E-03    -13.2038E-03     3.77566E-03
            1129     1.77642E-03     100.393E-03    -29.2894E+06    -27.0092E+06    -25.2452E+06     5.86332E+06    -13.1041E-03     26.2504E-03    -13.1463E-03     6.92534E-03    -13.1748E-03     26.1944E-03    -13.1909E-03     7.00066E-03
            1130     2.66459E-03     100.399E-03    -29.1682E+06    -21.9595E+06    -20.2305E+06     7.02530E+06    -13.0581E-03     26.2050E-03    -13.1468E-03     10.3564E-03    -13.1429E-03     26.1669E-03    -13.1738E-03     10.4466E-03
            1131     3.55294E-03     100.409E-03    -28.7930E+06    -19.9106E+06    -14.4412E+06     6.54495E+06    -13.0150E-03     26.1659E-03    -13.1509E-03     13.9305E-03    -13.1093E-03     26.1292E-03    -13.1525E-03     14.0142E-03
            1132     4.44123E-03     100.422E-03    -27.8424E+06    -20.6776E+06    -9.13436E+06     5.37864E+06    -12.9825E-03     26.1352E-03    -13.1527E-03     17.6773E-03    -13.0788E-03     26.0857E-03    -13.1280E-03     17.7457E-03
            1133     5.32965E-03     100.438E-03    -26.4408E+06    -22.0273E+06    -5.16603E+06     4.04860E+06    -12.9616E-03     26.1074E-03    -13.1459E-03     21.6496E-03    -13.0547E-03     26.0435E-03    -13.1014E-03     21.7005E-03
            1134     6.21810E-03     100.457E-03    -24.7262E+06    -23.0018E+06    -2.58193E+06     2.07373E+06    -12.9685E-03     26.0990E-03    -13.1305E-03     25.9168E-03    -13.0556E-03     26.0242E-03    -13.0742E-03     25.9418E-03
            1135     7.10660E-03     100.480E-03    -22.9988E+06    -24.3960E+06    -1.46193E+06    -486.018E+03    -13.0379E-03     26.1495E-03    -13.1116E-03     30.5394E-03    -13.1164E-03     26.0640E-03    -13.0502E-03     30.5309E-03
            1136     7.99506E-03     100.507E-03    -21.1466E+06    -25.4219E+06       -681.E+03    -3.32173E+06    -13.1969E-03     26.2958E-03    -13.0990E-03     35.5473E-03    -13.2664E-03     26.2020E-03    -13.0349E-03     35.5013E-03
            1137     8.88343E-03     100.539E-03    -19.1620E+06    -25.8300E+06     806.867E+03    -5.98068E+06    -13.4750E-03     26.5784E-03    -13.1034E-03     40.9069E-03    -13.5374E-03     26.4787E-03    -13.0341E-03     40.8251E-03
            1138     9.77160E-03     100.575E-03    -17.0276E+06    -27.2238E+06     2.06435E+06    -8.41992E+06    -13.9252E-03     27.0550E-03    -13.1298E-03     46.5545E-03    -13.9788E-03     26.9455E-03    -13.0553E-03     46.4389E-03
            1139     10.6594E-03     100.617E-03    -14.4414E+06    -26.4312E+06     3.34205E+06    -10.1734E+06    -14.5708E-03     27.7534E-03    -13.1826E-03     52.3149E-03    -14.6183E-03     27.6460E-03    -13.1066E-03     52.1729E-03
            1140     11.5467E-03     100.664E-03    -12.0095E+06    -20.3748E+06     5.77125E+06    -12.1399E+06    -15.4913E-03     28.7650E-03    -13.2737E-03     58.3154E-03    -15.5457E-03     28.6877E-03    -13.1979E-03     58.1422E-03
            1141     12.4331E-03     100.716E-03    -10.2300E+06    -27.8204E+06     4.26542E+06    -14.5152E+06    -16.8596E-03     30.2790E-03    -13.4195E-03     65.6212E-03    -16.9057E-03     30.1777E-03    -13.3430E-03     65.4083E-03
            1142     13.3187E-03     100.776E-03    -9.19048E+06    -36.9240E+06    -4.94798E+06    -16.5324E+06    -18.2963E-03     31.8859E-03    -13.5896E-03     70.9670E-03    -18.3311E-03     31.7714E-03    -13.5475E-03     70.7169E-03
            1143     14.2022E-03     100.838E-03    -8.11435E+06    -19.1977E+06    -1.67877E+06    -16.7023E+06    -19.7591E-03     33.5971E-03    -13.8380E-03     75.6872E-03    -19.8552E-03     33.6012E-03    -13.8068E-03     75.4236E-03
            1144     15.0870E-03     100.908E-03    -7.63431E+06    -18.4886E+06    -5.27066E+06    -15.7774E+06    -22.7514E-03     36.9017E-03    -14.1503E-03     95.1039E-03    -22.9924E-03     37.0654E-03    -14.1388E-03     94.8420E-03
            1145     15.9661E-03     101.008E-03    -6.89311E+06     16.9203E+06    -17.5167E+06    -12.1313E+06    -24.2522E-03     38.6533E-03    -14.4011E-03     126.981E-03    -25.1010E-03     39.5885E-03    -14.5032E-03     126.959E-03
            1146     16.8487E-03     101.146E-03    -3.40780E+06     103.661E+06     34.8558E+06    -4.30605E+06    -23.1946E-03     38.0479E-03    -14.8533E-03     122.913E-03    -24.4559E-03     39.5641E-03    -14.8243E-03     123.441E-03
            1147     888.688E-06     101.361E-03    -35.5178E+06    -38.7946E+06    -34.6844E+06     3.65329E+06    -12.6255E-03     25.2631E-03    -12.6375E-03     3.76007E-03    -12.6966E-03     25.1709E-03    -12.7032E-03     3.80708E-03
            1148     1.77724E-03     101.365E-03    -34.1474E+06    -33.5604E+06    -30.7092E+06     6.75453E+06    -12.5996E-03     25.2353E-03    -12.6357E-03     6.97048E-03    -12.6772E-03     25.1616E-03    -12.6911E-03     7.05738E-03
            1149     2.66600E-03     101.372E-03    -32.7049E+06    -26.1928E+06    -24.5797E+06     9.33983E+06    -12.5591E-03     25.1969E-03    -12.6378E-03     10.4204E-03    -12.6491E-03     25.1490E-03    -12.6753E-03     10.5405E-03
            1150     3.55466E-03     101.382E-03    -31.6658E+06    -20.8686E+06    -17.3120E+06     9.57765E+06    -12.5290E-03     25.1754E-03    -12.6465E-03     14.0199E-03    -12.6320E-03     25.1422E-03    -12.6569E-03     14.1429E-03
            1151     4.44347E-03     101.395E-03    -30.3146E+06    -20.3112E+06    -10.8163E+06     7.89866E+06    -12.5229E-03     25.1808E-03    -12.6579E-03     17.8035E-03    -12.6295E-03     25.1390E-03    -12.6386E-03     17.9046E-03
            1152     5.33222E-03     101.411E-03    -28.2247E+06    -20.9992E+06    -6.02431E+06     5.81748E+06    -12.5383E-03     25.2008E-03    -12.6625E-03     21.8208E-03    -12.6406E-03     25.1458E-03    -12.6213E-03     21.8948E-03
            1153     6.22105E-03     101.430E-03    -25.9738E+06    -20.5956E+06    -2.88021E+06     3.40798E+06    -12.5753E-03     25.2337E-03    -12.6585E-03     26.1371E-03    -12.6717E-03     25.1731E-03    -12.6053E-03     26.1796E-03
            1154     7.10985E-03     101.453E-03    -23.7056E+06    -21.0264E+06    -1.44349E+06     289.195E+03    -12.6640E-03     25.3144E-03    -12.6504E-03     30.8387E-03    -12.7509E-03     25.2466E-03    -12.5928E-03     30.8404E-03
            1155     7.99866E-03     101.480E-03    -21.4719E+06    -21.6084E+06    -600.482E+03    -3.08659E+06    -12.8371E-03     25.4843E-03    -12.6472E-03     35.9646E-03    -12.9137E-03     25.4098E-03    -12.5878E-03     35.9220E-03
            1156     8.88733E-03     101.512E-03    -19.3301E+06    -22.4326E+06     699.425E+03    -6.05950E+06    -13.1381E-03     25.7988E-03    -12.6607E-03     41.5004E-03    -13.2059E-03     25.7163E-03    -12.5966E-03     41.4181E-03
            1157     9.77582E-03     101.549E-03    -17.1696E+06    -23.3168E+06     2.13978E+06    -8.96339E+06    -13.6208E-03     26.3178E-03    -12.6970E-03     47.4044E-03    -13.6806E-03     26.2276E-03    -12.6276E-03     47.2824E-03
            1158     10.6639E-03     101.591E-03    -14.5958E+06    -23.5417E+06     3.39204E+06    -11.7592E+06    -14.3412E-03     27.1040E-03    -12.7629E-03     53.4904E-03    -14.3932E-03     27.0109E-03    -12.6906E-03     53.3287E-03
            1159     11.5513E-03     101.638E-03    -11.8129E+06    -17.5363E+06     6.05569E+06    -13.1884E+06    -15.3700E-03     28.2405E-03    -12.8705E-03     59.9458E-03    -15.4277E-03     28.1764E-03    -12.7976E-03     59.7600E-03
            1160     12.4380E-03     101.692E-03    -9.59073E+06    -24.1939E+06     5.18947E+06    -15.0033E+06    -16.8231E-03     29.8597E-03    -13.0366E-03     67.7108E-03    -16.8724E-03     29.7740E-03    -12.9617E-03     67.4923E-03
            1161     13.3229E-03     101.754E-03    -8.33636E+06    -33.4806E+06    -3.55900E+06    -17.0744E+06    -18.5893E-03     31.8270E-03    -13.2376E-03     73.3572E-03    -18.6276E-03     31.7272E-03    -13.1948E-03     73.0999E-03
            1162     14.2075E-03     101.818E-03    -7.56473E+06    -19.2101E+06    -1.02641E+06    -17.4710E+06    -20.8186E-03     34.3638E-03    -13.5452E-03     78.5422E-03    -20.9171E-03     34.3703E-03    -13.5115E-03     78.2643E-03
            1163     15.0878E-03     101.890E-03    -6.89972E+06    -19.7699E+06    -4.65398E+06    -15.7554E+06    -23.5217E-03     37.4421E-03    -13.9204E-03     99.3787E-03    -23.7620E-03     37.6012E-03    -13.9050E-03     99.1130E-03
            1164     15.9664E-03     101.997E-03    -5.84839E+06     10.8344E+06    -15.4154E+06    -11.4807E+06    -25.0299E-03     39.2602E-03    -14.2303E-03     129.632E-03    -25.8607E-03     40.1535E-03    -14.3146E-03     129.596E-03
            1165     16.8502E-03     102.119E-03    -2.38188E+06     95.3693E+06     36.8356E+06    -6.36696E+06    -24.9515E-03     39.7029E-03    -14.7513E-03     126.808E-03    -26.2262E-03     41.2010E-03    -14.7020E-03     127.274E-03
            1166     889.047E-06     102.333E-03    -45.0809E+06    -44.9763E+06    -44.7091E+06     2.62067E+06    -12.0688E-03     24.1586E-03    -12.0898E-03     3.78612E-03    -12.1641E-03     24.0639E-03    -12.1828E-03     3.81984E-03
            1167     1.77828E-03     102.337E-03    -41.9562E+06    -40.2223E+06    -39.5879E+06     5.20318E+06    -12.0576E-03     24.1436E-03    -12.0860E-03     7.00696E-03    -12.1517E-03     24.0608E-03    -12.1648E-03     7.07391E-03
            1168     2.66735E-03     102.344E-03    -37.5271E+06    -32.4809E+06    -31.6365E+06     8.46972E+06    -12.0326E-03     24.1257E-03    -12.0931E-03     10.4685E-03    -12.1273E-03     24.0637E-03    -12.1498E-03     10.5775E-03
            1169     3.55662E-03     102.354E-03    -33.5954E+06    -23.7720E+06    -21.9268E+06     10.8695E+06    -12.0174E-03     24.1242E-03    -12.1068E-03     14.0772E-03    -12.1192E-03     24.0860E-03    -12.1333E-03     14.2170E-03
            1170     4.44576E-03     102.367E-03    -31.1365E+06    -19.5883E+06    -13.0926E+06     9.98574E+06    -12.0397E-03     24.1677E-03    -12.1280E-03     17.8920E-03    -12.1482E-03     24.1341E-03    -12.1199E-03     18.0202E-03
            1171     5.33500E-03     102.383E-03    -28.7822E+06    -19.3347E+06    -7.05762E+06     6.99432E+06    -12.0965E-03     24.2430E-03    -12.1466E-03     21.9526E-03    -12.2024E-03     24.1986E-03    -12.1121E-03     22.0420E-03
            1172     6.22415E-03     102.402E-03    -25.7893E+06    -18.2000E+06    -3.14832E+06     4.07747E+06    -12.1739E-03     24.3307E-03    -12.1568E-03     26.3140E-03    -12.2724E-03     24.2822E-03    -12.1088E-03     26.3654E-03
            1173     7.11334E-03     102.425E-03    -23.1401E+06    -17.2004E+06    -1.05279E+06     841.171E+03    -12.2892E-03     24.4523E-03    -12.1630E-03     31.0776E-03    -12.3793E-03     24.4021E-03    -12.1098E-03     31.0867E-03
            1174     8.00242E-03     102.452E-03    -20.9387E+06    -17.3714E+06    -220.604E+03    -2.92462E+06    -12.4763E-03     24.6483E-03    -12.1720E-03     36.3094E-03    -12.5568E-03     24.5934E-03    -12.1175E-03     36.2693E-03
            1175     8.89148E-03     102.484E-03    -18.7578E+06    -18.7831E+06     758.358E+03    -6.23521E+06    -12.7875E-03     24.9831E-03    -12.1956E-03     42.0187E-03    -12.8575E-03     24.9176E-03    -12.1374E-03     41.9346E-03
            1176     9.78020E-03     102.522E-03    -16.5856E+06    -18.7606E+06     2.55902E+06    -9.43765E+06    -13.2904E-03     25.5326E-03    -12.2422E-03     48.1864E-03    -13.3541E-03     25.4634E-03    -12.1782E-03     48.0589E-03
            1177     10.6687E-03     102.564E-03    -14.5397E+06    -19.4483E+06     3.97520E+06    -12.7676E+06    -14.0675E-03     26.3885E-03    -12.3210E-03     54.6269E-03    -14.1256E-03     26.3144E-03    -12.2518E-03     54.4531E-03
            1178     11.5563E-03     102.613E-03    -12.3991E+06    -15.9908E+06     5.64122E+06    -14.4643E+06    -15.1695E-03     27.6105E-03    -12.4410E-03     61.5959E-03    -15.2311E-03     27.5550E-03    -12.3716E-03     61.3945E-03
            1179     12.4430E-03     102.668E-03    -10.1615E+06    -19.8558E+06     6.01831E+06    -16.1094E+06    -16.7066E-03     29.3311E-03    -12.6245E-03     69.7997E-03    -16.7656E-03     29.2661E-03    -12.5509E-03     69.5681E-03
            1180     13.3289E-03     102.731E-03    -8.28228E+06    -31.0272E+06    -2.18338E+06    -18.0906E+06    -18.9273E-03     31.7863E-03    -12.8590E-03     76.1139E-03    -18.9715E-03     31.6973E-03    -12.8129E-03     75.8431E-03
            1181     14.2116E-03     102.798E-03    -6.26529E+06    -18.4626E+06     705.452E+03    -18.6711E+06    -21.2772E-03     34.4868E-03    -13.2096E-03     82.3157E-03    -21.3754E-03     34.4953E-03    -13.1703E-03     82.0207E-03
            1182     15.0930E-03     102.875E-03    -4.33357E+06    -22.0531E+06    -3.18501E+06    -17.1816E+06    -23.2803E-03     36.8849E-03    -13.6046E-03     102.049E-03    -23.4983E-03     37.0185E-03    -13.5823E-03     101.767E-03
            1183     15.9793E-03     102.975E-03    -2.77780E+06     4.78170E+06    -13.8184E+06    -12.4525E+06    -26.8345E-03     40.8065E-03    -13.9720E-03     131.123E-03    -27.6515E-03     41.6710E-03    -14.0440E-03     131.022E-03
            1184     16.8538E-03     103.112E-03    -1.94013E+06     90.1563E+06     39.5394E+06    -6.10583E+06    -27.9796E-03     42.6176E-03    -14.6379E-03     125.884E-03    -29.2517E-03     44.0883E-03    -14.5681E-03     126.269E-03
            1185     889.642E-06     103.304E-03    -59.2047E+06    -47.6304E+06    -59.3026E+06    -23.4978E+03    -11.5036E-03     23.0218E-03    -11.5181E-03     3.79876E-03    -11.6446E-03     22.9555E-03    -11.6597E-03     3.79838E-03
            1186     1.77913E-03     103.308E-03    -54.3624E+06    -43.9255E+06    -53.1560E+06     625.553E+03    -11.5017E-03     23.0225E-03    -11.5208E-03     7.02041E-03    -11.6328E-03     22.9588E-03    -11.6441E-03     7.02833E-03
            1187     2.66885E-03     103.315E-03    -46.9223E+06    -38.1065E+06    -43.8385E+06     2.73107E+06    -11.4965E-03     23.0310E-03    -11.5345E-03     10.4847E-03    -11.6124E-03     22.9721E-03    -11.6304E-03     10.5197E-03
            1188     3.55843E-03     103.325E-03    -37.9341E+06    -29.2419E+06    -31.4189E+06     6.40304E+06    -11.5002E-03     23.0553E-03    -11.5551E-03     14.0848E-03    -11.6020E-03     23.0098E-03    -11.6148E-03     14.1670E-03
            1189     4.44820E-03     103.338E-03    -30.5721E+06    -21.0356E+06    -18.3648E+06     9.23969E+06    -11.5415E-03     23.1268E-03    -11.5853E-03     17.8927E-03    -11.6374E-03     23.0927E-03    -11.6023E-03     18.0114E-03
            1190     5.33775E-03     103.354E-03    -26.9409E+06    -17.0094E+06    -8.80529E+06     8.05198E+06    -11.6357E-03     23.2541E-03    -11.6185E-03     21.9815E-03    -11.7332E-03     23.2212E-03    -11.5988E-03     22.0847E-03
            1191     6.22738E-03     103.373E-03    -24.5295E+06    -15.2303E+06    -3.42941E+06     4.23783E+06    -11.7608E-03     23.4066E-03    -11.6458E-03     26.3893E-03    -11.8568E-03     23.3714E-03    -11.6053E-03     26.4430E-03
            1192     7.11684E-03     103.396E-03    -21.3153E+06    -13.5640E+06    -423.996E+03     692.567E+03    -11.9079E-03     23.5754E-03    -11.6675E-03     31.1947E-03    -11.9949E-03     23.5397E-03    -11.6190E-03     31.2022E-03
            1193     8.00635E-03     103.424E-03    -18.8037E+06    -13.2680E+06     835.316E+03    -2.46791E+06    -12.1123E-03     23.8023E-03    -11.6900E-03     36.5117E-03    -12.1895E-03     23.7632E-03    -11.6393E-03     36.4778E-03
            1194     8.89560E-03     103.456E-03    -17.2180E+06    -14.2558E+06     1.64703E+06    -6.16912E+06    -12.4372E-03     24.1616E-03    -11.7244E-03     42.3876E-03    -12.5071E-03     24.1150E-03    -11.6705E-03     42.3049E-03
            1195     9.78481E-03     103.493E-03    -15.1297E+06    -13.9764E+06     3.52345E+06    -10.0564E+06    -12.9430E-03     24.7239E-03    -11.7809E-03     48.8177E-03    -13.0074E-03     24.6747E-03    -11.7211E-03     48.6830E-03
            1196     10.6734E-03     103.537E-03    -13.0862E+06    -15.2855E+06     5.10807E+06    -12.9866E+06    -13.7461E-03     25.6159E-03    -11.8698E-03     55.6602E-03    -13.8040E-03     25.5583E-03    -11.8031E-03     55.4845E-03
            1197     11.5615E-03     103.586E-03    -11.4226E+06    -13.5943E+06     6.57397E+06    -15.1201E+06    -14.9118E-03     26.9131E-03    -12.0013E-03     63.0762E-03    -14.9726E-03     26.8660E-03    -11.9322E-03     62.8676E-03
            1198     12.4486E-03     103.643E-03    -9.67626E+06    -15.6229E+06     7.47526E+06    -17.1766E+06    -16.6254E-03     28.8258E-03    -12.2004E-03     71.8245E-03    -16.6893E-03     28.7782E-03    -12.1264E-03     71.5802E-03
            1199     13.3337E-03     103.708E-03    -7.95108E+06    -27.9126E+06     39.0151E+03    -19.5160E+06    -19.0553E-03     31.5191E-03    -12.4638E-03     79.4283E-03    -19.1059E-03     31.4423E-03    -12.4116E-03     79.1394E-03
            1200     14.2170E-03     103.780E-03    -6.41391E+06    -17.9792E+06     1.71131E+06    -19.9719E+06    -21.2317E-03     34.0651E-03    -12.8334E-03     84.9282E-03    -21.3314E-03     34.0733E-03    -12.7895E-03     84.6176E-03
            1201     15.1006E-03     103.854E-03    -4.15871E+06    -23.3863E+06    -1.77275E+06    -18.7511E+06    -24.4388E-03     37.7194E-03    -13.2806E-03     103.415E-03    -24.6565E-03     37.8445E-03    -13.2495E-03     103.101E-03
            1202     15.9747E-03     103.962E-03    -5.91198E+06    -2.45878E+06    -15.9507E+06    -14.3487E+06    -29.0186E-03     42.7618E-03    -13.7432E-03     135.100E-03    -29.8661E-03     43.6260E-03    -13.8108E-03     134.943E-03
            1203     16.8520E-03     104.101E-03    -6.11016E+06     82.6940E+06     35.3423E+06    -6.03544E+06    -29.8721E-03     44.3799E-03    -14.5078E-03     127.679E-03    -31.1621E-03     45.8394E-03    -14.4422E-03     128.009E-03
            1204     889.945E-06     104.274E-03    -72.1069E+06    -44.8556E+06    -72.1807E+06    -2.90419E+06    -10.9750E-03     21.9581E-03    -10.9830E-03     3.76862E-03    -11.1658E-03     21.9430E-03    -11.1744E-03     3.73107E-03
            1205     1.78009E-03     104.278E-03    -68.5893E+06    -42.4896E+06    -67.8518E+06    -4.72655E+06    -10.9748E-03     21.9601E-03    -10.9853E-03     6.98876E-03    -11.1578E-03     21.9455E-03    -11.1635E-03     6.92763E-03
            1206     2.67005E-03     104.285E-03    -62.0334E+06    -39.1178E+06    -59.9300E+06    -5.56155E+06    -10.9830E-03     21.9837E-03    -11.0007E-03     10.4398E-03    -11.1496E-03     21.9649E-03    -11.1537E-03     10.3678E-03
            1207     3.56023E-03     104.295E-03    -51.8226E+06    -33.6805E+06    -47.9627E+06    -3.97069E+06    -11.0045E-03     22.0312E-03    -11.0268E-03     14.0153E-03    -11.1453E-03     22.0076E-03    -11.1426E-03     13.9638E-03
            1208     4.45025E-03     104.307E-03    -38.6871E+06    -25.9360E+06    -32.5485E+06     314.172E+03    -11.0527E-03     22.1155E-03    -11.0627E-03     17.7635E-03    -11.1615E-03     22.0892E-03    -11.1318E-03     17.7671E-03
            1209     5.34048E-03     104.324E-03    -26.7317E+06    -17.6476E+06    -16.5822E+06     4.20923E+06    -11.1529E-03     22.2603E-03    -11.1075E-03     21.8022E-03    -11.2371E-03     22.2351E-03    -11.1261E-03     21.8558E-03
            1210     6.23038E-03     104.343E-03    -20.6737E+06    -12.4073E+06    -5.24449E+06     4.18259E+06    -11.3134E-03     22.4666E-03    -11.1532E-03     26.2256E-03    -11.3916E-03     22.4425E-03    -11.1315E-03     26.2787E-03
            1211     7.12033E-03     104.366E-03    -19.0335E+06    -9.99395E+06     118.011E+03     1.11710E+06    -11.5080E-03     22.7007E-03    -11.1926E-03     31.0836E-03    -11.5895E-03     22.6788E-03    -11.1500E-03     31.0968E-03
            1212     8.01004E-03     104.394E-03    -17.0978E+06    -9.24424E+06     2.13771E+06    -2.55933E+06    -11.7440E-03     22.9722E-03    -11.2282E-03     36.4613E-03    -11.8203E-03     22.9487E-03    -11.1793E-03     36.4265E-03
            1213     8.89982E-03     104.427E-03    -14.3147E+06    -9.25996E+06     3.59367E+06    -6.30448E+06    -12.0787E-03     23.3506E-03    -11.2719E-03     42.4926E-03    -12.1439E-03     23.3217E-03    -11.2198E-03     42.4085E-03
            1214     9.78907E-03     104.465E-03    -12.9006E+06    -9.30424E+06     5.22271E+06    -9.76772E+06    -12.5740E-03     23.9097E-03    -11.3357E-03     49.1538E-03    -12.6360E-03     23.8777E-03    -11.2774E-03     49.0235E-03
            1215     10.6783E-03     104.509E-03    -11.7873E+06    -11.0023E+06     6.65598E+06    -13.0636E+06    -13.3795E-03     24.8102E-03    -11.4307E-03     56.4413E-03    -13.4387E-03     24.7691E-03    -11.3644E-03     56.2656E-03
            1216     11.5665E-03     104.560E-03    -10.1548E+06    -10.4997E+06     8.04508E+06    -15.3495E+06    -14.5804E-03     26.1484E-03    -11.5680E-03     64.3642E-03    -14.6404E-03     26.1117E-03    -11.4978E-03     64.1540E-03
            1217     12.4537E-03     104.617E-03    -8.37502E+06    -11.2464E+06     9.35503E+06    -17.7223E+06    -16.4298E-03     28.2045E-03    -11.7747E-03     74.1229E-03    -16.4951E-03     28.1731E-03    -11.6994E-03     73.8729E-03
            1218     13.3396E-03     104.686E-03    -7.11906E+06    -24.7003E+06     2.70917E+06    -20.0182E+06    -18.9013E-03     30.9554E-03    -12.0541E-03     82.5334E-03    -18.9548E-03     30.8882E-03    -11.9944E-03     82.2397E-03
            1219     14.2235E-03     104.759E-03    -5.91855E+06    -16.5143E+06     3.59817E+06    -20.7790E+06    -21.6792E-03     34.1287E-03    -12.4495E-03     87.8367E-03    -21.7803E-03     34.1399E-03    -12.3990E-03     87.5146E-03
            1220     15.1026E-03     104.837E-03    -5.02727E+06    -25.0438E+06    -1.33052E+06    -19.8955E+06    -25.5850E-03     38.5386E-03    -12.9535E-03     108.073E-03    -25.8126E-03     38.6634E-03    -12.9166E-03     107.736E-03
            1221     15.9847E-03     104.950E-03    -3.39823E+06    -10.5478E+06    -16.8946E+06    -13.7601E+06    -29.9403E-03     43.4103E-03    -13.4700E-03     141.007E-03    -30.7554E-03     44.2251E-03    -13.5342E-03     140.841E-03
            1222     16.8611E-03     105.091E-03    -2.41304E+06     75.2581E+06     35.2639E+06    -5.83481E+06    -32.3109E-03     46.6281E-03    -14.3172E-03     131.647E-03    -33.5748E-03     48.0487E-03    -14.2465E-03     131.922E-03
            1223     890.464E-06     105.243E-03    -67.2261E+06    -37.9661E+06    -66.8994E+06    -4.24694E+06    -10.5748E-03     21.1661E-03    -10.5914E-03     3.67743E-03    -10.7588E-03     21.1708E-03    -10.7733E-03     3.62254E-03
            1224     1.78074E-03     105.247E-03    -65.9474E+06    -36.3849E+06    -64.5749E+06    -7.56062E+06    -10.5893E-03     21.1783E-03    -10.5890E-03     6.83380E-03    -10.7727E-03     21.1856E-03    -10.7635E-03     6.73607E-03
            1225     2.67125E-03     105.254E-03    -63.6142E+06    -34.6299E+06    -60.3932E+06    -10.5913E+06    -10.6069E-03     21.2099E-03    -10.6030E-03     10.2160E-03    -10.7873E-03     21.2166E-03    -10.7625E-03     10.0791E-03
            1226     3.56154E-03     105.264E-03    -59.3876E+06    -32.7236E+06    -54.4444E+06    -12.3312E+06    -10.6304E-03     21.2531E-03    -10.6227E-03     13.7264E-03    -10.8010E-03     21.2546E-03    -10.7614E-03     13.5669E-03
            1227     4.45205E-03     105.276E-03    -51.6024E+06    -28.8088E+06    -46.4164E+06    -11.7213E+06    -10.6581E-03     21.3004E-03    -10.6423E-03     17.4202E-03    -10.8072E-03     21.2987E-03    -10.7578E-03     17.2684E-03
            1228     5.34237E-03     105.293E-03    -39.2439E+06    -21.7554E+06    -34.6411E+06    -8.08590E+06    -10.7108E-03     21.3777E-03    -10.6669E-03     21.3708E-03    -10.8255E-03     21.3763E-03    -10.7517E-03     21.2658E-03
            1229     6.23301E-03     105.312E-03    -25.3725E+06    -14.3671E+06    -18.4523E+06    -2.69859E+06    -10.8382E-03     21.5520E-03    -10.7138E-03     25.6867E-03    -10.9179E-03     21.5441E-03    -10.7484E-03     25.6510E-03
            1230     7.12326E-03     105.336E-03    -16.2103E+06    -8.08072E+06    -3.31154E+06    -52.2491E+03    -11.0597E-03     21.8352E-03    -10.7755E-03     30.5227E-03    -11.1248E-03     21.8236E-03    -10.7568E-03     30.5209E-03
            1231     8.01347E-03     105.364E-03    -13.1749E+06    -4.65484E+06     4.10370E+06    -2.27399E+06    -11.3570E-03     22.1858E-03    -10.8288E-03     35.9852E-03    -11.4230E-03     22.1766E-03    -10.7824E-03     35.9543E-03
            1232     8.90329E-03     105.397E-03    -12.2613E+06    -4.48180E+06     5.81044E+06    -6.29689E+06    -11.7003E-03     22.5781E-03    -10.8777E-03     42.1098E-03    -11.7652E-03     22.5666E-03    -10.8244E-03     42.0262E-03
            1233     9.79330E-03     105.435E-03    -10.4042E+06    -5.21682E+06     7.41893E+06    -9.42604E+06    -12.1928E-03     23.1361E-03    -10.9433E-03     48.9921E-03    -12.2509E-03     23.1172E-03    -10.8835E-03     48.8669E-03
            1234     10.6824E-03     105.480E-03    -9.05842E+06    -6.19771E+06     9.21210E+06    -12.3995E+06    -12.9550E-03     23.9924E-03    -11.0374E-03     56.6775E-03    -13.0102E-03     23.9667E-03    -10.9692E-03     56.5116E-03
            1235     11.5714E-03     105.531E-03    -8.51073E+06    -7.47912E+06     10.2462E+06    -14.9391E+06    -14.1175E-03     25.2891E-03    -11.1716E-03     65.1891E-03    -14.1753E-03     25.2604E-03    -11.0972E-03     64.9859E-03
            1236     12.4592E-03     105.591E-03    -8.57972E+06    -6.84096E+06     11.5801E+06    -16.9337E+06    -16.0398E-03     27.4134E-03    -11.3737E-03     75.9514E-03    -16.1136E-03     27.3989E-03    -11.2934E-03     75.7137E-03
            1237     13.3451E-03     105.662E-03    -8.35261E+06    -20.3783E+06     6.12113E+06    -20.0796E+06    -18.7784E-03     30.4434E-03    -11.6649E-03     85.0376E-03    -18.8465E-03     30.3918E-03    -11.5927E-03     84.7450E-03
            1238     14.2284E-03     105.738E-03    -7.01149E+06    -14.5702E+06     5.93393E+06    -22.2057E+06    -21.9934E-03     34.0745E-03    -12.0811E-03     91.2465E-03    -22.1044E-03     34.0919E-03    -12.0201E-03     90.9057E-03
            1239     15.1108E-03     105.821E-03    -5.12448E+06    -26.1396E+06     586.354E+03    -21.4854E+06    -26.3004E-03     38.9287E-03    -12.6283E-03     111.246E-03    -26.5258E-03     39.0417E-03    -12.5800E-03     110.882E-03
            1240     15.9864E-03     105.935E-03    -4.41574E+06    -20.8459E+06    -21.1673E+06    -15.6214E+06    -31.4066E-03     44.6026E-03    -13.1960E-03     142.768E-03    -32.1688E-03     45.3368E-03    -13.2652E-03     142.530E-03
            1241     16.8611E-03     106.082E-03    -4.54769E+06     66.2041E+06     30.2392E+06    -6.03290E+06    -34.8423E-03     48.9870E-03    -14.1447E-03     134.834E-03    -36.0902E-03     50.3666E-03    -14.0829E-03     135.028E-03
            1242     890.575E-06     106.211E-03    -48.0185E+06    -29.7082E+06    -47.3726E+06    -4.28771E+06    -10.3730E-03     20.7556E-03    -10.3826E-03     3.50803E-03    -10.5013E-03     20.7454E-03    -10.5068E-03     3.45257E-03
            1243     1.78135E-03     106.215E-03    -47.7191E+06    -28.5709E+06    -45.6426E+06    -7.58922E+06    -10.4034E-03     20.7923E-03    -10.3889E-03     6.51584E-03    -10.5344E-03     20.7848E-03    -10.5065E-03     6.41766E-03
            1244     2.67184E-03     106.222E-03    -47.5988E+06    -27.6169E+06    -43.7912E+06    -10.7762E+06    -10.4334E-03     20.8390E-03    -10.4055E-03     9.74702E-03    -10.5680E-03     20.8335E-03    -10.5154E-03     9.60758E-03
            1245     3.56255E-03     106.232E-03    -47.4901E+06    -27.0670E+06    -42.0347E+06    -13.7895E+06    -10.4642E-03     20.8866E-03    -10.4223E-03     13.1126E-03    -10.6016E-03     20.8812E-03    -10.5244E-03     12.9342E-03
            1246     4.45302E-03     106.245E-03    -46.7583E+06    -25.6094E+06    -40.2462E+06    -16.4223E+06    -10.4841E-03     20.9187E-03    -10.4346E-03     16.6671E-03    -10.6227E-03     20.9170E-03    -10.5309E-03     16.4545E-03
            1247     5.34379E-03     106.261E-03    -43.9186E+06    -22.5224E+06    -37.5027E+06    -17.4319E+06    -10.4954E-03     20.9365E-03    -10.4411E-03     20.4837E-03    -10.6282E-03     20.9422E-03    -10.5323E-03     20.2579E-03
            1248     6.23427E-03     106.281E-03    -36.2360E+06    -18.7251E+06    -30.5331E+06    -15.0538E+06    -10.5208E-03     20.9757E-03    -10.4549E-03     24.6432E-03    -10.6310E-03     20.9793E-03    -10.5279E-03     24.4480E-03
            1249     7.12517E-03     106.304E-03    -23.5040E+06    -10.9124E+06    -17.5128E+06    -9.76806E+06    -10.6335E-03     21.1183E-03    -10.4847E-03     29.3438E-03    -10.7104E-03     21.1238E-03    -10.5224E-03     29.2166E-03
            1250     8.01571E-03     106.333E-03    -12.2153E+06    -3.40689E+06    -1.93375E+06    -5.49850E+06    -10.8929E-03     21.4326E-03    -10.5397E-03     34.7496E-03    -10.9471E-03     21.4370E-03    -10.5267E-03     34.6772E-03
            1251     8.90618E-03     106.366E-03    -7.58758E+06    -350.551E+03     7.98382E+06    -5.52039E+06    -11.2864E-03     21.8887E-03    -10.6023E-03     40.9453E-03    -11.3368E-03     21.8877E-03    -10.5509E-03     40.8720E-03
            1252     9.79602E-03     106.404E-03    -7.67183E+06    -1.41317E+06     10.2364E+06    -8.28577E+06    -11.7913E-03     22.4544E-03    -10.6630E-03     48.0344E-03    -11.8449E-03     22.4460E-03    -10.5987E-03     47.9245E-03
            1253     10.6860E-03     106.450E-03    -7.81097E+06    -1.55978E+06     11.7007E+06    -11.2054E+06    -12.4686E-03     23.2132E-03    -10.7446E-03     56.0053E-03    -12.5268E-03     23.2043E-03    -10.6725E-03     55.8559E-03
            1254     11.5751E-03     106.503E-03    -7.05651E+06    -3.92996E+06     13.3998E+06    -14.0069E+06    -13.6295E-03     24.4989E-03    -10.8694E-03     65.0843E-03    -13.6878E-03     24.4793E-03    -10.7864E-03     64.8949E-03
            1255     12.4634E-03     106.564E-03    -6.64363E+06    -4.71017E+06     15.1553E+06    -14.6948E+06    -15.6089E-03     26.6715E-03    -11.0626E-03     76.7421E-03    -15.6781E-03     26.6565E-03    -10.9704E-03     76.5358E-03
            1256     13.3499E-03     106.638E-03    -7.94252E+06    -12.7779E+06     11.8496E+06    -17.9861E+06    -18.4896E-03     29.8419E-03    -11.3523E-03     86.9716E-03    -18.5706E-03     29.8150E-03    -11.2630E-03     86.7088E-03
            1257     14.2339E-03     106.717E-03    -8.77397E+06    -11.2422E+06     9.25236E+06    -22.7757E+06    -22.1825E-03     33.9585E-03    -11.7760E-03     94.1722E-03    -22.3071E-03     33.9854E-03    -11.7007E-03     93.8250E-03
            1258     15.1131E-03     106.804E-03    -8.18962E+06    -27.5254E+06     2.48235E+06    -22.3478E+06    -27.2519E-03     39.6181E-03    -12.3662E-03     114.655E-03    -27.4846E-03     39.7171E-03    -12.3020E-03     114.272E-03
            1259     15.9912E-03     106.924E-03    -7.61635E+06    -29.7934E+06    -22.3415E+06    -17.4249E+06    -33.2167E-03     46.2200E-03    -13.0033E-03     147.598E-03    -33.9498E-03     46.8855E-03    -13.0608E-03     147.287E-03
            1260     16.8637E-03     107.075E-03    -3.69331E+06     54.5693E+06     27.6183E+06    -7.67700E+06    -36.7986E-03     50.8257E-03    -14.0270E-03     141.776E-03    -38.0294E-03     52.1574E-03    -13.9627E-03     141.884E-03
            1261     890.794E-06     107.179E-03    -29.9164E+06    -21.9621E+06    -29.2850E+06    -3.63686E+06    -10.3922E-03     20.7820E-03    -10.3898E-03     3.25585E-03    -10.4675E-03     20.7581E-03    -10.4610E-03     3.20873E-03
            1262     1.78132E-03     107.183E-03    -30.1624E+06    -21.3435E+06    -28.4640E+06    -6.54865E+06    -10.4281E-03     20.8301E-03    -10.4020E-03     6.04788E-03    -10.5068E-03     20.8085E-03    -10.4696E-03     5.96302E-03
            1263     2.67211E-03     107.190E-03    -30.1589E+06    -20.6633E+06    -26.9531E+06    -9.45117E+06    -10.4738E-03     20.8976E-03    -10.4238E-03     9.04874E-03    -10.5556E-03     20.8771E-03    -10.4848E-03     8.92624E-03
            1264     3.56261E-03     107.200E-03    -29.9307E+06    -20.2666E+06    -24.8519E+06    -12.4220E+06    -10.5268E-03     20.9775E-03    -10.4507E-03     12.1631E-03    -10.6112E-03     20.9558E-03    -10.5022E-03     12.0020E-03
            1265     4.45332E-03     107.213E-03    -29.8562E+06    -19.4243E+06    -22.5741E+06    -15.2382E+06    -10.5720E-03     21.0499E-03    -10.4779E-03     15.4522E-03    -10.6607E-03     21.0291E-03    -10.5193E-03     15.2546E-03
            1266     5.34371E-03     107.229E-03    -30.4190E+06    -18.3572E+06    -21.2710E+06    -17.5851E+06    -10.5852E-03     21.0819E-03    -10.4966E-03     18.9986E-03    -10.6803E-03     21.0654E-03    -10.5322E-03     18.7705E-03
            1267     6.23450E-03     107.249E-03    -30.7411E+06    -17.2905E+06    -21.2274E+06    -19.7479E+06    -10.5700E-03     21.0705E-03    -10.5005E-03     22.9149E-03    -10.6684E-03     21.0600E-03    -10.5370E-03     22.6587E-03
            1268     7.12502E-03     107.272E-03    -28.1335E+06    -14.0395E+06    -19.9214E+06    -19.4718E+06    -10.5343E-03     21.0271E-03    -10.4928E-03     27.3503E-03    -10.6265E-03     21.0273E-03    -10.5312E-03     27.0976E-03
            1269     8.01602E-03     107.301E-03    -19.9801E+06    -6.87401E+06    -12.0809E+06    -15.2646E+06    -10.5618E-03     21.0575E-03    -10.4957E-03     32.4874E-03    -10.6352E-03     21.0706E-03    -10.5172E-03     32.2888E-03
            1270     8.90678E-03     107.334E-03    -9.57982E+06    -1.07850E+06     610.187E+03    -9.97295E+06    -10.8147E-03     21.3409E-03    -10.5262E-03     38.5832E-03    -10.8632E-03     21.3498E-03    -10.5077E-03     38.4527E-03
            1271     9.79746E-03     107.374E-03    -3.09858E+06     1.28141E+06     11.1088E+06    -7.72588E+06    -11.2918E-03     21.8689E-03    -10.5771E-03     45.7618E-03    -11.3272E-03     21.8656E-03    -10.5189E-03     45.6597E-03
            1272     10.6873E-03     107.419E-03    -1.60663E+06     2.59061E+06     16.5286E+06    -9.46993E+06    -11.9903E-03     22.6328E-03    -10.6426E-03     54.0392E-03    -12.0294E-03     22.6276E-03    -10.5613E-03     53.9132E-03
            1273     11.5772E-03     107.473E-03    -3.29095E+06    -1.33967E+06     18.3565E+06    -10.7176E+06    -13.1820E-03     23.9310E-03    -10.7489E-03     63.7440E-03    -13.2303E-03     23.9096E-03    -10.6505E-03     63.5988E-03
            1274     12.4656E-03     107.536E-03    -5.23654E+06    -2.49930E+06     19.8615E+06    -12.2442E+06    -15.1288E-03     26.0518E-03    -10.9230E-03     76.2655E-03    -15.1970E-03     26.0349E-03    -10.8124E-03     76.0937E-03
            1275     13.3526E-03     107.612E-03    -5.76757E+06    -6.42901E+06     19.0307E+06    -14.5187E+06    -17.9807E-03     29.1753E-03    -11.1946E-03     87.7226E-03    -18.0639E-03     29.1600E-03    -11.0817E-03     87.5086E-03
            1276     14.2367E-03     107.696E-03    -9.35720E+06    -5.25219E+06     15.7652E+06    -17.8570E+06    -21.9809E-03     33.5842E-03    -11.6033E-03     96.7036E-03    -22.1179E-03     33.6238E-03    -11.5033E-03     96.4232E-03
            1277     15.1179E-03     107.788E-03    -12.5399E+06    -25.4404E+06     7.35569E+06    -22.7177E+06    -27.4914E-03     39.6905E-03    -12.1991E-03     118.285E-03    -27.7381E-03     39.7813E-03    -12.1072E-03     117.895E-03
            1278     15.9934E-03     107.912E-03    -9.77932E+06    -37.0640E+06    -15.2089E+06    -20.9656E+06    -33.7967E-03     46.6705E-03    -12.8738E-03     152.155E-03    -34.4773E-03     47.2293E-03    -12.8819E-03     151.767E-03
            1279     16.8662E-03     108.070E-03    -6.14082E+06     41.0488E+06     29.0671E+06    -11.0358E+06    -38.4846E-03     52.4054E-03    -13.9208E-03     148.755E-03    -39.6908E-03     53.6519E-03    -13.8261E-03     148.741E-03
            1280     890.398E-06     108.147E-03    -13.9117E+06    -15.4786E+06    -13.5400E+06    -2.92391E+06    -10.7044E-03     21.4017E-03    -10.6973E-03     2.92480E-03    -10.7319E-03     21.3642E-03    -10.7224E-03     2.88681E-03
            1281     1.78103E-03     108.152E-03    -14.0739E+06    -14.9925E+06    -12.9187E+06    -5.53076E+06    -10.7489E-03     21.4615E-03    -10.7126E-03     5.42244E-03    -10.7788E-03     21.4257E-03    -10.7351E-03     5.35058E-03
            1282     2.67132E-03     108.158E-03    -14.3034E+06    -14.4700E+06    -11.5546E+06    -8.18835E+06    -10.8093E-03     21.5493E-03    -10.7400E-03     8.10042E-03    -10.8432E-03     21.5146E-03    -10.7561E-03     7.99401E-03
            1283     3.56182E-03     108.169E-03    -14.7936E+06    -14.1664E+06    -9.83962E+06    -10.6667E+06    -10.8788E-03     21.6531E-03    -10.7743E-03     10.8807E-03    -10.9182E-03     21.6182E-03    -10.7815E-03     10.7420E-03
            1284     4.45198E-03     108.181E-03    -15.5895E+06    -13.7632E+06    -8.48508E+06    -12.9181E+06    -10.9416E-03     21.7502E-03    -10.8086E-03     13.8139E-03    -10.9877E-03     21.7166E-03    -10.8084E-03     13.6459E-03
            1285     5.34244E-03     108.198E-03    -16.0532E+06    -12.9878E+06    -6.88588E+06    -15.0793E+06    -10.9881E-03     21.8291E-03    -10.8410E-03     16.9702E-03    -11.0401E-03     21.7979E-03    -10.8333E-03     16.7740E-03
            1286     6.23252E-03     108.217E-03    -16.7037E+06    -12.0288E+06    -5.04891E+06    -17.2662E+06    -10.9962E-03     21.8649E-03    -10.8687E-03     20.4659E-03    -11.0557E-03     21.8370E-03    -10.8522E-03     20.2411E-03
            1287     7.12298E-03     108.241E-03    -18.1927E+06    -11.6778E+06    -4.70904E+06    -19.3721E+06    -10.9317E-03     21.8109E-03    -10.8793E-03     24.4432E-03    -10.9998E-03     21.7867E-03    -10.8595E-03     24.1911E-03
            1288     8.01329E-03     108.269E-03    -19.1097E+06    -8.41606E+06    -5.78158E+06    -20.1039E+06    -10.7970E-03     21.6573E-03    -10.8604E-03     29.1225E-03    -10.8731E-03     21.6525E-03    -10.8493E-03     28.8609E-03
            1289     8.90419E-03     108.302E-03    -16.1189E+06    -5.15373E+06    -3.10967E+06    -17.3860E+06    -10.7025E-03     21.5400E-03    -10.8375E-03     34.7341E-03    -10.7725E-03     21.5434E-03    -10.8222E-03     34.5075E-03
            1290     9.79501E-03     108.342E-03    -9.19906E+06    -248.589E+03     4.53914E+06    -12.7649E+06    -10.8308E-03     21.6571E-03    -10.8263E-03     41.5744E-03    -10.8847E-03     21.6643E-03    -10.7900E-03     41.4075E-03
            1291     10.6860E-03     108.388E-03    -3.71887E+06     4.01147E+06     14.5515E+06    -9.39855E+06    -11.4173E-03     22.2670E-03    -10.8497E-03     50.0418E-03    -11.4653E-03     22.2738E-03    -10.7773E-03     49.9176E-03
            1292     11.5756E-03     108.443E-03    -1.26041E+06    -864.678E+03     21.8876E+06    -8.14932E+06    -12.6493E-03     23.5781E-03    -10.9288E-03     60.3905E-03    -12.6911E-03     23.5489E-03    -10.8163E-03     60.2803E-03
            1293     12.4648E-03     108.507E-03    -1.91955E+06     205.912E+03     25.8203E+06    -7.77260E+06    -14.5882E-03     25.6553E-03    -11.0671E-03     73.6384E-03    -14.6476E-03     25.6338E-03    -10.9355E-03     73.5275E-03
            1294     13.3521E-03     108.586E-03    -5.55158E+06    -2.25231E+06     25.8882E+06    -9.71613E+06    -17.2551E-03     28.5563E-03    -11.3013E-03     86.2879E-03    -17.3445E-03     28.5431E-03    -11.1605E-03     86.1411E-03
            1295     14.2372E-03     108.674E-03    -7.27408E+06     263.695E+03     24.0467E+06    -12.5431E+06    -21.1053E-03     32.7647E-03    -11.6594E-03     97.2627E-03    -21.2378E-03     32.8027E-03    -11.5290E-03     97.0581E-03
            1296     15.1180E-03     108.771E-03    -8.15354E+06    -14.0188E+06     18.6626E+06    -19.5963E+06    -26.7997E-03     39.0062E-03    -12.2065E-03     119.913E-03    -27.0256E-03     39.0996E-03    -12.0811E-03     119.568E-03
            1297     15.9956E-03     108.900E-03    -8.26739E+06    -41.6848E+06    -5.35452E+06    -24.6996E+06    -33.3367E-03     46.1961E-03    -12.8595E-03     154.706E-03    -33.9146E-03     46.6126E-03    -12.8138E-03     154.252E-03
            1298     16.8695E-03     109.062E-03    -3.73952E+06     23.4295E+06     29.4864E+06    -14.0052E+06    -39.1116E-03     52.9706E-03    -13.8590E-03     156.512E-03    -40.2374E-03     54.0817E-03    -13.7402E-03     156.381E-03
            1299     890.037E-06     109.116E-03    -706.619E+03    -10.1209E+06    -333.274E+03    -2.49919E+06    -11.3919E-03     22.7768E-03    -11.3848E-03     2.50928E-03    -11.3803E-03     22.7277E-03    -11.3708E-03     2.47667E-03
            1300     1.77976E-03     109.121E-03    -965.722E+03    -9.65740E+06     257.785E+03    -4.54242E+06    -11.4501E-03     22.8542E-03    -11.4041E-03     4.65062E-03    -11.4414E-03     22.8070E-03    -11.3874E-03     4.59135E-03
            1301     2.66974E-03     109.128E-03    -1.58356E+06    -9.27154E+06     1.15835E+06    -6.54533E+06    -11.5250E-03     22.9625E-03    -11.4375E-03     6.92761E-03    -11.5213E-03     22.9168E-03    -11.4159E-03     6.84215E-03
            1302     3.55937E-03     109.138E-03    -2.33193E+06    -9.24777E+06     2.09712E+06    -8.47272E+06    -11.6120E-03     23.0897E-03    -11.4777E-03     9.28521E-03    -11.6136E-03     23.0440E-03    -11.4504E-03     9.17450E-03
            1303     4.44923E-03     109.151E-03    -3.00558E+06    -8.86873E+06     3.44758E+06    -10.4442E+06    -11.7048E-03     23.2280E-03    -11.5231E-03     11.7614E-03    -11.7124E-03     23.1833E-03    -11.4887E-03     11.6248E-03
            1304     5.33867E-03     109.167E-03    -4.09864E+06    -8.38110E+06     4.85415E+06    -12.3167E+06    -11.7863E-03     23.3568E-03    -11.5705E-03     14.4347E-03    -11.8023E-03     23.3143E-03    -11.5282E-03     14.2736E-03
            1305     6.22839E-03     109.187E-03    -5.62240E+06    -7.66748E+06     6.15426E+06    -13.7375E+06    -11.8279E-03     23.4425E-03    -11.6145E-03     17.3907E-03    -11.8547E-03     23.4041E-03    -11.5645E-03     17.2108E-03
            1306     7.11782E-03     109.210E-03    -7.14847E+06    -7.06255E+06     7.73244E+06    -15.3186E+06    -11.8155E-03     23.4672E-03    -11.6517E-03     20.7519E-03    -11.8533E-03     23.4321E-03    -11.5924E-03     20.5513E-03
            1307     8.00760E-03     109.238E-03    -9.13143E+06    -6.07452E+06     8.77162E+06    -16.5448E+06    -11.7069E-03     23.3784E-03    -11.6715E-03     24.7294E-03    -11.7579E-03     23.3498E-03    -11.6056E-03     24.5128E-03
            1308     8.89725E-03     109.271E-03    -11.7939E+06    -5.61976E+06     8.04125E+06    -17.1745E+06    -11.4698E-03     23.1310E-03    -11.6612E-03     29.5370E-03    -11.5340E-03     23.1099E-03    -11.5958E-03     29.3122E-03
            1309     9.78766E-03     109.310E-03    -13.0278E+06    -3.22970E+06     7.67434E+06    -15.8465E+06    -11.2299E-03     22.8525E-03    -11.6225E-03     35.4647E-03    -11.3034E-03     22.8458E-03    -11.5606E-03     35.2572E-03
            1310     10.6782E-03     109.356E-03    -10.5012E+06     1.09013E+06     13.6577E+06    -12.0009E+06    -11.3135E-03     22.9105E-03    -11.5971E-03     43.2212E-03    -11.3895E-03     22.9135E-03    -11.5151E-03     43.0634E-03
            1311     11.5691E-03     109.412E-03    -5.73256E+06    -224.493E+03     22.8291E+06    -9.79757E+06    -12.1431E-03     23.7611E-03    -11.6180E-03     53.5429E-03    -12.2078E-03     23.7385E-03    -11.4952E-03     53.4127E-03
            1312     12.4581E-03     109.478E-03    -520.011E+03    -2.92777E+06     30.1466E+06    -6.60238E+06    -13.8134E-03     25.5104E-03    -11.6970E-03     67.2976E-03    -13.8627E-03     25.4600E-03    -11.5412E-03     67.2054E-03
            1313     13.3459E-03     109.559E-03     1.48622E+06     1.44741E+06     35.3951E+06    -3.86374E+06    -16.2286E-03     28.0857E-03    -11.8571E-03     81.0335E-03    -16.2919E-03     28.0569E-03    -11.6844E-03     80.9687E-03
            1314     14.2318E-03     109.649E-03    -1.46777E+06     6.40780E+06     34.6027E+06    -7.59974E+06    -19.8086E-03     31.9369E-03    -12.1283E-03     93.9105E-03    -19.9180E-03     31.9636E-03    -11.9624E-03     93.7798E-03
            1315     15.1148E-03     109.753E-03    -5.10837E+06    -1.54904E+06     29.9560E+06    -13.9143E+06    -24.9228E-03     37.4900E-03    -12.5671E-03     117.612E-03    -25.1224E-03     37.5793E-03    -12.4077E-03     117.357E-03
            1316     15.9931E-03     109.886E-03    -10.4168E+06    -35.4895E+06     5.42874E+06    -22.0131E+06    -31.1181E-03     44.2269E-03    -13.1088E-03     153.606E-03    -31.5852E-03     44.5157E-03    -13.0151E-03     153.191E-03
            1317     16.8677E-03     110.054E-03    -12.2993E+06     4.23687E+06     13.6790E+06    -20.3866E+06    -37.0350E-03     50.9191E-03    -13.8841E-03     163.495E-03    -38.0491E-03     51.8657E-03    -13.8040E-03     163.230E-03
            1318     888.863E-06     110.087E-03     8.76107E+06    -5.86059E+06     9.25628E+06    -1.91199E+06    -12.5488E-03     25.0710E-03    -12.5222E-03     2.02651E-03    -12.5100E-03     25.0155E-03    -12.4801E-03     2.00141E-03
            1319     1.77796E-03     110.092E-03     8.26502E+06    -5.52730E+06     9.63783E+06    -3.32248E+06    -12.6138E-03     25.1699E-03    -12.5560E-03     3.72038E-03    -12.5786E-03     25.1163E-03    -12.5118E-03     3.67668E-03
            1320     2.66665E-03     110.099E-03     7.69674E+06    -5.38799E+06     10.2590E+06    -4.79026E+06    -12.7094E-03     25.3074E-03    -12.5980E-03     5.50954E-03    -12.6782E-03     25.2545E-03    -12.5500E-03     5.44648E-03
            1321     3.55553E-03     110.109E-03     6.95997E+06    -5.24229E+06     11.2815E+06    -6.33094E+06    -12.8233E-03     25.4739E-03    -12.6507E-03     7.35987E-03    -12.7975E-03     25.4214E-03    -12.5968E-03     7.27648E-03
            1322     4.44401E-03     110.122E-03     5.80667E+06    -5.08848E+06     12.2940E+06    -7.76481E+06    -12.9489E-03     25.6596E-03    -12.7107E-03     9.31561E-03    -12.9308E-03     25.6082E-03    -12.6502E-03     9.21322E-03
            1323     5.33267E-03     110.139E-03     4.35463E+06    -4.77609E+06     13.3113E+06    -8.94345E+06    -13.0765E-03     25.8522E-03    -12.7757E-03     11.4196E-03    -13.0677E-03     25.8031E-03    -12.7086E-03     11.3015E-03
            1324     6.22093E-03     110.158E-03     2.99503E+06    -4.43836E+06     14.8416E+06    -10.1531E+06    -13.1978E-03     26.0436E-03    -12.8458E-03     13.7308E-03    -13.1988E-03     25.9962E-03    -12.7695E-03     13.5966E-03
            1325     7.10936E-03     110.182E-03     1.36057E+06    -3.66274E+06     17.0339E+06    -11.1142E+06    -13.2898E-03     26.2082E-03    -12.9184E-03     16.3477E-03    -13.3035E-03     26.1641E-03    -12.8299E-03     16.2005E-03
            1326     7.99748E-03     110.209E-03    -523.402E+03    -3.63720E+06     18.9635E+06    -11.7167E+06    -13.3204E-03     26.3063E-03    -12.9858E-03     19.3972E-03    -13.3467E-03     26.2625E-03    -12.8850E-03     19.2418E-03
            1327     8.88599E-03     110.242E-03    -2.01856E+06    -3.08668E+06     20.9403E+06    -12.2702E+06    -13.2585E-03     26.2989E-03    -13.0404E-03     23.0541E-03    -13.2963E-03     26.2576E-03    -12.9283E-03     22.8912E-03
            1328     9.77431E-03     110.280E-03    -3.14302E+06    -3.31041E+06     22.7151E+06    -12.8105E+06    -13.1011E-03     26.1779E-03    -13.0767E-03     27.6326E-03    -13.1473E-03     26.1348E-03    -12.9538E-03     27.4625E-03
            1329     10.6631E-03     110.326E-03    -3.84087E+06    -1.76072E+06     24.7168E+06    -11.7786E+06    -12.8987E-03     25.9887E-03    -13.0901E-03     33.7621E-03    -12.9538E-03     25.9518E-03    -12.9584E-03     33.6053E-03
            1330     11.5522E-03     110.381E-03    -3.69887E+06    -54.0277E+03     29.0715E+06    -10.0920E+06    -12.9442E-03     26.0457E-03    -13.1015E-03     42.4297E-03    -13.0078E-03     26.0112E-03    -12.9507E-03     42.2948E-03
            1331     12.4419E-03     110.449E-03    -1.25687E+06    -6.21054E+06     33.0528E+06    -9.17016E+06    -13.4888E-03     26.6162E-03    -13.1274E-03     54.6991E-03    -13.5382E-03     26.5430E-03    -12.9513E-03     54.5755E-03
            1332     13.3307E-03     110.530E-03     5.75116E+06    -1.68934E+06     40.1592E+06    -5.46787E+06    -14.8603E-03     28.0461E-03    -13.1858E-03     68.8130E-03    -14.8956E-03     27.9794E-03    -12.9909E-03     68.7339E-03
            1333     14.2172E-03     110.625E-03     11.0353E+06     10.0317E+06     47.0981E+06    -1.40790E+06    -17.7264E-03     31.0554E-03    -13.3290E-03     83.5174E-03    -17.7766E-03     31.0442E-03    -13.1241E-03     83.4795E-03
            1334     15.1007E-03     110.731E-03     6.24816E+06     6.71894E+06     43.3854E+06    -3.13438E+06    -22.0022E-03     35.5974E-03    -13.5952E-03     107.633E-03    -22.1219E-03     35.6377E-03    -13.3971E-03     107.542E-03
            1335     15.9830E-03     110.869E-03    -382.118E+03    -18.6739E+06     26.5777E+06    -13.0207E+06    -26.7376E-03     40.6896E-03    -13.9520E-03     144.165E-03    -27.0351E-03     40.8428E-03    -13.7915E-03     143.899E-03
            1336     16.8631E-03     111.040E-03    -994.855E+03    -3.18626E+06     13.1267E+06    -20.3881E+06    -28.9373E-03     43.2466E-03    -14.3093E-03     162.106E-03    -29.6188E-03     43.8761E-03    -14.2376E-03     161.850E-03
            1337     887.602E-06     111.061E-03     13.7468E+06    -2.83377E+06     14.4178E+06    -1.04614E+06    -14.2866E-03     28.4872E-03    -14.2005E-03     1.47099E-03    -14.2348E-03     28.4320E-03    -14.1443E-03     1.45703E-03
            1338     1.77485E-03     111.065E-03     13.5636E+06    -2.65257E+06     14.8438E+06    -2.17318E+06    -14.3631E-03     28.6379E-03    -14.2748E-03     2.55496E-03    -14.3132E-03     28.5833E-03    -14.2164E-03     2.52601E-03
            1339     2.66232E-03     111.073E-03     13.1666E+06    -2.52626E+06     15.9574E+06    -3.24940E+06    -14.4692E-03     28.8037E-03    -14.3345E-03     3.72815E-03    -14.4231E-03     28.7488E-03    -14.2702E-03     3.68485E-03
            1340     3.54938E-03     111.083E-03     12.5074E+06    -2.51128E+06     17.1978E+06    -4.13112E+06    -14.6063E-03     29.0085E-03    -14.4021E-03     4.97605E-03    -14.5654E-03     28.9528E-03    -14.3306E-03     4.92087E-03
            1341     4.43657E-03     111.097E-03     11.6944E+06    -2.35411E+06     18.6336E+06    -5.02620E+06    -14.7841E-03     29.2658E-03    -14.4816E-03     6.30401E-03    -14.7497E-03     29.2101E-03    -14.4020E-03     6.23675E-03
            1342     5.32331E-03     111.113E-03     10.9490E+06    -2.35636E+06     20.7234E+06    -5.91643E+06    -15.0073E-03     29.5853E-03    -14.5780E-03     7.72083E-03    -14.9798E-03     29.5277E-03    -14.4868E-03     7.64149E-03
            1343     6.21007E-03     111.133E-03     9.94268E+06    -1.89219E+06     23.3208E+06    -6.65757E+06    -15.2707E-03     29.9621E-03    -14.6914E-03     9.26136E-03    -15.2528E-03     29.9047E-03    -14.5865E-03     9.17181E-03
            1344     7.09634E-03     111.156E-03     8.85545E+06    -1.86975E+06     26.0221E+06    -7.10275E+06    -15.5722E-03     30.3935E-03    -14.8212E-03     10.9550E-03    -15.5640E-03     30.3340E-03    -14.7013E-03     10.8590E-03
            1345     7.98260E-03     111.185E-03     8.07734E+06    -1.46287E+06     29.4124E+06    -7.65145E+06    -15.8966E-03     30.8647E-03    -14.9681E-03     12.8584E-03    -15.8981E-03     30.8038E-03    -14.8306E-03     12.7545E-03
            1346     8.86822E-03     111.217E-03     7.17199E+06    -1.65110E+06     32.1968E+06    -7.97797E+06    -16.2092E-03     31.3343E-03    -15.1251E-03     15.1140E-03    -16.2194E-03     31.2699E-03    -14.9721E-03     15.0049E-03
            1347     9.75387E-03     111.256E-03     5.71073E+06    -1.33005E+06     34.2992E+06    -8.22890E+06    -16.4776E-03     31.7642E-03    -15.2866E-03     18.0065E-03    -16.4992E-03     31.7009E-03    -15.1215E-03     17.8933E-03
            1348     10.6391E-03     111.300E-03     4.74138E+06    -2.28807E+06     36.2050E+06    -8.41876E+06    -16.6726E-03     32.1236E-03    -15.4510E-03     21.9395E-03    -16.7010E-03     32.0544E-03    -15.2735E-03     21.8231E-03
            1349     11.5245E-03     111.355E-03     4.90003E+06    -696.736E+03     38.7172E+06    -7.63644E+06    -16.5933E-03     32.1968E-03    -15.6035E-03     27.5453E-03    -16.6275E-03     32.1320E-03    -15.4160E-03     27.4385E-03
            1350     12.4099E-03     111.421E-03     4.91787E+06    -4.46420E+06     39.7910E+06    -8.14996E+06    -16.0054E-03     31.7266E-03    -15.7212E-03     35.5562E-03    -16.0361E-03     31.6418E-03    -15.5229E-03     35.4434E-03
            1351     13.2970E-03     111.501E-03     6.19023E+06    -5.56851E+06     42.1075E+06    -9.46775E+06    -15.0833E-03     30.8613E-03    -15.7781E-03     46.2417E-03    -15.1099E-03     30.7667E-03    -15.5684E-03     46.1127E-03
            1352     14.1854E-03     111.597E-03     13.0681E+06     2.82878E+06     49.0818E+06    -4.60999E+06    -15.0871E-03     30.8786E-03    -15.7915E-03     60.4170E-03    -15.1052E-03     30.8106E-03    -15.5691E-03     60.3480E-03
            1353     15.0717E-03     111.708E-03     22.1891E+06     8.10562E+06     56.2042E+06     2.66506E+06    -17.5104E-03     33.3477E-03    -15.8373E-03     84.9743E-03    -17.5241E-03     33.3067E-03    -15.6003E-03     84.9837E-03
            1354     15.9547E-03     111.845E-03     25.1237E+06     1.22332E+06     53.6250E+06    -3.49644E+06    -20.4586E-03     36.3818E-03    -15.9232E-03     120.305E-03    -20.5391E-03     36.4013E-03    -15.6933E-03     120.205E-03
            1355     16.8391E-03     112.017E-03     16.2329E+06    -2.47382E+06     27.4103E+06    -9.69674E+06    -13.1173E-03     28.8146E-03    -15.6972E-03     136.451E-03    -13.3435E-03     29.0134E-03    -15.5801E-03     136.337E-03
            1356     885.349E-06     112.038E-03     18.4665E+06    -1.11438E+06     18.7915E+06    -654.981E+03    -16.7109E-03     33.4794E-03    -16.7686E-03     503.429E-06    -16.6445E-03     33.4195E-03    -16.6998E-03     494.611E-06
            1357     1.77075E-03     112.043E-03     18.3710E+06    -725.938E+03     19.6540E+06    -1.19379E+06    -16.8244E-03     33.5926E-03    -16.7682E-03     914.450E-06    -16.7604E-03     33.5335E-03    -16.6955E-03     898.326E-06
            1358     2.65576E-03     112.051E-03     17.9341E+06    -898.168E+03     20.9792E+06    -1.63131E+06    -16.9480E-03     33.7739E-03    -16.8258E-03     1.37698E-03    -16.8879E-03     33.7126E-03    -16.7456E-03     1.35485E-03
            1359     3.54092E-03     112.061E-03     17.4862E+06    -841.473E+03     22.7261E+06    -2.11925E+06    -17.1389E-03     34.0450E-03    -16.9061E-03     1.87401E-03    -17.0836E-03     33.9821E-03    -16.8166E-03     1.84518E-03
            1360     4.42562E-03     112.075E-03     17.0308E+06    -793.279E+03     25.3297E+06    -2.54640E+06    -17.4160E-03     34.4322E-03    -17.0163E-03     2.39208E-03    -17.3669E-03     34.3665E-03    -16.9131E-03     2.35730E-03
            1361     5.31023E-03     112.092E-03     16.3505E+06    -642.044E+03     28.3219E+06    -3.03926E+06    -17.7938E-03     34.9528E-03    -17.1590E-03     2.93151E-03    -17.7527E-03     34.8845E-03    -17.0402E-03     2.88987E-03
            1362     6.19423E-03     112.112E-03     15.6700E+06    -763.248E+03     31.4295E+06    -3.23331E+06    -18.2980E-03     35.6364E-03    -17.3384E-03     3.48265E-03    -18.2648E-03     35.5640E-03    -17.2029E-03     3.43791E-03
            1363     7.07789E-03     112.136E-03     15.0806E+06    -403.642E+03     35.2035E+06    -3.56450E+06    -18.9370E-03     36.4982E-03    -17.5612E-03     4.03433E-03    -18.9129E-03     36.4230E-03    -17.4065E-03     3.98459E-03
            1364     7.96060E-03     112.164E-03     14.1934E+06    -471.267E+03     38.3562E+06    -3.67501E+06    -19.6979E-03     37.5243E-03    -17.8264E-03     4.60707E-03    -19.6829E-03     37.4455E-03    -17.6545E-03     4.55500E-03
            1365     8.84280E-03     112.198E-03     13.1731E+06    -419.243E+03      41.004E+06    -3.78315E+06    -20.5876E-03     38.7238E-03    -18.1362E-03     5.26585E-03    -20.5820E-03     38.6429E-03    -17.9496E-03     5.21126E-03
            1366     9.72386E-03     112.236E-03     12.4192E+06    -673.412E+03     43.5513E+06    -3.68694E+06    -21.6205E-03     40.1170E-03    -18.4965E-03     6.11810E-03    -21.6224E-03     40.0322E-03    -18.2958E-03     6.06339E-03
            1367     10.6040E-03     112.283E-03     11.4753E+06    -547.086E+03      45.183E+06    -4.18276E+06    -22.6549E-03     41.5574E-03    -18.9025E-03     7.37180E-03    -22.6647E-03     41.4723E-03    -18.6924E-03     7.30919E-03
            1368     11.4827E-03     112.336E-03     10.2683E+06    -1.88355E+06     45.2639E+06    -4.16011E+06    -23.2113E-03     42.5427E-03    -19.3314E-03     9.30180E-03    -23.2259E-03     42.4525E-03    -19.1173E-03     9.23832E-03
            1369     12.3612E-03     112.402E-03     9.67826E+06    -1.08183E+06     46.8751E+06    -4.62581E+06    -22.4369E-03     42.1669E-03    -19.7299E-03     12.3524E-03    -22.4586E-03     42.0792E-03    -19.5080E-03     12.2829E-03
            1370     13.2402E-03     112.478E-03     7.61064E+06    -4.55841E+06     47.3613E+06    -6.19886E+06    -19.8507E-03     39.8558E-03    -20.0051E-03     17.2944E-03    -19.8787E-03     39.7529E-03    -19.7727E-03     17.2061E-03
            1371     14.1227E-03     112.569E-03     4.51732E+06    -1.79833E+06     42.8306E+06    -7.84333E+06    -16.9468E-03     37.0271E-03    -20.0803E-03     25.7757E-03    -16.9884E-03     36.9491E-03    -19.8701E-03     25.6677E-03
            1372     15.0106E-03     112.678E-03     7.54935E+06           466.5     47.0881E+06    -4.23385E+06    -17.0170E-03     37.1492E-03    -20.1322E-03     41.9248E-03    -17.0581E-03     37.0734E-03    -19.9077E-03     41.8593E-03
            1373     15.8983E-03     112.818E-03     10.1562E+06     6.44851E+06     55.5143E+06    -696.869E+03    -12.2934E-03     32.3767E-03    -20.0834E-03     62.6336E-03    -12.3649E-03     32.3449E-03    -19.8299E-03     62.6043E-03
            1374     16.7867E-03     112.982E-03     1.73993E+06     5.74082E+06     32.3555E+06    -572.488E+03     2.25675E-03     17.1466E-03    -19.4033E-03     63.8623E-03     2.16983E-03     17.1636E-03    -19.2524E-03     63.8510E-03
            1375     16.8380E-03     56.1343E-03    -2.77149E+06     138.842E+06     43.7961E+06     564.154E+03    -17.8926E-03     33.3752E-03    -15.4826E-03     122.541E-03    -19.1892E-03     35.0279E-03    -15.4610E-03     123.251E-03
            1376     15.9514E-03     55.9996E-03    -3.87241E+06     85.5844E+06    -6.99551E+06     945.146E+03    -18.2503E-03     33.5744E-03    -15.3241E-03     122.196E-03    -19.1667E-03     34.8012E-03    -15.4776E-03     122.423E-03
            1377     15.0650E-03     55.9054E-03    -4.90897E+06     31.9628E+06    -3.20832E+06    -184.959E+03    -16.8784E-03     32.3169E-03    -15.4385E-03     84.4600E-03    -17.1442E-03     32.6880E-03    -15.4938E-03     84.4337E-03
            1378     14.1783E-03     55.8432E-03    -6.32485E+06    -2.22455E+06    -1.47743E+06    -1.34304E+06    -16.2455E-03     31.7583E-03    -15.5128E-03     63.3869E-03    -16.3454E-03     31.8321E-03    -15.5078E-03     63.3313E-03
            1379     13.2920E-03     55.7881E-03    -6.51022E+06    -26.6951E+06    -4.24547E+06    -732.911E+03    -16.2729E-03     31.8168E-03    -15.5439E-03     58.2147E-03    -16.3053E-03     31.7436E-03    -15.5170E-03     58.1704E-03
            1380     12.4060E-03     55.7351E-03    -5.80027E+06    -33.4737E+06     1.85064E+06     34.7489E+03    -16.2387E-03     31.8258E-03    -15.5871E-03     54.1414E-03    -16.2499E-03     31.6922E-03    -15.5209E-03     54.1138E-03
            1381     11.5197E-03     55.6879E-03    -6.30734E+06    -40.4073E+06     2.79708E+06    -159.212E+03    -16.1119E-03     31.7163E-03    -15.6044E-03     48.3385E-03    -16.1060E-03     31.5365E-03    -15.5227E-03     48.3148E-03
            1382     10.6337E-03     55.6453E-03    -6.93727E+06    -50.2130E+06     2.02191E+06     48.2261E+03    -16.0357E-03     31.6526E-03    -15.6169E-03     43.8980E-03    -16.0115E-03     31.4197E-03    -15.5239E-03     43.8820E-03
            1383     9.74746E-03     55.6063E-03    -7.46715E+06    -54.4046E+06     3.44481E+06     399.868E+03    -15.9568E-03     31.5885E-03    -15.6317E-03     39.8646E-03    -15.9274E-03     31.3295E-03    -15.5247E-03     39.8571E-03
            1384     8.86138E-03     55.5712E-03    -8.66080E+06    -57.2309E+06     2.67930E+06    -16.4118E+03    -15.8679E-03     31.5030E-03    -15.6351E-03     35.8023E-03    -15.8368E-03     31.2302E-03    -15.5261E-03     35.7925E-03
            1385     7.97516E-03     55.5398E-03    -10.0804E+06    -60.2906E+06     1.81614E+06    -36.3598E+03    -15.8071E-03     31.4461E-03    -15.6390E-03     31.7320E-03    -15.7759E-03     31.1598E-03    -15.5279E-03     31.7241E-03
            1386     7.08908E-03     55.5122E-03    -11.2928E+06    -62.5292E+06     391.173E+03     268.155E+03    -15.7497E-03     31.3880E-03    -15.6382E-03     27.7341E-03    -15.7182E-03     31.0932E-03    -15.5292E-03     27.7319E-03
            1387     6.20289E-03     55.4882E-03    -12.7542E+06    -64.2560E+06    -1.58891E+06     117.746E+03    -15.6968E-03     31.3313E-03    -15.6345E-03     23.8503E-03    -15.6665E-03     31.0322E-03    -15.5307E-03     23.8473E-03
            1388     5.31680E-03     55.4679E-03    -14.3655E+06    -65.6208E+06    -4.12036E+06     110.105E+03    -15.6526E-03     31.2807E-03    -15.6281E-03     20.1173E-03    -15.6242E-03     30.9803E-03    -15.5327E-03     20.1152E-03
            1389     4.43061E-03     55.4508E-03    -16.2903E+06    -67.7374E+06    -7.47460E+06     155.545E+03    -15.6199E-03     31.2396E-03    -15.6197E-03     16.5304E-03    -15.5928E-03     30.9359E-03    -15.5353E-03     16.5297E-03
            1390     3.54451E-03     55.4371E-03    -18.0984E+06    -69.5981E+06    -11.1100E+06     181.073E+03    -15.5990E-03     31.2084E-03    -15.6095E-03     13.0828E-03    -15.5728E-03     30.9032E-03    -15.5379E-03     13.0830E-03
            1391     2.65835E-03     55.4264E-03    -19.5923E+06    -71.4078E+06    -15.0424E+06     119.768E+03    -15.5849E-03     31.1821E-03    -15.5972E-03     9.75600E-03    -15.5577E-03     30.8755E-03    -15.5404E-03     9.75604E-03
            1392     1.77225E-03     55.4190E-03    -20.8547E+06    -72.5858E+06    -18.5686E+06     66.9856E+03    -15.5769E-03     31.1628E-03    -15.5858E-03     6.54037E-03    -15.5491E-03     30.8571E-03    -15.5432E-03     6.54025E-03
            1393     886.096E-06     55.4143E-03    -21.6512E+06    -73.8357E+06    -21.0650E+06     40.0940E+03    -15.5732E-03     31.1555E-03    -15.5823E-03     3.53503E-03    -15.5438E-03     30.8483E-03    -15.5492E-03     3.53502E-03
            1394     16.8381E-03     55.1566E-03    -3.89700E+06     138.355E+06     43.8429E+06    -60.0940E+03    -17.9189E-03     33.4014E-03    -15.4825E-03     122.971E-03    -19.2254E-03     35.0581E-03    -15.4583E-03     123.677E-03
            1395     15.9514E-03     55.0218E-03    -4.63567E+06     85.0258E+06    -5.53407E+06     1.08058E+06    -18.0784E-03     33.4146E-03    -15.3362E-03     122.879E-03    -19.0040E-03     34.6417E-03    -15.4804E-03     123.114E-03
            1396     15.0643E-03     54.9281E-03    -4.49353E+06     33.3930E+06    -852.198E+03     976.988E+03    -16.8435E-03     32.3015E-03    -15.4580E-03     84.8344E-03    -17.1127E-03     32.6758E-03    -15.5042E-03     84.8235E-03
            1397     14.1782E-03     54.8646E-03    -4.93434E+06    -763.942E+03    -124.816E+03    -662.561E+03    -16.3980E-03     31.9211E-03    -15.5231E-03     63.2070E-03    -16.4953E-03     31.9985E-03    -15.5154E-03     63.1594E-03
            1398     13.2922E-03     54.8106E-03    -5.53251E+06    -27.8859E+06    -4.39230E+06    -1.25069E+06    -16.3198E-03     31.8649E-03    -15.5451E-03     58.1325E-03    -16.3452E-03     31.7844E-03    -15.5186E-03     58.0814E-03
            1399     12.4057E-03     54.7567E-03    -5.98380E+06    -33.9285E+06     1.63762E+06    -468.055E+03    -16.2549E-03     31.8415E-03    -15.5866E-03     54.0878E-03    -16.2660E-03     31.7062E-03    -15.5205E-03     54.0537E-03
            1400     11.5199E-03     54.7099E-03    -6.39065E+06    -40.1121E+06     2.65388E+06    -71.1194E+03    -16.1304E-03     31.7319E-03    -15.6015E-03     48.1853E-03    -16.1251E-03     31.5538E-03    -15.5208E-03     48.1628E-03
            1401     10.6336E-03     54.6672E-03    -7.03527E+06    -50.5707E+06     1.26975E+06    -251.371E+03    -16.0335E-03     31.6444E-03    -15.6110E-03     43.9049E-03    -16.0081E-03     31.4109E-03    -15.5211E-03     43.8850E-03
            1402     9.74756E-03     54.6283E-03    -7.65254E+06    -54.8028E+06     3.20771E+06     71.6331E+03    -15.9515E-03     31.5801E-03    -15.6286E-03     39.8427E-03    -15.9221E-03     31.3197E-03    -15.5220E-03     39.8309E-03
            1403     8.86134E-03     54.5931E-03    -8.65481E+06    -56.6520E+06     2.81631E+06     391.096E+03    -15.8720E-03     31.5039E-03    -15.6319E-03     35.7880E-03    -15.8419E-03     31.2338E-03    -15.5231E-03     35.7834E-03
            1404     7.97524E-03     54.5618E-03    -10.1125E+06    -60.4119E+06     1.46190E+06     18.0940E+03    -15.8099E-03     31.4436E-03    -15.6337E-03     31.7255E-03    -15.7781E-03     31.1572E-03    -15.5241E-03     31.7184E-03
            1405     7.08906E-03     54.5341E-03    -11.4688E+06    -62.6838E+06     44.9474E+03    -3.71193E+03    -15.7484E-03     31.3810E-03    -15.6326E-03     27.7170E-03    -15.7170E-03     31.0862E-03    -15.5249E-03     27.7112E-03
            1406     6.20296E-03     54.5102E-03    -12.7286E+06    -63.9675E+06    -1.92783E+06     60.6507E+03    -15.6924E-03     31.3201E-03    -15.6278E-03     23.8430E-03    -15.6618E-03     31.0229E-03    -15.5262E-03     23.8393E-03
            1407     5.31677E-03     54.4898E-03    -14.3888E+06    -65.9872E+06    -4.09088E+06     165.753E+03    -15.6516E-03     31.2756E-03    -15.6240E-03     20.1023E-03    -15.6228E-03     30.9733E-03    -15.5279E-03     20.1009E-03
            1408     4.43068E-03     54.4729E-03    -16.1607E+06    -67.4863E+06    -7.15686E+06     331.723E+03    -15.6177E-03     31.2329E-03    -15.6152E-03     16.5183E-03    -15.5908E-03     30.9299E-03    -15.5297E-03     16.5199E-03
            1409     3.54450E-03     54.4591E-03    -17.9734E+06    -69.5169E+06    -10.9411E+06     89.3326E+03    -15.5936E-03     31.1977E-03    -15.6041E-03     13.0759E-03    -15.5672E-03     30.8924E-03    -15.5320E-03     13.0750E-03
            1410     2.65840E-03     54.4485E-03    -19.6349E+06    -71.3228E+06    -14.9727E+06     76.4698E+03    -15.5794E-03     31.1707E-03    -15.5913E-03     9.75122E-03    -15.5526E-03     30.8645E-03    -15.5343E-03     9.75070E-03
            1411     1.77223E-03     54.4409E-03    -20.9962E+06    -72.5011E+06    -18.6945E+06     32.4434E+03    -15.5711E-03     31.1498E-03    -15.5786E-03     6.53685E-03    -15.5439E-03     30.8449E-03    -15.5365E-03     6.53628E-03
            1412     886.145E-06     54.4364E-03    -21.8892E+06    -73.7974E+06    -21.2184E+06     9.23120E+03    -15.5655E-03     31.1399E-03    -15.5745E-03     3.53189E-03    -15.5371E-03     30.8335E-03    -15.5418E-03     3.53148E-03
            1413     16.8369E-03     54.1772E-03    -3.89741E+06     137.736E+06     42.6361E+06     13.1135E+03    -17.7097E-03     33.2065E-03    -15.4968E-03     122.668E-03    -19.0127E-03     34.8611E-03    -15.4777E-03     123.377E-03
            1414     15.9506E-03     54.0451E-03    -4.86791E+06     84.2138E+06    -7.77746E+06     91.4597E+03    -18.3089E-03     33.6534E-03    -15.3445E-03     122.480E-03    -19.2306E-03     34.8793E-03    -15.4984E-03     122.700E-03
            1415     15.0644E-03     53.9493E-03    -3.73273E+06     34.2161E+06    -1.76286E+06     401.265E+03    -17.0814E-03     32.5371E-03    -15.4557E-03     84.8311E-03    -17.3475E-03     32.9166E-03    -15.5088E-03     84.8110E-03
            1416     14.1785E-03     53.8868E-03    -3.67350E+06     330.652E+03     142.461E+03     102.072E+03    -16.4354E-03     31.9530E-03    -15.5175E-03     62.9046E-03    -16.5277E-03     32.0330E-03    -15.5120E-03     62.8667E-03
            1417     13.2920E-03     53.8324E-03    -4.44444E+06    -27.8505E+06    -3.94029E+06    -440.134E+03    -16.3818E-03     31.9204E-03    -15.5386E-03     57.9843E-03    -16.4026E-03     31.8379E-03    -15.5114E-03     57.9434E-03
            1418     12.4063E-03     53.7787E-03    -5.50391E+06    -34.6325E+06     1.38299E+06    -330.100E+03    -16.2316E-03     31.8083E-03    -15.5767E-03     53.9599E-03    -16.2388E-03     31.6690E-03    -15.5116E-03     53.9277E-03
            1419     11.5198E-03     53.7318E-03    -6.31985E+06    -40.1446E+06     2.42439E+06    -107.874E+03    -16.0674E-03     31.6614E-03    -15.5940E-03     48.1621E-03    -16.0613E-03     31.4834E-03    -15.5145E-03     48.1392E-03
            1420     10.6338E-03     53.6892E-03    -7.04794E+06    -50.3722E+06     978.611E+03    -174.723E+03    -16.0283E-03     31.6334E-03    -15.6051E-03     43.8658E-03    -16.0029E-03     31.4013E-03    -15.5170E-03     43.8470E-03
            1421     9.74751E-03     53.6502E-03    -8.02704E+06    -55.4273E+06     2.48852E+06    -117.313E+03    -15.9428E-03     31.5654E-03    -15.6226E-03     39.8337E-03    -15.9133E-03     31.3034E-03    -15.5181E-03     39.8195E-03
            1422     8.86142E-03     53.6151E-03    -8.83977E+06    -56.7151E+06     2.65511E+06     227.403E+03    -15.8768E-03     31.5040E-03    -15.6273E-03     35.7677E-03    -15.8473E-03     31.2341E-03    -15.5190E-03     35.7610E-03
            1423     7.97525E-03     53.5837E-03    -9.87606E+06    -59.9100E+06     1.64895E+06     266.242E+03    -15.8084E-03     31.4371E-03    -15.6287E-03     31.6971E-03    -15.7764E-03     31.1526E-03    -15.5193E-03     31.6932E-03
            1424     7.08914E-03     53.5562E-03    -11.3717E+06    -62.7440E+06     26.1992E+03    -102.634E+03    -15.7437E-03     31.3711E-03    -15.6275E-03     27.7003E-03    -15.7117E-03     31.0759E-03    -15.5199E-03     27.6932E-03
            1425     6.20295E-03     53.5322E-03    -12.9343E+06    -64.0685E+06    -1.95135E+06    -23.1881E+03    -15.6885E-03     31.3114E-03    -15.6229E-03     23.8277E-03    -15.6588E-03     31.0140E-03    -15.5210E-03     23.8229E-03
            1426     5.31684E-03     53.5118E-03    -14.4805E+06    -66.1786E+06    -4.12612E+06     168.940E+03    -15.6463E-03     31.2651E-03    -15.6188E-03     20.0919E-03    -15.6177E-03     30.9621E-03    -15.5225E-03     20.0906E-03
            1427     4.43067E-03     53.4948E-03    -16.0702E+06    -67.3241E+06    -6.99661E+06     137.403E+03    -15.6119E-03     31.2221E-03    -15.6103E-03     16.5097E-03    -15.5850E-03     30.9195E-03    -15.5243E-03     16.5087E-03
            1428     3.54455E-03     53.4811E-03    -17.6914E+06    -69.3457E+06    -10.6359E+06     151.792E+03    -15.5884E-03     31.1881E-03    -15.5997E-03     13.0686E-03    -15.5613E-03     30.8828E-03    -15.5266E-03     13.0685E-03
            1429     2.65838E-03     53.4705E-03    -19.4358E+06    -71.3512E+06    -14.7130E+06     105.664E+03    -15.5752E-03     31.1622E-03    -15.5870E-03     9.74583E-03    -15.5478E-03     30.8552E-03    -15.5290E-03     9.74570E-03
            1430     1.77228E-03     53.4630E-03    -20.8508E+06    -72.3336E+06    -18.5803E+06     96.2654E+03    -15.5662E-03     31.1395E-03    -15.5732E-03     6.53457E-03    -15.5388E-03     30.8351E-03    -15.5310E-03     6.53483E-03
            1431     886.107E-06     53.4583E-03    -21.8544E+06    -73.7964E+06    -21.2011E+06    -4.93095E+03    -15.5633E-03     31.1289E-03    -15.5656E-03     3.53486E-03    -15.5348E-03     30.8224E-03    -15.5329E-03     3.53427E-03
            1432     16.8373E-03     53.1995E-03    -3.44467E+06     137.606E+06     41.8888E+06     158.149E+03    -17.7086E-03     33.2043E-03    -15.4957E-03     122.394E-03    -19.0055E-03     34.8560E-03    -15.4808E-03     123.101E-03
            1433     15.9508E-03     53.0667E-03    -4.42265E+06     84.4858E+06    -8.50266E+06    -157.558E+03    -18.5376E-03     33.8733E-03    -15.3356E-03     122.080E-03    -19.4550E-03     35.0995E-03    -15.4942E-03     122.289E-03
            1434     15.0649E-03     52.9710E-03    -4.96084E+06     34.2903E+06    -2.41818E+06    -274.818E+03    -17.1296E-03     32.5700E-03    -15.4405E-03     84.4153E-03    -17.4002E-03     32.9518E-03    -15.4951E-03     84.3853E-03
            1435     14.1783E-03     52.9090E-03    -5.33606E+06     482.753E+03    -464.791E+03     55.7075E+03    -16.3273E-03     31.8304E-03    -15.5031E-03     62.8295E-03    -16.4267E-03     31.9139E-03    -15.4984E-03     62.7916E-03
            1436     13.2926E-03     52.8539E-03    -5.28015E+06    -27.8675E+06    -4.44362E+06     211.232E+03    -16.3413E-03     31.8686E-03    -15.5273E-03     57.9994E-03    -16.3655E-03     31.7880E-03    -15.5014E-03     57.9670E-03
            1437     12.4061E-03     52.8010E-03    -5.50175E+06    -34.7179E+06     1.13152E+06     123.494E+03    -16.1860E-03     31.7539E-03    -15.5679E-03     54.0081E-03    -16.1926E-03     31.6144E-03    -15.5039E-03     53.9819E-03
            1438     11.5200E-03     52.7537E-03    -6.25003E+06    -40.0604E+06     2.29573E+06     8.73693E+03    -16.0589E-03     31.6460E-03    -15.5871E-03     48.2669E-03    -16.0524E-03     31.4685E-03    -15.5085E-03     48.2456E-03
            1439     10.6337E-03     52.7112E-03    -7.09655E+06    -50.4064E+06     940.046E+03     6.80046E+03    -16.0172E-03     31.6167E-03    -15.5995E-03     43.8247E-03    -15.9919E-03     31.3845E-03    -15.5114E-03     43.8082E-03
            1440     9.74763E-03     52.6722E-03    -7.97573E+06    -55.4022E+06     2.38032E+06    -37.9361E+03    -15.9451E-03     31.5613E-03    -15.6161E-03     39.8252E-03    -15.9153E-03     31.2995E-03    -15.5123E-03     39.8120E-03
            1441     8.86144E-03     52.6370E-03    -9.06637E+06    -57.0680E+06     2.30250E+06    -79.3903E+03    -15.8685E-03     31.4888E-03    -15.6203E-03     35.7491E-03    -15.8391E-03     31.2179E-03    -15.5129E-03     35.7384E-03
            1442     7.97533E-03     52.6057E-03    -10.0180E+06    -59.7416E+06     1.70603E+06     77.6765E+03    -15.7989E-03     31.4220E-03    -15.6231E-03     31.6784E-03    -15.7680E-03     31.1384E-03    -15.5134E-03     31.6720E-03
            1443     7.08914E-03     52.5781E-03    -11.2416E+06    -62.4983E+06     357.129E+03     89.5416E+03    -15.7381E-03     31.3609E-03    -15.6228E-03     27.6816E-03    -15.7063E-03     31.0662E-03    -15.5141E-03     27.6771E-03
            1444     6.20303E-03     52.5542E-03    -12.9584E+06    -64.3785E+06    -1.81993E+06     73.2243E+03    -15.6825E-03     31.3007E-03    -15.6182E-03     23.8114E-03    -15.6526E-03     31.0016E-03    -15.5152E-03     23.8079E-03
            1445     5.31684E-03     52.5338E-03    -14.7269E+06    -66.0046E+06    -4.38488E+06     65.7489E+03    -15.6365E-03     31.2486E-03    -15.6121E-03     20.0867E-03    -15.6090E-03     30.9472E-03    -15.5169E-03     20.0841E-03
            1446     4.43071E-03     52.5169E-03    -16.4299E+06    -67.3224E+06    -7.43642E+06    -41.1680E+03    -15.6021E-03     31.2058E-03    -15.6037E-03     16.5062E-03    -15.5764E-03     30.9043E-03    -15.5194E-03     16.5029E-03
            1447     3.54454E-03     52.5031E-03    -18.1242E+06    -69.4021E+06    -10.9832E+06     35.7328E+03    -15.5818E-03     31.1759E-03    -15.5941E-03     13.0647E-03    -15.5562E-03     30.8715E-03    -15.5221E-03     13.0631E-03
            1448     2.65842E-03     52.4926E-03    -19.6314E+06    -71.2531E+06    -14.9325E+06     118.909E+03    -15.5690E-03     31.1508E-03    -15.5818E-03     9.74264E-03    -15.5423E-03     30.8448E-03    -15.5247E-03     9.74267E-03
            1449     1.77225E-03     52.4850E-03    -20.9434E+06    -72.2691E+06    -18.6126E+06     89.8858E+03    -15.5603E-03     31.1298E-03    -15.5695E-03     6.53158E-03    -15.5333E-03     30.8259E-03    -15.5274E-03     6.53175E-03
            1450     886.152E-06     52.4805E-03    -21.7437E+06    -73.6728E+06    -21.2002E+06     73.7323E+03    -15.5550E-03     31.1227E-03    -15.5677E-03     3.53924E-03    -15.5261E-03     30.8166E-03    -15.5354E-03     3.53967E-03
            1451     16.8373E-03     52.2226E-03    -3.91719E+06     137.732E+06     42.3678E+06     273.240E+03    -17.9564E-03     33.4518E-03    -15.4954E-03     123.285E-03    -19.2638E-03     35.1114E-03    -15.4775E-03     123.988E-03
            1452     15.9512E-03     52.0873E-03    -5.50773E+06     84.7570E+06    -7.50499E+06     36.5789E+03    -18.7500E-03     34.0772E-03    -15.3272E-03     122.086E-03    -19.6758E-03     35.3061E-03    -15.4796E-03     122.288E-03
            1453     15.0652E-03     51.9938E-03    -5.33040E+06     34.0206E+06    -1.96291E+06    -301.449E+03    -16.9898E-03     32.4157E-03    -15.4259E-03     84.1560E-03    -17.2609E-03     32.7944E-03    -15.4774E-03     84.1268E-03
            1454     14.1789E-03     51.9306E-03    -5.13356E+06     163.500E+03    -195.912E+03    -128.876E+03    -16.2152E-03     31.7086E-03    -15.4934E-03     63.1802E-03    -16.3138E-03     31.7902E-03    -15.4872E-03     63.1403E-03
            1455     13.2922E-03     51.8762E-03    -5.43298E+06    -27.8951E+06    -4.25066E+06     229.717E+03    -16.2492E-03     31.7730E-03    -15.5238E-03     58.0617E-03    -16.2743E-03     31.6921E-03    -15.4967E-03     58.0299E-03
            1456     12.4062E-03     51.8228E-03    -5.87773E+06    -34.5906E+06     1.12691E+06     269.376E+03    -16.2062E-03     31.7719E-03    -15.5656E-03     54.0446E-03    -16.2150E-03     31.6337E-03    -15.5013E-03     54.0202E-03
            1457     11.5200E-03     51.7758E-03    -6.57251E+06    -39.8105E+06     2.29931E+06     49.6734E+03    -16.0899E-03     31.6722E-03    -15.5823E-03     48.2393E-03    -16.0854E-03     31.4964E-03    -15.5036E-03     48.2184E-03
            1458     10.6338E-03     51.7331E-03    -7.17994E+06    -50.5121E+06     968.518E+03    -32.6363E+03    -16.0120E-03     31.6054E-03    -15.5934E-03     43.8446E-03    -15.9870E-03     31.3728E-03    -15.5049E-03     43.8277E-03
            1459     9.74767E-03     51.6942E-03    -7.91785E+06    -55.2882E+06     2.59112E+06     12.4722E+03    -15.9452E-03     31.5553E-03    -15.6101E-03     39.8146E-03    -15.9155E-03     31.2938E-03    -15.5055E-03     39.8021E-03
            1460     8.86154E-03     51.6591E-03    -8.93114E+06    -57.0285E+06     2.35584E+06    -99.7762E+03    -15.8564E-03     31.4699E-03    -15.6134E-03     35.7454E-03    -15.8265E-03     31.1989E-03    -15.5060E-03     35.7345E-03
            1461     7.97534E-03     51.6277E-03    -10.1926E+06    -59.8920E+06     1.50703E+06    -158.622E+03    -15.7891E-03     31.4052E-03    -15.6161E-03     31.6722E-03    -15.7585E-03     31.1215E-03    -15.5070E-03     31.6628E-03
            1462     7.08922E-03     51.6001E-03    -11.4864E+06    -62.5885E+06     290.840E+03     48.1696E+03    -15.7287E-03     31.3455E-03    -15.6168E-03     27.6681E-03    -15.6978E-03     31.0509E-03    -15.5080E-03     27.6630E-03
            1463     6.20303E-03     51.5762E-03    -12.8928E+06    -64.3745E+06    -1.75608E+06     187.943E+03    -15.6742E-03     31.2868E-03    -15.6126E-03     23.8008E-03    -15.6441E-03     30.9875E-03    -15.5094E-03     23.7988E-03
            1464     5.31689E-03     51.5559E-03    -14.5436E+06    -65.8155E+06    -4.26808E+06     70.7533E+03    -15.6292E-03     31.2358E-03    -15.6067E-03     20.0742E-03    -15.6012E-03     30.9349E-03    -15.5115E-03     20.0717E-03
            1465     4.43071E-03     51.5389E-03    -16.3444E+06    -67.2667E+06    -7.44295E+06    -41.7471E+03    -15.5951E-03     31.1935E-03    -15.5984E-03     16.4963E-03    -15.5691E-03     30.8923E-03    -15.5144E-03     16.4930E-03
            1466     3.54458E-03     51.5252E-03    -18.1225E+06    -69.5366E+06    -11.0779E+06    -68.5897E+03    -15.5753E-03     31.1646E-03    -15.5893E-03     13.0558E-03    -15.5494E-03     30.8596E-03    -15.5176E-03     13.0528E-03
            1467     2.65840E-03     51.5146E-03    -19.7598E+06    -71.2573E+06    -15.0344E+06     12.0976E+03    -15.5631E-03     31.1406E-03    -15.5775E-03     9.73590E-03    -15.5370E-03     30.8349E-03    -15.5207E-03     9.73456E-03
            1468     1.77229E-03     51.5071E-03    -21.0425E+06    -72.2017E+06    -18.7537E+06     50.5827E+03    -15.5558E-03     31.1210E-03    -15.5651E-03     6.52554E-03    -15.5292E-03     30.8178E-03    -15.5237E-03     6.52521E-03
            1469     886.110E-06     51.5025E-03    -21.9530E+06    -73.5742E+06    -21.2297E+06     37.9608E+03    -15.5543E-03     31.1142E-03    -15.5599E-03     3.53180E-03    -15.5266E-03     30.8090E-03    -15.5276E-03     3.53177E-03
            1470     16.8365E-03     51.2427E-03    -4.11291E+06     137.937E+06     43.0690E+06     502.359E+03    -18.0787E-03     33.5619E-03    -15.4832E-03     123.203E-03    -19.3886E-03     35.2220E-03    -15.4619E-03     123.910E-03
            1471     15.9517E-03     51.1089E-03    -4.40691E+06     85.4433E+06    -5.76696E+06    -217.319E+03    -18.4272E-03     33.7485E-03    -15.3213E-03     121.568E-03    -19.3450E-03     34.9707E-03    -15.4676E-03     121.772E-03
            1472     15.0651E-03     51.0161E-03    -4.37982E+06     33.6845E+06    -1.51277E+06    -367.670E+03    -16.8882E-03     32.3146E-03    -15.4264E-03     84.4172E-03    -17.1548E-03     32.6896E-03    -15.4765E-03     84.3883E-03
            1473     14.1785E-03     50.9526E-03    -4.70545E+06    -243.357E+03     208.692E+03     279.867E+03    -16.2745E-03     31.7709E-03    -15.4964E-03     63.3988E-03    -16.3717E-03     31.8499E-03    -15.4881E-03     63.3639E-03
            1474     13.2925E-03     50.8984E-03    -5.33582E+06    -27.7969E+06    -3.62527E+06     415.496E+03    -16.2724E-03     31.7977E-03    -15.5253E-03     58.1237E-03    -16.2982E-03     31.7164E-03    -15.4954E-03     58.0941E-03
            1475     12.4062E-03     50.8447E-03    -6.09380E+06    -34.4843E+06     1.24437E+06     189.738E+03    -16.2325E-03     31.7956E-03    -15.5631E-03     54.0756E-03    -16.2427E-03     31.6581E-03    -15.4981E-03     54.0501E-03
            1476     11.5201E-03     50.7978E-03     -6.5694E+06    -39.5912E+06     2.54796E+06     29.1304E+03    -16.0897E-03     31.6684E-03    -15.5787E-03     48.2157E-03    -16.0858E-03     31.4933E-03    -15.4991E-03     48.1945E-03
            1477     10.6339E-03     50.7551E-03    -7.24138E+06    -50.4394E+06     969.103E+03    -153.361E+03    -16.0235E-03     31.6115E-03    -15.5880E-03     43.8813E-03    -15.9989E-03     31.3793E-03    -15.4995E-03     43.8628E-03
            1478     9.74776E-03     50.7162E-03    -7.90013E+06    -55.4025E+06     2.62962E+06    -156.311E+03    -15.9385E-03     31.5429E-03    -15.6044E-03     39.8187E-03    -15.9086E-03     31.2807E-03    -15.4995E-03     39.8040E-03
            1479     8.86156E-03     50.6811E-03    -8.83629E+06    -56.9019E+06     2.50698E+06    -64.5591E+03    -15.8554E-03     31.4630E-03    -15.6076E-03     35.7423E-03    -15.8254E-03     31.1923E-03    -15.4997E-03     35.7319E-03
            1480     7.97543E-03     50.6497E-03    -10.0634E+06    -59.8930E+06     1.45018E+06    -126.286E+03    -15.7811E-03     31.3903E-03    -15.6092E-03     31.6637E-03    -15.7497E-03     31.1064E-03    -15.5005E-03     31.6547E-03
            1481     7.08923E-03     50.6222E-03    -11.4706E+06    -62.9108E+06     175.637E+03    -48.2318E+03    -15.7207E-03     31.3312E-03    -15.6105E-03     27.6619E-03    -15.6891E-03     31.0350E-03    -15.5018E-03     27.6556E-03
            1482     6.20309E-03     50.5983E-03    -12.9458E+06    -64.3335E+06    -1.73169E+06     92.0412E+03    -15.6684E-03     31.2751E-03    -15.6067E-03     23.7851E-03    -15.6387E-03     30.9761E-03    -15.5033E-03     23.7819E-03
            1483     5.31691E-03     50.5779E-03    -14.5234E+06    -65.6633E+06    -4.19257E+06     78.8564E+03    -15.6225E-03     31.2232E-03    -15.6007E-03     20.0583E-03    -15.5947E-03     30.9229E-03    -15.5054E-03     20.0558E-03
            1484     4.43076E-03     50.5610E-03    -16.2631E+06    -67.1926E+06    -7.35927E+06        -882.816    -15.5893E-03     31.1817E-03    -15.5925E-03     16.4814E-03    -15.5630E-03     30.8806E-03    -15.5083E-03     16.4786E-03
            1485     3.54458E-03     50.5472E-03    -18.0828E+06    -69.5551E+06    -11.0591E+06    -41.2440E+03    -15.5685E-03     31.1519E-03    -15.5834E-03     13.0418E-03    -15.5424E-03     30.8467E-03    -15.5116E-03     13.0392E-03
            1486     2.65844E-03     50.5367E-03    -19.7805E+06    -71.3658E+06    -15.0969E+06    -13.7122E+03    -15.5566E-03     31.1282E-03    -15.5716E-03     9.72474E-03    -15.5303E-03     30.8222E-03    -15.5149E-03     9.72307E-03
            1487     1.77227E-03     50.5291E-03    -21.1656E+06    -72.1370E+06    -18.8823E+06     33.2420E+03    -15.5510E-03     31.1095E-03    -15.5585E-03     6.51896E-03    -15.5249E-03     30.8069E-03    -15.5176E-03     6.51842E-03
            1488     886.162E-06     50.5246E-03    -22.0125E+06    -73.5330E+06    -21.4550E+06     5.01582E+03    -15.5564E-03     31.1000E-03    -15.5436E-03     3.52934E-03    -15.5287E-03     30.7954E-03    -15.5123E-03     3.52889E-03
            1489     16.8397E-03     50.2645E-03    -3.48684E+06     138.032E+06     42.8844E+06    -84.8891E+03    -18.1211E-03     33.5809E-03    -15.4598E-03     123.358E-03    -19.4324E-03     35.2454E-03    -15.4405E-03     124.061E-03
            1490     15.9513E-03     50.1320E-03    -3.68679E+06     85.2648E+06    -5.77248E+06    -223.605E+03    -17.8821E-03     33.1935E-03    -15.3114E-03     121.328E-03    -18.7929E-03     34.4107E-03    -15.4586E-03     121.545E-03
            1491     15.0646E-03     50.0375E-03    -4.16553E+06     33.7306E+06    -851.298E+03     394.303E+03    -16.7315E-03     32.1716E-03    -15.4401E-03     84.8470E-03    -16.9980E-03     32.5456E-03    -15.4872E-03     84.8292E-03
            1492     14.1788E-03     49.9750E-03    -5.29917E+06    -640.056E+03    -354.646E+03     663.973E+03    -16.4682E-03     31.9739E-03    -15.5057E-03     63.4794E-03    -16.5676E-03     32.0532E-03    -15.4988E-03     63.4487E-03
            1493     13.2923E-03     49.9202E-03    -5.62272E+06    -27.7793E+06    -3.91993E+06     567.109E+03    -16.3919E-03     31.9172E-03    -15.5252E-03     58.1767E-03    -16.4188E-03     31.8368E-03    -15.4964E-03     58.1488E-03
            1494     12.4063E-03     49.8667E-03    -5.62172E+06    -33.9637E+06     1.60550E+06     224.299E+03    -16.2285E-03     31.7892E-03    -15.5607E-03     54.0944E-03    -16.2375E-03     31.6530E-03    -15.4953E-03     54.0694E-03
            1495     11.5200E-03     49.8197E-03    -6.31742E+06    -39.5628E+06     2.63052E+06     9.70013E+03    -16.0993E-03     31.6749E-03    -15.5756E-03     48.2374E-03    -16.0943E-03     31.4994E-03    -15.4960E-03     48.2161E-03
            1496     10.6340E-03     49.7771E-03    -7.02280E+06    -50.1843E+06     1.10995E+06    -103.337E+03    -16.0303E-03     31.6144E-03    -15.5841E-03     43.8605E-03    -16.0052E-03     31.3829E-03    -15.4956E-03     43.8427E-03
            1497     9.74777E-03     49.7382E-03    -7.94199E+06    -55.5229E+06     2.50519E+06    -255.204E+03    -15.9434E-03     31.5426E-03    -15.5992E-03     39.8311E-03    -15.9134E-03     31.2800E-03    -15.4946E-03     39.8152E-03
            1498     8.86165E-03     49.7030E-03    -8.94192E+06    -56.9881E+06     2.46751E+06    -166.507E+03    -15.8557E-03     31.4578E-03    -15.6021E-03     35.7259E-03    -15.8260E-03     31.1869E-03    -15.4941E-03     35.7141E-03
            1499     7.97545E-03     49.6718E-03    -10.0992E+06    -59.8919E+06     1.48755E+06    -54.7272E+03    -15.7777E-03     31.3811E-03    -15.6034E-03     31.6555E-03    -15.7466E-03     31.0972E-03    -15.4945E-03     31.6475E-03
            1500     7.08930E-03     49.6442E-03    -11.4970E+06    -63.0247E+06     120.328E+03    -48.2191E+03    -15.7202E-03     31.3240E-03    -15.6038E-03     27.6476E-03    -15.6885E-03     31.0274E-03    -15.4952E-03     27.6413E-03
            1501     6.20313E-03     49.6203E-03    -12.9852E+06    -64.3962E+06    -1.77400E+06    -12.1033E+03    -15.6629E-03     31.2623E-03    -15.5995E-03     23.7645E-03    -15.6332E-03     30.9631E-03    -15.4961E-03     23.7599E-03
            1502     5.31696E-03     49.6000E-03    -14.5967E+06    -65.6051E+06    -4.24049E+06     28.1858E+03    -15.6171E-03     31.2100E-03    -15.5930E-03     20.0403E-03    -15.5897E-03     30.9102E-03    -15.4979E-03     20.0372E-03
            1503     4.43078E-03     49.5830E-03    -16.3302E+06    -67.1342E+06    -7.41832E+06     18.0186E+03    -15.5828E-03     31.1671E-03    -15.5843E-03     16.4610E-03    -15.5569E-03     30.8664E-03    -15.5003E-03     16.4585E-03
            1504     3.54462E-03     49.5693E-03    -18.1139E+06    -69.5628E+06    -11.1108E+06     16.8814E+03    -15.5620E-03     31.1368E-03    -15.5748E-03     13.0243E-03    -15.5360E-03     30.8317E-03    -15.5032E-03     13.0224E-03
            1505     2.65845E-03     49.5587E-03    -19.8367E+06    -71.4010E+06    -15.1622E+06     43.1654E+03    -15.5495E-03     31.1119E-03    -15.5624E-03     9.70870E-03    -15.5233E-03     30.8058E-03    -15.5059E-03     9.70777E-03
            1506     1.77231E-03     49.5513E-03    -21.2180E+06    -72.1002E+06    -18.9502E+06     40.1590E+03    -15.5424E-03     31.0909E-03    -15.5485E-03     6.51046E-03    -15.5165E-03     30.7887E-03    -15.5079E-03     6.51001E-03
            1507     886.131E-06     49.5466E-03    -22.1232E+06    -73.4825E+06    -21.4831E+06     33.3476E+03    -15.5391E-03     31.0793E-03    -15.5402E-03     3.51401E-03    -15.5120E-03     30.7752E-03    -15.5090E-03     3.51392E-03
            1508     16.8366E-03     49.2848E-03    -2.99035E+06     137.761E+06     41.8322E+06    -488.886E+03    -17.6844E-03     33.1641E-03    -15.4797E-03     124.270E-03    -18.9997E-03     34.8366E-03    -15.4660E-03     124.978E-03
            1509     15.9522E-03     49.1555E-03    -4.99550E+06     83.4150E+06    -8.94184E+06     94.8851E+03    -18.2268E-03     33.5582E-03    -15.3315E-03     122.193E-03    -19.1430E-03     34.7788E-03    -15.4899E-03     122.410E-03
            1510     15.0646E-03     49.0599E-03    -4.64167E+06     33.5247E+06    -1.53933E+06     1.08943E+06    -17.1365E-03     32.5874E-03    -15.4509E-03     85.4977E-03    -17.4079E-03     32.9658E-03    -15.5005E-03     85.4863E-03
            1511     14.1779E-03     48.9962E-03    -5.02076E+06    -101.416E+03     22.5373E+03     675.072E+03    -16.5578E-03     32.0635E-03    -15.5058E-03     62.9253E-03    -16.6563E-03     32.1438E-03    -15.4982E-03     62.8944E-03
            1512     13.2927E-03     48.9421E-03    -5.33023E+06    -27.5354E+06    -3.84287E+06     279.473E+03    -16.3700E-03     31.8913E-03    -15.5212E-03     57.8272E-03    -16.3956E-03     31.8113E-03    -15.4928E-03     57.7957E-03
            1513     12.4062E-03     48.8888E-03    -5.46887E+06    -33.6739E+06     1.79788E+06     234.156E+03    -16.2313E-03     31.7887E-03    -15.5575E-03     54.0625E-03    -16.2402E-03     31.6535E-03    -15.4917E-03     54.0376E-03
            1514     11.5202E-03     48.8416E-03    -6.13551E+06    -39.4250E+06     2.75653E+06     65.2583E+03    -16.0947E-03     31.6666E-03    -15.5720E-03     48.1785E-03    -16.0891E-03     31.4913E-03    -15.4921E-03     48.1579E-03
            1515     10.6340E-03     48.7992E-03    -6.85965E+06    -50.1096E+06     1.35685E+06    -23.8590E+03    -16.0278E-03     31.6088E-03    -15.5810E-03     43.8493E-03    -16.0023E-03     31.3772E-03    -15.4916E-03     43.8325E-03
            1516     9.74783E-03     48.7601E-03    -7.82208E+06    -55.3461E+06     2.69086E+06    -114.074E+03    -15.9514E-03     31.5465E-03    -15.5951E-03     39.8034E-03    -15.9213E-03     31.2843E-03    -15.4901E-03     39.7893E-03
            1517     8.86168E-03     48.7251E-03    -8.99030E+06    -57.1896E+06     2.43020E+06    -226.489E+03    -15.8542E-03     31.4511E-03    -15.5969E-03     35.7055E-03    -15.8244E-03     31.1793E-03    -15.4888E-03     35.6931E-03
            1518     7.97550E-03     48.6938E-03    -10.1991E+06    -59.9994E+06     1.52580E+06    -85.5925E+03    -15.7864E-03     31.3839E-03    -15.5974E-03     31.6369E-03    -15.7557E-03     31.0995E-03    -15.4880E-03     31.6284E-03
            1519     7.08936E-03     48.6662E-03    -11.5229E+06    -62.9829E+06     99.5627E+03    -39.2983E+03    -15.7195E-03     31.3154E-03    -15.5959E-03     27.6176E-03    -15.6880E-03     31.0191E-03    -15.4874E-03     27.6114E-03
            1520     6.20317E-03     48.6424E-03    -13.0617E+06    -64.4618E+06    -1.90564E+06    -59.3444E+03    -15.6598E-03     31.2501E-03    -15.5903E-03     23.7426E-03    -15.6302E-03     30.9508E-03    -15.4874E-03     23.7374E-03
            1521     5.31701E-03     48.6220E-03    -14.6974E+06    -65.6490E+06    -4.38252E+06    -2.92106E+03    -15.6125E-03     31.1953E-03    -15.5829E-03     20.0140E-03    -15.5853E-03     30.8957E-03    -15.4883E-03     20.0105E-03
            1522     4.43083E-03     48.6051E-03    -16.4562E+06    -67.1010E+06    -7.60964E+06     39.1212E+03    -15.5767E-03     31.1496E-03    -15.5729E-03     16.4365E-03    -15.5512E-03     30.8495E-03    -15.4897E-03     16.4343E-03
            1523     3.54465E-03     48.5914E-03    -18.2519E+06    -69.5938E+06    -11.2400E+06     55.2835E+03    -15.5547E-03     31.1174E-03    -15.5627E-03     12.9999E-03    -15.5291E-03     30.8125E-03    -15.4915E-03     12.9985E-03
            1524     2.65849E-03     48.5809E-03    -19.9084E+06    -71.3644E+06    -15.2004E+06     68.9681E+03    -15.5398E-03     31.0891E-03    -15.5493E-03     9.68977E-03    -15.5140E-03     30.7833E-03    -15.4930E-03     9.68917E-03
            1525     1.77232E-03     48.5733E-03    -21.2618E+06    -72.0485E+06    -18.9674E+06     44.5132E+03    -15.5289E-03     31.0636E-03    -15.5347E-03     6.49774E-03    -15.5033E-03     30.7618E-03    -15.4942E-03     6.49734E-03
            1526     886.177E-06     48.5688E-03    -22.1350E+06    -73.4272E+06    -21.5211E+06     34.8606E+03    -15.5206E-03     31.0513E-03    -15.5307E-03     3.49630E-03    -15.4936E-03     30.7475E-03    -15.4997E-03     3.49624E-03
            1527     16.8369E-03     48.3074E-03    -2.87266E+06     137.388E+06     41.1571E+06     197.906E+03    -17.1550E-03     32.6579E-03    -15.5028E-03     123.684E-03    -18.4510E-03     34.3120E-03    -15.4921E-03     124.405E-03
            1528     15.9483E-03     48.1764E-03    -5.49693E+06     83.3579E+06    -8.86663E+06     908.076E+03    -18.6801E-03     34.0405E-03    -15.3604E-03     121.512E-03    -19.5894E-03     35.2518E-03    -15.5176E-03     121.729E-03
            1529     15.0646E-03     48.0811E-03    -6.60009E+06     33.3885E+06    -2.17559E+06     455.395E+03    -17.7198E-03     33.1666E-03    -15.4469E-03     84.4481E-03    -18.0019E-03     33.5502E-03    -15.4966E-03     84.4240E-03
            1530     14.1797E-03     48.0181E-03    -5.68997E+06     330.880E+03    -142.744E+03     108.392E+03    -16.3718E-03     31.8589E-03    -15.4871E-03     62.5400E-03    -16.4726E-03     31.9412E-03    -15.4801E-03     62.5027E-03
            1531     13.2924E-03     47.9645E-03    -5.06371E+06    -27.1522E+06    -3.52649E+06     156.851E+03    -16.2412E-03     31.7538E-03    -15.5125E-03     57.9300E-03    -16.2665E-03     31.6749E-03    -15.4835E-03     57.8973E-03
            1532     12.4065E-03     47.9104E-03    -5.61099E+06    -33.8754E+06     1.77841E+06     177.534E+03    -16.2261E-03     31.7787E-03    -15.5526E-03     54.0549E-03    -16.2354E-03     31.6427E-03    -15.4865E-03     54.0293E-03
            1533     11.5202E-03     47.8639E-03    -6.06493E+06    -39.1025E+06     3.08971E+06     133.811E+03    -16.0719E-03     31.6403E-03    -15.5685E-03     48.1891E-03    -16.0668E-03     31.4660E-03    -15.4875E-03     48.1695E-03
            1534     10.6340E-03     47.8209E-03    -6.82119E+06    -50.1177E+06     1.44715E+06        -979.349    -16.0373E-03     31.6143E-03    -15.5770E-03     43.8648E-03    -16.0117E-03     31.3824E-03    -15.4872E-03     43.8483E-03
            1535     9.74792E-03     47.7822E-03    -7.58806E+06    -55.2357E+06     3.04351E+06    -7.85173E+03    -15.9513E-03     31.5424E-03    -15.5911E-03     39.7522E-03    -15.9207E-03     31.2799E-03    -15.4848E-03     39.7396E-03
            1536     8.86169E-03     47.7471E-03    -8.76223E+06    -57.1168E+06     2.63333E+06    -60.3325E+03    -15.8664E-03     31.4575E-03    -15.5911E-03     35.6837E-03    -15.8358E-03     31.1854E-03    -15.4824E-03     35.6734E-03
            1537     7.97560E-03     47.7158E-03    -10.0676E+06    -60.1673E+06     1.55371E+06    -148.843E+03    -15.7932E-03     31.3827E-03    -15.5895E-03     31.5913E-03    -15.7616E-03     31.0973E-03    -15.4799E-03     31.5821E-03
            1538     7.08940E-03     47.6883E-03    -11.4290E+06    -62.9847E+06     108.336E+03    -42.5861E+03    -15.7208E-03     31.3069E-03    -15.5861E-03     27.5808E-03    -15.6888E-03     31.0105E-03    -15.4777E-03     27.5746E-03
            1539     6.20326E-03     47.6644E-03    -12.9578E+06    -64.5091E+06    -1.97056E+06     5.21490E+03    -15.6603E-03     31.2390E-03    -15.5787E-03     23.7035E-03    -15.6300E-03     30.9395E-03    -15.4763E-03     23.6991E-03
            1540     5.31707E-03     47.6441E-03    -14.7146E+06    -65.6930E+06    -4.51213E+06     46.1390E+03    -15.6087E-03     31.1782E-03    -15.5695E-03     19.9770E-03    -15.5814E-03     30.8785E-03    -15.4755E-03     19.9741E-03
            1541     4.43089E-03     47.6272E-03    -16.5072E+06    -67.0992E+06    -7.65104E+06     68.9993E+03    -15.5703E-03     31.1286E-03    -15.5584E-03     16.4010E-03    -15.5450E-03     30.8287E-03    -15.4754E-03     16.3992E-03
            1542     3.54471E-03     47.6135E-03    -18.2817E+06    -69.5655E+06    -11.2418E+06     66.8654E+03    -15.5445E-03     31.0912E-03    -15.5467E-03     12.9685E-03    -15.5191E-03     30.7865E-03    -15.4755E-03     12.9674E-03
            1543     2.65853E-03     47.6029E-03    -19.9356E+06    -71.3213E+06    -15.1959E+06     33.2258E+03    -15.5257E-03     31.0577E-03    -15.5320E-03     9.66539E-03    -15.5001E-03     30.7522E-03    -15.4756E-03     9.66433E-03
            1544     1.77236E-03     47.5955E-03    -21.2635E+06    -72.0141E+06    -18.9461E+06     29.1653E+03    -15.5107E-03     31.0275E-03    -15.5168E-03     6.47886E-03    -15.4852E-03     30.7258E-03    -15.4763E-03     6.47826E-03
            1545     886.160E-06     47.5908E-03    -22.1448E+06    -73.3770E+06    -21.4942E+06     20.8604E+03    -15.5037E-03     31.0154E-03    -15.5118E-03     3.49235E-03    -15.4769E-03     30.7119E-03    -15.4807E-03     3.49210E-03
            1546     16.8373E-03     47.3329E-03    -4.45394E+06     137.074E+06     42.2819E+06     480.207E+03    -17.8656E-03     33.3541E-03    -15.4885E-03     123.577E-03    -19.1632E-03     34.9999E-03    -15.4694E-03     124.283E-03
            1547     15.9519E-03     47.1967E-03    -5.31420E+06     84.4234E+06    -6.59320E+06     571.713E+03    -18.8768E-03     34.1993E-03    -15.3225E-03     121.366E-03    -19.7878E-03     35.4103E-03    -15.4702E-03     121.572E-03
            1548     15.0660E-03     47.1020E-03    -4.00474E+06     34.2198E+06    -681.957E+03     60.6016E+03    -17.0010E-03     32.4151E-03    -15.4141E-03     82.8911E-03    -17.2663E-03     32.7896E-03    -15.4613E-03     82.8656E-03
            1549     14.1783E-03     47.0411E-03    -4.61523E+06    -205.439E+03     525.263E+03     186.090E+03    -15.9922E-03     31.4773E-03    -15.4851E-03     63.2016E-03    -16.0879E-03     31.5543E-03    -15.4754E-03     63.1668E-03
            1550     13.2927E-03     46.9859E-03    -5.51835E+06    -27.2967E+06    -3.54257E+06     193.688E+03    -16.3647E-03     31.8823E-03    -15.5177E-03     58.4371E-03    -16.3926E-03     31.8040E-03    -15.4878E-03     58.4044E-03
            1551     12.4064E-03     46.9328E-03    -5.34539E+06    -33.4972E+06     2.03476E+06     167.631E+03    -16.2573E-03     31.8100E-03    -15.5526E-03     54.0783E-03    -16.2662E-03     31.6750E-03    -15.4861E-03     54.0525E-03
            1552     11.5201E-03     46.8856E-03    -5.90394E+06    -39.2123E+06     3.17380E+06     60.0681E+03    -16.1061E-03     31.6722E-03    -15.5661E-03     48.2700E-03    -16.1003E-03     31.4970E-03    -15.4848E-03     48.2493E-03
            1553     10.6342E-03     46.8430E-03    -6.55006E+06    -49.8905E+06     1.72023E+06     111.011E+03    -16.0520E-03     31.6248E-03    -15.5728E-03     43.8221E-03    -16.0258E-03     31.3932E-03    -15.4823E-03     43.8070E-03
            1554     9.74787E-03     46.8042E-03    -7.51926E+06    -55.3460E+06     3.05075E+06     26.5996E+03    -15.9650E-03     31.5496E-03    -15.5846E-03     39.7328E-03    -15.9338E-03     31.2864E-03    -15.4782E-03     39.7206E-03
            1555     8.86185E-03     46.7691E-03    -8.52194E+06    -56.9637E+06     2.80012E+06     29.8723E+03    -15.8843E-03     31.4667E-03    -15.5824E-03     35.6242E-03    -15.8530E-03     31.1948E-03    -15.4735E-03     35.6151E-03
            1556     7.97563E-03     46.7378E-03    -9.85057E+06    -60.1979E+06     1.49353E+06     24.1723E+03    -15.7956E-03     31.3735E-03    -15.5779E-03     31.5341E-03    -15.7627E-03     31.0877E-03    -15.4689E-03     31.5272E-03
            1557     7.08952E-03     46.7103E-03    -11.4199E+06    -63.1028E+06    -68.4178E+03     47.5187E+03    -15.7262E-03     31.2987E-03    -15.5726E-03     27.5238E-03    -15.6937E-03     31.0019E-03    -15.4649E-03     27.5188E-03
            1558     6.20333E-03     46.6865E-03    -13.0790E+06    -64.4867E+06    -2.10915E+06     120.263E+03    -15.6594E-03     31.2225E-03    -15.5631E-03     23.6477E-03    -15.6296E-03     30.9234E-03    -15.4612E-03     23.6449E-03
            1559     5.31717E-03     46.6662E-03    -14.7420E+06    -65.6902E+06    -4.49130E+06     89.7395E+03    -15.6039E-03     31.1563E-03    -15.5524E-03     19.9253E-03    -15.5767E-03     30.8566E-03    -15.4582E-03     19.9230E-03
            1560     4.43098E-03     46.6493E-03    -16.4781E+06    -67.0682E+06    -7.57289E+06     74.3173E+03    -15.5591E-03     31.0985E-03    -15.5394E-03     16.3559E-03    -15.5338E-03     30.7986E-03    -15.4562E-03     16.3542E-03
            1561     3.54478E-03     46.6356E-03    -18.2279E+06    -69.5110E+06    -11.1631E+06     40.5867E+03    -15.5291E-03     31.0553E-03    -15.5262E-03     12.9315E-03    -15.5036E-03     30.7507E-03    -15.4547E-03     12.9300E-03
            1562     2.65860E-03     46.6251E-03    -19.8775E+06    -71.2767E+06    -15.1343E+06     13.6540E+03    -15.5071E-03     31.0172E-03    -15.5101E-03     9.63547E-03    -15.4814E-03     30.7118E-03    -15.4536E-03     9.63417E-03
            1563     1.77239E-03     46.6176E-03    -21.2367E+06    -72.0113E+06    -18.9034E+06    -10.1365E+03    -15.4896E-03     30.9835E-03    -15.4939E-03     6.45481E-03    -15.4640E-03     30.6817E-03    -15.4532E-03     6.45372E-03
            1564     886.210E-06     46.6131E-03    -22.1004E+06    -73.3564E+06    -21.4770E+06    -1.33052E+03    -15.4773E-03     30.9683E-03    -15.4910E-03     3.48794E-03    -15.4503E-03     30.6647E-03    -15.4599E-03     3.48740E-03
            1565     16.8378E-03     46.3556E-03    -3.83258E+06     137.734E+06     43.1688E+06     147.449E+03    -18.6818E-03     34.1416E-03    -15.4597E-03     123.509E-03    -19.9905E-03     35.8004E-03    -15.4380E-03     124.199E-03
            1566     15.9525E-03     46.2157E-03    -2.95356E+06     84.3619E+06    -6.25702E+06    -620.207E+03    -18.3741E-03     33.6573E-03    -15.2833E-03     122.849E-03    -19.2912E-03     34.8816E-03    -15.4326E-03     123.052E-03
            1567     15.0659E-03     46.1270E-03    -2.40972E+06     33.1460E+06    -1.15162E+06     208.717E+03    -16.5143E-03     31.9186E-03    -15.4043E-03     83.5630E-03    -16.7652E-03     32.2819E-03    -15.4546E-03     83.5425E-03
            1568     14.1785E-03     46.0628E-03    -2.96977E+06     303.601E+03     1.47198E+06     806.629E+03    -16.1063E-03     31.5988E-03    -15.4925E-03     63.5685E-03    -16.1971E-03     31.6758E-03    -15.4813E-03     63.5409E-03
            1569     13.2922E-03     46.0076E-03    -3.65624E+06    -27.0830E+06    -2.51481E+06     488.721E+03    -16.3244E-03     31.8488E-03    -15.5244E-03     58.2501E-03    -16.3443E-03     31.7668E-03    -15.4924E-03     58.2214E-03
            1570     12.4063E-03     45.9548E-03    -4.56393E+06    -33.3707E+06     2.41123E+06     232.053E+03    -16.3427E-03     31.8992E-03    -15.5565E-03     53.9936E-03    -16.3484E-03     31.7633E-03    -15.4894E-03     53.9685E-03
            1571     11.5203E-03     45.9075E-03    -5.36610E+06    -39.1653E+06     3.32927E+06     157.270E+03    -16.1773E-03     31.7409E-03    -15.5636E-03     48.2194E-03    -16.1691E-03     31.5650E-03    -15.4824E-03     48.1999E-03
            1572     10.6341E-03     45.8651E-03    -6.22846E+06    -50.0082E+06     1.67739E+06     256.249E+03    -16.0798E-03     31.6454E-03    -15.5656E-03     43.7643E-03    -16.0517E-03     31.4128E-03    -15.4757E-03     43.7512E-03
            1573     9.74808E-03     45.8261E-03    -7.18689E+06    -55.1227E+06     3.02477E+06     245.035E+03    -15.9965E-03     31.5702E-03    -15.5738E-03     39.6633E-03    -15.9639E-03     31.3077E-03    -15.4683E-03     39.6539E-03
            1574     8.86188E-03     45.7911E-03    -8.52453E+06    -57.0405E+06     2.55164E+06     150.005E+03    -15.8900E-03     31.4586E-03    -15.5685E-03     35.5373E-03    -15.8582E-03     31.1866E-03    -15.4607E-03     35.5298E-03
            1575     7.97580E-03     45.7598E-03    -9.89386E+06    -60.1871E+06     1.41719E+06     255.113E+03    -15.8055E-03     31.3679E-03    -15.5624E-03     31.4544E-03    -15.7728E-03     31.0823E-03    -15.4537E-03     31.4504E-03
            1576     7.08961E-03     45.7324E-03    -11.4016E+06    -63.0599E+06    -35.3376E+03     254.510E+03    -15.7270E-03     31.2817E-03    -15.5547E-03     27.4445E-03    -15.6946E-03     30.9850E-03    -15.4469E-03     27.4421E-03
            1577     6.20347E-03     45.7086E-03    -12.9436E+06    -64.4200E+06    -1.84905E+06     132.672E+03    -15.6564E-03     31.2000E-03    -15.5436E-03     23.5753E-03    -15.6263E-03     30.9006E-03    -15.4407E-03     23.5726E-03
            1578     5.31728E-03     45.6883E-03    -14.5812E+06    -65.6306E+06    -4.28878E+06     95.6394E+03    -15.5925E-03     31.1229E-03    -15.5304E-03     19.8626E-03    -15.5649E-03     30.8229E-03    -15.4355E-03     19.8604E-03
            1579     4.43109E-03     45.6714E-03    -16.3266E+06    -67.0254E+06    -7.41246E+06     55.4675E+03    -15.5427E-03     31.0581E-03    -15.5155E-03     16.3044E-03    -15.5169E-03     30.7580E-03    -15.4317E-03     16.3025E-03
            1580     3.54488E-03     45.6578E-03    -18.1008E+06    -69.4586E+06    -11.0411E+06     35.4044E+03    -15.5083E-03     31.0089E-03    -15.5006E-03     12.8871E-03    -15.4824E-03     30.7042E-03    -15.4288E-03     12.8855E-03
            1581     2.65866E-03     45.6473E-03    -19.7764E+06    -71.2354E+06    -15.0453E+06    -3.66157E+03    -15.4831E-03     30.9664E-03    -15.4833E-03     9.60011E-03    -15.4571E-03     30.6609E-03    -15.4265E-03     9.59859E-03
            1582     1.77245E-03     45.6399E-03    -21.1409E+06    -72.0185E+06    -18.8286E+06    -13.4291E+03    -15.4646E-03     30.9304E-03    -15.4658E-03     6.42927E-03    -15.4386E-03     30.6283E-03    -15.4249E-03     6.42814E-03
            1583     886.213E-06     45.6353E-03    -22.0625E+06    -73.3605E+06    -21.4097E+06    -10.0352E+03    -15.4515E-03     30.9105E-03    -15.4590E-03     3.47389E-03    -15.4244E-03     30.6068E-03    -15.4277E-03     3.47325E-03
            1584     16.8397E-03     45.3752E-03    -2.07085E+06     138.227E+06     42.4010E+06    -941.583E+03    -18.3546E-03     33.8276E-03    -15.4730E-03     124.572E-03    -19.6682E-03     35.5016E-03    -15.4584E-03     125.264E-03
            1585     15.9514E-03     45.2411E-03    -2.42176E+06     83.1155E+06    -9.09597E+06     384.797E+03    -17.9923E-03     33.3040E-03    -15.3117E-03     122.864E-03    -18.8947E-03     34.5192E-03    -15.4742E-03     123.085E-03
            1586     15.0636E-03     45.1473E-03    -4.70501E+06     32.2062E+06    -3.29019E+06     800.245E+03    -16.8472E-03     32.2918E-03    -15.4446E-03     84.9777E-03    -17.1066E-03     32.6585E-03    -15.5009E-03     84.9639E-03
            1587     14.1795E-03     45.0853E-03    -4.72239E+06     1.07858E+06    -212.256E+03     600.285E+03    -16.8047E-03     32.3086E-03    -15.5040E-03     63.8233E-03    -16.9045E-03     32.3962E-03    -15.4997E-03     63.7904E-03
            1588     13.2926E-03     45.0301E-03    -3.85924E+06    -26.7386E+06    -3.65965E+06     609.768E+03    -16.3893E-03     31.9028E-03    -15.5135E-03     58.3948E-03    -16.4088E-03     31.8243E-03    -15.4874E-03     58.3677E-03
            1589     12.4063E-03     44.9761E-03    -4.16672E+06    -33.5215E+06     2.12761E+06     631.875E+03    -16.3099E-03     31.8584E-03    -15.5485E-03     53.8449E-03    -16.3129E-03     31.7215E-03    -15.4832E-03     53.8251E-03
            1590     11.5203E-03     44.9297E-03    -5.22554E+06    -39.0339E+06     2.98540E+06     614.632E+03    -16.2235E-03     31.7775E-03    -15.5540E-03     48.0111E-03    -16.2143E-03     31.6025E-03    -15.4749E-03     47.9974E-03
            1591     10.6343E-03     44.8868E-03    -6.21727E+06    -49.9454E+06     1.33535E+06     402.103E+03    -16.1215E-03     31.6733E-03    -15.5518E-03     43.6524E-03    -16.0930E-03     31.4415E-03    -15.4637E-03     43.6411E-03
            1592     9.74817E-03     44.8482E-03    -7.10508E+06    -55.0839E+06     2.86612E+06     442.333E+03    -16.0073E-03     31.5644E-03    -15.5571E-03     39.5348E-03    -15.9741E-03     31.3022E-03    -15.4526E-03     39.5280E-03
            1593     8.86209E-03     44.8131E-03    -8.31796E+06    -56.9499E+06     2.74416E+06     514.426E+03    -15.8985E-03     31.4493E-03    -15.5507E-03     35.4369E-03    -15.8661E-03     31.1772E-03    -15.4424E-03     35.4340E-03
            1594     7.97593E-03     44.7819E-03    -9.83020E+06    -60.2198E+06     1.73399E+06     459.722E+03    -15.8081E-03     31.3509E-03    -15.5428E-03     31.3511E-03    -15.7755E-03     31.0645E-03    -15.4325E-03     31.3497E-03
            1595     7.08981E-03     44.7545E-03    -11.2385E+06    -62.7179E+06     341.651E+03     267.968E+03    -15.7231E-03     31.2551E-03    -15.5319E-03     27.3602E-03    -15.6909E-03     30.9593E-03    -15.4230E-03     27.3580E-03
            1596     6.20363E-03     44.7307E-03    -12.6987E+06    -64.4005E+06    -1.61762E+06     112.599E+03    -15.6443E-03     31.1624E-03    -15.5181E-03     23.4977E-03    -15.6134E-03     30.8625E-03    -15.4144E-03     23.4947E-03
            1597     5.31744E-03     44.7105E-03    -14.3488E+06    -65.5559E+06    -4.04213E+06     108.108E+03    -15.5764E-03     31.0792E-03    -15.5028E-03     19.7932E-03    -15.5480E-03     30.7789E-03    -15.4072E-03     19.7912E-03
            1598     4.43122E-03     44.6937E-03    -16.1182E+06    -66.9742E+06    -7.23301E+06     70.9940E+03    -15.5212E-03     31.0069E-03    -15.4858E-03     16.2419E-03    -15.4947E-03     30.7065E-03    -15.4014E-03     16.2402E-03
            1599     3.54499E-03     44.6800E-03    -17.9004E+06    -69.4225E+06    -10.8839E+06     42.3918E+03    -15.4826E-03     30.9518E-03    -15.4692E-03     12.8345E-03    -15.4560E-03     30.6468E-03    -15.3970E-03     12.8330E-03
            1600     2.65876E-03     44.6696E-03    -19.5862E+06    -71.1878E+06    -14.9177E+06     28.2470E+03    -15.4538E-03     30.9043E-03    -15.4505E-03     9.55606E-03    -15.4271E-03     30.5986E-03    -15.3935E-03     9.55497E-03
            1601     1.77250E-03     44.6621E-03    -20.9876E+06    -72.0292E+06    -18.7005E+06     11.1706E+03    -15.4329E-03     30.8651E-03    -15.4322E-03     6.39768E-03    -15.4064E-03     30.5626E-03    -15.3909E-03     6.39687E-03
            1602     886.267E-06     44.6576E-03    -21.8958E+06    -73.3421E+06    -21.2880E+06     15.3524E+03    -15.4245E-03     30.8425E-03    -15.4180E-03     3.45320E-03    -15.3968E-03     30.5385E-03    -15.3864E-03     3.45289E-03
            1603     16.8335E-03     44.3909E-03    -4.26945E+06     136.599E+06     40.9889E+06    -697.502E+03    -17.4647E-03     32.9682E-03    -15.5035E-03     123.898E-03    -18.7699E-03     34.6243E-03    -15.4904E-03     124.600E-03
            1604     15.9508E-03     44.2663E-03    -6.40390E+06     81.7790E+06    -10.6392E+06     88.0191E+03    -18.3361E-03     33.6895E-03    -15.3535E-03     120.895E-03    -19.2371E-03     34.8890E-03    -15.5160E-03     121.104E-03
            1605     15.0639E-03     44.1683E-03    -4.47962E+06     33.4478E+06    -2.67807E+06     374.641E+03    -17.1400E-03     32.6066E-03    -15.4665E-03     84.7182E-03    -17.4053E-03     32.9825E-03    -15.5219E-03     84.6968E-03
            1606     14.1770E-03     44.1061E-03    -6.00857E+06     371.345E+03    -752.112E+03    -50.0183E+03    -16.7970E-03     32.3135E-03    -15.5165E-03     62.9942E-03    -16.9007E-03     32.3994E-03    -15.5120E-03     62.9529E-03
            1607     13.2928E-03     44.0519E-03    -6.29187E+06    -26.8988E+06    -4.89002E+06     129.004E+03    -16.7576E-03     32.2676E-03    -15.5100E-03     58.0024E-03    -16.7883E-03     32.1946E-03    -15.4863E-03     57.9677E-03
            1608     12.4066E-03     43.9984E-03    -5.93573E+06    -33.5763E+06     1.17427E+06     500.701E+03    -16.3331E-03     31.8637E-03    -15.5306E-03     53.8802E-03    -16.3434E-03     31.7303E-03    -15.4674E-03     53.8587E-03
            1609     11.5205E-03     43.9512E-03    -6.04500E+06    -38.9199E+06     2.71280E+06     752.554E+03    -16.2057E-03     31.7416E-03    -15.5359E-03     47.8429E-03    -16.2003E-03     31.5687E-03    -15.4572E-03     47.8310E-03
            1610     10.6345E-03     43.9090E-03    -6.71983E+06    -49.5502E+06     1.33826E+06     612.319E+03    -16.1251E-03     31.6578E-03    -15.5327E-03     43.4975E-03    -16.0996E-03     31.4287E-03    -15.4444E-03     43.4889E-03
            1611     9.74838E-03     43.8700E-03    -7.66071E+06    -55.1549E+06     2.77112E+06     416.545E+03    -16.0045E-03     31.5405E-03    -15.5361E-03     39.4443E-03    -15.9738E-03     31.2788E-03    -15.4311E-03     39.4372E-03
            1612     8.86230E-03     43.8352E-03    -8.56074E+06    -57.0270E+06     2.93810E+06     583.920E+03    -15.9011E-03     31.4292E-03    -15.5281E-03     35.3377E-03    -15.8701E-03     31.1568E-03    -15.4183E-03     35.3357E-03
            1613     7.97617E-03     43.8039E-03    -9.56748E+06    -59.8161E+06     2.09692E+06     475.554E+03    -15.8027E-03     31.3195E-03    -15.5168E-03     31.2668E-03    -15.7698E-03     31.0342E-03    -15.4057E-03     31.2657E-03
            1614     7.09001E-03     43.7766E-03    -10.8567E+06    -62.5533E+06     664.316E+03     236.579E+03    -15.7135E-03     31.2170E-03    -15.5035E-03     27.2707E-03    -15.6800E-03     30.9210E-03    -15.3937E-03     27.2682E-03
            1615     6.20383E-03     43.7529E-03    -12.4553E+06    -64.2903E+06    -1.44106E+06     196.771E+03    -15.6299E-03     31.1166E-03    -15.4867E-03     23.4137E-03    -15.5982E-03     30.8166E-03    -15.3826E-03     23.4118E-03
            1616     5.31762E-03     43.7327E-03    -14.1781E+06    -65.5215E+06    -3.92177E+06     119.085E+03    -15.5564E-03     31.0253E-03    -15.4689E-03     19.7121E-03    -15.5274E-03     30.7248E-03    -15.3729E-03     19.7102E-03
            1617     4.43138E-03     43.7159E-03    -15.9351E+06    -66.9085E+06    -7.09281E+06     111.047E+03    -15.4953E-03     30.9450E-03    -15.4496E-03     16.1691E-03    -15.4683E-03     30.6444E-03    -15.3650E-03     16.1678E-03
            1618     3.54513E-03     43.7023E-03    -17.7465E+06    -69.3870E+06    -10.8145E+06     93.0273E+03    -15.4510E-03     30.8820E-03    -15.4309E-03     12.7726E-03    -15.4238E-03     30.5768E-03    -15.3587E-03     12.7718E-03
            1619     2.65885E-03     43.6919E-03    -19.4427E+06    -71.1454E+06    -14.8268E+06     79.9739E+03    -15.4186E-03     30.8294E-03    -15.4108E-03     9.50572E-03    -15.3913E-03     30.5235E-03    -15.3536E-03     9.50530E-03
            1620     1.77259E-03     43.6845E-03    -20.8278E+06    -71.9963E+06    -18.5821E+06     75.4054E+03    -15.3949E-03     30.7861E-03    -15.3912E-03     6.36050E-03    -15.3678E-03     30.4833E-03    -15.3495E-03     6.36053E-03
            1621     886.281E-06     43.6799E-03    -21.7519E+06    -73.2757E+06    -21.1336E+06     43.7651E+03    -15.3783E-03     30.7591E-03    -15.3808E-03     3.43022E-03    -15.3502E-03     30.4549E-03    -15.3487E-03     3.43028E-03
            1622     16.8409E-03     43.4211E-03    -2.05871E+06     138.195E+06     42.5608E+06     1.61216E+06    -17.6100E-03     33.0911E-03    -15.4811E-03     122.641E-03    -18.8884E-03     34.7294E-03    -15.4657E-03     123.360E-03
            1623     15.9491E-03     43.2826E-03    -6.03366E+06     82.7777E+06    -9.55356E+06    -653.211E+03    -18.2285E-03     33.5584E-03    -15.3298E-03     120.774E-03    -19.1323E-03     34.7623E-03    -15.4889E-03     120.977E-03
            1624     15.0660E-03     43.1932E-03    -6.96710E+06     32.4019E+06    -3.68845E+06    -1.45701E+06    -17.4427E-03     32.8728E-03    -15.4301E-03     83.6396E-03    -17.7208E-03     33.2519E-03    -15.4854E-03     83.5923E-03
            1625     14.1791E-03     43.1267E-03    -5.15376E+06     601.498E+03     459.230E+03    -32.0460E+03    -16.3766E-03     31.8607E-03    -15.4841E-03     62.6155E-03    -16.4765E-03     31.9431E-03    -15.4752E-03     62.5760E-03
            1626     13.2925E-03     43.0736E-03    -5.94604E+06    -27.4880E+06    -4.07370E+06     124.959E+03    -16.5154E-03     32.0116E-03    -15.4962E-03     57.2915E-03    -16.5440E-03     31.9332E-03    -15.4680E-03     57.2573E-03
            1627     12.4069E-03     43.0201E-03    -6.37017E+06    -33.8166E+06     1.21370E+06     9.93534E+03    -16.4622E-03     31.9770E-03    -15.5148E-03     53.7023E-03    -16.4746E-03     31.8433E-03    -15.4505E-03     53.6740E-03
            1628     11.5209E-03     42.9733E-03    -6.75691E+06    -39.0830E+06     2.90277E+06     283.272E+03    -16.1812E-03     31.6969E-03    -15.5157E-03     47.8795E-03    -16.1792E-03     31.5238E-03    -15.4347E-03     47.8617E-03
            1629     10.6347E-03     42.9307E-03    -7.05630E+06    -49.3388E+06     1.76894E+06     530.216E+03    -16.1094E-03     31.6215E-03    -15.5121E-03     43.4283E-03    -16.0864E-03     31.3932E-03    -15.4215E-03     43.4187E-03
            1630     9.74868E-03     42.8922E-03    -7.74480E+06    -55.0115E+06     2.93031E+06     447.013E+03    -16.0113E-03     31.5231E-03    -15.5118E-03     39.3743E-03    -15.9815E-03     31.2620E-03    -15.4062E-03     39.3676E-03
            1631     8.86252E-03     42.8571E-03    -8.70999E+06    -57.0544E+06     2.74100E+06     269.784E+03    -15.8991E-03     31.3985E-03    -15.4995E-03     35.2641E-03    -15.8684E-03     31.1265E-03    -15.3904E-03     35.2582E-03
            1632     7.97642E-03     42.8261E-03    -9.63902E+06    -59.5478E+06     1.89964E+06     236.627E+03    -15.7990E-03     31.2837E-03    -15.4846E-03     31.1797E-03    -15.7666E-03     31.0001E-03    -15.3748E-03     31.1756E-03
            1633     7.09025E-03     42.7987E-03    -10.9062E+06    -62.5315E+06     555.249E+03     287.349E+03    -15.7038E-03     31.1727E-03    -15.4688E-03     27.1748E-03    -15.6705E-03     30.8770E-03    -15.3596E-03     27.1729E-03
            1634     6.20406E-03     42.7751E-03    -12.4382E+06    -64.1737E+06    -1.44961E+06     283.393E+03    -15.6146E-03     31.0636E-03    -15.4490E-03     23.3134E-03    -15.5829E-03     30.7642E-03    -15.3452E-03     23.3127E-03
            1635     5.31783E-03     42.7550E-03    -14.1556E+06    -65.3946E+06    -4.00701E+06     212.192E+03    -15.5320E-03     30.9597E-03    -15.4277E-03     19.6189E-03    -15.5030E-03     30.6599E-03    -15.3324E-03     19.6182E-03
            1636     4.43157E-03     42.7382E-03    -15.9951E+06    -66.8963E+06    -7.17618E+06     156.327E+03    -15.4640E-03     30.8700E-03    -15.4061E-03     16.0849E-03    -15.4371E-03     30.5697E-03    -15.3218E-03     16.0843E-03
            1637     3.54529E-03     42.7247E-03    -17.7812E+06    -69.2964E+06    -10.8334E+06     149.575E+03    -15.4132E-03     30.7984E-03    -15.3852E-03     12.7007E-03    -15.3862E-03     30.4937E-03    -15.3131E-03     12.7006E-03
            1638     2.65899E-03     42.7143E-03    -19.4569E+06    -71.1215E+06    -14.8424E+06     129.210E+03    -15.3755E-03     30.7388E-03    -15.3633E-03     9.44933E-03    -15.3483E-03     30.4331E-03    -15.3062E-03     9.44956E-03
            1639     1.77266E-03     42.7069E-03    -20.8184E+06    -71.8897E+06    -18.5578E+06     114.073E+03    -15.3480E-03     30.6905E-03    -15.3425E-03     6.31981E-03    -15.3210E-03     30.3882E-03    -15.3008E-03     6.32034E-03
            1640     886.352E-06     42.7024E-03    -21.7019E+06    -73.1724E+06    -21.0788E+06     49.2945E+03    -15.3249E-03     30.6608E-03    -15.3359E-03     3.39843E-03    -15.2967E-03     30.3570E-03    -15.3037E-03     3.39857E-03
            1641     16.8363E-03     42.4418E-03    -3.84533E+06     138.142E+06     44.9643E+06     377.795E+03    -18.3527E-03     33.8386E-03    -15.4858E-03     122.576E-03    -19.6541E-03     35.4863E-03    -15.4557E-03     123.277E-03
            1642     15.9532E-03     42.3079E-03    -3.11132E+06     85.3815E+06    -3.88271E+06     1.06004E+06    -18.4518E-03     33.7683E-03    -15.3165E-03     122.666E-03    -19.3625E-03     34.9823E-03    -15.4552E-03     122.889E-03
            1643     15.0645E-03     42.2112E-03    -4.47338E+06     31.9030E+06    -1.92114E+06     192.401E+03    -17.2659E-03     32.6701E-03    -15.4041E-03     84.2041E-03    -17.5314E-03     33.0384E-03    -15.4535E-03     84.1796E-03
            1644     14.1801E-03     42.1512E-03    -5.46274E+06    -64.0925E+03     283.832E+03     24.0273E+03    -16.4925E-03     31.9468E-03    -15.4543E-03     63.1650E-03    -16.5929E-03     32.0268E-03    -15.4449E-03     63.1260E-03
            1645     13.2931E-03     42.0947E-03    -5.07957E+06    -26.9386E+06    -3.44802E+06     253.861E+03    -16.2949E-03     31.7650E-03    -15.4701E-03     58.0124E-03    -16.3201E-03     31.6866E-03    -15.4409E-03     57.9810E-03
            1646     12.4071E-03     42.0422E-03    -5.62519E+06    -33.9688E+06     1.32768E+06     97.7263E+03    -16.4053E-03     31.9013E-03    -15.4960E-03     53.4881E-03    -16.4137E-03     31.7653E-03    -15.4319E-03     53.4612E-03
            1647     11.5210E-03     41.9952E-03    -6.29703E+06    -39.2164E+06     2.85796E+06    -50.2685E+03    -16.2293E-03     31.7245E-03    -15.4952E-03     47.8508E-03    -16.2248E-03     31.5501E-03    -15.4149E-03     47.8287E-03
            1648     10.6350E-03     41.9528E-03    -6.81410E+06    -49.7369E+06     1.67859E+06     200.113E+03    -16.1234E-03     31.6114E-03    -15.4880E-03     43.4006E-03    -16.0984E-03     31.3809E-03    -15.3976E-03     43.3868E-03
            1649     9.74887E-03     41.9141E-03    -7.44440E+06    -54.7012E+06     3.01728E+06     425.625E+03    -16.0267E-03     31.5107E-03    -15.4840E-03     39.2784E-03    -15.9959E-03     31.2506E-03    -15.3788E-03     39.2715E-03
            1650     8.86284E-03     41.8793E-03    -8.44856E+06    -56.8482E+06     2.52553E+06     184.749E+03    -15.9086E-03     31.3749E-03    -15.4663E-03     35.1640E-03    -15.8765E-03     31.1037E-03    -15.3590E-03     35.1569E-03
            1651     7.97667E-03     41.8482E-03    -9.76367E+06    -59.6307E+06     1.59818E+06     159.645E+03    -15.7989E-03     31.2468E-03    -15.4479E-03     31.0646E-03    -15.7665E-03     30.9634E-03    -15.3393E-03     31.0594E-03
            1652     7.09054E-03     41.8210E-03    -11.1146E+06    -62.5591E+06     266.891E+03     266.167E+03    -15.6963E-03     31.1243E-03    -15.4279E-03     27.0557E-03    -15.6635E-03     30.8292E-03    -15.3198E-03     27.0535E-03
            1653     6.20432E-03     41.7974E-03    -12.5901E+06    -64.0850E+06    -1.66473E+06     307.824E+03    -15.5948E-03     30.9991E-03    -15.4042E-03     23.1963E-03    -15.5637E-03     30.7006E-03    -15.3014E-03     23.1959E-03
            1654     5.31809E-03     41.7773E-03    -14.2285E+06    -65.2827E+06    -4.06290E+06     291.903E+03    -15.5040E-03     30.8840E-03    -15.3800E-03     19.5081E-03    -15.4755E-03     30.5849E-03    -15.2850E-03     19.5085E-03
            1655     4.43180E-03     41.7606E-03    -15.9938E+06    -66.7827E+06    -7.17416E+06     232.571E+03    -15.4270E-03     30.7823E-03    -15.3553E-03     15.9856E-03    -15.4003E-03     30.4825E-03    -15.2711E-03     15.9860E-03
            1656     3.54548E-03     41.7472E-03    -17.8085E+06    -69.2399E+06    -10.7880E+06      166.53E+03    -15.3683E-03     30.7005E-03    -15.3321E-03     12.6174E-03    -15.3416E-03     30.3960E-03    -15.2599E-03     12.6176E-03
            1657     2.65913E-03     41.7368E-03    -19.4927E+06    -71.0522E+06    -14.7740E+06     172.803E+03    -15.3244E-03     30.6328E-03    -15.3084E-03     9.38508E-03    -15.2976E-03     30.3274E-03    -15.2510E-03     9.38588E-03
            1658     1.77277E-03     41.7294E-03    -20.8705E+06    -71.7438E+06    -18.5764E+06     113.260E+03    -15.2917E-03     30.5777E-03    -15.2860E-03     6.27283E-03    -15.2651E-03     30.2763E-03    -15.2446E-03     6.27336E-03
            1659     886.371E-06     41.7249E-03    -21.7477E+06    -73.0628E+06    -21.1421E+06     59.2104E+03    -15.2791E-03     30.5474E-03    -15.2683E-03     3.36690E-03    -15.2512E-03     30.2443E-03    -15.2365E-03     3.36717E-03
            1660     16.8380E-03     41.4610E-03    -4.97656E+06     136.264E+06     43.2169E+06    -982.189E+03    -18.2001E-03     33.6903E-03    -15.4901E-03     121.746E-03    -19.5031E-03     35.3340E-03    -15.4644E-03     122.426E-03
            1661     15.9508E-03     41.3299E-03    -5.69589E+06     84.5226E+06    -5.65672E+06     226.777E+03    -18.7346E-03     34.0490E-03    -15.3144E-03     122.358E-03    -19.6572E-03     35.2679E-03    -15.4570E-03     122.567E-03
            1662     15.0660E-03     41.2339E-03    -3.64962E+06     33.6616E+06    -1.06347E+06     1.44322E+06    -17.0893E-03     32.4928E-03    -15.4035E-03     84.7372E-03    -17.3528E-03     32.8659E-03    -15.4523E-03     84.7297E-03
            1663     14.1785E-03     41.1718E-03    -4.53528E+06    -699.337E+03     83.2250E+03     536.251E+03    -16.5901E-03     32.0449E-03    -15.4548E-03     62.9170E-03    -16.6848E-03     32.1208E-03    -15.4468E-03     62.8842E-03
            1664     13.2936E-03     41.1175E-03    -5.14116E+06    -26.7537E+06    -3.55000E+06     153.792E+03    -16.5738E-03     32.0326E-03    -15.4588E-03     58.2212E-03    -16.5999E-03     31.9558E-03    -15.4303E-03     58.1877E-03
            1665     12.4071E-03     41.0637E-03    -5.22035E+06    -33.6304E+06     1.46409E+06     149.321E+03    -16.3731E-03     31.8491E-03    -15.4761E-03     53.5675E-03    -16.3799E-03     31.7138E-03    -15.4124E-03     53.5415E-03
            1666     11.5213E-03     41.0173E-03    -5.81074E+06    -39.1788E+06     2.58478E+06     123.233E+03    -16.2709E-03     31.7426E-03    -15.4717E-03     47.6570E-03    -16.2636E-03     31.5681E-03    -15.3935E-03     47.6370E-03
            1667     10.6352E-03     40.9747E-03    -6.66425E+06    -49.9826E+06     1.01315E+06     59.7496E+03    -16.1616E-03     31.6199E-03    -15.4582E-03     43.3118E-03    -16.1345E-03     31.3887E-03    -15.3710E-03     43.2962E-03
            1668     9.74926E-03     40.9362E-03    -7.32884E+06    -54.8478E+06     2.89977E+06     234.508E+03    -16.0478E-03     31.4995E-03    -15.4517E-03     39.1462E-03    -16.0160E-03     31.2386E-03    -15.3470E-03     39.1368E-03
            1669     8.86311E-03     40.9013E-03    -8.37327E+06    -56.5451E+06     2.55172E+06     402.233E+03    -15.9209E-03     31.3499E-03    -15.4290E-03     35.0180E-03    -15.8889E-03     31.0801E-03    -15.3222E-03     35.0138E-03
            1670     7.97705E-03     40.8704E-03    -9.68607E+06    -59.6791E+06     1.48857E+06     254.370E+03    -15.8006E-03     31.2059E-03    -15.4053E-03     30.9205E-03    -15.7676E-03     30.9224E-03    -15.2973E-03     30.9166E-03
            1671     7.09085E-03     40.8432E-03    -11.1109E+06    -62.5828E+06     187.693E+03     284.180E+03    -15.6841E-03     31.0649E-03    -15.3808E-03     26.9098E-03    -15.6511E-03     30.7698E-03    -15.2730E-03     26.9080E-03
            1672     6.20466E-03     40.8197E-03    -12.6455E+06    -64.0531E+06    -1.73133E+06     322.368E+03    -15.5719E-03     30.9247E-03    -15.3528E-03     23.0572E-03    -15.5410E-03     30.6266E-03    -15.2502E-03     23.0571E-03
            1673     5.31837E-03     40.7997E-03    -14.3071E+06    -65.1714E+06    -4.07311E+06     314.466E+03    -15.4696E-03     30.7942E-03    -15.3247E-03     19.3798E-03    -15.4415E-03     30.4958E-03    -15.2298E-03     19.3806E-03
            1674     4.43207E-03     40.7831E-03    -16.0582E+06    -66.6417E+06     -7.1433E+06     254.722E+03    -15.3829E-03     30.6795E-03    -15.2966E-03     15.8724E-03    -15.3567E-03     30.3805E-03    -15.2124E-03     15.8731E-03
            1675     3.54569E-03     40.7697E-03    -17.8428E+06    -69.1486E+06    -10.7090E+06     201.321E+03    -15.3161E-03     30.5869E-03    -15.2708E-03     12.5226E-03    -15.2898E-03     30.2829E-03    -15.1982E-03     12.5232E-03
            1676     2.65931E-03     40.7594E-03    -19.5451E+06    -70.9766E+06    -14.7125E+06     158.523E+03    -15.2651E-03     30.5099E-03    -15.2449E-03     9.31053E-03    -15.2387E-03     30.2049E-03    -15.1872E-03     9.31116E-03
            1677     1.77287E-03     40.7521E-03    -20.9092E+06    -71.5671E+06    -18.5496E+06     108.596E+03    -15.2281E-03     30.4488E-03    -15.2207E-03     6.22006E-03    -15.2021E-03     30.1483E-03    -15.1794E-03     6.22054E-03
            1678     886.460E-06     40.7476E-03    -21.8146E+06    -72.9873E+06    -21.1321E+06     28.6374E+03    -15.2151E-03     30.4152E-03    -15.2001E-03     3.34607E-03    -15.1877E-03     30.1126E-03    -15.1683E-03     3.34595E-03
            1679     16.8373E-03     40.4845E-03    -3.10592E+06     137.423E+06     43.1637E+06     106.002E+03    -17.9320E-03     33.4089E-03    -15.4769E-03     122.310E-03    -19.2247E-03     35.0533E-03    -15.4559E-03     123.005E-03
            1680     15.9519E-03     40.3501E-03    -5.33295E+06     82.9254E+06    -8.87935E+06    -494.054E+03    -18.5982E-03     33.9011E-03    -15.3029E-03     121.844E-03    -19.5112E-03     35.1153E-03    -15.4598E-03     122.043E-03
            1681     15.0651E-03     40.2568E-03    -5.16291E+06     33.0225E+06    -3.52124E+06    -166.515E+03    -17.2894E-03     32.6832E-03    -15.3939E-03     84.4969E-03    -17.5566E-03     33.0596E-03    -15.4519E-03     84.4676E-03
            1682     14.1797E-03     40.1933E-03    -4.23598E+06     178.909E+03     143.129E+03     563.048E+03    -16.6532E-03     32.0972E-03    -15.4440E-03     62.7676E-03    -16.7477E-03     32.1768E-03    -15.4374E-03     62.7349E-03
            1683     13.2932E-03     40.1390E-03    -4.36186E+06    -26.7865E+06    -3.70254E+06     529.198E+03    -16.6407E-03     32.0827E-03    -15.4420E-03     57.6458E-03    -16.6623E-03     32.0045E-03    -15.4154E-03     57.6170E-03
            1684     12.4077E-03     40.0857E-03    -4.92754E+06    -33.4889E+06     1.67381E+06     139.497E+03    -16.4555E-03     31.9102E-03    -15.4547E-03     53.4935E-03    -16.4613E-03     31.7747E-03    -15.3906E-03     53.4673E-03
            1685     11.5215E-03     40.0390E-03    -5.71902E+06    -39.5213E+06     2.75318E+06     406.976E+03    -16.2909E-03     31.7363E-03    -15.4454E-03     47.5204E-03    -16.2827E-03     31.5595E-03    -15.3660E-03     47.5042E-03
            1686     10.6357E-03     39.9968E-03    -6.57647E+06    -49.3604E+06     1.25643E+06     287.666E+03    -16.1985E-03     31.6244E-03    -15.4259E-03     43.1427E-03    -16.1722E-03     31.3959E-03    -15.3385E-03     43.1301E-03
            1687     9.74954E-03     39.9581E-03    -7.56830E+06    -55.3783E+06     2.46052E+06     75.3914E+03    -16.0667E-03     31.4790E-03    -15.4123E-03     38.9995E-03    -16.0346E-03     31.2164E-03    -15.3087E-03     38.9881E-03
            1688     8.86357E-03     39.9235E-03    -8.40860E+06    -56.4886E+06     2.73434E+06     403.971E+03    -15.9306E-03     31.3166E-03    -15.3861E-03     34.8475E-03    -15.8991E-03     31.0468E-03    -15.2783E-03     34.8434E-03
            1689     7.97740E-03     39.8926E-03    -9.57380E+06    -59.4776E+06     1.56658E+06     410.886E+03    -15.7968E-03     31.1526E-03    -15.3559E-03     30.7518E-03    -15.7636E-03     30.8698E-03    -15.2479E-03     30.7500E-03
            1690     7.09127E-03     39.8656E-03    -11.0117E+06    -62.6707E+06     323.423E+03     357.594E+03    -15.6681E-03     30.9950E-03    -15.3269E-03     26.7401E-03    -15.6346E-03     30.6990E-03    -15.2184E-03     26.7392E-03
            1691     6.20501E-03     39.8421E-03    -12.5581E+06    -63.8998E+06    -1.61076E+06     365.562E+03    -15.5414E-03     30.8351E-03    -15.2937E-03     22.8993E-03    -15.5105E-03     30.5374E-03    -15.1909E-03     22.8997E-03
            1692     5.31873E-03     39.8223E-03    -14.1834E+06    -65.1202E+06    -3.93451E+06     291.313E+03    -15.4284E-03     30.6900E-03    -15.2616E-03     19.2359E-03    -15.4000E-03     30.3915E-03    -15.1663E-03     19.2363E-03
            1693     4.43235E-03     39.8057E-03    -15.9287E+06    -66.4953E+06    -6.97692E+06     285.782E+03    -15.3313E-03     30.5613E-03    -15.2300E-03     15.7460E-03    -15.3049E-03     30.2625E-03    -15.1454E-03     15.7471E-03
            1694     3.54596E-03     39.7924E-03    -17.7675E+06    -69.0455E+06    -10.5634E+06     221.075E+03    -15.2564E-03     30.4577E-03    -15.2012E-03     12.4173E-03    -15.2301E-03     30.1538E-03    -15.1282E-03     12.4183E-03
            1695     2.65949E-03     39.7821E-03    -19.4976E+06    -70.8272E+06    -14.5879E+06     150.209E+03    -15.1987E-03     30.3713E-03    -15.1726E-03     9.22929E-03    -15.1725E-03     30.0668E-03    -15.1146E-03     9.22983E-03
            1696     1.77302E-03     39.7748E-03    -20.8817E+06    -71.4441E+06    -18.4717E+06     40.3306E+03    -15.1558E-03     30.3024E-03    -15.1466E-03     6.16374E-03    -15.1299E-03     30.0023E-03    -15.1051E-03     6.16336E-03
            1697     886.499E-06     39.7704E-03    -21.7424E+06    -72.9401E+06    -21.1186E+06     13.7384E+03    -15.1279E-03     30.2656E-03    -15.1377E-03     3.31794E-03    -15.1002E-03     29.9631E-03    -15.1060E-03     3.31763E-03
            1698     16.8380E-03     39.5048E-03    -3.64823E+06     137.709E+06     43.4136E+06     326.750E+03    -17.9958E-03     33.4697E-03    -15.4739E-03     122.338E-03    -19.2920E-03     35.1158E-03    -15.4512E-03     123.036E-03
            1699     15.9512E-03     39.3731E-03    -4.51039E+06     84.0613E+06    -7.83857E+06     77.4479E+03    -18.5825E-03     33.8815E-03    -15.2990E-03     121.882E-03    -19.4943E-03     35.0984E-03    -15.4535E-03     122.092E-03
            1700     15.0656E-03     39.2775E-03    -4.99988E+06     31.7585E+06    -3.89577E+06    -231.442E+03    -17.5143E-03     32.8949E-03    -15.3806E-03     84.3409E-03    -17.7785E-03     33.2654E-03    -15.4389E-03     84.3093E-03
            1701     14.1796E-03     39.2154E-03    -5.57697E+06    -207.468E+03    -188.522E+03    -33.1535E+03    -16.7813E-03     32.2010E-03    -15.4196E-03     62.5082E-03    -16.8809E-03     32.2806E-03    -15.4122E-03     62.4675E-03
            1702     13.2941E-03     39.1607E-03    -5.09346E+06    -26.1672E+06    -3.74930E+06     172.578E+03    -16.5683E-03     31.9810E-03    -15.4126E-03     57.4681E-03    -16.5940E-03     31.9066E-03    -15.3861E-03     57.4350E-03
            1703     12.4078E-03     39.1076E-03    -5.07750E+06    -33.7237E+06     1.43870E+06     262.204E+03    -16.4555E-03     31.8801E-03    -15.4246E-03     53.2961E-03    -16.4612E-03     31.7439E-03    -15.3612E-03     53.2716E-03
            1704     11.5220E-03     39.0609E-03    -5.53704E+06    -39.7557E+06     2.88372E+06     391.032E+03    -16.3274E-03     31.7401E-03    -15.4127E-03     47.4316E-03    -16.3181E-03     31.5617E-03    -15.3326E-03     47.4152E-03
            1705     10.6360E-03     39.0187E-03    -6.31286E+06    -49.2125E+06     1.85131E+06     699.658E+03    -16.2319E-03     31.6209E-03    -15.3890E-03     42.9455E-03    -16.2053E-03     31.3918E-03    -15.2992E-03     42.9382E-03
            1706     9.75007E-03     38.9802E-03    -7.58746E+06    -54.8849E+06     2.49846E+06     431.386E+03    -16.0826E-03     31.4489E-03    -15.3663E-03     38.8184E-03    -16.0514E-03     31.1886E-03    -15.2632E-03     38.8117E-03
            1707     8.86396E-03     38.9456E-03    -8.86600E+06    -56.9226E+06     2.25705E+06     110.454E+03    -15.9339E-03     31.2674E-03    -15.3335E-03     34.6677E-03    -15.9033E-03     30.9967E-03    -15.2268E-03     34.6598E-03
            1708     7.97790E-03     38.9149E-03    -9.84350E+06    -59.3368E+06     1.62449E+06     439.583E+03    -15.7869E-03     31.0859E-03    -15.2990E-03     30.5562E-03    -15.7553E-03     30.8041E-03    -15.1906E-03     30.5548E-03
            1709     7.09169E-03     38.8879E-03    -11.1748E+06    -62.6065E+06     238.466E+03     416.945E+03    -15.6426E-03     30.9065E-03    -15.2639E-03     26.5543E-03    -15.6099E-03     30.6112E-03    -15.1557E-03     26.5543E-03
            1710     6.20545E-03     38.8647E-03    -12.6709E+06    -63.7732E+06    -1.54780E+06     340.766E+03    -15.5037E-03     30.7300E-03    -15.2264E-03     22.7228E-03    -15.4735E-03     30.4330E-03    -15.1233E-03     22.7230E-03
            1711     5.31909E-03     38.8448E-03    -14.2966E+06    -64.9748E+06    -3.99263E+06     268.864E+03    -15.3776E-03     30.5670E-03    -15.1894E-03     19.0762E-03    -15.3499E-03     30.2694E-03    -15.0944E-03     19.0764E-03
            1712     4.43271E-03     38.8284E-03    -16.0128E+06    -66.5148E+06    -7.03019E+06     254.638E+03    -15.2714E-03     30.4257E-03    -15.1543E-03     15.6053E-03    -15.2453E-03     30.1270E-03    -15.0698E-03     15.6060E-03
            1713     3.54622E-03     38.8152E-03    -17.8089E+06    -68.8468E+06    -10.6199E+06     299.608E+03    -15.1872E-03     30.3093E-03    -15.1221E-03     12.2998E-03    -15.1614E-03     30.0066E-03    -15.0495E-03     12.3018E-03
            1714     2.65972E-03     38.8050E-03    -19.5583E+06    -70.6099E+06    -14.6227E+06     104.443E+03    -15.1231E-03     30.2143E-03    -15.0911E-03     9.13932E-03    -15.0975E-03     29.9109E-03    -15.0335E-03     9.13929E-03
            1715     1.77315E-03     38.7978E-03    -20.9556E+06    -71.4040E+06    -18.5687E+06     20.3674E+03    -15.0757E-03     30.1389E-03    -15.0631E-03     6.10006E-03    -15.0501E-03     29.8392E-03    -15.0221E-03     6.09942E-03
            1716     886.596E-06     38.7934E-03    -21.9133E+06    -72.9079E+06    -21.2584E+06     19.5826E+03    -15.0394E-03     30.0966E-03    -15.0572E-03     3.27849E-03    -15.0124E-03     29.7947E-03    -15.0260E-03     3.27827E-03
            1717     16.8379E-03     38.5276E-03    -3.54426E+06     137.207E+06     42.6196E+06     184.880E+03    -18.1934E-03     33.6634E-03    -15.4700E-03     122.386E-03    -19.4883E-03     35.3092E-03    -15.4507E-03     123.074E-03
            1718     15.9517E-03     38.3944E-03    -5.48154E+06     84.3725E+06    -7.58397E+06     521.651E+03    -18.9267E-03     34.2124E-03    -15.2857E-03     121.868E-03    -19.8470E-03     35.4347E-03    -15.4380E-03     122.076E-03
            1719     15.0659E-03     38.2990E-03    -5.98677E+06     32.7620E+06    -2.55362E+06     376.541E+03    -17.5352E-03     32.8948E-03    -15.3596E-03     83.9240E-03    -17.8060E-03     33.2681E-03    -15.4112E-03     83.8991E-03
            1720     14.1804E-03     38.2369E-03    -5.73113E+06    -110.332E+03    -755.734E+03    -348.219E+03    -16.6962E-03     32.0848E-03    -15.3887E-03     62.3676E-03    -16.7951E-03     32.1652E-03    -15.3840E-03     62.3233E-03
            1721     13.2942E-03     38.1827E-03    -5.61879E+06    -26.8700E+06    -4.73147E+06    -424.968E+03    -16.6320E-03     32.0118E-03    -15.3798E-03     57.4378E-03    -16.6579E-03     31.9360E-03    -15.3563E-03     57.3969E-03
            1722     12.4085E-03     38.1295E-03    -5.64033E+06    -33.8143E+06     1.11738E+06     206.663E+03    -16.4757E-03     31.8647E-03    -15.3890E-03     53.2599E-03    -16.4834E-03     31.7291E-03    -15.3262E-03     53.2348E-03
            1723     11.5223E-03     38.0828E-03    -6.27902E+06    -39.8022E+06     2.20421E+06     332.884E+03    -16.3619E-03     31.7323E-03    -15.3703E-03     47.3122E-03    -16.3552E-03     31.5555E-03    -15.2925E-03     47.2951E-03
            1724     10.6366E-03     38.0406E-03    -6.83297E+06    -49.7441E+06     1.44899E+06     595.205E+03    -16.2579E-03     31.6000E-03    -15.3420E-03     42.7365E-03    -16.2325E-03     31.3694E-03    -15.2527E-03     42.7279E-03
            1725     9.75052E-03     38.0024E-03    -7.44719E+06    -54.1206E+06     2.93423E+06     819.259E+03    -16.0990E-03     31.4130E-03    -15.3140E-03     38.6040E-03    -16.0687E-03     31.1556E-03    -15.2101E-03     38.6024E-03
            1726     8.86453E-03     37.9678E-03    -8.77417E+06    -56.7346E+06     2.26993E+06     350.938E+03    -15.9332E-03     31.2067E-03    -15.2735E-03     34.4520E-03    -15.9024E-03     30.9368E-03    -15.1672E-03     34.4473E-03
            1727     7.97840E-03     37.9372E-03    -10.2621E+06    -59.7039E+06     1.36080E+06     260.158E+03    -15.7678E-03     31.0011E-03    -15.2333E-03     30.3388E-03    -15.7373E-03     30.7183E-03    -15.1250E-03     30.3352E-03
            1728     7.09221E-03     37.9104E-03    -11.5108E+06    -62.2712E+06     95.3457E+03     416.809E+03    -15.6089E-03     30.8010E-03    -15.1921E-03     26.3473E-03    -15.5782E-03     30.5081E-03    -15.0846E-03     26.3474E-03
            1729     6.20590E-03     37.8873E-03    -13.0041E+06    -63.7565E+06    -1.78031E+06     272.214E+03    -15.4574E-03     30.6070E-03    -15.1496E-03     22.5268E-03    -15.4286E-03     30.3109E-03    -15.0472E-03     22.5262E-03
            1730     5.31954E-03     37.8676E-03    -14.6440E+06    -64.7993E+06    -4.21016E+06     258.107E+03    -15.3192E-03     30.4271E-03    -15.1079E-03     18.8975E-03    -15.2932E-03     30.1313E-03    -15.0138E-03     18.8976E-03
            1731     4.43306E-03     37.8513E-03    -16.5065E+06    -66.6199E+06    -7.43151E+06     300.850E+03    -15.2018E-03     30.2704E-03    -15.0686E-03     15.4474E-03    -15.1775E-03     29.9725E-03    -14.9852E-03     15.4488E-03
            1732     3.54655E-03     37.8382E-03    -18.3507E+06    -68.5855E+06    -11.1435E+06     274.573E+03    -15.1076E-03     30.1396E-03    -15.0321E-03     12.1695E-03    -15.0840E-03     29.8398E-03    -14.9617E-03     12.1712E-03
            1733     2.65994E-03     37.8280E-03    -19.9955E+06    -70.3396E+06    -15.1829E+06     81.3504E+03    -15.0353E-03     30.0339E-03    -14.9987E-03     9.03871E-03    -15.0114E-03     29.7334E-03    -14.9436E-03     9.03841E-03
            1734     1.77333E-03     37.8209E-03    -21.3878E+06    -71.4727E+06    -18.9510E+06    -7.79654E+03    -14.9856E-03     29.9561E-03    -14.9705E-03     6.03320E-03    -14.9615E-03     29.6573E-03    -14.9306E-03     6.03222E-03
            1735     886.665E-06     37.8165E-03    -22.2734E+06    -72.8352E+06    -21.6516E+06     47.6249E+03    -14.9539E-03     29.9092E-03    -14.9553E-03     3.23855E-03    -14.9283E-03     29.6088E-03    -14.9257E-03     3.23870E-03
            1736     16.8372E-03     37.5495E-03    -3.80166E+06     136.631E+06     41.9581E+06     471.399E+03    -18.5326E-03     33.9948E-03    -15.4622E-03     122.560E-03    -19.8257E-03     35.6378E-03    -15.4450E-03     123.240E-03
            1737     15.9522E-03     37.4146E-03    -4.45118E+06     84.0226E+06    -6.95503E+06     860.306E+03    -19.2323E-03     34.4965E-03    -15.2642E-03     121.505E-03    -20.1431E-03     35.7100E-03    -15.4144E-03     121.702E-03
            1738     15.0670E-03     37.3214E-03    -3.90019E+06     33.6419E+06    -1.21060E+06     375.705E+03    -17.4223E-03     32.7536E-03    -15.3313E-03     83.7210E-03    -17.6847E-03     33.1250E-03    -15.3804E-03     83.6969E-03
            1739     14.1802E-03     37.2585E-03    -4.61903E+06     561.380E+03    -234.232E+03    -270.498E+03    -16.6511E-03     32.0119E-03    -15.3609E-03     62.4096E-03    -16.7460E-03     32.0932E-03    -15.3561E-03     62.3665E-03
            1740     13.2948E-03     37.2044E-03    -5.58313E+06    -27.3890E+06    -4.49488E+06    -132.665E+03    -16.6669E-03     32.0192E-03    -15.3523E-03     57.2510E-03    -16.6919E-03     31.9402E-03    -15.3269E-03     57.2139E-03
            1741     12.4087E-03     37.1515E-03    -6.47973E+06    -34.1938E+06     748.250E+03     171.562E+03    -16.5917E-03     31.9433E-03    -15.3516E-03     53.1972E-03    -16.6026E-03     31.8076E-03    -15.2889E-03     53.1714E-03
            1742     11.5230E-03     37.1046E-03    -6.98405E+06    -39.6873E+06     1.97497E+06     243.857E+03    -16.4129E-03     31.7359E-03    -15.3230E-03     47.1397E-03    -16.4094E-03     31.5610E-03    -15.2455E-03     47.1215E-03
            1743     10.6370E-03     37.0627E-03    -7.44950E+06    -50.0961E+06     807.332E+03     221.564E+03    -16.2727E-03     31.5587E-03    -15.2860E-03     42.5347E-03    -16.2488E-03     31.3282E-03    -15.1985E-03     42.5214E-03
            1744     9.75116E-03     37.0244E-03    -7.95519E+06    -54.2729E+06     2.74591E+06     522.232E+03    -16.1111E-03     31.3642E-03    -15.2531E-03     38.3724E-03    -16.0828E-03     31.1070E-03    -15.1491E-03     38.3669E-03
            1745     8.86512E-03     36.9902E-03    -8.78974E+06    -56.1773E+06     2.51083E+06     742.567E+03    -15.9231E-03     31.1293E-03    -15.2062E-03     34.2105E-03    -15.8935E-03     30.8618E-03    -15.0994E-03     34.2109E-03
            1746     7.97900E-03     36.9597E-03    -10.2263E+06    -59.7053E+06     1.29957E+06     422.227E+03    -15.7450E-03     30.9039E-03    -15.1590E-03     30.1024E-03    -15.7142E-03     30.6211E-03    -15.0511E-03     30.1010E-03
            1747     7.09277E-03     36.9330E-03    -11.7747E+06    -62.2009E+06    -129.458E+03     310.160E+03    -15.5694E-03     30.6809E-03    -15.1115E-03     26.1146E-03    -15.5397E-03     30.3890E-03    -15.0049E-03     26.1134E-03
            1748     6.20645E-03     36.9100E-03    -13.2466E+06    -63.5326E+06    -2.07963E+06     268.790E+03    -15.4037E-03     30.4668E-03    -15.0631E-03     22.3109E-03    -15.3760E-03     30.1726E-03    -14.9622E-03     22.3103E-03
            1749     5.32000E-03     36.8905E-03    -14.9984E+06    -64.9604E+06    -4.46225E+06     305.893E+03    -15.2544E-03     30.2719E-03    -15.0175E-03     18.6944E-03    -15.2295E-03     29.9761E-03    -14.9239E-03     18.6952E-03
            1750     4.43350E-03     36.8743E-03    -16.8587E+06    -66.4712E+06    -7.65560E+06     404.010E+03    -15.1244E-03     30.0980E-03    -14.9736E-03     15.2707E-03    -15.1017E-03     29.8016E-03    -14.8910E-03     15.2735E-03
            1751     3.54688E-03     36.8613E-03    -18.7185E+06    -68.3585E+06    -11.5513E+06     241.043E+03    -15.0189E-03     29.9516E-03    -14.9326E-03     12.0225E-03    -14.9969E-03     29.6539E-03    -14.8641E-03     12.0238E-03
            1752     2.66023E-03     36.8513E-03    -20.4146E+06    -70.0588E+06    -15.6697E+06     56.3311E+03    -14.9388E-03     29.8352E-03    -14.8964E-03     8.92597E-03    -14.9167E-03     29.5374E-03    -14.8436E-03     8.92537E-03
            1753     1.77349E-03     36.8442E-03    -21.7877E+06    -71.5713E+06    -19.3747E+06    -43.2420E+03    -14.8843E-03     29.7521E-03    -14.8678E-03     5.95535E-03    -14.8614E-03     29.4540E-03    -14.8293E-03     5.95392E-03
            1754     886.763E-06     36.8399E-03    -22.6996E+06    -72.7992E+06    -21.9698E+06    -8.70423E+03    -14.8569E-03     29.7029E-03    -14.8461E-03     3.19681E-03    -14.8330E-03     29.4037E-03    -14.8174E-03     3.19624E-03
            1755     16.8383E-03     36.5689E-03    -3.27703E+06     136.386E+06     41.8264E+06     613.195E+03    -18.7949E-03     34.2323E-03    -15.4374E-03     122.649E-03    -20.0830E-03     35.8716E-03    -15.4213E-03     123.327E-03
            1756     15.9530E-03     36.4366E-03    -4.01646E+06     84.0892E+06    -6.80333E+06     503.152E+03    -19.0242E-03     34.2612E-03    -15.2371E-03     120.874E-03    -19.9224E-03     35.4635E-03    -15.3872E-03     121.068E-03
            1757     15.0663E-03     36.3429E-03    -4.09304E+06     33.9587E+06    -890.101E+03     147.014E+03    -17.4210E-03     32.7296E-03    -15.3087E-03     83.5600E-03    -17.6850E-03     33.1023E-03    -15.3564E-03     83.5332E-03
            1758     14.1814E-03     36.2803E-03    -4.48604E+06     479.957E+03     442.693E+03     275.232E+03    -16.7135E-03     32.0498E-03    -15.3363E-03     62.3557E-03    -16.8088E-03     32.1297E-03    -15.3283E-03     62.3194E-03
            1759     13.2949E-03     36.2265E-03    -5.21169E+06    -27.3063E+06    -3.80695E+06     396.207E+03    -16.7300E-03     32.0511E-03    -15.3212E-03     57.2627E-03    -16.7542E-03     31.9710E-03    -15.2930E-03     57.2323E-03
            1760     12.4094E-03     36.1730E-03    -5.68628E+06    -34.1709E+06     1.11725E+06     286.224E+03    -16.6984E-03     32.0082E-03    -15.3098E-03     53.0195E-03    -16.7058E-03     31.8709E-03    -15.2464E-03     52.9950E-03
            1761     11.5235E-03     36.1268E-03    -6.45241E+06    -39.6117E+06     2.17899E+06     238.837E+03    -16.4749E-03     31.7457E-03    -15.2708E-03     46.9173E-03    -16.4690E-03     31.5700E-03    -15.1932E-03     46.8991E-03
            1762     10.6378E-03     36.0846E-03    -7.22452E+06    -50.0873E+06     697.098E+03     210.022E+03    -16.3022E-03     31.5266E-03    -15.2244E-03     42.3401E-03    -16.2769E-03     31.2958E-03    -15.1378E-03     42.3267E-03
            1763     9.75182E-03     36.0467E-03    -8.14800E+06    -54.7494E+06     2.35176E+06      348.46E+03    -16.1147E-03     31.2987E-03    -15.1841E-03     38.1360E-03    -16.0860E-03     31.0399E-03    -15.0811E-03     38.1284E-03
            1764     8.86578E-03     36.0125E-03    -9.15645E+06    -56.1310E+06     2.23299E+06     613.599E+03    -15.9162E-03     31.0463E-03    -15.1301E-03     33.9612E-03    -15.8880E-03     30.7799E-03    -15.0243E-03     33.9601E-03
            1765     7.97967E-03     35.9822E-03    -10.2190E+06    -59.3114E+06     1.33272E+06     661.317E+03    -15.7194E-03     30.7957E-03    -15.0763E-03     29.8326E-03    -15.6892E-03     30.5147E-03    -14.9688E-03     29.8344E-03
            1766     7.09340E-03     35.9557E-03    -11.6799E+06    -62.0558E+06    -186.704E+03     384.422E+03    -15.5270E-03     30.5491E-03    -15.0221E-03     25.8571E-03    -15.4970E-03     30.2578E-03    -14.9161E-03     25.8569E-03
            1767     6.20703E-03     35.9329E-03    -13.3839E+06    -63.5102E+06    -2.19841E+06     353.802E+03    -15.3459E-03     30.3138E-03    -14.9679E-03     22.0621E-03    -15.3187E-03     30.0200E-03    -14.8674E-03     22.0627E-03
            1768     5.32055E-03     35.9136E-03    -15.1656E+06    -64.9589E+06    -4.58080E+06     409.009E+03    -15.1815E-03     30.0985E-03    -14.9170E-03     18.4667E-03    -15.1573E-03     29.8031E-03    -14.8237E-03     18.4689E-03
            1769     4.43394E-03     35.8975E-03    -16.9745E+06    -66.3632E+06    -7.68841E+06     357.656E+03    -15.0389E-03     29.9074E-03    -14.8685E-03     15.0697E-03    -15.0169E-03     29.6119E-03    -14.7861E-03     15.0719E-03
            1770     3.54728E-03     35.8846E-03    -18.7482E+06    -68.0263E+06    -11.5725E+06     277.627E+03    -14.9224E-03     29.7456E-03    -14.8233E-03     11.8550E-03    -14.9010E-03     29.4498E-03    -14.7553E-03     11.8568E-03
            1771     2.66051E-03     35.8747E-03    -20.4714E+06    -69.8736E+06    -15.7578E+06     72.1443E+03    -14.8341E-03     29.6180E-03    -14.7839E-03     8.79497E-03    -14.8124E-03     29.3213E-03    -14.7317E-03     8.79460E-03
            1772     1.77372E-03     35.8677E-03    -21.8994E+06    -71.5499E+06    -19.5409E+06    -32.3025E+03    -14.7732E-03     29.5261E-03    -14.7528E-03     5.86722E-03    -14.7507E-03     29.2285E-03    -14.7150E-03     5.86595E-03
            1773     886.858E-06     35.8634E-03    -22.8206E+06    -72.8920E+06    -22.1822E+06    -91.7605E+03    -14.7356E-03     29.4715E-03    -14.7360E-03     3.15349E-03    -14.7118E-03     29.1724E-03    -14.7081E-03     3.15186E-03
            1774     16.8392E-03     35.5904E-03    -3.81318E+06     136.124E+06     42.3450E+06     134.139E+03    -18.8571E-03     34.2741E-03    -15.4170E-03     122.288E-03    -20.1457E-03     35.9097E-03    -15.3972E-03     122.956E-03
            1775     15.9526E-03     35.4582E-03    -4.03990E+06     84.2847E+06    -6.58410E+06     203.851E+03    -18.7456E-03     33.9637E-03    -15.2181E-03     120.963E-03    -19.6450E-03     35.1671E-03    -15.3674E-03     121.162E-03
            1776     15.0678E-03     35.3643E-03    -4.06146E+06     34.0488E+06    -1.54821E+06     354.704E+03    -17.4909E-03     32.7813E-03    -15.2904E-03     83.7759E-03    -17.7534E-03     33.1548E-03    -15.3416E-03     83.7511E-03
            1777     14.1808E-03     35.3025E-03    -4.32670E+06     137.709E+03     22.2297E+03     556.109E+03    -16.9086E-03     32.2195E-03    -15.3109E-03     62.4068E-03    -17.0024E-03     32.2983E-03    -15.3047E-03     62.3734E-03
            1778     13.2957E-03     35.2478E-03    -4.56553E+06    -27.1385E+06    -3.87085E+06     721.623E+03    -16.8957E-03     32.1784E-03    -15.2826E-03     57.2229E-03    -16.9168E-03     32.0981E-03    -15.2560E-03     57.1963E-03
            1779     12.4099E-03     35.1949E-03    -5.21567E+06    -33.9808E+06     1.24389E+06     584.492E+03    -16.7548E-03     32.0168E-03    -15.2620E-03     52.8715E-03    -16.7601E-03     31.8794E-03    -15.1990E-03     52.8509E-03
            1780     11.5242E-03     35.1485E-03    -6.01892E+06    -39.5239E+06     2.26011E+06     503.151E+03    -16.5374E-03     31.7520E-03    -15.2146E-03     46.6839E-03    -16.5294E-03     31.5758E-03    -15.1372E-03     46.6691E-03
            1781     10.6385E-03     35.1068E-03    -6.92454E+06    -49.9279E+06     728.131E+03     468.019E+03    -16.3417E-03     31.5005E-03    -15.1588E-03     42.1023E-03    -16.3151E-03     31.2699E-03    -15.0727E-03     42.0923E-03
            1782     9.75251E-03     35.0689E-03    -7.85760E+06    -54.9555E+06     2.23818E+06     456.374E+03    -16.1388E-03     31.2479E-03    -15.1091E-03     37.8859E-03    -16.1081E-03     30.9877E-03    -15.0069E-03     37.8799E-03
            1783     8.86655E-03     35.0349E-03    -8.94683E+06    -56.2440E+06     2.20161E+06     592.470E+03    -15.9167E-03     30.9633E-03    -15.0466E-03     33.6543E-03    -15.8872E-03     30.6960E-03    -14.9410E-03     33.6530E-03
            1784     7.98037E-03     35.0049E-03    -10.1914E+06    -59.0569E+06     1.24728E+06     580.941E+03    -15.6920E-03     30.6760E-03    -14.9840E-03     29.5351E-03    -15.6618E-03     30.3963E-03    -14.8774E-03     29.5359E-03
            1785     7.09411E-03     34.9786E-03    -11.5323E+06    -61.8828E+06     26.2886E+03     584.677E+03    -15.4840E-03     30.4077E-03    -14.9237E-03     25.5571E-03    -15.4537E-03     30.1167E-03    -14.8171E-03     25.5596E-03
            1786     6.20769E-03     34.9560E-03    -13.2295E+06    -63.4733E+06    -2.02009E+06     565.371E+03    -15.2830E-03     30.1455E-03    -14.8625E-03     21.7783E-03    -15.2553E-03     29.8514E-03    -14.7614E-03     21.7817E-03
            1787     5.32114E-03     34.9368E-03    -15.0369E+06    -64.7530E+06    -4.45131E+06     446.222E+03    -15.1015E-03     29.9065E-03    -14.8050E-03     18.2086E-03    -15.0771E-03     29.6118E-03    -14.7116E-03     18.2113E-03
            1788     4.43448E-03     34.9209E-03    -16.8917E+06    -66.2664E+06    -7.62544E+06     371.330E+03    -14.9440E-03     29.6952E-03    -14.7512E-03     14.8416E-03    -14.9218E-03     29.3999E-03    -14.6687E-03     14.8440E-03
            1789     3.54770E-03     34.9081E-03    -18.7750E+06    -67.7530E+06    -11.5817E+06     272.774E+03    -14.8150E-03     29.5161E-03    -14.7011E-03     11.6666E-03    -14.7942E-03     29.2216E-03    -14.6335E-03     11.6683E-03
            1790     2.66086E-03     34.8984E-03    -20.4542E+06    -69.6483E+06    -15.7866E+06     124.798E+03    -14.7170E-03     29.3750E-03    -14.6580E-03     8.64893E-03    -14.6955E-03     29.0795E-03    -14.6063E-03     8.64927E-03
            1791     1.77393E-03     34.8914E-03    -21.8113E+06    -71.4962E+06    -19.5379E+06    -20.2530E+03    -14.6485E-03     29.2736E-03    -14.6250E-03     5.77062E-03    -14.6257E-03     28.9761E-03    -14.5874E-03     5.76953E-03
            1792     886.981E-06     34.8872E-03    -22.7040E+06    -72.9885E+06    -22.1391E+06    -32.4918E+03    -14.6040E-03     29.2156E-03    -14.6116E-03     3.10025E-03    -14.5796E-03     28.9157E-03    -14.5836E-03     3.09939E-03
            1793     16.8390E-03     34.6124E-03    -3.68264E+06     136.209E+06     42.1357E+06    -211.216E+03    -18.8115E-03     34.2392E-03    -15.4277E-03     122.503E-03    -20.1029E-03     35.8788E-03    -15.4092E-03     123.166E-03
            1794     15.9534E-03     34.4797E-03    -4.62564E+06     83.5315E+06    -7.34463E+06    -116.374E+03    -19.0230E-03     34.2458E-03    -15.2228E-03     121.255E-03    -19.9281E-03     35.4523E-03    -15.3740E-03     121.446E-03
            1795     15.0662E-03     34.3862E-03    -4.39495E+06     33.4172E+06    -1.89117E+06     581.424E+03    -17.6769E-03     32.9611E-03    -15.2842E-03     83.9666E-03    -17.9395E-03     33.3323E-03    -15.3358E-03     83.9439E-03
            1796     14.1819E-03     34.3234E-03    -4.97539E+06     423.462E+03    -301.869E+03     797.008E+03    -17.1830E-03     32.4722E-03    -15.2892E-03     62.2947E-03    -17.2801E-03     32.5540E-03    -15.2841E-03     62.2634E-03
            1797     13.2961E-03     34.2697E-03    -5.43016E+06    -27.1629E+06    -4.48307E+06     756.785E+03    -17.0708E-03     32.3143E-03    -15.2435E-03     57.0831E-03    -17.0953E-03     32.2361E-03    -15.2187E-03     57.0565E-03
            1798     12.4105E-03     34.2165E-03    -5.46473E+06    -33.8476E+06     1.10139E+06     839.276E+03    -16.8560E-03     32.0672E-03    -15.2112E-03     52.6834E-03    -16.8624E-03     31.9308E-03    -15.1487E-03     52.6660E-03
            1799     11.5249E-03     34.1704E-03    -6.13567E+06    -39.4190E+06     2.14219E+06     753.606E+03    -16.5908E-03     31.7442E-03    -15.1534E-03     46.3884E-03    -16.5832E-03     31.5687E-03    -15.0767E-03     46.3769E-03
            1800     10.6391E-03     34.1289E-03    -6.85224E+06    -49.8314E+06     745.685E+03     626.003E+03    -16.4042E-03     31.4918E-03    -15.0876E-03     41.7993E-03    -16.3772E-03     31.2614E-03    -15.0017E-03     41.7915E-03
            1801     9.75337E-03     34.0912E-03    -7.77869E+06    -54.8265E+06     2.20317E+06      595.31E+03    -16.1730E-03     31.1992E-03    -15.0262E-03     37.5374E-03    -16.1419E-03     30.9395E-03    -14.9244E-03     37.5332E-03
            1802     8.86734E-03     34.0575E-03    -8.84254E+06    -56.3394E+06     2.14741E+06     586.396E+03    -15.9107E-03     30.8643E-03    -14.9536E-03     33.3045E-03    -15.8804E-03     30.5964E-03    -14.8484E-03     33.3033E-03
            1803     7.98121E-03     34.0276E-03    -10.0182E+06    -58.8568E+06     1.36374E+06     642.727E+03    -15.6684E-03     30.5505E-03    -14.8822E-03     29.1912E-03    -15.6377E-03     30.2714E-03    -14.7755E-03     29.1928E-03
            1804     7.09488E-03     34.0016E-03    -11.5189E+06    -61.9267E+06     72.0391E+03     668.766E+03    -15.4352E-03     30.2486E-03    -14.8133E-03     25.2193E-03    -15.4048E-03     29.9572E-03    -14.7065E-03     25.2229E-03
            1805     6.20842E-03     33.9792E-03    -13.0596E+06    -63.2163E+06    -1.79673E+06     689.632E+03    -15.2143E-03     29.9587E-03    -14.7444E-03     21.4580E-03    -15.1864E-03     29.6653E-03    -14.6428E-03     21.4630E-03
            1806     5.32181E-03     33.9602E-03    -14.8198E+06    -64.5338E+06    -4.31514E+06     557.578E+03    -15.0124E-03     29.6919E-03    -14.6795E-03     17.9154E-03    -14.9874E-03     29.3977E-03    -14.5860E-03     17.9196E-03
            1807     4.43505E-03     33.9445E-03    -16.7487E+06    -66.1070E+06    -7.53361E+06     465.074E+03    -14.8386E-03     29.4582E-03    -14.6196E-03     14.5845E-03    -14.8160E-03     29.1633E-03    -14.5371E-03     14.5882E-03
            1808     3.54820E-03     33.9319E-03    -18.6362E+06    -67.4640E+06    -11.5244E+06     329.360E+03    -14.6947E-03     29.2589E-03    -14.5642E-03     11.4532E-03    -14.6736E-03     28.9655E-03    -14.4970E-03     11.4557E-03
            1809     2.66122E-03     33.9223E-03    -20.3345E+06    -69.4183E+06    -15.7571E+06     121.693E+03    -14.5857E-03     29.1031E-03    -14.5173E-03     8.48431E-03    -14.5640E-03     28.8085E-03    -14.4660E-03     8.48463E-03
            1810     1.77419E-03     33.9154E-03    -21.6805E+06    -71.4480E+06    -19.4942E+06     39.9076E+03    -14.5100E-03     28.9920E-03    -14.4820E-03     5.65637E-03    -14.4866E-03     28.6945E-03    -14.4444E-03     5.65607E-03
            1811     887.094E-06     33.9112E-03    -22.5991E+06    -73.0022E+06    -21.9926E+06     25.4740E+03    -14.4645E-03     28.9282E-03    -14.4637E-03     3.04536E-03    -14.4398E-03     28.6279E-03    -14.4351E-03     3.04526E-03
            1812     16.8367E-03     33.6307E-03    -3.06018E+06     136.042E+06     41.6091E+06     45.8159E+03    -18.6741E-03     34.1105E-03    -15.4364E-03     121.764E-03    -19.9535E-03     35.7414E-03    -15.4212E-03     122.426E-03
            1813     15.9523E-03     33.5019E-03    -5.56773E+06     82.1729E+06    -8.33147E+06    -30.5281E+03    -19.3370E-03     34.5620E-03    -15.2250E-03     120.049E-03    -20.2345E-03     35.7556E-03    -15.3778E-03     120.232E-03
            1814     15.0679E-03     33.4071E-03    -5.74677E+06     33.3081E+06    -1.86393E+06     437.889E+03    -17.9876E-03     33.2569E-03    -15.2693E-03     83.6698E-03    -18.2579E-03     33.6305E-03    -15.3186E-03     83.6429E-03
            1815     14.1816E-03     33.3449E-03    -5.42597E+06     716.663E+03    -354.046E+03     737.112E+03    -17.2840E-03     32.5412E-03    -15.2571E-03     61.8275E-03    -17.3829E-03     32.6244E-03    -15.2521E-03     61.7951E-03
            1816     13.2965E-03     33.2910E-03    -5.42848E+06    -27.2132E+06    -4.41198E+06     765.009E+03    -17.2150E-03     32.4156E-03    -15.2007E-03     56.7188E-03    -17.2393E-03     32.3369E-03    -15.1754E-03     56.6920E-03
            1817     12.4114E-03     33.2381E-03    -5.80307E+06    -33.8433E+06     999.633E+03     777.584E+03    -16.9801E-03     32.1345E-03    -15.1544E-03     52.2706E-03    -16.9878E-03     31.9985E-03    -15.0919E-03     52.2523E-03
            1818     11.5256E-03     33.1924E-03    -6.22994E+06    -39.1560E+06     2.17682E+06     791.973E+03    -16.6650E-03     31.7488E-03    -15.0838E-03     46.0334E-03    -16.6581E-03     31.5744E-03    -15.0071E-03     46.0225E-03
            1819     10.6401E-03     33.1509E-03    -6.93049E+06    -49.7788E+06     693.971E+03     734.621E+03    -16.4600E-03     31.4658E-03    -15.0059E-03     41.4080E-03    -16.4332E-03     31.2358E-03    -14.9202E-03     41.4017E-03
            1820     9.75425E-03     33.1136E-03    -7.76536E+06    -54.6913E+06     2.21601E+06     711.580E+03    -16.1871E-03     31.1204E-03    -14.9333E-03     37.1281E-03    -16.1561E-03     30.8612E-03    -14.8316E-03     37.1255E-03
            1821     8.86827E-03     33.0801E-03    -8.87199E+06    -56.2534E+06     2.03005E+06     643.483E+03    -15.9065E-03     30.7561E-03    -14.8497E-03     32.9187E-03    -15.8762E-03     30.4888E-03    -14.7451E-03     32.9183E-03
            1822     7.98210E-03     33.0505E-03    -10.1388E+06    -58.9030E+06     1.26219E+06     693.518E+03    -15.6404E-03     30.4086E-03    -14.7682E-03     28.7980E-03    -15.6100E-03     30.1295E-03    -14.6618E-03     28.8005E-03
            1823     7.09577E-03     33.0247E-03    -11.4830E+06    -61.7837E+06     34.2571E+03     759.922E+03    -15.3834E-03     30.0727E-03    -14.6893E-03     24.8397E-03    -15.3529E-03     29.7820E-03    -14.5829E-03     24.8446E-03
            1824     6.20925E-03     33.0026E-03    -13.0855E+06    -63.0924E+06    -1.89077E+06     702.255E+03    -15.1370E-03     29.7482E-03    -14.6112E-03     21.0974E-03    -15.1093E-03     29.4555E-03    -14.5102E-03     21.1027E-03
            1825     5.32256E-03     32.9839E-03    -14.8123E+06    -64.2692E+06    -4.28947E+06     696.329E+03    -14.9133E-03     29.4519E-03    -14.5386E-03     17.5856E-03    -14.8886E-03     29.1589E-03    -14.4454E-03     17.5917E-03
            1826     4.43572E-03     32.9684E-03    -16.6918E+06    -65.8870E+06    -7.52248E+06     568.101E+03    -14.7201E-03     29.1919E-03    -14.4718E-03     14.2958E-03    -14.6976E-03     28.8980E-03    -14.3896E-03     14.3009E-03
            1827     3.54873E-03     32.9560E-03    -18.5343E+06     -67.083E+06    -11.5408E+06     365.732E+03    -14.5595E-03     28.9699E-03    -14.4104E-03     11.2138E-03    -14.5385E-03     28.6784E-03    -14.3439E-03     11.2168E-03
            1828     2.66165E-03     32.9465E-03    -20.1855E+06    -69.2264E+06    -15.7432E+06     179.027E+03    -14.4385E-03     28.7982E-03    -14.3598E-03     8.30131E-03    -14.4163E-03     28.5043E-03    -14.3088E-03     8.30240E-03
            1829     1.77446E-03     32.9397E-03    -21.5462E+06    -71.3816E+06    -19.3633E+06     111.050E+03    -14.3562E-03     28.6780E-03    -14.3218E-03     5.53320E-03    -14.3324E-03     28.3805E-03    -14.2839E-03     5.53384E-03
            1830     887.260E-06     32.9356E-03    -22.4210E+06    -72.9057E+06    -21.8633E+06     68.2720E+03    -14.3036E-03     28.6044E-03    -14.3008E-03     2.98430E-03    -14.2783E-03     28.3042E-03    -14.2719E-03     2.98476E-03
            1831     16.8401E-03     32.6532E-03    -2.80983E+06     135.651E+06     41.0785E+06     350.368E+03    -18.8305E-03     34.2424E-03    -15.4120E-03     121.486E-03    -20.0960E-03     35.8604E-03    -15.3992E-03     122.144E-03
            1832     15.9532E-03     32.5224E-03    -4.58110E+06     82.5554E+06    -8.53425E+06     567.388E+03    -19.3163E-03     34.5114E-03    -15.1951E-03     119.808E-03    -20.2003E-03     35.6969E-03    -15.3509E-03     119.997E-03
            1833     15.0675E-03     32.4281E-03    -5.10516E+06     33.3502E+06    -1.93037E+06     464.227E+03    -18.1760E-03     33.4100E-03    -15.2340E-03     83.2867E-03    -18.4430E-03     33.7828E-03    -15.2846E-03     83.2585E-03
            1834     14.1830E-03     32.3664E-03    -5.46353E+06      249.86E+03    -540.538E+03     591.472E+03    -17.4012E-03     32.6119E-03    -15.2108E-03     61.6010E-03    -17.4986E-03     32.6924E-03    -15.2059E-03     61.5664E-03
            1835     13.2975E-03     32.3121E-03    -5.35350E+06    -27.1074E+06    -4.20547E+06     771.632E+03    -17.3148E-03     32.4592E-03    -15.1444E-03     56.3387E-03    -17.3389E-03     32.3802E-03    -15.1183E-03     56.3119E-03
            1836     12.4120E-03     32.2600E-03    -5.60763E+06    -33.7734E+06     1.09088E+06     809.613E+03    -17.0621E-03     32.1481E-03    -15.0860E-03     51.7850E-03    -17.0686E-03     32.0117E-03    -15.0235E-03     51.7672E-03
            1837     11.5267E-03     32.2141E-03    -6.19799E+06    -39.0295E+06     2.26802E+06     750.094E+03    -16.7484E-03     31.7515E-03    -15.0031E-03     45.6356E-03    -16.7414E-03     31.5774E-03    -14.9262E-03     45.6242E-03
            1838     10.6410E-03     32.1731E-03    -6.82867E+06    -49.6771E+06     742.782E+03     815.503E+03    -16.4848E-03     31.3978E-03    -14.9130E-03     40.9896E-03    -16.4576E-03     31.1678E-03    -14.8273E-03     40.9845E-03
            1839     9.75525E-03     32.1359E-03    -7.64528E+06    -54.6379E+06     2.25668E+06     812.172E+03    -16.2006E-03     31.0301E-03    -14.8295E-03     36.6927E-03    -16.1690E-03     30.7708E-03    -14.7279E-03     36.6916E-03
            1840     8.86930E-03     32.1029E-03    -8.74613E+06    -56.1120E+06     2.01662E+06     832.236E+03    -15.9039E-03     30.6376E-03    -14.7338E-03     32.4677E-03    -15.8730E-03     30.3707E-03    -14.6297E-03     32.4699E-03
            1841     7.98311E-03     32.0735E-03    -10.0607E+06    -58.8645E+06     1.05855E+06     792.391E+03    -15.6092E-03     30.2491E-03    -14.6400E-03     28.3541E-03    -15.5781E-03     29.9703E-03    -14.5347E-03     28.3579E-03
            1842     7.09675E-03     32.0481E-03    -11.5309E+06    -61.7056E+06    -135.460E+03     814.638E+03    -15.3254E-03     29.8757E-03    -14.5503E-03     24.4050E-03    -15.2949E-03     29.5857E-03    -14.4448E-03     24.4107E-03
            1843     6.21017E-03     32.0262E-03    -13.1203E+06    -62.8861E+06    -2.01472E+06     833.908E+03    -15.0508E-03     29.5129E-03    -14.4621E-03     20.6891E-03    -15.0233E-03     29.2215E-03    -14.3620E-03     20.6961E-03
            1844     5.32340E-03     32.0078E-03    -14.8916E+06    -64.0879E+06    -4.38156E+06     730.815E+03    -14.8019E-03     29.1828E-03    -14.3809E-03     17.2167E-03    -14.7778E-03     28.8910E-03    -14.2883E-03     17.2233E-03
            1845     4.43644E-03     31.9925E-03    -16.6708E+06    -65.5225E+06    -7.55392E+06     618.685E+03    -14.5865E-03     28.8929E-03    -14.3064E-03     13.9753E-03    -14.5643E-03     28.6009E-03    -14.2250E-03     13.9811E-03
            1846     3.54935E-03     31.9803E-03    -18.4559E+06    -66.7286E+06    -11.5982E+06     388.074E+03    -14.4076E-03     28.6465E-03    -14.2389E-03     10.9512E-03    -14.3865E-03     28.3567E-03    -14.1734E-03     10.9546E-03
            1847     2.66210E-03     31.9709E-03    -20.0747E+06    -69.0392E+06    -15.6969E+06     238.505E+03    -14.2744E-03     28.4590E-03    -14.1846E-03     8.10224E-03    -14.2521E-03     28.1658E-03    -14.1338E-03     8.10414E-03
            1848     1.77480E-03     31.9643E-03    -21.3715E+06    -71.2590E+06    -19.2302E+06     164.897E+03    -14.1833E-03     28.3271E-03    -14.1438E-03     5.40012E-03    -14.1590E-03     28.0297E-03    -14.1056E-03     5.40148E-03
            1849     887.402E-06     31.9603E-03    -22.2286E+06    -72.7281E+06    -21.6498E+06     114.415E+03    -14.1249E-03     28.2461E-03    -14.1212E-03     2.90807E-03    -14.0992E-03     27.9462E-03    -14.0918E-03     2.90914E-03
            1850     16.8380E-03     31.6750E-03    -3.51780E+06     135.198E+06     41.1166E+06     83.9055E+03    -19.2093E-03     34.6114E-03    -15.4021E-03     121.485E-03    -20.4745E-03     36.2248E-03    -15.3875E-03     122.128E-03
            1851     15.9535E-03     31.5429E-03    -4.12658E+06     83.4310E+06    -7.18663E+06     758.098E+03    -19.5920E-03     34.7632E-03    -15.1712E-03     120.362E-03    -20.4789E-03     35.9525E-03    -15.3221E-03     120.549E-03
            1852     15.0689E-03     31.4495E-03    -4.11232E+06     33.7221E+06    -1.35341E+06     869.145E+03    -18.2962E-03     33.4900E-03    -15.1938E-03     82.8676E-03    -18.5574E-03     33.8602E-03    -15.2435E-03     82.8435E-03
            1853     14.1830E-03     31.3872E-03    -5.06926E+06    -318.473E+03    -518.803E+03     740.706E+03    -17.5327E-03     32.6918E-03    -15.1591E-03     61.4268E-03    -17.6267E-03     32.7682E-03    -15.1539E-03     61.3938E-03
            1854     13.2983E-03     31.3338E-03    -5.22335E+06    -27.2014E+06    -4.16186E+06     758.472E+03    -17.4441E-03     32.5242E-03    -15.0801E-03     56.0930E-03    -17.4671E-03     32.4442E-03    -15.0539E-03     56.0658E-03
            1855     12.4132E-03     31.2813E-03    -5.21567E+06    -33.5075E+06     1.27156E+06     896.659E+03    -17.1659E-03     32.1740E-03    -15.0081E-03     51.3777E-03    -17.1708E-03     32.0377E-03    -14.9456E-03     51.3610E-03
            1856     11.5277E-03     31.2361E-03    -5.87891E+06    -38.9829E+06     2.27910E+06     860.162E+03    -16.8033E-03     31.7154E-03    -14.9120E-03     45.2158E-03    -16.7946E-03     31.5407E-03    -14.8356E-03     45.2060E-03
            1857     10.6421E-03     31.1952E-03    -6.64857E+06    -49.6105E+06     646.185E+03     867.983E+03    -16.5338E-03     31.3428E-03    -14.8089E-03     40.5301E-03    -16.5055E-03     31.1128E-03    -14.7241E-03     40.5258E-03
            1858     9.75640E-03     31.1585E-03    -7.47103E+06    -54.6187E+06     2.17269E+06     959.094E+03    -16.2232E-03     30.9353E-03    -14.7121E-03     36.1955E-03    -16.1904E-03     30.6759E-03    -14.6113E-03     36.1965E-03
            1859     8.87042E-03     31.1256E-03    -8.57906E+06    -55.9909E+06     1.91414E+06     1.00655E+06    -15.8967E-03     30.4997E-03    -14.6030E-03     31.9509E-03    -15.8649E-03     30.2332E-03    -14.4998E-03     31.9555E-03
            1860     7.98427E-03     31.0968E-03    -9.88258E+06    -58.6930E+06     942.865E+03     995.527E+03    -15.5736E-03     30.0698E-03    -14.4962E-03     27.8417E-03    -15.5417E-03     29.7917E-03    -14.3921E-03     27.8483E-03
            1861     7.09784E-03     31.0716E-03    -11.3702E+06    -61.6410E+06    -215.016E+03     994.170E+03    -15.2561E-03     29.6510E-03    -14.3950E-03     23.9106E-03    -15.2248E-03     29.3612E-03    -14.2902E-03     23.9187E-03
            1862     6.21121E-03     31.0501E-03    -13.0200E+06    -62.6185E+06    -1.98334E+06     938.605E+03    -14.9520E-03     29.2483E-03    -14.2963E-03     20.2304E-03    -14.9244E-03     28.9580E-03    -14.1966E-03     20.2389E-03
            1863     5.32433E-03     31.0319E-03    -14.7248E+06    -63.7967E+06    -4.33943E+06     796.217E+03    -14.6754E-03     28.8810E-03    -14.2056E-03     16.8075E-03    -14.6509E-03     28.5903E-03    -14.1135E-03     16.8150E-03
            1864     4.43727E-03     31.0170E-03    -16.5423E+06    -65.1852E+06    -7.53223E+06     603.823E+03    -14.4357E-03     28.5590E-03    -14.1233E-03     13.6242E-03    -14.4134E-03     28.2684E-03    -14.0425E-03     13.6298E-03
            1865     3.55000E-03     31.0050E-03    -18.2759E+06    -66.3531E+06    -11.4929E+06     411.104E+03    -14.2397E-03     28.2896E-03    -14.0499E-03     10.6645E-03    -14.2184E-03     28.0012E-03    -13.9846E-03     10.6683E-03
            1866     2.66263E-03     30.9958E-03    -19.8491E+06    -68.8927E+06    -15.5475E+06     266.022E+03    -14.0936E-03     28.0847E-03    -13.9910E-03     7.88362E-03    -14.0706E-03     27.7916E-03    -13.9401E-03     7.88591E-03
            1867     1.77513E-03     30.9893E-03    -21.1265E+06    -71.0642E+06    -19.0379E+06     216.993E+03    -13.9913E-03     27.9382E-03    -13.9469E-03     5.25197E-03    -13.9664E-03     27.6412E-03    -13.9084E-03     5.25403E-03
            1868     887.595E-06     30.9853E-03    -21.9730E+06    -72.5063E+06    -21.4069E+06     123.160E+03    -13.9287E-03     27.8502E-03    -13.9215E-03     2.82990E-03    -13.9024E-03     27.5506E-03    -13.8916E-03     2.83110E-03
            1869     16.8396E-03     30.6955E-03    -3.41914E+06     134.925E+06     40.9099E+06    -46.7125E+03    -19.5816E-03     34.9823E-03    -15.4007E-03     120.851E-03    -20.8429E-03     36.5918E-03    -15.3869E-03     121.478E-03
            1870     15.9541E-03     30.5637E-03    -4.37525E+06     82.8232E+06    -8.38646E+06     393.193E+03    -20.0029E-03     35.1456E-03    -15.1427E-03     120.095E-03    -20.8891E-03     36.3346E-03    -15.2984E-03     120.268E-03
            1871     15.0690E-03     30.4699E-03    -4.10587E+06     34.0016E+06    -1.81379E+06     844.070E+03    -18.5037E-03     33.6509E-03    -15.1472E-03     82.5471E-03    -18.7631E-03     34.0217E-03    -15.1996E-03     82.5212E-03
            1872     14.1845E-03     30.4089E-03    -4.10680E+06     262.759E+03    -89.6701E+03     909.308E+03    -17.6921E-03     32.7925E-03    -15.1004E-03     61.0643E-03    -17.7821E-03     32.8691E-03    -15.0953E-03     61.0331E-03
            1873     13.2991E-03     30.3545E-03    -4.40779E+06    -27.6145E+06    -4.28416E+06     912.676E+03    -17.5467E-03     32.5539E-03    -15.0072E-03     55.6993E-03    -17.5642E-03     32.4702E-03    -14.9822E-03     55.6742E-03
            1874     12.4141E-03     30.3032E-03    -4.77056E+06    -33.5975E+06     1.13396E+06     1.00605E+06    -17.2755E-03     32.1974E-03    -14.9219E-03     50.8686E-03    -17.2775E-03     32.0599E-03    -14.8606E-03     50.8533E-03
            1875     11.5288E-03     30.2579E-03    -5.48734E+06    -38.8276E+06     2.20005E+06     1.07540E+06    -16.9026E-03     31.7131E-03    -14.8106E-03     44.7290E-03    -16.8917E-03     31.5386E-03    -14.7353E-03     44.7221E-03
            1876     10.6434E-03     30.2176E-03    -6.32858E+06    -49.5072E+06     516.943E+03     1.12326E+06    -16.5981E-03     31.2895E-03    -14.6914E-03     39.9717E-03    -16.5678E-03     31.0596E-03    -14.6079E-03     39.9708E-03
            1877     9.75766E-03     30.1811E-03    -7.31669E+06    -54.5980E+06     1.94960E+06     1.13426E+06    -16.2490E-03     30.8280E-03    -14.5790E-03     35.6217E-03    -16.2150E-03     30.5685E-03    -14.4795E-03     35.6251E-03
            1878     8.87175E-03     30.1487E-03    -8.46357E+06    -55.8764E+06     1.73494E+06     1.22355E+06    -15.8838E-03     30.3392E-03    -14.4554E-03     31.3735E-03    -15.8512E-03     30.0732E-03    -14.3534E-03     31.3810E-03
            1879     7.98553E-03     30.1201E-03    -9.81689E+06    -58.5356E+06     813.687E+03     1.25105E+06    -15.5245E-03     29.8596E-03    -14.3351E-03     27.2652E-03    -15.4922E-03     29.5823E-03    -14.2319E-03     27.2752E-03
            1880     7.09909E-03     30.0954E-03    -11.3157E+06    -61.4112E+06    -320.749E+03     1.19285E+06    -15.1714E-03     29.3927E-03    -14.2214E-03     23.3633E-03    -15.1399E-03     29.1040E-03    -14.1175E-03     23.3741E-03
            1881     6.21234E-03     30.0742E-03    -12.8869E+06    -62.2927E+06    -2.01316E+06     1.03929E+06    -14.8347E-03     28.9465E-03    -14.1118E-03     19.7286E-03    -14.8068E-03     28.6576E-03    -14.0129E-03     19.7385E-03
            1882     5.32537E-03     30.0564E-03    -14.6032E+06    -63.4260E+06    -4.21598E+06     839.910E+03    -14.5305E-03     28.5429E-03    -14.0124E-03     16.3576E-03    -14.5061E-03     28.2536E-03    -13.9203E-03     16.3658E-03
            1883     4.43814E-03     30.0417E-03    -16.3392E+06    -64.7759E+06    -7.38831E+06     588.633E+03    -14.2682E-03     28.1902E-03    -13.9220E-03     13.2411E-03    -14.2456E-03     27.9011E-03    -13.8413E-03     13.2466E-03
            1884     3.55076E-03     30.0300E-03    -18.0280E+06    -66.0827E+06    -11.3822E+06     379.142E+03    -14.0546E-03     27.8966E-03    -13.8420E-03     10.3527E-03    -14.0326E-03     27.6090E-03    -13.7770E-03     10.3561E-03
            1885     2.66319E-03     30.0210E-03    -19.5642E+06    -68.7232E+06    -15.3578E+06     324.483E+03    -13.8947E-03     27.6730E-03    -13.7783E-03     7.64751E-03    -13.8707E-03     27.3801E-03    -13.7271E-03     7.65060E-03
            1886     1.77554E-03     30.0147E-03    -20.8304E+06    -70.8434E+06    -18.7541E+06     246.672E+03    -13.7814E-03     27.5119E-03    -13.7305E-03     5.09126E-03    -13.7557E-03     27.2152E-03    -13.6914E-03     5.09373E-03
            1887     887.774E-06     30.0108E-03    -21.6282E+06    -72.2271E+06    -21.0935E+06     152.571E+03    -13.7091E-03     27.4140E-03    -13.7049E-03     2.74822E-03    -13.6819E-03     27.1149E-03    -13.6743E-03     2.74981E-03
            1888     16.8381E-03     29.7149E-03    -3.58869E+06     135.044E+06     41.5207E+06    -57.2586E+03    -19.8303E-03     35.2273E-03    -15.3971E-03     120.763E-03    -21.0920E-03     36.8353E-03    -15.3801E-03     121.380E-03
            1889     15.9546E-03     29.5842E-03    -4.66532E+06     82.1291E+06    -9.46514E+06     141.068E+03    -20.3525E-03     35.4669E-03    -15.1143E-03     119.838E-03    -21.2357E-03     36.6525E-03    -15.2740E-03     120.000E-03
            1890     15.0700E-03     29.4907E-03    -4.44089E+06     33.4986E+06    -3.39275E+06     600.809E+03    -18.8407E-03     33.9344E-03    -15.0937E-03     82.0781E-03    -19.0977E-03     34.3044E-03    -15.1528E-03     82.0465E-03
            1891     14.1849E-03     29.4296E-03    -4.38979E+06     810.163E+03    -263.399E+03     905.341E+03    -17.9011E-03     32.9325E-03    -15.0314E-03     60.5406E-03    -17.9924E-03     33.0119E-03    -15.0276E-03     60.5087E-03
            1892     13.3004E-03     29.3761E-03    -4.46539E+06    -27.7640E+06    -4.97674E+06     967.024E+03    -17.6428E-03     32.5637E-03    -14.9209E-03     55.2916E-03    -17.6588E-03     32.4797E-03    -14.8990E-03     55.2672E-03
            1893     12.4152E-03     29.3245E-03    -4.81289E+06    -33.8820E+06     615.799E+03     1.16181E+06    -17.3704E-03     32.1934E-03    -14.8230E-03     50.3292E-03    -17.3709E-03     32.0548E-03    -14.7638E-03     50.3161E-03
            1894     11.5302E-03     29.2800E-03    -5.45193E+06    -38.7647E+06     1.88476E+06     1.37907E+06    -17.0244E-03     31.7196E-03    -14.6952E-03     44.1073E-03    -17.0128E-03     31.5455E-03    -14.6217E-03     44.1043E-03
            1895     10.6448E-03     29.2398E-03    -6.28081E+06    -49.3343E+06     291.772E+03     1.39743E+06    -16.6579E-03     31.2162E-03    -14.5583E-03     39.3468E-03    -16.6271E-03     30.9871E-03    -14.4762E-03     39.3496E-03
            1896     9.75915E-03     29.2039E-03    -7.21636E+06    -54.4664E+06     1.80449E+06     1.42144E+06    -16.2687E-03     30.6983E-03    -14.4297E-03     34.9828E-03    -16.2340E-03     30.4394E-03    -14.3312E-03     34.9900E-03
            1897     8.87318E-03     29.1718E-03    -8.36306E+06    -55.8140E+06     1.58904E+06     1.41868E+06    -15.8636E-03     30.1539E-03    -14.2903E-03     30.7314E-03    -15.8303E-03     29.8882E-03    -14.1893E-03     30.7416E-03
            1898     7.98699E-03     29.1437E-03    -9.54846E+06    -58.3412E+06     800.632E+03     1.47816E+06    -15.4594E-03     29.6152E-03    -14.1558E-03     26.6338E-03    -15.4259E-03     29.3384E-03    -14.0534E-03     26.6469E-03
            1899     7.10042E-03     29.1194E-03    -10.9719E+06    -61.0884E+06    -185.508E+03     1.40878E+06    -15.0708E-03     29.1006E-03    -14.0298E-03     22.7646E-03    -15.0383E-03     28.8128E-03    -13.9262E-03     22.7783E-03
            1900     6.21362E-03     29.0987E-03    -12.6049E+06    -61.8102E+06    -1.81267E+06     1.16578E+06    -14.7002E-03     28.6093E-03    -13.9091E-03     19.1770E-03    -14.6719E-03     28.3221E-03    -13.8103E-03     19.1886E-03
            1901     5.32648E-03     29.0812E-03    -14.2284E+06    -62.9459E+06    -3.93978E+06     796.940E+03    -14.3673E-03     28.1676E-03    -13.8003E-03     15.8695E-03    -14.3421E-03     27.8798E-03    -13.7081E-03     15.8771E-03
            1902     4.43915E-03     29.0669E-03    -15.8847E+06    -64.4119E+06    -7.09510E+06     531.081E+03    -14.0828E-03     27.7849E-03    -13.7021E-03     12.8261E-03    -14.0589E-03     27.4965E-03    -13.6211E-03     12.8310E-03
            1903     3.55155E-03     29.0554E-03    -17.6028E+06    -65.8905E+06    -11.1430E+06     447.754E+03    -13.8508E-03     27.4664E-03    -13.6155E-03     10.0186E-03    -13.8274E-03     27.1788E-03    -13.5502E-03     10.0229E-03
            1904     2.66382E-03     29.0467E-03    -19.1954E+06    -68.5171E+06    -15.0638E+06     375.088E+03    -13.6776E-03     27.2244E-03    -13.5467E-03     7.39348E-03    -13.6525E-03     26.9316E-03    -13.4949E-03     7.39727E-03
            1905     1.77594E-03     29.0405E-03    -20.4205E+06    -70.5718E+06    -18.3906E+06     279.987E+03    -13.5535E-03     27.0480E-03    -13.4946E-03     4.91652E-03    -13.5266E-03     26.7515E-03    -13.4546E-03     4.91945E-03
            1906     888.007E-06     29.0367E-03    -21.2478E+06    -71.9262E+06    -20.6853E+06     173.328E+03    -13.4714E-03     26.9382E-03    -13.4668E-03     2.65442E-03    -13.4434E-03     26.6394E-03    -13.4351E-03     2.65630E-03
            1907     16.8399E-03     28.7355E-03    -3.55356E+06     135.237E+06     42.2362E+06     202.039E+03    -20.1743E-03     35.5535E-03    -15.3793E-03     120.050E-03    -21.4289E-03     37.1531E-03    -15.3590E-03     120.653E-03
            1908     15.9544E-03     28.6037E-03    -5.31842E+06     82.0076E+06    -9.19910E+06     95.8990E+03    -20.5527E-03     35.6298E-03    -15.0771E-03     118.933E-03    -21.4328E-03     36.8088E-03    -15.2343E-03     119.086E-03
            1909     15.0707E-03     28.5110E-03    -5.56825E+06     32.8355E+06    -4.13307E+06     385.877E+03    -19.0312E-03     34.0679E-03    -15.0366E-03     81.3964E-03    -19.2896E-03     34.4350E-03    -15.0968E-03     81.3604E-03
            1910     14.1865E-03     28.4506E-03    -5.41881E+06     576.092E+03    -729.607E+03     813.846E+03    -18.1061E-03     33.0636E-03    -14.9575E-03     60.0595E-03    -18.2008E-03     33.1433E-03    -14.9541E-03     60.0257E-03
            1911     13.3015E-03     28.3972E-03    -5.28237E+06    -27.5983E+06    -5.51315E+06     891.240E+03    -17.8253E-03     32.6520E-03    -14.8267E-03     54.7693E-03    -17.8443E-03     32.5703E-03    -14.8066E-03     54.7437E-03
            1912     12.4167E-03     28.3461E-03    -5.41960E+06    -34.1653E+06     10.9229E+03     1.10414E+06    -17.4920E-03     32.2024E-03    -14.7103E-03     49.8460E-03    -17.4939E-03     32.0637E-03    -14.6529E-03     49.8323E-03
            1913     11.5316E-03     28.3017E-03    -5.86237E+06    -38.8565E+06     1.54705E+06     1.51787E+06    -17.1140E-03     31.6795E-03    -14.5655E-03     43.4454E-03    -17.1034E-03     31.5057E-03    -14.4929E-03     43.4444E-03
            1914     10.6464E-03     28.2623E-03    -6.49785E+06    -49.0733E+06     26.0841E+03     1.63215E+06    -16.7187E-03     31.1286E-03    -14.4099E-03     38.6567E-03    -16.6888E-03     30.9013E-03    -14.3292E-03     38.6628E-03
            1915     9.76072E-03     28.2266E-03    -7.30722E+06    -54.3696E+06     1.59987E+06     1.58060E+06    -16.2852E-03     30.5487E-03    -14.2636E-03     34.2997E-03    -16.2506E-03     30.2906E-03    -14.1661E-03     34.3092E-03
            1916     8.87485E-03     28.1952E-03    -8.23910E+06    -55.5830E+06     1.59394E+06     1.58548E+06    -15.8317E-03     29.9396E-03    -14.1079E-03     30.0178E-03    -15.7980E-03     29.6747E-03    -14.0074E-03     30.0304E-03
            1917     7.98853E-03     28.1675E-03    -9.39062E+06    -58.2189E+06     756.602E+03     1.55051E+06    -15.3804E-03     29.3386E-03    -13.9582E-03     25.9516E-03    -15.3462E-03     29.0622E-03    -13.8564E-03     25.9658E-03
            1918     7.10195E-03     28.1438E-03    -10.6375E+06    -60.7394E+06    -1.94222E+03     1.57051E+06    -14.9529E-03     28.7724E-03    -13.8195E-03     22.1164E-03    -14.9194E-03     28.4855E-03    -13.7160E-03     22.1324E-03
            1919     6.21498E-03     28.1234E-03    -12.0808E+06    -61.1192E+06    -1.46809E+06     1.25361E+06    -14.5476E-03     28.2350E-03    -13.6874E-03     18.5834E-03    -14.5181E-03     27.9499E-03    -13.5886E-03     18.5963E-03
            1920     5.32775E-03     28.1065E-03    -13.7287E+06    -62.3815E+06    -3.73979E+06     785.604E+03    -14.1854E-03     27.7538E-03    -13.5685E-03     15.3473E-03    -14.1587E-03     27.4678E-03    -13.4768E-03     15.3549E-03
            1921     4.44019E-03     28.0925E-03    -15.5049E+06    -64.1878E+06    -6.98434E+06     572.827E+03    -13.8776E-03     27.3402E-03    -13.4626E-03     12.3828E-03    -13.8523E-03     27.0522E-03    -13.3819E-03     12.3882E-03
            1922     3.55244E-03     28.0813E-03    -17.2062E+06    -65.6942E+06    -10.8438E+06     511.173E+03    -13.6288E-03     26.9992E-03    -13.3704E-03     9.66055E-03    -13.6041E-03     26.7116E-03    -13.3044E-03     9.66574E-03
            1923     2.66448E-03     28.0728E-03    -18.6892E+06    -68.2615E+06    -14.6781E+06     446.480E+03    -13.4404E-03     26.7369E-03    -13.2965E-03     7.12213E-03    -13.4137E-03     26.4441E-03    -13.2438E-03     7.12689E-03
            1924     1.77642E-03     28.0668E-03    -19.9282E+06    -70.2642E+06    -17.9705E+06     339.300E+03    -13.3062E-03     26.5467E-03    -13.2404E-03     4.73373E-03    -13.2780E-03     26.2503E-03    -13.1995E-03     4.73746E-03
            1925     888.218E-06     28.0631E-03    -20.7283E+06    -71.5675E+06    -20.2117E+06     196.823E+03    -13.2179E-03     26.4269E-03    -13.2090E-03     2.55379E-03    -13.1884E-03     26.1285E-03    -13.1763E-03     2.55598E-03
            1926     16.8394E-03     27.7547E-03    -3.69497E+06     135.227E+06     42.8961E+06     324.480E+03    -20.7232E-03     36.0767E-03    -15.3535E-03     119.828E-03    -21.9742E-03     37.6702E-03    -15.3297E-03     120.413E-03
            1927     15.9567E-03     27.6239E-03    -4.60512E+06     82.3638E+06    -7.84832E+06     653.354E+03    -20.8000E-03     35.8287E-03    -15.0288E-03     118.475E-03    -21.6722E-03     36.9997E-03    -15.1807E-03     118.625E-03
            1928     15.0717E-03     27.5315E-03    -4.52781E+06     32.1794E+06    -3.38107E+06      674.52E+03    -19.0816E-03     34.0552E-03    -14.9736E-03     80.8763E-03    -19.3315E-03     34.4131E-03    -15.0306E-03     80.8434E-03
            1929     14.1870E-03     27.4710E-03    -5.36957E+06      530.08E+03    -479.741E+03     726.679E+03    -18.2772E-03     33.1577E-03    -14.8805E-03     59.5697E-03    -18.3712E-03     33.2359E-03    -14.8759E-03     59.5344E-03
            1930     13.3030E-03     27.4185E-03    -5.81387E+06    -27.4534E+06    -5.86490E+06     833.102E+03    -18.0714E-03     32.7984E-03    -14.7271E-03     54.2609E-03    -18.0921E-03     32.7181E-03    -14.7081E-03     54.2342E-03
            1931     12.4182E-03     27.3675E-03    -5.82036E+06    -34.5751E+06    -559.432E+03     977.799E+03    -17.6804E-03     32.2670E-03    -14.5866E-03     49.2834E-03    -17.6824E-03     32.1273E-03    -14.5308E-03     49.2680E-03
            1932     11.5333E-03     27.3237E-03    -6.15670E+06    -39.0758E+06     1.23686E+06     1.38237E+06    -17.2011E-03     31.6228E-03    -14.4217E-03     42.7491E-03    -17.1908E-03     31.4483E-03    -14.3499E-03     42.7466E-03
            1933     10.6480E-03     27.2847E-03    -6.59080E+06    -49.0177E+06    -57.4595E+03     1.70039E+06    -16.7789E-03     31.0260E-03    -14.2472E-03     37.9083E-03    -16.7491E-03     30.7990E-03    -14.1668E-03     37.9154E-03
            1934     9.76256E-03     27.2496E-03    -7.28833E+06    -54.0584E+06     1.44658E+06     1.70574E+06    -16.2970E-03     30.3777E-03    -14.0806E-03     33.5245E-03    -16.2624E-03     30.1211E-03    -13.9845E-03     33.5359E-03
            1935     8.87658E-03     27.2187E-03    -8.29939E+06    -55.4357E+06     1.45442E+06     1.63765E+06    -15.7831E-03     29.6909E-03    -13.9079E-03     29.2512E-03    -15.7495E-03     29.4269E-03    -13.8082E-03     29.2647E-03
            1936     7.99030E-03     27.1917E-03    -9.43602E+06    -58.0008E+06     716.830E+03     1.69166E+06    -15.2899E-03     29.0328E-03    -13.7430E-03     25.2122E-03    -15.2560E-03     28.7575E-03    -13.6416E-03     25.2284E-03
            1937     7.10356E-03     27.1684E-03    -10.6880E+06    -60.3120E+06    -271.410E+03     1.48514E+06    -14.8154E-03     28.4045E-03    -13.5891E-03     21.4274E-03    -14.7822E-03     28.1201E-03    -13.4875E-03     21.4424E-03
            1938     6.21651E-03     27.1486E-03    -11.8601E+06    -60.3973E+06    -1.58498E+06     1.13143E+06    -14.3745E-03     27.8201E-03    -13.4456E-03     17.9575E-03    -14.3448E-03     27.5384E-03    -13.3487E-03     17.9689E-03
            1939     5.32905E-03     27.1320E-03    -13.3012E+06    -61.9830E+06    -3.59644E+06     883.947E+03    -13.9858E-03     27.3043E-03    -13.3185E-03     14.7905E-03    -13.9577E-03     27.0194E-03    -13.2273E-03     14.7995E-03
            1940     4.44136E-03     27.1185E-03    -15.0464E+06    -63.8676E+06    -6.76691E+06     715.388E+03    -13.6556E-03     26.8605E-03    -13.2049E-03     11.9131E-03    -13.6288E-03     26.5731E-03    -13.1243E-03     11.9205E-03
            1941     3.55337E-03     27.1076E-03    -16.7639E+06    -65.4973E+06    -10.6532E+06     573.554E+03    -13.3871E-03     26.4932E-03    -13.1062E-03     9.28349E-03    -13.3607E-03     26.2057E-03    -13.0402E-03     9.28954E-03
            1942     2.66522E-03     27.0994E-03    -18.2963E+06    -68.0059E+06    -14.4036E+06     547.112E+03    -13.1835E-03     26.2113E-03    -13.0279E-03     6.83718E-03    -13.1556E-03     25.9188E-03    -12.9748E-03     6.84329E-03
            1943     1.77687E-03     27.0935E-03    -19.5125E+06    -69.8577E+06    -17.6178E+06     429.673E+03    -13.0396E-03     26.0083E-03    -12.9687E-03     4.53974E-03    -13.0104E-03     25.7129E-03    -12.9272E-03     4.54467E-03
            1944     888.485E-06     27.0900E-03    -20.3165E+06    -71.1338E+06    -19.8068E+06     233.328E+03    -12.9427E-03     25.8811E-03    -12.9384E-03     2.44436E-03    -12.9125E-03     25.5837E-03    -12.9048E-03     2.44704E-03
            1945     16.8405E-03     26.7732E-03    -3.52312E+06     134.972E+06     42.9384E+06     457.851E+03    -21.0690E-03     36.4024E-03    -15.3334E-03     119.428E-03    -22.3102E-03     37.9857E-03    -15.3093E-03     119.998E-03
            1946     15.9561E-03     26.6435E-03    -5.06227E+06     82.5128E+06    -7.02965E+06     793.741E+03    -21.1686E-03     36.1590E-03    -14.9904E-03     117.871E-03    -22.0359E-03     37.3216E-03    -15.1378E-03     118.013E-03
            1947     15.0730E-03     26.5519E-03    -4.98902E+06     31.7613E+06     -3.2066E+06     896.067E+03    -19.4566E-03     34.3636E-03    -14.9070E-03     80.3981E-03    -19.7071E-03     34.7184E-03    -14.9618E-03     80.3650E-03
            1948     14.1888E-03     26.4917E-03    -4.85935E+06     668.695E+03    -352.003E+03     856.948E+03    -18.4718E-03     33.2602E-03    -14.7884E-03     58.8595E-03    -18.5623E-03     33.3368E-03    -14.7840E-03     58.8254E-03
            1949     13.3040E-03     26.4393E-03    -5.44624E+06    -27.0628E+06    -5.59788E+06     869.295E+03    -18.2445E-03     32.8604E-03    -14.6159E-03     53.5349E-03    -18.2636E-03     32.7803E-03    -14.5967E-03     53.5086E-03
            1950     12.4200E-03     26.3889E-03    -5.89135E+06    -35.0508E+06    -975.309E+03     936.340E+03    -17.8696E-03     32.3213E-03    -14.4517E-03     48.5014E-03    -17.8701E-03     32.1793E-03    -14.3972E-03     48.4855E-03
            1951     11.5351E-03     26.3457E-03    -6.23312E+06    -39.3126E+06     936.793E+03     1.23884E+06    -17.3205E-03     31.5841E-03    -14.2636E-03     41.9812E-03    -17.3094E-03     31.4085E-03    -14.1928E-03     41.9771E-03
            1952     10.6500E-03     26.3072E-03    -6.64914E+06    -49.1469E+06    -334.719E+03     1.54730E+06    -16.8330E-03     30.9004E-03    -14.0675E-03     37.0903E-03    -16.8026E-03     30.6729E-03    -13.9882E-03     37.0957E-03
            1953     9.76447E-03     26.2728E-03    -7.21547E+06    -53.8378E+06     1.35383E+06     1.79986E+06    -16.2862E-03     30.1679E-03    -13.8817E-03     32.6663E-03    -16.2512E-03     29.9122E-03    -13.7864E-03     32.6791E-03
            1954     8.87854E-03     26.2425E-03    -8.19548E+06    -55.2102E+06     1.27411E+06     1.80482E+06    -15.7236E-03     29.4145E-03    -13.6909E-03     28.4333E-03    -15.6894E-03     29.1515E-03    -13.5925E-03     28.4491E-03
            1955     7.99213E-03     26.2161E-03    -9.33985E+06    -57.8013E+06     613.706E+03     1.75563E+06    -15.1836E-03     28.6941E-03    -13.5105E-03     24.4178E-03    -15.1493E-03     28.4197E-03    -13.4101E-03     24.4350E-03
            1956     7.10534E-03     26.1935E-03    -10.5304E+06    -59.5209E+06    -379.803E+03     1.46693E+06    -14.6635E-03     28.0053E-03    -13.3418E-03     20.6903E-03    -14.6305E-03     27.7248E-03    -13.2421E-03     20.7052E-03
            1957     6.21808E-03     26.1742E-03    -11.9524E+06    -59.9214E+06    -1.96116E+06     999.320E+03    -14.1832E-03     27.3694E-03    -13.1862E-03     17.2940E-03    -14.1540E-03     27.0908E-03    -13.0918E-03     17.3039E-03
            1958     5.33051E-03     26.1582E-03    -13.4131E+06    -61.7074E+06    -3.92810E+06     863.967E+03    -13.7664E-03     26.8166E-03    -13.0502E-03     14.2092E-03    -13.7388E-03     26.5337E-03    -12.9609E-03     14.2181E-03
            1959     4.44257E-03     26.1450E-03    -14.9247E+06    -63.5272E+06    -6.95312E+06     777.644E+03    -13.4141E-03     26.3431E-03    -12.9290E-03     11.4266E-03    -13.3868E-03     26.0575E-03    -12.8500E-03     11.4349E-03
            1960     3.55439E-03     26.1345E-03    -16.5383E+06    -65.3092E+06    -10.6650E+06     752.205E+03    -13.1278E-03     25.9527E-03    -12.8249E-03     8.88966E-03    -13.1005E-03     25.6658E-03    -12.7596E-03     8.89809E-03
            1961     2.66596E-03     26.1265E-03    -18.0658E+06    -67.6512E+06    -14.3131E+06     682.253E+03    -12.9101E-03     25.6520E-03    -12.7420E-03     6.54007E-03    -12.8816E-03     25.3608E-03    -12.6892E-03     6.54797E-03
            1962     1.77742E-03     26.1209E-03    -19.2609E+06    -69.3802E+06    -17.4149E+06     508.075E+03    -12.7554E-03     25.4352E-03    -12.6798E-03     4.33784E-03    -12.7259E-03     25.1415E-03    -12.6384E-03     4.34381E-03
            1963     888.717E-06     26.1174E-03    -20.0229E+06    -70.5994E+06    -19.5542E+06     286.913E+03    -12.6550E-03     25.3013E-03    -12.6463E-03     2.32772E-03    -12.6244E-03     25.0057E-03    -12.6127E-03     2.33111E-03
            1964     16.8402E-03     25.7917E-03    -3.53120E+06     134.288E+06     42.3075E+06     555.205E+03    -21.4973E-03     36.8079E-03    -15.3107E-03     118.724E-03    -22.7255E-03     38.3776E-03    -15.2887E-03     119.276E-03
            1965     15.9576E-03     25.6631E-03    -4.32498E+06     82.4917E+06    -6.27448E+06     1.04044E+06    -21.4928E-03     36.4408E-03    -14.9480E-03     116.746E-03    -22.3446E-03     37.5883E-03    -15.0927E-03     116.879E-03
            1966     15.0737E-03     25.5713E-03    -4.88375E+06     32.2740E+06    -2.36084E+06     1.06471E+06    -19.8045E-03     34.6449E-03    -14.8404E-03     79.7273E-03    -20.0543E-03     34.9987E-03    -14.8919E-03     79.6939E-03
            1967     14.1902E-03     25.5125E-03    -5.41854E+06     359.827E+03    -1.00738E+06     947.737E+03    -18.8684E-03     33.5559E-03    -14.6875E-03     58.3821E-03    -18.9594E-03     33.6318E-03    -14.6852E-03     58.3480E-03
            1968     13.3063E-03     25.4601E-03    -5.08414E+06    -26.8771E+06    -5.49509E+06     972.689E+03    -18.4833E-03     32.9715E-03    -14.4881E-03     52.8952E-03    -18.5004E-03     32.8910E-03    -14.4693E-03     52.8700E-03
            1969     12.4216E-03     25.4104E-03    -5.41225E+06    -34.9622E+06    -940.710E+03     1.08955E+06    -17.9893E-03     32.2899E-03    -14.3006E-03     47.5982E-03    -17.9868E-03     32.1468E-03    -14.2467E-03     47.5845E-03
            1970     11.5371E-03     25.3677E-03    -6.00827E+06    -39.7036E+06     682.546E+03     1.23767E+06    -17.4301E-03     31.5204E-03    -14.0903E-03     41.0959E-03    -17.4164E-03     31.3425E-03    -14.0206E-03     41.0920E-03
            1971     10.6521E-03     25.3299E-03    -6.55494E+06    -49.2073E+06    -684.020E+03     1.49288E+06    -16.8657E-03     30.7376E-03    -13.8719E-03     36.1907E-03    -16.8339E-03     30.5098E-03    -13.7944E-03     36.1958E-03
            1972     9.76658E-03     25.2962E-03    -7.16323E+06    -53.9669E+06     1.02443E+06     1.74376E+06    -16.2613E-03     29.9285E-03    -13.6671E-03     31.7771E-03    -16.2251E-03     29.6723E-03    -13.5734E-03     31.7895E-03
            1973     8.88058E-03     25.2666E-03    -7.95415E+06    -54.9536E+06     1.22048E+06     1.97625E+06    -15.6546E-03     29.1136E-03    -13.4590E-03     27.5462E-03    -15.6194E-03     28.8515E-03    -13.3617E-03     27.5645E-03
            1974     7.99414E-03     25.2409E-03    -9.02036E+06    -57.3804E+06     535.442E+03     1.82349E+06    -15.0594E-03     28.3215E-03    -13.2622E-03     23.5732E-03    -15.0238E-03     28.0487E-03    -13.1632E-03     23.5915E-03
            1975     7.10718E-03     25.2189E-03    -10.2553E+06    -58.8290E+06    -230.845E+03     1.50976E+06    -14.4955E-03     27.5761E-03    -13.0806E-03     19.9067E-03    -14.4623E-03     27.2983E-03    -12.9816E-03     19.9223E-03
            1976     6.21981E-03     25.2003E-03    -11.7013E+06    -59.3672E+06    -1.94448E+06     1.18721E+06    -13.9770E-03     26.8903E-03    -12.9133E-03     16.5942E-03    -13.9473E-03     26.6139E-03    -12.8199E-03     16.6067E-03
            1977     5.33199E-03     25.1847E-03    -13.3606E+06    -61.4164E+06    -4.40076E+06     863.868E+03    -13.5294E-03     26.2958E-03    -12.7663E-03     13.6100E-03    -13.5013E-03     26.0149E-03    -12.6799E-03     13.6190E-03
            1978     4.44387E-03     25.1720E-03    -14.9764E+06    -63.3343E+06    -7.38459E+06     816.691E+03    -13.1567E-03     25.7950E-03    -12.6383E-03     10.9243E-03    -13.1293E-03     25.5110E-03    -12.5617E-03     10.9332E-03
            1979     3.55542E-03     25.1619E-03    -16.5100E+06    -65.1250E+06    -10.8128E+06     877.433E+03    -12.8547E-03     25.3839E-03    -12.5292E-03     8.48327E-03    -12.8273E-03     25.0981E-03    -12.4649E-03     8.49339E-03
            1980     2.66679E-03     25.1542E-03    -17.8865E+06    -67.1591E+06    -14.2923E+06     815.899E+03    -12.6212E-03     25.0628E-03    -12.4416E-03     6.23338E-03    -12.5927E-03     24.7738E-03    -12.3897E-03     6.24306E-03
            1981     1.77793E-03     25.1488E-03    -19.0265E+06    -68.8460E+06    -17.2722E+06     587.168E+03    -12.4561E-03     24.8333E-03    -12.3771E-03     4.13457E-03    -12.4264E-03     24.5417E-03    -12.3361E-03     4.14159E-03
            1982     889.019E-06     25.1455E-03    -19.7466E+06    -69.9530E+06    -19.3078E+06     366.031E+03    -12.3573E-03     24.6948E-03    -12.3375E-03     2.21907E-03    -12.3267E-03     24.4017E-03    -12.3040E-03     2.22350E-03
            1983     16.8411E-03     24.8093E-03    -3.43283E+06     133.489E+06     41.4088E+06     344.581E+03    -21.9570E-03     37.2399E-03    -15.2829E-03     117.974E-03    -23.1711E-03     38.7956E-03    -15.2644E-03     118.502E-03
            1984     15.9582E-03     24.6821E-03    -4.42837E+06     82.2702E+06    -7.49133E+06     1.04629E+06    -21.8878E-03     36.7789E-03    -14.8911E-03     115.918E-03    -22.7283E-03     37.9174E-03    -15.0414E-03     116.040E-03
            1985     15.0750E-03     24.5913E-03    -4.36759E+06     32.8507E+06    -2.51491E+06     1.37554E+06    -20.1376E-03     34.8981E-03    -14.7605E-03     78.9359E-03    -20.3821E-03     35.2510E-03    -14.8143E-03     78.9040E-03
            1986     14.1913E-03     24.5322E-03    -4.84223E+06     226.036E+03    -1.16418E+06     1.10255E+06    -19.1832E-03     33.7652E-03    -14.5821E-03     57.5648E-03    -19.2694E-03     33.8384E-03    -14.5812E-03     57.5320E-03
            1987     13.3078E-03     24.4809E-03    -5.08539E+06    -27.0409E+06    -5.90384E+06     1.06089E+06    -18.8166E-03     33.1692E-03    -14.3526E-03     52.1360E-03    -18.8321E-03     33.0878E-03    -14.3355E-03     52.1114E-03
            1988     12.4239E-03     24.4318E-03    -5.04638E+06    -34.7015E+06    -1.02031E+06     1.31211E+06    -18.1851E-03     32.3210E-03    -14.1359E-03     46.7510E-03    -18.1803E-03     32.1781E-03    -14.0834E-03     46.7403E-03
            1989     11.5393E-03     24.3897E-03    -5.61155E+06    -39.8063E+06     467.481E+03     1.43105E+06    -17.4905E-03     31.3924E-03    -13.9019E-03     40.1727E-03    -17.4739E-03     31.2132E-03    -13.8337E-03     40.1717E-03
            1990     10.6543E-03     24.3527E-03    -6.23690E+06    -49.3092E+06    -885.873E+03     1.61165E+06    -16.8830E-03     30.5466E-03    -13.6636E-03     35.2237E-03    -16.8488E-03     30.3177E-03    -13.5875E-03     35.2306E-03
            1991     9.76878E-03     24.3198E-03    -6.92769E+06    -54.0059E+06     765.262E+03     1.77018E+06    -16.2342E-03     29.6731E-03    -13.4389E-03     30.8247E-03    -16.1961E-03     29.4165E-03    -13.3467E-03     30.8378E-03
            1992     8.88279E-03     24.2910E-03    -7.70676E+06    -54.9152E+06     1.14584E+06     1.91115E+06    -15.5668E-03     28.7802E-03    -13.2135E-03     26.5992E-03    -15.5301E-03     28.5179E-03    -13.1169E-03     26.6169E-03
            1993     7.99621E-03     24.2660E-03    -8.60129E+06    -56.8026E+06     737.907E+03     1.92742E+06    -14.9168E-03     27.9183E-03    -13.0015E-03     22.6806E-03    -14.8803E-03     27.6474E-03    -12.9030E-03     22.7005E-03
            1994     7.10915E-03     24.2447E-03    -9.81113E+06    -58.2421E+06    -57.9318E+03     1.60445E+06    -14.3066E-03     27.1136E-03    -12.8070E-03     19.0948E-03    -14.2722E-03     26.8378E-03    -12.7086E-03     19.1118E-03
            1995     6.22156E-03     24.2267E-03    -11.1575E+06    -58.8571E+06    -1.67344E+06     1.31263E+06    -13.7556E-03     26.3852E-03    -12.6296E-03     15.8723E-03    -13.7243E-03     26.1102E-03    -12.5365E-03     15.8865E-03
            1996     5.33358E-03     24.2118E-03    -12.6884E+06    -61.0127E+06    -4.23430E+06     1.16241E+06    -13.2824E-03     25.7559E-03    -12.4735E-03     12.9932E-03    -13.2516E-03     25.4758E-03    -12.3878E-03     13.0062E-03
            1997     4.44519E-03     24.1996E-03    -14.4566E+06    -63.1564E+06    -7.38875E+06     1.04443E+06    -12.8885E-03     25.2266E-03    -12.3381E-03     10.4125E-03    -12.8588E-03     24.9428E-03    -12.2625E-03     10.4244E-03
            1998     3.55654E-03     24.1899E-03    -16.1171E+06    -64.8749E+06    -10.7868E+06     1.03691E+06    -12.5699E-03     24.7935E-03    -12.2236E-03     8.07607E-03    -12.5409E-03     24.5082E-03    -12.1601E-03     8.08831E-03
            1999     2.66760E-03     24.1825E-03    -17.5389E+06    -66.6148E+06    -14.1565E+06     938.897E+03    -12.3236E-03     24.4552E-03    -12.1316E-03     5.92356E-03    -12.2942E-03     24.1681E-03    -12.0804E-03     5.93487E-03
            2000     1.77852E-03     24.1773E-03    -18.6222E+06    -68.2011E+06    -16.9849E+06     699.640E+03    -12.1475E-03     24.2124E-03    -12.0649E-03     3.92770E-03    -12.1171E-03     23.9230E-03    -12.0239E-03     3.93620E-03
            2001     889.265E-06     24.1741E-03    -19.3831E+06    -69.2074E+06    -18.9169E+06     438.495E+03    -12.0435E-03     24.0692E-03    -12.0257E-03     2.11367E-03    -12.0126E-03     23.7787E-03    -11.9918E-03     2.11905E-03
            2002     16.8413E-03     23.8274E-03    -3.34307E+06     132.785E+06     41.0953E+06     456.844E+03    -22.4267E-03     37.6871E-03    -15.2604E-03     117.385E-03    -23.6273E-03     39.2280E-03    -15.2426E-03     117.889E-03
            2003     15.9588E-03     23.7006E-03    -4.58465E+06     81.7746E+06    -7.75654E+06     945.874E+03    -22.4693E-03     37.3055E-03    -14.8363E-03     114.787E-03    -23.2989E-03     38.4318E-03    -14.9870E-03     114.892E-03
            2004     15.0765E-03     23.6104E-03    -4.74900E+06     32.9862E+06    -2.91997E+06     1.26252E+06    -20.6069E-03     35.2744E-03    -14.6675E-03     77.7370E-03    -20.8494E-03     35.6256E-03    -14.7231E-03     77.7003E-03
            2005     14.1934E-03     23.5526E-03    -4.73529E+06     877.012E+03    -1.22223E+06     1.16439E+06    -19.4127E-03     33.8726E-03    -14.4599E-03     56.6735E-03    -19.4975E-03     33.9472E-03    -14.4604E-03     56.6412E-03
            2006     13.3097E-03     23.5011E-03    -4.73709E+06    -27.1853E+06    -6.07445E+06     1.09722E+06    -19.0174E-03     33.2241E-03    -14.2067E-03     51.1584E-03    -19.0296E-03     33.1406E-03    -14.1908E-03     51.1344E-03
            2007     12.4260E-03     23.4532E-03    -4.87889E+06     -35.173E+06    -1.22070E+06     1.39901E+06    -18.3884E-03     32.3526E-03    -13.9642E-03     45.6583E-03    -18.3812E-03     32.2068E-03    -13.9122E-03     45.6488E-03
            2008     11.5416E-03     23.4120E-03    -5.30558E+06    -39.5697E+06     587.957E+03     1.62267E+06    -17.5835E-03     31.2880E-03    -13.7046E-03     39.1925E-03    -17.5653E-03     31.1089E-03    -13.6366E-03     39.1943E-03
            2009     10.6566E-03     23.3757E-03    -5.81636E+06    -49.3672E+06    -870.544E+03     1.70025E+06    -16.8961E-03     30.3400E-03    -13.4438E-03     34.2050E-03    -16.8594E-03     30.1099E-03    -13.3682E-03     34.2135E-03
            2010     9.77116E-03     23.3437E-03    -6.35478E+06    -53.9110E+06     885.386E+03     1.85322E+06    -16.1861E-03     29.3858E-03    -13.1996E-03     29.7941E-03    -16.1453E-03     29.1284E-03    -13.1078E-03     29.8086E-03
            2011     8.88506E-03     23.3157E-03    -7.15648E+06    -54.8034E+06     1.25219E+06     1.89530E+06    -15.4532E-03     28.4105E-03    -12.9572E-03     25.6157E-03    -15.4140E-03     28.1476E-03    -12.8611E-03     25.6334E-03
            2012     7.99841E-03     23.2916E-03    -8.07591E+06    -56.4576E+06     978.538E+03     1.89152E+06    -14.7530E-03     27.4846E-03    -12.7316E-03     21.7635E-03    -14.7145E-03     27.2142E-03    -12.6332E-03     21.7831E-03
            2013     7.11115E-03     23.2710E-03    -9.12342E+06    -57.5501E+06     248.459E+03     1.71482E+06    -14.1003E-03     26.6256E-03    -12.5253E-03     18.2683E-03    -14.0639E-03     26.3518E-03    -12.4274E-03     18.2869E-03
            2014     6.22340E-03     23.2538E-03    -10.5151E+06    -58.5198E+06    -1.47874E+06     1.47726E+06    -13.5199E-03     25.8587E-03    -12.3387E-03     15.1478E-03    -13.4861E-03     25.5841E-03    -12.2460E-03     15.1643E-03
            2015     5.33517E-03     23.2394E-03    -12.1244E+06    -60.7410E+06    -4.05126E+06     1.51174E+06    -13.0252E-03     25.2002E-03    -12.1750E-03     12.3765E-03    -12.9923E-03     24.9204E-03    -12.0896E-03     12.3940E-03
            2016     4.44657E-03     23.2277E-03    -13.8275E+06    -62.7504E+06    -7.27088E+06     1.51465E+06    -12.6112E-03     24.6439E-03    -12.0327E-03     9.90323E-03    -12.5790E-03     24.3610E-03    -11.9580E-03     9.92131E-03
            2017     3.55762E-03     23.2184E-03    -15.5372E+06    -64.4785E+06    -10.6438E+06     1.36283E+06    -12.2774E-03     24.1910E-03    -11.9136E-03     7.67104E-03    -12.2463E-03     23.9067E-03    -11.8508E-03     7.68755E-03
            2018     2.66846E-03     23.2114E-03    -16.9809E+06    -65.9440E+06    -13.9015E+06     1.16287E+06    -12.0208E-03     23.8390E-03    -11.8182E-03     5.62062E-03    -11.9900E-03     23.5541E-03    -11.7675E-03     5.63487E-03
            2019     1.77906E-03     23.2064E-03    -18.1215E+06    -67.4533E+06    -16.5749E+06     859.238E+03    -11.8393E-03     23.5880E-03    -11.7486E-03     3.72518E-03    -11.8081E-03     23.3010E-03    -11.7074E-03     3.73578E-03
            2020     889.581E-06     23.2034E-03    -18.8366E+06    -68.2943E+06    -18.4131E+06     525.464E+03    -11.7241E-03     23.4333E-03    -11.7091E-03     2.00712E-03    -11.6926E-03     23.1459E-03    -11.6749E-03     2.01364E-03
            2021     16.8413E-03     22.8442E-03    -3.57917E+06     132.261E+06     41.6181E+06     479.239E+03    -23.1147E-03     38.3483E-03    -15.2336E-03     116.217E-03    -24.3006E-03     39.8703E-03    -15.2121E-03     116.692E-03
            2022     15.9604E-03     22.7183E-03    -4.62209E+06     80.9134E+06    -7.07806E+06     1.02111E+06    -22.9558E-03     37.7288E-03    -14.7730E-03     113.439E-03    -23.7711E-03     38.8355E-03    -14.9190E-03     113.530E-03
            2023     15.0780E-03     22.6294E-03    -4.35175E+06     33.5195E+06    -2.39302E+06     1.29233E+06    -20.9890E-03     35.5574E-03    -14.5684E-03     76.6382E-03    -21.2271E-03     35.9060E-03    -14.6226E-03     76.5991E-03
            2024     14.1950E-03     22.5724E-03    -4.51187E+06     1.88693E+06    -613.969E+03     1.09000E+06    -19.7712E-03     34.1006E-03    -14.3293E-03     55.7699E-03    -19.8558E-03     34.1776E-03    -14.3286E-03     55.7358E-03
            2025     13.3120E-03     22.5217E-03    -4.59079E+06    -27.6637E+06    -6.06050E+06     1.01534E+06    -19.1900E-03     33.2376E-03    -14.0476E-03     50.2210E-03    -19.1996E-03     33.1503E-03    -14.0312E-03     50.1961E-03
            2026     12.4282E-03     22.4745E-03    -4.48918E+06    -35.6515E+06    -1.25611E+06     1.33540E+06    -18.4909E-03     32.2727E-03    -13.7818E-03     44.5025E-03    -18.4802E-03     32.1231E-03    -13.7299E-03     44.4926E-03
            2027     11.5440E-03     22.4343E-03    -4.71588E+06    -39.5164E+06     851.693E+03     1.66045E+06    -17.6883E-03     31.1872E-03    -13.4989E-03     38.0427E-03    -17.6672E-03     31.0066E-03    -13.4305E-03     38.0454E-03
            2028     10.6591E-03     22.3990E-03    -5.10398E+06    -49.2490E+06    -696.674E+03     1.77194E+06    -16.8987E-03     30.1132E-03    -13.2145E-03     33.1359E-03    -16.8585E-03     29.8821E-03    -13.1392E-03     33.1457E-03
            2029     9.77359E-03     22.3678E-03    -5.64516E+06    -53.9177E+06     1.02103E+06     1.89416E+06    -16.1034E-03     29.0555E-03    -12.9521E-03     28.7375E-03    -16.0589E-03     28.7966E-03    -12.8606E-03     28.7529E-03
            2030     8.88743E-03     22.3408E-03    -6.40611E+06    -54.5695E+06     1.44880E+06     2.02837E+06    -15.3148E-03     28.0097E-03    -12.6949E-03     24.6144E-03    -15.2722E-03     27.7464E-03    -12.5992E-03     24.6342E-03
            2031     8.00060E-03     22.3175E-03    -7.41893E+06    -56.1111E+06     1.15684E+06     1.94355E+06    -14.5687E-03     27.0258E-03    -12.4571E-03     20.8398E-03    -14.5276E-03     26.7558E-03    -12.3592E-03     20.8603E-03
            2032     7.11320E-03     22.2979E-03    -8.61408E+06    -57.0693E+06     377.750E+03     1.81829E+06    -13.8798E-03     26.1207E-03    -12.2408E-03     17.4394E-03    -13.8416E-03     25.8482E-03    -12.1437E-03     17.4595E-03
            2033     6.22521E-03     22.2813E-03    -9.97857E+06    -58.2125E+06    -1.54192E+06     1.79835E+06    -13.2729E-03     25.3187E-03    -12.0459E-03     14.4332E-03    -13.2367E-03     25.0450E-03    -11.9547E-03     14.4539E-03
            2034     5.33678E-03     22.2676E-03    -11.5497E+06    -60.6178E+06    -4.06070E+06     1.90708E+06    -12.7600E-03     24.6365E-03    -11.8765E-03     11.7719E-03    -12.7243E-03     24.3564E-03    -11.7921E-03     11.7947E-03
            2035     4.44791E-03     22.2564E-03    -13.2164E+06    -62.2634E+06    -7.06754E+06     2.01823E+06    -12.3309E-03     24.0605E-03    -11.7296E-03     9.40703E-03    -12.2967E-03     23.7788E-03    -11.6555E-03     9.43169E-03
            2036     3.55875E-03     22.2476E-03    -14.8570E+06    -63.7711E+06    -10.3844E+06     1.86032E+06    -11.9837E-03     23.5903E-03    -11.6066E-03     7.27802E-03    -11.9506E-03     23.3081E-03    -11.5445E-03     7.30102E-03
            2037     2.66927E-03     22.2408E-03    -16.3514E+06    -65.0945E+06    -13.5326E+06     1.50871E+06    -11.7184E-03     23.2275E-03    -11.5092E-03     5.33184E-03    -11.6862E-03     22.9454E-03    -11.4587E-03     5.35060E-03
            2038     1.77964E-03     22.2361E-03    -17.4759E+06    -66.4708E+06    -16.0631E+06     1.09282E+06    -11.5349E-03     22.9725E-03    -11.4376E-03     3.53272E-03    -11.5026E-03     22.6888E-03    -11.3962E-03     3.54637E-03
            2039     889.850E-06     22.2332E-03    -18.2511E+06    -67.2023E+06    -17.8096E+06     626.241E+03    -11.4112E-03     22.8088E-03    -11.3976E-03     1.90450E-03    -11.3792E-03     22.5251E-03    -11.3627E-03     1.91234E-03
            2040     16.8432E-03     21.8607E-03    -3.43702E+06     131.895E+06     41.6331E+06     350.810E+03    -23.8769E-03     39.0740E-03    -15.1971E-03     115.303E-03    -25.0458E-03     40.5782E-03    -15.1752E-03     115.746E-03
            2041     15.9612E-03     21.7360E-03    -3.76568E+06     80.3752E+06    -8.52508E+06     802.913E+03    -23.3974E-03     38.0882E-03    -14.6908E-03     112.203E-03    -24.1902E-03     39.1777E-03    -14.8445E-03     112.277E-03
            2042     15.0794E-03     21.6481E-03    -3.44204E+06     33.7289E+06    -3.75465E+06     1.20034E+06    -21.3934E-03     35.8472E-03    -14.4538E-03     75.4051E-03    -21.6206E-03     36.1929E-03    -14.5165E-03     75.3620E-03
            2043     14.1973E-03     21.5918E-03    -3.46527E+06     2.24960E+06    -505.685E+03     1.23396E+06    -20.0981E-03     34.2886E-03    -14.1905E-03     54.6332E-03    -20.1762E-03     34.3639E-03    -14.1912E-03     54.6004E-03
            2044     13.3141E-03     21.5423E-03    -3.55056E+06    -27.7225E+06    -5.91843E+06     1.09981E+06    -19.4162E-03     33.2968E-03    -13.8806E-03     49.2066E-03    -19.4196E-03     33.2064E-03    -13.8649E-03     49.1828E-03
            2045     12.4306E-03     21.4959E-03    -3.69732E+06    -35.8248E+06    -1.15042E+06     1.23300E+06    -18.6107E-03     32.2004E-03    -13.5897E-03     43.3993E-03    -18.5951E-03     32.0478E-03    -13.5381E-03     43.3886E-03
            2046     11.5465E-03     21.4567E-03    -3.93332E+06    -39.7531E+06     868.612E+03     1.67636E+06    -17.7211E-03     31.0056E-03    -13.2845E-03     36.8615E-03    -17.6952E-03     30.8221E-03    -13.2168E-03     36.8649E-03
            2047     10.6616E-03     21.4224E-03    -4.36749E+06    -49.0408E+06    -740.776E+03     1.93516E+06    -16.8695E-03     29.8495E-03    -12.9800E-03     32.0106E-03    -16.8254E-03     29.6180E-03    -12.9062E-03     32.0229E-03
            2048     9.77606E-03     21.3923E-03    -4.94142E+06    -53.9626E+06     921.117E+03     2.02175E+06    -16.0007E-03     28.7022E-03    -12.7014E-03     27.6731E-03    -15.9523E-03     28.4420E-03    -12.6114E-03     27.6904E-03
            2049     8.88976E-03     21.3663E-03    -5.71791E+06    -54.3990E+06     1.47899E+06     2.18726E+06    -15.1576E-03     27.5894E-03    -12.4317E-03     23.6013E-03    -15.1117E-03     27.3258E-03    -12.3372E-03     23.6234E-03
            2050     8.00281E-03     21.3440E-03    -6.68608E+06    -55.6374E+06     1.33461E+06     2.15849E+06    -14.3669E-03     26.5512E-03    -12.1842E-03     19.9128E-03    -14.3230E-03     26.2821E-03    -12.0872E-03     19.9363E-03
            2051     7.11519E-03     21.3251E-03    -7.88012E+06    -56.7582E+06     570.564E+03     2.05104E+06    -13.6485E-03     25.6093E-03    -11.9608E-03     16.6202E-03    -13.6073E-03     25.3370E-03    -11.8642E-03     16.6435E-03
            2052     6.22702E-03     21.3094E-03    -9.31109E+06    -58.0724E+06    -1.47928E+06     2.19402E+06    -13.0204E-03     24.7801E-03    -11.7597E-03     13.7317E-03    -12.9811E-03     24.5059E-03    -11.6694E-03     13.7576E-03
            2053     5.33832E-03     21.2963E-03    -10.9146E+06    -60.3966E+06    -4.04879E+06     2.42990E+06    -12.4904E-03     24.0763E-03    -11.5859E-03     11.1890E-03    -12.4519E-03     23.7963E-03    -11.5027E-03     11.2186E-03
            2054     4.44924E-03     21.2857E-03    -12.5624E+06    -61.7858E+06    -6.90538E+06     2.53330E+06    -12.0507E-03     23.4871E-03    -11.4364E-03     8.93610E-03    -12.0141E-03     23.2066E-03    -11.3632E-03     8.96750E-03
            2055     3.55978E-03     21.2772E-03    -14.1353E+06    -62.8109E+06    -9.99942E+06     2.40373E+06    -11.6965E-03     23.0082E-03    -11.3117E-03     6.90855E-03    -11.6617E-03     22.7293E-03    -11.2502E-03     6.93863E-03
            2056     2.67008E-03     21.2709E-03    -15.5245E+06    -63.9497E+06    -12.9591E+06     1.95498E+06    -11.4278E-03     22.6410E-03    -11.2132E-03     5.06294E-03    -11.3940E-03     22.3626E-03    -11.1628E-03     5.08751E-03
            2057     1.78016E-03     21.2664E-03    -16.6568E+06    -65.2131E+06    -15.3807E+06     1.39015E+06    -11.2382E-03     22.3798E-03    -11.1416E-03     3.35039E-03    -11.2047E-03     22.1002E-03    -11.0998E-03     3.36790E-03
            2058     890.122E-06     21.2637E-03    -17.3969E+06    -65.8174E+06    -17.0597E+06     780.296E+03    -11.1178E-03     22.2181E-03    -11.1003E-03     1.80342E-03    -11.0846E-03     21.9390E-03    -11.0649E-03     1.81326E-03
            2059     16.8424E-03     20.8758E-03    -3.68170E+06     131.907E+06     42.8699E+06     95.2349E+03    -24.5929E-03     39.7679E-03    -15.1750E-03     114.064E-03    -25.7457E-03     41.2516E-03    -15.1465E-03     114.471E-03
            2060     15.9628E-03     20.7534E-03    -4.46909E+06     80.2024E+06    -9.51387E+06     135.265E+03    -24.0519E-03     38.6672E-03    -14.6153E-03     110.671E-03    -24.8287E-03     39.7405E-03    -14.7727E-03     110.718E-03
            2061     15.0815E-03     20.6661E-03    -3.56123E+06     32.9256E+06    -6.18481E+06     869.250E+03    -21.7972E-03     36.1302E-03    -14.3329E-03     74.1706E-03    -22.0152E-03     36.4703E-03    -14.4064E-03     74.1207E-03
            2062     14.1990E-03     20.6115E-03    -3.24164E+06     2.49427E+06    -886.106E+03     1.23196E+06    -20.3794E-03     34.4271E-03    -14.0477E-03     53.5375E-03    -20.4542E-03     34.5019E-03    -14.0511E-03     53.5044E-03
            2063     13.3164E-03     20.5625E-03    -3.08495E+06    -27.4486E+06    -6.38587E+06     1.07324E+06    -19.6645E-03     33.3730E-03    -13.7084E-03     48.0758E-03    -19.6642E-03     33.2828E-03    -13.6961E-03     48.0517E-03
            2064     12.4332E-03     20.5174E-03    -2.99133E+06    -36.2399E+06    -1.47460E+06     1.34801E+06    -18.7221E-03     32.1147E-03    -13.3925E-03     42.1597E-03    -18.7010E-03     31.9586E-03    -13.3430E-03     42.1509E-03
            2065     11.5490E-03     20.4792E-03    -3.41926E+06    -39.9962E+06     552.947E+03     1.81501E+06    -17.7104E-03     30.7777E-03    -13.0672E-03     35.7053E-03    -17.6805E-03     30.5920E-03    -13.0015E-03     35.7109E-03
            2066     10.6641E-03     20.4461E-03    -3.83492E+06    -48.9938E+06    -911.361E+03     2.11571E+06    -16.8046E-03     29.5516E-03    -12.7469E-03     30.8502E-03    -16.7573E-03     29.3194E-03    -12.6749E-03     30.8653E-03
            2067     9.77847E-03     20.4171E-03    -4.38617E+06    -53.8128E+06     771.113E+03     2.25855E+06    -15.8843E-03     28.3387E-03    -12.4543E-03     26.5761E-03    -15.8329E-03     28.0784E-03    -12.3661E-03     26.5968E-03
            2068     8.89208E-03     20.3921E-03    -5.09940E+06    -54.2960E+06     1.45868E+06     2.31458E+06    -14.9845E-03     27.1588E-03    -12.1743E-03     22.5774E-03    -14.9355E-03     26.8947E-03    -12.0809E-03     22.6015E-03
            2069     8.00493E-03     20.3708E-03    -5.93521E+06    -55.1838E+06     1.50939E+06     2.34489E+06    -14.1508E-03     26.0703E-03    -11.9195E-03     18.9918E-03    -14.1040E-03     25.8021E-03    -11.8233E-03     19.0179E-03
            2070     7.11713E-03     20.3529E-03    -7.04651E+06    -56.5388E+06     822.462E+03     2.37067E+06    -13.4075E-03     25.0992E-03    -11.6917E-03     15.8195E-03    -13.3627E-03     24.8263E-03    -11.5954E-03     15.8471E-03
            2071     6.22872E-03     20.3379E-03    -8.45430E+06    -58.1351E+06    -1.21105E+06     2.72462E+06    -12.7656E-03     24.2535E-03    -11.4880E-03     13.0539E-03    -12.7223E-03     23.9774E-03    -11.3975E-03     13.0868E-03
            2072     5.33981E-03     20.3255E-03    -10.0771E+06    -60.0512E+06    -3.78128E+06     3.08179E+06    -12.2248E-03     23.5365E-03    -11.3116E-03     10.6319E-03    -12.1830E-03     23.2566E-03    -11.2288E-03     10.6700E-03
            2073     4.45045E-03     20.3155E-03    -11.7397E+06    -61.1424E+06    -6.56019E+06     3.12825E+06    -11.7787E-03     22.9401E-03    -11.1613E-03     8.48544E-03    -11.7395E-03     22.6611E-03    -11.0885E-03     8.52460E-03
            2074     3.56078E-03     20.3075E-03    -13.2379E+06    -61.6720E+06    -9.44152E+06     2.89855E+06    -11.4231E-03     22.4597E-03    -11.0366E-03     6.55855E-03    -11.3863E-03     22.1843E-03    -10.9752E-03     6.59508E-03
            2075     2.67081E-03     20.3015E-03    -14.5039E+06    -62.4866E+06    -12.1737E+06     2.38857E+06    -11.1533E-03     22.0919E-03    -10.9386E-03     4.80910E-03    -11.1176E-03     21.8182E-03    -10.8878E-03     4.83931E-03
            2076     1.78066E-03     20.2972E-03    -15.4896E+06    -63.6758E+06    -14.3320E+06     1.70436E+06    -10.9649E-03     21.8332E-03    -10.8683E-03     3.18006E-03    -10.9292E-03     21.5580E-03    -10.8252E-03     3.20166E-03
            2077     890.353E-06     20.2946E-03    -16.1870E+06    -64.0922E+06    -15.8618E+06     995.578E+03    -10.8538E-03     21.6726E-03    -10.8188E-03     1.70768E-03    -10.8188E-03     21.3986E-03    -10.7817E-03     1.72031E-03
            2078     16.8439E-03     19.8905E-03    -3.64714E+06     132.096E+06     44.1066E+06     478.512E+03    -25.2893E-03     40.4420E-03    -15.1527E-03     112.723E-03    -26.4228E-03     41.9036E-03    -15.1184E-03     113.102E-03
            2079     15.9636E-03     19.7695E-03    -5.12863E+06     80.7814E+06    -8.72432E+06     35.5410E+03    -24.6719E-03     39.2211E-03    -14.5492E-03     108.833E-03    -25.4345E-03     40.2776E-03    -14.7025E-03     108.861E-03
            2080     15.0828E-03     19.6843E-03    -4.94353E+06     31.8466E+06    -8.36856E+06    -123.424E+03    -22.2754E-03     36.4904E-03    -14.2149E-03     72.5541E-03    -22.4900E-03     36.8248E-03    -14.2958E-03     72.4884E-03
            2081     14.2012E-03     19.6306E-03    -4.03284E+06     2.43692E+06    -2.23376E+06     646.798E+03    -20.6789E-03     34.5766E-03    -13.8977E-03     52.1828E-03    -20.7535E-03     34.6520E-03    -13.9065E-03     52.1419E-03
            2082     13.3188E-03     19.5827E-03    -3.50372E+06    -27.4183E+06    -7.18900E+06     1.03469E+06    -19.8201E-03     33.3538E-03    -13.5336E-03     46.7867E-03    -19.8194E-03     33.2642E-03    -13.5248E-03     46.7625E-03
            2083     12.4355E-03     19.5390E-03    -3.46403E+06    -36.8224E+06    -2.35370E+06     1.39506E+06    -18.7785E-03     31.9751E-03    -13.1966E-03     40.8560E-03    -18.7567E-03     31.8171E-03    -13.1500E-03     40.8484E-03
            2084     11.5515E-03     19.5020E-03    -3.47080E+06    -40.0686E+06     284.947E+03     1.80309E+06    -17.6903E-03     30.5454E-03    -12.8551E-03     34.4940E-03    -17.6596E-03     30.3593E-03    -12.7905E-03     34.5001E-03
            2085     10.6665E-03     19.4701E-03    -3.60187E+06    -49.2089E+06    -1.10204E+06     2.15573E+06    -16.7146E-03     29.2352E-03    -12.5206E-03     29.6795E-03    -16.6652E-03     29.0015E-03    -12.4495E-03     29.6956E-03
            2086     9.78082E-03     19.4423E-03    -3.89861E+06    -53.5659E+06     858.506E+03     2.41694E+06    -15.7420E-03     27.9593E-03    -12.2172E-03     25.4520E-03    -15.6884E-03     27.6991E-03    -12.1296E-03     25.4751E-03
            2087     8.89427E-03     19.4184E-03    -4.48136E+06    -54.0734E+06     1.64931E+06     2.40841E+06    -14.7940E-03     26.7236E-03    -11.9296E-03     21.5566E-03    -14.7423E-03     26.4593E-03    -11.8364E-03     21.5821E-03
            2088     8.00696E-03     19.3982E-03    -5.20210E+06    -54.8801E+06     1.68126E+06     2.41765E+06    -13.9276E-03     25.5971E-03    -11.6695E-03     18.0862E-03    -13.8776E-03     25.3290E-03    -11.5740E-03     18.1134E-03
            2089     7.11893E-03     19.3812E-03    -6.18925E+06    -56.5731E+06     985.632E+03     2.73368E+06    -13.1633E-03     24.6030E-03    -11.4397E-03     15.0404E-03    -13.1144E-03     24.3284E-03    -11.3437E-03     15.0728E-03
            2090     6.23030E-03     19.3670E-03    -7.56848E+06    -58.3089E+06    -902.521E+03     3.33240E+06    -12.5141E-03     23.7503E-03    -11.2362E-03     12.3997E-03    -12.4665E-03     23.4715E-03    -11.1452E-03     12.4406E-03
            2091     5.34115E-03     19.3553E-03    -9.12683E+06    -59.6028E+06    -3.20264E+06     3.77548E+06    -11.9714E-03     23.0317E-03    -11.0603E-03     10.0945E-03    -11.9262E-03     22.7519E-03    -10.9767E-03     10.1416E-03
            2092     4.45160E-03     19.3458E-03    -10.6413E+06    -60.1707E+06    -5.78697E+06     3.71401E+06    -11.5247E-03     22.4353E-03    -10.9106E-03     8.05586E-03    -11.4824E-03     22.1584E-03    -10.8369E-03     8.10266E-03
            2093     3.56166E-03     19.3383E-03    -11.9821E+06    -60.3505E+06    -8.51642E+06     3.34335E+06    -11.1704E-03     21.9572E-03    -10.7867E-03     6.22840E-03    -11.1306E-03     21.6852E-03    -10.7244E-03     6.27072E-03
            2094     2.67149E-03     19.3326E-03    -13.1072E+06    -60.7866E+06    -10.9964E+06     2.75565E+06    -10.9029E-03     21.5931E-03    -10.6902E-03     4.56054E-03    -10.8644E-03     21.3242E-03    -10.6381E-03     4.59553E-03
            2095     1.78108E-03     19.3286E-03    -14.0099E+06    -61.8311E+06    -12.9085E+06     1.97269E+06    -10.7183E-03     21.3395E-03    -10.6212E-03     3.01827E-03    -10.6800E-03     21.0694E-03    -10.5758E-03     3.04336E-03
            2096     890.599E-06     19.3261E-03    -14.5965E+06    -62.0533E+06    -14.2330E+06     1.10069E+06    -10.6059E-03     21.1790E-03    -10.5732E-03     1.61529E-03    -10.5682E-03     20.9106E-03    -10.5332E-03     1.62930E-03
            2097     16.8436E-03     18.9046E-03    -3.42424E+06     131.675E+06     44.0765E+06     741.618E+03    -26.1288E-03     41.2504E-03    -15.1215E-03     111.328E-03    -27.2391E-03     42.6881E-03    -15.0871E-03     111.674E-03
            2098     15.9649E-03     18.7852E-03    -4.90982E+06     81.9861E+06    -6.87038E+06     799.158E+03    -25.3214E-03     39.7989E-03    -14.4775E-03     106.440E-03    -26.0650E-03     40.8361E-03    -14.6236E-03     106.459E-03
            2099     15.0849E-03     18.7019E-03    -5.55523E+06     32.2630E+06    -7.94022E+06    -380.916E+03    -22.6935E-03     36.7908E-03    -14.0973E-03     70.3768E-03    -22.9053E-03     37.1205E-03    -14.1757E-03     70.3051E-03
            2100     14.2035E-03     18.6497E-03    -5.43040E+06     1.22456E+06    -3.68930E+06    -290.575E+03    -20.8549E-03     34.5995E-03    -13.7447E-03     50.7511E-03    -20.9300E-03     34.6704E-03    -13.7570E-03     50.6984E-03
            2101     13.3210E-03     18.6031E-03    -4.78885E+06    -27.5367E+06    -7.51304E+06     692.672E+03    -19.8790E-03     33.2436E-03    -13.3645E-03     45.5594E-03    -19.8827E-03     33.1543E-03    -13.3552E-03     45.5315E-03
            2102     12.4379E-03     18.5606E-03    -4.00070E+06    -37.2021E+06    -2.70039E+06     906.640E+03    -18.8091E-03     31.8184E-03    -13.0093E-03     39.4916E-03    -18.7880E-03     31.6588E-03    -12.9630E-03     39.4783E-03
            2103     11.5538E-03     18.5251E-03    -3.65441E+06    -40.5644E+06     56.3372E+03     1.49610E+06    -17.6453E-03     30.2977E-03    -12.6524E-03     33.2293E-03    -17.6138E-03     30.1091E-03    -12.5880E-03     33.2320E-03
            2104     10.6689E-03     18.4943E-03    -3.58069E+06    -49.2194E+06    -1.29158E+06     1.94083E+06    -16.6023E-03     28.9076E-03    -12.3053E-03     28.5092E-03    -16.5521E-03     28.6738E-03    -12.2352E-03     28.5230E-03
            2105     9.78301E-03     18.4678E-03    -3.45902E+06    -53.6632E+06     985.656E+03     2.16622E+06    -15.5776E-03     27.5726E-03    -11.9950E-03     24.3290E-03    -15.5216E-03     27.3109E-03    -11.9072E-03     24.3493E-03
            2106     8.89630E-03     18.4451E-03    -3.61754E+06    -53.7195E+06     2.17988E+06     2.38997E+06    -14.5927E-03     26.2959E-03    -11.7032E-03     20.5343E-03    -14.5378E-03     26.0312E-03    -11.6092E-03     20.5598E-03
            2107     8.00880E-03     18.4260E-03    -4.26434E+06    -54.8289E+06     2.12203E+06     2.52099E+06    -13.7023E-03     25.1432E-03    -11.4410E-03     17.1868E-03    -13.6483E-03     24.8733E-03    -11.3447E-03     17.2156E-03
            2108     7.12057E-03     18.4099E-03    -5.28921E+06    -56.9326E+06     1.31681E+06     3.12552E+06    -12.9302E-03     24.1411E-03    -11.2110E-03     14.2771E-03    -12.8767E-03     23.8629E-03    -11.1142E-03     14.3147E-03
            2109     6.23173E-03     18.3965E-03    -6.51562E+06    -58.4367E+06    -234.167E+03     3.87554E+06    -12.2800E-03     23.2892E-03    -11.0092E-03     11.7599E-03    -12.2279E-03     23.0073E-03    -10.9162E-03     11.8080E-03
            2110     5.34238E-03     18.3855E-03    -7.75769E+06    -59.0397E+06    -2.19384E+06     4.26131E+06    -11.7392E-03     22.5738E-03    -10.8345E-03     9.56215E-03    -11.6895E-03     22.2932E-03    -10.7486E-03     9.61570E-03
            2111     4.45258E-03     18.3765E-03    -8.98642E+06    -58.9356E+06    -4.41412E+06     4.18261E+06    -11.2962E-03     21.9823E-03    -10.6861E-03     7.62172E-03    -11.2494E-03     21.7072E-03    -10.6097E-03     7.67464E-03
            2112     3.56247E-03     18.3695E-03    -10.1608E+06    -58.7912E+06    -6.86417E+06     3.68361E+06    -10.9446E-03     21.5084E-03    -10.5638E-03     5.88725E-03    -10.9003E-03     21.2392E-03    -10.4981E-03     5.93402E-03
            2113     2.67207E-03     18.3641E-03    -11.0731E+06    -58.9403E+06    -9.17249E+06     2.99550E+06    -10.6806E-03     21.1485E-03    -10.4679E-03     4.30916E-03    -10.6372E-03     20.8832E-03    -10.4122E-03     4.34728E-03
            2114     1.78151E-03     18.3604E-03    -11.7466E+06    -59.7525E+06    -10.8051E+06     2.19236E+06    -10.4959E-03     20.8962E-03    -10.4003E-03     2.84929E-03    -10.4523E-03     20.6302E-03    -10.3507E-03     2.87724E-03
            2115     890.770E-06     18.3580E-03    -12.2902E+06    -59.7153E+06    -12.0983E+06     1.28150E+06    -10.3790E-03     20.7389E-03    -10.3599E-03     1.51836E-03    -10.3363E-03     20.4757E-03    -10.3160E-03     1.53472E-03
            2116     16.8448E-03     17.9171E-03    -3.73725E+06     131.106E+06     44.4918E+06     380.407E+03    -27.0918E-03     42.1801E-03    -15.0883E-03     109.723E-03    -28.1793E-03     43.5908E-03    -15.0505E-03     110.025E-03
            2117     15.9667E-03     17.8004E-03    -4.51825E+06     82.0642E+06    -6.80036E+06     932.412E+03    -25.9850E-03     40.3738E-03    -14.3888E-03     103.908E-03    -26.7016E-03     41.3856E-03    -14.5353E-03     103.909E-03
            2118     15.0869E-03     17.7190E-03    -4.01933E+06     33.8126E+06    -6.50941E+06     777.607E+03    -22.8967E-03     36.8730E-03    -13.9763E-03     68.1850E-03    -23.0966E-03     37.1977E-03    -14.0521E-03     68.1271E-03
            2119     14.2054E-03     17.6692E-03    -4.49453E+06     1.24288E+06    -3.05111E+06    -391.698E+03    -20.9368E-03     34.5402E-03    -13.6035E-03     49.4276E-03    -21.0055E-03     34.6063E-03    -13.6140E-03     49.3743E-03
            2120     13.3232E-03     17.6233E-03    -4.31742E+06    -28.4264E+06    -8.23133E+06    -404.370E+03    -19.9966E-03     33.1973E-03    -13.2008E-03     44.3606E-03    -19.9941E-03     33.1026E-03    -13.1944E-03     44.3191E-03
            2121     12.4402E-03     17.5825E-03    -3.58769E+06    -37.8047E+06    -2.80479E+06     640.238E+03    -18.8114E-03     31.6424E-03    -12.8310E-03     38.0291E-03    -18.7862E-03     31.4784E-03    -12.7850E-03     38.0131E-03
            2122     11.5560E-03     17.5483E-03    -3.78376E+06    -41.0652E+06    -258.302E+03     1.22628E+06    -17.5570E-03     30.0187E-03    -12.4617E-03     31.9409E-03    -17.5244E-03     29.8277E-03    -12.3980E-03     31.9408E-03
            2123     10.6710E-03     17.5190E-03    -3.58588E+06    -49.0854E+06    -1.30736E+06     1.38022E+06    -16.4683E-03     28.5753E-03    -12.1070E-03     27.3241E-03    -16.4180E-03     28.3418E-03    -12.0372E-03     27.3311E-03
            2124     9.78501E-03     17.4937E-03    -3.26242E+06    -53.9620E+06     974.437E+03     1.59458E+06    -15.4073E-03     27.1990E-03    -11.7917E-03     23.2055E-03    -15.3496E-03     26.9353E-03    -11.7038E-03     23.2187E-03
            2125     8.89816E-03     17.4722E-03    -3.17311E+06    -53.7113E+06     2.54989E+06     2.00255E+06    -14.3915E-03     25.8899E-03    -11.4984E-03     19.5103E-03    -14.3349E-03     25.6239E-03    -11.4031E-03     19.5311E-03
            2126     8.01045E-03     17.4542E-03    -3.52726E+06    -55.1334E+06     2.74067E+06     2.64001E+06    -13.4928E-03     24.7294E-03    -11.2366E-03     16.2798E-03    -13.4355E-03     24.4559E-03    -11.1379E-03     16.3103E-03
            2127     7.12203E-03     17.4391E-03    -4.42526E+06    -57.4253E+06     2.07539E+06     3.48025E+06    -12.7238E-03     23.7310E-03    -11.0072E-03     13.4878E-03    -12.6662E-03     23.4479E-03    -10.9071E-03     13.5301E-03
            2128     6.23300E-03     17.4265E-03    -5.50640E+06    -58.4279E+06     477.933E+03     4.20119E+06    -12.0756E-03     22.8795E-03    -10.8040E-03     11.0888E-03    -12.0194E-03     22.5950E-03    -10.7089E-03     11.1411E-03
            2129     5.34346E-03     17.4161E-03    -6.52119E+06    -58.3166E+06    -1.29159E+06     4.49121E+06    -11.5366E-03     22.1649E-03    -10.6283E-03     8.99214E-03    -11.4830E-03     21.8849E-03    -10.5408E-03     9.04875E-03
            2130     4.45351E-03     17.4077E-03    -7.36690E+06    -57.6081E+06    -3.10615E+06     4.29301E+06    -11.0948E-03     21.5746E-03    -10.4797E-03     7.14856E-03    -11.0438E-03     21.3019E-03    -10.4011E-03     7.20297E-03
            2131     3.56320E-03     17.4011E-03    -8.04931E+06    -57.0786E+06    -5.03056E+06     3.80334E+06    -10.7429E-03     21.1007E-03    -10.3578E-03     5.50413E-03    -10.6932E-03     20.8343E-03    -10.2885E-03     5.55250E-03
            2132     2.67263E-03     17.3961E-03    -8.70282E+06    -56.9696E+06    -6.90501E+06     3.07162E+06    -10.4756E-03     20.7385E-03    -10.2629E-03     4.02513E-03    -10.4265E-03     20.4763E-03    -10.2022E-03     4.06427E-03
            2133     1.78185E-03     17.3925E-03    -9.17307E+06    -57.6305E+06    -8.41734E+06     2.25974E+06    -10.2915E-03     20.4871E-03    -10.1955E-03     2.65421E-03    -10.2416E-03     20.2244E-03    -10.1408E-03     2.68305E-03
            2134     890.968E-06     17.3905E-03    -9.42582E+06    -57.1361E+06    -9.23665E+06     1.44269E+06    -10.1820E-03     20.3321E-03    -10.1501E-03     1.41449E-03    -10.1328E-03     20.0735E-03    -10.0998E-03     1.43294E-03
            2135     16.8451E-03     16.9293E-03    -3.75970E+06     131.071E+06     45.6971E+06     311.521E+03    -27.9976E-03     43.0503E-03    -15.0527E-03     107.882E-03    -29.0566E-03     44.4288E-03    -15.0088E-03     108.144E-03
            2136     15.9679E-03     16.8142E-03    -4.10416E+06     81.6355E+06    -7.58538E+06     192.386E+03    -26.3188E-03     40.6206E-03    -14.3018E-03     101.067E-03    -27.0016E-03     41.6008E-03    -14.4521E-03     101.043E-03
            2137     15.0888E-03     16.7369E-03    -2.80010E+06     34.0431E+06    -8.35803E+06     510.420E+03    -23.0861E-03     36.9427E-03    -13.8566E-03     66.0203E-03    -23.2687E-03     37.2606E-03    -13.9437E-03     65.9587E-03
            2138     14.2072E-03     16.6883E-03    -2.24037E+06     2.81406E+06    -2.64264E+06     230.124E+03    -21.1898E-03     34.6582E-03    -13.4683E-03     48.0402E-03    -21.2477E-03     34.7258E-03    -13.4824E-03     47.9952E-03
            2139     13.3252E-03     16.6436E-03    -3.13201E+06    -29.3416E+06    -8.52979E+06    -115.528E+03    -20.0732E-03     33.1194E-03    -13.0462E-03     42.8333E-03    -20.0615E-03     33.0171E-03    -13.0417E-03     42.7963E-03
            2140     12.4422E-03     16.6044E-03    -3.82498E+06    -38.6946E+06    -3.05953E+06     649.930E+03    -18.7283E-03     31.3947E-03    -12.6664E-03     36.5396E-03    -18.7015E-03     31.2259E-03    -12.6200E-03     36.5246E-03
            2141     11.5581E-03     16.5719E-03    -3.69726E+06    -40.8502E+06    -177.485E+03     853.207E+03    -17.4622E-03     29.7513E-03    -12.2891E-03     30.6730E-03    -17.4289E-03     29.5605E-03    -12.2254E-03     30.6688E-03
            2142     10.6729E-03     16.5438E-03    -3.51830E+06    -49.2716E+06    -1.35741E+06     831.150E+03    -16.3440E-03     28.2717E-03    -11.9277E-03     26.0904E-03    -16.2926E-03     28.0369E-03    -11.8580E-03     26.0909E-03
            2143     9.78682E-03     16.5199E-03    -3.42651E+06    -54.0440E+06     1.02395E+06     1.06284E+06    -15.2497E-03     26.8580E-03    -11.6083E-03     22.0043E-03    -15.1925E-03     26.5939E-03    -11.5198E-03     22.0110E-03
            2144     8.89976E-03     16.4997E-03    -3.50858E+06    -54.2076E+06     2.61643E+06     1.44050E+06    -14.2243E-03     25.5368E-03    -11.3125E-03     18.3925E-03    -14.1686E-03     25.2686E-03    -11.2157E-03     18.4063E-03
            2145     8.01193E-03     16.4827E-03    -3.70962E+06    -55.8840E+06     2.85654E+06     2.37954E+06    -13.3255E-03     24.3733E-03    -11.0478E-03     15.2557E-03    -13.2681E-03     24.0960E-03    -10.9471E-03     15.2830E-03
            2146     7.12337E-03     16.4686E-03    -4.11642E+06    -57.9942E+06     2.56491E+06     3.49211E+06    -12.5567E-03     23.3722E-03    -10.8155E-03     12.5710E-03    -12.4975E-03     23.0850E-03    -10.7126E-03     12.6136E-03
            2147     6.23419E-03     16.4568E-03    -4.80940E+06    -58.3567E+06     1.37589E+06     4.29640E+06    -11.9039E-03     22.5126E-03    -10.6087E-03     10.2765E-03    -11.8457E-03     22.2262E-03    -10.5102E-03     10.3302E-03
            2148     5.34451E-03     16.4471E-03    -5.50506E+06    -57.2876E+06    -330.381E+03     4.38253E+06    -11.3554E-03     21.7830E-03    -10.4276E-03     8.29662E-03    -11.2996E-03     21.5052E-03    -10.3382E-03     8.35192E-03
            2149     4.45438E-03     16.4393E-03    -5.90730E+06    -56.2297E+06    -1.85251E+06     3.92612E+06    -10.9072E-03     21.1830E-03    -10.2758E-03     6.57121E-03    -10.8527E-03     20.9132E-03    -10.1949E-03     6.62096E-03
            2150     3.56392E-03     16.4331E-03    -6.11291E+06    -55.5410E+06    -3.38623E+06     3.48415E+06    -10.5505E-03     20.7020E-03    -10.1514E-03     5.03986E-03    -10.4957E-03     20.4381E-03    -10.0790E-03     5.08417E-03
            2151     2.67318E-03     16.4284E-03    -6.24163E+06    -54.9752E+06    -4.62627E+06     2.88722E+06    -10.2759E-03     20.3313E-03    -10.0554E-03     3.66960E-03    -10.2207E-03     20.0722E-03    -9.98979E-03     3.70640E-03
            2152     1.78223E-03     16.4252E-03    -6.46817E+06    -55.6038E+06    -5.32474E+06     2.08962E+06    -10.0854E-03     20.0754E-03    -9.98991E-03     2.41750E-03    -10.0295E-03     19.8144E-03    -9.92653E-03     2.44417E-03
            2153     891.150E-06     16.4231E-03    -6.68629E+06    -54.5812E+06    -6.18314E+06     1.19967E+06    -9.97278E-03     19.9155E-03    -9.94267E-03     1.29874E-03    -9.91810E-03     19.6612E-03    -9.88475E-03     1.31406E-03
            2154     16.8466E-03     15.9398E-03    -3.38924E+06     130.969E+06     46.3759E+06     412.939E+03    -28.7735E-03     43.7961E-03    -15.0225E-03     105.755E-03    -29.7974E-03     45.1385E-03    -14.9757E-03     105.980E-03
            2155     15.9694E-03     15.8288E-03    -4.32582E+06     81.9392E+06    -7.46049E+06    -37.1562E+03    -26.5750E-03     40.8081E-03    -14.2331E-03     97.8968E-03    -27.2262E-03     41.7566E-03    -14.3829E-03     97.8570E-03
            2156     15.0895E-03     15.7540E-03    -4.49106E+06     33.7727E+06    -10.3913E+06    -751.251E+03    -23.3775E-03     37.1313E-03    -13.7538E-03     63.7254E-03    -23.5565E-03     37.4445E-03    -13.8482E-03     63.6465E-03
            2157     14.2092E-03     15.7069E-03    -4.33263E+06     2.60396E+06    -3.62788E+06     375.371E+03    -21.4501E-03     34.7944E-03    -13.3444E-03     46.3848E-03    -21.5140E-03     34.8629E-03    -13.3600E-03     46.3418E-03
            2158     13.3273E-03     15.6642E-03    -3.83732E+06    -29.0229E+06    -8.31614E+06     933.306E+03    -20.0537E-03     32.9606E-03    -12.9069E-03     41.2106E-03    -20.0444E-03     32.8588E-03    -12.9008E-03     41.1882E-03
            2159     12.4440E-03     15.6267E-03    -3.49730E+06    -39.0096E+06    -3.37116E+06     276.839E+03    -18.6571E-03     31.1722E-03    -12.5150E-03     35.0830E-03    -18.6266E-03     31.0006E-03    -12.4702E-03     35.0642E-03
            2160     11.5598E-03     15.5955E-03    -3.21879E+06    -40.8693E+06     137.114E+03     447.869E+03    -17.4280E-03     29.5591E-03    -12.1311E-03     29.2138E-03    -17.3921E-03     29.3664E-03    -12.0665E-03     29.2050E-03
            2161     10.6747E-03     15.5689E-03    -3.27245E+06    -49.3021E+06    -1.03610E+06     650.049E+03    -16.2838E-03     28.0431E-03    -11.7593E-03     24.5745E-03    -16.2312E-03     27.8069E-03    -11.6882E-03     24.5731E-03
            2162     9.78842E-03     15.5464E-03    -3.40057E+06    -54.0600E+06     1.47004E+06     619.717E+03    -15.1680E-03     26.5982E-03    -11.4302E-03     20.4907E-03    -15.1110E-03     26.3330E-03    -11.3395E-03     20.4921E-03
            2163     8.90137E-03     15.5275E-03    -3.54111E+06    -54.7921E+06     3.12710E+06     955.720E+03    -14.1360E-03     25.2605E-03    -11.1246E-03     16.9000E-03    -14.0801E-03     24.9886E-03    -11.0244E-03     16.9078E-03
            2164     8.01343E-03     15.5117E-03    -3.85605E+06    -57.0123E+06     3.11171E+06     1.90658E+06    -13.2194E-03     24.0672E-03    -10.8478E-03     13.8408E-03    -13.1613E-03     23.7840E-03    -10.7440E-03     13.8623E-03
            2165     7.12478E-03     15.4984E-03    -4.27928E+06    -58.6805E+06     2.94877E+06     3.11350E+06    -12.4263E-03     23.0301E-03    -10.6038E-03     11.2677E-03    -12.3674E-03     22.7391E-03    -10.4977E-03     11.3057E-03
            2166     6.23549E-03     15.4875E-03    -4.51272E+06    -58.1183E+06     2.43485E+06     3.73367E+06    -11.7435E-03     22.1309E-03    -10.3874E-03     9.10221E-03    -11.6856E-03     21.8436E-03    -10.2844E-03     9.14881E-03
            2167     5.34567E-03     15.4785E-03    -4.45787E+06    -56.1462E+06     1.22448E+06     3.64487E+06    -11.1643E-03     21.3615E-03    -10.1973E-03     7.27925E-03    -11.1071E-03     21.0857E-03    -10.1033E-03     7.32515E-03
            2168     4.45538E-03     15.4712E-03    -4.48890E+06    -54.9708E+06    -334.578E+03     3.28665E+06    -10.6933E-03     20.7312E-03    -10.0379E-03     5.72206E-03    -10.6357E-03     20.4634E-03    -9.95333E-03     5.76366E-03
            2169     3.56474E-03     15.4655E-03    -4.56979E+06    -54.1700E+06    -1.85580E+06     2.81165E+06    -10.3211E-03     20.2297E-03    -9.90862E-03     4.36724E-03    -10.2627E-03     19.9682E-03    -9.83272E-03     4.40293E-03
            2170     2.67380E-03     15.4612E-03       -4.52E+06    -53.3790E+06    -2.90295E+06     2.35573E+06    -10.0391E-03     19.8484E-03    -9.80937E-03     3.17620E-03    -9.98009E-03     19.5923E-03    -9.73993E-03     3.20619E-03
            2171     1.78266E-03     15.4581E-03    -4.53259E+06    -53.6110E+06    -3.36553E+06     1.69230E+06    -9.84462E-03     19.5846E-03    -9.74001E-03     2.08729E-03    -9.78468E-03     19.3280E-03    -9.67253E-03     2.10887E-03
            2172     891.357E-06     15.4563E-03    -4.63864E+06    -52.5950E+06    -4.14804E+06     807.030E+03    -9.70900E-03     19.4112E-03    -9.70218E-03     1.11198E-03    -9.64991E-03     19.1610E-03    -9.63993E-03     1.12226E-03
            2173     16.8460E-03     14.9496E-03    -3.55840E+06     130.414E+06     46.6612E+06     334.017E+03    -29.4327E-03     44.4437E-03    -15.0110E-03     103.370E-03    -30.4225E-03     45.7486E-03    -14.9616E-03     103.559E-03
            2174     15.9698E-03     14.8429E-03    -5.21503E+06     82.9974E+06    -7.89019E+06     271.272E+03    -27.1717E-03     41.3458E-03    -14.1742E-03     94.1937E-03    -27.7930E-03     42.2664E-03    -14.3264E-03     94.1404E-03
            2175     15.0917E-03     14.7709E-03    -5.64236E+06     34.4369E+06    -11.6206E+06    -372.754E+03    -23.6682E-03     37.3241E-03    -13.6560E-03     61.1670E-03    -23.8424E-03     37.6344E-03    -13.7558E-03     61.0921E-03
            2176     14.2107E-03     14.7255E-03    -5.26495E+06     927.054E+03    -5.60523E+06    -430.209E+03    -21.5027E-03     34.7287E-03    -13.2260E-03     44.5669E-03    -21.5626E-03     34.7895E-03    -13.2477E-03     44.5148E-03
            2177     13.3288E-03     14.6849E-03    -3.82008E+06    -28.7443E+06    -9.35206E+06     149.484E+03    -20.1392E-03     32.9138E-03    -12.7745E-03     39.4261E-03    -20.1267E-03     32.8128E-03    -12.7741E-03     39.3945E-03
            2178     12.4457E-03     14.6491E-03    -3.11289E+06    -38.7125E+06    -3.25558E+06     286.241E+03    -18.7716E-03     31.1411E-03    -12.3695E-03     33.3169E-03    -18.7386E-03     30.9691E-03    -12.3251E-03     33.2990E-03
            2179     11.5617E-03     14.6193E-03    -3.33726E+06    -41.2794E+06     243.211E+03     258.440E+03    -17.4917E-03     29.4590E-03    -11.9673E-03     27.3755E-03    -17.4553E-03     29.2635E-03    -11.9014E-03     27.3649E-03
            2180     10.6765E-03     14.5943E-03    -3.32008E+06    -49.0760E+06    -449.493E+03     360.932E+03    -16.3402E-03     27.9162E-03    -11.5760E-03     22.6527E-03    -16.2885E-03     27.6798E-03    -11.5022E-03     22.6481E-03
            2181     9.79045E-03     14.5731E-03    -3.18146E+06    -53.9109E+06     2.10044E+06     147.237E+03    -15.2118E-03     26.4352E-03    -11.2233E-03     18.5268E-03    -15.1546E-03     26.1692E-03    -11.1301E-03     18.5225E-03
            2182     8.90337E-03     14.5555E-03    -3.34710E+06    -55.5946E+06     3.94041E+06     494.040E+03    -14.1344E-03     25.0297E-03    -10.8952E-03     14.9544E-03    -14.0774E-03     24.7520E-03    -10.7901E-03     14.9565E-03
            2183     8.01547E-03     14.5408E-03    -3.93119E+06    -58.2976E+06     4.02956E+06     1.70656E+06    -13.1647E-03     23.7603E-03    -10.5956E-03     11.9839E-03    -13.1063E-03     23.4693E-03    -10.4852E-03     12.0030E-03
            2184     7.12676E-03     14.5286E-03    -4.66361E+06    -59.1002E+06     3.40044E+06     2.63617E+06    -12.3002E-03     22.6261E-03    -10.3259E-03     9.56263E-03    -12.2431E-03     22.3328E-03    -10.2165E-03     9.59462E-03
            2185     6.23736E-03     14.5185E-03    -5.02865E+06    -57.5099E+06     2.20548E+06     2.69032E+06    -11.5464E-03     21.6327E-03    -10.0863E-03     7.59173E-03    -11.4916E-03     21.3495E-03    -9.98457E-03     7.62503E-03
            2186     5.34735E-03     14.5103E-03    -5.06752E+06    -55.4113E+06     972.449E+03     2.50035E+06    -10.9111E-03     20.7932E-03    -9.88211E-03     5.98929E-03    -10.8577E-03     20.5222E-03    -9.78956E-03     6.02056E-03
            2187     4.45683E-03     14.5036E-03    -4.98602E+06    -54.0133E+06    -624.989E+03     2.38684E+06    -10.3991E-03     20.1117E-03    -9.71261E-03     4.66099E-03    -10.3449E-03     19.8498E-03    -9.63019E-03     4.69108E-03
            2188     3.56590E-03     14.4984E-03    -4.92354E+06    -52.9880E+06    -2.08373E+06     2.05912E+06    -10.0037E-03     19.5812E-03    -9.57743E-03     3.52906E-03    -9.94853E-03     19.3264E-03    -9.50388E-03     3.55513E-03
            2189     2.67468E-03     14.4944E-03    -4.90943E+06    -52.2515E+06    -3.18367E+06     1.68219E+06    -9.71283E-03     19.1869E-03    -9.47410E-03     2.55140E-03    -9.65702E-03     18.9374E-03    -9.40714E-03     2.57277E-03
            2190     1.78324E-03     14.4916E-03    -4.77575E+06    -51.8815E+06    -4.18007E+06     1.14493E+06    -9.51419E-03     18.9109E-03    -9.39674E-03     1.66862E-03    -9.45679E-03     18.6645E-03    -9.33548E-03     1.68318E-03
            2191     891.690E-06     14.4899E-03    -4.53336E+06    -51.3026E+06    -4.45065E+06     445.371E+03    -9.38078E-03     18.7276E-03    -9.34679E-03     852.018E-06    -9.32260E-03     18.4841E-03    -9.28809E-03     857.657E-06
            2192     16.8463E-03     13.9585E-03    -3.76759E+06     130.058E+06     48.4130E+06     427.034E+03    -30.1310E-03     45.1345E-03    -15.0035E-03     100.386E-03    -31.0832E-03     46.3947E-03    -14.9445E-03     100.540E-03
            2193     15.9713E-03     13.8557E-03    -5.51947E+06     83.5928E+06    -6.56423E+06     539.002E+03    -27.6542E-03     41.7754E-03    -14.1212E-03     89.6251E-03    -28.2381E-03     42.6557E-03    -14.2672E-03     89.5586E-03
            2194     15.0925E-03     13.7877E-03    -4.85931E+06     35.5972E+06    -11.9756E+06     132.809E+03    -23.8244E-03     37.3870E-03    -13.5626E-03     58.2321E-03    -23.9853E-03     37.6919E-03    -13.6671E-03     58.1641E-03
            2195     14.2122E-03     13.7444E-03    -4.44555E+06     816.443E+03    -6.99408E+06    -1.03134E+06    -21.6471E-03     34.7579E-03    -13.1108E-03     42.5991E-03    -21.6972E-03     34.8155E-03    -13.1405E-03     42.5405E-03
            2196     13.3304E-03     13.7054E-03    -4.22043E+06    -29.8014E+06    -11.2732E+06    -943.790E+03    -20.4249E-03     33.0608E-03    -12.6359E-03     37.3232E-03    -20.4080E-03     32.9559E-03    -12.6429E-03     37.2782E-03
            2197     12.4478E-03     13.6712E-03    -3.40527E+06    -38.8598E+06    -3.38968E+06     204.627E+03    -19.0466E-03     31.2530E-03    -12.2064E-03     31.0795E-03    -19.0134E-03     31.0797E-03    -12.1620E-03     31.0610E-03
            2198     11.5638E-03     13.6433E-03    -3.34481E+06    -41.1763E+06     594.543E+03     296.868E+03    -17.7162E-03     29.4879E-03    -11.7716E-03     25.1814E-03    -17.6797E-03     29.2916E-03    -11.7041E-03     25.1719E-03
            2199     10.6789E-03     13.6195E-03    -3.51866E+06    -48.7730E+06     156.300E+03    -127.644E+03    -16.5455E-03     27.8904E-03    -11.3448E-03     20.3254E-03    -16.4957E-03     27.6545E-03    -11.2682E-03     20.3148E-03
            2200     9.79302E-03     13.6000E-03    -3.55874E+06    -53.7422E+06     2.86867E+06    -344.906E+03    -15.3488E-03     26.3031E-03    -10.9543E-03     16.1273E-03    -15.2945E-03     26.0371E-03    -10.8568E-03     16.1169E-03
            2201     8.90613E-03     13.5836E-03    -4.13130E+06    -56.9504E+06     4.46216E+06     365.697E+03    -14.1754E-03     24.7648E-03    -10.5893E-03     12.6209E-03    -14.1209E-03     24.4805E-03    -10.4784E-03     12.6216E-03
            2202     8.01823E-03     13.5703E-03    -5.17826E+06    -59.4201E+06     4.14807E+06     1.69238E+06    -13.0945E-03     23.3475E-03    -10.2529E-03     9.82180E-03    -13.0408E-03     23.0524E-03    -10.1385E-03     9.84093E-03
            2203     7.12945E-03     13.5592E-03    -6.05035E+06    -58.8976E+06     2.88474E+06     2.14226E+06    -12.1229E-03     22.0714E-03    -9.94850E-03     7.62529E-03    -12.0722E-03     21.7818E-03    -9.83991E-03     7.65109E-03
            2204     6.23985E-03     13.5502E-03    -6.60765E+06    -56.7718E+06     741.833E+03     1.85034E+06    -11.2743E-03     20.9542E-03    -9.67995E-03     5.90736E-03    -11.2262E-03     20.6790E-03    -9.58434E-03     5.92997E-03
            2205     5.34957E-03     13.5427E-03    -6.95347E+06    -54.8992E+06    -1.13727E+06     1.51658E+06    -10.5715E-03     20.0271E-03    -9.45559E-03     4.56664E-03    -10.5251E-03     19.7644E-03    -9.37159E-03     4.58534E-03
            2206     4.45873E-03     13.5368E-03    -7.01598E+06    -53.4272E+06    -2.76113E+06     1.31081E+06    -10.0104E-03     19.2835E-03    -9.27312E-03     3.48496E-03    -9.96408E-03     19.0306E-03    -9.19928E-03     3.50127E-03
            2207     3.56745E-03     13.5320E-03    -6.86004E+06    -52.2321E+06    -4.03838E+06     1.18350E+06    -9.58003E-03     18.7099E-03    -9.12984E-03     2.60585E-03    -9.53277E-03     18.4645E-03    -9.06435E-03     2.62071E-03
            2208     2.67587E-03     13.5284E-03    -6.65743E+06    -51.4009E+06    -5.06508E+06     932.520E+03    -9.26925E-03     18.2909E-03    -9.02168E-03     1.87246E-03    -9.22068E-03     18.0509E-03    -8.96282E-03     1.88422E-03
            2209     1.78405E-03     13.5259E-03    -6.41608E+06    -50.8175E+06    -5.80657E+06     586.183E+03    -9.05447E-03     18.0000E-03    -8.94556E-03     1.22671E-03    -9.00446E-03     17.7637E-03    -8.89160E-03     1.23410E-03
            2210     892.050E-06     13.5244E-03    -6.32323E+06    -50.5151E+06    -6.22312E+06     249.588E+03    -8.95407E-03     17.8287E-03    -8.87458E-03     612.380E-06    -8.90342E-03     17.5943E-03    -8.82328E-03     615.514E-06
            2211     16.8472E-03     12.9658E-03    -3.67161E+06     129.686E+06     50.0357E+06     796.799E+03    -30.8317E-03     45.8138E-03    -14.9821E-03     97.7410E-03    -31.7436E-03     47.0281E-03    -14.9146E-03     97.8639E-03
            2212     15.9721E-03     12.8688E-03    -4.86702E+06     84.2184E+06    -4.84428E+06     663.733E+03    -27.8981E-03     41.9611E-03    -14.0630E-03     84.8606E-03    -28.4386E-03     42.7976E-03    -14.2023E-03     84.7827E-03
            2213     15.0942E-03     12.8043E-03    -4.58410E+06     36.6070E+06    -13.1632E+06    -300.883E+03    -24.0502E-03     37.5149E-03    -13.4647E-03     55.0119E-03    -24.1991E-03     37.8158E-03    -13.5770E-03     54.9386E-03
            2214     14.2136E-03     12.7633E-03    -4.25501E+06     1.46605E+06    -7.95752E+06    -875.341E+03    -22.0948E-03     35.0786E-03    -12.9838E-03     40.3573E-03    -22.1402E-03     35.1373E-03    -13.0196E-03     40.3010E-03
            2215     13.3325E-03     12.7253E-03    -4.00663E+06    -30.6842E+06    -12.0235E+06    -928.299E+03    -20.8760E-03     33.3476E-03    -12.4715E-03     34.7870E-03    -20.8536E-03     33.2369E-03    -12.4814E-03     34.7426E-03
            2216     12.4502E-03     12.6936E-03    -3.89047E+06    -39.8908E+06    -4.07812E+06    -295.438E+03    -19.4689E-03     31.4670E-03    -11.9981E-03     28.4266E-03    -19.4344E-03     31.2890E-03    -11.9550E-03     28.4022E-03
            2217     11.5667E-03     12.6668E-03    -3.77357E+06    -40.8095E+06     1.21545E+06     182.607E+03    -18.1286E-03     29.6455E-03    -11.5169E-03     22.4769E-03    -18.0949E-03     29.4501E-03    -11.4462E-03     22.4663E-03
            2218     10.6822E-03     12.6449E-03    -4.02877E+06    -48.1484E+06     1.06673E+06    -287.952E+03    -16.8223E-03     27.8606E-03    -11.0383E-03     17.5308E-03    -16.7767E-03     27.6268E-03    -10.9574E-03     17.5186E-03
            2219     9.79659E-03     12.6268E-03    -4.75009E+06    -53.9819E+06     3.82796E+06    -478.948E+03    -15.4748E-03     26.0759E-03    -10.6011E-03     13.3823E-03    -15.4272E-03     25.8088E-03    -10.4968E-03     13.3705E-03
            2220     8.90979E-03     12.6122E-03    -5.89999E+06    -58.5982E+06     5.22281E+06     543.753E+03    -14.1560E-03     24.3501E-03    -10.1942E-03     10.0776E-03    -14.1088E-03     24.0589E-03    -10.0745E-03     10.0809E-03
            2221     8.02186E-03     12.6002E-03    -7.09621E+06    -60.0505E+06     3.84421E+06     1.57116E+06    -12.9424E-03     22.7560E-03    -9.81362E-03     7.56469E-03    -12.8967E-03     22.4609E-03    -9.69703E-03     7.58245E-03
            2222     7.13290E-03     12.5905E-03    -7.95919E+06    -58.3214E+06     1.50247E+06     1.61368E+06    -11.8588E-03     21.3295E-03    -9.47071E-03     5.64499E-03    -11.8164E-03     21.0475E-03    -9.36709E-03     5.66413E-03
            2223     6.24304E-03     12.5825E-03    -8.55594E+06    -56.0579E+06    -927.455E+03     1.16733E+06    -10.9277E-03     20.1023E-03    -9.17456E-03     4.21253E-03    -10.8880E-03     19.8359E-03    -9.08550E-03     4.22645E-03
            2224     5.35242E-03     12.5760E-03    -8.92813E+06    -54.3262E+06    -3.12932E+06     710.668E+03    -10.1594E-03     19.0862E-03    -8.92684E-03     3.13949E-03    -10.1208E-03     18.8321E-03    -8.85077E-03     3.14788E-03
            2225     4.46120E-03     12.5707E-03    -9.09111E+06    -53.0783E+06    -5.11803E+06     392.940E+03    -9.54007E-03     18.2651E-03    -8.72507E-03     2.30803E-03    -9.50119E-03     18.0204E-03    -8.66051E-03     2.31257E-03
            2226     3.56949E-03     12.5666E-03    -9.06303E+06    -51.9119E+06    -6.47448E+06     251.317E+03    -9.05962E-03     17.6282E-03    -8.56859E-03     1.68888E-03    -9.02031E-03     17.3912E-03    -8.51255E-03     1.69176E-03
            2227     2.67737E-03     12.5634E-03    -8.89914E+06    -50.9562E+06    -7.34483E+06     166.079E+03    -8.71149E-03     17.1657E-03    -8.45417E-03     1.19231E-03    -8.67147E-03     16.9344E-03    -8.40410E-03     1.19421E-03
            2228     1.78504E-03     12.5612E-03    -8.80958E+06    -50.4310E+06    -8.07419E+06     90.0062E+03    -8.48028E-03     16.8582E-03    -8.37796E-03     767.319E-06    -8.43951E-03     16.6306E-03    -8.33243E-03     768.332E-06
            2229     892.540E-06     12.5598E-03    -8.78289E+06    -50.2099E+06    -8.51028E+06     77.4983E+03    -8.38754E-03     16.6950E-03    -8.30750E-03     385.218E-06    -8.34632E-03     16.4691E-03    -8.26451E-03     386.143E-06
            2230     16.8474E-03     11.9734E-03    -3.68940E+06     128.727E+06     50.5708E+06     1.01404E+06    -31.4090E-03     46.3657E-03    -14.9567E-03     94.7122E-03    -32.2770E-03     47.5312E-03    -14.8852E-03     94.8027E-03
            2231     15.9734E-03     11.8806E-03    -5.11374E+06     85.2789E+06    -3.79908E+06     890.601E+03    -28.2755E-03     42.2773E-03    -14.0018E-03     79.8327E-03    -28.7794E-03     43.0771E-03    -14.1370E-03     79.7457E-03
            2232     15.0953E-03     11.8215E-03    -5.31069E+06     38.2522E+06    -14.1582E+06    -527.010E+03    -24.6782E-03     38.0299E-03    -13.3517E-03     51.6084E-03    -24.8223E-03     38.3322E-03    -13.4702E-03     51.5307E-03
            2233     14.2159E-03     11.7806E-03    -4.97645E+06     1.26636E+06    -9.28828E+06    -964.824E+03    -22.7758E-03     35.5957E-03    -12.8200E-03     37.7190E-03    -22.8194E-03     35.6532E-03    -12.8610E-03     37.6613E-03
            2234     13.3354E-03     11.7458E-03    -4.55080E+06    -31.0642E+06    -12.1665E+06    -514.116E+03    -21.4957E-03     33.7523E-03    -12.2566E-03     31.7736E-03    -21.4730E-03     33.6386E-03    -12.2658E-03     31.7348E-03
            2235     12.4535E-03     11.7150E-03    -4.86783E+06    -40.4860E+06    -4.05888E+06    -207.270E+03    -20.0555E-03     31.7786E-03    -11.7231E-03     25.3704E-03    -20.0238E-03     31.5978E-03    -11.6777E-03     25.3474E-03
            2236     11.5708E-03     11.6905E-03    -5.31380E+06    -40.7125E+06     1.81185E+06    -151.437E+03    -18.5483E-03     29.7297E-03    -11.1815E-03     19.3782E-03    -18.5225E-03     29.5355E-03    -11.1057E-03     19.3636E-03
            2237     10.6866E-03     11.6702E-03    -5.66946E+06    -47.4106E+06     1.82427E+06    -412.374E+03    -16.9994E-03     27.6462E-03    -10.6468E-03     14.5686E-03    -16.9638E-03     27.4169E-03    -10.5607E-03     14.5551E-03
            2238     9.80109E-03     11.6541E-03    -6.47438E+06    -54.6983E+06     4.42177E+06    -260.908E+03    -15.4462E-03     25.6118E-03    -10.1656E-03     10.6756E-03    -15.4068E-03     25.3425E-03    -10.0548E-03     10.6669E-03
            2239     8.91418E-03     11.6412E-03    -7.88129E+06    -59.9430E+06     5.72892E+06     704.372E+03    -13.9873E-03     23.7104E-03    -9.72305E-03     7.71715E-03    -13.9487E-03     23.4144E-03    -9.59606E-03     7.72270E-03
            2240     8.02609E-03     11.6309E-03    -9.11876E+06    -60.0925E+06     3.30801E+06     1.21087E+06    -12.6647E-03     21.9698E-03    -9.30514E-03     5.56532E-03    -12.6282E-03     21.6781E-03    -9.18824E-03     5.57859E-03
            2241     7.13686E-03     11.6225E-03    -9.87561E+06    -57.6983E+06    -6.38585E+03     945.892E+03    -11.5027E-03     20.4332E-03    -8.93051E-03     3.98373E-03    -11.4686E-03     20.1593E-03    -8.83256E-03     3.99435E-03
            2242     6.24667E-03     11.6158E-03    -10.3792E+06    -55.4173E+06    -2.52437E+06     482.900E+03    -10.5192E-03     19.1296E-03    -8.61034E-03     2.85737E-03    -10.4872E-03     18.8713E-03    -8.52756E-03     2.86251E-03
            2243     5.35568E-03     11.6103E-03    -10.8878E+06    -53.8361E+06    -4.98649E+06     49.4044E+03    -9.70056E-03     18.0399E-03    -8.33938E-03     2.03477E-03    -9.66977E-03     17.7938E-03    -8.27047E-03     2.03465E-03
            2244     4.46400E-03     11.6059E-03    -11.3156E+06    -52.8290E+06     -7.3589E+06    -249.579E+03    -9.03086E-03     17.1462E-03    -8.11535E-03     1.41824E-03    -9.00020E-03     16.9092E-03    -8.05913E-03     1.41449E-03
            2245     3.57178E-03     11.6023E-03    -11.5674E+06    -51.8431E+06    -9.05689E+06    -427.976E+03    -8.50312E-03     16.4416E-03    -7.93844E-03     982.740E-06    -8.47268E-03     16.2122E-03    -7.89177E-03     976.851E-06
            2246     2.67918E-03     11.5996E-03    -11.6715E+06    -51.0191E+06    -10.2132E+06    -437.834E+03    -8.10830E-03     15.9148E-03    -7.80655E-03     652.223E-06    -8.07789E-03     15.6915E-03    -7.76671E-03     646.329E-06
            2247     1.78625E-03     11.5976E-03    -11.7009E+06    -50.5566E+06    -11.0915E+06    -271.967E+03    -7.84375E-03     15.5601E-03    -7.71634E-03     394.786E-06    -7.81288E-03     15.3403E-03    -7.68152E-03     391.125E-06
            2248     893.176E-06     11.5964E-03    -11.7021E+06    -50.2681E+06    -11.5875E+06    -127.230E+03    -7.71585E-03     15.3597E-03    -7.64388E-03     200.165E-06    -7.68468E-03     15.1422E-03    -7.61196E-03     198.445E-06
            2249     16.8484E-03     10.9795E-03    -3.67110E+06     127.543E+06     50.7056E+06     1.02923E+06    -32.1110E-03     47.0337E-03    -14.9228E-03     90.9507E-03    -32.9316E-03     48.1473E-03    -14.8489E-03     91.0037E-03
            2250     15.9740E-03     10.8932E-03    -5.65609E+06     86.4291E+06    -3.03014E+06     1.28419E+06    -28.9119E-03     42.8327E-03    -13.9207E-03     74.4463E-03    -29.3822E-03     43.5988E-03    -14.0530E-03     74.3517E-03
            2251     15.0977E-03     10.8363E-03    -6.26209E+06     40.2378E+06    -13.7399E+06     53.3783E+03    -25.5531E-03     38.7639E-03    -13.2108E-03     47.8737E-03    -25.6965E-03     39.0679E-03    -13.3288E-03     47.8014E-03
            2252     14.2190E-03     10.7987E-03    -6.41448E+06     1.04321E+06    -9.69445E+06    -663.649E+03    -23.6715E-03     36.2818E-03    -12.6103E-03     34.8182E-03    -23.7184E-03     36.3378E-03    -12.6510E-03     34.7638E-03
            2253     13.3390E-03     10.7647E-03    -6.41795E+06    -31.5637E+06    -12.6157E+06    -293.140E+03    -22.2964E-03     34.2703E-03    -11.9739E-03     28.5575E-03    -22.2795E-03     34.1553E-03    -11.9819E-03     28.5218E-03
            2254     12.4583E-03     10.7367E-03    -6.26656E+06    -40.6432E+06    -3.73313E+06     46.0857E+03    -20.5953E-03     31.9672E-03    -11.3719E-03     22.1088E-03    -20.5697E-03     31.7860E-03    -11.3225E-03     22.0895E-03
            2255     11.5757E-03     10.7137E-03    -6.75245E+06    -40.2229E+06     2.88418E+06    -244.707E+03    -18.7421E-03     29.5169E-03    -10.7749E-03     16.3358E-03    -18.7251E-03     29.3250E-03    -10.6923E-03     16.3207E-03
            2256     10.6917E-03     10.6960E-03    -7.48117E+06    -47.0803E+06     2.72051E+06    -704.306E+03    -16.9216E-03     27.1201E-03    -10.1984E-03     11.8227E-03    -16.8965E-03     26.8934E-03    -10.1057E-03     11.8060E-03
            2257     9.80596E-03     10.6818E-03    -8.40714E+06    -55.8051E+06     4.22630E+06    -154.099E+03    -15.1870E-03     24.8731E-03    -9.68612E-03     8.38032E-03    -15.1551E-03     24.6011E-03    -9.57188E-03     8.37334E-03
            2258     8.91887E-03     10.6710E-03    -9.65825E+06    -60.6847E+06      4.8629E+06     708.802E+03    -13.6267E-03     22.8475E-03    -9.22080E-03     5.84697E-03    -13.5945E-03     22.5516E-03    -9.09449E-03     5.85276E-03
            2259     8.03039E-03     10.6623E-03    -10.8505E+06    -59.6537E+06     2.07616E+06     710.498E+03    -12.2394E-03     21.0255E-03    -8.78611E-03     4.10938E-03    -12.2104E-03     20.7403E-03    -8.67350E-03     4.11628E-03
            2260     7.14079E-03     10.6555E-03    -11.6760E+06    -57.0938E+06    -1.25651E+06     196.088E+03    -11.0535E-03     19.4539E-03    -8.40043E-03     2.91140E-03    -11.0274E-03     19.1874E-03    -8.30700E-03     2.91237E-03
            2261     6.25018E-03     10.6500E-03    -12.2842E+06    -55.0078E+06    -4.02309E+06    -220.123E+03    -10.0647E-03     18.1324E-03    -8.06773E-03     2.08232E-03    -10.0406E-03     17.8812E-03    -7.99027E-03     2.07839E-03
            2262     5.35877E-03     10.6456E-03    -12.8526E+06    -53.6007E+06    -6.72661E+06    -431.769E+03    -9.23724E-03     17.0188E-03    -7.78155E-03     1.45886E-03    -9.21410E-03     16.7792E-03    -7.71882E-03     1.45251E-03
            2263     4.46668E-03     10.6420E-03    -13.4603E+06    -52.6778E+06    -9.27929E+06    -633.992E+03    -8.55033E-03     16.0898E-03    -7.53948E-03     1.00005E-03    -8.52784E-03     15.8594E-03    -7.48998E-03     991.297E-06
            2264     3.57405E-03     10.6392E-03    -14.0004E+06    -51.9491E+06    -11.4697E+06    -767.169E+03    -7.99331E-03     15.3336E-03    -7.34034E-03     681.582E-06    -7.97138E-03     15.1109E-03    -7.30206E-03     671.275E-06
            2265     2.68092E-03     10.6370E-03    -14.4609E+06    -51.4046E+06    -13.1499E+06    -668.772E+03    -7.56044E-03     14.7439E-03    -7.18348E-03     441.650E-06    -7.53916E-03     14.5269E-03    -7.15372E-03     432.739E-06
            2266     1.78750E-03     10.6354E-03    -14.7920E+06    -50.9744E+06    -14.2478E+06    -437.088E+03    -7.24355E-03     14.3122E-03    -7.06862E-03     251.388E-06    -7.22295E-03     14.0994E-03    -7.04450E-03     245.569E-06
            2267     893.793E-06     10.6344E-03    -14.9397E+06    -50.5626E+06    -14.7747E+06    -193.471E+03    -7.05759E-03     14.0403E-03    -6.98275E-03     131.537E-06    -7.03756E-03     13.8306E-03    -6.96165E-03     128.945E-06
            2268     16.8489E-03     9.98594E-03    -3.87544E+06     126.312E+06     51.7507E+06     1.17682E+06    -33.1911E-03     48.0694E-03    -14.8783E-03     86.9648E-03    -33.9677E-03     49.1308E-03    -14.7971E-03     86.9784E-03
            2269     15.9766E-03     9.90379E-03    -5.90340E+06     87.2494E+06    -356.488E+03     1.71199E+06    -29.8747E-03     43.6887E-03    -13.8139E-03     68.9485E-03    -30.3141E-03     44.4182E-03    -13.9337E-03     68.8445E-03
            2270     15.1002E-03     9.85152E-03    -6.28243E+06     41.8715E+06    -11.9519E+06     960.166E+03    -26.5386E-03     39.5651E-03    -13.0265E-03     43.9755E-03    -26.6786E-03     39.8662E-03    -13.1378E-03     43.9127E-03
            2271     14.2225E-03     9.81492E-03    -6.71889E+06     1.40330E+06    -8.75343E+06     226.779E+03    -24.6786E-03     37.0243E-03    -12.3457E-03     31.5419E-03    -24.7258E-03     37.0782E-03    -12.3818E-03     31.4984E-03
            2272     13.3442E-03     9.78371E-03    -7.35320E+06    -31.6251E+06    -11.8802E+06     99.8116E+03    -22.9821E-03     34.6148E-03    -11.6327E-03     25.1788E-03    -22.9688E-03     34.4978E-03    -11.6356E-03     25.1487E-03
            2273     12.4634E-03     9.75785E-03    -7.54964E+06    -40.7447E+06    -3.04617E+06    -77.8303E+03    -20.8333E-03     31.8043E-03    -10.9709E-03     18.9510E-03    -20.8138E-03     31.6223E-03    -10.9161E-03     18.9310E-03
            2274     11.5812E-03     9.73777E-03    -7.95512E+06    -39.4675E+06     4.30372E+06    -450.612E+03    -18.5878E-03     28.9276E-03    -10.3398E-03     13.6076E-03    -18.5795E-03     28.7386E-03    -10.2495E-03     13.5906E-03
            2275     10.6967E-03     9.72228E-03    -8.78584E+06    -47.0110E+06     4.23654E+06    -824.240E+03    -16.5183E-03     26.2681E-03    -9.74975E-03     9.58619E-03    -16.5017E-03     26.0412E-03    -9.64766E-03     9.56844E-03
            2276     9.81075E-03     9.71061E-03    -9.90392E+06    -57.0451E+06     4.79322E+06    -302.250E+03    -14.6713E-03     23.9051E-03    -9.23387E-03     6.71397E-03    -14.6458E-03     23.6282E-03    -9.11283E-03     6.70535E-03
            2277     8.92305E-03     9.70158E-03    -11.0568E+06    -61.0104E+06     4.35517E+06     421.009E+03    -13.0528E-03     21.8224E-03    -8.76963E-03     4.70408E-03    -13.0264E-03     21.5276E-03    -8.64336E-03     4.70628E-03
            2278     8.03413E-03     9.69482E-03    -12.1204E+06    -58.8948E+06     1.13831E+06     180.850E+03    -11.6718E-03     20.0156E-03    -8.34381E-03     3.41191E-03    -11.6489E-03     19.7374E-03    -8.23514E-03     3.41202E-03
            2279     7.14397E-03     9.68941E-03    -13.0118E+06    -56.5780E+06    -2.34227E+06    -463.753E+03    -10.5302E-03     18.5009E-03    -7.97068E-03     2.60344E-03    -10.5100E-03     18.2405E-03    -7.88149E-03     2.59588E-03
            2280     6.25295E-03     9.68518E-03    -13.7947E+06    -54.8765E+06    -5.46405E+06    -784.383E+03    -9.58994E-03     17.2369E-03    -7.64694E-03     2.02163E-03    -9.57154E-03     16.9906E-03    -7.57469E-03     2.01037E-03
            2281     5.36114E-03     9.68176E-03    -14.5056E+06    -53.6154E+06    -8.31777E+06    -883.672E+03    -8.80216E-03     16.1684E-03    -7.36627E-03     1.58781E-03    -8.78497E-03     15.9335E-03    -7.30909E-03     1.57556E-03
            2282     4.46870E-03     9.67910E-03    -15.1432E+06    -52.7719E+06    -10.9440E+06    -868.984E+03    -8.14850E-03     15.2732E-03    -7.12473E-03     1.23636E-03    -8.13188E-03     15.0473E-03    -7.08098E-03     1.22452E-03
            2283     3.57565E-03     9.67700E-03    -15.8743E+06    -52.2683E+06    -13.4047E+06    -740.915E+03    -7.60333E-03     14.5236E-03    -6.92022E-03     955.521E-06    -7.58751E-03     14.3047E-03    -6.88844E-03     945.506E-06
            2284     2.68222E-03     9.67539E-03    -16.5974E+06    -51.8211E+06    -15.2687E+06    -565.878E+03    -7.16195E-03     13.9165E-03    -6.75451E-03     712.799E-06    -7.14767E-03     13.7036E-03    -6.73164E-03     705.181E-06
            2285     1.78837E-03     9.67425E-03    -17.1164E+06    -51.4121E+06    -16.5189E+06    -409.124E+03    -6.82749E-03     13.4557E-03    -6.62822E-03     468.859E-06    -6.81458E-03     13.2474E-03    -6.61144E-03     463.376E-06
            2286     894.292E-06     9.67358E-03    -17.4345E+06    -50.9878E+06    -17.1558E+06    -240.159E+03    -6.61686E-03     13.1463E-03    -6.52940E-03     258.458E-06    -6.60522E-03     12.9415E-03    -6.51597E-03     255.251E-06
            2287     16.8503E-03     8.98944E-03    -3.75352E+06     125.045E+06     53.3937E+06     1.34482E+06    -34.6132E-03     49.4255E-03    -14.8124E-03     82.4580E-03    -35.3451E-03     50.4335E-03    -14.7213E-03     82.4305E-03
            2288     15.9786E-03     8.91441E-03    -5.27441E+06     87.4266E+06     3.33553E+06     2.14222E+06    -31.0274E-03     44.6994E-03    -13.6720E-03     63.0269E-03    -31.4336E-03     45.3880E-03    -13.7745E-03     62.9146E-03
            2289     15.1041E-03     8.86498E-03    -6.14344E+06     42.9446E+06    -9.40407E+06     2.03254E+06    -27.6300E-03     40.4263E-03    -12.7962E-03     40.1252E-03    -27.7666E-03     40.7210E-03    -12.8966E-03     40.0742E-03
            2290     14.2278E-03     8.83086E-03    -7.43226E+06     2.28149E+06    -7.00056E+06     1.45433E+06    -25.4725E-03     37.5083E-03    -12.0357E-03     28.2877E-03    -25.5241E-03     37.5621E-03    -12.0633E-03     28.2602E-03
            2291     13.3491E-03     8.80226E-03    -7.96291E+06    -30.5678E+06    -9.68583E+06     542.396E+03    -23.2356E-03     34.5017E-03    -11.2661E-03     21.8814E-03    -23.2281E-03     34.3857E-03    -11.2587E-03     21.8584E-03
            2292     12.4690E-03     8.77953E-03    -8.20565E+06    -40.5368E+06    -1.48562E+06    -346.630E+03    -20.6117E-03     31.1843E-03    -10.5726E-03     16.1171E-03    -20.5971E-03     31.0012E-03    -10.5094E-03     16.0950E-03
            2293     11.5861E-03     8.76242E-03    -8.84413E+06    -38.9224E+06     6.21268E+06    -766.829E+03    -18.0155E-03     27.9565E-03    -9.94102E-03     11.4168E-03    -18.0148E-03     27.7683E-03    -9.84070E-03     11.3966E-03
            2294     10.7013E-03     8.74967E-03    -10.0150E+06    -46.9443E+06     6.25866E+06    -868.666E+03    -15.7602E-03     25.1334E-03    -9.37314E-03     8.16549E-03    -15.7527E-03     24.9055E-03    -9.25926E-03     8.14772E-03
            2295     9.81440E-03     8.74029E-03    -11.4432E+06    -58.0724E+06     5.82004E+06    -468.029E+03    -13.8797E-03     22.7684E-03    -8.88874E-03     5.95469E-03    -13.8619E-03     22.4871E-03    -8.75884E-03     5.94419E-03
            2296     8.92613E-03     8.73335E-03    -12.6301E+06    -60.9939E+06     4.11366E+06    -263.611E+03    -12.2888E-03     20.7473E-03    -8.45860E-03     4.51566E-03    -12.2699E-03     20.4553E-03    -8.33127E-03     4.50917E-03
            2297     8.03642E-03     8.72821E-03    -13.2840E+06    -58.2358E+06     269.633E+03    -661.341E+03    -10.9975E-03     19.0704E-03    -8.07292E-03     3.68269E-03    -10.9802E-03     18.7984E-03    -7.96787E-03     3.67197E-03
            2298     7.14578E-03     8.72422E-03    -13.8778E+06    -56.2848E+06    -3.40330E+06    -1.06586E+06    -9.97205E-03     17.7143E-03    -7.74228E-03     3.19976E-03    -9.95512E-03     17.4582E-03    -7.65757E-03     3.18442E-03
            2299     6.25426E-03     8.72108E-03    -14.6058E+06    -54.9374E+06    -6.76808E+06    -1.23476E+06    -9.13005E-03     16.5885E-03    -7.45843E-03     2.81163E-03    -9.11376E-03     16.3450E-03    -7.39143E-03     2.79452E-03
            2300     5.36206E-03     8.71869E-03    -15.3304E+06    -53.8400E+06    -9.60123E+06    -1.21985E+06    -8.44051E-03     15.6564E-03    -7.21593E-03     2.49940E-03    -8.42528E-03     15.4235E-03    -7.16364E-03     2.48278E-03
            2301     4.46927E-03     8.71677E-03    -16.0830E+06    -53.2459E+06    -12.2117E+06    -972.939E+03    -7.87671E-03     14.8857E-03    -7.00897E-03     2.16554E-03    -7.86228E-03     14.6606E-03    -6.96951E-03     2.15233E-03
            2302     3.57609E-03     8.71541E-03    -16.7637E+06    -52.6997E+06    -14.3556E+06    -622.162E+03    -7.40546E-03     14.2417E-03    -6.83627E-03     1.83585E-03    -7.39209E-03     14.0234E-03    -6.80733E-03     1.82735E-03
            2303     2.68241E-03     8.71435E-03     -17.342E+06    -52.1403E+06    -15.9375E+06    -441.684E+03    -7.02693E-03     13.7262E-03    -6.69931E-03     1.48448E-03    -7.01495E-03     13.5138E-03    -6.67825E-03     1.47846E-03
            2304     1.78847E-03     8.71366E-03    -17.7605E+06    -51.7635E+06    -17.0936E+06    -369.456E+03    -6.75117E-03     13.3494E-03    -6.59825E-03     1.04721E-03    -6.74015E-03     13.1412E-03    -6.58291E-03     1.04224E-03
            2305     894.285E-06     8.71326E-03    -17.9922E+06    -51.4553E+06    -17.7332E+06    -248.184E+03    -6.58392E-03     13.1097E-03    -6.52576E-03     602.029E-06    -6.57355E-03     12.9042E-03    -6.51373E-03     598.722E-06
            2306     16.8523E-03     7.99272E-03    -3.37551E+06     123.596E+06     54.7171E+06     1.26780E+06    -36.0489E-03     50.7788E-03    -14.7300E-03     78.0273E-03    -36.7340E-03     51.7325E-03    -14.6307E-03     77.9581E-03
            2307     15.9823E-03     7.92311E-03    -5.80274E+06     86.5495E+06     5.53178E+06     3.03071E+06    -32.3483E-03     45.8551E-03    -13.5068E-03     57.9868E-03    -32.7284E-03     46.5062E-03    -13.5962E-03     57.8739E-03
            2308     15.1084E-03     7.87803E-03    -7.64280E+06     43.7055E+06    -7.22061E+06     3.62766E+06    -28.7593E-03     41.3018E-03    -12.5425E-03     36.3196E-03    -28.9000E-03     41.5918E-03    -12.6309E-03     36.2877E-03
            2309     14.2322E-03     7.84605E-03    -8.57539E+06     4.30731E+06    -3.96232E+06     2.39574E+06    -25.7636E-03     37.4840E-03    -11.7204E-03     25.0507E-03    -25.8251E-03     37.5421E-03    -11.7340E-03     25.0375E-03
            2310     13.3546E-03     7.82138E-03    -9.30133E+06    -28.7855E+06    -6.80759E+06     727.058E+03    -22.8921E-03     33.8204E-03    -10.9283E-03     18.9550E-03    -22.8964E-03     33.7094E-03    -10.9071E-03     18.9367E-03
            2311     12.4734E-03     7.80197E-03    -9.83707E+06    -39.8941E+06     603.566E+03    -624.362E+03    -19.8261E-03     30.0725E-03    -10.2464E-03     13.9322E-03    -19.8229E-03     29.8911E-03    -10.1712E-03     13.9083E-03
            2312     11.5900E-03     7.78825E-03    -10.4788E+06    -38.5560E+06     8.45484E+06    -1.17561E+06    -16.9621E-03     26.6215E-03    -9.65944E-03     10.1354E-03    -16.9731E-03     26.4341E-03    -9.54607E-03     10.1110E-03
            2313     10.7039E-03     7.77830E-03    -11.6966E+06    -47.3001E+06     8.37048E+06    -1.04323E+06    -14.6643E-03     23.8203E-03    -9.15605E-03     7.85873E-03    -14.6676E-03     23.5901E-03    -9.02865E-03     7.83929E-03
            2314     9.81623E-03     7.77114E-03    -12.9225E+06    -58.4253E+06     6.35356E+06    -918.437E+03    -12.8619E-03     21.5998E-03    -8.73785E-03     6.30806E-03    -12.8519E-03     21.3181E-03    -8.60263E-03     6.29206E-03
            2315     8.92694E-03     7.76613E-03    -13.6505E+06    -60.4909E+06     3.04447E+06    -1.40163E+06    -11.4119E-03     19.7883E-03    -8.37642E-03     5.41770E-03    -11.3974E-03     19.5019E-03    -8.25369E-03     5.39670E-03
            2316     8.03660E-03     7.76246E-03    -14.0035E+06    -58.1302E+06    -1.05795E+06    -1.85800E+06    -10.3041E-03     18.3720E-03    -8.06789E-03     4.98866E-03    -10.2887E-03     18.1036E-03    -7.96858E-03     4.96258E-03
            2317     7.14533E-03     7.75960E-03    -14.3508E+06    -56.3960E+06    -4.50339E+06    -1.82256E+06    -9.45472E-03     17.2686E-03    -7.81390E-03     4.68923E-03    -9.43844E-03     17.0143E-03    -7.73384E-03     4.66416E-03
            2318     6.25340E-03     7.75749E-03    -14.8209E+06    -55.1885E+06    -7.52166E+06    -1.73379E+06    -8.78413E-03     16.3881E-03    -7.60400E-03     4.36833E-03    -8.76749E-03     16.1448E-03    -7.54009E-03     4.34480E-03
            2319     5.36092E-03     7.75584E-03    -15.3634E+06    -54.3630E+06    -10.1507E+06    -1.49138E+06    -8.25084E-03     15.6828E-03    -7.43200E-03     4.02378E-03    -8.23423E-03     15.4481E-03    -7.38165E-03     4.00368E-03
            2320     4.46805E-03     7.75461E-03    -15.8571E+06    -53.8852E+06    -12.4949E+06    -1.10804E+06    -7.82694E-03     15.1208E-03    -7.29389E-03     3.58700E-03    -7.81006E-03     14.8926E-03    -7.25524E-03     3.57208E-03
            2321     3.57474E-03     7.75375E-03    -16.1999E+06    -53.1721E+06    -13.9309E+06    -806.786E+03    -7.50778E-03     14.6968E-03    -7.18902E-03     3.08527E-03    -7.49153E-03     14.4747E-03    -7.15808E-03     3.07442E-03
            2322     2.68127E-03     7.75312E-03    -16.3279E+06    -52.4441E+06    -14.7968E+06    -640.198E+03    -7.27967E-03     14.3922E-03    -7.11257E-03     2.47865E-03    -7.26385E-03     14.1752E-03    -7.08684E-03     2.47010E-03
            2323     1.78757E-03     7.75271E-03    -16.3659E+06    -52.1740E+06    -15.7088E+06    -505.459E+03    -7.12838E-03     14.1883E-03    -7.05990E-03     1.73487E-03    -7.11181E-03     13.9739E-03    -7.03906E-03     1.72816E-03
            2324     893.808E-06     7.75249E-03    -16.3929E+06    -52.0165E+06    -16.1773E+06    -297.227E+03    -7.04153E-03     14.0768E-03    -7.03525E-03     964.363E-06    -7.02463E-03     13.8639E-03    -7.01694E-03     960.436E-06
            2325     16.8535E-03     6.99571E-03    -3.79240E+06     120.772E+06     55.6356E+06     1.92284E+06    -37.5427E-03     52.2183E-03    -14.6756E-03     74.9539E-03    -38.1898E-03     53.1196E-03    -14.5670E-03     74.8579E-03
            2326     15.9838E-03     6.92974E-03    -7.24285E+06     84.9149E+06     9.55567E+06     4.09999E+06    -34.2583E-03     47.6241E-03    -13.3657E-03     52.8435E-03    -34.6201E-03     48.2343E-03    -13.4306E-03     52.7273E-03
            2327     15.1127E-03     6.88965E-03    -8.22817E+06     45.5810E+06    -2.05503E+06     4.60289E+06    -29.4543E-03     41.7652E-03    -12.3109E-03     31.5032E-03    -29.6000E-03     42.0499E-03    -12.3753E-03     31.4851E-03
            2328     14.2375E-03     6.86210E-03    -9.71069E+06     6.28878E+06    -264.397E+03     3.39055E+06    -25.2671E-03     36.7244E-03    -11.4573E-03     22.1045E-03    -25.3394E-03     36.7856E-03    -11.4537E-03     22.1085E-03
            2329     13.3578E-03     6.84123E-03    -11.2251E+06    -26.2843E+06    -2.95444E+06     1.23453E+06    -21.8230E-03     32.5208E-03    -10.6978E-03     16.8873E-03    -21.8448E-03     32.4182E-03    -10.6581E-03     16.8788E-03
            2330     12.4763E-03     6.82576E-03    -12.2718E+06    -38.1492E+06     3.44140E+06    -916.891E+03    -18.4036E-03     28.4855E-03    -10.0818E-03     12.7300E-03    -18.4186E-03     28.3117E-03    -9.99152E-03     12.7044E-03
            2331     11.5911E-03     6.81566E-03    -13.1299E+06    -38.4094E+06     10.6258E+06    -2.17635E+06    -15.4655E-03     25.0564E-03    -9.59092E-03     10.2802E-03    -15.4930E-03     24.8702E-03    -9.46306E-03     10.2441E-03
            2332     10.7040E-03     6.80816E-03    -13.4692E+06    -47.8822E+06     10.5374E+06    -2.23407E+06    -13.3542E-03     22.5499E-03    -9.19578E-03     8.91289E-03    -13.3687E-03     22.3162E-03    -9.05414E-03     8.87871E-03
            2333     9.81505E-03     6.80314E-03    -13.6351E+06    -58.3357E+06     7.04438E+06    -2.24446E+06    -11.7612E-03     20.6398E-03    -8.87854E-03     7.92786E-03    -11.7559E-03     20.3586E-03    -8.73896E-03     7.89515E-03
            2334     8.92492E-03     6.79971E-03    -13.9401E+06    -59.8911E+06     2.10215E+06    -2.73733E+06    -10.5917E-03     19.2081E-03    -8.61640E-03     7.43572E-03    -10.5782E-03     18.9265E-03    -8.49883E-03     7.39773E-03
            2335     8.03383E-03     6.79717E-03    -14.2643E+06    -58.4458E+06    -2.25031E+06    -3.08236E+06    -9.76064E-03     18.1708E-03    -8.41017E-03     7.15032E-03    -9.74438E-03     17.9030E-03    -8.31599E-03     7.10860E-03
            2336     7.14216E-03     6.79524E-03    -14.3589E+06    -56.9693E+06    -5.23671E+06    -2.89755E+06    -9.15301E-03     17.4072E-03    -8.25414E-03     6.80377E-03    -9.13490E-03     17.1510E-03    -8.17690E-03     6.76495E-03
            2337     6.25001E-03     6.79376E-03    -14.3451E+06    -55.8074E+06    -7.51072E+06    -2.51337E+06    -8.70906E-03     16.8461E-03    -8.13703E-03     6.34758E-03    -8.68918E-03     16.5989E-03    -8.07286E-03     6.31409E-03
            2338     5.35754E-03     6.79267E-03    -14.3310E+06    -55.1423E+06    -9.67166E+06    -2.09507E+06    -8.38376E-03     16.4344E-03    -8.05059E-03     5.77666E-03    -8.36158E-03     16.1936E-03    -7.99822E-03     5.74886E-03
            2339     4.46474E-03     6.79186E-03    -14.2040E+06    -54.6012E+06    -11.2968E+06    -1.66271E+06    -8.16283E-03     16.1546E-03    -7.99176E-03     5.06512E-03    -8.13840E-03     15.9186E-03    -7.94848E-03     5.04312E-03
            2340     3.57189E-03     6.79126E-03    -13.9200E+06    -53.6706E+06    -11.7860E+06    -1.42004E+06    -8.03450E-03     15.9911E-03    -7.95660E-03     4.23308E-03    -8.00926E-03     15.7600E-03    -7.91753E-03     4.21437E-03
            2341     2.67890E-03     6.79078E-03    -13.6535E+06    -53.0227E+06    -12.1955E+06    -1.23265E+06    -7.96258E-03     15.8977E-03    -7.93516E-03     3.28870E-03    -7.93634E-03     15.6701E-03    -7.89945E-03     3.27254E-03
            2342     1.78595E-03     6.79048E-03    -13.4449E+06    -52.8857E+06    -12.7943E+06    -870.923E+03    -7.92953E-03     15.8518E-03    -7.92225E-03     2.25937E-03    -7.90157E-03     15.6254E-03    -7.89005E-03     2.24797E-03
            2343     892.974E-06     6.79027E-03    -13.3218E+06    -52.8125E+06    -13.0818E+06    -484.412E+03    -7.91776E-03     15.8332E-03    -7.91541E-03     1.23349E-03    -7.88886E-03     15.6074E-03    -7.88492E-03     1.22715E-03
            2344     16.8518E-03     5.99373E-03    -4.02325E+06     118.417E+06     57.9995E+06     2.61868E+06    -39.4462E-03     54.0420E-03    -14.5958E-03     69.3159E-03    -40.0498E-03     54.8839E-03    -14.4716E-03     69.1926E-03
            2345     15.9883E-03     5.93415E-03    -7.45831E+06     82.7797E+06     14.7684E+06     4.34398E+06    -34.9696E-03     48.1850E-03    -13.2154E-03     45.0844E-03    -35.3009E-03     48.7415E-03    -13.2508E-03     44.9688E-03
            2346     15.1166E-03     5.90136E-03    -9.23345E+06     45.9195E+06     2.84191E+06     5.93553E+06    -28.7465E-03     40.8865E-03    -12.1400E-03     26.4096E-03    -28.8960E-03     41.1585E-03    -12.1790E-03     26.4163E-03
            2347     14.2392E-03     5.87976E-03    -11.7746E+06     9.58739E+06     4.50828E+06     5.18183E+06    -23.8105E-03     35.1453E-03    -11.3348E-03     20.1384E-03    -23.9024E-03     35.2167E-03    -11.3091E-03     20.1713E-03
            2348     13.3595E-03     5.86207E-03    -14.1110E+06    -22.5469E+06     1.63066E+06     1.73449E+06    -19.8881E-03     30.5636E-03    -10.6756E-03     16.0740E-03    -19.9353E-03     30.4762E-03    -10.6143E-03     16.0761E-03
            2349     12.4754E-03     5.85186E-03    -14.8164E+06    -35.3573E+06     6.96121E+06    -1.89681E+06    -16.3697E-03     26.5607E-03    -10.1910E-03     13.3195E-03    -16.4062E-03     26.3991E-03    -10.0835E-03     13.2839E-03
            2350     11.5887E-03     5.84436E-03    -15.0536E+06    -37.9212E+06     13.4312E+06    -3.96309E+06    -13.8123E-03     23.6574E-03    -9.84512E-03     12.2551E-03    -13.8542E-03     23.4724E-03    -9.70115E-03     12.1972E-03
            2351     10.7001E-03     5.83926E-03    -15.3208E+06    -48.5969E+06     12.0468E+06    -4.35698E+06    -12.0829E-03     21.6674E-03    -9.58455E-03     11.3988E-03    -12.1079E-03     21.4307E-03    -9.43163E-03     11.3380E-03
            2352     9.81010E-03     5.83586E-03    -15.3171E+06    -58.2462E+06     6.82483E+06    -4.43565E+06    -10.8922E-03     20.2788E-03    -9.38656E-03     10.6841E-03    -10.8952E-03     20.0008E-03    -9.24577E-03     10.6236E-03
            2353     8.91923E-03     5.83356E-03    -14.7553E+06    -59.9639E+06     1.34015E+06    -4.70771E+06    -10.1268E-03     19.3628E-03    -9.23593E-03     10.1828E-03    -10.1162E-03     19.0830E-03    -9.12089E-03     10.1198E-03
            2354     8.02789E-03     5.83173E-03    -14.0301E+06    -58.9625E+06    -2.50624E+06    -4.67142E+06    -9.63417E-03     18.7659E-03    -9.13176E-03     9.65321E-03    -9.61561E-03     18.4955E-03    -9.03845E-03     9.59124E-03
            2355     7.13617E-03     5.83036E-03    -13.3855E+06    -57.8426E+06    -5.05670E+06    -4.47786E+06    -9.30673E-03     18.3717E-03    -9.06502E-03     8.96528E-03    -9.28274E-03     18.1095E-03    -8.98703E-03     8.90627E-03
            2356     6.24422E-03     5.82923E-03    -12.5416E+06    -56.9469E+06    -6.95234E+06    -3.95723E+06    -9.10320E-03     18.1286E-03    -9.02535E-03     8.12603E-03    -9.07347E-03     17.8722E-03    -8.95936E-03     8.07407E-03
            2357     5.35212E-03     5.82839E-03    -11.7195E+06    -56.3046E+06    -8.23446E+06    -3.17336E+06    -9.00061E-03     18.0068E-03    -9.00617E-03     7.13755E-03    -8.96578E-03     17.7543E-03    -8.94870E-03     7.09593E-03
            2358     4.46007E-03     5.82768E-03    -11.0491E+06    -55.3937E+06    -8.55030E+06    -2.69625E+06    -8.96530E-03     17.9672E-03    -9.00189E-03     6.06818E-03    -8.92794E-03     17.7187E-03    -8.94830E-03     6.03291E-03
            2359     3.56798E-03     5.82709E-03    -10.4144E+06    -54.4618E+06    -8.47388E+06    -2.41261E+06    -8.96474E-03     17.9693E-03    -9.00454E-03     4.92914E-03    -8.92564E-03     17.7243E-03    -8.95284E-03     4.89766E-03
            2360     2.67598E-03     5.82664E-03    -9.96765E+06    -54.1084E+06    -8.84234E+06    -1.92907E+06    -8.97850E-03     17.9864E-03    -9.00790E-03     3.73898E-03    -8.93714E-03     17.7431E-03    -8.95920E-03     3.71385E-03
            2361     1.78395E-03     5.82630E-03    -9.72935E+06    -54.0678E+06    -9.34925E+06    -1.30687E+06    -8.99520E-03     18.0068E-03    -9.01155E-03     2.53106E-03    -8.95196E-03     17.7640E-03    -8.96579E-03     2.51404E-03
            2362     891.974E-06     5.82610E-03    -9.55881E+06    -53.9374E+06    -9.48164E+06    -684.555E+03    -9.00530E-03     18.0265E-03    -9.02123E-03     1.38960E-03    -8.96118E-03     17.7844E-03    -8.97657E-03     1.38069E-03
            2363     16.8608E-03     4.99312E-03    -4.76259E+06     116.138E+06     60.2789E+06     3.29343E+06    -41.1860E-03     55.6748E-03    -14.4889E-03     64.1571E-03    -41.7476E-03     56.4579E-03    -14.3490E-03     64.0087E-03
            2364     15.9909E-03     4.93835E-03    -8.21454E+06     79.8313E+06     19.0515E+06     6.44223E+06    -33.4161E-03     46.5199E-03    -13.1038E-03     38.5828E-03    -33.7176E-03     47.0212E-03    -13.1124E-03     38.5154E-03
            2365     15.1175E-03     4.91619E-03    -13.2237E+06     45.3675E+06     5.88037E+06     9.00339E+06    -26.3152E-03     38.4415E-03    -12.1263E-03     23.0920E-03    -26.4800E-03     38.7038E-03    -12.1435E-03     23.1527E-03
            2366     14.2391E-03     4.89776E-03    -17.0356E+06     14.6233E+06     8.54364E+06     6.78383E+06    -21.1439E-03     32.6157E-03    -11.4718E-03     19.9495E-03    -21.2733E-03     32.7121E-03    -11.4256E-03     20.0101E-03
            2367     13.3559E-03     4.88642E-03    -18.1447E+06    -16.5645E+06     6.13539E+06     631.149E+03    -17.1196E-03     28.1156E-03    -10.9960E-03     17.7460E-03    -17.2012E-03     28.0565E-03    -10.9150E-03     17.7386E-03
            2368     12.4695E-03     4.87935E-03    -17.3680E+06    -31.7599E+06     10.2856E+06    -4.62946E+06    -14.3558E-03     25.0499E-03    -10.6941E-03     16.3803E-03    -14.4148E-03     24.9048E-03    -10.5715E-03     16.3117E-03
            2369     11.5811E-03     4.87435E-03    -16.5730E+06    -37.9545E+06     15.3402E+06    -6.48171E+06    -12.5393E-03     23.0442E-03    -10.5049E-03     15.6372E-03    -12.5914E-03     22.8583E-03    -10.3491E-03     15.5480E-03
            2370     10.6915E-03     4.87083E-03    -16.5695E+06    -49.1009E+06     12.2787E+06    -6.68553E+06    -11.3739E-03     21.7435E-03    -10.3696E-03     14.6774E-03    -11.4046E-03     21.5055E-03    -10.2130E-03     14.5874E-03
            2371     9.80101E-03     4.86851E-03    -16.0937E+06    -58.1567E+06     6.06216E+06    -7.40242E+06    -10.7207E-03     20.9941E-03    -10.2733E-03     13.6450E-03    -10.7265E-03     20.7186E-03    -10.1354E-03     13.5468E-03
            2372     8.91021E-03     4.86673E-03    -14.5811E+06    -60.7104E+06     772.436E+03    -7.84044E+06    -10.3658E-03     20.5728E-03    -10.2070E-03     12.6616E-03    -10.3524E-03     20.2898E-03    -10.0940E-03     12.5585E-03
            2373     8.01915E-03     4.86527E-03    -12.5706E+06    -60.1623E+06    -2.63061E+06    -7.41789E+06    -10.1778E-03     20.3452E-03    -10.1674E-03     11.5639E-03    -10.1500E-03     20.0667E-03    -10.0751E-03     11.4668E-03
            2374     7.12805E-03     4.86406E-03    -10.6858E+06    -59.1927E+06    -4.41003E+06    -6.66872E+06    -10.0840E-03     20.2341E-03    -10.1501E-03     10.3361E-03    -10.0455E-03     19.9602E-03    -10.0708E-03     10.2490E-03
            2375     6.23691E-03     4.86305E-03    -9.34781E+06    -58.7618E+06    -5.92623E+06    -5.69964E+06    -10.0538E-03     20.1985E-03    -10.1448E-03     9.03616E-03    -10.0069E-03     19.9270E-03    -10.0756E-03     8.96183E-03
            2376     5.34584E-03     4.86216E-03    -8.17850E+06    -57.9068E+06    -6.13376E+06    -4.67464E+06    -10.0665E-03     20.2166E-03    -10.1501E-03     7.71868E-03    -10.0146E-03     19.9478E-03    -10.0850E-03     7.65776E-03
            2377     4.45478E-03     4.86142E-03    -7.09527E+06    -56.5351E+06    -5.33873E+06    -3.94066E+06    -10.0953E-03     20.2558E-03    -10.1605E-03     6.41375E-03    -10.0411E-03     19.9912E-03    -10.0950E-03     6.36245E-03
            2378     3.56380E-03     4.86078E-03    -6.48821E+06    -55.8382E+06    -5.24330E+06    -3.30793E+06    -10.1221E-03     20.2904E-03    -10.1683E-03     5.12633E-03    -10.0661E-03     20.0282E-03    -10.1041E-03     5.08332E-03
            2379     2.67280E-03     4.86028E-03    -6.20797E+06    -55.7238E+06    -5.56960E+06    -2.50504E+06    -10.1475E-03     20.3212E-03    -10.1738E-03     3.84766E-03    -10.0897E-03     20.0596E-03    -10.1118E-03     3.81511E-03
            2380     1.78187E-03     4.85992E-03    -5.99669E+06    -55.6908E+06    -5.93022E+06    -1.61294E+06    -10.1662E-03     20.3437E-03    -10.1774E-03     2.58717E-03    -10.1069E-03     20.0825E-03    -10.1176E-03     2.56620E-03
            2381     890.917E-06     4.85970E-03    -5.76277E+06    -55.4235E+06    -5.96114E+06    -773.630E+03    -10.1707E-03     20.3589E-03    -10.1882E-03     1.40292E-03    -10.1105E-03     20.0988E-03    -10.1293E-03     1.39285E-03
            2382     16.8566E-03     3.98632E-03    -5.57943E+06     111.362E+06     60.5457E+06     5.00429E+06    -40.8636E-03     55.3814E-03    -14.5178E-03     57.5609E-03    -41.3656E-03     56.0848E-03    -14.3684E-03     57.4293E-03
            2383     15.9920E-03     3.94943E-03    -11.4486E+06     74.8618E+06     22.7522E+06     10.8313E+06    -30.3399E-03     43.5836E-03    -13.2437E-03     34.3299E-03    -30.6221E-03     44.0260E-03    -13.2219E-03     34.3527E-03
            2384     15.1140E-03     3.93114E-03    -16.4557E+06     46.8877E+06     10.8558E+06     12.6907E+06    -22.4933E-03     34.9592E-03    -12.4658E-03     23.9113E-03    -22.6774E-03     35.2203E-03    -12.4557E-03     24.0363E-03
            2385     14.2318E-03     3.92051E-03    -18.8401E+06     23.3286E+06     12.3110E+06     6.38453E+06    -17.6891E-03     29.7228E-03    -12.0336E-03     23.1638E-03    -17.8438E-03     29.8581E-03    -11.9786E-03     23.2270E-03
            2386     13.3451E-03     3.91277E-03    -18.6893E+06    -8.64854E+06     8.85134E+06    -2.56547E+06    -14.9902E-03     26.7588E-03    -11.7686E-03     22.0363E-03    -15.0891E-03     26.7351E-03    -11.6848E-03     21.9919E-03
            2387     12.4572E-03     3.90766E-03    -17.4647E+06    -28.8142E+06     10.1981E+06    -7.96665E+06    -13.4083E-03     25.0275E-03    -11.6192E-03     19.9736E-03    -13.4713E-03     24.8966E-03    -11.5011E-03     19.8640E-03
            2388     11.5683E-03     3.90433E-03    -16.6415E+06    -38.6278E+06     11.7139E+06    -9.60342E+06    -12.3247E-03     23.8550E-03    -11.5303E-03     18.6684E-03    -12.3705E-03     23.6706E-03    -11.3916E-03     18.5401E-03
            2389     10.6787E-03     3.90162E-03    -15.0484E+06    -49.4649E+06     6.98042E+06    -10.1873E+06    -11.7942E-03     23.2545E-03    -11.4604E-03     16.9407E-03    -11.8088E-03     23.0198E-03    -11.3319E-03     16.8063E-03
            2390     9.78894E-03     3.89975E-03    -12.7091E+06    -58.1839E+06     737.204E+03    -10.9179E+06    -11.5367E-03     22.9428E-03    -11.4061E-03     15.2427E-03    -11.5176E-03     22.6698E-03    -11.2997E-03     15.0997E-03
            2391     8.89900E-03     3.89811E-03    -10.5315E+06    -62.0057E+06    -2.77463E+06    -11.2115E+06    -11.4441E-03     22.8166E-03    -11.3725E-03     13.6086E-03    -11.4033E-03     22.5262E-03    -11.2812E-03     13.4623E-03
            2392     8.00914E-03     3.89677E-03    -8.46103E+06    -62.3735E+06    -4.71548E+06    -10.4379E+06    -11.3915E-03     22.7397E-03    -11.3482E-03     11.9981E-03    -11.3368E-03     22.4471E-03    -11.2691E-03     11.8622E-03
            2393     7.11922E-03     3.89552E-03    -6.71782E+06    -61.7871E+06    -5.24041E+06    -8.76109E+06    -11.3709E-03     22.7045E-03    -11.3335E-03     10.4062E-03    -11.3076E-03     22.4130E-03    -11.2604E-03     10.2922E-03
            2394     6.22936E-03     3.89452E-03    -5.48457E+06    -61.0440E+06    -4.88056E+06    -7.12735E+06    -11.3560E-03     22.6814E-03    -11.3254E-03     8.88632E-03    -11.2880E-03     22.3912E-03    -11.2533E-03     8.79363E-03
            2395     5.33944E-03     3.89360E-03    -4.39218E+06    -59.7955E+06    -4.51288E+06    -6.12207E+06    -11.3420E-03     22.6601E-03    -11.3181E-03     7.49161E-03    -11.2708E-03     22.3740E-03    -11.2476E-03     7.41206E-03
            2396     4.44957E-03     3.89281E-03    -3.37192E+06    -58.5563E+06    -3.64180E+06    -5.03360E+06    -11.3331E-03     22.6476E-03    -11.3144E-03     6.14517E-03    -11.2599E-03     22.3649E-03    -11.2429E-03     6.07980E-03
            2397     3.55964E-03     3.89216E-03    -2.80808E+06    -57.9001E+06    -3.26637E+06    -3.68707E+06    -11.3227E-03     22.6336E-03    -11.3109E-03     4.85846E-03    -11.2481E-03     22.3528E-03    -11.2392E-03     4.81057E-03
            2398     2.66975E-03     3.89164E-03    -2.79279E+06    -57.6343E+06    -3.23283E+06    -2.52594E+06    -11.3132E-03     22.6218E-03    -11.3086E-03     3.62561E-03    -11.2390E-03     22.3423E-03    -11.2371E-03     3.59279E-03
            2399     1.77982E-03     3.89128E-03    -3.14610E+06    -57.5822E+06    -2.99841E+06    -1.53914E+06    -11.3133E-03     22.6211E-03    -11.3078E-03     2.43126E-03    -11.2412E-03     22.3420E-03    -11.2347E-03     2.41125E-03
            2400     889.934E-06     3.89103E-03    -3.59391E+06    -56.9102E+06    -3.40003E+06    -681.179E+03    -11.3027E-03     22.6058E-03    -11.3031E-03     1.30747E-03    -11.2332E-03     22.3314E-03    -11.2324E-03     1.29860E-03
            2401     16.8583E-03     2.98566E-03    -5.32260E+06     103.618E+06     59.8748E+06     8.43357E+06    -37.6866E-03     52.5850E-03    -14.8984E-03     53.1219E-03    -38.1119E-03     53.1871E-03    -14.7416E-03     53.0679E-03
            2402     15.9816E-03     2.96169E-03    -11.5298E+06     70.0410E+06     29.7642E+06     13.7437E+06    -26.1335E-03     40.0073E-03    -13.8738E-03     32.7608E-03    -26.3890E-03     40.3851E-03    -13.8098E-03     32.8586E-03
            2403     15.1016E-03     2.95121E-03    -12.4482E+06     51.9897E+06     19.8750E+06     12.3554E+06    -18.6086E-03     31.9579E-03    -13.3493E-03     28.1039E-03    -18.7884E-03     32.2209E-03    -13.3073E-03     28.2383E-03
            2404     14.2145E-03     2.94630E-03    -11.8864E+06     34.5403E+06     13.9545E+06     4.36671E+06    -16.2730E-03     29.3524E-03    -13.0794E-03     27.9514E-03    -16.4096E-03     29.5289E-03    -13.0425E-03     27.9941E-03
            2405     13.3278E-03     2.93776E-03    -12.1289E+06    -599.960E+03     5.09599E+06    -4.65343E+06    -15.1624E-03     28.0639E-03    -12.9015E-03     24.1233E-03    -15.2332E-03     28.0746E-03    -12.8576E-03     24.0547E-03
            2406     12.4409E-03     2.93576E-03    -12.3363E+06    -26.7768E+06     2.39585E+06    -10.2923E+06    -14.0334E-03     26.8307E-03    -12.7972E-03     21.0431E-03    -14.0616E-03     26.7129E-03    -12.7286E-03     20.9053E-03
            2407     11.5526E-03     2.93217E-03    -11.1886E+06    -38.6884E+06    -932.236E+03    -12.7421E+06    -13.5614E-03     26.2719E-03    -12.7105E-03     18.8684E-03    -13.5610E-03     26.0969E-03    -12.6428E-03     18.7005E-03
            2408     10.6647E-03     2.93030E-03    -9.13943E+06    -50.4097E+06    -7.23086E+06    -13.5181E+06    -13.2683E-03     25.8961E-03    -12.6277E-03     16.4353E-03    -13.2312E-03     25.6683E-03    -12.5776E-03     16.2585E-03
            2409     9.77628E-03     2.92839E-03    -7.41183E+06    -59.2871E+06    -12.3101E+06    -13.3485E+06    -13.1403E-03     25.6982E-03    -12.5579E-03     14.3710E-03    -13.0740E-03     25.4307E-03    -12.5227E-03     14.1970E-03
            2410     8.88802E-03     2.92692E-03    -6.14163E+06    -63.7984E+06    -13.1857E+06    -12.8379E+06    -13.0264E-03     25.5337E-03    -12.5073E-03     12.4295E-03    -12.9458E-03     25.2429E-03    -12.4718E-03     12.2625E-03
            2411     7.99955E-03     2.92562E-03    -5.43785E+06    -65.5963E+06    -12.3633E+06    -11.5409E+06    -12.9071E-03     25.3725E-03    -12.4654E-03     10.7366E-03    -12.8215E-03     25.0704E-03    -12.4242E-03     10.5867E-03
            2412     7.11105E-03     2.92447E-03    -4.92679E+06    -65.1998E+06    -11.4460E+06    -9.49645E+06    -12.7913E-03     25.2162E-03    -12.4248E-03     9.17905E-03    -12.7050E-03     24.9140E-03    -12.3804E-03     9.05570E-03
            2413     6.22239E-03     2.92351E-03    -4.31426E+06    -63.7054E+06    -8.62528E+06    -7.71156E+06    -12.6821E-03     25.0780E-03    -12.3959E-03     7.75752E-03    -12.5989E-03     24.7783E-03    -12.3404E-03     7.65738E-03
            2414     5.33370E-03     2.92268E-03    -4.15338E+06    -62.1089E+06    -7.63832E+06    -6.22138E+06    -12.5795E-03     24.9422E-03    -12.3626E-03     6.47224E-03    -12.4993E-03     24.6487E-03    -12.3047E-03     6.39147E-03
            2415     4.44486E-03     2.92194E-03    -4.43943E+06    -60.9865E+06    -7.76446E+06    -4.98051E+06    -12.4842E-03     24.8148E-03    -12.3306E-03     5.27158E-03    -12.4068E-03     24.5275E-03    -12.2745E-03     5.20694E-03
            2416     3.55600E-03     2.92135E-03    -4.44206E+06    -60.5349E+06    -6.78003E+06    -3.58915E+06    -12.4089E-03     24.7195E-03    -12.3106E-03     4.13754E-03    -12.3335E-03     24.4331E-03    -12.2503E-03     4.09096E-03
            2417     2.66702E-03     2.92088E-03    -4.26876E+06    -59.7096E+06    -5.92275E+06    -2.02969E+06    -12.3516E-03     24.6466E-03    -12.2950E-03     3.06865E-03    -12.2778E-03     24.3628E-03    -12.2318E-03     3.04227E-03
            2418     1.77805E-03     2.92051E-03    -4.43907E+06    -59.1248E+06    -5.02104E+06    -1.03321E+06    -12.3094E-03     24.5954E-03    -12.2860E-03     2.04956E-03    -12.2386E-03     24.3135E-03    -12.2189E-03     2.03610E-03
            2419     889.026E-06     2.92030E-03    -4.76995E+06    -58.1012E+06    -4.70507E+06    -526.495E+03    -12.2758E-03     24.5624E-03    -12.2867E-03     1.09528E-03    -12.2086E-03     24.2857E-03    -12.2190E-03     1.08842E-03
            2420     16.8349E-03     1.98747E-03    -3.86390E+06     95.0809E+06     59.9011E+06     10.4287E+06    -33.1027E-03     48.8667E-03    -15.7641E-03     45.9032E-03    -33.4480E-03     49.3642E-03    -15.5968E-03     45.9231E-03
            2421     15.9649E-03     1.97571E-03    -3.65022E+06     71.3637E+06     42.0281E+06     12.1752E+06    -22.1118E-03     37.1624E-03    -15.0506E-03     31.8616E-03    -22.3228E-03     37.4924E-03    -14.9386E-03     31.9728E-03
            2422     15.0772E-03     1.97839E-03    -2.45103E+06     59.7142E+06     28.5999E+06     7.90344E+06    -19.0215E-03     33.6806E-03    -14.6590E-03     29.7979E-03    -19.1700E-03     33.9489E-03    -14.5991E-03     29.8829E-03
            2423     14.1931E-03     1.96412E-03    -1.53543E+06     42.2656E+06     11.6699E+06     2.26019E+06    -18.1221E-03     32.4642E-03    -14.3421E-03     26.4899E-03    -18.2119E-03     32.6645E-03    -14.3428E-03     26.5091E-03
            2424     13.3108E-03     1.96352E-03    -1.76271E+06     6.66409E+06    -5.46344E+06    -4.38944E+06    -16.9808E-03     31.0714E-03    -14.0906E-03     20.7138E-03    -16.9931E-03     31.1168E-03    -14.1251E-03     20.6512E-03
            2425     12.4238E-03     1.95943E-03    -2.05599E+06    -23.2803E+06    -14.5434E+06    -10.7086E+06    -16.1333E-03     30.0481E-03    -13.9148E-03     17.9024E-03    -16.0898E-03     29.9566E-03    -13.9508E-03     17.7605E-03
            2426     11.5388E-03     1.95769E-03    -1.69554E+06    -39.0038E+06    -19.8941E+06    -13.4078E+06    -15.5858E-03     29.3521E-03    -13.7664E-03     15.1387E-03    -15.5095E-03     29.1889E-03    -13.8068E-03     14.9632E-03
            2427     10.6521E-03     1.95572E-03    -2.17101E+06    -52.2927E+06    -24.0826E+06    -13.0607E+06    -15.1651E-03     28.8056E-03    -13.6405E-03     12.9430E-03    -15.0656E-03     28.5824E-03    -13.6819E-03     12.7727E-03
            2428     9.76576E-03     1.95424E-03    -3.27196E+06    -61.3420E+06    -25.5441E+06    -12.1104E+06    -14.8546E-03     28.3899E-03    -13.5354E-03     11.0168E-03    -14.7452E-03     28.1251E-03    -13.5694E-03     10.8592E-03
            2429     8.87884E-03     1.95304E-03    -4.59259E+06    -66.1225E+06    -25.0028E+06    -11.0922E+06    -14.5501E-03     27.9936E-03    -13.4435E-03     9.41411E-03    -14.4412E-03     27.7060E-03    -13.4660E-03     9.26990E-03
            2430     7.99179E-03     1.95200E-03    -5.89382E+06    -68.8904E+06    -22.6169E+06    -9.68292E+06    -14.2701E-03     27.6375E-03    -13.3674E-03     8.03783E-03    -14.1670E-03     27.3345E-03    -13.3721E-03     7.91205E-03
            2431     7.10440E-03     1.95113E-03    -6.79424E+06    -68.3791E+06    -21.1403E+06    -8.08101E+06    -14.0089E-03     27.3003E-03    -13.2913E-03     6.82819E-03    -13.9132E-03     26.9989E-03    -13.2880E-03     6.72329E-03
            2432     6.21684E-03     1.95035E-03    -7.44502E+06    -66.4961E+06    -18.5029E+06    -6.46222E+06    -13.7852E-03     27.0135E-03    -13.2283E-03     5.74316E-03    -13.6992E-03     26.7186E-03    -13.2136E-03     5.65929E-03
            2433     5.32907E-03     1.94970E-03    -7.95999E+06    -64.7115E+06    -15.0446E+06    -4.91901E+06    -13.5895E-03     26.7676E-03    -13.1781E-03     4.75422E-03    -13.5137E-03     26.4774E-03    -13.1479E-03     4.69037E-03
            2434     4.44118E-03     1.94917E-03    -8.39039E+06    -63.0607E+06    -13.4368E+06    -3.64036E+06    -13.4155E-03     26.5434E-03    -13.1280E-03     3.85130E-03    -13.3465E-03     26.2598E-03    -13.0915E-03     3.80405E-03
            2435     3.55308E-03     1.94870E-03    -9.01064E+06    -62.9084E+06    -12.2018E+06    -2.61353E+06    -13.2745E-03     26.3628E-03    -13.0883E-03     3.01053E-03    -13.2107E-03     26.0790E-03    -13.0450E-03     2.97660E-03
            2436     2.66495E-03     1.94833E-03    -9.44769E+06    -61.7695E+06    -11.3686E+06    -1.40046E+06    -13.1621E-03     26.2168E-03    -13.0547E-03     2.22313E-03    -13.1033E-03     25.9381E-03    -13.0083E-03     2.20491E-03
            2437     1.77666E-03     1.94805E-03    -9.23100E+06    -59.9603E+06    -10.7657E+06    -543.125E+03    -13.0753E-03     26.1052E-03    -13.0299E-03     1.48018E-03    -13.0189E-03     25.8344E-03    -12.9834E-03     1.47308E-03
            2438     888.329E-06     1.94788E-03    -8.83062E+06    -58.9561E+06    -9.50594E+06    -362.577E+03    -13.0277E-03     26.0548E-03    -13.0271E-03     797.861E-06    -12.9726E-03     25.7866E-03    -12.9763E-03     793.132E-06
            2439     16.8265E-03     999.779E-06     562.129E+03     90.5680E+06     62.7808E+06     7.51815E+06    -32.8023E-03     50.0026E-03    -17.2003E-03     41.7110E-03    -33.0669E-03     50.4094E-03    -17.0186E-03     41.7332E-03
            2440     15.9321E-03     996.941E-06     4.05449E+06     75.9110E+06     50.0693E+06     6.70891E+06    -25.7298E-03     42.1943E-03    -16.4645E-03     28.4475E-03    -25.9025E-03     42.5035E-03    -16.3301E-03     28.5160E-03
            2441     15.0575E-03     989.137E-06     6.68748E+06     64.1995E+06     28.1411E+06     3.33043E+06    -23.8675E-03     39.7286E-03    -15.8611E-03     21.2202E-03    -23.9708E-03     40.0013E-03    -15.8231E-03     21.2544E-03
            2442     14.1798E-03     985.538E-06     8.47608E+06     46.0842E+06     2.47819E+06     1.09474E+06    -21.1435E-03     36.4806E-03    -15.3370E-03     16.5235E-03    -21.1729E-03     36.6964E-03    -15.4038E-03     16.5318E-03
            2443     13.2941E-03     982.136E-06     9.10593E+06     13.0671E+06    -18.6098E+06    -2.87622E+06    -19.1775E-03     34.1413E-03    -14.9638E-03     12.0806E-03    -19.1245E-03     34.2209E-03    -15.0890E-03     12.0407E-03
            2444     12.4135E-03     981.065E-06      8.1504E+06    -19.5818E+06    -30.5478E+06    -7.55431E+06    -18.2603E-03     32.9597E-03    -14.6994E-03     10.0488E-03    -18.1472E-03     32.8945E-03    -14.8356E-03     9.94924E-03
            2445     11.5284E-03     979.709E-06     4.94773E+06    -40.3715E+06    -35.5860E+06    -8.75920E+06    -17.3517E-03     31.8420E-03    -14.4903E-03     8.44764E-03    -17.2170E-03     31.6847E-03    -14.6168E-03     8.33325E-03
            2446     10.6442E-03     978.610E-06     1.25866E+06    -54.4388E+06    -36.9514E+06    -7.91645E+06    -16.6760E-03     30.9969E-03    -14.3209E-03     7.08805E-03    -16.5374E-03     30.7766E-03    -14.4285E-03     6.98487E-03
            2447     9.75868E-03     977.773E-06    -1.78741E+06    -63.1823E+06    -35.8432E+06    -7.05930E+06    -16.0788E-03     30.2577E-03    -14.1789E-03     5.95730E-03    -15.9443E-03     29.9964E-03    -14.2639E-03     5.86543E-03
            2448     8.87293E-03     977.055E-06    -4.50434E+06    -68.3112E+06    -33.7904E+06    -6.19529E+06    -15.5984E-03     29.6546E-03    -14.0562E-03     5.05317E-03    -15.4729E-03     29.3686E-03    -14.1196E-03     4.97262E-03
            2449     7.98667E-03     976.509E-06    -6.83813E+06    -70.9574E+06    -30.4742E+06    -5.43253E+06    -15.1876E-03     29.1395E-03    -13.9519E-03     4.29344E-03    -15.0748E-03     28.8389E-03    -13.9915E-03     4.22288E-03
            2450     7.10013E-03     976.038E-06    -8.78277E+06    -70.8410E+06    -27.4234E+06    -4.53405E+06    -14.8292E-03     28.6853E-03    -13.8561E-03     3.64123E-03    -14.7307E-03     28.3836E-03    -13.8778E-03     3.58237E-03
            2451     6.21324E-03     975.613E-06    -10.1830E+06    -68.5280E+06    -25.0708E+06    -3.51914E+06    -14.5153E-03     28.2817E-03    -13.7664E-03     3.05122E-03    -14.4305E-03     27.9902E-03    -13.7776E-03     3.00555E-03
            2452     5.32613E-03     975.244E-06    -10.9180E+06    -66.4495E+06    -21.3805E+06    -2.94841E+06    -14.2470E-03     27.9428E-03    -13.6958E-03     2.51467E-03    -14.1743E-03     27.6574E-03    -13.6906E-03     2.47642E-03
            2453     4.43876E-03     974.947E-06    -11.2264E+06    -65.0608E+06    -17.5350E+06    -2.02111E+06    -14.0236E-03     27.6623E-03    -13.6386E-03     2.02793E-03    -13.9600E-03     27.3787E-03    -13.6157E-03     2.00170E-03
            2454     3.55129E-03     974.712E-06    -11.6665E+06    -64.2213E+06    -15.0254E+06    -976.399E+03    -13.8375E-03     27.4251E-03    -13.5876E-03     1.58483E-03    -13.7809E-03     27.1426E-03    -13.5526E-03     1.57212E-03
            2455     2.66358E-03     974.502E-06    -12.1916E+06    -63.0119E+06    -13.4862E+06    -628.195E+03    -13.6858E-03     27.2291E-03    -13.5433E-03     1.16650E-03    -13.6358E-03     26.9512E-03    -13.5017E-03     1.15832E-03
            2456     1.77579E-03     974.367E-06    -12.3834E+06    -60.5131E+06    -12.9649E+06    -242.876E+03    -13.5712E-03     27.0756E-03    -13.5044E-03     771.735E-06    -13.5266E-03     26.8098E-03    -13.4635E-03     768.553E-06
            2457     887.927E-06     974.233E-06    -12.4084E+06    -59.2721E+06    -12.6861E+06    -122.771E+03    -13.5044E-03     26.9783E-03    -13.4739E-03     420.868E-06    -13.4621E-03     26.7184E-03    -13.4334E-03     419.268E-06


