********************************************************************************
Field Output Report, written Tue May 28 18:43:01 2024

Source 1
---------

   ODB: G:/Abaqus_calc_2019/1740/Vel_20/odb/zeides_2a_24_red_1000_cal_10_vel_20_fric_025.odb
   Step: Step-1
   Frame: Increment   4437015: Step Time =   0.5277

Loc 1 : Nodal values from source 1

Output sorted by column "Nodal Label".

Field Output reported at nodes for region: DIE_2A_24_D0_36-1.Region_1
   Computation algorithm: EXTRAPOLATE_COMPUTE_AVERAGE
   Averaged at nodes
   Averaging regions: ODB_REGIONS

      Node Label     COORD.COOR1     COORD.COOR2
                          @Loc 1          @Loc 1
-------------------------------------------------
               1     19.5682E-03     139.041E-03


Field Output reported at nodes for region: DIE_2A_24_D0_36-1.Region_2
   Computation algorithm: EXTRAPOLATE_COMPUTE_AVERAGE
   Averaged at nodes
   Averaging regions: ODB_REGIONS

      Node Label     COORD.COOR1     COORD.COOR2
                          @Loc 1          @Loc 1
-------------------------------------------------
               1     19.5682E-03     139.041E-03


Field Output reported at nodes for part: WIRE-1
   Computation algorithm: EXTRAPOLATE_COMPUTE_AVERAGE
   Averaged at nodes
   Averaging regions: ODB_REGIONS

      Node Label     COORD.COOR1     COORD.COOR2           S.S11           S.S22           S.S33           S.S12         PE.PE11         PE.PE22         PE.PE33         PE.PE12         LE.LE11         LE.LE22         LE.LE33         LE.LE12
                          @Loc 1          @Loc 1          @Loc 1          @Loc 1          @Loc 1          @Loc 1          @Loc 1          @Loc 1          @Loc 1          @Loc 1          @Loc 1          @Loc 1          @Loc 1          @Loc 1
-------------------------------------------------------------------------------------------------------------------------------------------------------------------------------------------------------------------------------------------------
               1     311.341E-09     67.0132E-03    -100.114E+06    -250.846E+06    -99.6050E+06     27.9879E+03    -108.019E-03     215.664E-03    -107.646E-03     9.87441E-03    -108.015E-03     214.704E-03    -107.635E-03     9.69034E-03
               2     16.1668E-03     69.0080E-03    -3.95282E+06     121.492E+06     91.0011E+06     264.880E+03    -106.813E-03     214.547E-03    -107.734E-03     15.2801E-03    -107.679E-03     215.566E-03    -107.449E-03     12.3069E-03
               3     16.0748E-03     138.160E-03    -30.8009E+06     55.3099E+06     80.7269E+06    -16.5284E+06     50.3187E-03     62.3958E-03    -112.715E-03     14.9758E-03     50.1306E-03     62.7626E-03    -112.346E-03     14.7633E-03
               4     638.666E-09     134.072E-03     43.5991E+06    -6.81975E+06     47.6682E+06    -1.96873E+06    -103.851E-03     208.046E-03    -104.196E-03    -10.5938E-03    -103.745E-03     207.824E-03    -104.011E-03    -10.6789E-03
               5     187.545E-09     1.81799E-15    -53.3489E+06    -207.097E+06    -53.0652E+06    -124.542E+03    -114.467E-03     228.538E-03    -114.071E-03     2.23053E-03    -114.356E-03     227.657E-03    -113.959E-03     2.21920E-03
               6     15.8665E-03     1.81799E-15     15.2271E+06     122.779E+06     106.217E+06     1.27445E+06    -160.102E-03     281.154E-03    -121.052E-03     141.622E-03    -161.445E-03     282.636E-03    -120.721E-03     137.350E-03
               7     807.984E-06     67.0256E-03    -99.1416E+06    -248.909E+06    -96.6160E+06    -19.9440E+03    -108.004E-03     215.756E-03    -107.752E-03     16.0615E-03    -108.011E-03     214.808E-03    -107.730E-03     15.7505E-03
               8     1.61604E-03     67.0507E-03    -95.6928E+06    -242.515E+06    -87.1465E+06    -8.10427E+03    -108.074E-03     215.957E-03    -107.884E-03     29.2830E-03    -108.113E-03     215.049E-03    -107.829E-03     28.6989E-03
               9     2.42399E-03     67.0909E-03    -90.5686E+06    -233.029E+06    -73.4683E+06     21.8391E+03    -108.268E-03     216.196E-03    -107.927E-03     43.1531E-03    -108.363E-03     215.354E-03    -107.825E-03     42.2644E-03
              10     3.23191E-03     67.1465E-03    -84.5190E+06    -222.802E+06    -59.3043E+06    -57.0731E+03    -108.531E-03     216.488E-03    -107.957E-03     56.6461E-03    -108.700E-03     215.738E-03    -107.808E-03     55.4225E-03
              11     4.04028E-03     67.2167E-03    -78.0789E+06    -207.154E+06    -46.4377E+06     70.6733E+03    -108.865E-03     216.832E-03    -107.968E-03     69.6653E-03    -109.139E-03     216.229E-03    -107.786E-03     68.0756E-03
              12     4.84818E-03     67.3014E-03    -71.8356E+06    -190.694E+06    -33.5500E+06     446.528E+03    -109.237E-03     217.213E-03    -107.976E-03     82.1044E-03    -109.651E-03     216.792E-03    -107.763E-03     80.1148E-03
              13     5.65663E-03     67.3990E-03    -65.7124E+06    -174.749E+06    -22.1610E+06     404.568E+03    -109.622E-03     217.600E-03    -107.978E-03     93.8446E-03    -110.210E-03     217.398E-03    -107.740E-03     91.4072E-03
              14     6.46472E-03     67.5093E-03    -59.6726E+06    -159.656E+06    -14.4238E+06     11.5178E+03    -110.030E-03     217.994E-03    -107.964E-03     104.773E-03    -110.829E-03     218.057E-03    -107.718E-03     101.836E-03
              15     7.27275E-03     67.6306E-03    -54.0613E+06    -142.744E+06    -7.97712E+06    -40.1258E+03    -110.397E-03     218.343E-03    -107.946E-03     114.763E-03    -111.461E-03     218.732E-03    -107.700E-03     111.287E-03
              16     8.08161E-03     67.7628E-03    -49.3286E+06    -118.061E+06    -2.21287E+06     209.616E+03    -110.614E-03     218.529E-03    -107.915E-03     123.592E-03    -112.008E-03     219.336E-03    -107.684E-03     119.556E-03
              17     8.88897E-03     67.9033E-03    -44.6555E+06    -93.7621E+06     4.05521E+06     145.099E+03    -110.671E-03     218.555E-03    -107.884E-03     131.113E-03    -112.455E-03     219.836E-03    -107.663E-03     126.483E-03
              18     9.69809E-03     68.0508E-03    -40.3732E+06    -63.4039E+06     9.68163E+06     154.512E+03    -110.635E-03     218.474E-03    -107.840E-03     137.682E-03    -112.892E-03     220.335E-03    -107.641E-03     132.432E-03
              19     10.5064E-03     68.2050E-03    -36.4459E+06    -21.1976E+06     18.3804E+06     367.042E+03    -110.438E-03     218.231E-03    -107.793E-03     143.380E-03    -113.260E-03     220.795E-03    -107.617E-03     137.521E-03
              20     11.3147E-03     68.3643E-03    -31.3444E+06     37.4205E+06     31.9109E+06     713.708E+03    -109.903E-03     217.643E-03    -107.740E-03     145.804E-03    -113.288E-03     220.958E-03    -107.590E-03     139.470E-03
              21     12.1235E-03     68.5230E-03    -26.2765E+06     90.7067E+06     45.9601E+06     655.598E+03    -109.053E-03     216.747E-03    -107.693E-03     141.983E-03    -112.818E-03     220.607E-03    -107.557E-03     135.433E-03
              22     12.9320E-03     68.6728E-03    -22.2515E+06     111.624E+06     63.7618E+06    -181.568E+03    -108.020E-03     215.731E-03    -107.712E-03     130.180E-03    -111.808E-03     219.652E-03    -107.522E-03     123.736E-03
              23     13.7402E-03     68.8050E-03    -16.4551E+06     119.210E+06     82.6824E+06    -291.784E+03    -106.842E-03     214.594E-03    -107.753E-03     106.379E-03    -110.152E-03     218.030E-03    -107.488E-03     100.406E-03
              24     14.5512E-03     68.9008E-03    -10.0744E+06     126.227E+06     95.2748E+06    -126.659E+03    -106.272E-03     214.040E-03    -107.768E-03     87.6287E-03    -109.183E-03     217.087E-03    -107.460E-03     82.0087E-03
              25     15.3564E-03     68.9938E-03    -5.72967E+06     125.089E+06     95.2717E+06    -4.05411E+03    -106.569E-03     214.321E-03    -107.753E-03     49.9290E-03    -108.449E-03     216.349E-03    -107.449E-03     45.6444E-03
              26     16.1657E-03     70.1838E-03    -1.88224E+06     120.949E+06     91.3810E+06    -110.529E+03    -105.722E-03     213.466E-03    -107.744E-03     16.7374E-03    -106.586E-03     214.488E-03    -107.460E-03     13.7757E-03
              27     16.1675E-03     71.3596E-03    -1.32055E+06     121.921E+06     92.1510E+06     146.273E+03    -105.777E-03     213.497E-03    -107.720E-03     17.0834E-03    -106.645E-03     214.526E-03    -107.434E-03     14.1132E-03
              28     16.1665E-03     72.5321E-03    -3.28947E+06     122.636E+06     91.9326E+06     205.810E+03    -106.956E-03     214.670E-03    -107.715E-03     16.1627E-03    -107.827E-03     215.699E-03    -107.428E-03     13.1807E-03
              29     16.1651E-03     73.7153E-03    -2.30724E+06     123.069E+06     92.1243E+06     823.433E+03    -105.830E-03     213.573E-03    -107.743E-03     16.7989E-03    -106.702E-03     214.606E-03    -107.457E-03     13.8440E-03
              30     16.1689E-03     74.8811E-03    -2.06986E+06     123.611E+06     92.5614E+06    -752.219E+03    -105.626E-03     213.351E-03    -107.725E-03     16.9317E-03    -106.498E-03     214.387E-03    -107.439E-03     13.9579E-03
              31     16.1642E-03     76.0628E-03    -2.88434E+06     122.863E+06     92.1350E+06     127.226E+03    -107.248E-03     214.959E-03    -107.710E-03     16.0814E-03    -108.116E-03     215.985E-03    -107.423E-03     13.0937E-03
              32     16.1681E-03     77.2395E-03    -2.28446E+06     123.184E+06     92.2720E+06     488.327E+03    -106.195E-03     213.929E-03    -107.734E-03     17.2032E-03    -107.067E-03     214.962E-03    -107.448E-03     14.2346E-03
              33     16.1651E-03     78.4109E-03    -2.53792E+06     123.400E+06     92.1615E+06    -363.060E+03    -106.028E-03     213.760E-03    -107.732E-03     16.1687E-03    -106.897E-03     214.790E-03    -107.446E-03     13.2013E-03
              34     16.1676E-03     79.5899E-03    -2.48916E+06     123.117E+06     92.1200E+06    -20.7292E+03    -106.338E-03     214.068E-03    -107.730E-03     16.1417E-03    -107.207E-03     215.098E-03    -107.444E-03     13.1674E-03
              35     16.1652E-03     80.7641E-03    -2.25115E+06     123.300E+06     92.3916E+06     130.119E+03    -106.007E-03     213.742E-03    -107.735E-03     17.2935E-03    -106.882E-03     214.779E-03    -107.449E-03     14.3249E-03
              36     16.1677E-03     81.9408E-03    -2.33988E+06     123.329E+06     92.6379E+06    -190.959E+03    -106.016E-03     213.749E-03    -107.733E-03     16.6980E-03    -106.888E-03     214.782E-03    -107.446E-03     13.7290E-03
              37     16.1653E-03     83.1137E-03    -2.11347E+06     123.051E+06     92.9496E+06     200.928E+03    -106.172E-03     213.904E-03    -107.731E-03     16.5770E-03    -107.041E-03     214.932E-03    -107.442E-03     13.6183E-03
              38     16.1677E-03     84.2927E-03    -1.37363E+06     123.434E+06     93.5255E+06    -79.8849E+03    -105.583E-03     213.302E-03    -107.719E-03     17.3843E-03    -106.452E-03     214.333E-03    -107.428E-03     14.4251E-03
              39     16.1672E-03     85.4639E-03    -2.07495E+06     121.751E+06     92.5594E+06    -987.111E+03    -106.437E-03     214.147E-03    -107.710E-03     16.4534E-03    -107.304E-03     215.170E-03    -107.421E-03     13.4625E-03
              40     16.1649E-03     86.6430E-03    -3.08115E+06     121.721E+06     92.0484E+06     1.32466E+06    -106.656E-03     214.382E-03    -107.726E-03     15.6267E-03    -107.521E-03     215.401E-03    -107.438E-03     12.6730E-03
              41     16.1686E-03     87.8166E-03    -2.67943E+06     123.672E+06     92.6402E+06    -108.028E+03    -105.845E-03     213.574E-03    -107.729E-03     16.5903E-03    -106.720E-03     214.610E-03    -107.441E-03     13.6178E-03
              42     16.1646E-03     88.9931E-03    -2.83649E+06     123.819E+06     92.3761E+06    -102.448E+03    -106.574E-03     214.292E-03    -107.718E-03     16.6238E-03    -107.450E-03     215.329E-03    -107.431E-03     13.6390E-03
              43     16.1683E-03     90.1701E-03    -2.32505E+06     124.765E+06     92.9977E+06     221.354E+03    -106.118E-03     213.847E-03    -107.729E-03     16.5420E-03    -106.992E-03     214.886E-03    -107.441E-03     13.5745E-03
              44     16.1650E-03     91.3432E-03    -2.09151E+06     125.319E+06     93.2449E+06     185.056E+03    -105.828E-03     213.561E-03    -107.733E-03     16.5014E-03    -106.700E-03     214.601E-03    -107.446E-03     13.5453E-03
              45     16.1680E-03     92.5203E-03    -1.40250E+06     126.138E+06     94.1339E+06     40.6174E+03    -105.739E-03     213.459E-03    -107.719E-03     16.9962E-03    -106.613E-03     214.502E-03    -107.429E-03     14.0321E-03
              46     16.1664E-03     93.6940E-03    -3.09268E+06     124.730E+06     93.2316E+06    -706.802E+03    -106.623E-03     214.343E-03    -107.719E-03     16.3657E-03    -107.501E-03     215.381E-03    -107.430E-03     13.3742E-03
              47     16.1652E-03     94.8725E-03    -3.08301E+06     124.759E+06     93.1398E+06     1.24185E+06    -106.705E-03     214.444E-03    -107.739E-03     16.4313E-03    -107.579E-03     215.480E-03    -107.450E-03     13.4748E-03
              48     16.1679E-03     96.0462E-03    -2.40834E+06     126.614E+06     94.0990E+06     299.793E+03    -105.927E-03     213.669E-03    -107.742E-03     16.8222E-03    -106.806E-03     214.716E-03    -107.452E-03     13.8598E-03
              49     16.1649E-03     97.2231E-03    -1.43075E+06     129.092E+06     95.6619E+06     1.35985E+06    -106.202E-03     213.951E-03    -107.749E-03     15.9355E-03    -107.080E-03     215.005E-03    -107.456E-03     12.9789E-03
              50     16.1674E-03     98.3971E-03    -2.66673E+06     127.535E+06     93.8809E+06     138.290E+03    -105.865E-03     213.609E-03    -107.744E-03     16.0841E-03    -106.744E-03     214.658E-03    -107.455E-03     13.1108E-03
              51     16.1659E-03     99.5726E-03    -3.66732E+06     126.007E+06     93.0872E+06    -1.06206E+06    -106.146E-03     213.867E-03    -107.720E-03     17.4687E-03    -107.032E-03     214.916E-03    -107.432E-03     14.4785E-03
              52     16.1674E-03     100.752E-03    -1.36560E+06     129.533E+06     96.3808E+06     320.099E+03    -105.840E-03     213.559E-03    -107.719E-03     18.0853E-03    -106.730E-03     214.624E-03    -107.423E-03     15.1151E-03
              53     16.1670E-03     101.921E-03    -2.67056E+06     129.691E+06     95.8491E+06     37.4403E+03    -106.005E-03     213.730E-03    -107.724E-03     16.4163E-03    -106.891E-03     214.788E-03    -107.429E-03     13.4533E-03
              54     16.1656E-03     103.101E-03    -2.65009E+06     130.214E+06     95.8998E+06     1.00069E+06    -105.681E-03     213.417E-03    -107.736E-03     16.2592E-03    -106.566E-03     214.476E-03    -107.441E-03     13.3182E-03
              55     16.1686E-03     104.273E-03    -2.44531E+06     131.284E+06     96.3079E+06    -89.8416E+03    -105.562E-03     213.282E-03    -107.720E-03     17.0552E-03    -106.456E-03     214.354E-03    -107.425E-03     14.0817E-03
              56     16.1652E-03     105.449E-03    -3.25346E+06     132.276E+06     96.5008E+06     313.592E+03    -106.233E-03     213.928E-03    -107.695E-03     16.1103E-03    -107.122E-03     214.995E-03    -107.400E-03     13.1462E-03
              57     16.1696E-03     106.626E-03    -1.75891E+06     134.078E+06     97.9464E+06    -233.915E+03    -105.357E-03     213.047E-03    -107.690E-03     16.8700E-03    -106.251E-03     214.127E-03    -107.392E-03     13.9072E-03
              58     16.1661E-03     107.798E-03    -2.47335E+06     133.989E+06     98.0803E+06     3.91825E+03    -105.699E-03     213.363E-03    -107.664E-03     17.1210E-03    -106.601E-03     214.448E-03    -107.365E-03     14.1486E-03
              59     16.1697E-03     108.976E-03    -2.38925E+06     134.450E+06     98.8452E+06     867.493E+03    -105.516E-03     213.134E-03    -107.618E-03     17.9202E-03    -106.419E-03     214.219E-03    -107.315E-03     14.9601E-03
              60     16.1694E-03     110.149E-03    -2.82053E+06     134.859E+06     100.207E+06     38.9586E+03    -105.612E-03     213.175E-03    -107.563E-03     18.4294E-03    -106.526E-03     214.267E-03    -107.254E-03     15.4439E-03
              61     16.1702E-03     111.324E-03    -2.58824E+06     136.010E+06     102.490E+06     1.28206E+06    -105.602E-03     213.092E-03    -107.491E-03     17.7494E-03    -106.515E-03     214.182E-03    -107.172E-03     14.7789E-03
              62     16.1741E-03     112.497E-03    -2.81571E+06     137.244E+06     104.112E+06     212.896E+03    -105.490E-03     212.843E-03    -107.353E-03     19.1685E-03    -106.417E-03     213.945E-03    -107.027E-03     16.1635E-03
              63     16.1748E-03     113.674E-03     -2.7516E+06     136.734E+06     104.656E+06     23.4399E+03    -106.684E-03     213.837E-03    -107.153E-03     20.2987E-03    -107.619E-03     214.944E-03    -106.824E-03     17.2389E-03
              64     16.1804E-03     114.849E-03    -2.99911E+06     135.575E+06     105.062E+06    -137.663E+03    -107.978E-03     214.879E-03    -106.901E-03     21.6639E-03    -108.925E-03     215.992E-03    -106.568E-03     18.5339E-03
              65     16.1826E-03     116.026E-03    -2.90162E+06     134.012E+06     107.300E+06    -152.555E+03    -110.260E-03     216.864E-03    -106.603E-03     22.1633E-03    -111.216E-03     217.974E-03    -106.257E-03     18.9433E-03
              66     16.1886E-03     117.209E-03    -2.76364E+06     132.050E+06     109.168E+06    -267.673E+03    -113.495E-03     219.745E-03    -106.250E-03     25.4096E-03    -114.482E-03     220.875E-03    -105.892E-03     22.0294E-03
              67     16.1922E-03     118.393E-03    -2.48115E+06     129.405E+06     109.666E+06    -571.802E+03    -119.436E-03     225.273E-03    -105.838E-03     27.8023E-03    -120.444E-03     226.415E-03    -105.473E-03     24.1881E-03
              68     16.1958E-03     119.590E-03    -2.95748E+06     128.049E+06     110.051E+06    -105.796E+03    -125.984E-03     231.446E-03    -105.462E-03     29.7098E-03    -127.021E-03     232.609E-03    -105.093E-03     25.8467E-03
              69     16.1986E-03     120.792E-03    -2.17025E+06     123.654E+06     108.143E+06    -1.34606E+06    -132.962E-03     238.070E-03    -105.109E-03     34.0259E-03    -134.037E-03     239.263E-03    -104.744E-03     29.8309E-03
              70     16.2006E-03     122.001E-03    -3.54003E+06     117.593E+06     105.226E+06    -1.23177E+06    -142.084E-03     246.843E-03    -104.759E-03     36.0372E-03    -143.185E-03     248.044E-03    -104.398E-03     31.4543E-03
              71     16.2015E-03     123.226E-03    -2.39514E+06     112.990E+06     104.117E+06    -2.16966E+06    -151.312E-03     255.766E-03    -104.455E-03     39.9580E-03    -152.456E-03     257.003E-03    -104.095E-03     34.8864E-03
              72     16.2026E-03     124.460E-03    -3.56374E+06     105.934E+06     103.397E+06    -2.68415E+06    -160.099E-03     264.297E-03    -104.199E-03     44.6307E-03    -161.301E-03     265.565E-03    -103.830E-03     39.0814E-03
              73     16.2027E-03     125.704E-03    -1.49971E+06     98.7799E+06     103.084E+06    -1.29532E+06    -169.414E-03     273.371E-03    -103.957E-03     50.9610E-03    -170.667E-03     274.673E-03    -103.583E-03     44.9484E-03
              74     16.2031E-03     126.964E-03    -5.30397E+06     87.8312E+06     99.1468E+06    -5.11113E+06    -178.935E-03     282.637E-03    -103.702E-03     58.0771E-03    -180.259E-03     283.969E-03    -103.326E-03     51.5247E-03
              75     16.2043E-03     128.229E-03     1.99014E+06     77.6201E+06     104.221E+06    -1.80910E+06    -187.972E-03     291.439E-03    -103.468E-03     64.1700E-03    -189.345E-03     292.796E-03    -103.062E-03     57.0803E-03
              76     16.2049E-03     129.511E-03    -4.59106E+06     67.2658E+06     105.434E+06    -1.51399E+06    -197.099E-03     300.351E-03    -103.252E-03     70.6465E-03    -198.643E-03     301.815E-03    -102.816E-03     62.6916E-03
              77     16.2046E-03     130.801E-03    -1.15656E+06     53.6670E+06     106.395E+06    -2.43049E+06    -206.165E-03     309.180E-03    -103.014E-03     80.8391E-03    -207.798E-03     310.695E-03    -102.559E-03     72.3181E-03
              78     16.2082E-03     132.109E-03    -5.96421E+06     42.7778E+06     110.696E+06    -5.95864E+06    -210.481E-03     313.370E-03    -102.888E-03     87.8921E-03    -212.161E-03     314.865E-03    -102.388E-03     79.2985E-03
              79     16.2064E-03     133.410E-03     6.38502E+06     41.4761E+06     124.560E+06     3.82573E+06    -211.642E-03     314.514E-03    -102.872E-03     96.1429E-03    -213.427E-03     316.109E-03    -102.319E-03     87.3129E-03
              80     16.2097E-03     134.707E-03    -11.1551E+06     46.8893E+06     120.416E+06     3.43966E+06    -201.850E-03     304.852E-03    -103.002E-03     101.957E-03    -203.916E-03     306.705E-03    -102.451E-03     92.8441E-03
              81     16.2107E-03     136.006E-03    -4.14209E+06     23.6614E+06     84.3753E+06    -12.6374E+06    -162.842E-03     266.561E-03    -103.719E-03     144.553E-03    -164.995E-03     268.559E-03    -103.325E-03     137.044E-03
              82     16.2148E-03     137.269E-03     19.6093E+06     27.4701E+06     76.7568E+06    -12.6369E+06    -42.3206E-03     150.821E-03    -108.501E-03     102.541E-03    -43.3675E-03     151.987E-03    -108.185E-03     99.5571E-03
              83     15.0589E-03     138.007E-03    -11.6588E+06    -20.2333E+06     74.2232E+06    -7.74643E+06     16.1475E-03     99.0265E-03    -115.174E-03    -13.9258E-03     16.0795E-03     98.9056E-03    -114.757E-03    -14.0832E-03
              84     14.2444E-03     137.672E-03     2.78194E+06    -17.5148E+06     90.4211E+06    -10.6555E+06    -13.8948E-03     132.707E-03    -118.813E-03    -18.9779E-03    -13.9976E-03     132.542E-03    -118.339E-03    -19.2997E-03
              85     13.3773E-03     137.309E-03     8.83232E+06     714.208E+03     105.597E+06    -4.69695E+06    -11.3418E-03     132.433E-03    -121.091E-03    -14.6838E-03    -11.4692E-03     132.357E-03    -120.577E-03    -15.0260E-03
              86     12.5575E-03     136.946E-03     25.2362E+06    -8.23675E+06     112.078E+06     3.91256E+06    -17.1004E-03     139.977E-03    -122.876E-03    -40.0250E-03    -17.1512E-03     139.766E-03    -122.341E-03    -40.3411E-03
              87     11.7441E-03     136.586E-03     26.8146E+06     16.1369E+06     115.157E+06     5.86272E+06    -28.9246E-03     152.712E-03    -123.788E-03    -60.0334E-03    -28.9757E-03     152.575E-03    -123.274E-03    -60.4794E-03
              88     10.9494E-03     136.242E-03     23.9528E+06     2.98477E+06     107.695E+06     10.0798E+06    -43.7296E-03     167.410E-03    -123.680E-03    -87.5830E-03    -43.7288E-03     167.146E-03    -123.181E-03    -88.1421E-03
              89     10.1731E-03     135.919E-03     24.0299E+06     993.143E+03     106.003E+06     5.20604E+06    -57.5463E-03     180.155E-03    -122.609E-03    -108.067E-03    -57.5113E-03     179.818E-03    -122.115E-03    -108.797E-03
              90     9.40413E-03     135.623E-03     24.5103E+06    -1.75951E+06     105.132E+06     3.26522E+06    -69.7601E-03     190.644E-03    -120.884E-03    -118.479E-03    -69.7026E-03     190.259E-03    -120.391E-03    -119.284E-03
              91     8.63886E-03     135.353E-03     27.0849E+06     984.675E+03     105.204E+06     973.219E+03    -79.6791E-03     198.470E-03    -118.791E-03    -121.282E-03    -79.6174E-03     198.084E-03    -118.306E-03    -122.107E-03
              92     7.87329E-03     135.116E-03     29.9668E+06    -3.45212E+06     100.491E+06     615.961E+03    -87.7768E-03     204.324E-03    -116.547E-03    -117.452E-03    -87.7011E-03     203.930E-03    -116.083E-03    -118.228E-03
              93     7.10341E-03     134.905E-03     32.7469E+06    -1.77811E+06     96.7420E+06     674.766E+03    -94.0249E-03     208.305E-03    -114.280E-03    -109.417E-03    -93.9499E-03     207.944E-03    -113.842E-03    -110.123E-03
              94     6.33087E-03     134.722E-03     34.1921E+06     679.686E+03     92.5305E+06     1.09898E+06    -98.1961E-03     210.284E-03    -112.088E-03    -98.7477E-03    -98.1312E-03     209.962E-03    -111.676E-03    -99.3654E-03
              95     5.55247E-03     134.564E-03     35.2081E+06     1.53933E+06     88.1390E+06    -517.655E+03    -100.925E-03     210.979E-03    -110.053E-03    -86.5091E-03    -100.867E-03     210.691E-03    -109.666E-03    -87.0589E-03
              96     4.76986E-03     134.432E-03     36.6551E+06     511.740E+03     83.1082E+06    -1.62766E+06    -102.412E-03     210.625E-03    -108.213E-03    -73.9841E-03    -102.351E-03     210.359E-03    -107.852E-03    -74.4619E-03
              97     3.98178E-03     134.321E-03     38.5198E+06     639.984E+03     75.2963E+06    -3.22655E+06    -102.884E-03     209.482E-03    -106.598E-03    -61.5535E-03    -102.814E-03     209.243E-03    -106.278E-03    -61.9693E-03
              98     3.19025E-03     134.232E-03     41.6302E+06    -1.09068E+06     66.0155E+06    -4.06259E+06    -102.831E-03     208.104E-03    -105.274E-03    -49.1050E-03    -102.740E-03     207.878E-03    -105.002E-03    -49.4533E-03
              99     2.39543E-03     134.163E-03     45.6398E+06    -775.951E+03     59.6056E+06    -4.05147E+06    -102.242E-03     206.625E-03    -104.383E-03    -37.1397E-03    -102.127E-03     206.417E-03    -104.150E-03    -37.4134E-03
             100     1.59612E-03     134.114E-03     48.9645E+06    -1.37205E+06     54.8060E+06    -4.09659E+06    -102.171E-03     206.221E-03    -104.051E-03    -26.6294E-03    -102.036E-03     206.019E-03    -103.846E-03    -26.8350E-03
             101     796.283E-06     134.085E-03     47.0714E+06    -3.22561E+06     50.5086E+06    -3.19605E+06    -103.216E-03     207.329E-03    -104.113E-03    -16.1817E-03    -103.095E-03     207.121E-03    -103.924E-03    -16.3128E-03
             102    -675.322E-09     132.905E-03     34.0901E+06    -8.67097E+06     32.6974E+06    -3.31273E+06    -89.6168E-03     179.662E-03    -90.0451E-03    -5.82964E-03    -89.5158E-03     179.486E-03    -89.9185E-03    -5.92815E-03
             103     298.329E-09     131.803E-03     276.453E+03    -21.9944E+06    -1.34203E+06    -3.68535E+06    -66.9478E-03     134.244E-03    -67.2961E-03     1.88409E-03    -66.9244E-03     134.124E-03    -67.2713E-03     1.79385E-03
             104    -405.427E-09     130.736E-03    -39.7273E+06    -39.5292E+06    -38.6466E+06    -4.04734E+06    -53.5842E-03     107.111E-03    -53.5266E-03     6.57241E-03    -53.6740E-03     107.023E-03    -53.6049E-03     6.49569E-03
             105     648.756E-09     129.693E-03    -83.8016E+06    -60.5266E+06    -82.8807E+06    -6.70815E+06    -46.7246E-03     92.9655E-03    -46.2408E-03     9.58033E-03    -46.9365E-03     92.9046E-03    -46.4460E-03     9.48289E-03
             106    -83.0524E-09     128.656E-03    -134.973E+06    -84.3169E+06    -133.469E+06    -5.28209E+06    -45.1964E-03     90.1057E-03    -44.9093E-03     11.8237E-03    -45.5555E-03     90.0736E-03    -45.2587E-03     11.7535E-03
             107    -34.5643E-09     127.619E-03    -184.293E+06    -105.188E+06    -183.008E+06    -5.44092E+06    -48.2640E-03     96.6359E-03    -48.3719E-03     13.4555E-03    -48.7684E-03     96.6415E-03    -48.8672E-03     13.3887E-03
             108    -90.9899E-09     126.568E-03    -189.192E+06    -121.104E+06    -191.336E+06    -2.83182E+06    -55.4499E-03     110.495E-03    -55.0448E-03     14.2340E-03    -55.9453E-03     110.438E-03    -55.5516E-03     14.1998E-03
             109     809.964E-09     125.502E-03    -143.325E+06    -122.191E+06    -143.173E+06     2.06460E+06    -64.6675E-03     128.718E-03    -64.0509E-03     14.1072E-03    -65.0030E-03     128.520E-03    -64.3818E-03     14.1243E-03
             110    -543.098E-09     124.413E-03    -103.281E+06    -119.037E+06    -102.010E+06    -772.028E+03    -73.7116E-03     147.391E-03    -73.6799E-03     13.2525E-03    -73.9112E-03     147.092E-03    -73.8676E-03     13.2149E-03
             111     294.052E-09     123.304E-03    -88.3818E+06    -125.202E+06    -89.7054E+06    -1.83809E+06    -82.0286E-03     163.887E-03    -81.8587E-03     12.7353E-03    -82.1623E-03     163.519E-03    -81.9975E-03     12.6675E-03
             112     164.370E-09     122.178E-03    -82.8765E+06    -135.233E+06    -83.7836E+06    -2.42325E+06    -89.0715E-03     177.700E-03    -88.6282E-03     13.0186E-03    -89.1716E-03     177.266E-03    -88.7309E-03     12.9183E-03
             113     34.2461E-09     121.038E-03    -82.8373E+06    -147.466E+06    -81.7733E+06    -3.57670E+06    -94.6870E-03     189.030E-03    -94.3431E-03     12.6233E-03    -94.7723E-03     188.533E-03    -94.4180E-03     12.4747E-03
             114     277.792E-09     119.888E-03    -82.5634E+06    -162.706E+06    -84.4673E+06    -3.76797E+06    -99.4142E-03     198.045E-03    -98.6305E-03     11.3455E-03    -99.4719E-03     197.476E-03    -98.6971E-03     11.1712E-03
             115     613.804E-09     118.729E-03    -85.6573E+06    -176.204E+06    -86.7772E+06    -3.38758E+06    -102.766E-03     204.731E-03    -101.965E-03     10.3709E-03    -102.816E-03     204.103E-03    -102.019E-03     10.1820E-03
             116    -259.583E-09     117.562E-03    -91.8724E+06    -187.626E+06    -91.5827E+06    -2.36603E+06    -104.746E-03     209.224E-03    -104.477E-03     10.1898E-03    -104.804E-03     208.555E-03    -104.530E-03     10.0033E-03
             117     299.915E-09     116.391E-03    -94.9612E+06    -196.834E+06    -95.4899E+06    -2.11394E+06    -106.188E-03     212.235E-03    -106.047E-03     10.2287E-03    -106.242E-03     211.531E-03    -106.102E-03     10.0393E-03
             118    -163.580E-09     115.218E-03    -99.4816E+06    -206.616E+06    -99.1491E+06    -1.82945E+06    -107.206E-03     214.280E-03    -107.073E-03     10.1398E-03    -107.263E-03     213.538E-03    -107.125E-03     9.94987E-03
             119     200.469E-09     114.043E-03    -101.574E+06    -214.489E+06    -102.352E+06    -1.41684E+06    -107.816E-03     215.501E-03    -107.685E-03     9.86594E-03    -107.868E-03     214.728E-03    -107.739E-03     9.67767E-03
             120    -75.7624E-09     112.868E-03    -104.959E+06    -221.727E+06    -104.142E+06    -1.75557E+06    -108.106E-03     216.229E-03    -108.123E-03     9.82440E-03    -108.162E-03     215.427E-03    -108.170E-03     9.61829E-03
             121    -108.566E-09     111.690E-03    -105.510E+06    -228.325E+06    -106.021E+06    -1.48156E+06    -108.182E-03     216.582E-03    -108.400E-03     10.1362E-03    -108.228E-03     215.751E-03    -108.446E-03     9.93141E-03
             122    -108.640E-09     110.514E-03    -107.432E+06    -234.143E+06    -107.258E+06    -933.557E+03    -108.114E-03     216.421E-03    -108.306E-03     10.2683E-03    -108.160E-03     215.566E-03    -108.348E-03     10.0713E-03
             123    -28.4115E-09     109.338E-03    -107.826E+06    -243.607E+06    -107.371E+06    -3.12911E+06    -108.301E-03     216.406E-03    -108.105E-03     10.0971E-03    -108.335E-03     215.504E-03    -108.132E-03     9.87380E-03
             124     444.184E-09     108.162E-03    -108.554E+06    -254.187E+06    -109.624E+06    -1.96963E+06    -108.640E-03     216.602E-03    -107.962E-03     9.66757E-03    -108.659E-03     215.652E-03    -107.984E-03     9.45409E-03
             125     185.627E-09     106.985E-03    -109.034E+06    -256.594E+06    -109.056E+06     314.601E+03    -108.444E-03     216.465E-03    -108.021E-03     9.66465E-03    -108.463E-03     215.502E-03    -108.036E-03     9.47212E-03
             126    -170.945E-09     105.809E-03    -107.150E+06    -255.455E+06    -106.877E+06    -754.430E+03    -108.068E-03     216.345E-03    -108.277E-03     10.0394E-03    -108.082E-03     215.383E-03    -108.286E-03     9.83443E-03
             127    -221.389E-09     104.632E-03    -106.951E+06    -256.269E+06    -106.693E+06     53.4166E+03    -108.154E-03     216.336E-03    -108.182E-03     10.1597E-03    -108.166E-03     215.369E-03    -108.189E-03     9.97316E-03
             128     525.761E-09     103.456E-03    -105.079E+06     -255.24E+06    -105.395E+06     331.542E+03    -108.504E-03     216.238E-03    -107.734E-03     10.1708E-03    -108.510E-03     215.271E-03    -107.738E-03     9.99450E-03
             129     366.676E-09     102.281E-03    -104.052E+06    -254.907E+06    -104.672E+06     193.303E+03    -108.362E-03     216.056E-03    -107.695E-03     9.93197E-03    -108.364E-03     215.089E-03    -107.698E-03     9.74950E-03
             130    -230.603E-09     101.105E-03    -104.473E+06    -254.923E+06    -103.516E+06    -422.267E+03    -107.932E-03     215.961E-03    -108.029E-03     9.62071E-03    -107.939E-03     214.992E-03    -108.025E-03     9.42294E-03
             131    -90.0376E-09     99.9295E-03    -103.044E+06    -254.425E+06    -103.378E+06     25.4002E+03    -107.974E-03     216.048E-03    -108.075E-03     9.53435E-03    -107.974E-03     215.080E-03    -108.073E-03     9.34181E-03
             132     205.670E-09     98.7534E-03    -103.424E+06    -254.751E+06    -103.193E+06     703.537E+03    -108.287E-03     216.092E-03    -107.805E-03     9.73308E-03    -108.289E-03     215.122E-03    -107.802E-03     9.55163E-03
             133     419.952E-09     97.5774E-03    -101.683E+06    -253.417E+06    -102.113E+06    -208.412E+03    -108.204E-03     215.948E-03    -107.744E-03     10.1802E-03    -108.201E-03     214.981E-03    -107.740E-03     9.98966E-03
             134    -351.686E-09     96.4016E-03    -101.615E+06    -252.987E+06    -101.403E+06     409.149E+03    -107.855E-03     215.726E-03    -107.871E-03     10.1184E-03    -107.853E-03     214.760E-03    -107.864E-03     9.94144E-03
             135     216.128E-09     95.2270E-03    -101.669E+06    -253.311E+06    -101.770E+06     464.175E+03    -107.969E-03     215.756E-03    -107.787E-03     10.0401E-03    -107.966E-03     214.789E-03    -107.781E-03     9.86343E-03
             136     168.795E-09     94.0505E-03    -100.465E+06    -252.133E+06    -100.548E+06     452.209E+03    -108.073E-03     215.685E-03    -107.612E-03     9.98752E-03    -108.068E-03     214.720E-03    -107.603E-03     9.80610E-03
             137     148.170E-09     92.8763E-03    -100.085E+06    -251.475E+06    -99.9264E+06    -98.9210E+03    -107.839E-03     215.522E-03    -107.683E-03     9.81016E-03    -107.833E-03     214.559E-03    -107.673E-03     9.61868E-03
             138    -252.140E-09     91.7013E-03    -99.4107E+06    -250.820E+06    -99.3485E+06    -526.787E+03    -107.887E-03     215.833E-03    -107.946E-03     9.53783E-03    -107.880E-03     214.871E-03    -107.935E-03     9.34183E-03
             139     222.817E-09     90.5251E-03    -100.076E+06    -251.664E+06    -100.332E+06     69.3747E+03    -108.141E-03     215.933E-03    -107.792E-03     9.33475E-03    -108.134E-03     214.969E-03    -107.783E-03     9.15379E-03
             140     331.188E-09     89.3496E-03    -99.3795E+06    -250.646E+06    -99.3053E+06     445.072E+03    -108.111E-03     215.807E-03    -107.696E-03     9.98091E-03    -108.104E-03     214.846E-03    -107.685E-03     9.80687E-03
             141    -257.045E-09     88.1735E-03    -98.7950E+06    -249.866E+06    -98.5669E+06    -271.816E+03    -107.994E-03     215.906E-03    -107.912E-03     10.2717E-03    -107.987E-03     214.947E-03    -107.899E-03     10.0805E-03
             142     272.188E-09     86.9978E-03    -100.034E+06    -251.441E+06    -100.589E+06    -117.406E+03    -107.995E-03     215.855E-03    -107.860E-03     10.4027E-03    -107.989E-03     214.893E-03    -107.853E-03     10.2118E-03
             143    -120.999E-09     85.8220E-03    -100.222E+06    -251.119E+06    -99.8231E+06     614.964E+03    -108.020E-03     215.785E-03    -107.764E-03     10.6216E-03    -108.017E-03     214.824E-03    -107.754E-03     10.4453E-03
             144     338.861E-09     84.6468E-03    -99.4659E+06    -250.435E+06    -99.3100E+06     231.652E+03    -108.152E-03     215.872E-03    -107.719E-03     10.3893E-03    -108.146E-03     214.912E-03    -107.708E-03     10.2105E-03
             145     98.2265E-09     83.4715E-03    -99.3731E+06    -250.423E+06    -99.4882E+06     195.026E+03    -108.070E-03     215.858E-03    -107.788E-03     10.0641E-03    -108.063E-03     214.898E-03    -107.778E-03     9.88442E-03
             146    -124.251E-09     82.2961E-03    -99.6263E+06    -250.434E+06    -99.4040E+06    -181.738E+03    -107.654E-03     215.699E-03    -108.046E-03     9.96763E-03    -107.648E-03     214.740E-03    -108.035E-03     9.78317E-03
             147    -524.283E-09     81.1207E-03    -100.618E+06    -251.136E+06    -99.8149E+06    -140.564E+03    -107.652E-03     215.634E-03    -107.983E-03     9.87417E-03    -107.649E-03     214.673E-03    -107.972E-03     9.69316E-03
             148     604.314E-09     79.9453E-03    -99.8942E+06    -251.259E+06    -100.673E+06     194.482E+03    -108.179E-03     215.784E-03    -107.604E-03     9.84672E-03    -108.172E-03     214.822E-03    -107.598E-03     9.66304E-03
             149     195.318E-09     78.7701E-03    -100.309E+06    -251.374E+06    -100.479E+06    -340.394E+03    -108.224E-03     215.868E-03    -107.644E-03     9.65678E-03    -108.219E-03     214.907E-03    -107.637E-03     9.45595E-03
             150    -98.6988E-09     77.5949E-03    -99.5344E+06    -250.460E+06    -99.3600E+06    -448.463E+03    -107.946E-03     215.932E-03    -107.986E-03     9.80252E-03    -107.941E-03     214.973E-03    -107.975E-03     9.59873E-03
             151    -100.727E-09     76.4176E-03    -99.3101E+06    -250.439E+06    -99.5807E+06     17.4898E+03    -107.972E-03     215.927E-03    -107.956E-03     9.87584E-03    -107.964E-03     214.968E-03    -107.947E-03     9.69149E-03
             152     281.130E-09     75.2437E-03    -100.327E+06    -251.131E+06    -99.8910E+06     433.078E+03    -108.104E-03     215.785E-03    -107.681E-03     9.46180E-03    -108.100E-03     214.823E-03    -107.670E-03     9.28856E-03
             153     189.331E-09     74.0679E-03    -99.7824E+06    -251.044E+06    -100.060E+06    -296.808E+03    -108.067E-03     215.882E-03    -107.815E-03     9.71732E-03    -108.061E-03     214.921E-03    -107.807E-03     9.52906E-03
             154    -295.715E-09     72.8913E-03    -100.095E+06    -251.009E+06    -100.002E+06     184.342E+03    -107.809E-03     215.919E-03    -108.110E-03     9.95681E-03    -107.804E-03     214.959E-03    -108.101E-03     9.77639E-03
             155    -125.835E-09     71.7164E-03    -100.812E+06    -251.368E+06    -100.210E+06    -72.8914E+03    -107.784E-03     215.685E-03    -107.901E-03     9.81706E-03    -107.781E-03     214.723E-03    -107.891E-03     9.63598E-03
             156     322.880E-09     70.5406E-03    -100.317E+06    -251.105E+06    -100.023E+06    -21.4656E+03    -108.000E-03     215.481E-03    -107.481E-03     9.58499E-03    -107.996E-03     214.521E-03    -107.472E-03     9.39842E-03
             157     283.199E-09     69.3670E-03    -100.134E+06    -250.903E+06    -99.8466E+06    -613.690E+03    -108.093E-03     215.752E-03    -107.659E-03     9.57067E-03    -108.089E-03     214.792E-03    -107.649E-03     9.36416E-03
             158    -221.717E-09     68.1902E-03    -99.8269E+06    -251.210E+06    -100.538E+06    -408.016E+03    -108.126E-03     216.129E-03    -108.003E-03     9.77705E-03    -108.119E-03     215.168E-03    -107.997E-03     9.57565E-03
             159     165.577E-09     65.8401E-03    -100.270E+06    -251.433E+06    -100.804E+06    -234.999E+03    -107.926E-03     215.412E-03    -107.486E-03     9.87937E-03    -107.920E-03     214.450E-03    -107.480E-03     9.68985E-03
             160     21.0175E-09     64.6644E-03    -100.069E+06    -250.934E+06    -99.8186E+06     555.297E+03    -107.990E-03     215.846E-03    -107.856E-03     9.99153E-03    -107.985E-03     214.885E-03    -107.846E-03     9.81130E-03
             161    -30.5549E-09     63.4871E-03    -99.5214E+06    -250.631E+06    -99.7727E+06     131.993E+03    -108.050E-03     215.718E-03    -107.668E-03     10.0816E-03    -108.043E-03     214.758E-03    -107.659E-03     9.90224E-03
             162     611.653E-09     62.3138E-03    -99.8456E+06    -250.984E+06    -100.236E+06     49.4432E+03    -107.947E-03     215.462E-03    -107.515E-03     10.1557E-03    -107.941E-03     214.502E-03    -107.508E-03     9.97020E-03
             163    -543.270E-09     61.1377E-03    -101.016E+06    -251.732E+06    -100.590E+06    -73.2143E+03    -107.633E-03     215.516E-03    -107.883E-03     9.93278E-03    -107.631E-03     214.554E-03    -107.874E-03     9.74603E-03
             164     33.8472E-09     59.9631E-03    -100.157E+06    -251.219E+06    -100.389E+06     486.937E+03    -107.645E-03     215.492E-03    -107.847E-03     9.67270E-03    -107.639E-03     214.531E-03    -107.840E-03     9.49539E-03
             165     105.527E-09     58.7877E-03    -99.2938E+06    -250.004E+06    -98.8974E+06    -89.8511E+03    -107.976E-03     215.459E-03    -107.483E-03     9.74299E-03    -107.970E-03     214.500E-03    -107.471E-03     9.55421E-03
             166     515.859E-09     57.6126E-03    -99.5937E+06    -250.678E+06    -99.9328E+06    -491.606E+03    -107.963E-03     215.498E-03    -107.535E-03     10.0915E-03    -107.957E-03     214.539E-03    -107.527E-03     9.89504E-03
             167    -491.744E-09     56.4375E-03    -100.168E+06    -250.799E+06    -99.4265E+06     465.238E+03    -107.761E-03     215.579E-03    -107.817E-03     10.1154E-03    -107.758E-03     214.618E-03    -107.806E-03     9.94005E-03
             168     339.977E-09     55.2616E-03    -100.015E+06    -251.239E+06    -100.547E+06     260.161E+03    -107.826E-03     215.466E-03    -107.640E-03     10.0866E-03    -107.820E-03     214.505E-03    -107.633E-03     9.91009E-03
             169     63.0763E-09     54.0870E-03    -100.605E+06    -251.657E+06    -100.808E+06     82.7228E+03    -107.759E-03     215.219E-03    -107.460E-03     10.1166E-03    -107.755E-03     214.257E-03    -107.453E-03     9.93475E-03
             170    -28.3495E-09     52.9127E-03    -100.601E+06    -251.383E+06    -100.275E+06     280.786E+03    -107.542E-03     215.130E-03    -107.588E-03     9.89128E-03    -107.539E-03     214.168E-03    -107.579E-03     9.71344E-03
             171    -118.365E-09     51.7377E-03    -99.9372E+06    -250.762E+06    -99.7422E+06    -167.983E+03    -107.518E-03     215.074E-03    -107.556E-03     9.78308E-03    -107.514E-03     214.114E-03    -107.546E-03     9.59344E-03
             172     166.364E-09     50.5633E-03    -100.735E+06    -251.665E+06    -100.704E+06    -252.156E+03    -107.451E-03     214.836E-03    -107.386E-03     9.79751E-03    -107.447E-03     213.874E-03    -107.378E-03     9.60749E-03
             173    -150.515E-09     49.3889E-03    -100.009E+06    -250.841E+06    -99.9068E+06     304.013E+03    -107.400E-03     214.717E-03    -107.317E-03     9.65557E-03    -107.394E-03     213.756E-03    -107.308E-03     9.47783E-03
             174     229.140E-09     48.2156E-03    -99.3909E+06    -250.003E+06    -98.9562E+06    -603.213E+03    -107.607E-03     214.887E-03    -107.280E-03     9.21843E-03    -107.602E-03     213.929E-03    -107.268E-03     9.02091E-03
             175     191.236E-09     47.0407E-03    -100.308E+06    -251.499E+06    -101.049E+06    -685.918E+03    -107.515E-03     214.800E-03    -107.285E-03     9.25660E-03    -107.509E-03     213.838E-03    -107.280E-03     9.05577E-03
             176    -283.343E-09     45.8659E-03    -99.8461E+06    -250.771E+06    -99.9046E+06     415.766E+03    -107.047E-03     214.405E-03    -107.357E-03     9.54929E-03    -107.041E-03     213.444E-03    -107.348E-03     9.36966E-03
             177    -165.522E-09     44.6930E-03    -99.4352E+06    -250.060E+06    -98.7241E+06    -410.536E+03    -107.220E-03     214.234E-03    -107.014E-03     9.46563E-03    -107.215E-03     213.275E-03    -107.001E-03     9.27241E-03
             178     917.379E-09     43.5184E-03    -99.8730E+06    -251.000E+06    -100.273E+06    -376.319E+03    -107.375E-03     213.900E-03    -106.525E-03     9.57213E-03    -107.368E-03     212.940E-03    -106.518E-03     9.37776E-03
             179    -337.924E-09     42.3464E-03    -100.154E+06    -251.132E+06    -100.383E+06     300.163E+03    -106.699E-03     213.315E-03    -106.616E-03     9.60093E-03    -106.693E-03     212.354E-03    -106.608E-03     9.42457E-03
             180    -149.285E-09     41.1738E-03    -99.8016E+06    -250.637E+06    -99.7129E+06     481.813E+03    -106.533E-03     213.236E-03    -106.703E-03     9.63983E-03    -106.527E-03     212.276E-03    -106.693E-03     9.46965E-03
             181     322.512E-09     40.0005E-03    -99.5140E+06    -250.335E+06    -99.4042E+06     122.923E+03    -106.635E-03     213.029E-03    -106.394E-03     9.69141E-03    -106.629E-03     212.070E-03    -106.384E-03     9.51715E-03
             182    -145.291E-09     38.8295E-03    -99.2220E+06    -250.329E+06    -99.5758E+06     65.2383E+03    -106.227E-03     212.322E-03    -106.095E-03     9.42299E-03    -106.219E-03     211.363E-03    -106.086E-03     9.24691E-03
             183     140.091E-09     37.6584E-03    -100.211E+06    -250.893E+06    -99.7717E+06    -20.9575E+03    -105.871E-03     211.674E-03    -105.802E-03     9.31901E-03    -105.867E-03     210.713E-03    -105.792E-03     9.14069E-03
             184    -55.6559E-09     36.4876E-03    -99.8179E+06    -250.630E+06    -99.8741E+06     343.688E+03    -105.421E-03     210.859E-03    -105.438E-03     9.66092E-03    -105.415E-03     209.899E-03    -105.429E-03     9.49497E-03
             185    -97.1424E-09     35.3183E-03    -99.4001E+06    -250.154E+06    -99.5005E+06     12.0802E+03    -104.834E-03     209.876E-03    -105.042E-03     9.26734E-03    -104.827E-03     208.917E-03    -105.033E-03     9.09814E-03
             186    -125.456E-09     34.1523E-03    -98.9519E+06    -249.981E+06    -99.7165E+06    -332.777E+03    -104.347E-03     208.955E-03    -104.607E-03     8.61712E-03    -104.338E-03     207.996E-03    -104.600E-03     8.44386E-03
             187    -112.129E-09     32.9835E-03    -100.117E+06    -250.675E+06    -100.042E+06     262.478E+03    -104.113E-03     208.097E-03    -103.984E-03     8.92716E-03    -104.108E-03     207.137E-03    -103.975E-03     8.76553E-03
             188     526.328E-09     31.8179E-03    -100.416E+06    -250.711E+06    -100.030E+06     157.153E+03    -103.795E-03     206.956E-03    -103.161E-03     8.92288E-03    -103.791E-03     205.997E-03    -103.152E-03     8.76294E-03
             189     58.4747E-09     30.6543E-03    -99.7922E+06    -250.115E+06    -99.9701E+06     111.247E+03    -102.844E-03     205.569E-03    -102.726E-03     8.69088E-03    -102.838E-03     204.612E-03    -102.718E-03     8.52871E-03
             190    -486.409E-09     29.4912E-03    -99.4258E+06    -249.486E+06    -99.6985E+06    -166.369E+03    -102.015E-03     204.190E-03    -102.175E-03     8.26694E-03    -102.009E-03     203.235E-03    -102.168E-03     8.10148E-03
             191     623.763E-09     28.3303E-03    -98.8725E+06    -248.763E+06    -99.1367E+06     90.7252E+03    -101.423E-03     202.502E-03    -101.079E-03     7.89824E-03    -101.416E-03     201.549E-03    -101.071E-03     7.74518E-03
             192    -229.619E-09     27.1721E-03    -99.2152E+06    -248.558E+06    -98.9399E+06    -135.502E+03    -100.673E-03     201.168E-03    -100.495E-03     8.16632E-03    -100.668E-03     200.216E-03    -100.485E-03     8.01166E-03
             193     99.8667E-09     26.0133E-03    -98.8486E+06    -248.051E+06    -99.0830E+06    -294.352E+03    -100.155E-03     200.141E-03    -99.9865E-03     7.95947E-03    -100.148E-03     199.191E-03    -99.9789E-03     7.80520E-03
             194     275.392E-09     24.8572E-03    -99.7312E+06    -248.100E+06    -99.0250E+06     251.738E+03    -99.5985E-03     198.729E-03    -99.1307E-03     7.69079E-03    -99.5962E-03     197.780E-03    -99.1215E-03     7.54837E-03
             195     94.9197E-09     23.7034E-03    -99.2421E+06    -247.445E+06    -99.1302E+06     149.316E+03    -99.1438E-03     197.532E-03    -98.3884E-03     7.36693E-03    -99.1399E-03     196.586E-03    -98.3814E-03     7.21795E-03
             196     745.986E-09     22.5487E-03    -98.6019E+06    -246.397E+06    -98.7423E+06     277.667E+03    -98.5937E-03     196.577E-03    -97.9831E-03     8.39973E-03    -98.5889E-03     195.634E-03    -97.9766E-03     8.25468E-03
             197    -623.055E-09     21.3946E-03    -97.5916E+06    -244.471E+06    -97.3360E+06     809.591E+03    -97.7144E-03     195.409E-03    -97.6949E-03     8.53055E-03    -97.7091E-03     194.473E-03    -97.6856E-03     8.40153E-03
             198     502.939E-09     20.2466E-03    -97.0841E+06    -242.976E+06    -97.0475E+06     529.715E+03    -97.0828E-03     193.821E-03    -96.7385E-03     6.42132E-03    -97.0771E-03     192.891E-03    -96.7306E-03     6.28969E-03
             199     164.247E-09     19.0982E-03    -95.6535E+06    -240.490E+06    -95.8382E+06    -171.575E+03    -96.1324E-03     192.109E-03    -95.9770E-03     5.57332E-03    -96.1247E-03     191.187E-03    -95.9688E-03     5.43444E-03
             200    -591.697E-09     17.9507E-03    -94.2114E+06    -238.163E+06    -95.4059E+06     88.3106E+03    -94.6123E-03     189.794E-03    -95.1817E-03     4.89683E-03    -94.6012E-03     188.880E-03    -95.1768E-03     4.77052E-03
             201     66.3272E-09     16.8073E-03    -93.1657E+06    -234.848E+06    -93.7084E+06     482.642E+03    -92.7006E-03     185.971E-03    -93.2701E-03     4.11797E-03    -92.6913E-03     185.069E-03    -93.2630E-03     4.00930E-03
             202    -484.730E-09     15.6694E-03    -91.1157E+06    -230.553E+06    -91.2307E+06     649.425E+03    -89.8591E-03     180.023E-03    -90.1642E-03     3.25857E-03    -89.8493E-03     179.136E-03    -90.1539E-03     3.16877E-03
             203     402.823E-09     14.5379E-03    -89.5718E+06    -227.008E+06    -89.8215E+06     1.14633E+06    -86.0275E-03     171.844E-03    -85.8169E-03     2.70479E-03    -86.0171E-03     170.970E-03    -85.8070E-03     2.64132E-03
             204     31.1391E-09     13.4201E-03    -86.9310E+06    -221.736E+06    -86.9475E+06     1.67457E+06    -81.4777E-03     162.493E-03    -81.0156E-03     2.13328E-03    -81.4659E-03     161.637E-03    -81.0027E-03     2.09155E-03
             205     308.706E-09     12.3093E-03    -84.4705E+06    -215.797E+06    -83.7179E+06     2.27462E+06    -76.4294E-03     152.332E-03    -75.9027E-03     1.29007E-03    -76.4186E-03     151.497E-03    -75.8859E-03     1.26669E-03
             206     249.568E-09     11.2140E-03    -80.3094E+06    -208.786E+06    -79.7090E+06     1.82426E+06    -71.2387E-03     142.013E-03    -70.7743E-03     753.596E-06    -71.2228E-03     141.201E-03    -70.7536E-03     730.112E-06
             207    -14.1592E-09     10.1269E-03    -76.5923E+06    -203.255E+06    -76.6306E+06     1.03849E+06    -66.7278E-03     133.409E-03    -66.6815E-03     747.896E-06    -66.7055E-03     132.615E-03    -66.6589E-03     714.081E-06
             208    -139.250E-09     9.04927E-03    -74.6758E+06    -199.602E+06    -73.2808E+06     575.682E+03    -64.6026E-03     128.909E-03    -64.3069E-03     1.53245E-03    -64.5806E-03     128.127E-03    -64.2756E-03     1.49297E-03
             209     807.761E-09     7.97234E-03    -72.7571E+06    -198.937E+06    -71.9725E+06     41.6493E+03    -65.6264E-03     130.985E-03    -65.3583E-03     3.52549E-03    -65.5981E-03     130.200E-03    -65.3242E-03     3.48162E-03
             210    -1.01385E-06     6.88977E-03    -70.2889E+06    -200.011E+06    -70.1789E+06    -157.229E+03    -70.1462E-03     140.637E-03    -70.4912E-03     5.13617E-03    -70.1080E-03     139.840E-03    -70.4501E-03     5.08967E-03
             211     649.247E-09     5.79190E-03    -68.8604E+06    -203.314E+06    -68.8901E+06    -986.510E+03    -77.9647E-03     156.220E-03    -78.2555E-03     6.24118E-03    -77.9178E-03     155.401E-03    -78.2053E-03     6.18331E-03
             212    -757.101E-09     4.67395E-03    -66.5964E+06    -206.695E+06    -67.3071E+06    -853.474E+03    -87.4644E-03     175.165E-03    -87.7005E-03     6.66051E-03    -87.4046E-03     174.323E-03    -87.6407E-03     6.59890E-03
             213     488.188E-09     3.53538E-03    -63.6885E+06    -209.009E+06    -63.9311E+06    -372.829E+03    -97.6325E-03     195.237E-03    -97.6049E-03     5.95879E-03    -97.5595E-03     194.374E-03    -97.5291E-03     5.90136E-03
             214    -158.646E-09     2.37050E-03    -60.0013E+06     -209.65E+06    -59.9343E+06     251.424E+03    -106.357E-03     212.534E-03    -106.178E-03     4.69381E-03    -106.268E-03     211.659E-03    -106.086E-03     4.65624E-03
             215     132.172E-09     1.19065E-03    -55.3449E+06    -207.994E+06    -55.2652E+06     491.882E+03    -112.179E-03     224.176E-03    -111.997E-03     2.87708E-03    -112.074E-03     223.296E-03    -111.892E-03     2.86135E-03
             216     801.480E-06     1.81799E-15    -53.6970E+06    -207.391E+06    -53.4299E+06     233.506E+03    -114.362E-03     228.531E-03    -114.169E-03     2.73185E-03    -114.253E-03     227.649E-03    -114.057E-03     2.71260E-03
             217     1.60444E-03     1.81799E-15    -54.0328E+06    -207.717E+06    -53.9992E+06     348.857E+03    -114.253E-03     228.516E-03    -114.264E-03     4.16469E-03    -114.144E-03     227.634E-03    -114.154E-03     4.12496E-03
             218     2.40587E-03     1.81799E-15    -54.3067E+06    -207.798E+06    -54.2263E+06     281.720E+03    -114.267E-03     228.531E-03    -114.263E-03     6.12504E-03    -114.160E-03     227.649E-03    -114.154E-03     6.06509E-03
             219     3.20841E-03     1.81799E-15    -54.3078E+06    -207.564E+06    -54.4479E+06    -284.217E+03    -114.281E-03     228.548E-03    -114.267E-03     8.31668E-03    -114.174E-03     227.669E-03    -114.160E-03     8.22766E-03
             220     4.00965E-03     1.81799E-15    -53.0748E+06    -207.364E+06    -56.0024E+06    -1.84729E+06    -114.315E-03     228.581E-03    -114.266E-03     10.5962E-03    -114.200E-03     227.704E-03    -114.169E-03     10.4624E-03
             221     4.81230E-03     1.81799E-15    -50.5793E+06    -203.087E+06    -58.2513E+06    -3.10145E+06    -114.381E-03     228.640E-03    -114.259E-03     12.2520E-03    -114.258E-03     227.785E-03    -114.183E-03     12.0729E-03
             222     5.61427E-03     1.81799E-15    -47.0554E+06    -193.385E+06    -61.5829E+06    -4.49273E+06    -114.415E-03     228.656E-03    -114.241E-03     14.0524E-03    -114.285E-03     227.851E-03    -114.200E-03     13.8228E-03
             223     6.41580E-03     1.81799E-15    -42.3718E+06    -175.539E+06    -66.5605E+06    -6.39016E+06    -114.516E-03     228.721E-03    -114.205E-03     16.4559E-03    -114.382E-03     228.007E-03    -114.222E-03     16.1725E-03
             224     7.21782E-03     1.81799E-15    -36.4217E+06    -149.129E+06    -70.8212E+06    -7.69587E+06    -114.803E-03     228.980E-03    -114.177E-03     18.9420E-03    -114.674E-03     228.397E-03    -114.262E-03     18.6037E-03
             225     8.01853E-03     1.81799E-15    -29.4909E+06    -116.886E+06    -73.1343E+06    -8.66761E+06    -115.180E-03     229.356E-03    -114.176E-03     21.4678E-03    -115.063E-03     228.930E-03    -114.329E-03     21.0699E-03
             226     8.81998E-03     1.81799E-15    -22.0767E+06    -76.0809E+06    -71.3240E+06    -9.14712E+06    -115.632E-03     229.843E-03    -114.211E-03     23.5050E-03    -115.543E-03     229.612E-03    -114.425E-03     23.0468E-03
             227     9.62084E-03     1.81799E-15    -15.0670E+06    -23.9649E+06    -64.0850E+06    -7.27815E+06    -116.330E-03     230.624E-03    -114.294E-03     26.0344E-03    -116.297E-03     230.637E-03    -114.558E-03     25.5294E-03
             228     10.4195E-03     1.81799E-15    -11.0883E+06     30.3259E+06    -43.8148E+06    -3.68222E+06    -117.444E-03     231.943E-03    -114.499E-03     30.3976E-03    -117.506E-03     232.200E-03    -114.746E-03     29.8653E-03
             229     11.2169E-03     1.81799E-15    -9.26256E+06     69.3486E+06    -7.47337E+06    -1.02935E+06    -119.389E-03     234.291E-03    -114.902E-03     34.8921E-03    -119.565E-03     234.702E-03    -115.026E-03     34.2456E-03
             230     12.0141E-03     1.81799E-15    -8.37829E+06     89.1730E+06     33.0327E+06     1.73585E+06    -122.097E-03     237.577E-03    -115.479E-03     37.9755E-03    -122.369E-03     238.039E-03    -115.431E-03     37.2227E-03
             231     12.8070E-03     1.81799E-15    -6.59154E+06     95.4108E+06     68.4733E+06     1.00430E+06    -126.543E-03     242.772E-03    -116.229E-03     48.2087E-03    -126.907E-03     243.249E-03    -116.015E-03     47.1747E-03
             232     13.5878E-03     1.81799E-15    -4.20378E+06     98.0684E+06     89.8069E+06     2.21943E+06    -133.394E-03     250.578E-03    -117.184E-03     64.4832E-03    -133.848E-03     251.101E-03    -116.871E-03     63.0662E-03
             233     14.3672E-03     1.81799E-15    -4.98331E+06     101.800E+06     93.0404E+06     5.33195E+06    -142.746E-03     261.164E-03    -118.417E-03     83.1378E-03    -143.384E-03     261.871E-03    -118.093E-03     80.9453E-03
             234     15.1337E-03     1.81799E-15     4.55475E+06     113.223E+06     98.4999E+06     2.90383E+06    -154.173E-03     274.258E-03    -120.085E-03     118.048E-03    -155.236E-03     275.429E-03    -119.763E-03     114.480E-03
             235     16.0059E-03     1.27123E-03     227.732E+03     115.508E+06     92.6290E+06     3.77271E+06    -150.697E-03     268.490E-03    -117.793E-03     136.101E-03    -152.245E-03     270.169E-03    -117.498E-03     131.708E-03
             236     16.0830E-03     2.50351E-03    -10.4903E+06     110.548E+06     80.0154E+06     7.93444E+06    -149.460E-03     261.835E-03    -112.375E-03     99.2122E-03    -150.905E-03     263.411E-03    -112.120E-03     94.5856E-03
             237     16.1297E-03     3.73959E-03    -5.49251E+06     114.296E+06     82.3980E+06     4.64204E+06    -158.771E-03     267.978E-03    -109.206E-03     55.5044E-03    -159.884E-03     269.237E-03    -108.952E-03     50.4597E-03
             238     16.1452E-03     4.98677E-03    -2.89468E+06     118.099E+06     87.4201E+06     292.908E+03    -160.593E-03     268.362E-03    -107.769E-03     36.8972E-03    -161.638E-03     269.564E-03    -107.498E-03     31.5025E-03
             239     16.1566E-03     6.22974E-03    -792.417E+03     120.495E+06     91.7766E+06    -540.412E+03    -158.966E-03     266.172E-03    -107.206E-03     27.8264E-03    -159.939E-03     267.304E-03    -106.921E-03     22.4659E-03
             240     16.1573E-03     7.46350E-03    -1.99718E+06     118.503E+06     91.3965E+06    -1.42877E+06    -154.815E-03     261.939E-03    -107.124E-03     20.0934E-03    -155.708E-03     262.981E-03    -106.836E-03     15.0139E-03
             241     16.1561E-03     8.69647E-03    -1.93640E+06     115.567E+06     89.9330E+06    -63.8769E+03    -147.009E-03     254.301E-03    -107.292E-03     14.9505E-03    -147.822E-03     255.256E-03    -107.007E-03     10.3756E-03
             242     16.1592E-03     9.90586E-03    -1.18871E+06     113.842E+06     88.6469E+06    -907.213E+03    -138.399E-03     245.852E-03    -107.453E-03     10.9395E-03    -139.150E-03     246.745E-03    -107.173E-03     6.80367E-03
             243     16.1573E-03     11.1143E-03    -3.02841E+06     112.303E+06     86.9186E+06    -1.52718E+06    -133.927E-03     241.523E-03    -107.596E-03     4.90402E-03    -134.630E-03     242.362E-03    -107.320E-03     1.07061E-03
             244     16.1559E-03     12.3229E-03    -2.78580E+06     111.502E+06     86.0628E+06     546.033E+03    -127.344E-03     235.114E-03    -107.769E-03     5.50880E-03    -128.034E-03     235.940E-03    -107.497E-03     1.99859E-03
             245     16.1599E-03     13.5154E-03    -1.84591E+06     111.211E+06     86.1439E+06    -82.3853E+03    -122.201E-03     230.041E-03    -107.840E-03     6.61488E-03    -122.888E-03     230.866E-03    -107.568E-03     3.27759E-03
             246     16.1569E-03     14.7077E-03    -2.27208E+06     111.043E+06     86.2888E+06     335.956E+03    -121.469E-03     229.281E-03    -107.813E-03     5.66967E-03    -122.153E-03     230.101E-03    -107.539E-03     2.38690E-03
             247     16.1619E-03     15.9034E-03    -1.33084E+06     112.055E+06     87.1116E+06     612.475E+03    -120.357E-03     228.104E-03    -107.748E-03     7.57831E-03    -121.055E-03     228.943E-03    -107.473E-03     4.29946E-03
             248     16.1608E-03     17.0940E-03    -2.21840E+06     111.961E+06     86.9462E+06    -147.704E+03    -120.641E-03     228.313E-03    -107.673E-03     7.93255E-03    -121.356E-03     229.166E-03    -107.397E-03     4.60390E-03
             249     16.1622E-03     18.2884E-03    -2.09618E+06     112.710E+06     87.7174E+06     764.410E+03    -120.393E-03     228.007E-03    -107.614E-03     8.43064E-03    -121.118E-03     228.870E-03    -107.335E-03     5.10786E-03
             250     16.1648E-03     19.4797E-03    -2.38848E+06     112.809E+06     87.8371E+06    -257.731E+03    -120.157E-03     227.717E-03    -107.560E-03     9.41538E-03    -120.900E-03     228.597E-03    -107.281E-03     6.04834E-03
             251     16.1621E-03     20.6732E-03    -3.01466E+06     112.418E+06     87.4943E+06     706.338E+03    -120.090E-03     227.625E-03    -107.535E-03     9.75289E-03    -120.845E-03     228.515E-03    -107.256E-03     6.38949E-03
             252     16.1665E-03     21.8649E-03    -1.23923E+06     113.821E+06     89.1319E+06     218.223E+03    -118.152E-03     225.674E-03    -107.522E-03     11.8745E-03    -118.919E-03     226.582E-03    -107.239E-03     8.54069E-03
             253     16.1645E-03     23.0536E-03    -1.98299E+06     112.557E+06     88.5456E+06    -685.463E+03    -117.864E-03     225.372E-03    -107.507E-03     12.0156E-03    -118.641E-03     226.284E-03    -107.225E-03     8.66981E-03
             254     16.1655E-03     24.2435E-03    -1.92730E+06     111.778E+06     88.3064E+06     473.334E+03    -116.432E-03     223.958E-03    -107.526E-03     11.6431E-03    -117.209E-03     224.869E-03    -107.244E-03     8.35532E-03
             255     16.1666E-03     25.4281E-03    -2.11574E+06     112.064E+06     88.3109E+06    -378.204E+03    -115.190E-03     222.715E-03    -107.524E-03     12.8074E-03    -115.984E-03     223.643E-03    -107.242E-03     9.52698E-03
             256     16.1654E-03     26.6154E-03    -2.80223E+06     112.226E+06     87.9480E+06    -189.079E+03    -115.236E-03     222.762E-03    -107.526E-03     12.0597E-03    -116.031E-03     223.691E-03    -107.245E-03     8.79413E-03
             257     16.1664E-03     27.8013E-03    -2.72292E+06     112.397E+06     87.9924E+06    -15.3005E+03    -113.520E-03     221.088E-03    -107.568E-03     12.8702E-03    -114.324E-03     222.026E-03    -107.287E-03     9.65788E-03
             258     16.1657E-03     28.9840E-03    -1.72068E+06     113.407E+06     89.0430E+06     89.9732E+03    -112.207E-03     219.787E-03    -107.580E-03     14.4112E-03    -113.023E-03     220.741E-03    -107.297E-03     11.2262E-03
             259     16.1676E-03     30.1663E-03    -2.29506E+06     113.353E+06     88.8559E+06    -71.2746E+03    -112.464E-03     220.043E-03    -107.579E-03     14.4798E-03    -113.283E-03     220.999E-03    -107.296E-03     11.2976E-03
             260     16.1642E-03     31.3515E-03    -2.97202E+06     112.596E+06     87.9304E+06     857.395E+03    -111.400E-03     219.015E-03    -107.616E-03     15.0698E-03    -112.222E-03     219.972E-03    -107.335E-03     11.9469E-03
             261     16.1684E-03     32.5302E-03    -2.47801E+06     113.663E+06     88.6337E+06     349.582E+03    -109.869E-03     217.514E-03    -107.645E-03     15.6498E-03    -110.700E-03     218.483E-03    -107.363E-03     12.5575E-03
             262     16.1641E-03     33.7093E-03    -2.37861E+06     113.890E+06     88.9242E+06     46.7969E+03    -109.926E-03     217.577E-03    -107.650E-03     14.6545E-03    -110.755E-03     218.544E-03    -107.367E-03     11.5640E-03
             263     16.1681E-03     34.8898E-03    -896.692E+03     114.813E+06     89.9000E+06     360.028E+03    -108.804E-03     216.448E-03    -107.644E-03     15.4226E-03    -109.629E-03     217.416E-03    -107.359E-03     12.3700E-03
             264     16.1667E-03     36.0669E-03    -3.10098E+06     113.906E+06     88.6081E+06    -808.501E+03    -109.443E-03     217.084E-03    -107.641E-03     15.1316E-03    -110.280E-03     218.057E-03    -107.359E-03     12.0482E-03
             265     16.1645E-03     37.2491E-03    -2.57760E+06     113.475E+06     88.5213E+06     904.532E+03    -108.954E-03     216.632E-03    -107.678E-03     14.7821E-03    -109.786E-03     217.600E-03    -107.396E-03     11.7448E-03
             266     16.1687E-03     38.4239E-03    -151.862E+03     114.953E+06     90.1768E+06    -188.963E+03    -106.933E-03     214.605E-03    -107.672E-03     16.3426E-03    -107.765E-03     215.583E-03    -107.388E-03     13.3305E-03
             267     16.1662E-03     39.6010E-03    -2.92495E+06     113.969E+06     88.8110E+06    -1.03119E+06    -108.802E-03     216.449E-03    -107.647E-03     15.1022E-03    -109.642E-03     217.426E-03    -107.364E-03     12.0394E-03
             268     16.1655E-03     40.7826E-03    -3.51099E+06     113.441E+06     88.2058E+06     1.26578E+06    -108.800E-03     216.481E-03    -107.681E-03     15.8798E-03    -109.642E-03     217.458E-03    -107.400E-03     12.8632E-03
             269     16.1673E-03     41.9596E-03    -1.46703E+06     114.828E+06     89.3352E+06     439.087E+03    -106.800E-03     214.502E-03    -107.703E-03     16.3652E-03    -107.642E-03     215.488E-03    -107.420E-03     13.3708E-03
             270     16.1663E-03     43.1322E-03    -3.10467E+06     115.084E+06       88.95E+06    -402.482E+03    -107.442E-03     215.143E-03    -107.701E-03     14.9131E-03    -108.287E-03     216.128E-03    -107.419E-03     11.9024E-03
             271     16.1655E-03     44.3138E-03    -2.69572E+06     115.714E+06     89.4013E+06     984.199E+03    -107.346E-03     215.055E-03    -107.709E-03     16.3361E-03    -108.194E-03     216.045E-03    -107.426E-03     13.3563E-03
             272     16.1679E-03     45.4890E-03    -1.81610E+06     116.303E+06     89.7658E+06     12.3647E+03    -106.780E-03     214.488E-03    -107.708E-03     16.8600E-03    -107.631E-03     215.485E-03    -107.425E-03     13.8661E-03
             273     16.1648E-03     46.6639E-03    -2.54652E+06     116.328E+06     89.5131E+06    -145.133E+03    -107.138E-03     214.833E-03    -107.694E-03     15.5083E-03    -107.987E-03     215.825E-03    -107.412E-03     12.5040E-03
             274     16.1688E-03     47.8412E-03    -2.22227E+06     117.291E+06     90.2923E+06    -262.097E+03    -107.128E-03     214.821E-03    -107.693E-03     15.5332E-03    -107.978E-03     215.818E-03    -107.408E-03     12.5296E-03
             275     16.1642E-03     49.0195E-03    -2.89785E+06     117.324E+06     89.9494E+06     99.4336E+03    -107.044E-03     214.760E-03    -107.716E-03     16.1811E-03    -107.901E-03     215.762E-03    -107.432E-03     13.1889E-03
             276     16.1680E-03     50.1945E-03    -1.74710E+06     118.350E+06     90.7053E+06     481.081E+03    -106.347E-03     214.065E-03    -107.718E-03     16.7009E-03    -107.202E-03     215.072E-03    -107.434E-03     13.7292E-03
             277     16.1660E-03     51.3691E-03    -2.65797E+06     118.639E+06     90.6215E+06    -451.742E+03    -106.930E-03     214.639E-03    -107.709E-03     15.7472E-03    -107.787E-03     215.645E-03    -107.424E-03     12.7516E-03
             278     16.1659E-03     52.5490E-03    -1.91298E+06     118.773E+06     90.7821E+06     749.009E+03    -106.509E-03     214.235E-03    -107.726E-03     16.7665E-03    -107.368E-03     215.245E-03    -107.441E-03     13.7987E-03
             279     16.1677E-03     53.7221E-03    -1.18515E+06     119.565E+06     91.2953E+06    -195.963E+03    -105.915E-03     213.622E-03    -107.708E-03     17.2841E-03    -106.775E-03     214.638E-03    -107.423E-03     14.3001E-03
             280     16.1663E-03     54.8962E-03    -4.05243E+06     118.494E+06     89.7881E+06    -559.858E+03    -107.559E-03     215.259E-03    -107.700E-03     14.7565E-03    -108.417E-03     216.263E-03    -107.417E-03     11.7480E-03
             281     16.1650E-03     56.0782E-03    -2.56317E+06     119.335E+06     90.5846E+06     881.578E+03    -106.228E-03     213.959E-03    -107.732E-03     16.2375E-03    -107.088E-03     214.971E-03    -107.448E-03     13.2792E-03
             282     16.1693E-03     57.2478E-03    -1.35691E+06     120.653E+06     91.7799E+06    -518.494E+03    -105.866E-03     213.582E-03    -107.716E-03     17.3197E-03    -106.731E-03     214.604E-03    -107.430E-03     14.3401E-03
             283     16.1637E-03     58.4280E-03    -2.53465E+06     120.094E+06     91.0352E+06     307.157E+03    -107.080E-03     214.790E-03    -107.710E-03     16.3826E-03    -107.941E-03     215.804E-03    -107.425E-03     13.4001E-03
             284     16.1688E-03     59.6033E-03    -1.14049E+06     120.776E+06     91.7752E+06     450.275E+03    -105.819E-03     213.535E-03    -107.716E-03     17.6917E-03    -106.683E-03     214.558E-03    -107.430E-03     14.7299E-03
             285     16.1659E-03     60.7760E-03    -2.34451E+06     120.998E+06     91.7084E+06    -386.784E+03    -106.506E-03     214.201E-03    -107.695E-03     16.6165E-03    -107.373E-03     215.224E-03    -107.409E-03     13.6275E-03
             286     16.1670E-03     61.9558E-03    -3.93974E+06     120.659E+06     90.7877E+06     468.917E+03    -107.133E-03     214.859E-03    -107.726E-03     15.5915E-03    -107.999E-03     215.876E-03    -107.441E-03     12.6126E-03
             287     16.1647E-03     63.1302E-03    -1.95075E+06     121.028E+06     91.2553E+06     796.314E+03    -105.484E-03     213.237E-03    -107.753E-03     17.2937E-03    -106.349E-03     214.261E-03    -107.470E-03     14.3566E-03
             288     16.1690E-03     64.3043E-03    -2.45232E+06     121.337E+06     91.5062E+06    -417.715E+03    -105.936E-03     213.661E-03    -107.725E-03     17.0341E-03    -106.805E-03     214.687E-03    -107.440E-03     14.0617E-03
             289     16.1637E-03     65.4805E-03    -2.56823E+06     121.036E+06     91.4613E+06    -135.793E+03    -106.789E-03     214.506E-03    -107.717E-03     16.0451E-03    -107.653E-03     215.525E-03    -107.432E-03     13.0564E-03
             290     16.1692E-03     66.6573E-03    -1.17739E+06     121.660E+06     92.2609E+06     144.313E+03    -105.791E-03     213.509E-03    -107.718E-03     17.1325E-03    -106.654E-03     214.533E-03    -107.432E-03     14.1701E-03
             291     16.1652E-03     67.8311E-03    -2.52611E+06     122.250E+06     92.1430E+06    -282.187E+03    -106.482E-03     214.196E-03    -107.714E-03     16.1491E-03    -107.349E-03     215.221E-03    -107.427E-03     13.1721E-03
             292     807.648E-06     68.2010E-03    -98.7462E+06    -248.832E+06    -96.8136E+06    -170.264E+03    -107.958E-03     215.934E-03    -107.975E-03     16.0904E-03    -107.963E-03     214.986E-03    -107.956E-03     15.7708E-03
             293     1.61593E-03     68.2259E-03    -95.6740E+06    -242.518E+06    -87.1551E+06     58.0567E+03    -107.920E-03     215.843E-03    -107.923E-03     29.3937E-03    -107.959E-03     214.934E-03    -107.868E-03     28.8120E-03
             294     2.42411E-03     68.2665E-03    -90.5729E+06    -233.028E+06    -73.5207E+06    -37.3593E+03    -108.234E-03     216.148E-03    -107.914E-03     43.1903E-03    -108.328E-03     215.307E-03    -107.812E-03     42.3037E-03
             295     3.23226E-03     68.3219E-03    -84.6529E+06    -222.810E+06    -59.3399E+06    -63.3559E+03    -108.590E-03     216.539E-03    -107.949E-03     56.6663E-03    -108.759E-03     215.789E-03    -107.800E-03     55.4423E-03
             296     4.04001E-03     68.3924E-03    -78.5109E+06    -207.243E+06    -46.3870E+06     77.1689E+03    -108.905E-03     216.877E-03    -107.972E-03     69.7215E-03    -109.181E-03     216.273E-03    -107.790E-03     68.1315E-03
             297     4.84843E-03     68.4767E-03    -71.7113E+06    -191.141E+06    -33.6491E+06    -26.5829E+03    -109.229E-03     217.211E-03    -107.982E-03     82.1196E-03    -109.641E-03     216.787E-03    -107.769E-03     80.1229E-03
             298     5.65642E-03     68.5746E-03    -64.8396E+06    -175.059E+06    -22.3629E+06     303.389E+03    -109.601E-03     217.579E-03    -107.978E-03     93.8259E-03    -110.183E-03     217.374E-03    -107.742E-03     91.3884E-03
             299     6.46482E-03     68.6846E-03    -59.2971E+06    -159.154E+06    -14.2326E+06     502.504E+03    -110.044E-03     218.009E-03    -107.965E-03     104.786E-03    -110.842E-03     218.073E-03    -107.719E-03     101.856E-03
             300     7.27316E-03     68.8065E-03    -54.6010E+06    -142.594E+06    -8.02309E+06     28.3357E+03    -110.423E-03     218.373E-03    -107.949E-03     114.797E-03    -111.491E-03     218.763E-03    -107.704E-03     111.321E-03
             301     8.08064E-03     68.9381E-03    -49.2106E+06    -118.159E+06    -2.36342E+06    -260.087E+03    -110.588E-03     218.505E-03    -107.917E-03     123.624E-03    -111.982E-03     219.312E-03    -107.687E-03     119.580E-03
             302     8.89005E-03     69.0787E-03    -44.3351E+06    -94.1568E+06     3.95515E+06     100.307E+03    -110.653E-03     218.538E-03    -107.885E-03     131.085E-03    -112.435E-03     219.817E-03    -107.664E-03     126.454E-03
             303     9.69773E-03     69.2264E-03    -40.2450E+06    -63.6973E+06     9.80407E+06     495.639E+03    -110.648E-03     218.489E-03    -107.841E-03     137.575E-03    -112.905E-03     220.348E-03    -107.641E-03     132.326E-03
             304     10.5062E-03     69.3805E-03    -35.9060E+06    -20.7151E+06     18.9085E+06     221.070E+03    -110.446E-03     218.242E-03    -107.796E-03     143.194E-03    -113.267E-03     220.807E-03    -107.619E-03     137.329E-03
             305     11.3148E-03     69.5398E-03    -31.6138E+06     37.1448E+06     31.9910E+06    -21.5383E+03    -109.922E-03     217.668E-03    -107.746E-03     145.578E-03    -113.308E-03     220.981E-03    -107.594E-03     139.230E-03
             306     12.1232E-03     69.6984E-03    -26.7459E+06     90.0400E+06     44.7575E+06     310.290E+03    -109.027E-03     216.721E-03    -107.694E-03     141.718E-03    -112.791E-03     220.581E-03    -107.562E-03     135.159E-03
             307     12.9319E-03     69.8486E-03    -20.7958E+06     112.941E+06     64.5919E+06     343.786E+03    -108.041E-03     215.759E-03    -107.718E-03     129.974E-03    -111.824E-03     219.681E-03    -107.528E-03     123.533E-03
             308     13.7415E-03     69.9799E-03    -15.6543E+06     119.373E+06     83.9869E+06    -118.833E+03    -107.339E-03     215.118E-03    -107.779E-03     106.284E-03    -110.653E-03     218.556E-03    -107.509E-03     100.284E-03
             309     14.5468E-03     70.0781E-03    -10.6210E+06     125.719E+06     94.7121E+06     343.721E+03    -106.570E-03     214.379E-03    -107.809E-03     87.6174E-03    -109.478E-03     217.421E-03    -107.503E-03     81.9968E-03
             310     15.3583E-03     70.1686E-03    -4.76439E+06     125.410E+06     95.2797E+06     398.765E+03    -105.888E-03     213.669E-03    -107.781E-03     50.6847E-03    -107.759E-03     215.692E-03    -107.479E-03     46.4334E-03
             311     808.040E-06     69.3764E-03    -98.9071E+06    -248.750E+06    -96.5933E+06    -405.873E+03    -108.034E-03     215.804E-03    -107.770E-03     16.0033E-03    -108.040E-03     214.857E-03    -107.749E-03     15.6797E-03
             312     1.61598E-03     69.4013E-03     -95.525E+06    -242.457E+06    -87.1589E+06    -101.012E+03    -108.034E-03     215.928E-03    -107.894E-03     29.4195E-03    -108.073E-03     215.019E-03    -107.839E-03     28.8358E-03
             313     2.42407E-03     69.4417E-03    -90.7645E+06    -233.138E+06    -73.5929E+06     78.6341E+03    -108.241E-03     216.161E-03    -107.921E-03     43.1929E-03    -108.335E-03     215.319E-03    -107.819E-03     42.3075E-03
             314     3.23198E-03     69.4976E-03    -84.8308E+06    -222.579E+06    -58.9615E+06     85.8781E+03    -108.554E-03     216.508E-03    -107.953E-03     56.6104E-03    -108.725E-03     215.758E-03    -107.802E-03     55.3895E-03
             315     4.04032E-03     69.5677E-03    -78.2176E+06    -207.341E+06    -45.7559E+06    -120.525E+03    -108.892E-03     216.865E-03    -107.972E-03     69.6938E-03    -109.168E-03     216.260E-03    -107.787E-03     68.1006E-03
             316     4.84815E-03     69.6524E-03    -71.7549E+06    -191.014E+06    -33.5321E+06    -279.127E+03    -109.263E-03     217.244E-03    -107.982E-03     82.1315E-03    -109.675E-03     216.821E-03    -107.768E-03     80.1305E-03
             317     5.65657E-03     69.7497E-03    -65.6161E+06    -175.746E+06    -23.1109E+06    -275.716E+03    -109.660E-03     217.643E-03    -107.983E-03     93.8067E-03    -110.244E-03     217.437E-03    -107.748E-03     91.3575E-03
             318     6.46467E-03     69.8603E-03    -59.0442E+06    -159.908E+06    -14.6662E+06     215.268E+03    -110.034E-03     218.007E-03    -107.972E-03     104.787E-03    -110.830E-03     218.068E-03    -107.728E-03     101.852E-03
             319     7.27266E-03     69.9819E-03    -52.8115E+06    -141.374E+06    -7.07375E+06     228.701E+03    -110.362E-03     218.315E-03    -107.953E-03     114.795E-03    -111.423E-03     218.708E-03    -107.707E-03     111.325E-03
             320     8.08173E-03     70.1138E-03    -48.5278E+06    -118.261E+06    -2.06207E+06     41.5594E+03    -110.621E-03     218.541E-03    -107.920E-03     123.534E-03    -112.013E-03     219.347E-03    -107.688E-03     119.489E-03
             321     8.88894E-03     70.2541E-03    -44.6226E+06    -94.9427E+06     3.68633E+06     259.427E+03    -110.709E-03     218.600E-03    -107.891E-03     130.978E-03    -112.492E-03     219.877E-03    -107.670E-03     126.341E-03
             322     9.69788E-03     70.4019E-03    -40.1625E+06    -63.7173E+06     9.74929E+06     293.735E+03    -110.656E-03     218.505E-03    -107.849E-03     137.621E-03    -112.912E-03     220.364E-03    -107.650E-03     132.370E-03
             323     10.5062E-03     70.5562E-03    -36.0652E+06    -20.4327E+06     18.9029E+06     322.300E+03    -110.482E-03     218.287E-03    -107.805E-03     143.237E-03    -113.305E-03     220.855E-03    -107.629E-03     137.372E-03
             324     11.3144E-03     70.7153E-03    -31.8709E+06     37.4115E+06     31.9342E+06     287.540E+03    -109.901E-03     217.655E-03    -107.755E-03     145.608E-03    -113.289E-03     220.971E-03    -107.603E-03     139.265E-03
             325     12.1230E-03     70.8742E-03    -27.2323E+06     90.5616E+06     45.0122E+06    -290.593E+03    -109.088E-03     216.793E-03    -107.705E-03     141.859E-03    -112.856E-03     220.655E-03    -107.572E-03     135.293E-03
             326     12.9320E-03     71.0234E-03    -22.1142E+06     112.593E+06     64.0391E+06    -532.982E+03    -108.299E-03     216.035E-03    -107.736E-03     130.067E-03    -112.091E-03     219.962E-03    -107.547E-03     123.598E-03
             327     13.7392E-03     71.1570E-03    -16.0616E+06     118.240E+06     83.0562E+06     461.320E+03    -107.046E-03     214.838E-03    -107.792E-03     106.992E-03    -110.356E-03     218.269E-03    -107.525E-03     101.030E-03
             328     14.5497E-03     71.2546E-03    -10.2096E+06     125.427E+06     94.5364E+06     775.813E+03    -106.082E-03     213.880E-03    -107.798E-03     88.8589E-03    -108.989E-03     216.922E-03    -107.493E-03     83.2882E-03
             329     15.3564E-03     71.3424E-03    -4.46879E+06     125.927E+06     95.4994E+06     295.290E+03    -105.866E-03     213.621E-03    -107.755E-03     51.4079E-03    -107.745E-03     215.654E-03    -107.454E-03     47.1513E-03
             330     808.200E-06     70.5522E-03    -99.1296E+06    -248.750E+06    -96.4620E+06         760.844    -108.039E-03     215.695E-03    -107.656E-03     15.9278E-03    -108.046E-03     214.747E-03    -107.634E-03     15.6162E-03
             331     1.61601E-03     70.5766E-03    -95.7596E+06    -242.285E+06    -86.8252E+06     29.0282E+03    -108.138E-03     216.012E-03    -107.874E-03     29.3151E-03    -108.179E-03     215.104E-03    -107.818E-03     28.7316E-03
             332     2.42390E-03     70.6174E-03    -90.6949E+06    -233.015E+06    -73.4552E+06    -64.0589E+03    -108.270E-03     216.205E-03    -107.934E-03     43.2161E-03    -108.365E-03     215.363E-03    -107.832E-03     42.3269E-03
             333     3.23216E-03     70.6729E-03    -84.4438E+06    -222.641E+06    -59.1453E+06    -38.8501E+03    -108.525E-03     216.487E-03    -107.962E-03     56.6777E-03    -108.694E-03     215.737E-03    -107.813E-03     55.4547E-03
             334     4.04004E-03     70.7434E-03    -78.0191E+06    -207.468E+06    -45.9596E+06    -34.8545E+03    -108.886E-03     216.861E-03    -107.975E-03     69.6463E-03    -109.161E-03     216.255E-03    -107.791E-03     68.0538E-03
             335     4.84851E-03     70.8276E-03    -72.0284E+06    -190.970E+06    -33.4069E+06     179.312E+03    -109.272E-03     217.258E-03    -107.986E-03     82.0624E-03    -109.686E-03     216.836E-03    -107.772E-03     80.0668E-03
             336     5.65634E-03     70.9256E-03    -66.3203E+06    -175.651E+06    -23.0625E+06     167.089E+03    -109.680E-03     217.670E-03    -107.990E-03     93.8458E-03    -110.269E-03     217.467E-03    -107.754E-03     91.4002E-03
             337     6.46451E-03     71.0355E-03    -61.0145E+06    -159.542E+06    -15.7167E+06    -787.596E+03    -110.049E-03     218.026E-03    -107.977E-03     104.836E-03    -110.854E-03     218.094E-03    -107.736E-03     101.886E-03
             338     7.27318E-03     71.1574E-03    -55.7789E+06    -142.013E+06    -8.73408E+06    -643.261E+03    -110.361E-03     218.320E-03    -107.959E-03     114.759E-03    -111.433E-03     218.715E-03    -107.716E-03     111.277E-03
             339     8.08060E-03     71.2893E-03    -50.1931E+06    -118.679E+06    -2.41329E+06     108.509E+03    -110.600E-03     218.529E-03    -107.929E-03     123.526E-03    -111.999E-03     219.335E-03    -107.696E-03     119.484E-03
             340     8.88977E-03     71.4299E-03    -45.0491E+06    -94.6571E+06     3.71941E+06    -26.6830E+03    -110.690E-03     218.587E-03    -107.897E-03     131.030E-03    -112.476E-03     219.867E-03    -107.676E-03     126.390E-03
             341     9.69759E-03     71.5772E-03    -40.6970E+06    -64.1463E+06     9.37459E+06     96.7350E+03    -110.653E-03     218.506E-03    -107.853E-03     137.777E-03    -112.911E-03     220.364E-03    -107.654E-03     132.526E-03
             342     10.5060E-03     71.7319E-03    -36.2278E+06    -20.5877E+06     18.7250E+06     290.188E+03    -110.438E-03     218.243E-03    -107.805E-03     143.495E-03    -113.261E-03     220.811E-03    -107.629E-03     137.637E-03
             343     11.3145E-03     71.8910E-03    -31.4365E+06     37.8069E+06      32.277E+06     27.8149E+03    -109.917E-03     217.670E-03    -107.754E-03     145.715E-03    -113.304E-03     220.987E-03    -107.601E-03     139.371E-03
             344     12.1235E-03     72.0490E-03    -26.6800E+06     91.2742E+06     45.8002E+06     100.590E+03    -109.258E-03     216.968E-03    -107.711E-03     142.156E-03    -113.029E-03     220.836E-03    -107.575E-03     135.584E-03
             345     12.9310E-03     72.2008E-03    -22.1927E+06     112.506E+06     64.0848E+06     82.2347E+03    -108.187E-03     215.927E-03    -107.740E-03     130.587E-03    -111.982E-03     219.857E-03    -107.550E-03     124.135E-03
             346     13.7406E-03     72.3317E-03    -17.0467E+06     117.217E+06     81.7333E+06    -22.1102E+03    -106.686E-03     214.462E-03    -107.776E-03     106.876E-03    -109.992E-03     217.887E-03    -107.513E-03     100.932E-03
             347     14.5497E-03     72.4282E-03    -10.6083E+06     125.029E+06     94.1374E+06     393.622E+03    -105.813E-03     213.583E-03    -107.770E-03     87.9947E-03    -108.716E-03     216.619E-03    -107.465E-03     82.4242E-03
             348     15.3601E-03     72.5208E-03    -5.23081E+06     126.494E+06     96.0168E+06     415.321E+03    -106.325E-03     214.063E-03    -107.738E-03     50.4128E-03    -108.203E-03     216.093E-03    -107.434E-03     46.1519E-03
             349     807.924E-06     71.7271E-03    -99.1766E+06    -248.850E+06    -96.6545E+06     14.8374E+03    -107.891E-03     215.775E-03    -107.885E-03     16.1185E-03    -107.898E-03     214.828E-03    -107.863E-03     15.8099E-03
             350     1.61600E-03     71.7526E-03    -95.5845E+06    -242.368E+06    -87.1199E+06     72.4285E+03    -108.083E-03     215.976E-03    -107.892E-03     29.3387E-03    -108.122E-03     215.068E-03    -107.838E-03     28.7554E-03
             351     2.42402E-03     71.7926E-03    -90.5789E+06    -232.832E+06    -73.3509E+06     70.9163E+03    -108.282E-03     216.220E-03    -107.937E-03     43.1657E-03    -108.377E-03     215.379E-03    -107.835E-03     42.2776E-03
             352     3.23197E-03     71.8485E-03    -84.5479E+06    -222.757E+06    -59.2816E+06    -102.450E+03    -108.564E-03     216.535E-03    -107.970E-03     56.6757E-03    -108.733E-03     215.785E-03    -107.821E-03     55.4504E-03
             353     4.04024E-03     71.9187E-03    -78.3558E+06    -207.521E+06    -46.7338E+06    -21.4345E+03    -108.910E-03     216.896E-03    -107.985E-03     69.6254E-03    -109.185E-03     216.291E-03    -107.804E-03     68.0325E-03
             354     4.84800E-03     72.0033E-03    -71.8449E+06    -191.532E+06    -33.7879E+06     230.521E+03    -109.265E-03     217.263E-03    -107.998E-03     82.0308E-03    -109.678E-03     216.839E-03    -107.785E-03     80.0346E-03
             355     5.65652E-03     72.1009E-03    -64.8908E+06    -174.999E+06    -22.0782E+06     70.0281E+03    -109.656E-03     217.656E-03    -108.001E-03     93.8156E-03    -110.240E-03     217.453E-03    -107.763E-03     91.3691E-03
             356     6.46476E-03     72.2113E-03    -58.5531E+06    -158.678E+06    -13.8003E+06     117.717E+03    -110.068E-03     218.057E-03    -107.989E-03     104.760E-03    -110.865E-03     218.123E-03    -107.743E-03     101.820E-03
             357     7.27236E-03     72.3329E-03    -53.6169E+06    -142.837E+06    -7.66804E+06     140.877E+03    -110.368E-03     218.337E-03    -107.969E-03     114.822E-03    -111.430E-03     218.724E-03    -107.723E-03     111.350E-03
             358     8.08147E-03     72.4648E-03    -49.3253E+06    -118.655E+06    -2.20365E+06    -16.3337E+03    -110.557E-03     218.488E-03    -107.931E-03     123.725E-03    -111.951E-03     219.292E-03    -107.699E-03     119.686E-03
             359     8.88904E-03     72.6053E-03    -45.0789E+06    -94.2283E+06     4.02360E+06    -10.7403E+03    -110.694E-03     218.591E-03    -107.897E-03     131.096E-03    -112.481E-03     219.872E-03    -107.675E-03     126.458E-03
             360     9.69785E-03     72.7529E-03    -40.5550E+06    -64.4659E+06     9.41774E+06    -168.389E+03    -110.643E-03     218.495E-03    -107.852E-03     137.734E-03    -112.900E-03     220.352E-03    -107.653E-03     132.476E-03
             361     10.5063E-03     72.9074E-03    -36.1882E+06    -20.8713E+06     18.5333E+06    -186.083E+03    -110.369E-03     218.170E-03    -107.801E-03     143.415E-03    -113.186E-03     220.731E-03    -107.626E-03     137.559E-03
             362     11.3150E-03     73.0664E-03    -31.8568E+06     38.2093E+06     32.2377E+06    -177.332E+03    -110.028E-03     217.779E-03    -107.751E-03     145.759E-03    -113.420E-03     221.100E-03    -107.599E-03     139.403E-03
             363     12.1226E-03     73.2256E-03    -27.2462E+06     90.0996E+06     44.5905E+06     65.5074E+03    -109.171E-03     216.878E-03    -107.706E-03     142.157E-03    -112.947E-03     220.747E-03    -107.575E-03     135.579E-03
             364     12.9322E-03     73.3758E-03    -22.0751E+06     112.580E+06     63.4760E+06     707.668E+03    -107.929E-03     215.655E-03    -107.726E-03     130.271E-03    -111.715E-03     219.578E-03    -107.540E-03     123.846E-03
             365     13.7409E-03     73.5068E-03    -16.7468E+06     118.517E+06     82.6933E+06     241.064E+03    -107.036E-03     214.809E-03    -107.773E-03     106.437E-03    -110.348E-03     218.242E-03    -107.507E-03     100.465E-03
             366     14.5485E-03     73.6051E-03    -11.1972E+06     124.524E+06     94.1188E+06    -449.066E+03    -106.490E-03     214.286E-03    -107.796E-03     87.1460E-03    -109.399E-03     217.324E-03    -107.490E-03     81.5083E-03
             367     15.3570E-03     73.6926E-03    -5.22010E+06     126.232E+06     95.6586E+06     205.063E+03    -106.057E-03     213.831E-03    -107.774E-03     50.0952E-03    -107.934E-03     215.860E-03    -107.471E-03     45.8197E-03
             368     807.987E-06     72.9029E-03    -98.9564E+06    -248.682E+06    -96.4283E+06     82.6709E+03    -107.865E-03     215.882E-03    -108.016E-03     16.1730E-03    -107.872E-03     214.934E-03    -107.995E-03     15.8645E-03
             369     1.61594E-03     72.9277E-03    -95.5218E+06    -242.418E+06    -87.1167E+06    -31.8560E+03    -108.040E-03     215.966E-03    -107.926E-03     29.3391E-03    -108.079E-03     215.058E-03    -107.871E-03     28.7551E-03
             370     2.42399E-03     72.9683E-03    -90.4697E+06    -233.085E+06    -73.7343E+06     96.0444E+03    -108.297E-03     216.247E-03    -107.950E-03     43.1148E-03    -108.390E-03     215.405E-03    -107.849E-03     42.2257E-03
             371     3.23203E-03     73.0239E-03    -84.4542E+06    -222.469E+06    -58.9550E+06    -71.9760E+03    -108.578E-03     216.564E-03    -107.986E-03     56.6471E-03    -108.748E-03     215.815E-03    -107.836E-03     55.4217E-03
             372     4.03990E-03     73.0944E-03    -77.9668E+06    -207.892E+06    -45.5287E+06    -132.697E+03    -108.898E-03     216.901E-03    -108.003E-03     69.7045E-03    -109.172E-03     216.292E-03    -107.816E-03     68.1106E-03
             373     4.84836E-03     73.1787E-03    -71.3256E+06    -191.391E+06    -32.5334E+06    -81.7400E+03    -109.284E-03     217.297E-03    -108.013E-03     82.0877E-03    -109.696E-03     216.871E-03    -107.795E-03     80.0871E-03
             374     5.65621E-03     73.2764E-03    -65.2400E+06    -174.619E+06    -21.9172E+06    -328.122E+03    -109.665E-03     217.676E-03    -108.011E-03     93.8702E-03    -110.252E-03     217.475E-03    -107.773E-03     91.4179E-03
             375     6.46429E-03     73.3869E-03    -59.6799E+06    -159.770E+06    -14.6557E+06     100.556E+03    -109.997E-03     217.990E-03    -107.993E-03     104.835E-03    -110.797E-03     218.053E-03    -107.748E-03     101.898E-03
             376     7.27320E-03     73.5083E-03    -54.2441E+06    -142.426E+06    -8.02009E+06     517.521E+03    -110.320E-03     218.285E-03    -107.965E-03     114.835E-03    -111.385E-03     218.676E-03    -107.720E-03     111.370E-03
             377     8.08079E-03     73.6402E-03    -49.2802E+06    -118.219E+06    -2.28839E+06     278.537E+03    -110.587E-03     218.514E-03    -107.927E-03     123.677E-03    -111.981E-03     219.320E-03    -107.696E-03     119.642E-03
             378     8.88979E-03     73.7809E-03    -44.5555E+06    -94.2574E+06     4.03101E+06     50.5725E+03    -110.715E-03     218.611E-03    -107.896E-03     131.105E-03    -112.500E-03     219.892E-03    -107.675E-03     126.467E-03
             379     9.69756E-03     73.9285E-03    -40.4277E+06    -63.9237E+06     9.54651E+06    -196.523E+03    -110.648E-03     218.502E-03    -107.853E-03     137.601E-03    -112.906E-03     220.361E-03    -107.654E-03     132.340E-03
             380     10.5061E-03     74.0824E-03    -36.4094E+06    -21.1878E+06     18.1388E+06    -248.206E+03    -110.448E-03     218.253E-03    -107.805E-03     143.330E-03    -113.268E-03     220.816E-03    -107.631E-03     137.464E-03
             381     11.3143E-03     74.2423E-03    -32.1719E+06     37.6094E+06     31.5788E+06     53.9488E+03    -109.937E-03     217.691E-03    -107.754E-03     145.967E-03    -113.331E-03     221.012E-03    -107.604E-03     139.618E-03
             382     12.1234E-03     74.4014E-03    -27.6631E+06      89.846E+06     44.6047E+06     199.976E+03    -109.017E-03     216.720E-03    -107.703E-03     141.975E-03    -112.788E-03     220.582E-03    -107.570E-03     135.418E-03
             383     12.9317E-03     74.5501E-03    -22.4250E+06     112.266E+06     63.3797E+06     205.212E+03    -108.071E-03     215.793E-03    -107.722E-03     130.295E-03    -111.861E-03     219.718E-03    -107.535E-03     123.857E-03
             384     13.7400E-03     74.6840E-03    -16.4465E+06     118.769E+06     82.9745E+06     407.234E+03    -107.064E-03     214.837E-03    -107.773E-03     106.998E-03    -110.377E-03     218.273E-03    -107.507E-03     101.035E-03
             385     14.5493E-03     74.7799E-03    -10.8634E+06     124.749E+06     94.5296E+06     519.306E+03    -106.385E-03     214.177E-03    -107.792E-03     88.9830E-03    -109.301E-03     217.223E-03    -107.484E-03     83.3873E-03
             386     15.3558E-03     74.8725E-03    -5.28030E+06     126.269E+06     95.6446E+06    -153.468E+03    -105.957E-03     213.716E-03    -107.759E-03     51.7699E-03    -107.847E-03     215.759E-03    -107.457E-03     47.5004E-03
             387     807.763E-06     74.0783E-03    -98.6451E+06    -248.698E+06    -96.4978E+06    -32.8939E+03    -108.040E-03     215.917E-03    -107.877E-03     16.1236E-03    -108.045E-03     214.969E-03    -107.856E-03     15.8131E-03
             388     1.61593E-03     74.1032E-03    -95.5288E+06    -242.294E+06    -86.8190E+06     50.6492E+03    -108.098E-03     216.050E-03    -107.952E-03     29.3977E-03    -108.138E-03     215.142E-03    -107.897E-03     28.8145E-03
             389     2.42384E-03     74.1439E-03    -90.4336E+06    -233.052E+06    -73.5593E+06    -231.020E+03    -108.279E-03     216.255E-03    -107.977E-03     43.1259E-03    -108.372E-03     215.413E-03    -107.875E-03     42.2330E-03
             390     3.23187E-03     74.1994E-03    -84.2125E+06    -222.321E+06    -58.8808E+06    -143.626E+03    -108.546E-03     216.545E-03    -107.998E-03     56.6749E-03    -108.715E-03     215.796E-03    -107.848E-03     55.4494E-03
             391     4.04020E-03     74.2699E-03    -77.6701E+06    -208.010E+06    -43.8926E+06    -86.1385E+03    -108.888E-03     216.904E-03    -108.016E-03     69.6982E-03    -109.163E-03     216.292E-03    -107.822E-03     68.1052E-03
             392     4.84803E-03     74.3543E-03    -71.1862E+06    -191.651E+06    -31.3561E+06     90.6340E+03    -109.273E-03     217.295E-03    -108.022E-03     82.1363E-03    -109.685E-03     216.865E-03    -107.797E-03     80.1393E-03
             393     5.65635E-03     74.4522E-03    -65.1517E+06    -174.298E+06    -22.1638E+06     334.511E+03    -109.651E-03     217.661E-03    -108.010E-03     93.8892E-03    -110.237E-03     217.461E-03    -107.773E-03     91.4463E-03
             394     6.46479E-03     74.5621E-03    -59.4625E+06    -159.979E+06    -14.7061E+06     192.165E+03    -110.001E-03     217.993E-03    -107.992E-03     104.775E-03    -110.799E-03     218.055E-03    -107.747E-03     101.838E-03
             395     7.27252E-03     74.6838E-03    -53.9943E+06    -142.843E+06    -7.90161E+06     276.007E+03    -110.346E-03     218.314E-03    -107.968E-03     114.771E-03    -111.410E-03     218.701E-03    -107.722E-03     111.302E-03
             396     8.08139E-03     74.8158E-03    -48.8790E+06    -117.866E+06    -1.99629E+06     248.872E+03    -110.598E-03     218.529E-03    -107.931E-03     123.661E-03    -111.992E-03     219.337E-03    -107.699E-03     119.624E-03
             397     8.88899E-03     74.9564E-03    -44.5391E+06    -94.4154E+06     3.72629E+06     135.282E+03    -110.683E-03     218.580E-03    -107.897E-03     131.121E-03    -112.467E-03     219.860E-03    -107.677E-03     126.485E-03
             398     9.69788E-03     75.1040E-03    -40.4723E+06    -63.5247E+06     9.50621E+06     225.145E+03    -110.662E-03     218.515E-03    -107.853E-03     137.660E-03    -112.920E-03     220.376E-03    -107.655E-03     132.408E-03
             399     10.5060E-03     75.2582E-03    -36.5687E+06    -20.9385E+06     18.3353E+06     58.8348E+03    -110.483E-03     218.291E-03    -107.808E-03     143.559E-03    -113.310E-03     220.860E-03    -107.633E-03     137.691E-03
             400     11.3146E-03     75.4179E-03    -32.2694E+06     37.0082E+06     31.3777E+06     121.476E+03    -109.853E-03     217.606E-03    -107.753E-03     145.965E-03    -113.243E-03     220.922E-03    -107.603E-03     139.626E-03
             401     12.1233E-03     75.5762E-03    -27.4481E+06     89.9508E+06     44.9087E+06     143.678E+03    -109.057E-03     216.759E-03    -107.702E-03     141.964E-03    -112.825E-03     220.618E-03    -107.568E-03     135.406E-03
             402     12.9318E-03     75.7270E-03    -22.3961E+06     112.206E+06     63.9735E+06     35.9812E+03    -108.037E-03     215.760E-03    -107.723E-03     130.247E-03    -111.828E-03     219.685E-03    -107.534E-03     123.803E-03
             403     13.7411E-03     75.8583E-03    -16.9105E+06     118.129E+06     82.4384E+06     260.662E+03    -106.735E-03     214.495E-03    -107.760E-03     107.119E-03    -110.045E-03     217.925E-03    -107.495E-03     101.175E-03
             404     14.5493E-03     75.9567E-03    -10.3186E+06     125.240E+06     94.6575E+06    -51.1058E+03    -105.884E-03     213.642E-03    -107.757E-03     88.1746E-03    -108.793E-03     216.684E-03    -107.451E-03     82.5888E-03
             405     15.3621E-03     76.0449E-03    -4.69762E+06     126.904E+06     96.4003E+06    -173.523E+03    -106.450E-03     214.180E-03    -107.731E-03     50.2201E-03    -108.328E-03     216.213E-03    -107.426E-03     45.9457E-03
             406     808.206E-06     75.2536E-03    -98.9105E+06    -248.734E+06    -96.3727E+06     39.2356E+03    -108.092E-03     215.897E-03    -107.805E-03     16.0390E-03    -108.098E-03     214.949E-03    -107.783E-03     15.7298E-03
             407     1.61578E-03     75.2793E-03    -95.2064E+06    -242.223E+06    -86.8506E+06    -187.784E+03    -108.115E-03     216.062E-03    -107.947E-03     29.4596E-03    -108.153E-03     215.154E-03    -107.892E-03     28.8716E-03
             408     2.42386E-03     75.3191E-03    -90.3767E+06    -232.757E+06    -73.2253E+06    -115.209E+03    -108.281E-03     216.259E-03    -107.978E-03     43.2105E-03    -108.375E-03     215.418E-03    -107.875E-03     42.3194E-03
             409     3.23203E-03     75.3751E-03    -84.6917E+06    -222.460E+06    -58.8850E+06    -9.76526E+03    -108.564E-03     216.566E-03    -108.002E-03     56.7088E-03    -108.735E-03     215.817E-03    -107.851E-03     55.4849E-03
             410     4.03984E-03     75.4453E-03    -78.4264E+06    -208.083E+06    -45.5706E+06     125.921E+03    -108.892E-03     216.906E-03    -108.014E-03     69.7017E-03    -109.168E-03     216.297E-03    -107.826E-03     68.1119E-03
             411     4.84829E-03     75.5299E-03    -71.9084E+06    -191.950E+06    -32.9370E+06     56.0305E+03    -109.248E-03     217.265E-03    -108.018E-03     82.1282E-03    -109.661E-03     216.838E-03    -107.800E-03     80.1309E-03
             412     5.65637E-03     75.6275E-03    -65.2950E+06    -174.481E+06    -22.2393E+06     349.148E+03    -109.633E-03     217.642E-03    -108.009E-03     93.8141E-03    -110.219E-03     217.442E-03    -107.772E-03     91.3719E-03
             413     6.46432E-03     75.7377E-03    -59.2722E+06    -159.520E+06    -14.2599E+06     320.521E+03    -110.035E-03     218.029E-03    -107.994E-03     104.750E-03    -110.834E-03     218.092E-03    -107.748E-03     101.814E-03
             414     7.27299E-03     75.8593E-03    -53.8880E+06    -143.158E+06    -8.02102E+06     27.5528E+03    -110.363E-03     218.334E-03    -107.971E-03     114.855E-03    -111.426E-03     218.720E-03    -107.725E-03     111.383E-03
             415     8.08074E-03     75.9913E-03    -49.0982E+06    -118.170E+06    -2.44164E+06     270.101E+03    -110.576E-03     218.507E-03    -107.931E-03     123.755E-03    -111.970E-03     219.315E-03    -107.701E-03     119.718E-03
             416     8.88972E-03     76.1320E-03    -44.5601E+06    -94.3499E+06     3.88689E+06     380.490E+03    -110.676E-03     218.574E-03    -107.898E-03     131.146E-03    -112.460E-03     219.854E-03    -107.677E-03     126.515E-03
             417     9.69761E-03     76.2795E-03    -40.3614E+06    -63.8545E+06     9.48285E+06     472.619E+03    -110.672E-03     218.525E-03    -107.853E-03     137.710E-03    -112.929E-03     220.385E-03    -107.655E-03     132.461E-03
             418     10.5062E-03     76.4340E-03    -36.3821E+06    -20.3905E+06     18.7906E+06     522.923E+03    -110.426E-03     218.233E-03    -107.807E-03     143.387E-03    -113.251E-03     220.802E-03    -107.631E-03     137.530E-03
             419     11.3146E-03     76.5932E-03    -32.1640E+06     37.5526E+06     31.8807E+06     148.272E+03    -109.906E-03     217.660E-03    -107.754E-03     145.804E-03    -113.297E-03     220.978E-03    -107.603E-03     139.460E-03
             420     12.1231E-03     76.7521E-03    -27.5599E+06     89.5530E+06     44.5330E+06     20.3857E+03    -109.064E-03     216.766E-03    -107.702E-03     142.066E-03    -112.835E-03     220.628E-03    -107.570E-03     135.502E-03
             421     12.9318E-03     76.9023E-03    -22.4452E+06     112.076E+06     63.5915E+06     118.538E+03    -107.982E-03     215.704E-03    -107.722E-03     130.086E-03    -111.772E-03     219.627E-03    -107.534E-03     123.647E-03
             422     13.7403E-03     77.0334E-03    -16.3212E+06     118.685E+06     82.9172E+06    -307.993E+03    -106.834E-03     214.598E-03    -107.764E-03     106.416E-03    -110.141E-03     218.028E-03    -107.498E-03     100.451E-03
             423     14.5503E-03     77.1316E-03    -10.3094E+06     125.197E+06     94.7208E+06    -505.837E+03    -106.339E-03     214.116E-03    -107.778E-03     87.4295E-03    -109.239E-03     217.150E-03    -107.471E-03     81.8158E-03
             424     15.3543E-03     77.2214E-03    -5.04253E+06     126.389E+06     95.7935E+06     100.943E+03    -106.324E-03     214.082E-03    -107.758E-03     50.5273E-03    -108.200E-03     216.110E-03    -107.455E-03     46.2490E-03
             425     807.698E-06     76.4299E-03    -98.2967E+06    -248.229E+06    -96.0973E+06    -39.6681E+03    -107.970E-03     215.918E-03    -107.948E-03     16.0921E-03    -107.975E-03     214.972E-03    -107.926E-03     15.7784E-03
             426     1.61603E-03     76.4542E-03    -95.3935E+06    -242.179E+06    -86.8156E+06    -139.386E+03    -108.061E-03     216.006E-03    -107.945E-03     29.3220E-03    -108.100E-03     215.098E-03    -107.890E-03     28.7357E-03
             427     2.42403E-03     76.4950E-03    -90.5317E+06    -233.028E+06    -73.5791E+06     104.393E+03    -108.301E-03     216.268E-03    -107.967E-03     43.1751E-03    -108.394E-03     215.426E-03    -107.866E-03     42.2876E-03
             428     3.23181E-03     76.5504E-03    -84.4963E+06    -222.623E+06    -59.1318E+06     284.822E+03    -108.589E-03     216.589E-03    -107.999E-03     56.6638E-03    -108.759E-03     215.839E-03    -107.849E-03     55.4429E-03
             429     4.04020E-03     76.6209E-03    -78.0941E+06    -207.984E+06    -45.6223E+06     197.362E+03    -108.883E-03     216.897E-03    -108.014E-03     69.7022E-03    -109.158E-03     216.288E-03    -107.827E-03     68.1127E-03
             430     4.84800E-03     76.7053E-03    -71.6261E+06    -191.686E+06    -32.7052E+06     119.449E+03    -109.234E-03     217.250E-03    -108.016E-03     82.1626E-03    -109.647E-03     216.823E-03    -107.798E-03     80.1663E-03
             431     5.65629E-03     76.8030E-03    -65.3562E+06    -175.287E+06    -22.4554E+06     45.1135E+03    -109.634E-03     217.640E-03    -108.006E-03     93.9360E-03    -110.219E-03     217.436E-03    -107.769E-03     91.4911E-03
             432     6.46476E-03     76.9133E-03    -59.3857E+06    -159.728E+06    -14.6523E+06     269.588E+03    -110.038E-03     218.027E-03    -107.989E-03     104.835E-03    -110.836E-03     218.089E-03    -107.744E-03     101.901E-03
             433     7.27259E-03     77.0347E-03    -54.1566E+06    -142.576E+06    -7.80481E+06     225.182E+03    -110.395E-03     218.364E-03    -107.970E-03     114.844E-03    -111.460E-03     218.754E-03    -107.724E-03     111.372E-03
             434     8.08136E-03     77.1669E-03    -49.2362E+06    -118.589E+06    -2.41811E+06     113.932E+03    -110.606E-03     218.541E-03    -107.935E-03     123.647E-03    -112.000E-03     219.346E-03    -107.704E-03     119.606E-03
             435     8.88910E-03     77.3073E-03    -44.7009E+06    -94.4948E+06     3.81462E+06     359.864E+03    -110.700E-03     218.603E-03    -107.903E-03     131.028E-03    -112.484E-03     219.882E-03    -107.683E-03     126.394E-03
             436     9.69781E-03     77.4552E-03    -40.2877E+06    -64.0375E+06     9.64117E+06     392.424E+03    -110.645E-03     218.505E-03    -107.860E-03     137.619E-03    -112.902E-03     220.364E-03    -107.660E-03     132.368E-03
             437     10.5059E-03     77.6094E-03    -35.7235E+06    -20.6393E+06     18.9291E+06     595.777E+03    -110.420E-03     218.232E-03    -107.812E-03     143.338E-03    -113.241E-03     220.797E-03    -107.635E-03     137.482E-03
             438     11.3145E-03     77.7686E-03    -31.3918E+06     38.0993E+06     32.3531E+06     694.765E+03    -109.876E-03     217.633E-03    -107.757E-03     145.840E-03    -113.266E-03     220.954E-03    -107.605E-03     139.502E-03
             439     12.1232E-03     77.9279E-03    -26.9306E+06     90.2060E+06     45.0024E+06     158.732E+03    -109.017E-03     216.719E-03    -107.703E-03     142.074E-03    -112.784E-03     220.581E-03    -107.569E-03     135.519E-03
             440     12.9321E-03     78.0772E-03    -21.2385E+06     112.362E+06     64.0356E+06    -494.627E+03    -108.177E-03     215.902E-03    -107.725E-03     130.186E-03    -111.961E-03     219.824E-03    -107.537E-03     123.731E-03
             441     13.7407E-03     78.2102E-03    -15.5301E+06     118.622E+06     83.2349E+06    -264.460E+03    -107.115E-03     214.896E-03    -107.781E-03     106.428E-03    -110.420E-03     218.325E-03    -107.514E-03     100.448E-03
             442     14.5476E-03     78.3064E-03    -10.6608E+06     124.780E+06     94.3570E+06     495.139E+03    -106.252E-03     214.048E-03    -107.797E-03     88.6002E-03    -109.162E-03     217.090E-03    -107.491E-03     83.0074E-03
             443     15.3603E-03     78.3993E-03    -5.32010E+06     126.288E+06     95.5321E+06     181.025E+03    -106.044E-03     213.808E-03    -107.764E-03     51.2801E-03    -107.929E-03     215.845E-03    -107.461E-03     47.0211E-03
             444     808.050E-06     77.6050E-03    -98.6145E+06    -248.406E+06    -96.1611E+06    -161.770E+03    -107.973E-03     215.941E-03    -107.969E-03     16.0772E-03    -107.978E-03     214.994E-03    -107.946E-03     15.7578E-03
             445     1.61581E-03     77.6301E-03    -95.5084E+06    -242.194E+06    -86.8076E+06     229.825E+03    -108.085E-03     216.044E-03    -107.960E-03     29.3035E-03    -108.124E-03     215.137E-03    -107.904E-03     28.7229E-03
             446     2.42378E-03     77.6704E-03    -90.7500E+06    -233.158E+06    -73.6670E+06     69.6555E+03    -108.268E-03     216.245E-03    -107.977E-03     43.1463E-03    -108.362E-03     215.404E-03    -107.876E-03     42.2588E-03
             447     3.23208E-03     77.7262E-03    -84.6136E+06    -222.870E+06    -59.4421E+06     67.5732E+03    -108.538E-03     216.533E-03    -107.995E-03     56.6944E-03    -108.707E-03     215.783E-03    -107.846E-03     55.4722E-03
             448     4.03980E-03     77.7964E-03    -78.0310E+06    -207.918E+06    -45.5536E+06     232.867E+03    -108.868E-03     216.871E-03    -108.004E-03     69.7397E-03    -109.142E-03     216.263E-03    -107.817E-03     68.1514E-03
             449     4.84837E-03     77.8807E-03    -71.6081E+06    -191.753E+06    -32.7087E+06     242.029E+03    -109.239E-03     217.246E-03    -108.007E-03     82.2032E-03    -109.652E-03     216.818E-03    -107.788E-03     80.2091E-03
             450     5.65649E-03     77.9786E-03    -65.3059E+06    -175.431E+06    -22.4233E+06     153.363E+03    -109.656E-03     217.656E-03    -108.000E-03     93.8964E-03    -110.241E-03     217.451E-03    -107.763E-03     91.4531E-03
             451     6.46446E-03     78.0887E-03    -59.5162E+06    -160.005E+06    -14.7419E+06     109.576E+03    -110.081E-03     218.069E-03    -107.988E-03     104.774E-03    -110.880E-03     218.131E-03    -107.743E-03     101.835E-03
             452     7.27300E-03     78.2105E-03    -53.9865E+06    -142.456E+06    -7.59683E+06     346.772E+03    -110.442E-03     218.417E-03    -107.975E-03     114.756E-03    -111.507E-03     218.807E-03    -107.728E-03     111.283E-03
             453     8.08065E-03     78.3423E-03    -49.2263E+06    -118.391E+06    -2.05494E+06     268.185E+03    -110.646E-03     218.592E-03    -107.946E-03     123.557E-03    -112.041E-03     219.398E-03    -107.713E-03     119.516E-03
             454     8.88944E-03     78.4830E-03    -44.6233E+06    -94.8178E+06     3.85469E+06     99.8444E+03    -110.683E-03     218.596E-03    -107.914E-03     131.088E-03    -112.468E-03     219.875E-03    -107.692E-03     126.450E-03
             455     9.69735E-03     78.6307E-03     -40.154E+06    -64.1392E+06     9.72595E+06     315.802E+03    -110.599E-03     218.466E-03    -107.866E-03     137.692E-03    -112.854E-03     220.322E-03    -107.666E-03     132.445E-03
             456     10.5062E-03     78.7847E-03    -35.9202E+06    -20.9408E+06     18.7634E+06     204.894E+03    -110.404E-03     218.217E-03    -107.814E-03     143.487E-03    -113.226E-03     220.784E-03    -107.638E-03     137.626E-03
             457     11.3144E-03     78.9447E-03    -30.9310E+06     37.3456E+06     32.2641E+06     242.284E+03    -109.876E-03     217.634E-03    -107.758E-03     145.794E-03    -113.262E-03     220.950E-03    -107.606E-03     139.451E-03
             458     12.1234E-03     79.1024E-03    -25.8284E+06     91.4048E+06     46.1479E+06     568.540E+03    -109.126E-03     216.835E-03    -107.710E-03     141.975E-03    -112.891E-03     220.699E-03    -107.574E-03     135.418E-03
             459     12.9316E-03     79.2540E-03    -21.9412E+06     113.538E+06     64.8457E+06     95.5328E+03    -108.142E-03     215.877E-03    -107.736E-03     130.257E-03    -111.932E-03     219.805E-03    -107.544E-03     123.811E-03
             460     13.7398E-03     79.3852E-03    -17.3145E+06     117.716E+06     82.3469E+06    -28.4738E+03    -106.946E-03     214.726E-03    -107.781E-03     106.752E-03    -110.260E-03     218.159E-03    -107.515E-03     100.783E-03
             461     14.5503E-03     79.4827E-03    -10.8405E+06     124.651E+06     93.9697E+06     184.389E+03    -106.163E-03     213.952E-03    -107.789E-03     88.4246E-03    -109.080E-03     217.000E-03    -107.484E-03     82.8202E-03
             462     15.3559E-03     79.5727E-03    -4.97672E+06     126.518E+06     95.7191E+06     34.9065E+03    -106.148E-03     213.906E-03    -107.759E-03     50.7532E-03    -108.029E-03     215.942E-03    -107.456E-03     46.4855E-03
             463     807.845E-06     78.7807E-03    -99.1129E+06    -248.965E+06    -96.7519E+06     49.9600E+03    -108.142E-03     215.941E-03    -107.798E-03     16.0307E-03    -108.149E-03     214.993E-03    -107.777E-03     15.7135E-03
             464     1.61589E-03     78.8057E-03    -95.7223E+06    -242.480E+06    -87.0209E+06     305.959E+03    -108.095E-03     216.058E-03    -107.962E-03     29.3099E-03    -108.135E-03     215.149E-03    -107.907E-03     28.7288E-03
             465     2.42394E-03     78.8459E-03    -90.5437E+06    -232.833E+06    -73.2620E+06     235.761E+03    -108.236E-03     216.214E-03    -107.978E-03     43.1645E-03    -108.330E-03     215.373E-03    -107.876E-03     42.2788E-03
             466     3.23185E-03     78.9016E-03    -84.6186E+06    -222.791E+06    -59.3338E+06    -113.324E+03    -108.501E-03     216.488E-03    -107.986E-03     56.7062E-03    -108.671E-03     215.738E-03    -107.837E-03     55.4827E-03
             467     4.04041E-03     78.9719E-03    -78.1368E+06    -208.499E+06    -46.1258E+06     7.05441E+03    -108.880E-03     216.871E-03    -107.992E-03     69.6888E-03    -109.153E-03     216.261E-03    -107.807E-03     68.0982E-03
             468     4.84812E-03     79.0563E-03    -71.5050E+06    -191.820E+06    -32.7118E+06     259.031E+03    -109.301E-03     217.306E-03    -108.005E-03     82.0988E-03    -109.713E-03     216.878E-03    -107.786E-03     80.1029E-03
             469     5.65632E-03     79.1541E-03    -65.1619E+06    -175.064E+06    -22.0696E+06     101.122E+03    -109.700E-03     217.707E-03    -108.008E-03     93.7923E-03    -110.284E-03     217.503E-03    -107.770E-03     91.3464E-03
             470     6.46466E-03     79.2644E-03    -59.2793E+06    -159.954E+06    -14.4265E+06     209.105E+03    -110.093E-03     218.092E-03    -107.999E-03     104.759E-03    -110.891E-03     218.154E-03    -107.753E-03     101.820E-03
             471     7.27243E-03     79.3860E-03    -54.0778E+06    -143.046E+06    -7.78259E+06     269.103E+03    -110.418E-03     218.401E-03    -107.983E-03     114.806E-03    -111.483E-03     218.789E-03    -107.736E-03     111.333E-03
             472     8.08116E-03     79.5180E-03    -48.9387E+06    -118.223E+06    -1.87009E+06     351.997E+03    -110.613E-03     218.562E-03    -107.949E-03     123.683E-03    -112.008E-03     219.369E-03    -107.716E-03     119.644E-03
             473     8.88892E-03     79.6585E-03    -44.4293E+06    -94.6176E+06     4.19697E+06     296.889E+03    -110.672E-03     218.588E-03    -107.916E-03     131.139E-03    -112.457E-03     219.867E-03    -107.693E-03     126.504E-03
             474     9.69791E-03     79.8060E-03    -40.2391E+06    -64.3890E+06     9.60196E+06     114.520E+03    -110.612E-03     218.479E-03    -107.866E-03     137.712E-03    -112.867E-03     220.334E-03    -107.667E-03     132.462E-03
             475     10.5058E-03     79.9606E-03    -36.0332E+06    -20.9041E+06     18.6842E+06     121.822E+03    -110.397E-03     218.211E-03    -107.814E-03     143.466E-03    -113.219E-03     220.777E-03    -107.638E-03     137.605E-03
             476     11.3148E-03     80.1197E-03    -32.1444E+06     37.3419E+06     31.9259E+06    -97.0614E+03    -109.984E-03     217.746E-03    -107.763E-03     145.782E-03    -113.375E-03     221.064E-03    -107.611E-03     139.429E-03
             477     12.1227E-03     80.2789E-03    -27.6321E+06     90.5396E+06     44.8246E+06     11.3393E+03    -109.160E-03     216.876E-03    -107.716E-03     142.056E-03    -112.934E-03     220.744E-03    -107.583E-03     135.485E-03
             478     12.9315E-03     80.4291E-03    -21.8554E+06     113.466E+06     64.3136E+06     1.01714E+06    -107.973E-03     215.711E-03    -107.738E-03     130.263E-03    -111.764E-03     219.641E-03    -107.549E-03     123.837E-03
             479     13.7413E-03     80.5607E-03    -16.1883E+06     118.795E+06     83.1895E+06     523.383E+03    -106.972E-03     214.754E-03    -107.782E-03     106.576E-03    -110.282E-03     218.187E-03    -107.515E-03     100.616E-03
             480     14.5481E-03     80.6584E-03    -10.8107E+06     124.667E+06     94.2320E+06    -407.624E+03    -106.317E-03     214.112E-03    -107.796E-03     87.8860E-03    -109.225E-03     217.151E-03    -107.490E-03     82.2721E-03
             481     15.3593E-03     80.7492E-03    -5.07736E+06     126.376E+06     95.7635E+06    -81.8292E+03    -106.029E-03     213.796E-03    -107.767E-03     50.9552E-03    -107.909E-03     215.829E-03    -107.464E-03     46.6877E-03
             482     807.998E-06     79.9565E-03    -99.0243E+06    -249.100E+06    -97.1014E+06     17.0015E+03    -108.091E-03     215.845E-03    -107.754E-03     16.1252E-03    -108.096E-03     214.896E-03    -107.734E-03     15.8125E-03
             483     1.61584E-03     79.9811E-03    -95.7159E+06    -242.573E+06    -87.1968E+06    -131.473E+03    -108.083E-03     216.004E-03    -107.920E-03     29.3687E-03    -108.123E-03     215.095E-03    -107.866E-03     28.7822E-03
             484     2.42389E-03     80.0214E-03    -90.4068E+06    -233.073E+06    -73.6305E+06    -81.0928E+03    -108.279E-03     216.232E-03    -107.953E-03     43.1604E-03    -108.372E-03     215.390E-03    -107.852E-03     42.2705E-03
             485     3.23215E-03     80.0770E-03    -84.2288E+06    -222.368E+06    -58.8794E+06    -18.4545E+03    -108.561E-03     216.544E-03    -107.983E-03     56.6321E-03    -108.729E-03     215.795E-03    -107.833E-03     55.4091E-03
             486     4.03984E-03     80.1473E-03    -77.6057E+06    -208.672E+06    -44.4427E+06    -118.993E+03    -108.925E-03     216.933E-03    -108.008E-03     69.6658E-03    -109.198E-03     216.318E-03    -107.815E-03     68.0715E-03
             487     4.84828E-03     80.2320E-03    -70.9460E+06    -192.359E+06    -31.8465E+06     184.966E+03    -109.324E-03     217.345E-03    -108.021E-03     82.0874E-03    -109.733E-03     216.912E-03    -107.799E-03     80.0904E-03
             488     5.65627E-03     80.3296E-03    -64.9593E+06    -174.788E+06    -21.9168E+06     445.617E+03    -109.708E-03     217.728E-03    -108.020E-03     93.8300E-03    -110.293E-03     217.525E-03    -107.782E-03     91.3879E-03
             489     6.46427E-03     80.4399E-03    -59.3612E+06    -160.140E+06    -14.2945E+06     266.353E+03    -110.061E-03     218.071E-03    -108.009E-03     104.812E-03    -110.859E-03     218.131E-03    -107.762E-03     101.876E-03
             490     7.27290E-03     80.5617E-03    -53.8578E+06    -143.066E+06     -7.6254E+06     278.319E+03    -110.354E-03     218.340E-03    -107.986E-03     114.838E-03    -111.417E-03     218.726E-03    -107.739E-03     111.368E-03
             491     8.08074E-03     80.6935E-03    -49.1231E+06    -118.490E+06    -2.00243E+06     370.765E+03    -110.564E-03     218.509E-03    -107.946E-03     123.671E-03    -111.958E-03     219.314E-03    -107.713E-03     119.636E-03
             492     8.88964E-03     80.8341E-03    -44.4434E+06    -94.2679E+06     4.28972E+06     219.036E+03    -110.697E-03     218.608E-03    -107.911E-03     131.137E-03    -112.483E-03     219.889E-03    -107.688E-03     126.501E-03
             493     9.69724E-03     80.9817E-03    -39.9917E+06    -64.3872E+06     9.73020E+06     53.4392E+03    -110.674E-03     218.540E-03    -107.866E-03     137.687E-03    -112.931E-03     220.398E-03    -107.666E-03     132.427E-03
             494     10.5063E-03     81.1358E-03    -35.9047E+06    -21.3512E+06     18.6513E+06     319.017E+03    -110.484E-03     218.304E-03    -107.820E-03     143.414E-03    -113.305E-03     220.868E-03    -107.644E-03     137.550E-03
             495     11.3142E-03     81.2957E-03    -31.4380E+06     38.0288E+06     32.3787E+06     476.928E+03    -109.970E-03     217.741E-03    -107.771E-03     145.899E-03    -113.361E-03     221.061E-03    -107.618E-03     139.556E-03
             496     12.1230E-03     81.4546E-03    -26.9107E+06     90.1873E+06     45.4917E+06     217.987E+03    -109.058E-03     216.780E-03    -107.722E-03     142.035E-03    -112.828E-03     220.643E-03    -107.586E-03     135.475E-03
             497     12.9319E-03     81.6041E-03    -21.8280E+06     112.395E+06     63.9660E+06    -55.5618E+03    -108.151E-03     215.894E-03    -107.742E-03     130.218E-03    -111.943E-03     219.821E-03    -107.554E-03     123.763E-03
             498     13.7394E-03     81.7368E-03    -15.4627E+06     119.345E+06     83.2368E+06     621.338E+03    -107.009E-03     214.801E-03    -107.792E-03     106.633E-03    -110.318E-03     218.237E-03    -107.526E-03     100.666E-03
             499     14.5494E-03     81.8345E-03    -9.93023E+06     125.409E+06     95.1633E+06     713.928E+03    -106.114E-03     213.917E-03    -107.803E-03     88.1574E-03    -109.019E-03     216.956E-03    -107.495E-03     82.5734E-03
             500     15.3561E-03     81.9234E-03    -5.10450E+06     126.335E+06     96.0484E+06    -55.5796E+03    -105.993E-03     213.759E-03    -107.766E-03     50.9681E-03    -107.874E-03     215.792E-03    -107.462E-03     46.7066E-03
             501     808.037E-06     81.1318E-03    -99.1456E+06    -248.809E+06    -96.5184E+06    -255.160E+03    -107.812E-03     215.725E-03    -107.913E-03     16.1118E-03    -107.819E-03     214.777E-03    -107.891E-03     15.7992E-03
             502     1.61619E-03     81.1566E-03    -95.3449E+06    -242.323E+06    -87.0791E+06    -318.132E+03    -108.093E-03     215.967E-03    -107.874E-03     29.3307E-03    -108.131E-03     215.058E-03    -107.820E-03     28.7422E-03
             503     2.42406E-03     81.1971E-03    -90.3596E+06    -232.969E+06    -73.5727E+06    -333.374E+03    -108.341E-03     216.275E-03    -107.934E-03     43.1235E-03    -108.434E-03     215.434E-03    -107.833E-03     42.2300E-03
             504     3.23184E-03     81.2524E-03    -84.5706E+06    -222.762E+06    -59.2917E+06    -182.332E+03    -108.633E-03     216.618E-03    -107.986E-03     56.6454E-03    -108.802E-03     215.868E-03    -107.836E-03     55.4187E-03
             505     4.04021E-03     81.3231E-03    -78.2521E+06    -208.505E+06    -45.9433E+06    -150.856E+03    -108.959E-03     216.973E-03    -108.014E-03     69.7178E-03    -109.233E-03     216.362E-03    -107.828E-03     68.1228E-03
             506     4.84797E-03     81.4074E-03    -71.7443E+06    -192.728E+06    -33.5313E+06    -181.558E+03    -109.294E-03     217.320E-03    -108.027E-03     82.1214E-03    -109.704E-03     216.889E-03    -107.811E-03     80.1200E-03
             507     5.65624E-03     81.5054E-03    -65.0495E+06    -175.596E+06    -22.5593E+06     464.965E+03    -109.664E-03     217.687E-03    -108.023E-03     93.8997E-03    -110.247E-03     217.481E-03    -107.787E-03     91.4593E-03
             508     6.46457E-03     81.6155E-03    -59.2994E+06    -159.885E+06    -14.1136E+06     816.168E+03    -110.047E-03     218.057E-03    -108.009E-03     104.850E-03    -110.846E-03     218.118E-03    -107.762E-03     101.921E-03
             509     7.27246E-03     81.7371E-03    -54.3691E+06    -142.605E+06    -7.52748E+06     307.422E+03    -110.358E-03     218.344E-03    -107.986E-03     114.809E-03    -111.424E-03     218.733E-03    -107.738E-03     111.339E-03
             510     8.08123E-03     81.8690E-03    -48.8883E+06    -118.540E+06    -1.95674E+06    -223.667E+03    -110.574E-03     218.520E-03    -107.946E-03     123.616E-03    -111.966E-03     219.324E-03    -107.713E-03     119.572E-03
             511     8.88897E-03     82.0096E-03    -44.0074E+06    -94.7253E+06     4.14499E+06     167.640E+03    -110.689E-03     218.600E-03    -107.911E-03     131.101E-03    -112.470E-03     219.876E-03    -107.689E-03     126.467E-03
             512     9.69801E-03     82.1573E-03    -40.2311E+06    -64.1289E+06     9.85374E+06     484.699E+03    -110.725E-03     218.594E-03    -107.869E-03     137.677E-03    -112.984E-03     220.454E-03    -107.669E-03     132.420E-03
             513     10.5056E-03     82.3115E-03    -36.1507E+06    -21.3624E+06     18.6280E+06     148.460E+03    -110.532E-03     218.358E-03    -107.826E-03     143.476E-03    -113.357E-03     220.925E-03    -107.650E-03     137.604E-03
             514     11.3144E-03     82.4713E-03    -31.8530E+06     37.3945E+06     32.0328E+06     412.022E+03    -109.894E-03     217.669E-03    -107.775E-03     145.887E-03    -113.283E-03     220.985E-03    -107.623E-03     139.549E-03
             515     12.1231E-03     82.6297E-03    -27.3983E+06     90.6761E+06     45.1824E+06     706.689E+03    -109.116E-03     216.840E-03    -107.724E-03     141.977E-03    -112.890E-03     220.707E-03    -107.590E-03     135.416E-03
             516     12.9313E-03     82.7804E-03    -22.7471E+06     113.284E+06     64.4074E+06     205.605E+03    -108.148E-03     215.898E-03    -107.750E-03     130.412E-03    -111.947E-03     219.832E-03    -107.559E-03     123.962E-03
             517     13.7405E-03     82.9128E-03    -17.8059E+06     118.605E+06     82.8206E+06    -226.857E+03    -106.864E-03     214.658E-03    -107.795E-03     106.751E-03    -110.183E-03     218.095E-03    -107.527E-03     100.783E-03
             518     14.5488E-03     83.0084E-03     -10.985E+06     125.231E+06     94.5292E+06     113.035E+03    -106.050E-03     213.847E-03    -107.797E-03     88.1269E-03    -108.964E-03     216.893E-03    -107.490E-03     82.5266E-03
             519     15.3593E-03     83.1013E-03    -4.49126E+06     126.790E+06     96.7634E+06     327.094E+03    -106.035E-03     213.798E-03    -107.763E-03     50.9247E-03    -107.916E-03     215.832E-03    -107.457E-03     46.6662E-03
             520     808.047E-06     82.3071E-03    -98.4853E+06    -248.255E+06    -96.0627E+06    -141.831E+03    -107.822E-03     215.780E-03    -107.958E-03     16.1892E-03    -107.827E-03     214.833E-03    -107.936E-03     15.8779E-03
             521     1.61588E-03     82.3322E-03    -95.4102E+06    -242.107E+06    -86.7062E+06    -183.394E+03    -108.094E-03     215.990E-03    -107.897E-03     29.2952E-03    -108.133E-03     215.083E-03    -107.841E-03     28.7090E-03
             522     2.42396E-03     82.3725E-03    -90.5839E+06    -232.899E+06    -73.3554E+06    -163.796E+03    -108.337E-03     216.287E-03    -107.950E-03     43.0583E-03    -108.432E-03     215.446E-03    -107.848E-03     42.1669E-03
             523     3.23210E-03     82.4283E-03    -84.5707E+06    -222.741E+06    -59.2341E+06    -205.139E+03    -108.643E-03     216.640E-03    -107.997E-03     56.6138E-03    -108.812E-03     215.890E-03    -107.848E-03     55.3869E-03
             524     4.03976E-03     82.4985E-03    -78.2692E+06    -208.609E+06    -45.9475E+06    -53.9574E+03    -108.938E-03     216.961E-03    -108.023E-03     69.6824E-03    -109.212E-03     216.350E-03    -107.837E-03     68.0894E-03
             525     4.84816E-03     82.5832E-03    -72.0155E+06    -192.431E+06    -33.4093E+06    -126.455E+03    -109.264E-03     217.294E-03    -108.030E-03     82.1542E-03    -109.677E-03     216.865E-03    -107.814E-03     80.1536E-03
             526     5.65627E-03     82.6806E-03    -65.7786E+06    -176.575E+06    -23.0990E+06    -308.651E+03    -109.657E-03     217.679E-03    -108.023E-03     93.9104E-03    -110.241E-03     217.470E-03    -107.787E-03     91.4601E-03
             527     6.46440E-03     82.7912E-03    -58.9596E+06    -160.506E+06    -14.5087E+06     263.123E+03    -110.030E-03     218.037E-03    -108.006E-03     104.793E-03    -110.825E-03     218.094E-03    -107.761E-03     101.858E-03
             528     7.27290E-03     82.9126E-03    -52.5535E+06    -141.808E+06    -6.91366E+06     361.199E+03    -110.364E-03     218.347E-03    -107.983E-03     114.834E-03    -111.424E-03     218.737E-03    -107.736E-03     111.364E-03
             529     8.08066E-03     83.0446E-03    -48.3651E+06    -118.490E+06    -1.65729E+06     315.073E+03    -110.629E-03     218.576E-03    -107.947E-03     123.708E-03    -112.021E-03     219.380E-03    -107.713E-03     119.668E-03
             530     8.88953E-03     83.1850E-03    -44.8148E+06    -95.4161E+06     3.78073E+06     514.567E+03    -110.745E-03     218.661E-03    -107.916E-03     131.101E-03    -112.529E-03     219.937E-03    -107.694E-03     126.468E-03
             531     9.69719E-03     83.3329E-03    -40.4645E+06    -64.0797E+06     9.66944E+06     533.593E+03    -110.693E-03     218.567E-03    -107.874E-03     137.747E-03    -112.953E-03     220.428E-03    -107.674E-03     132.495E-03
             532     10.5061E-03     83.4875E-03    -36.6299E+06    -20.8089E+06     18.7618E+06     593.890E+03    -110.458E-03     218.286E-03    -107.828E-03     143.492E-03    -113.285E-03     220.854E-03    -107.651E-03     137.632E-03
             533     11.3143E-03     83.6465E-03    -32.7822E+06     36.8233E+06     31.6483E+06     757.338E+03    -109.957E-03     217.733E-03    -107.776E-03     145.888E-03    -113.351E-03     221.050E-03    -107.623E-03     139.548E-03
             534     12.1227E-03     83.8057E-03    -28.1653E+06     90.8940E+06     44.6014E+06      571.11E+03    -109.112E-03     216.836E-03    -107.724E-03     142.274E-03    -112.893E-03     220.710E-03    -107.592E-03     135.710E-03
             535     12.9315E-03     83.9561E-03    -22.7163E+06     113.411E+06     63.7073E+06     466.319E+03    -107.927E-03     215.667E-03    -107.741E-03     130.459E-03    -111.722E-03     219.600E-03    -107.554E-03     124.030E-03
             536     13.7404E-03     84.0873E-03    -16.7512E+06     118.774E+06     83.3680E+06     258.791E+03    -106.892E-03     214.675E-03    -107.784E-03     106.975E-03    -110.206E-03     218.110E-03    -107.515E-03     101.019E-03
             537     14.5489E-03     84.1858E-03    -11.7304E+06     125.423E+06     94.8072E+06    -420.187E+03    -106.232E-03     214.025E-03    -107.793E-03     88.0416E-03    -109.149E-03     217.071E-03    -107.484E-03     82.4306E-03
             538     15.3566E-03     84.2737E-03    -5.48283E+06     126.505E+06     96.2439E+06    -361.861E+03    -105.762E-03     213.518E-03    -107.755E-03     50.8600E-03    -107.643E-03     215.549E-03    -107.450E-03     46.5970E-03
             539     807.888E-06     83.4826E-03    -98.3748E+06    -248.189E+06    -95.9846E+06     99.5802E+03    -108.043E-03     215.904E-03    -107.860E-03     16.2397E-03    -108.048E-03     214.957E-03    -107.838E-03     15.9317E-03
             540     1.61600E-03     83.5077E-03    -95.3062E+06    -242.018E+06    -86.5854E+06     52.8330E+03    -108.099E-03     216.045E-03    -107.947E-03     29.3549E-03    -108.138E-03     215.138E-03    -107.891E-03     28.7719E-03
             541     2.42387E-03     83.5482E-03    -90.2708E+06    -232.754E+06    -73.2222E+06    -10.6682E+03    -108.318E-03     216.297E-03    -107.979E-03     43.1397E-03    -108.411E-03     215.456E-03    -107.877E-03     42.2499E-03
             542     3.23174E-03     83.6038E-03    -84.2488E+06    -222.364E+06    -58.8129E+06    -47.0596E+03    -108.591E-03     216.602E-03    -108.011E-03     56.6561E-03    -108.760E-03     215.853E-03    -107.861E-03     55.4322E-03
             543     4.04009E-03     83.6743E-03    -77.7776E+06    -208.900E+06    -44.4279E+06     64.4458E+03    -108.901E-03     216.932E-03    -108.031E-03     69.7009E-03    -109.174E-03     216.317E-03    -107.838E-03     68.1098E-03
             544     4.84807E-03     83.7583E-03    -71.3396E+06    -192.606E+06    -31.9307E+06     372.551E+03    -109.284E-03     217.320E-03    -108.035E-03     82.1393E-03    -109.695E-03     216.886E-03    -107.812E-03     80.1454E-03
             545     5.65624E-03     83.8566E-03    -65.5975E+06    -176.181E+06    -22.7438E+06     233.965E+03    -109.658E-03     217.682E-03    -108.024E-03     93.8727E-03    -110.243E-03     217.475E-03    -107.787E-03     91.4296E-03
             546     6.46445E-03     83.9664E-03    -60.5269E+06    -160.485E+06    -15.5299E+06    -647.119E+03    -109.984E-03     217.986E-03    -108.002E-03     104.837E-03    -110.785E-03     218.047E-03    -107.759E-03     101.893E-03
             547     7.27257E-03     84.0882E-03    -55.7046E+06    -142.742E+06    -8.60792E+06    -258.371E+03    -110.352E-03     218.327E-03    -107.976E-03     114.931E-03    -111.423E-03     218.719E-03    -107.731E-03     111.457E-03
             548     8.08134E-03     84.2201E-03    -50.2755E+06    -118.914E+06    -2.03247E+06     631.258E+03    -110.664E-03     218.610E-03    -107.946E-03     123.732E-03    -112.065E-03     219.416E-03    -107.711E-03     119.695E-03
             549     8.88889E-03     84.3609E-03    -45.0188E+06    -95.0684E+06     4.09169E+06     402.976E+03    -110.755E-03     218.673E-03    -107.917E-03     131.174E-03    -112.543E-03     219.952E-03    -107.694E-03     126.536E-03
             550     9.69771E-03     84.5084E-03    -40.9215E+06    -64.7809E+06     9.34905E+06     585.077E+03    -110.663E-03     218.536E-03    -107.873E-03     137.881E-03    -112.922E-03     220.393E-03    -107.673E-03     132.635E-03
             551     10.5058E-03     84.6629E-03    -36.7006E+06    -20.9507E+06     18.7969E+06     1.06687E+06    -110.421E-03     218.244E-03    -107.824E-03     143.570E-03    -113.247E-03     220.811E-03    -107.646E-03     137.722E-03
             552     11.3144E-03     84.8224E-03    -31.9114E+06     36.8068E+06     32.2791E+06     922.192E+03    -109.899E-03     217.667E-03    -107.769E-03     146.120E-03    -113.293E-03     220.985E-03    -107.615E-03     139.784E-03
             553     12.1230E-03     84.9813E-03    -27.0321E+06     91.0797E+06     45.5044E+06     821.358E+03    -109.001E-03     216.712E-03    -107.711E-03     142.482E-03    -112.773E-03     220.580E-03    -107.577E-03     135.939E-03
             554     12.9320E-03     85.1312E-03    -22.1756E+06     114.115E+06     64.3224E+06     359.875E+03    -107.983E-03     215.708E-03    -107.725E-03     130.502E-03    -111.777E-03     219.641E-03    -107.536E-03     124.071E-03
             555     13.7406E-03     85.2633E-03    -16.6114E+06     118.280E+06     82.7850E+06     186.258E+03    -106.783E-03     214.546E-03    -107.763E-03     107.149E-03    -110.096E-03     217.980E-03    -107.497E-03     101.198E-03
             556     14.5495E-03     85.3612E-03    -9.92774E+06     126.419E+06     95.7540E+06     339.637E+03    -106.048E-03     213.816E-03    -107.767E-03     88.7300E-03    -108.960E-03     216.863E-03    -107.458E-03     83.1507E-03
             557     15.3587E-03     85.4506E-03    -4.26900E+06     127.263E+06     97.1572E+06    -433.213E+03    -106.237E-03     213.974E-03    -107.737E-03     50.9527E-03    -108.119E-03     216.011E-03    -107.430E-03     46.6776E-03
             558     807.943E-06     84.6584E-03    -98.3189E+06    -248.240E+06    -95.9817E+06     182.062E+03    -108.110E-03     215.945E-03    -107.836E-03     16.3541E-03    -108.114E-03     214.999E-03    -107.813E-03     16.0458E-03
             559     1.61573E-03     84.6832E-03    -95.1141E+06    -242.049E+06    -86.6746E+06     98.6778E+03    -108.110E-03     216.074E-03    -107.965E-03     29.3704E-03    -108.148E-03     215.167E-03    -107.909E-03     28.7872E-03
             560     2.42387E-03     84.7238E-03    -90.2925E+06    -232.750E+06    -73.1863E+06     125.451E+03    -108.279E-03     216.267E-03    -107.988E-03     43.2531E-03    -108.373E-03     215.426E-03    -107.885E-03     42.3658E-03
             561     3.23199E-03     84.7794E-03    -84.2063E+06    -222.228E+06    -58.6285E+06     60.9569E+03    -108.564E-03     216.573E-03    -108.008E-03     56.6895E-03    -108.733E-03     215.824E-03    -107.857E-03     55.4669E-03
             562     4.03995E-03     84.8496E-03    -77.6924E+06    -209.231E+06    -44.5524E+06     109.500E+03    -108.908E-03     216.934E-03    -108.026E-03     69.6898E-03    -109.180E-03     216.317E-03    -107.832E-03     68.0993E-03
             563     4.84810E-03     84.9343E-03    -71.0159E+06    -193.526E+06    -32.0993E+06     382.113E+03    -109.274E-03     217.304E-03    -108.030E-03     82.1872E-03    -109.681E-03     216.866E-03    -107.807E-03     80.1953E-03
             564     5.65622E-03     85.0318E-03    -64.1158E+06    -175.343E+06    -21.6535E+06     464.731E+03    -109.631E-03     217.650E-03    -108.018E-03     93.9409E-03    -110.211E-03     217.442E-03    -107.779E-03     91.5031E-03
             565     6.46455E-03     85.1421E-03    -58.1441E+06    -159.941E+06    -13.2935E+06     721.463E+03    -110.042E-03     218.044E-03    -108.002E-03     104.812E-03    -110.835E-03     218.102E-03    -107.752E-03     101.882E-03
             566     7.27300E-03     85.2635E-03    -53.3049E+06    -143.696E+06    -7.17553E+06     745.010E+03    -110.410E-03     218.391E-03    -107.981E-03     114.868E-03    -111.470E-03     218.772E-03    -107.731E-03     111.403E-03
             567     8.08063E-03     85.3960E-03    -49.0515E+06    -119.055E+06    -1.63113E+06     543.836E+03    -110.606E-03     218.551E-03    -107.946E-03     123.764E-03    -111.999E-03     219.352E-03    -107.710E-03     119.732E-03
             568     8.88955E-03     85.5362E-03    -44.9571E+06    -94.7320E+06     4.56002E+06     611.685E+03    -110.690E-03     218.603E-03    -107.913E-03     131.210E-03    -112.478E-03     219.882E-03    -107.687E-03     126.580E-03
             569     9.69751E-03     85.6841E-03    -40.5581E+06    -65.3109E+06     9.74463E+06     630.083E+03    -110.641E-03     218.506E-03    -107.865E-03     137.863E-03    -112.898E-03     220.359E-03    -107.663E-03     132.616E-03
             570     10.5061E-03     85.8384E-03    -36.1072E+06    -21.7958E+06     18.8712E+06     802.942E+03    -110.392E-03     218.204E-03    -107.813E-03     143.690E-03    -113.213E-03     220.766E-03    -107.634E-03     137.842E-03
             571     11.3146E-03     85.9978E-03    -31.6445E+06     36.9095E+06     32.5617E+06     774.303E+03    -109.831E-03     217.586E-03    -107.755E-03     146.065E-03    -113.222E-03     220.901E-03    -107.600E-03     139.735E-03
             572     12.1236E-03     86.1566E-03    -26.8846E+06     91.2995E+06     45.7452E+06     611.655E+03    -109.013E-03     216.710E-03    -107.697E-03     142.160E-03    -112.784E-03     220.577E-03    -107.562E-03     135.609E-03
             573     12.9320E-03     86.3069E-03    -21.4408E+06     114.905E+06     65.2045E+06     648.123E+03    -107.995E-03     215.710E-03    -107.715E-03     130.275E-03    -111.788E-03     219.646E-03    -107.525E-03     123.841E-03
             574     13.7407E-03     86.4388E-03    -15.5533E+06     119.589E+06     84.0815E+06    -132.358E+03    -106.806E-03     214.564E-03    -107.758E-03     106.550E-03    -110.117E-03     218.000E-03    -107.488E-03     100.584E-03
             575     14.5502E-03     86.5352E-03    -9.66885E+06     126.256E+06     95.6814E+06    -769.390E+03    -106.200E-03     213.967E-03    -107.766E-03     87.5620E-03    -109.111E-03     217.014E-03    -107.457E-03     81.9338E-03
             576     15.3590E-03     86.6269E-03    -4.89104E+06     126.502E+06     96.5261E+06     347.644E+03    -106.428E-03     214.176E-03    -107.747E-03     49.8802E-03    -108.309E-03     216.208E-03    -107.441E-03     45.5991E-03
             577     807.974E-06     85.8341E-03    -98.7734E+06    -248.608E+06    -96.1416E+06     263.404E+03    -108.039E-03     215.883E-03    -107.843E-03     16.5153E-03    -108.046E-03     214.935E-03    -107.820E-03     16.2070E-03
             578     1.61597E-03     85.8589E-03    -95.1758E+06    -242.054E+06    -86.5289E+06     27.6648E+03    -108.129E-03     216.073E-03    -107.944E-03     29.3879E-03    -108.167E-03     215.165E-03    -107.888E-03     28.8044E-03
             579     2.42388E-03     85.8992E-03    -90.2620E+06    -232.789E+06    -73.1926E+06     100.314E+03    -108.283E-03     216.262E-03    -107.979E-03     43.1974E-03    -108.377E-03     215.421E-03    -107.876E-03     42.3103E-03
             580     3.23194E-03     85.9549E-03    -84.3436E+06    -222.476E+06    -58.8299E+06     164.386E+03    -108.541E-03     216.541E-03    -108.000E-03     56.6709E-03    -108.710E-03     215.792E-03    -107.849E-03     55.4500E-03
             581     4.04000E-03     86.0253E-03    -77.7796E+06    -209.548E+06    -44.4819E+06     177.784E+03    -108.886E-03     216.901E-03    -108.015E-03     69.7616E-03    -109.158E-03     216.282E-03    -107.821E-03     68.1734E-03
             582     4.84817E-03     86.1095E-03    -71.0486E+06    -193.516E+06    -31.5481E+06     66.3688E+03    -109.243E-03     217.262E-03    -108.019E-03     82.2184E-03    -109.651E-03     216.823E-03    -107.793E-03     80.2236E-03
             583     5.65650E-03     86.2075E-03    -65.0308E+06    -175.733E+06    -21.4361E+06     339.760E+03    -109.657E-03     217.665E-03    -108.009E-03     93.9020E-03    -110.240E-03     217.456E-03    -107.767E-03     91.4627E-03
             584     6.46459E-03     86.3174E-03    -59.4144E+06    -160.710E+06    -13.7496E+06     784.355E+03    -110.108E-03     218.106E-03    -107.998E-03     104.861E-03    -110.906E-03     218.163E-03    -107.748E-03     101.929E-03
             585     7.27234E-03     86.4395E-03    -53.9309E+06    -143.562E+06    -7.51267E+06     1.02204E+06    -110.419E-03     218.400E-03    -107.980E-03     114.896E-03    -111.483E-03     218.784E-03    -107.731E-03     111.433E-03
             586     8.08132E-03     86.5710E-03    -49.0064E+06    -119.101E+06    -1.74806E+06     1.08213E+06    -110.542E-03     218.485E-03    -107.943E-03     123.736E-03    -111.934E-03     219.286E-03    -107.708E-03     119.713E-03
             587     8.88919E-03     86.7121E-03    -44.3888E+06    -94.8034E+06     4.88199E+06     1.01523E+06    -110.633E-03     218.539E-03    -107.906E-03     131.252E-03    -112.418E-03     219.815E-03    -107.679E-03     126.632E-03
             588     9.69778E-03     86.8595E-03    -40.0919E+06    -64.9515E+06     10.2938E+06     602.079E+03    -110.630E-03     218.486E-03    -107.856E-03     137.811E-03    -112.887E-03     220.341E-03    -107.653E-03     132.562E-03
             589     10.5063E-03     87.0138E-03    -35.9224E+06    -22.3639E+06     18.8499E+06     518.216E+03    -110.398E-03     218.203E-03    -107.804E-03     143.495E-03    -113.218E-03     220.760E-03    -107.626E-03     137.640E-03
             590     11.3148E-03     87.1734E-03    -31.3016E+06     36.6762E+06     32.5555E+06     733.691E+03    -109.909E-03     217.660E-03    -107.751E-03     145.845E-03    -113.298E-03     220.973E-03    -107.596E-03     139.507E-03
             591     12.1230E-03     87.3320E-03    -26.4824E+06     91.8280E+06     46.3664E+06     596.152E+03    -109.042E-03     216.741E-03    -107.700E-03     142.007E-03    -112.816E-03     220.614E-03    -107.563E-03     135.447E-03
             592     12.9319E-03     87.4826E-03    -21.3295E+06     115.047E+06     65.3291E+06     134.321E+03    -107.954E-03     215.671E-03    -107.717E-03     130.145E-03    -111.745E-03     219.605E-03    -107.526E-03     123.709E-03
             593     13.7410E-03     87.6138E-03    -15.6726E+06     120.356E+06     84.5029E+06     138.294E+03    -107.055E-03     214.821E-03    -107.766E-03     106.625E-03    -110.370E-03     218.262E-03    -107.495E-03     100.651E-03
             594     14.5483E-03     87.7122E-03    -11.0131E+06     125.619E+06     95.4174E+06     786.045E+03    -106.467E-03     214.255E-03    -107.788E-03     88.3962E-03    -109.382E-03     217.300E-03    -107.477E-03     82.7954E-03
             595     15.3556E-03     87.8024E-03    -5.93240E+06     126.035E+06     95.7634E+06     463.312E+03    -106.043E-03     213.803E-03    -107.760E-03     51.0252E-03    -107.925E-03     215.834E-03    -107.456E-03     46.7683E-03
             596     807.995E-06     87.0094E-03    -98.5598E+06    -248.639E+06    -96.4044E+06     37.0248E+03    -107.988E-03     215.879E-03    -107.891E-03     16.4033E-03    -107.993E-03     214.931E-03    -107.869E-03     16.0905E-03
             597     1.61593E-03     87.0346E-03    -95.1064E+06    -242.036E+06    -86.4921E+06     137.083E+03    -108.079E-03     216.012E-03    -107.933E-03     29.3318E-03    -108.117E-03     215.104E-03    -107.877E-03     28.7507E-03
             598     2.42387E-03     87.0748E-03    -90.1906E+06    -232.941E+06    -73.2829E+06     153.776E+03    -108.279E-03     216.239E-03    -107.960E-03     43.1983E-03    -108.372E-03     215.397E-03    -107.858E-03     42.3120E-03
             599     3.23193E-03     87.1304E-03    -84.1765E+06    -222.590E+06    -58.8834E+06     73.3435E+03    -108.528E-03     216.511E-03    -107.983E-03     56.7488E-03    -108.696E-03     215.761E-03    -107.833E-03     55.5268E-03
             600     4.04020E-03     87.2006E-03    -77.7048E+06    -209.659E+06    -44.4388E+06     85.3743E+03    -108.873E-03     216.872E-03    -107.999E-03     69.7453E-03    -109.145E-03     216.253E-03    -107.805E-03     68.1559E-03
             601     4.84830E-03     87.2853E-03    -71.3715E+06    -193.720E+06    -31.2744E+06     524.575E+03    -109.287E-03     217.297E-03    -108.010E-03     82.1255E-03    -109.697E-03     216.857E-03    -107.782E-03     80.1355E-03
             602     5.65632E-03     87.3827E-03    -65.1590E+06    -176.224E+06    -21.5458E+06     737.870E+03    -109.695E-03     217.701E-03    -108.006E-03     93.8575E-03    -110.278E-03     217.491E-03    -107.764E-03     91.4213E-03
             603     6.46451E-03     87.4934E-03    -59.2724E+06    -161.463E+06    -13.9752E+06     813.811E+03    -110.060E-03     218.056E-03    -107.995E-03     104.876E-03    -110.857E-03     218.109E-03    -107.745E-03     101.947E-03
             604     7.27315E-03     87.6148E-03    -53.9689E+06    -143.717E+06    -6.98574E+06     1.05617E+06    -110.360E-03     218.335E-03    -107.975E-03     114.904E-03    -111.424E-03     218.717E-03    -107.723E-03     111.446E-03
             605     8.08067E-03     87.7468E-03    -48.9294E+06    -119.271E+06    -1.38390E+06     1.11749E+06    -110.564E-03     218.500E-03    -107.935E-03     123.773E-03    -111.958E-03     219.300E-03    -107.698E-03     119.747E-03
             606     8.88958E-03     87.8871E-03    -44.4922E+06    -95.1208E+06     4.62737E+06     1.25918E+06    -110.666E-03     218.565E-03    -107.899E-03     131.296E-03    -112.451E-03     219.840E-03    -107.673E-03     126.676E-03
             607     9.69788E-03     88.0354E-03    -40.5863E+06    -64.0578E+06     10.4908E+06     1.03717E+06    -110.678E-03     218.533E-03    -107.855E-03     137.702E-03    -112.939E-03     220.392E-03    -107.650E-03     132.458E-03
             608     10.5060E-03     88.1892E-03    -36.4888E+06    -21.9090E+06     19.0946E+06     206.101E+03    -110.443E-03     218.251E-03    -107.809E-03     143.302E-03    -113.268E-03     220.814E-03    -107.628E-03     137.435E-03
             609     11.3145E-03     88.3489E-03    -31.6953E+06     36.1344E+06     32.3102E+06     53.7686E+03    -109.872E-03     217.627E-03    -107.754E-03     145.977E-03    -113.261E-03     220.938E-03    -107.599E-03     139.634E-03
             610     12.1233E-03     88.5079E-03    -26.5981E+06     91.6392E+06     46.0621E+06     491.157E+03    -109.056E-03     216.757E-03    -107.701E-03     142.078E-03    -112.828E-03     220.626E-03    -107.565E-03     135.522E-03
             611     12.9321E-03     88.6574E-03    -21.8030E+06     115.501E+06     65.4689E+06     679.512E+03    -108.083E-03     215.806E-03    -107.723E-03     130.127E-03    -111.879E-03     219.745E-03    -107.532E-03     123.687E-03
             612     13.7402E-03     88.7902E-03    -17.2665E+06     119.617E+06     83.6742E+06     870.315E+03    -106.956E-03     214.728E-03    -107.772E-03     106.960E-03    -110.277E-03     218.169E-03    -107.502E-03     101.002E-03
             613     14.5498E-03     88.8878E-03    -10.7446E+06     125.507E+06     95.1099E+06     811.806E+03    -106.077E-03     213.855E-03    -107.779E-03     88.4022E-03    -108.987E-03     216.897E-03    -107.469E-03     82.8225E-03
             614     15.3607E-03     88.9777E-03    -4.69164E+06     127.147E+06     96.4637E+06     241.655E+03    -106.196E-03     213.942E-03    -107.746E-03     50.8321E-03    -108.074E-03     215.976E-03    -107.442E-03     46.5722E-03
             615     807.804E-06     88.1851E-03    -98.1067E+06    -248.295E+06    -96.0180E+06    -204.953E+03    -107.965E-03     215.878E-03    -107.914E-03     16.3991E-03    -107.968E-03     214.931E-03    -107.892E-03     16.0842E-03
             616     1.61590E-03     88.2099E-03    -95.1793E+06    -242.425E+06    -87.0381E+06     3.29101E+03    -108.025E-03     215.943E-03    -107.919E-03     29.4287E-03    -108.062E-03     215.035E-03    -107.864E-03     28.8454E-03
             617     2.42408E-03     88.2503E-03    -90.1766E+06    -233.034E+06    -73.3756E+06     37.5683E+03    -108.252E-03     216.188E-03    -107.936E-03     43.1663E-03    -108.344E-03     215.345E-03    -107.834E-03     42.2785E-03
             618     3.23217E-03     88.3058E-03    -84.2032E+06    -222.616E+06    -58.9046E+06     187.252E+03    -108.571E-03     216.537E-03    -107.967E-03     56.6509E-03    -108.738E-03     215.787E-03    -107.816E-03     55.4309E-03
             619     4.04007E-03     88.3762E-03    -78.0388E+06    -210.035E+06    -44.4692E+06     494.733E+03    -108.919E-03     216.916E-03    -107.997E-03     69.6579E-03    -109.191E-03     216.295E-03    -107.802E-03     68.0732E-03
             620     4.84822E-03     88.4606E-03    -71.4587E+06    -194.571E+06    -32.0006E+06     627.707E+03    -109.281E-03     217.290E-03    -108.009E-03     82.1197E-03    -109.689E-03     216.847E-03    -107.784E-03     80.1307E-03
             621     5.65639E-03     88.5586E-03    -65.0683E+06    -176.498E+06    -21.8084E+06     926.913E+03    -109.668E-03     217.671E-03    -108.004E-03     93.9331E-03    -110.250E-03     217.460E-03    -107.763E-03     91.4992E-03
             622     6.46462E-03     88.6686E-03    -59.2513E+06    -161.600E+06    -13.3689E+06     1.00505E+06    -110.021E-03     218.014E-03    -107.993E-03     104.886E-03    -110.818E-03     218.065E-03    -107.739E-03     101.960E-03
             623     7.27250E-03     88.7904E-03    -53.7820E+06    -144.415E+06    -6.91744E+06     1.18874E+06    -110.316E-03     218.282E-03    -107.966E-03     114.868E-03    -111.377E-03     218.660E-03    -107.713E-03     111.413E-03
             624     8.08165E-03     88.9221E-03    -49.1222E+06    -119.333E+06    -1.22869E+06     1.46955E+06    -110.619E-03     218.547E-03    -107.928E-03     123.707E-03    -112.014E-03     219.348E-03    -107.690E-03     119.684E-03
             625     8.88934E-03     89.0630E-03    -44.6714E+06    -95.2384E+06     4.87285E+06     1.26128E+06    -110.770E-03     218.671E-03    -107.901E-03     131.127E-03    -112.557E-03     219.947E-03    -107.673E-03     126.500E-03
             626     9.69758E-03     89.2106E-03    -40.2453E+06    -64.0304E+06     10.7718E+06     1.53414E+06    -110.646E-03     218.506E-03    -107.860E-03     137.723E-03    -112.904E-03     220.362E-03    -107.655E-03     132.489E-03
             627     10.5061E-03     89.3652E-03    -36.7029E+06    -20.3286E+06     19.9099E+06     1.28043E+06    -110.399E-03     218.210E-03    -107.811E-03     143.447E-03    -113.230E-03     220.781E-03    -107.629E-03     137.597E-03
             628     11.3146E-03     89.5240E-03    -33.5871E+06     37.1596E+06     32.2589E+06     22.4286E+03    -109.877E-03     217.631E-03    -107.754E-03     145.986E-03    -113.277E-03     220.951E-03    -107.598E-03     139.642E-03
             629     12.1234E-03     89.6834E-03    -29.0660E+06     90.4956E+06     44.7198E+06    -515.235E+03    -109.060E-03     216.759E-03    -107.699E-03     142.157E-03    -112.838E-03     220.626E-03    -107.564E-03     135.591E-03
             630     12.9315E-03     89.8335E-03    -23.1122E+06     114.197E+06     64.2913E+06     387.815E+03    -108.132E-03     215.854E-03    -107.722E-03     130.378E-03    -111.934E-03     219.794E-03    -107.533E-03     123.930E-03
             631     13.7407E-03     89.9654E-03    -16.0430E+06     120.004E+06     83.9269E+06     858.265E+03    -106.963E-03     214.737E-03    -107.773E-03     106.817E-03    -110.280E-03     218.178E-03    -107.504E-03     100.857E-03
             632     14.5491E-03     90.0629E-03    -9.97058E+06     125.730E+06     95.0115E+06     444.421E+03    -106.232E-03     214.016E-03    -107.784E-03     87.7138E-03    -109.134E-03     217.053E-03    -107.477E-03     82.1177E-03
             633     15.3557E-03     90.1531E-03    -5.03428E+06     127.305E+06     96.1674E+06     328.683E+03    -106.147E-03     213.903E-03    -107.756E-03     50.4264E-03    -108.023E-03     215.934E-03    -107.452E-03     46.1633E-03
             634     808.092E-06     89.3604E-03    -98.4067E+06    -248.466E+06    -95.8529E+06     243.585E+03    -108.036E-03     215.833E-03    -107.797E-03     16.2181E-03    -108.041E-03     214.885E-03    -107.773E-03     15.9125E-03
             635     1.61608E-03     89.3854E-03    -95.2220E+06    -242.417E+06    -86.8081E+06    -61.1336E+03    -108.052E-03     215.960E-03    -107.908E-03     29.3228E-03    -108.090E-03     215.051E-03    -107.853E-03     28.7379E-03
             636     2.42397E-03     89.4258E-03    -90.2459E+06    -233.284E+06    -73.7021E+06     144.428E+03    -108.278E-03     216.215E-03    -107.937E-03     43.0672E-03    -108.369E-03     215.372E-03    -107.837E-03     42.1801E-03
             637     3.23195E-03     89.4814E-03    -84.5190E+06    -223.070E+06    -59.3463E+06     407.992E+03    -108.569E-03     216.541E-03    -107.972E-03     56.6091E-03    -108.737E-03     215.789E-03    -107.823E-03     55.3918E-03
             638     4.04013E-03     89.5518E-03    -77.9674E+06    -210.381E+06    -44.7238E+06     539.640E+03    -108.892E-03     216.891E-03    -107.998E-03     69.6949E-03    -109.164E-03     216.268E-03    -107.804E-03     68.1112E-03
             639     4.84818E-03     89.6361E-03    -71.3258E+06    -194.903E+06    -32.2104E+06     523.757E+03    -109.251E-03     217.256E-03    -108.005E-03     82.2016E-03    -109.658E-03     216.812E-03    -107.780E-03     80.2112E-03
             640     5.65648E-03     89.7339E-03    -64.9272E+06    -177.600E+06    -22.2710E+06     935.559E+03    -109.638E-03     217.633E-03    -107.995E-03     93.9598E-03    -110.218E-03     217.416E-03    -107.755E-03     91.5273E-03
             641     6.46462E-03     89.8443E-03    -59.1801E+06    -162.068E+06    -13.4087E+06     1.56097E+06    -110.026E-03     218.010E-03    -107.984E-03     104.834E-03    -110.821E-03     218.058E-03    -107.730E-03     101.917E-03
             642     7.27329E-03     89.9656E-03    -54.1418E+06    -144.386E+06    -6.65014E+06     1.38922E+06    -110.407E-03     218.372E-03    -107.965E-03     114.787E-03    -111.471E-03     218.751E-03    -107.711E-03     111.330E-03
             643     8.08076E-03     90.0977E-03    -48.6499E+06    -119.539E+06    -913.511E+03     1.13080E+06    -110.662E-03     218.596E-03    -107.935E-03     123.666E-03    -112.054E-03     219.394E-03    -107.695E-03     119.636E-03
             644     8.88934E-03     90.2387E-03    -43.6310E+06    -95.6085E+06     5.46440E+06     1.49764E+06    -110.703E-03     218.609E-03    -107.906E-03     131.169E-03    -112.483E-03     219.879E-03    -107.677E-03     126.552E-03
             645     9.69773E-03     90.3860E-03    -39.4071E+06    -64.6969E+06     11.2450E+06     1.91038E+06    -110.605E-03     218.464E-03    -107.859E-03     137.790E-03    -112.858E-03     220.315E-03    -107.652E-03     132.564E-03
             646     10.5063E-03     90.5404E-03    -35.1817E+06    -20.1406E+06     20.6586E+06     2.44506E+06    -110.411E-03     218.219E-03    -107.808E-03     143.456E-03    -113.233E-03     220.785E-03    -107.625E-03     137.625E-03
             647     11.3147E-03     90.7000E-03    -30.7887E+06     40.6128E+06     34.7579E+06     1.67624E+06    -109.926E-03     217.682E-03    -107.756E-03     145.880E-03    -113.323E-03     221.012E-03    -107.596E-03     139.551E-03
             648     12.1230E-03     90.8586E-03    -26.2138E+06     90.5237E+06     48.5450E+06    -142.811E+03    -109.072E-03     216.786E-03    -107.714E-03     142.217E-03    -112.843E-03     220.645E-03    -107.564E-03     135.654E-03
             649     12.9324E-03     91.0091E-03    -21.2083E+06     111.883E+06     67.2177E+06     148.902E+03    -108.167E-03     215.905E-03    -107.738E-03     130.418E-03    -111.958E-03     219.823E-03    -107.533E-03     123.973E-03
             650     13.7404E-03     91.1414E-03    -16.3687E+06     120.478E+06     84.2247E+06     622.299E+03    -107.196E-03     214.978E-03    -107.783E-03     106.566E-03    -110.516E-03     218.424E-03    -107.512E-03     100.587E-03
             651     14.5489E-03     91.2386E-03    -10.8608E+06     125.900E+06     94.6968E+06     667.048E+03    -106.309E-03     214.110E-03    -107.800E-03     87.9732E-03    -109.224E-03     217.158E-03    -107.494E-03     82.3687E-03
             652     15.3591E-03     91.3297E-03    -4.81291E+06     127.902E+06     96.5075E+06     605.390E+03    -105.905E-03     213.673E-03    -107.768E-03     50.8023E-03    -107.788E-03     215.713E-03    -107.464E-03     46.5489E-03
             653     807.861E-06     90.5358E-03    -98.4591E+06    -248.818E+06    -96.2725E+06     213.409E+03    -108.039E-03     215.902E-03    -107.863E-03     15.8600E-03    -108.043E-03     214.952E-03    -107.840E-03     15.5529E-03
             654     1.61581E-03     90.5610E-03    -95.2578E+06    -242.395E+06    -86.6270E+06     335.851E+03    -108.034E-03     215.968E-03    -107.934E-03     29.3229E-03    -108.072E-03     215.059E-03    -107.878E-03     28.7431E-03
             655     2.42394E-03     90.6012E-03    -90.7189E+06    -233.634E+06    -73.7456E+06     237.910E+03    -108.264E-03     216.213E-03    -107.949E-03     43.1818E-03    -108.358E-03     215.369E-03    -107.847E-03     42.2964E-03
             656     3.23203E-03     90.6570E-03    -84.5157E+06    -223.309E+06    -59.5266E+06     366.666E+03    -108.534E-03     216.506E-03    -107.972E-03     56.6973E-03    -108.702E-03     215.754E-03    -107.824E-03     55.4796E-03
             657     4.04010E-03     90.7271E-03    -78.2931E+06    -210.972E+06    -45.2911E+06     569.742E+03    -108.853E-03     216.843E-03    -107.990E-03     69.7223E-03    -109.125E-03     216.219E-03    -107.797E-03     68.1394E-03
             658     4.84842E-03     90.8117E-03    -71.8999E+06    -194.832E+06    -31.9189E+06     659.942E+03    -109.259E-03     217.258E-03    -107.999E-03     82.1947E-03    -109.670E-03     216.814E-03    -107.771E-03     80.2078E-03
             659     5.65641E-03     90.9094E-03    -65.4973E+06    -178.412E+06    -21.7792E+06     657.527E+03    -109.661E-03     217.656E-03    -107.995E-03     93.8801E-03    -110.243E-03     217.436E-03    -107.750E-03     91.4428E-03
             660     6.46480E-03     91.0196E-03    -58.8644E+06    -163.170E+06    -13.5613E+06     1.11173E+06    -110.071E-03     218.057E-03    -107.985E-03     104.761E-03    -110.863E-03     218.099E-03    -107.731E-03     101.836E-03
             661     7.27251E-03     91.1414E-03    -52.3549E+06    -143.996E+06    -5.94797E+06     1.28236E+06    -110.452E-03     218.423E-03    -107.971E-03     114.826E-03    -111.509E-03     218.801E-03    -107.716E-03     111.365E-03
             662     8.08122E-03     91.2735E-03    -47.8054E+06    -120.120E+06    -511.760E+03     1.43765E+06    -110.623E-03     218.563E-03    -107.941E-03     123.734E-03    -112.011E-03     219.357E-03    -107.700E-03     119.711E-03
             663     8.88944E-03     91.4138E-03    -43.8006E+06    -96.1046E+06     5.52342E+06     1.66251E+06    -110.648E-03     218.555E-03    -107.907E-03     131.123E-03    -112.427E-03     219.821E-03    -107.676E-03     126.512E-03
             664     9.69790E-03     91.5618E-03    -39.1304E+06    -65.3702E+06     11.2307E+06     1.54940E+06    -110.617E-03     218.475E-03    -107.858E-03     137.649E-03    -112.868E-03     220.322E-03    -107.650E-03     132.416E-03
             665     10.5061E-03     91.7159E-03    -33.8772E+06    -21.0646E+06     20.8120E+06     1.54123E+06    -110.436E-03     218.244E-03    -107.808E-03     143.505E-03    -113.249E-03     220.802E-03    -107.624E-03     137.663E-03
             666     11.3146E-03     91.8756E-03    -28.4159E+06     41.1076E+06     35.7108E+06     1.89425E+06    -109.934E-03     217.691E-03    -107.756E-03     145.907E-03    -113.320E-03     221.018E-03    -107.596E-03     139.582E-03
             667     12.1236E-03     92.0342E-03    -24.8645E+06     92.3488E+06     49.8387E+06     2.47586E+06    -109.186E-03     216.905E-03    -107.719E-03     142.033E-03    -112.955E-03     220.769E-03    -107.568E-03     135.496E-03
             668     12.9313E-03     92.1847E-03    -22.0942E+06     112.134E+06     67.4760E+06     1.65399E+06    -108.211E-03     215.960E-03    -107.749E-03     130.429E-03    -112.008E-03     219.881E-03    -107.542E-03     124.000E-03
             669     13.7403E-03     92.3176E-03    -17.1160E+06     120.384E+06     84.6836E+06     1.26993E+06    -107.046E-03     214.837E-03    -107.791E-03     106.934E-03    -110.369E-03     218.281E-03    -107.517E-03     100.980E-03
             670     14.5485E-03     92.4145E-03    -11.6837E+06     126.440E+06     95.1602E+06     753.758E+03    -106.120E-03     213.918E-03    -107.798E-03     88.0176E-03    -109.040E-03     216.969E-03    -107.489E-03     82.4282E-03
             671     15.3565E-03     92.5036E-03    -5.42503E+06     127.991E+06     96.5115E+06    -92.2411E+03    -105.761E-03     213.517E-03    -107.756E-03     50.8137E-03    -107.647E-03     215.558E-03    -107.451E-03     46.5509E-03
             672     807.821E-06     91.7115E-03    -98.6783E+06    -249.169E+06    -96.6607E+06    -246.909E+03    -107.921E-03     215.843E-03    -107.923E-03     16.0324E-03    -107.925E-03     214.893E-03    -107.901E-03     15.7153E-03
             673     1.61604E-03     91.7362E-03    -95.4268E+06    -243.004E+06    -87.4028E+06     230.814E+03    -108.049E-03     215.959E-03    -107.910E-03     29.4780E-03    -108.086E-03     215.048E-03    -107.856E-03     28.8980E-03
             674     2.42400E-03     91.7769E-03    -90.4080E+06    -233.511E+06    -73.6085E+06     396.410E+03    -108.254E-03     216.190E-03    -107.936E-03     43.2158E-03    -108.347E-03     215.346E-03    -107.834E-03     42.3337E-03
             675     3.23205E-03     91.8323E-03    -84.9611E+06    -223.838E+06    -59.9620E+06     576.363E+03    -108.532E-03     216.492E-03    -107.960E-03     56.6442E-03    -108.701E-03     215.739E-03    -107.812E-03     55.4291E-03
             676     4.04025E-03     91.9027E-03    -78.5143E+06    -211.507E+06    -45.7727E+06     730.798E+03    -108.905E-03     216.889E-03    -107.984E-03     69.6711E-03    -109.176E-03     216.263E-03    -107.793E-03     68.0893E-03
             677     4.84820E-03     91.9871E-03    -72.1222E+06    -195.186E+06    -32.2350E+06     1.06099E+06    -109.275E-03     217.276E-03    -108.001E-03     82.0938E-03    -109.685E-03     216.830E-03    -107.774E-03     80.1114E-03
             678     5.65653E-03     92.0851E-03    -66.1812E+06    -178.397E+06    -21.8056E+06     1.01369E+06    -109.670E-03     217.671E-03    -108.001E-03     93.8309E-03    -110.255E-03     217.451E-03    -107.755E-03     91.3988E-03
             679     6.46446E-03     92.1951E-03    -60.6098E+06    -162.824E+06    -14.3028E+06     114.087E+03    -110.078E-03     218.067E-03    -107.990E-03     104.866E-03    -110.878E-03     218.116E-03    -107.737E-03     101.928E-03
             680     7.27306E-03     92.3172E-03    -55.4085E+06    -145.098E+06    -7.60024E+06     413.125E+03    -110.385E-03     218.357E-03    -107.972E-03     114.928E-03    -111.453E-03     218.735E-03    -107.719E-03     111.461E-03
             681     8.08098E-03     92.4487E-03    -49.6962E+06    -121.208E+06    -1.08980E+06     1.26276E+06    -110.603E-03     218.543E-03    -107.941E-03     123.654E-03    -111.997E-03     219.334E-03    -107.698E-03     119.630E-03
             682     8.88933E-03     92.5897E-03    -44.2857E+06    -95.8720E+06     5.44026E+06     1.20308E+06    -110.676E-03     218.583E-03    -107.907E-03     131.095E-03    -112.459E-03     219.852E-03    -107.676E-03     126.474E-03
             683     9.69754E-03     92.7369E-03    -39.7668E+06    -65.5006E+06     11.0115E+06     890.152E+03    -110.628E-03     218.487E-03    -107.860E-03     137.757E-03    -112.882E-03     220.336E-03    -107.652E-03     132.515E-03
             684     10.5063E-03     92.8916E-03    -35.7606E+06    -21.1658E+06     19.9395E+06     662.451E+03    -110.449E-03     218.258E-03    -107.809E-03     143.517E-03    -113.273E-03     220.822E-03    -107.627E-03     137.659E-03
             685     11.3148E-03     93.0511E-03    -32.3861E+06     37.8449E+06     33.0514E+06     1.79864E+06    -109.987E-03     217.746E-03    -107.759E-03     145.838E-03    -113.382E-03     221.065E-03    -107.602E-03     139.510E-03
             686     12.1228E-03     93.2101E-03    -28.1269E+06     91.9385E+06     45.4792E+06     3.63875E+06    -109.181E-03     216.891E-03    -107.710E-03     142.129E-03    -112.961E-03     220.766E-03    -107.575E-03     135.606E-03
             687     12.9319E-03     93.3607E-03    -22.7156E+06     115.215E+06     64.7658E+06     3.09613E+06    -108.079E-03     215.813E-03    -107.735E-03     130.627E-03    -111.883E-03     219.759E-03    -107.545E-03     124.220E-03
             688     13.7405E-03     93.4926E-03    -17.3423E+06     119.879E+06     84.0518E+06     1.52446E+06    -106.733E-03     214.511E-03    -107.778E-03     107.046E-03    -110.051E-03     217.949E-03    -107.506E-03     101.120E-03
             689     14.5498E-03     93.5905E-03    -10.6312E+06     128.014E+06     96.6686E+06     677.761E+03    -105.975E-03     213.753E-03    -107.778E-03     88.2254E-03    -108.889E-03     216.803E-03    -107.464E-03     82.6534E-03
             690     15.3593E-03     93.6792E-03    -4.86147E+06     129.369E+06     97.9833E+06    -244.958E+03    -106.286E-03     214.032E-03    -107.746E-03     50.6694E-03    -108.174E-03     216.078E-03    -107.437E-03     46.3950E-03
             691     808.301E-06     92.8869E-03    -98.9272E+06    -249.303E+06    -96.5802E+06     19.6912E+03    -107.955E-03     215.716E-03    -107.761E-03     16.0865E-03    -107.960E-03     214.765E-03    -107.739E-03     15.7736E-03
             692     1.61597E-03     92.9118E-03    -95.7648E+06    -243.293E+06    -87.5111E+06     215.214E+03    -108.100E-03     215.971E-03    -107.870E-03     29.3452E-03    -108.138E-03     215.059E-03    -107.816E-03     28.7660E-03
             693     2.42401E-03     92.9522E-03    -91.1201E+06    -234.337E+06    -74.4190E+06     555.118E+03    -108.248E-03     216.168E-03    -107.919E-03     43.1744E-03    -108.342E-03     215.321E-03    -107.819E-03     42.2943E-03
             694     3.23212E-03     93.0078E-03    -85.1558E+06    -223.996E+06    -60.0201E+06     627.246E+03    -108.581E-03     216.535E-03    -107.954E-03     56.6772E-03    -108.750E-03     215.781E-03    -107.806E-03     55.4619E-03
             695     4.04007E-03     93.0782E-03    -78.7340E+06    -211.826E+06    -45.8848E+06     681.832E+03    -108.952E-03     216.941E-03    -107.989E-03     69.6806E-03    -109.223E-03     216.315E-03    -107.798E-03     68.0972E-03
             696     4.84824E-03     93.1628E-03    -71.9741E+06    -196.038E+06    -33.1542E+06     1.12226E+06    -109.294E-03     217.302E-03    -108.007E-03     82.0861E-03    -109.701E-03     216.853E-03    -107.784E-03     80.1033E-03
             697     5.65632E-03     93.2602E-03    -64.9487E+06    -177.765E+06    -21.7655E+06     885.303E+03    -109.669E-03     217.676E-03    -108.007E-03     93.8791E-03    -110.249E-03     217.457E-03    -107.764E-03     91.4462E-03
             698     6.46471E-03     93.3710E-03    -58.7377E+06    -162.720E+06    -12.7083E+06     885.938E+03    -110.056E-03     218.057E-03    -108.000E-03     104.810E-03    -110.849E-03     218.101E-03    -107.743E-03     101.882E-03
             699     7.27265E-03     93.4921E-03    -53.5248E+06    -145.977E+06    -6.54475E+06     1.16592E+06    -110.387E-03     218.366E-03    -107.979E-03     114.799E-03    -111.446E-03     218.735E-03    -107.722E-03     111.341E-03
             700     8.08115E-03     93.6248E-03    -49.1026E+06    -121.360E+06    -1.20470E+06     853.027E+03    -110.571E-03     218.512E-03    -107.941E-03     123.635E-03    -111.961E-03     219.301E-03    -107.700E-03     119.608E-03
             701     8.88941E-03     93.7647E-03    -44.7996E+06    -96.2765E+06     4.97229E+06     1.04584E+06    -110.663E-03     218.568E-03    -107.905E-03     131.115E-03    -112.447E-03     219.837E-03    -107.676E-03     126.493E-03
             702     9.69802E-03     93.9129E-03    -40.8537E+06    -64.9821E+06     10.6914E+06     1.15307E+06    -110.710E-03     218.572E-03    -107.861E-03     137.731E-03    -112.971E-03     220.426E-03    -107.654E-03     132.485E-03
             703     10.5060E-03     94.0669E-03    -37.6092E+06    -22.1640E+06     18.9467E+06     1.65224E+06    -110.540E-03     218.359E-03    -107.818E-03     143.370E-03    -113.371E-03     220.922E-03    -107.637E-03     137.516E-03
             704     11.3143E-03     94.2269E-03    -33.7596E+06     35.6178E+06     31.6566E+06     2.74764E+06    -109.975E-03     217.746E-03    -107.770E-03     145.796E-03    -113.373E-03     221.058E-03    -107.615E-03     139.481E-03
             705     12.1232E-03     94.3857E-03    -28.5253E+06     91.4350E+06     45.0340E+06     2.44098E+06    -109.081E-03     216.799E-03    -107.719E-03     142.055E-03    -112.863E-03     220.675E-03    -107.585E-03     135.516E-03
             706     12.9317E-03     94.5360E-03    -21.9907E+06     115.812E+06     64.2277E+06     2.06067E+06    -107.979E-03     215.713E-03    -107.734E-03     130.215E-03    -111.779E-03     219.659E-03    -107.549E-03     123.792E-03
             707     13.7406E-03     94.6684E-03    -15.1058E+06     121.843E+06     84.6739E+06     1.60180E+06    -106.713E-03     214.490E-03    -107.777E-03     106.205E-03    -110.021E-03     217.931E-03    -107.508E-03     100.266E-03
             708     14.5496E-03     94.7645E-03    -9.39891E+06     129.270E+06     97.4727E+06     109.122E+03    -106.109E-03     213.895E-03    -107.785E-03     87.2950E-03    -109.021E-03     216.949E-03    -107.472E-03     81.6878E-03
             709     15.3578E-03     94.8559E-03    -5.02702E+06     129.322E+06     97.6241E+06     296.929E+03    -106.440E-03     214.201E-03    -107.761E-03     50.3461E-03    -108.328E-03     216.247E-03    -107.453E-03     46.0698E-03
             710     807.882E-06     94.0624E-03    -99.5093E+06    -249.854E+06    -96.9399E+06     519.393E+03    -108.020E-03     215.757E-03    -107.736E-03     16.1830E-03    -108.027E-03     214.805E-03    -107.714E-03     15.8782E-03
             711     1.61600E-03     94.0873E-03    -96.5691E+06    -243.786E+06    -87.7128E+06     580.963E+03    -108.053E-03     215.933E-03    -107.880E-03     29.2919E-03    -108.094E-03     215.020E-03    -107.825E-03     28.7162E-03
             712     2.42409E-03     94.1275E-03    -91.6022E+06    -234.706E+06    -74.6899E+06     459.278E+03    -108.281E-03     216.202E-03    -107.920E-03     43.1222E-03    -108.376E-03     215.355E-03    -107.821E-03     42.2401E-03
             713     3.23211E-03     94.1834E-03    -85.6009E+06    -224.518E+06    -60.5763E+06     520.781E+03    -108.588E-03     216.548E-03    -107.960E-03     56.6806E-03    -108.757E-03     215.792E-03    -107.813E-03     55.4657E-03
             714     4.04011E-03     94.2539E-03    -79.0845E+06    -211.922E+06    -45.7190E+06     723.296E+03    -108.935E-03     216.930E-03    -107.996E-03     69.6959E-03    -109.208E-03     216.303E-03    -107.802E-03     68.1146E-03
             715     4.84822E-03     94.3380E-03    -72.1961E+06    -196.121E+06    -32.9960E+06     352.506E+03    -109.312E-03     217.324E-03    -108.012E-03     82.1258E-03    -109.721E-03     216.876E-03    -107.788E-03     80.1315E-03
             716     5.65635E-03     94.4362E-03    -65.9672E+06    -178.105E+06    -22.6297E+06     631.186E+03    -109.687E-03     217.698E-03    -108.011E-03     93.8957E-03    -110.271E-03     217.481E-03    -107.770E-03     91.4572E-03
             717     6.46445E-03     94.5460E-03    -60.3901E+06    -163.373E+06    -13.7612E+06     1.05325E+06    -110.059E-03     218.065E-03    -108.006E-03     104.842E-03    -110.858E-03     218.110E-03    -107.750E-03     101.917E-03
             718     7.27281E-03     94.6684E-03    -54.8180E+06    -146.324E+06    -7.76739E+06     922.938E+03    -110.371E-03     218.352E-03    -107.981E-03     114.833E-03    -111.433E-03     218.723E-03    -107.728E-03     111.372E-03
             719     8.08094E-03     94.7995E-03    -49.5438E+06    -121.285E+06    -2.05147E+06     1.17251E+06    -110.589E-03     218.533E-03    -107.943E-03     123.568E-03    -111.981E-03     219.323E-03    -107.706E-03     119.543E-03
             720     8.88947E-03     94.9407E-03    -45.1427E+06    -96.9308E+06     4.39122E+06     1.35981E+06    -110.762E-03     218.677E-03    -107.915E-03     130.916E-03    -112.546E-03     219.944E-03    -107.687E-03     126.292E-03
             721     9.69740E-03     95.0880E-03    -41.1827E+06    -65.6300E+06     9.97894E+06     1.98988E+06    -110.784E-03     218.663E-03    -107.878E-03     137.510E-03    -113.045E-03     220.516E-03    -107.674E-03     132.268E-03
             722     10.5059E-03     95.2432E-03    -36.9995E+06    -23.0853E+06     18.8057E+06     2.52921E+06    -110.517E-03     218.356E-03    -107.839E-03     143.194E-03    -113.343E-03     220.914E-03    -107.658E-03     137.351E-03
             723     11.3143E-03     95.4020E-03    -32.0451E+06     35.2404E+06     32.0380E+06     2.59103E+06    -109.934E-03     217.721E-03    -107.788E-03     145.712E-03    -113.324E-03     221.030E-03    -107.632E-03     139.392E-03
             724     12.1227E-03     95.5614E-03    -27.1408E+06     92.0201E+06     45.9677E+06     2.39735E+06    -109.076E-03     216.811E-03    -107.735E-03     141.988E-03    -112.854E-03     220.686E-03    -107.599E-03     135.445E-03
             725     12.9313E-03     95.7116E-03    -22.3802E+06     116.705E+06     65.0556E+06     895.195E+03    -107.954E-03     215.705E-03    -107.750E-03     130.099E-03    -111.753E-03     219.649E-03    -107.562E-03     123.669E-03
             726     13.7402E-03     95.8434E-03    -16.1976E+06     122.162E+06     83.9717E+06     19.5853E+03    -106.853E-03     214.643E-03    -107.790E-03     106.453E-03    -110.168E-03     218.090E-03    -107.524E-03     100.491E-03
             727     14.5485E-03     95.9407E-03    -9.97833E+06     128.734E+06     96.4052E+06     1.52043E+06    -106.283E-03     214.087E-03    -107.804E-03     88.2974E-03    -109.197E-03     217.142E-03    -107.494E-03     82.7183E-03
             728     15.3568E-03     96.0319E-03    -4.86131E+06     129.953E+06     97.7650E+06     1.49050E+06    -106.056E-03     213.830E-03    -107.774E-03     51.2493E-03    -107.942E-03     215.876E-03    -107.466E-03     47.0119E-03
             729     807.975E-06     95.2376E-03    -100.291E+06    -250.782E+06    -98.0405E+06      472.69E+03    -107.955E-03     215.785E-03    -107.830E-03     16.2566E-03    -107.963E-03     214.831E-03    -107.811E-03     15.9524E-03
             730     1.61607E-03     95.2627E-03    -96.7397E+06    -244.194E+06    -88.3146E+06     368.498E+03    -108.067E-03     215.960E-03    -107.893E-03     29.3403E-03    -108.107E-03     215.046E-03    -107.840E-03     28.7616E-03
             731     2.42394E-03     95.3031E-03    -91.7773E+06    -234.896E+06    -74.8539E+06     500.610E+03    -108.312E-03     216.249E-03    -107.937E-03     43.1343E-03    -108.408E-03     215.402E-03    -107.838E-03     42.2531E-03
             732     3.23189E-03     95.3589E-03    -85.8343E+06    -224.646E+06    -60.5902E+06     530.547E+03    -108.573E-03     216.549E-03    -107.976E-03     56.6756E-03    -108.743E-03     215.793E-03    -107.829E-03     55.4605E-03
             733     4.04017E-03     95.4291E-03    -79.2511E+06    -212.187E+06    -46.2523E+06     450.980E+03    -108.908E-03     216.910E-03    -108.002E-03     69.6850E-03    -109.181E-03     216.283E-03    -107.811E-03     68.1002E-03
             734     4.84816E-03     95.5140E-03    -72.9454E+06    -196.161E+06    -33.1244E+06     610.226E+03    -109.311E-03     217.329E-03    -108.018E-03     82.0986E-03    -109.723E-03     216.881E-03    -107.793E-03     80.1072E-03
             735     5.65635E-03     95.6112E-03    -66.7183E+06    -179.012E+06    -23.2795E+06     656.828E+03    -109.712E-03     217.729E-03    -108.017E-03     93.8515E-03    -110.298E-03     217.510E-03    -107.777E-03     91.4119E-03
             736     6.46453E-03     95.7222E-03    -60.2789E+06    -163.838E+06    -14.8040E+06     879.758E+03    -110.065E-03     218.074E-03    -108.009E-03     104.779E-03    -110.861E-03     218.117E-03    -107.758E-03     101.852E-03
             737     7.27271E-03     95.8431E-03    -54.8221E+06    -146.105E+06    -7.80431E+06     925.270E+03    -110.410E-03     218.400E-03    -107.991E-03     114.718E-03    -111.472E-03     218.773E-03    -107.739E-03     111.255E-03
             738     8.08108E-03     95.9758E-03    -50.0218E+06    -122.040E+06    -2.65400E+06     992.894E+03    -110.726E-03     218.686E-03    -107.961E-03     123.449E-03    -112.119E-03     219.476E-03    -107.724E-03     119.412E-03
             739     8.88891E-03     96.1158E-03    -45.3419E+06    -97.6176E+06     3.52937E+06     1.59287E+06    -110.860E-03     218.801E-03    -107.940E-03     130.883E-03    -112.645E-03     220.067E-03    -107.715E-03     126.253E-03
             740     9.69732E-03     96.2644E-03    -40.7650E+06    -66.9171E+06     9.42591E+06     2.06783E+06    -110.748E-03     218.653E-03    -107.905E-03     137.545E-03    -113.005E-03     220.501E-03    -107.702E-03     132.305E-03
             741     10.5054E-03     96.4181E-03    -36.1376E+06    -23.3811E+06     18.7984E+06     2.33921E+06    -110.458E-03     218.318E-03    -107.860E-03     143.238E-03    -113.278E-03     220.872E-03    -107.680E-03     137.398E-03
             742     11.3140E-03     96.5780E-03     -31.739E+06     35.3084E+06     32.0093E+06     2.40393E+06    -109.925E-03     217.730E-03    -107.805E-03     145.749E-03    -113.314E-03     221.039E-03    -107.650E-03     139.427E-03
             743     12.1227E-03     96.7368E-03    -26.7238E+06     91.8982E+06     45.6145E+06     2.09385E+06    -109.019E-03     216.766E-03    -107.747E-03     142.043E-03    -112.794E-03     220.639E-03    -107.613E-03     135.505E-03
             744     12.9315E-03     96.8873E-03    -21.4965E+06     118.626E+06     66.5061E+06     1.89733E+06    -107.897E-03     215.660E-03    -107.762E-03     130.073E-03    -111.693E-03     219.607E-03    -107.571E-03     123.666E-03
             745     13.7403E-03     97.0187E-03    -17.7376E+06     122.908E+06     84.5075E+06     989.239E+03    -106.776E-03     214.574E-03    -107.798E-03     106.767E-03    -110.103E-03     218.029E-03    -107.528E-03     100.822E-03
             746     14.5493E-03     97.1168E-03    -12.5601E+06     127.144E+06     94.4560E+06     274.565E+03    -106.192E-03     213.992E-03    -107.799E-03     88.4523E-03    -109.120E-03     217.052E-03    -107.493E-03     82.8484E-03
             747     15.3589E-03     97.2066E-03    -5.12974E+06     130.350E+06     97.6366E+06     916.038E+03    -106.179E-03     213.953E-03    -107.774E-03     50.5718E-03    -108.068E-03     216.003E-03    -107.467E-03     46.3092E-03
             748     808.085E-06     96.4132E-03    -100.410E+06    -250.808E+06    -98.1138E+06     123.826E+03    -107.943E-03     215.824E-03    -107.881E-03     16.2652E-03    -107.952E-03     214.871E-03    -107.863E-03     15.9561E-03
             749     1.61586E-03     96.4382E-03    -97.1753E+06    -244.763E+06    -89.0164E+06     223.700E+03    -108.108E-03     216.022E-03    -107.915E-03     29.3622E-03    -108.149E-03     215.108E-03    -107.864E-03     28.7812E-03
             750     2.42395E-03     96.4787E-03    -92.3464E+06    -235.426E+06    -75.4100E+06     430.950E+03    -108.299E-03     216.257E-03    -107.958E-03     43.1406E-03    -108.395E-03     215.409E-03    -107.860E-03     42.2579E-03
             751     3.23210E-03     96.5343E-03    -86.2828E+06    -224.770E+06    -60.6798E+06     519.240E+03    -108.582E-03     216.575E-03    -107.993E-03     56.6472E-03    -108.755E-03     215.819E-03    -107.845E-03     55.4316E-03
             752     4.03989E-03     96.6049E-03    -80.1798E+06    -212.474E+06    -46.7484E+06     577.465E+03    -108.923E-03     216.941E-03    -108.018E-03     69.6715E-03    -109.200E-03     216.314E-03    -107.827E-03     68.0872E-03
             753     4.84824E-03     96.6891E-03    -73.4318E+06    -196.549E+06    -33.8588E+06     598.666E+03    -109.320E-03     217.351E-03    -108.031E-03     82.0761E-03    -109.733E-03     216.904E-03    -107.809E-03     80.0853E-03
             754     5.65618E-03     96.7874E-03    -66.5925E+06    -178.871E+06    -23.4144E+06     483.014E+03    -109.732E-03     217.764E-03    -108.032E-03     93.7546E-03    -110.317E-03     217.545E-03    -107.793E-03     91.3117E-03
             755     6.46438E-03     96.8970E-03    -60.7817E+06    -164.418E+06    -15.6271E+06     410.161E+03    -110.126E-03     218.152E-03    -108.027E-03     104.622E-03    -110.923E-03     218.195E-03    -107.778E-03     101.683E-03
             756     7.27257E-03     97.0194E-03    -55.1588E+06    -146.642E+06    -8.79407E+06     801.928E+03    -110.510E-03     218.525E-03    -108.015E-03     114.626E-03    -111.573E-03     218.896E-03    -107.766E-03     111.157E-03
             757     8.08046E-03     97.1509E-03    -49.9865E+06    -122.207E+06    -3.07074E+06     910.924E+03    -110.756E-03     218.746E-03    -107.991E-03     123.440E-03    -112.148E-03     219.536E-03    -107.756E-03     119.400E-03
             758     8.88883E-03     97.2923E-03    -45.0458E+06    -98.6206E+06     2.91598E+06     1.11848E+06    -110.789E-03     218.753E-03    -107.965E-03     130.966E-03    -112.570E-03     220.017E-03    -107.742E-03     126.331E-03
             759     9.69688E-03     97.4393E-03    -40.3245E+06    -67.8075E+06     8.88195E+06     1.62232E+06    -110.674E-03     218.595E-03    -107.921E-03     137.651E-03    -112.926E-03     220.437E-03    -107.720E-03     132.412E-03
             760     10.5056E-03     97.5943E-03    -36.0138E+06    -24.2816E+06     18.1246E+06     2.09264E+06    -110.467E-03     218.337E-03    -107.870E-03     143.418E-03    -113.285E-03     220.888E-03    -107.692E-03     137.576E-03
             761     11.3139E-03     97.7534E-03    -31.5397E+06     34.9514E+06     31.7160E+06     2.47802E+06    -109.963E-03     217.779E-03    -107.816E-03     145.814E-03    -113.352E-03     221.088E-03    -107.662E-03     139.490E-03
             762     12.1225E-03     97.9125E-03    -27.4460E+06     92.4566E+06     45.5854E+06     2.30584E+06    -108.961E-03     216.719E-03    -107.758E-03     141.834E-03    -112.737E-03     220.594E-03    -107.625E-03     135.302E-03
             763     12.9312E-03     98.0624E-03    -23.0323E+06     118.216E+06     65.2736E+06     2.25317E+06    -107.831E-03     215.597E-03    -107.767E-03     130.029E-03    -111.631E-03     219.546E-03    -107.578E-03     123.629E-03
             764     13.7401E-03     98.1943E-03    -16.6540E+06     124.719E+06     85.6938E+06     2.57308E+06    -106.830E-03     214.637E-03    -107.807E-03     106.586E-03    -110.154E-03     218.096E-03    -107.535E-03     100.657E-03
             765     14.5490E-03     98.2917E-03    -11.3021E+06     129.924E+06     96.8120E+06     947.762E+03    -106.218E-03     214.033E-03    -107.815E-03     88.2687E-03    -109.143E-03     217.098E-03    -107.502E-03     82.6809E-03
             766     15.3559E-03     98.3837E-03    -6.15048E+06     129.798E+06     96.8305E+06    -269.539E+03    -105.984E-03     213.761E-03    -107.777E-03     50.7499E-03    -107.876E-03     215.810E-03    -107.472E-03     46.4829E-03
             767     807.822E-06     97.5887E-03    -100.925E+06    -251.350E+06    -98.7083E+06     230.261E+03    -108.109E-03     215.961E-03    -107.853E-03     16.2794E-03    -108.118E-03     215.007E-03    -107.836E-03     15.9695E-03
             768     1.61596E-03     97.6138E-03    -97.9445E+06    -245.155E+06    -89.2787E+06     324.735E+03    -108.094E-03     216.063E-03    -107.969E-03     29.2994E-03    -108.138E-03     215.148E-03    -107.918E-03     28.7196E-03
             769     2.42386E-03     97.6542E-03    -92.7740E+06    -235.791E+06    -75.9802E+06     419.977E+03    -108.303E-03     216.293E-03    -107.990E-03     43.0773E-03    -108.400E-03     215.444E-03    -107.893E-03     42.1941E-03
             770     3.23173E-03     97.7099E-03    -86.8979E+06    -225.464E+06    -61.6407E+06     659.718E+03    -108.589E-03     216.605E-03    -108.016E-03     56.5857E-03    -108.762E-03     215.849E-03    -107.872E-03     55.3709E-03
             771     4.04011E-03     97.7803E-03    -80.1077E+06    -212.148E+06    -46.8222E+06     419.416E+03    -108.956E-03     216.998E-03    -108.042E-03     69.6329E-03    -109.233E-03     216.373E-03    -107.852E-03     68.0453E-03
             772     4.84785E-03     97.8650E-03    -73.3631E+06    -196.479E+06    -34.1701E+06     217.272E+03    -109.355E-03     217.412E-03    -108.057E-03     82.0555E-03    -109.768E-03     216.965E-03    -107.836E-03     80.0571E-03
             773     5.65617E-03     97.9626E-03    -67.1282E+06    -178.884E+06    -24.5320E+06     261.991E+03    -109.771E-03     217.827E-03    -108.056E-03     93.7178E-03    -110.356E-03     217.610E-03    -107.822E-03     91.2713E-03
             774     6.46414E-03     98.0732E-03    -61.0069E+06    -164.363E+06    -16.5299E+06     168.330E+03    -110.220E-03     218.276E-03    -108.056E-03     104.598E-03    -111.018E-03     218.322E-03    -107.812E-03     101.651E-03
             775     7.27213E-03     98.1946E-03    -55.3135E+06    -147.354E+06    -9.86979E+06     70.9462E+03    -110.512E-03     218.558E-03    -108.046E-03     114.649E-03    -111.573E-03     218.928E-03    -107.802E-03     111.169E-03
             776     8.08042E-03     98.3273E-03    -49.7632E+06    -122.626E+06    -3.83081E+06     369.472E+03    -110.649E-03     218.663E-03    -108.013E-03     123.613E-03    -112.038E-03     219.451E-03    -107.782E-03     119.574E-03
             777     8.88854E-03     98.4673E-03    -44.9260E+06    -99.3536E+06     2.29001E+06     625.775E+03    -110.716E-03     218.693E-03    -107.977E-03     131.068E-03    -112.494E-03     219.953E-03    -107.756E-03     126.432E-03
             778     9.69721E-03     98.6155E-03    -40.5794E+06    -68.7955E+06     7.93695E+06     1.12900E+06    -110.692E-03     218.620E-03    -107.928E-03     137.639E-03    -112.941E-03     220.458E-03    -107.730E-03     132.395E-03
             779     10.5052E-03     98.7694E-03    -36.1537E+06    -25.3659E+06     17.3172E+06     1.68358E+06    -110.504E-03     218.383E-03    -107.879E-03     143.337E-03    -113.320E-03     220.931E-03    -107.704E-03     137.487E-03
             780     11.3139E-03     98.9295E-03    -31.7200E+06     33.7616E+06     31.0485E+06     2.28147E+06    -109.881E-03     217.705E-03    -107.824E-03     145.719E-03    -113.265E-03     221.006E-03    -107.672E-03     139.400E-03
             781     12.1222E-03     99.0879E-03    -27.0434E+06     92.1528E+06     45.1406E+06     3.22723E+06    -108.962E-03     216.724E-03    -107.762E-03     141.895E-03    -112.733E-03     220.595E-03    -107.630E-03     135.382E-03
             782     12.9313E-03     99.2375E-03    -21.9995E+06     118.858E+06     65.2250E+06     2.97272E+06    -108.000E-03     215.774E-03    -107.774E-03     130.029E-03    -111.799E-03     219.728E-03    -107.589E-03     123.623E-03
             783     13.7401E-03     99.3701E-03    -16.4993E+06     124.520E+06     85.0191E+06     1.93238E+06    -106.936E-03     214.757E-03    -107.821E-03     106.633E-03    -110.258E-03     218.216E-03    -107.553E-03     100.689E-03
             784     14.5481E-03     99.4679E-03    -9.78515E+06     132.137E+06     98.2950E+06     1.81565E+06    -105.764E-03     213.588E-03    -107.824E-03     88.2184E-03    -108.678E-03     216.651E-03    -107.509E-03     82.6779E-03
             785     15.3593E-03     99.5582E-03    -4.86387E+06     131.742E+06     98.6878E+06     431.556E+03    -105.653E-03     213.419E-03    -107.767E-03     51.2919E-03    -107.539E-03     215.470E-03    -107.457E-03     47.0639E-03
             786     807.876E-06     98.7644E-03    -101.883E+06    -252.099E+06    -99.4288E+06     368.658E+03    -108.156E-03     216.065E-03    -107.910E-03     16.0879E-03    -108.168E-03     215.109E-03    -107.894E-03     15.7779E-03
             787     1.61566E-03     98.7894E-03    -98.2044E+06    -245.301E+06    -89.5645E+06     293.700E+03    -108.102E-03     216.115E-03    -108.013E-03     29.3528E-03    -108.146E-03     215.199E-03    -107.963E-03     28.7718E-03
             788     2.42373E-03     98.8298E-03    -93.4783E+06    -236.129E+06    -76.3535E+06     399.277E+03    -108.315E-03     216.337E-03    -108.022E-03     43.1483E-03    -108.415E-03     215.489E-03    -107.926E-03     42.2640E-03
             789     3.23191E-03     98.8855E-03    -87.3128E+06    -225.669E+06    -62.0697E+06     320.299E+03    -108.644E-03     216.691E-03    -108.047E-03     56.6366E-03    -108.818E-03     215.934E-03    -107.904E-03     55.4158E-03
             790     4.03959E-03     98.9560E-03    -80.6786E+06    -212.194E+06    -47.6975E+06     263.170E+03    -109.001E-03     217.076E-03    -108.075E-03     69.6215E-03    -109.279E-03     216.453E-03    -107.888E-03     68.0305E-03
             791     4.84797E-03     99.0406E-03    -74.0452E+06    -196.106E+06    -34.8247E+06     9.32650E+03    -109.383E-03     217.474E-03    -108.090E-03     82.0223E-03    -109.799E-03     217.031E-03    -107.873E-03     80.0209E-03
             792     5.65576E-03     99.1385E-03    -67.4328E+06    -178.606E+06    -25.2265E+06    -301.746E+03    -109.805E-03     217.894E-03    -108.089E-03     93.7481E-03    -110.392E-03     217.680E-03    -107.858E-03     91.2930E-03
             793     6.46392E-03     99.2489E-03    -61.0441E+06    -163.972E+06    -17.4377E+06    -664.477E+03    -110.190E-03     218.273E-03    -108.083E-03     104.746E-03    -110.987E-03     218.321E-03    -107.843E-03     101.791E-03
             794     7.27192E-03     99.3708E-03    -55.0247E+06    -147.533E+06    -10.6177E+06    -651.175E+03    -110.461E-03     218.526E-03    -108.065E-03     114.728E-03    -111.520E-03     218.897E-03    -107.824E-03     111.239E-03
             795     8.08028E-03     99.5021E-03    -50.1078E+06    -123.510E+06    -4.95045E+06    -283.168E+03    -110.624E-03     218.649E-03    -108.026E-03     123.591E-03    -112.010E-03     219.434E-03    -107.799E-03     119.545E-03
             796     8.88876E-03     99.6436E-03    -45.3568E+06    -100.039E+06     1.38018E+06     4.52811E+03    -110.747E-03     218.736E-03    -107.989E-03     130.937E-03    -112.522E-03     219.991E-03    -107.772E-03     126.297E-03
             797     9.69670E-03     99.7904E-03    -40.6956E+06    -70.0666E+06     7.08075E+06     556.133E+03    -110.706E-03     218.649E-03    -107.942E-03     137.485E-03    -112.952E-03     220.481E-03    -107.746E-03     132.231E-03
             798     10.5053E-03     99.9458E-03    -36.4923E+06    -26.4422E+06     16.4683E+06     1.34455E+06    -110.375E-03     218.264E-03    -107.888E-03     143.443E-03    -113.187E-03     220.804E-03    -107.715E-03     137.601E-03
             799     11.3134E-03     100.104E-03    -32.2741E+06     32.0536E+06     29.8681E+06     2.32536E+06    -109.776E-03     217.598E-03    -107.822E-03     145.875E-03    -113.155E-03     220.890E-03    -107.672E-03     139.571E-03
             800     12.1229E-03     100.263E-03    -27.6721E+06     91.0713E+06     43.7605E+06     2.94199E+06    -109.063E-03     216.820E-03    -107.756E-03     142.068E-03    -112.833E-03     220.688E-03    -107.630E-03     135.547E-03
             801     12.9308E-03     100.414E-03    -22.1813E+06     120.083E+06     64.9270E+06     2.74698E+06    -108.135E-03     215.912E-03    -107.777E-03     130.211E-03    -111.940E-03     219.877E-03    -107.594E-03     123.791E-03
             802     13.7392E-03     100.545E-03    -16.2593E+06     125.351E+06     85.0398E+06     2.29225E+06    -106.614E-03     214.433E-03    -107.820E-03     106.924E-03    -109.937E-03     217.898E-03    -107.553E-03     101.005E-03
             803     14.5489E-03     100.643E-03    -10.6783E+06     131.260E+06     96.8935E+06     1.35066E+06    -105.647E-03     213.454E-03    -107.806E-03     88.1963E-03    -108.566E-03     216.519E-03    -107.497E-03     82.6449E-03
             804     15.3574E-03     100.731E-03    -4.66051E+06     132.784E+06     99.1912E+06     505.131E+03    -105.733E-03     213.488E-03    -107.755E-03     51.3191E-03    -107.629E-03     215.551E-03    -107.445E-03     47.0624E-03
             805     807.784E-06     99.9401E-03    -102.065E+06    -252.178E+06    -99.8427E+06     140.205E+03    -108.005E-03     216.044E-03    -108.039E-03     15.9994E-03    -108.017E-03     215.088E-03    -108.025E-03     15.6857E-03
             806     1.61588E-03     99.9651E-03    -98.9752E+06    -245.981E+06    -90.4568E+06     221.283E+03    -108.146E-03     216.158E-03    -108.012E-03     29.4063E-03    -108.192E-03     215.242E-03    -107.964E-03     28.8244E-03
             807     2.42379E-03     100.005E-03    -93.6182E+06    -236.180E+06    -76.6623E+06     254.008E+03    -108.404E-03     216.448E-03    -108.044E-03     43.1573E-03    -108.504E-03     215.600E-03    -107.949E-03     42.2699E-03
             808     3.23156E-03     100.061E-03    -87.5711E+06    -225.669E+06    -62.2560E+06     189.531E+03    -108.707E-03     216.791E-03    -108.084E-03     56.6003E-03    -108.883E-03     216.036E-03    -107.941E-03     55.3768E-03
             809     4.03976E-03     100.132E-03    -81.1621E+06    -211.968E+06    -48.3885E+06     39.3389E+03    -109.046E-03     217.160E-03    -108.113E-03     69.6051E-03    -109.327E-03     216.540E-03    -107.930E-03     68.0101E-03
             810     4.84744E-03     100.216E-03    -74.1929E+06    -195.221E+06    -35.5844E+06    -603.076E+03    -109.410E-03     217.537E-03    -108.127E-03     82.0363E-03    -109.826E-03     217.100E-03    -107.914E-03     80.0259E-03
             811     5.65573E-03     100.314E-03    -67.2348E+06    -178.031E+06    -25.9445E+06    -1.32151E+06    -109.772E-03     217.891E-03    -108.119E-03     93.8113E-03    -110.358E-03     217.681E-03    -107.893E-03     91.3429E-03
             812     6.46371E-03     100.425E-03    -61.0085E+06    -163.581E+06    -18.2861E+06    -1.40879E+06    -110.106E-03     218.207E-03    -108.101E-03     104.734E-03    -110.901E-03     218.257E-03    -107.867E-03     101.774E-03
             813     7.27218E-03     100.546E-03    -55.6894E+06    -147.645E+06    -11.5838E+06    -1.45140E+06    -110.451E-03     218.527E-03    -108.077E-03     114.683E-03    -111.510E-03     218.899E-03    -107.840E-03     111.187E-03
             814     8.08008E-03     100.678E-03    -50.1786E+06    -124.294E+06    -5.83873E+06    -1.21259E+06    -110.715E-03     218.756E-03    -108.040E-03     123.501E-03    -112.100E-03     219.538E-03    -107.817E-03     119.437E-03
             815     8.88818E-03     100.819E-03    -45.3314E+06    -100.852E+06     537.800E+03    -474.245E+03    -110.730E-03     218.736E-03    -108.006E-03     131.000E-03    -112.501E-03     219.987E-03    -107.791E-03     126.356E-03
             816     9.69662E-03     100.967E-03    -41.2170E+06    -71.2832E+06     6.03802E+06     107.756E+03    -110.576E-03     218.527E-03    -107.951E-03     137.680E-03    -112.821E-03     220.355E-03    -107.758E-03     132.428E-03
             817     10.5050E-03     101.120E-03    -36.9860E+06    -28.0739E+06     15.0841E+06     1.06995E+06    -110.278E-03     218.164E-03    -107.885E-03     143.438E-03    -113.086E-03     220.696E-03    -107.716E-03     137.600E-03
             818     11.3145E-03     101.280E-03    -32.6554E+06     29.9232E+06     28.6197E+06     2.27519E+06    -109.844E-03     217.663E-03    -107.819E-03     145.776E-03    -113.218E-03     220.944E-03    -107.672E-03     139.468E-03
             819     12.1220E-03     101.439E-03    -28.1225E+06     90.5488E+06     42.8806E+06     2.90801E+06    -109.015E-03     216.769E-03    -107.754E-03     142.095E-03    -112.786E-03     220.637E-03    -107.630E-03     135.572E-03
             820     12.9313E-03     101.590E-03    -23.4443E+06     121.174E+06     64.2363E+06     2.63428E+06    -107.787E-03     215.549E-03    -107.761E-03     130.564E-03    -111.594E-03     219.516E-03    -107.582E-03     124.177E-03
             821     13.7404E-03     101.721E-03    -17.9905E+06     125.775E+06     84.2382E+06     1.80921E+06    -106.526E-03     214.318E-03    -107.792E-03     106.627E-03    -109.854E-03     217.785E-03    -107.528E-03     100.708E-03
             822     14.5499E-03     101.817E-03    -11.3122E+06     132.581E+06     97.4974E+06     1.32860E+06    -105.963E-03     213.754E-03    -107.791E-03     88.3462E-03    -108.898E-03     216.837E-03    -107.480E-03     82.7636E-03
             823     15.3579E-03     101.910E-03    -5.21214E+06     133.884E+06     99.8861E+06     590.034E+03    -106.017E-03     213.774E-03    -107.757E-03     51.2037E-03    -107.922E-03     215.846E-03    -107.444E-03     46.9402E-03
             824     807.983E-06     101.116E-03    -102.903E+06    -252.655E+06    -100.435E+06    -144.028E+03    -108.040E-03     216.058E-03    -108.018E-03     15.9762E-03    -108.054E-03     215.102E-03    -108.005E-03     15.6593E-03
             825     1.61576E-03     101.141E-03    -99.2501E+06    -246.042E+06    -90.8721E+06     189.227E+03    -108.248E-03     216.287E-03    -108.039E-03     29.2842E-03    -108.294E-03     215.371E-03    -107.992E-03     28.7025E-03
             826     2.42358E-03     101.181E-03    -94.2765E+06    -236.343E+06    -77.0751E+06     90.9647E+03    -108.455E-03     216.547E-03    -108.092E-03     43.0830E-03    -108.558E-03     215.699E-03    -107.998E-03     42.1934E-03
             827     3.23153E-03     101.237E-03    -87.8228E+06    -225.304E+06    -62.4425E+06    -131.194E+03    -108.731E-03     216.861E-03    -108.130E-03     56.6079E-03    -108.908E-03     216.108E-03    -107.988E-03     55.3791E-03
             828     4.03930E-03     101.307E-03    -80.9428E+06    -211.160E+06    -48.6368E+06    -565.541E+03    -109.060E-03     217.212E-03    -108.152E-03     69.6377E-03    -109.340E-03     216.596E-03    -107.972E-03     68.0341E-03
             829     4.84752E-03     101.392E-03    -74.1462E+06    -193.861E+06    -36.6235E+06    -1.30393E+06    -109.399E-03     217.553E-03    -108.154E-03     82.0839E-03    -109.815E-03     217.124E-03    -107.949E-03     80.0647E-03
             830     5.65537E-03     101.490E-03    -67.8200E+06    -176.895E+06    -27.0078E+06    -2.19272E+06    -109.746E-03     217.885E-03    -108.140E-03     93.8341E-03    -110.334E-03     217.684E-03    -107.920E-03     91.3549E-03
             831     6.46373E-03     101.600E-03    -61.5476E+06    -163.607E+06    -19.3104E+06    -2.55783E+06    -110.119E-03     218.238E-03    -108.119E-03     104.677E-03    -110.914E-03     218.290E-03    -107.889E-03     101.701E-03
             832     7.27159E-03     101.722E-03    -55.4076E+06    -147.602E+06    -12.3215E+06    -2.27553E+06    -110.457E-03     218.551E-03    -108.094E-03     114.678E-03    -111.514E-03     218.923E-03    -107.861E-03     111.172E-03
             833     8.08004E-03     101.854E-03    -50.9058E+06    -125.017E+06    -6.98601E+06    -1.68217E+06    -110.649E-03     218.702E-03    -108.053E-03     123.560E-03    -112.034E-03     219.483E-03    -107.833E-03     119.496E-03
             834     8.88822E-03     101.994E-03    -46.4893E+06    -101.723E+06    -990.620E+03    -1.23016E+06    -110.657E-03     218.666E-03    -108.010E-03     131.044E-03    -112.432E-03     219.918E-03    -107.800E-03     126.390E-03
             835     9.69687E-03     102.142E-03    -41.5786E+06    -72.1691E+06     4.90575E+06    -720.803E+03    -110.560E-03     218.511E-03    -107.951E-03     137.522E-03    -112.801E-03     220.334E-03    -107.762E-03     132.263E-03
             836     10.5055E-03     102.296E-03    -37.0551E+06    -30.6550E+06     13.6225E+06     498.809E+03    -110.395E-03     218.286E-03    -107.891E-03     143.108E-03    -113.197E-03     220.808E-03    -107.724E-03     137.252E-03
             837     11.3131E-03     102.455E-03    -32.5795E+06     27.2010E+06     27.1938E+06     2.05649E+06    -109.812E-03     217.640E-03    -107.828E-03     145.674E-03    -113.180E-03     220.910E-03    -107.684E-03     139.361E-03
             838     12.1227E-03     102.615E-03    -28.2087E+06     90.0811E+06     42.0141E+06     3.20057E+06    -108.751E-03     216.503E-03    -107.753E-03     141.952E-03    -112.515E-03     220.365E-03    -107.632E-03     135.455E-03
             839     12.9315E-03     102.764E-03    -23.1819E+06     122.157E+06     63.7044E+06     3.03511E+06    -107.606E-03     215.353E-03    -107.746E-03     130.013E-03    -111.405E-03     219.318E-03    -107.571E-03     123.641E-03
             840     13.7408E-03     102.896E-03    -17.3131E+06     127.640E+06     85.2308E+06     1.57053E+06    -106.808E-03     214.596E-03    -107.788E-03     106.181E-03    -110.139E-03     218.072E-03    -107.522E-03     100.231E-03
             841     14.5482E-03     102.993E-03    -11.3239E+06     133.656E+06     98.4611E+06     302.027E+03    -106.247E-03     214.055E-03    -107.807E-03     87.5183E-03    -109.188E-03     217.144E-03    -107.492E-03     81.8896E-03
             842     15.3586E-03     103.083E-03    -5.48212E+06     133.972E+06     99.8219E+06     523.250E+03    -105.809E-03     213.583E-03    -107.774E-03     50.3864E-03    -107.709E-03     215.650E-03    -107.461E-03     46.1261E-03
             843     807.813E-06     102.292E-03    -103.162E+06    -252.447E+06    -100.708E+06     27.1578E+03    -108.316E-03     216.207E-03    -107.891E-03     16.1513E-03    -108.332E-03     215.253E-03    -107.879E-03     15.8388E-03
             844     1.61556E-03     102.317E-03     -99.844E+06    -246.006E+06    -91.0626E+06    -142.255E+03    -108.312E-03     216.423E-03    -108.112E-03     29.3195E-03    -108.361E-03     215.509E-03    -108.066E-03     28.7317E-03
             845     2.42340E-03     102.357E-03    -94.5213E+06    -235.957E+06    -77.6239E+06    -360.907E+03    -108.458E-03     216.608E-03    -108.150E-03     43.0998E-03    -108.561E-03     215.764E-03    -108.059E-03     42.2036E-03
             846     3.23135E-03     102.413E-03    -88.2702E+06    -224.781E+06    -62.9460E+06    -774.389E+03    -108.719E-03     216.892E-03    -108.173E-03     56.6325E-03    -108.899E-03     216.143E-03    -108.033E-03     55.3961E-03
             847     4.03936E-03     102.484E-03    -81.1102E+06    -209.619E+06    -49.4049E+06    -1.56805E+06    -109.041E-03     217.220E-03    -108.179E-03     69.6792E-03    -109.323E-03     216.613E-03    -108.005E-03     68.0636E-03
             848     4.84722E-03     102.568E-03    -74.0704E+06    -192.768E+06    -37.7586E+06    -2.15625E+06    -109.387E-03     217.559E-03    -108.172E-03     82.0804E-03    -109.803E-03     217.137E-03    -107.973E-03     80.0504E-03
             849     5.65550E-03     102.666E-03    -67.6542E+06    -175.539E+06    -27.6246E+06    -2.45071E+06    -109.766E-03     217.922E-03    -108.156E-03     93.8116E-03    -110.354E-03     217.727E-03    -107.942E-03     91.3290E-03
             850     6.46338E-03     102.776E-03    -62.3131E+06    -162.551E+06    -20.1392E+06    -3.21236E+06    -110.157E-03     218.295E-03    -108.138E-03     104.702E-03    -110.958E-03     218.356E-03    -107.912E-03     101.714E-03
             851     7.27177E-03     102.898E-03    -57.8336E+06    -148.631E+06    -14.5043E+06    -2.98705E+06    -110.441E-03     218.551E-03    -108.111E-03     114.661E-03    -111.504E-03     218.924E-03    -107.884E-03     111.145E-03
             852     8.07977E-03     103.029E-03    -52.2128E+06    -124.815E+06    -8.31608E+06    -2.80898E+06    -110.571E-03     218.636E-03    -108.065E-03     123.412E-03    -111.959E-03     219.420E-03    -107.850E-03     119.335E-03
             853     8.88844E-03     103.170E-03    -46.3925E+06    -102.283E+06    -2.10593E+06    -2.85030E+06    -110.662E-03     218.680E-03    -108.018E-03     130.754E-03    -112.432E-03     219.928E-03    -107.813E-03     126.079E-03
             854     9.69638E-03     103.317E-03    -41.5812E+06    -73.8258E+06     3.45875E+06    -1.75613E+06    -110.645E-03     218.608E-03    -107.964E-03     137.314E-03    -112.879E-03     220.423E-03    -107.779E-03     132.037E-03
             855     10.5045E-03     103.472E-03    -37.0243E+06    -32.8496E+06     12.3375E+06    -518.344E+03    -110.368E-03     218.273E-03    -107.906E-03     143.201E-03    -113.164E-03     220.786E-03    -107.743E-03     137.333E-03
             856     11.3139E-03     103.631E-03    -32.3646E+06     23.9353E+06     25.6898E+06     1.56997E+06    -109.712E-03     217.549E-03    -107.837E-03     145.624E-03    -113.069E-03     220.802E-03    -107.696E-03     139.315E-03
             857     12.1222E-03     103.789E-03    -27.3708E+06     88.9033E+06     41.0317E+06     3.13715E+06    -108.716E-03     216.471E-03    -107.755E-03     141.712E-03    -112.467E-03     220.322E-03    -107.639E-03     135.221E-03
             858     12.9313E-03     103.940E-03    -21.8119E+06     123.234E+06     63.5194E+06     2.58570E+06    -107.751E-03     215.502E-03    -107.752E-03     129.955E-03    -111.548E-03     219.476E-03    -107.581E-03     123.564E-03
             859     13.7396E-03     104.071E-03    -15.8219E+06     128.949E+06     85.5951E+06     1.86803E+06    -106.701E-03     214.497E-03    -107.796E-03     106.790E-03    -110.029E-03     217.978E-03    -107.532E-03     100.860E-03
             860     14.5493E-03     104.170E-03    -10.4214E+06     134.481E+06     98.6103E+06     1.57931E+06    -106.011E-03     213.813E-03    -107.802E-03     88.8309E-03    -108.942E-03     216.899E-03    -107.489E-03     83.2660E-03
             861     15.3554E-03     104.259E-03    -5.24726E+06     134.566E+06     99.8806E+06     639.376E+03    -105.758E-03     213.517E-03    -107.759E-03     51.5024E-03    -107.662E-03     215.590E-03    -107.447E-03     47.2518E-03
             862     807.799E-06     103.468E-03    -103.774E+06    -252.545E+06    -101.387E+06     316.045E+03    -108.382E-03     216.320E-03    -107.938E-03     16.2974E-03    -108.400E-03     215.367E-03    -107.928E-03     15.9911E-03
             863     1.61551E-03     103.493E-03    -100.428E+06    -245.239E+06    -91.2746E+06    -236.255E+03    -108.310E-03     216.467E-03    -108.157E-03     29.3484E-03    -108.363E-03     215.558E-03    -108.112E-03     28.7586E-03
             864     2.42338E-03     103.533E-03    -95.0720E+06    -235.105E+06    -78.0000E+06    -979.934E+03    -108.482E-03     216.664E-03    -108.182E-03     43.1834E-03    -108.590E-03     215.826E-03    -108.093E-03     42.2785E-03
             865     3.23115E-03     103.589E-03    -88.3441E+06    -223.184E+06    -64.2094E+06    -1.76907E+06    -108.732E-03     216.927E-03    -108.195E-03     56.6820E-03    -108.913E-03     216.188E-03    -108.064E-03     55.4320E-03
             866     4.03918E-03     103.659E-03    -81.7775E+06    -207.640E+06    -51.4067E+06    -2.71672E+06    -109.027E-03     217.219E-03    -108.192E-03     69.6850E-03    -109.312E-03     216.626E-03    -108.029E-03     68.0536E-03
             867     4.84727E-03     103.744E-03    -75.0082E+06    -191.797E+06    -39.2399E+06    -3.52004E+06    -109.422E-03     217.609E-03    -108.187E-03     82.0828E-03    -109.842E-03     217.195E-03    -107.996E-03     80.0335E-03
             868     5.65516E-03     103.841E-03    -67.9741E+06    -174.817E+06    -28.8269E+06    -3.79121E+06    -109.818E-03     217.994E-03    -108.176E-03     93.7300E-03    -110.407E-03     217.805E-03    -107.968E-03     91.2281E-03
             869     6.46344E-03     103.952E-03    -61.6712E+06    -162.322E+06    -20.6969E+06    -2.99965E+06    -110.162E-03     218.323E-03    -108.161E-03     104.564E-03    -110.959E-03     218.385E-03    -107.940E-03     101.579E-03
             870     7.27129E-03     104.073E-03    -55.8114E+06    -147.508E+06    -14.2034E+06    -3.46271E+06    -110.442E-03     218.575E-03    -108.133E-03     114.478E-03    -111.497E-03     218.949E-03    -107.909E-03     110.955E-03
             871     8.07978E-03     104.206E-03    -50.4925E+06    -124.082E+06    -9.08625E+06    -4.39494E+06    -110.599E-03     218.681E-03    -108.082E-03     123.284E-03    -111.979E-03     219.468E-03    -107.874E-03     119.184E-03
             872     8.88765E-03     104.345E-03    -46.0792E+06    -103.309E+06    -3.35216E+06    -3.70270E+06    -110.663E-03     218.700E-03    -108.036E-03     130.834E-03    -112.427E-03     219.943E-03    -107.837E-03     126.151E-03
             873     9.69640E-03     104.493E-03    -41.9242E+06    -75.4113E+06     1.92967E+06    -2.80069E+06    -110.599E-03     218.576E-03    -107.978E-03     137.448E-03    -112.831E-03     220.387E-03    -107.798E-03     132.161E-03
             874     10.5051E-03     104.647E-03    -37.5753E+06    -34.5757E+06     10.8617E+06    -1.74892E+06    -110.289E-03     218.203E-03    -107.914E-03     143.133E-03    -113.079E-03     220.705E-03    -107.755E-03     137.260E-03
             875     11.3132E-03     104.806E-03    -32.5281E+06     20.3893E+06     24.1080E+06     3.45479E+03    -109.665E-03     217.506E-03    -107.841E-03     145.509E-03    -113.009E-03     220.737E-03    -107.703E-03     139.191E-03
             876     12.1223E-03     104.965E-03    -26.9884E+06     86.4264E+06     39.0584E+06     1.90771E+06    -108.804E-03     216.559E-03    -107.755E-03     141.825E-03    -112.549E-03     220.401E-03    -107.646E-03     135.311E-03
             877     12.9311E-03     105.115E-03    -22.0337E+06     123.836E+06     62.2013E+06     2.77794E+06    -107.701E-03     215.452E-03    -107.751E-03     130.271E-03    -111.501E-03     219.433E-03    -107.588E-03     123.885E-03
             878     13.7404E-03     105.247E-03    -17.4106E+06     129.262E+06     84.3589E+06      2.2621E+06    -106.441E-03     214.229E-03    -107.788E-03     106.811E-03    -109.768E-03     217.708E-03    -107.528E-03     100.909E-03
             879     14.5494E-03     105.343E-03    -11.2629E+06     135.432E+06     98.2230E+06     1.49777E+06    -105.600E-03     213.378E-03    -107.779E-03     88.0800E-03    -108.524E-03     216.458E-03    -107.468E-03     82.5374E-03
             880     15.3619E-03     105.436E-03    -5.39690E+06     135.951E+06     100.405E+06     797.434E+03    -105.810E-03     213.542E-03    -107.731E-03     50.4339E-03    -107.708E-03     215.611E-03    -107.419E-03     46.1955E-03
             881     807.698E-06     104.644E-03    -105.139E+06    -252.685E+06    -102.841E+06    -200.012E+03    -108.164E-03     216.326E-03    -108.162E-03     16.3176E-03    -108.186E-03     215.377E-03    -108.158E-03     16.0019E-03
             882     1.61554E-03     104.669E-03    -100.929E+06    -244.206E+06    -92.3522E+06    -520.327E+03    -108.292E-03     216.446E-03    -108.154E-03     29.4310E-03    -108.348E-03     215.545E-03    -108.115E-03     28.8376E-03
             883     2.42329E-03     104.709E-03    -95.8421E+06    -232.717E+06    -79.2009E+06    -1.65077E+06    -108.518E-03     216.696E-03    -108.178E-03     43.2280E-03    -108.631E-03     215.872E-03    -108.097E-03     42.3139E-03
             884     3.23131E-03     104.765E-03    -89.9135E+06    -220.713E+06    -66.9939E+06    -3.00880E+06    -108.768E-03     216.961E-03    -108.193E-03     56.6649E-03    -108.956E-03     216.241E-03    -108.078E-03     55.3990E-03
             885     4.03907E-03     104.835E-03    -83.4489E+06    -206.422E+06    -53.6249E+06    -3.44241E+06    -109.089E-03     217.293E-03    -108.204E-03     69.6568E-03    -109.381E-03     216.712E-03    -108.052E-03     68.0145E-03
             886     4.84712E-03     104.920E-03    -77.4229E+06    -189.441E+06    -40.4724E+06    -4.17370E+06    -109.461E-03     217.671E-03    -108.210E-03     82.0488E-03    -109.894E-03     217.274E-03    -108.026E-03     79.9895E-03
             887     5.65506E-03     105.018E-03    -71.8868E+06    -173.891E+06    -31.4728E+06    -5.05736E+06    -109.830E-03     218.029E-03    -108.198E-03     93.6931E-03    -110.436E-03     217.853E-03    -107.999E-03     91.1749E-03
             888     6.46293E-03     105.127E-03    -65.0053E+06    -162.055E+06    -23.9824E+06    -5.90928E+06    -110.150E-03     218.329E-03    -108.179E-03     104.575E-03    -110.957E-03     218.400E-03    -107.970E-03     101.555E-03
             889     7.27136E-03     105.250E-03    -57.6824E+06    -145.929E+06    -16.4398E+06    -6.10881E+06    -110.411E-03     218.558E-03    -108.147E-03     114.540E-03    -111.473E-03     218.945E-03    -107.934E-03     110.986E-03
             890     8.07926E-03     105.381E-03    -52.2427E+06    -124.268E+06    -10.8609E+06    -5.39063E+06    -110.600E-03     218.697E-03    -108.097E-03     123.339E-03    -111.983E-03     219.485E-03    -107.895E-03     119.230E-03
             891     8.88810E-03     105.522E-03    -47.3901E+06    -103.901E+06    -5.13608E+06    -5.05900E+06    -110.646E-03     218.695E-03    -108.049E-03     130.800E-03    -112.411E-03     219.938E-03    -107.855E-03     126.102E-03
             892     9.69614E-03     105.669E-03    -42.2426E+06    -76.7016E+06     465.387E+03    -4.38206E+06    -110.521E-03     218.507E-03    -107.986E-03     137.352E-03    -112.747E-03     220.309E-03    -107.811E-03     132.053E-03
             893     10.5044E-03     105.823E-03    -37.6577E+06    -36.8497E+06     9.27664E+06    -2.73333E+06    -110.203E-03     218.119E-03    -107.915E-03     143.062E-03    -112.983E-03     220.607E-03    -107.761E-03     137.189E-03
             894     11.3135E-03     105.981E-03    -33.7378E+06     17.2060E+06     21.9457E+06    -1.12825E+06    -109.625E-03     217.462E-03    -107.837E-03     145.613E-03    -112.966E-03     220.681E-03    -107.704E-03     139.285E-03
             895     12.1223E-03     106.140E-03    -29.7599E+06     83.3763E+06     35.8463E+06     796.423E+03    -108.755E-03     216.499E-03    -107.744E-03     142.073E-03    -112.504E-03     220.335E-03    -107.642E-03     135.550E-03
             896     12.9310E-03     106.290E-03    -24.7292E+06     123.201E+06     59.0793E+06     2.17933E+06    -107.686E-03     215.421E-03    -107.735E-03     130.280E-03    -111.490E-03     219.403E-03    -107.582E-03     123.892E-03
             897     13.7403E-03     106.421E-03    -17.9937E+06     130.345E+06     83.4274E+06     2.07963E+06    -106.552E-03     214.332E-03    -107.780E-03     106.545E-03    -109.880E-03     217.817E-03    -107.526E-03     100.631E-03
             898     14.5491E-03     106.520E-03    -11.7327E+06     136.061E+06     98.1236E+06     1.39313E+06    -105.757E-03     213.542E-03    -107.785E-03     87.7858E-03    -108.681E-03     216.623E-03    -107.474E-03     82.2340E-03
             899     15.3548E-03     106.608E-03    -5.51055E+06     136.662E+06     100.744E+06     344.805E+03    -105.448E-03     213.182E-03    -107.734E-03     50.6915E-03    -107.347E-03     215.254E-03    -107.420E-03     46.4515E-03
             900     807.741E-06     105.820E-03    -106.007E+06    -252.001E+06    -103.531E+06    -465.010E+03    -108.129E-03     216.343E-03    -108.214E-03     16.2402E-03    -108.156E-03     215.399E-03    -108.212E-03     15.9173E-03
             901     1.61563E-03     105.845E-03    -102.740E+06    -242.374E+06    -95.2475E+06    -1.25583E+06    -108.307E-03     216.461E-03    -108.154E-03     29.3870E-03    -108.370E-03     215.575E-03    -108.130E-03     28.7853E-03
             902     2.42343E-03     105.885E-03    -97.6615E+06    -229.238E+06    -83.2782E+06    -2.65792E+06    -108.538E-03     216.711E-03    -108.174E-03     43.1047E-03    -108.658E-03     215.913E-03    -108.116E-03     42.1784E-03
             903     3.23103E-03     105.941E-03    -91.8212E+06    -218.320E+06    -68.7583E+06    -3.70554E+06    -108.802E-03     217.010E-03    -108.208E-03     56.5239E-03    -109.000E-03     216.306E-03    -108.102E-03     55.2476E-03
             904     4.03911E-03     106.011E-03    -85.5389E+06    -205.128E+06    -54.4665E+06    -4.43066E+06    -109.135E-03     217.366E-03    -108.231E-03     69.6132E-03    -109.438E-03     216.795E-03    -108.082E-03     67.9576E-03
             905     4.84675E-03     106.096E-03    -78.4909E+06    -187.378E+06    -41.6405E+06    -4.63860E+06    -109.463E-03     217.697E-03    -108.234E-03     82.0549E-03    -109.903E-03     217.314E-03    -108.057E-03     79.9903E-03
             906     5.65491E-03     106.193E-03    -71.0510E+06    -170.541E+06    -31.5147E+06    -6.08405E+06    -109.791E-03     218.008E-03    -108.217E-03     93.7458E-03    -110.397E-03     217.847E-03    -108.024E-03     91.2180E-03
             907     6.46307E-03     106.304E-03    -64.9639E+06    -159.304E+06    -24.6261E+06    -7.91278E+06    -110.145E-03     218.335E-03    -108.190E-03     104.610E-03    -110.955E-03     218.420E-03    -107.988E-03     101.567E-03
             908     7.27099E-03     106.425E-03    -59.9228E+06    -146.048E+06    -18.3348E+06    -8.18189E+06    -110.422E-03     218.580E-03    -108.158E-03     114.506E-03    -111.491E-03     218.971E-03    -107.951E-03     110.927E-03
             909     8.07964E-03     106.557E-03    -53.8944E+06    -124.418E+06    -12.2469E+06    -7.86984E+06    -110.591E-03     218.701E-03    -108.110E-03     123.269E-03    -111.979E-03     219.491E-03    -107.912E-03     119.131E-03
             910     8.88728E-03     106.697E-03    -47.7509E+06    -103.867E+06    -6.37460E+06    -7.59544E+06    -110.590E-03     218.647E-03    -108.056E-03     130.768E-03    -112.353E-03     219.890E-03    -107.868E-03     126.043E-03
             911     9.69605E-03     106.844E-03    -42.3558E+06    -78.2457E+06    -1.03852E+06    -6.63392E+06    -110.415E-03     218.401E-03    -107.986E-03     137.486E-03    -112.632E-03     220.193E-03    -107.816E-03     132.173E-03
             912     10.5049E-03     106.998E-03    -37.0357E+06    -40.3912E+06     7.56796E+06    -4.52510E+06    -110.135E-03     218.043E-03    -107.907E-03     143.171E-03    -112.901E-03     220.511E-03    -107.757E-03     137.284E-03
             913     11.3135E-03     107.157E-03    -31.7314E+06     14.2058E+06     21.1310E+06    -1.59335E+06    -109.625E-03     217.452E-03    -107.827E-03     145.643E-03    -112.949E-03     220.652E-03    -107.696E-03     139.311E-03
             914     12.1222E-03     107.315E-03    -26.6271E+06     80.4171E+06     37.1777E+06     847.820E+03    -108.700E-03     216.440E-03    -107.740E-03     142.044E-03    -112.426E-03     220.249E-03    -107.632E-03     135.532E-03
             915     12.9318E-03     107.465E-03    -21.3535E+06     121.826E+06     60.5079E+06     2.24071E+06    -107.696E-03     215.422E-03    -107.726E-03     130.540E-03    -111.481E-03     219.389E-03    -107.569E-03     124.159E-03
             916     13.7399E-03     107.598E-03    -16.4702E+06     131.289E+06     82.4425E+06     2.17605E+06    -106.539E-03     214.297E-03    -107.758E-03     107.000E-03    -109.864E-03     217.790E-03    -107.512E-03     101.090E-03
             917     14.5492E-03     107.694E-03    -10.6482E+06     137.164E+06     97.9738E+06     1.32673E+06    -105.530E-03     213.289E-03    -107.759E-03     88.7126E-03    -108.463E-03     216.387E-03    -107.452E-03     83.1639E-03
             918     15.3616E-03     107.785E-03    -4.74596E+06     137.931E+06     101.969E+06     498.519E+03    -105.480E-03     213.189E-03    -107.709E-03     51.6145E-03    -107.390E-03     215.277E-03    -107.392E-03     47.3720E-03
             919     807.734E-06     106.996E-03    -108.056E+06    -250.692E+06    -106.602E+06    -734.815E+03    -108.362E-03     216.475E-03    -108.113E-03     16.0324E-03    -108.397E-03     215.546E-03    -108.126E-03     15.7051E-03
             920     1.61533E-03     107.021E-03    -104.788E+06    -238.250E+06    -98.5678E+06    -2.54034E+06    -108.327E-03     216.531E-03    -108.203E-03     29.3313E-03    -108.402E-03     215.673E-03    -108.199E-03     28.7134E-03
             921     2.42307E-03     107.062E-03    -99.9576E+06    -226.445E+06    -85.1908E+06    -3.87624E+06    -108.500E-03     216.712E-03    -108.212E-03     43.1018E-03    -108.634E-03     215.934E-03    -108.164E-03     42.1599E-03
             922     3.23112E-03     107.117E-03    -93.6802E+06    -215.764E+06    -68.8109E+06    -4.53860E+06    -108.817E-03     217.058E-03    -108.241E-03     56.5854E-03    -109.028E-03     216.370E-03    -108.137E-03     55.2984E-03
             923     4.03865E-03     107.188E-03    -86.3291E+06    -201.823E+06    -54.2529E+06    -5.94460E+06    -109.141E-03     217.402E-03    -108.261E-03     69.6283E-03    -109.453E-03     216.848E-03    -108.114E-03     67.9540E-03
             924     4.84696E-03     107.272E-03    -78.0395E+06    -185.452E+06    -42.7462E+06    -7.50495E+06    -109.445E-03     217.697E-03    -108.252E-03     82.0055E-03    -109.883E-03     217.323E-03    -108.083E-03     79.9064E-03
             925     5.65477E-03     107.370E-03    -70.3209E+06    -167.592E+06    -32.1689E+06    -7.92282E+06    -109.768E-03     217.997E-03    -108.229E-03     93.6531E-03    -110.373E-03     217.850E-03    -108.045E-03     91.1036E-03
             926     6.46290E-03     107.479E-03    -64.3030E+06    -156.394E+06    -24.0412E+06    -8.31429E+06    -110.119E-03     218.322E-03    -108.204E-03     104.504E-03    -110.928E-03     218.418E-03    -108.004E-03     101.460E-03
             927     7.27113E-03     107.601E-03    -58.5498E+06    -144.147E+06    -18.4756E+06    -9.42512E+06    -110.413E-03     218.578E-03    -108.165E-03     114.477E-03    -111.476E-03     218.975E-03    -107.963E-03     110.885E-03
             928     8.07885E-03     107.732E-03    -53.1260E+06    -123.031E+06    -13.4555E+06    -10.4887E+06    -110.520E-03     218.627E-03    -108.107E-03     123.424E-03    -111.902E-03     219.423E-03    -107.919E-03     119.260E-03
             929     8.88793E-03     107.873E-03    -47.5840E+06    -103.969E+06    -7.53430E+06    -10.3886E+06    -110.482E-03     218.528E-03    -108.047E-03     130.892E-03    -112.237E-03     219.768E-03    -107.865E-03     126.145E-03
             930     9.69628E-03     108.019E-03    -42.0691E+06    -79.8401E+06    -2.41902E+06    -9.38163E+06    -110.337E-03     218.306E-03    -107.969E-03     137.494E-03    -112.544E-03     220.087E-03    -107.804E-03     132.155E-03
             931     10.5048E-03     108.173E-03    -36.4728E+06    -43.6795E+06     5.96576E+06    -7.71933E+06    -110.106E-03     217.992E-03    -107.886E-03     143.331E-03    -112.857E-03     220.442E-03    -107.740E-03     137.411E-03
             932     11.3135E-03     108.332E-03    -30.5936E+06     8.43779E+06     19.2597E+06    -4.09827E+06    -109.608E-03     217.413E-03    -107.805E-03     145.889E-03    -112.912E-03     220.582E-03    -107.676E-03     139.535E-03
             933     12.1228E-03     108.490E-03    -25.8767E+06     75.4633E+06     34.6228E+06     733.328E+03    -108.717E-03     216.430E-03    -107.713E-03     142.236E-03    -112.426E-03     220.214E-03    -107.612E-03     135.730E-03
             934     12.9312E-03     108.640E-03    -22.1216E+06     120.959E+06     57.7913E+06     2.84238E+06    -107.432E-03     215.118E-03    -107.686E-03     130.836E-03    -111.213E-03     219.082E-03    -107.541E-03     124.487E-03
             935     13.7413E-03     108.773E-03     -16.955E+06     132.813E+06     81.7511E+06     2.42506E+06    -106.203E-03     213.909E-03    -107.706E-03     107.436E-03    -109.529E-03     217.410E-03    -107.466E-03     101.560E-03
             936     14.5505E-03     108.869E-03    -11.2230E+06     138.581E+06     98.3860E+06     1.15959E+06    -105.543E-03     213.249E-03    -107.706E-03     88.4621E-03    -108.481E-03     216.354E-03    -107.399E-03     82.9069E-03
             937     15.3574E-03     108.958E-03    -5.55396E+06     138.246E+06     102.177E+06     579.387E+03    -105.437E-03     213.098E-03    -107.661E-03     51.5342E-03    -107.352E-03     215.187E-03    -107.342E-03     47.2837E-03
             938     807.490E-06     108.172E-03    -107.858E+06    -246.151E+06    -107.464E+06    -2.72099E+06    -108.468E-03     216.571E-03    -108.104E-03     16.0596E-03    -108.506E-03     215.666E-03    -108.128E-03     15.7097E-03
             939     1.61530E-03     108.197E-03    -105.243E+06    -233.882E+06    -98.3371E+06    -3.80184E+06    -108.346E-03     216.595E-03    -108.249E-03     29.3936E-03    -108.429E-03     215.759E-03    -108.249E-03     28.7581E-03
             940     2.42322E-03     108.238E-03    -100.053E+06    -223.438E+06    -83.0464E+06    -4.50059E+06    -108.527E-03     216.787E-03    -108.261E-03     43.1406E-03    -108.668E-03     216.021E-03    -108.207E-03     42.1914E-03
             941     3.23083E-03     108.293E-03    -93.3335E+06    -211.859E+06    -67.8279E+06    -5.94728E+06    -108.810E-03     217.087E-03    -108.276E-03     56.5856E-03    -109.026E-03     216.416E-03    -108.173E-03     55.2820E-03
             942     4.03894E-03     108.364E-03    -85.5452E+06    -197.283E+06    -54.4885E+06    -7.95847E+06    -109.137E-03     217.417E-03    -108.280E-03     69.5813E-03    -109.450E-03     216.884E-03    -108.143E-03     67.8840E-03
             943     4.84642E-03     108.448E-03    -78.5981E+06    -181.557E+06    -43.4433E+06    -9.66044E+06    -109.440E-03     217.708E-03    -108.268E-03     81.9411E-03    -109.885E-03     217.355E-03    -108.108E-03     79.8160E-03
             944     5.65470E-03     108.546E-03    -72.2671E+06    -166.278E+06    -34.3291E+06    -10.0920E+06    -109.737E-03     217.976E-03    -108.239E-03     93.6416E-03    -110.349E-03     217.840E-03    -108.064E-03     91.0674E-03
             945     6.46273E-03     108.656E-03    -65.2592E+06    -154.459E+06    -26.1652E+06    -10.3256E+06    -110.029E-03     218.232E-03    -108.202E-03     104.574E-03    -110.841E-03     218.339E-03    -108.014E-03     101.512E-03
             946     7.27086E-03     108.777E-03    -58.9381E+06    -139.982E+06    -19.3156E+06    -11.6935E+06    -110.257E-03     218.408E-03    -108.151E-03     114.631E-03    -111.324E-03     218.824E-03    -107.959E-03     111.024E-03
             947     8.07975E-03     108.908E-03    -52.8837E+06    -120.839E+06    -14.1290E+06    -12.8205E+06    -110.383E-03     218.464E-03    -108.080E-03     123.512E-03    -111.762E-03     219.267E-03    -107.899E-03     119.333E-03
             948     8.88764E-03     109.048E-03    -47.6017E+06    -103.723E+06    -8.86827E+06    -12.8605E+06    -110.364E-03     218.374E-03    -108.009E-03     131.043E-03    -112.113E-03     219.610E-03    -107.834E-03     126.283E-03
             949     9.69641E-03     109.195E-03    -42.7621E+06    -80.7728E+06    -3.93042E+06    -12.1458E+06    -110.258E-03     218.184E-03    -107.925E-03     137.841E-03    -112.461E-03     219.960E-03    -107.766E-03     132.481E-03
             950     10.5053E-03     109.348E-03    -38.1237E+06    -46.0570E+06     3.77787E+06    -10.6309E+06    -109.997E-03     217.834E-03    -107.836E-03     143.856E-03    -112.748E-03     220.274E-03    -107.695E-03     137.917E-03
             951     11.3144E-03     109.507E-03    -34.0244E+06     278.431E+03     15.0517E+06    -6.75834E+06    -109.546E-03     217.295E-03    -107.749E-03     146.547E-03    -112.846E-03     220.431E-03    -107.625E-03     140.179E-03
             952     12.1229E-03     109.665E-03    -29.2250E+06     67.4278E+06     27.8333E+06    -868.632E+03    -108.653E-03     216.292E-03    -107.639E-03     142.908E-03    -112.357E-03     220.051E-03    -107.555E-03     136.399E-03
             953     12.9326E-03     109.816E-03    -23.4970E+06     120.920E+06     52.5894E+06     2.48364E+06    -107.313E-03     214.914E-03    -107.601E-03     131.117E-03    -111.090E-03     218.884E-03    -107.479E-03     124.783E-03
             954     13.7419E-03     109.946E-03    -17.7816E+06     133.784E+06     79.3192E+06     2.12279E+06    -106.059E-03     213.686E-03    -107.627E-03     107.781E-03    -109.383E-03     217.192E-03    -107.399E-03     101.919E-03
             955     14.5511E-03     110.045E-03    -11.4462E+06     139.580E+06     98.5134E+06     1.41622E+06    -105.504E-03     213.140E-03    -107.636E-03     89.2404E-03    -108.439E-03     216.244E-03    -107.329E-03     83.7077E-03
             956     15.3618E-03     110.133E-03    -5.34066E+06     139.446E+06     104.195E+06     677.472E+03    -105.557E-03     213.160E-03    -107.603E-03     52.1571E-03    -107.475E-03     215.251E-03    -107.276E-03     47.9052E-03
             957     807.751E-06     109.349E-03    -106.978E+06    -239.104E+06    -104.628E+06    -3.36804E+06    -108.355E-03     216.526E-03    -108.171E-03     16.2027E-03    -108.403E-03     215.650E-03    -108.192E-03     15.8488E-03
             958     1.61535E-03     109.373E-03    -104.049E+06    -229.931E+06    -95.4061E+06    -3.96335E+06    -108.450E-03     216.712E-03    -108.262E-03     29.2898E-03    -108.537E-03     215.890E-03    -108.255E-03     28.6539E-03
             959     2.42288E-03     109.414E-03    -98.9169E+06    -219.301E+06    -81.9888E+06    -5.22514E+06    -108.578E-03     216.872E-03    -108.294E-03     43.1057E-03    -108.721E-03     216.123E-03    -108.242E-03     42.1476E-03
             960     3.23080E-03     109.470E-03    -92.2103E+06    -206.617E+06    -68.0169E+06    -7.26395E+06    -108.800E-03     217.099E-03    -108.299E-03     56.6153E-03    -109.017E-03     216.453E-03    -108.206E-03     55.2963E-03
             961     4.03843E-03     109.540E-03    -85.7112E+06    -192.199E+06    -55.4175E+06    -9.36025E+06    -109.058E-03     217.345E-03    -108.287E-03     69.6395E-03    -109.377E-03     216.838E-03    -108.161E-03     67.9285E-03
             962     4.84676E-03     109.624E-03    -78.8487E+06    -177.081E+06    -44.1932E+06    -10.8752E+06    -109.366E-03     217.627E-03    -108.261E-03     82.0773E-03    -109.816E-03     217.296E-03    -108.111E-03     79.9447E-03
             963     5.65453E-03     109.722E-03    -71.9594E+06    -163.517E+06    -35.3046E+06    -11.9513E+06    -109.656E-03     217.876E-03    -108.220E-03     93.8441E-03    -110.267E-03     217.753E-03    -108.055E-03     91.2551E-03
             964     6.46286E-03     109.831E-03    -65.7875E+06    -151.592E+06    -27.7805E+06    -12.9338E+06    -109.890E-03     218.057E-03    -108.167E-03     104.821E-03    -110.703E-03     218.179E-03    -107.991E-03     101.739E-03
             965     7.27140E-03     109.952E-03    -59.2088E+06    -135.604E+06    -19.7059E+06    -14.3343E+06    -110.089E-03     218.192E-03    -108.103E-03     114.893E-03    -111.157E-03     218.626E-03    -107.920E-03     111.272E-03
             966     8.07940E-03     110.084E-03    -53.6171E+06    -119.114E+06    -14.5929E+06    -15.0852E+06    -110.152E-03     218.172E-03    -108.019E-03     123.813E-03    -111.530E-03     218.979E-03    -107.842E-03     119.629E-03
             967     8.88864E-03     110.223E-03    -48.9677E+06    -102.839E+06    -10.1999E+06    -14.7661E+06    -110.140E-03     218.068E-03    -107.928E-03     131.594E-03    -111.889E-03     219.307E-03    -107.759E-03     126.836E-03
             968     9.69745E-03     110.370E-03    -44.5690E+06    -80.5485E+06    -5.31484E+06    -14.3518E+06    -110.093E-03     217.924E-03    -107.831E-03     138.522E-03    -112.297E-03     219.699E-03    -107.676E-03     133.164E-03
             969     10.5062E-03     110.523E-03    -40.2293E+06    -48.7367E+06     1.56327E+06    -12.7384E+06    -109.920E-03     217.655E-03    -107.736E-03     144.480E-03    -112.668E-03     220.084E-03    -107.599E-03     138.538E-03
             970     11.3152E-03     110.682E-03    -34.9932E+06    -6.34062E+06     12.5163E+06    -9.13153E+06    -109.403E-03     217.049E-03    -107.645E-03     147.279E-03    -112.690E-03     220.153E-03    -107.523E-03     140.909E-03
             971     12.1247E-03     110.841E-03    -29.1023E+06     58.7142E+06     25.3594E+06    -3.78673E+06    -108.469E-03     215.997E-03    -107.528E-03     143.673E-03    -112.152E-03     219.711E-03    -107.444E-03     137.160E-03
             972     12.9337E-03     110.989E-03    -23.5389E+06     117.184E+06     48.5150E+06     924.608E+03    -107.426E-03     214.901E-03    -107.474E-03     131.949E-03    -111.194E-03     218.860E-03    -107.368E-03     125.600E-03
             973     13.7429E-03     111.122E-03    -17.5578E+06     135.375E+06     75.4842E+06     1.61158E+06    -106.248E-03     213.754E-03    -107.506E-03     108.463E-03    -109.574E-03     217.279E-03    -107.299E-03     102.581E-03
             974     14.5530E-03     111.218E-03    -11.2628E+06     140.302E+06     97.8224E+06     439.536E+03    -105.532E-03     213.074E-03    -107.542E-03     89.5778E-03    -108.475E-03     216.191E-03    -107.240E-03     84.0180E-03
             975     15.3613E-03     111.309E-03    -5.45260E+06     139.677E+06     105.947E+06     754.378E+03    -105.551E-03     213.078E-03    -107.527E-03     51.9718E-03    -107.475E-03     215.172E-03    -107.192E-03     47.7128E-03
             976     807.761E-06     110.525E-03    -106.282E+06    -232.203E+06    -103.395E+06    -2.09000E+06    -108.245E-03     216.521E-03    -108.276E-03     16.2766E-03    -108.302E-03     215.676E-03    -108.302E-03     15.9397E-03
             977     1.61518E-03     110.550E-03    -102.826E+06    -225.445E+06    -94.1046E+06    -4.12273E+06    -108.429E-03     216.689E-03    -108.260E-03     29.3253E-03    -108.519E-03     215.886E-03    -108.254E-03     28.6901E-03
             978     2.42299E-03     110.590E-03    -97.5541E+06    -213.881E+06    -81.9123E+06    -6.03904E+06    -108.568E-03     216.845E-03    -108.277E-03     43.2693E-03    -108.712E-03     216.121E-03    -108.235E-03     42.3032E-03
             979     3.23070E-03     110.646E-03    -91.6899E+06    -200.561E+06    -68.5794E+06    -8.20608E+06    -108.751E-03     217.026E-03    -108.275E-03     56.8013E-03    -108.973E-03     216.409E-03    -108.194E-03     55.4760E-03
             980     4.03880E-03     110.716E-03    -84.6698E+06    -186.258E+06    -55.3158E+06    -10.4851E+06    -108.965E-03     217.218E-03    -108.253E-03     69.7822E-03    -109.287E-03     216.738E-03    -108.137E-03     68.0647E-03
             981     4.84665E-03     110.800E-03    -77.9030E+06    -172.625E+06    -44.3416E+06    -12.2635E+06    -109.190E-03     217.399E-03    -108.209E-03     82.2574E-03    -109.639E-03     217.087E-03    -108.067E-03     80.1193E-03
             982     5.65507E-03     110.898E-03    -71.6915E+06    -159.351E+06    -35.4706E+06    -13.7899E+06    -109.452E-03     217.599E-03    -108.147E-03     94.0950E-03    -110.065E-03     217.494E-03    -107.989E-03     91.4996E-03
             983     6.46339E-03     111.007E-03    -64.8915E+06    -146.904E+06    -27.2574E+06    -15.3871E+06    -109.704E-03     217.781E-03    -108.077E-03     105.190E-03    -110.516E-03     217.921E-03    -107.906E-03     102.097E-03
             984     7.27170E-03     111.128E-03    -59.0716E+06    -132.117E+06    -20.3628E+06    -16.4120E+06    -109.802E-03     217.793E-03    -107.991E-03     115.404E-03    -110.868E-03     218.239E-03    -107.815E-03     111.786E-03
             985     8.08100E-03     111.258E-03    -54.0196E+06    -117.571E+06    -14.9817E+06    -16.4694E+06    -109.852E-03     217.741E-03    -107.888E-03     124.467E-03    -111.227E-03     218.550E-03    -107.714E-03     120.300E-03
             986     8.88967E-03     111.398E-03    -49.2952E+06    -100.978E+06    -10.4900E+06    -16.3796E+06    -109.893E-03     217.672E-03    -107.778E-03     132.309E-03    -111.640E-03     218.915E-03    -107.613E-03     127.563E-03
             987     9.69875E-03     111.545E-03    -44.7329E+06    -80.0820E+06    -5.86648E+06    -16.0554E+06    -109.874E-03     217.543E-03    -107.669E-03     139.347E-03    -112.071E-03     219.314E-03    -107.518E-03     134.004E-03
             988     10.5080E-03     111.698E-03    -40.1993E+06    -50.6876E+06     684.253E+03    -14.7757E+06    -109.733E-03     217.298E-03    -107.565E-03     145.581E-03    -112.470E-03     219.711E-03    -107.430E-03     139.654E-03
             989     11.3170E-03     111.857E-03    -35.3547E+06    -10.9387E+06     11.3620E+06    -12.2693E+06    -109.200E-03     216.668E-03    -107.469E-03     148.418E-03    -112.473E-03     219.745E-03    -107.345E-03     142.053E-03
             990     12.1265E-03     112.014E-03    -30.1556E+06     48.6836E+06     22.1755E+06    -6.78009E+06    -108.332E-03     215.674E-03    -107.342E-03     145.071E-03    -111.996E-03     219.339E-03    -107.258E-03     138.562E-03
             991     12.9362E-03     112.165E-03    -24.2689E+06     111.832E+06     44.1655E+06    -1.41202E+06    -107.417E-03     214.691E-03    -107.274E-03     133.653E-03    -111.176E-03     218.633E-03    -107.180E-03     127.305E-03
             992     13.7456E-03     112.296E-03    -18.0651E+06     136.571E+06     71.6048E+06     283.351E+03    -106.530E-03     213.840E-03    -107.310E-03     110.088E-03    -109.865E-03     217.388E-03    -107.124E-03     104.192E-03
             993     14.5537E-03     112.394E-03    -12.3271E+06     140.061E+06     95.1235E+06     731.991E+03    -105.796E-03     213.170E-03    -107.375E-03     91.7724E-03    -108.759E-03     216.311E-03    -107.084E-03     86.2155E-03
             994     15.3631E-03     112.484E-03    -6.15326E+06     139.538E+06     106.429E+06     654.220E+03    -105.496E-03     212.881E-03    -107.385E-03     54.0739E-03    -107.438E-03     214.988E-03    -107.047E-03     49.8126E-03
             995     807.418E-06     111.702E-03    -104.284E+06    -226.221E+06    -102.369E+06    -2.15904E+06    -108.179E-03     216.491E-03    -108.313E-03     16.2886E-03    -108.236E-03     215.672E-03    -108.345E-03     15.9511E-03
             996     1.61549E-03     111.726E-03    -100.913E+06    -219.261E+06    -92.4424E+06    -4.17304E+06    -108.269E-03     216.484E-03    -108.215E-03     29.4094E-03    -108.360E-03     215.707E-03    -108.213E-03     28.7759E-03
             997     2.42317E-03     111.767E-03    -95.9428E+06    -207.545E+06    -80.2068E+06    -6.68730E+06    -108.449E-03     216.645E-03    -108.197E-03     43.3510E-03    -108.596E-03     215.948E-03    -108.158E-03     42.3835E-03
             998     3.23105E-03     111.822E-03    -89.4273E+06    -193.697E+06    -67.2208E+06    -9.41199E+06    -108.609E-03     216.786E-03    -108.177E-03     56.9708E-03    -108.831E-03     216.197E-03    -108.102E-03     55.6397E-03
             999     4.03895E-03     111.892E-03    -83.0606E+06    -180.423E+06    -54.5541E+06    -11.3878E+06    -108.778E-03     216.916E-03    -108.138E-03     70.0995E-03    -109.099E-03     216.461E-03    -108.029E-03     68.3848E-03
            1000     4.84726E-03     111.976E-03    -76.9340E+06    -167.105E+06    -43.3931E+06    -13.2625E+06    -108.964E-03     217.042E-03    -108.077E-03     82.6690E-03    -109.416E-03     216.753E-03    -107.940E-03     80.5366E-03
            1001     5.65575E-03     112.073E-03    -70.4539E+06    -153.717E+06    -34.2220E+06    -15.6128E+06    -109.151E-03     217.144E-03    -107.993E-03     94.6156E-03    -109.763E-03     217.060E-03    -107.839E-03     92.0237E-03
            1002     6.46432E-03     112.183E-03    -64.7968E+06    -142.512E+06    -27.1676E+06    -17.0785E+06    -109.303E-03     217.195E-03    -107.892E-03     105.850E-03    -110.115E-03     217.350E-03    -107.728E-03     102.772E-03
            1003     7.27349E-03     112.302E-03    -59.5374E+06    -128.511E+06    -20.8235E+06    -17.9680E+06    -109.399E-03     217.174E-03    -107.775E-03     116.171E-03    -110.464E-03     217.632E-03    -107.606E-03     112.576E-03
            1004     8.08237E-03     112.433E-03    -54.0904E+06    -115.542E+06    -15.2819E+06    -18.3472E+06    -109.503E-03     217.155E-03    -107.652E-03     125.464E-03    -110.872E-03     217.966E-03    -107.482E-03     121.320E-03
            1005     8.89180E-03     112.572E-03    -48.6124E+06    -98.7949E+06    -10.3171E+06    -18.3362E+06    -109.570E-03     217.095E-03    -107.525E-03     133.606E-03    -111.307E-03     218.339E-03    -107.363E-03     128.886E-03
            1006     9.70129E-03     112.719E-03    -43.7889E+06    -79.6493E+06    -5.56247E+06    -17.7932E+06    -109.507E-03     216.907E-03    -107.400E-03     140.950E-03    -111.691E-03     218.669E-03    -107.249E-03     135.645E-03
            1007     10.5106E-03     112.872E-03    -39.4242E+06    -51.3552E+06     813.806E+03    -16.4912E+06    -109.296E-03     216.571E-03    -107.275E-03     147.507E-03    -112.017E-03     218.967E-03    -107.139E-03     141.634E-03
            1008     11.3206E-03     113.031E-03    -35.0639E+06    -14.4154E+06     11.3649E+06    -14.2762E+06    -108.967E-03     216.132E-03    -107.165E-03     150.568E-03    -112.226E-03     219.182E-03    -107.037E-03     144.245E-03
            1009     12.1302E-03     113.189E-03    -29.8440E+06     38.9547E+06     20.6383E+06    -9.88678E+06    -108.425E-03     215.467E-03    -107.042E-03     147.309E-03    -112.073E-03     219.087E-03    -106.952E-03     140.803E-03
            1010     12.9399E-03     113.339E-03    -23.9048E+06     105.774E+06     42.1283E+06    -4.16830E+06    -107.431E-03     214.408E-03    -106.977E-03     135.680E-03    -111.178E-03     218.324E-03    -106.885E-03     129.340E-03
            1011     13.7492E-03     113.472E-03    -18.3005E+06     135.014E+06     67.5719E+06    -486.522E+03    -106.463E-03     213.468E-03    -107.004E-03     112.439E-03    -109.795E-03     217.018E-03    -106.836E-03     106.582E-03
            1012     14.5589E-03     113.568E-03    -12.2963E+06      139.76E+06     91.6828E+06     258.983E+03    -106.073E-03     213.158E-03    -107.085E-03     93.5391E-03    -109.041E-03     216.312E-03    -106.811E-03     87.9780E-03
            1013     15.3689E-03     113.658E-03    -5.88681E+06     140.156E+06     106.893E+06     34.6713E+03    -106.351E-03     213.505E-03    -107.155E-03     54.9306E-03    -108.304E-03     215.626E-03    -106.815E-03     50.6132E-03
            1014     807.824E-06     112.878E-03    -103.374E+06    -219.632E+06    -100.853E+06    -2.81742E+06    -108.099E-03     216.200E-03    -108.101E-03     16.2072E-03    -108.163E-03     215.410E-03    -108.137E-03     15.8651E-03
            1015     1.61542E-03     112.903E-03    -99.3314E+06    -212.767E+06    -91.4481E+06    -4.74033E+06    -108.114E-03     216.179E-03    -108.065E-03     29.5753E-03    -108.207E-03     215.429E-03    -108.070E-03     28.9418E-03
            1016     2.42345E-03     112.943E-03    -94.1278E+06    -200.014E+06    -78.4675E+06    -7.39919E+06    -108.169E-03     216.195E-03    -108.026E-03     43.5606E-03    -108.319E-03     215.528E-03    -107.992E-03     42.5953E-03
            1017     3.23160E-03     112.998E-03    -88.3036E+06    -186.534E+06    -65.3568E+06    -10.2171E+06    -108.261E-03     216.231E-03    -107.970E-03     57.3065E-03    -108.489E-03     215.672E-03    -107.898E-03     55.9827E-03
            1018     4.04000E-03     113.068E-03    -81.8298E+06    -174.259E+06    -53.1261E+06    -12.5084E+06    -108.403E-03     216.299E-03    -107.897E-03     70.6047E-03    -108.726E-03     215.868E-03    -107.791E-03     68.8997E-03
            1019     4.84860E-03     113.151E-03    -75.0711E+06    -160.767E+06    -42.0013E+06    -14.6493E+06    -108.582E-03     216.387E-03    -107.806E-03     83.3731E-03    -109.031E-03     216.121E-03    -107.674E-03     81.2553E-03
            1020     5.65714E-03     113.248E-03    -69.0288E+06    -148.284E+06    -32.8293E+06    -16.1549E+06    -108.685E-03     216.380E-03    -107.695E-03     95.4835E-03    -109.294E-03     216.313E-03    -107.544E-03     92.9255E-03
            1021     6.46652E-03     113.356E-03    -63.6687E+06     -137.12E+06    -25.6175E+06    -17.6960E+06    -108.727E-03     216.287E-03    -107.560E-03     106.917E-03    -109.536E-03     216.457E-03    -107.397E-03     103.883E-03
            1022     7.27575E-03     113.477E-03    -58.3358E+06    -124.084E+06    -19.9582E+06    -19.2928E+06    -108.837E-03     216.242E-03    -107.405E-03     117.585E-03    -109.895E-03     216.710E-03    -107.240E-03     114.034E-03
            1023     8.08557E-03     113.607E-03    -53.2027E+06    -112.699E+06    -14.7487E+06    -20.1845E+06    -108.961E-03     216.213E-03    -107.251E-03     127.322E-03    -110.320E-03     217.025E-03    -107.085E-03     123.225E-03
            1024     8.89540E-03     113.746E-03    -48.3216E+06    -96.3195E+06    -9.86788E+06    -20.5427E+06    -108.982E-03     216.077E-03    -107.095E-03     135.855E-03    -110.709E-03     217.319E-03    -106.935E-03     131.195E-03
            1025     9.70524E-03     113.892E-03    -43.3991E+06    -79.6254E+06    -4.92332E+06    -19.8233E+06    -108.923E-03     215.868E-03    -106.945E-03     143.504E-03    -111.093E-03     217.616E-03    -106.792E-03     138.268E-03
            1026     10.5159E-03     114.045E-03    -38.6723E+06    -51.5022E+06     1.26075E+06    -18.3016E+06    -108.841E-03     215.637E-03    -106.795E-03     150.304E-03    -111.544E-03     218.015E-03    -106.658E-03     144.509E-03
            1027     11.3259E-03     114.204E-03    -33.7251E+06    -17.0020E+06     12.4718E+06    -16.3872E+06    -108.748E-03     215.431E-03    -106.683E-03     153.612E-03    -111.989E-03     218.456E-03    -106.547E-03     147.349E-03
            1028     12.1360E-03     114.363E-03    -28.6079E+06     31.9905E+06     20.9259E+06    -12.4954E+06    -108.440E-03     215.009E-03    -106.569E-03     150.640E-03    -112.071E-03     218.591E-03    -106.469E-03     144.172E-03
            1029     12.9450E-03     114.514E-03    -23.2493E+06     97.8552E+06     41.3256E+06    -6.80342E+06    -107.747E-03     214.271E-03    -106.524E-03     139.084E-03    -111.489E-03     218.157E-03    -106.425E-03     132.758E-03
            1030     13.7552E-03     114.644E-03    -16.9548E+06     130.385E+06     64.4177E+06    -1.63077E+06    -106.965E-03     213.536E-03    -106.571E-03     115.072E-03    -110.288E-03     217.075E-03    -106.413E-03     109.223E-03
            1031     14.5642E-03     114.744E-03    -11.0534E+06     140.272E+06     88.6139E+06     86.4377E+03    -106.964E-03     213.662E-03    -106.698E-03     95.7923E-03    -109.931E-03     216.831E-03    -106.442E-03     90.2142E-03
            1032     15.3702E-03     114.834E-03    -5.73038E+06     140.255E+06     107.274E+06    -218.094E+03    -107.649E-03     214.509E-03    -106.860E-03     56.9173E-03    -109.619E-03     216.646E-03    -106.518E-03     52.5356E-03
            1033     807.905E-06     114.054E-03    -100.895E+06    -212.162E+06    -99.0099E+06    -2.89083E+06    -107.796E-03     215.504E-03    -107.708E-03     16.3027E-03    -107.861E-03     214.745E-03    -107.749E-03     15.9685E-03
            1034     1.61607E-03     114.078E-03    -97.8102E+06    -205.221E+06    -90.4170E+06    -6.04552E+06    -107.765E-03     215.476E-03    -107.710E-03     29.9122E-03    -107.863E-03     214.760E-03    -107.723E-03     29.2721E-03
            1035     2.42426E-03     114.118E-03    -92.3362E+06    -192.696E+06    -77.5507E+06    -8.32226E+06    -107.740E-03     215.397E-03    -107.657E-03     44.0593E-03    -107.892E-03     214.762E-03    -107.631E-03     43.1004E-03
            1036     3.23277E-03     114.173E-03    -86.3220E+06    -178.926E+06    -62.9448E+06    -10.6642E+06    -107.746E-03     215.323E-03    -107.577E-03     57.8795E-03    -107.976E-03     214.794E-03    -107.507E-03     56.5764E-03
            1037     4.04160E-03     114.242E-03    -79.8494E+06    -166.930E+06    -50.6943E+06    -13.7608E+06    -107.819E-03     215.287E-03    -107.468E-03     71.3842E-03    -108.144E-03     214.882E-03    -107.364E-03     69.6998E-03
            1038     4.85050E-03     114.326E-03    -73.4006E+06    -154.740E+06    -40.4689E+06    -15.7315E+06    -107.876E-03     215.209E-03    -107.332E-03     84.4203E-03    -108.322E-03     214.962E-03    -107.204E-03     82.3382E-03
            1039     5.66023E-03     114.422E-03    -67.1876E+06    -142.914E+06    -31.1263E+06    -16.9785E+06    -107.895E-03     215.069E-03    -107.174E-03     96.8138E-03    -108.496E-03     215.015E-03    -107.025E-03     94.3086E-03
            1040     6.46971E-03     114.530E-03    -61.0682E+06    -131.251E+06    -23.3375E+06    -18.4961E+06    -107.921E-03     214.914E-03    -106.993E-03     108.697E-03    -108.717E-03     215.095E-03    -106.831E-03     105.729E-03
            1041     7.28017E-03     114.649E-03    -55.7637E+06    -118.996E+06    -17.4682E+06    -20.0520E+06    -107.984E-03     214.779E-03    -106.794E-03     119.902E-03    -109.026E-03     215.250E-03    -106.628E-03     116.435E-03
            1042     8.09061E-03     114.779E-03    -50.9720E+06    -108.966E+06    -12.5744E+06    -21.2050E+06    -108.071E-03     214.667E-03    -106.597E-03     130.065E-03    -109.410E-03     215.475E-03    -106.428E-03     126.065E-03
            1043     8.90124E-03     114.918E-03    -46.5155E+06    -93.2360E+06    -8.04053E+06    -21.7235E+06    -108.108E-03     214.506E-03    -106.398E-03     139.115E-03    -109.813E-03     215.738E-03    -106.236E-03     134.565E-03
            1044     9.71260E-03     115.064E-03    -42.2108E+06    -78.9390E+06    -3.05614E+06    -21.5437E+06    -108.255E-03     214.477E-03    -106.222E-03     147.158E-03    -110.404E-03     216.204E-03    -106.062E-03     142.027E-03
            1045     10.5231E-03     115.218E-03    -37.7023E+06    -51.6742E+06     2.50717E+06    -20.4000E+06    -108.429E-03     214.489E-03    -106.060E-03     154.203E-03    -111.112E-03     216.847E-03    -105.917E-03     148.501E-03
            1046     11.3341E-03     115.377E-03    -32.8795E+06    -18.4717E+06     14.4106E+06    -18.9031E+06    -108.513E-03     214.469E-03    -105.956E-03     158.079E-03    -111.742E-03     217.473E-03    -105.810E-03     151.901E-03
            1047     12.1443E-03     115.536E-03    -27.3275E+06     25.9397E+06     22.5182E+06    -15.3487E+06    -108.449E-03     214.311E-03    -105.862E-03     155.114E-03    -112.063E-03     217.855E-03    -105.747E-03     148.713E-03
            1048     12.9553E-03     115.687E-03    -21.8809E+06     88.8914E+06     42.3916E+06    -8.35027E+06    -108.371E-03     214.229E-03    -105.859E-03     143.471E-03    -112.100E-03     218.074E-03    -105.744E-03     137.182E-03
            1049     13.7628E-03     115.821E-03    -17.4416E+06     125.171E+06     61.4317E+06    -2.67944E+06    -108.471E-03     214.439E-03    -105.968E-03     119.117E-03    -111.811E-03     217.983E-03    -105.817E-03     113.230E-03
            1050     14.5705E-03     115.918E-03    -12.0542E+06     140.090E+06     84.1339E+06    -651.898E+03    -108.696E-03     214.889E-03    -106.193E-03     99.2166E-03    -111.698E-03     218.101E-03    -105.958E-03     93.5560E-03
            1051     15.3800E-03     116.013E-03    -5.81681E+06     139.726E+06     108.044E+06    -220.076E+03    -109.559E-03     216.054E-03    -106.495E-03     58.9020E-03    -111.553E-03     218.210E-03    -106.149E-03     54.4364E-03
            1052     808.508E-06     115.229E-03    -97.8279E+06    -203.866E+06    -95.8226E+06    -3.28278E+06    -107.153E-03     214.237E-03    -107.084E-03     16.5736E-03    -107.219E-03     213.510E-03    -107.125E-03     16.2431E-03
            1053     1.61702E-03     115.253E-03    -94.4255E+06    -195.701E+06    -86.8712E+06    -6.54497E+06    -107.088E-03     214.154E-03    -107.066E-03     30.3213E-03    -107.187E-03     213.475E-03    -107.079E-03     29.6919E-03
            1054     2.42580E-03     115.293E-03    -89.6123E+06    -185.032E+06    -74.9731E+06    -9.80357E+06    -107.042E-03     214.034E-03    -106.993E-03     44.7112E-03    -107.194E-03     213.429E-03    -106.969E-03     43.7595E-03
            1055     3.23489E-03     115.347E-03    -82.9626E+06    -171.810E+06    -61.2234E+06    -11.8710E+06    -106.980E-03     213.865E-03    -106.885E-03     58.8654E-03    -107.202E-03     213.360E-03    -106.821E-03     57.5864E-03
            1056     4.04422E-03     115.416E-03    -76.7332E+06    -158.962E+06    -47.8855E+06    -13.9543E+06    -106.899E-03     213.638E-03    -106.740E-03     72.7229E-03    -107.217E-03     213.259E-03    -106.638E-03     71.0913E-03
            1057     4.85435E-03     115.498E-03    -70.6828E+06    -148.171E+06    -37.5695E+06    -16.4461E+06    -106.789E-03     213.339E-03    -106.550E-03     86.1001E-03    -107.227E-03     213.108E-03    -106.420E-03     84.0818E-03
            1058     5.66444E-03     115.594E-03    -64.3208E+06    -136.988E+06    -28.9088E+06    -18.2975E+06    -106.705E-03     213.028E-03    -106.323E-03     98.9980E-03    -107.291E-03     212.983E-03    -106.176E-03     96.5697E-03
            1059     6.47573E-03     115.701E-03    -58.3366E+06    -125.791E+06    -20.8218E+06    -19.8060E+06    -106.711E-03     212.791E-03    -106.081E-03     111.395E-03    -107.489E-03     212.976E-03    -105.918E-03     108.523E-03
            1060     7.28685E-03     115.820E-03    -52.6481E+06    -114.342E+06    -14.1862E+06    -20.7730E+06    -106.758E-03     212.588E-03    -105.830E-03     123.178E-03    -107.776E-03     213.054E-03    -105.659E-03     119.831E-03
            1061     8.09855E-03     115.950E-03    -47.8202E+06    -104.275E+06    -9.20372E+06    -21.7145E+06    -106.841E-03     212.421E-03    -105.580E-03     133.924E-03    -108.152E-03     213.219E-03    -105.406E-03     130.068E-03
            1062     8.91090E-03     116.088E-03    -43.5948E+06    -90.3061E+06    -5.00315E+06    -22.2924E+06    -107.058E-03     212.400E-03    -105.342E-03     143.419E-03    -108.730E-03     213.611E-03    -105.173E-03     139.023E-03
            1063     9.72256E-03     116.235E-03    -39.5467E+06    -76.5448E+06     472.914E+03    -22.2487E+06    -107.385E-03     212.531E-03    -105.146E-03     152.057E-03    -109.500E-03     214.232E-03    -104.975E-03     147.090E-03
            1064     10.5346E-03     116.389E-03    -35.4627E+06    -51.0365E+06     5.69323E+06    -21.8201E+06    -107.895E-03     212.874E-03    -104.979E-03     159.850E-03    -110.554E-03     215.209E-03    -104.825E-03     154.291E-03
            1065     11.3460E-03     116.548E-03    -31.1289E+06    -18.9515E+06     17.7476E+06    -20.3956E+06    -108.460E-03     213.359E-03    -104.899E-03     163.902E-03    -111.674E-03     216.343E-03    -104.738E-03     157.841E-03
            1066     12.1573E-03     116.709E-03    -27.3303E+06     20.9153E+06     25.8674E+06    -17.1181E+06    -108.997E-03     213.865E-03    -104.868E-03     160.823E-03    -112.609E-03     217.380E-03    -104.729E-03     154.496E-03
            1067     12.9656E-03     116.861E-03    -23.1776E+06     77.2363E+06     43.3906E+06    -9.78829E+06    -109.515E-03     214.467E-03    -104.952E-03     149.064E-03    -113.254E-03     218.273E-03    -104.814E-03     142.797E-03
            1068     13.7752E-03     116.997E-03    -17.6913E+06     120.596E+06     59.0187E+06    -3.16818E+06    -110.288E-03     215.439E-03    -105.151E-03     124.582E-03    -113.651E-03     218.996E-03    -105.005E-03     118.674E-03
            1069     14.5804E-03     117.098E-03    -12.5336E+06     140.295E+06     80.4248E+06    -1.62100E+06    -111.571E-03     217.093E-03    -105.522E-03     103.990E-03    -114.627E-03     220.369E-03    -105.305E-03     98.1879E-03
            1070     15.3824E-03     117.191E-03    -6.51565E+06     138.026E+06     107.556E+06    -974.781E+03    -112.894E-03     218.928E-03    -106.033E-03     62.5360E-03    -114.943E-03     221.131E-03    -105.686E-03     57.8774E-03
            1071     809.192E-06     116.402E-03    -93.9978E+06    -194.324E+06    -92.0861E+06    -3.79748E+06    -106.144E-03     212.206E-03    -106.063E-03     16.8732E-03    -106.209E-03     211.516E-03    -106.105E-03     16.5478E-03
            1072     1.61864E-03     116.426E-03    -90.6946E+06    -186.104E+06    -83.2937E+06    -6.95146E+06    -106.023E-03     212.059E-03    -106.036E-03     30.9033E-03    -106.122E-03     211.416E-03    -106.051E-03     30.2954E-03
            1073     2.42830E-03     116.465E-03    -85.6868E+06    -175.293E+06    -71.1196E+06    -10.3449E+06    -105.874E-03     211.804E-03    -105.930E-03     45.6412E-03    -106.023E-03     211.233E-03    -105.907E-03     44.7247E-03
            1074     3.23828E-03     116.519E-03    -79.9822E+06    -164.390E+06    -58.6765E+06    -13.3361E+06    -105.693E-03     211.463E-03    -105.771E-03     60.2626E-03    -105.910E-03     210.983E-03    -105.710E-03     59.0231E-03
            1075     4.04897E-03     116.587E-03    -73.3026E+06    -152.081E+06    -46.0401E+06    -14.9773E+06    -105.454E-03     211.014E-03    -105.560E-03     74.6046E-03    -105.761E-03     210.653E-03    -105.463E-03     73.0396E-03
            1076     4.85988E-03     116.669E-03    -66.8742E+06    -140.571E+06    -34.3816E+06    -17.0470E+06    -105.215E-03     210.517E-03    -105.302E-03     88.5523E-03    -105.637E-03     210.302E-03    -105.173E-03     86.6295E-03
            1077     5.67212E-03     116.763E-03    -60.8523E+06    -130.630E+06    -25.5304E+06    -19.4400E+06    -105.068E-03     210.074E-03    -105.006E-03     102.075E-03    -105.634E-03     210.034E-03    -104.856E-03     99.7575E-03
            1078     6.48419E-03     116.870E-03    -54.8677E+06    -120.349E+06    -17.8220E+06    -20.9221E+06    -105.007E-03     209.700E-03    -104.693E-03     115.158E-03    -105.758E-03     209.881E-03    -104.528E-03     112.424E-03
            1079     7.29724E-03     116.989E-03    -49.4964E+06    -110.123E+06    -11.2953E+06    -21.7846E+06    -105.057E-03     209.435E-03    -104.378E-03     127.654E-03    -106.041E-03     209.886E-03    -104.203E-03     124.472E-03
            1080     8.11079E-03     117.118E-03    -44.2929E+06    -99.6087E+06    -5.56505E+06    -22.4839E+06    -105.326E-03     209.406E-03    -104.080E-03     139.141E-03    -106.600E-03     210.185E-03    -103.899E-03     135.470E-03
            1081     8.92382E-03     117.256E-03    -39.6324E+06    -87.5249E+06     -954.48E+03    -22.5957E+06    -105.734E-03     209.548E-03    -103.814E-03     149.408E-03    -107.363E-03     210.728E-03    -103.634E-03     145.216E-03
            1082     9.73755E-03     117.403E-03    -35.5510E+06    -73.6411E+06     4.60733E+06    -22.3356E+06    -106.363E-03     209.967E-03    -103.605E-03     158.731E-03    -108.435E-03     211.639E-03    -103.423E-03     153.975E-03
            1083     10.5508E-03     117.557E-03    -31.9647E+06    -49.1793E+06     10.3621E+06    -21.8399E+06    -107.437E-03     210.896E-03    -103.458E-03     167.037E-03    -110.063E-03     213.203E-03    -103.289E-03     161.671E-03
            1084     11.3630E-03     117.719E-03    -28.9795E+06    -19.0027E+06     22.0329E+06    -19.9792E+06    -108.767E-03     212.206E-03    -103.439E-03     171.252E-03    -111.966E-03     215.171E-03    -103.259E-03     165.346E-03
            1085     12.1731E-03     117.881E-03    -26.0655E+06     16.3302E+06     30.2647E+06    -16.1199E+06    -110.193E-03     213.714E-03    -103.521E-03     168.357E-03    -113.817E-03     217.216E-03    -103.356E-03     162.119E-03
            1086     12.9832E-03     118.037E-03    -22.2995E+06     67.0797E+06     46.6413E+06    -10.1527E+06    -111.674E-03     215.435E-03    -103.761E-03     156.109E-03    -115.442E-03     219.228E-03    -103.593E-03     149.828E-03
            1087     13.7884E-03     118.174E-03    -17.2232E+06     115.534E+06     57.7785E+06    -4.77504E+06    -113.109E-03     217.229E-03    -104.120E-03     130.577E-03    -116.506E-03     220.808E-03    -103.974E-03     124.580E-03
            1088     14.5932E-03     118.279E-03    -11.0778E+06     139.500E+06     78.1480E+06    -2.38879E+06    -115.121E-03     219.814E-03    -104.693E-03     109.206E-03    -118.219E-03     223.141E-03    -104.488E-03     103.245E-03
            1089     15.3961E-03     118.377E-03    -5.11906E+06     136.490E+06     107.399E+06    -1.26493E+06    -117.930E-03     223.402E-03    -105.472E-03     66.1059E-03    -120.013E-03     225.640E-03    -105.125E-03     61.2222E-03
            1090     810.531E-06     117.572E-03    -90.3391E+06    -183.977E+06    -88.1642E+06    -4.13978E+06    -104.605E-03     209.105E-03    -104.500E-03     17.2841E-03    -104.673E-03     208.455E-03    -104.543E-03     16.9716E-03
            1091     1.62101E-03     117.596E-03    -86.7054E+06    -175.697E+06    -79.6990E+06    -7.84040E+06    -104.376E-03     208.836E-03    -104.460E-03     31.8358E-03    -104.474E-03     208.232E-03    -104.478E-03     31.2531E-03
            1092     2.43203E-03     117.634E-03    -81.8522E+06    -165.632E+06    -68.2528E+06    -11.1795E+06    -104.095E-03     208.394E-03    -104.299E-03     46.9843E-03    -104.240E-03     207.857E-03    -104.281E-03     46.1152E-03
            1093     3.24367E-03     117.687E-03    -76.1476E+06    -155.511E+06    -55.5359E+06    -13.9957E+06    -103.731E-03     207.801E-03    -104.070E-03     62.1972E-03    -103.940E-03     207.348E-03    -104.012E-03     61.0320E-03
            1094     4.05576E-03     117.754E-03    -70.3294E+06    -145.114E+06    -43.7255E+06    -16.3502E+06    -103.357E-03     207.133E-03    -103.776E-03     77.1294E-03    -103.651E-03     206.788E-03    -103.682E-03     75.6539E-03
            1095     4.86915E-03     117.835E-03    -63.8528E+06    -133.425E+06    -32.2600E+06    -18.2947E+06    -103.029E-03     206.465E-03    -103.436E-03     91.7943E-03    -103.433E-03     206.261E-03    -103.311E-03     89.9915E-03
            1096     5.68247E-03     117.929E-03    -57.6513E+06    -123.622E+06    -22.6011E+06    -20.2333E+06    -102.810E-03     205.876E-03    -103.066E-03     106.146E-03    -103.352E-03     205.840E-03    -102.916E-03     103.983E-03
            1097     6.49720E-03     118.035E-03    -52.4695E+06    -114.925E+06    -15.4015E+06    -21.6254E+06    -102.705E-03     205.385E-03    -102.680E-03     120.085E-03    -103.425E-03     205.555E-03    -102.514E-03     117.537E-03
            1098     7.31231E-03     118.152E-03    -47.4139E+06    -105.270E+06    -8.79069E+06    -22.6837E+06    -102.876E-03     205.179E-03    -102.302E-03     133.531E-03    -103.824E-03     205.610E-03    -102.125E-03     130.560E-03
            1099     8.12739E-03     118.282E-03    -42.9638E+06    -95.5103E+06    -3.24172E+06    -23.3993E+06    -103.321E-03     205.280E-03    -101.959E-03     146.038E-03    -104.555E-03     206.032E-03    -101.775E-03     142.600E-03
            1100     8.94325E-03     118.420E-03    -38.8158E+06    -85.2499E+06     1.39088E+06    -23.0475E+06    -104.123E-03     205.798E-03    -101.675E-03     157.164E-03    -105.710E-03     206.940E-03    -101.488E-03     153.221E-03
            1101     9.75835E-03     118.568E-03    -35.1465E+06    -70.6011E+06     6.92769E+06    -22.6136E+06    -105.540E-03     207.027E-03    -101.488E-03     167.160E-03    -107.582E-03     208.674E-03    -101.300E-03     162.633E-03
            1102     10.5722E-03     118.724E-03    -32.2056E+06    -48.5360E+06     13.0913E+06    -21.1608E+06    -107.419E-03     208.841E-03    -101.423E-03     175.741E-03    -110.026E-03     211.124E-03    -101.240E-03     170.581E-03
            1103     11.3849E-03     118.888E-03    -29.5929E+06    -19.2825E+06     24.7493E+06    -18.5211E+06    -109.614E-03     211.139E-03    -101.525E-03     180.040E-03    -112.819E-03     214.099E-03    -101.331E-03     174.289E-03
            1104     12.1960E-03     119.054E-03    -26.6387E+06     12.0411E+06     33.5167E+06    -15.2156E+06    -112.358E-03     214.150E-03    -101.793E-03     176.878E-03    -116.020E-03     217.664E-03    -101.604E-03     170.676E-03
            1105     13.0019E-03     119.213E-03     -22.644E+06     60.3280E+06     49.5536E+06    -10.1964E+06    -115.030E-03     217.302E-03    -102.272E-03     163.640E-03    -118.856E-03     221.119E-03    -102.079E-03     157.273E-03
            1106     13.8067E-03     119.356E-03    -17.6594E+06     113.214E+06     59.9286E+06    -6.61762E+06    -117.573E-03     220.481E-03    -102.907E-03     137.084E-03    -121.052E-03     224.125E-03    -102.746E-03     130.869E-03
            1107     14.6062E-03     119.463E-03    -12.1097E+06     135.572E+06     77.0678E+06    -4.37452E+06    -120.724E-03     224.517E-03    -103.793E-03     113.888E-03    -123.906E-03     227.915E-03    -103.587E-03     107.579E-03
            1108     15.4023E-03     119.567E-03    -6.14163E+06     133.305E+06     105.001E+06    -1.46903E+06    -124.219E-03     229.130E-03    -104.911E-03     68.6871E-03    -126.354E-03     231.412E-03    -104.570E-03     63.4819E-03
            1109     812.044E-06     118.737E-03    -85.1144E+06    -172.345E+06    -84.3920E+06    -4.96631E+06    -102.428E-03     204.520E-03    -102.092E-03     17.8369E-03    -102.492E-03     203.914E-03    -102.141E-03     17.5378E-03
            1110     1.62486E-03     118.761E-03    -82.6861E+06    -164.476E+06    -76.6540E+06    -8.44150E+06    -101.907E-03     204.027E-03    -102.120E-03     33.0548E-03    -102.003E-03     203.467E-03    -102.145E-03     32.5141E-03
            1111     2.43772E-03     118.799E-03    -78.5991E+06    -155.726E+06    -66.0591E+06    -11.9383E+06    -101.510E-03     203.393E-03    -101.883E-03     48.8486E-03    -101.651E-03     202.892E-03    -101.873E-03     48.0450E-03
            1112     3.25147E-03     118.851E-03    -73.7744E+06    -146.745E+06    -54.1614E+06    -14.5676E+06    -101.018E-03     202.597E-03    -101.579E-03     64.7473E-03    -101.220E-03     202.173E-03    -101.530E-03     63.6802E-03
            1113     4.06622E-03     118.917E-03    -67.9825E+06    -136.710E+06    -41.6976E+06    -17.1668E+06    -100.516E-03     201.728E-03    -101.212E-03     80.4226E-03    -100.798E-03     201.404E-03    -101.123E-03     79.0735E-03
            1114     4.88131E-03     118.996E-03    -62.3183E+06    -126.402E+06    -31.3283E+06    -19.3570E+06    -100.073E-03     200.861E-03    -100.788E-03     96.0049E-03    -100.458E-03     200.667E-03    -100.671E-03     94.3583E-03
            1115     5.69807E-03     119.089E-03    -57.1664E+06    -117.398E+06    -22.0392E+06    -20.6512E+06    -99.7673E-03     200.104E-03    -100.337E-03     111.356E-03    -100.286E-03     200.067E-03    -100.194E-03     109.395E-03
            1116     6.51505E-03     119.194E-03    -52.1024E+06    -109.016E+06    -13.9584E+06    -22.0214E+06    -99.7962E-03     199.681E-03    -99.8853E-03     126.358E-03    -100.486E-03     199.839E-03    -99.7215E-03     124.043E-03
            1117     7.33267E-03     119.311E-03    -47.6697E+06    -100.264E+06    -7.72387E+06    -22.9171E+06    -100.173E-03     199.634E-03    -99.4611E-03     140.866E-03    -101.083E-03     200.041E-03    -99.2853E-03     138.157E-03
            1118     8.15102E-03     119.440E-03    -43.9688E+06    -91.6229E+06    -2.34216E+06    -23.0537E+06    -101.016E-03     200.117E-03    -99.1009E-03     154.208E-03    -102.208E-03     200.833E-03    -98.9160E-03     151.059E-03
            1119     8.96864E-03     119.580E-03    -41.0090E+06    -82.5615E+06     2.13788E+06    -22.9986E+06    -102.637E-03     201.486E-03    -98.8484E-03     166.116E-03    -104.189E-03     202.592E-03    -98.6586E-03     162.447E-03
            1120     9.78523E-03     119.730E-03    -38.1080E+06    -68.1753E+06     7.52403E+06    -22.4420E+06    -105.032E-03     203.784E-03    -98.7516E-03     176.749E-03    -107.053E-03     205.406E-03    -98.5598E-03     172.462E-03
            1121     10.6003E-03     119.889E-03    -35.4305E+06    -49.6389E+06     13.7523E+06    -20.1179E+06    -108.086E-03     206.930E-03    -98.8441E-03     185.484E-03    -110.691E-03     209.194E-03    -98.6520E-03     180.512E-03
            1122     11.4125E-03     120.056E-03    -32.7061E+06    -19.3619E+06     25.3468E+06    -17.4545E+06    -111.731E-03     210.896E-03    -99.1653E-03     189.597E-03    -114.976E-03     213.883E-03    -98.9631E-03     183.918E-03
            1123     12.2210E-03     120.227E-03    -29.3402E+06     8.88880E+06     34.6988E+06    -14.7078E+06    -115.655E-03     215.374E-03    -99.7186E-03     185.979E-03    -119.391E-03     218.937E-03    -99.5154E-03     179.728E-03
            1124     13.0262E-03     120.394E-03    -24.5385E+06     57.0807E+06     50.9022E+06    -11.8077E+06    -119.518E-03     220.039E-03    -100.520E-03     172.083E-03    -123.444E-03     223.933E-03    -100.313E-03     165.523E-03
            1125     13.8256E-03     120.539E-03    -17.9482E+06     111.018E+06     62.8086E+06    -8.97672E+06    -123.659E-03     225.192E-03    -101.533E-03     144.983E-03    -127.262E-03     228.944E-03    -101.354E-03     138.419E-03
            1126     14.6207E-03     120.657E-03    -12.0661E+06     130.532E+06     77.4763E+06    -5.08839E+06    -128.164E-03     230.994E-03    -102.830E-03     121.103E-03    -131.479E-03     234.506E-03    -102.615E-03     114.327E-03
            1127     15.4106E-03     120.764E-03    -5.92236E+06     130.273E+06     102.002E+06    -2.15998E+06    -131.688E-03     236.037E-03    -104.349E-03     74.2111E-03    -133.911E-03     238.406E-03    -104.019E-03     68.5766E-03
            1128     814.983E-06     119.898E-03    -81.8375E+06    -159.702E+06    -81.6107E+06    -5.44389E+06    -99.1148E-03     197.879E-03    -98.7643E-03     18.7477E-03    -99.1837E-03     197.326E-03    -98.8221E-03     18.4739E-03
            1129     1.62983E-03     119.920E-03    -79.6887E+06    -153.284E+06    -74.7560E+06    -8.80343E+06    -98.5097E-03     197.284E-03    -98.7739E-03     34.4861E-03    -98.6065E-03     196.769E-03    -98.8099E-03     34.0017E-03
            1130     2.44607E-03     119.957E-03    -76.5492E+06    -145.689E+06    -64.9849E+06    -11.7742E+06    -97.9679E-03     196.452E-03    -98.4841E-03     51.1594E-03    -98.1079E-03     195.990E-03    -98.4868E-03     50.4521E-03
            1131     3.26259E-03     120.007E-03    -72.6222E+06    -137.457E+06    -53.5496E+06    -14.9007E+06    -97.4100E-03     195.529E-03    -98.1192E-03     67.8097E-03    -97.6088E-03     195.136E-03    -98.0824E-03     66.8644E-03
            1132     4.08009E-03     120.072E-03    -67.8647E+06    -128.537E+06    -42.3738E+06    -17.6115E+06    -96.7596E-03     194.443E-03    -97.6832E-03     84.4809E-03    -97.0327E-03     194.140E-03    -97.6103E-03     83.2900E-03
            1133     4.89907E-03     120.150E-03    -63.1071E+06    -119.262E+06    -31.7849E+06    -19.1230E+06    -96.2257E-03     193.415E-03    -97.1896E-03     101.099E-03    -96.5960E-03     193.229E-03    -97.0841E-03     99.6582E-03
            1134     5.71851E-03     120.241E-03    -58.8167E+06    -111.342E+06    -22.6612E+06    -20.3542E+06    -96.0087E-03     192.684E-03    -96.6753E-03     117.574E-03    -96.5043E-03     192.640E-03    -96.5419E-03     115.858E-03
            1135     6.53920E-03     120.346E-03    -55.0874E+06    -103.548E+06    -15.2485E+06    -21.4180E+06    -96.2814E-03     192.463E-03    -96.1819E-03     133.785E-03    -96.9424E-03     192.604E-03    -96.0281E-03     131.750E-03
            1136     7.36017E-03     120.463E-03    -52.2323E+06    -95.9422E+06    -9.17082E+06    -21.6450E+06    -97.1889E-03     192.948E-03    -95.7590E-03     149.208E-03    -98.0687E-03     193.327E-03    -95.5900E-03     146.806E-03
            1137     8.18070E-03     120.593E-03    -49.9321E+06    -87.6818E+06    -3.68271E+06    -21.6209E+06    -98.9451E-03     194.405E-03    -95.4600E-03     163.407E-03    -100.111E-03     195.093E-03    -95.2788E-03     160.562E-03
            1138     9.00052E-03     120.735E-03    -47.3846E+06    -78.3709E+06     1.19325E+06    -22.4021E+06    -101.666E-03     197.003E-03    -95.3369E-03     175.965E-03    -103.202E-03     198.089E-03    -95.1486E-03     172.561E-03
            1139     9.81840E-03     120.888E-03    -44.2964E+06    -66.2055E+06     6.24024E+06    -22.5550E+06    -105.246E-03     200.679E-03    -95.4329E-03     186.750E-03    -107.262E-03     202.284E-03    -95.2414E-03     182.673E-03
            1140     10.6333E-03     121.051E-03    -39.9548E+06    -51.1045E+06     12.5796E+06    -20.9137E+06    -109.802E-03     205.588E-03    -95.7855E-03     195.569E-03    -112.422E-03     207.849E-03    -95.5906E-03     190.702E-03
            1141     11.4444E-03     121.225E-03    -34.4293E+06    -19.6570E+06     24.8132E+06    -18.2178E+06    -115.012E-03     211.439E-03    -96.4276E-03     199.780E-03    -118.310E-03     214.475E-03    -96.2251E-03     194.075E-03
            1142     12.2505E-03     121.403E-03    -28.2090E+06     6.41744E+06     35.7237E+06    -15.6342E+06    -120.228E-03     217.590E-03    -97.3626E-03     195.492E-03    -124.050E-03     221.234E-03    -97.1524E-03     189.072E-03
            1143     13.0519E-03     121.574E-03    -22.1090E+06     56.5112E+06     52.4125E+06    -12.9093E+06    -125.441E-03     224.018E-03    -98.5770E-03     180.898E-03    -129.493E-03     228.042E-03    -98.3648E-03     174.013E-03
            1144     13.8476E-03     121.733E-03    -17.2391E+06     108.160E+06     63.9472E+06    -10.3786E+06    -130.785E-03     230.826E-03    -100.041E-03     153.252E-03    -134.534E-03     234.714E-03    -99.8529E-03     146.242E-03
            1145     14.6361E-03     121.856E-03    -11.0835E+06     124.179E+06     76.6967E+06    -6.94512E+06    -136.082E-03     237.876E-03    -101.794E-03     128.355E-03    -139.537E-03     241.512E-03    -101.575E-03     121.021E-03
            1146     15.4208E-03     121.973E-03    -5.31973E+06     127.149E+06     98.8781E+06    -2.83566E+06    -140.380E-03     244.140E-03    -103.759E-03     78.6127E-03    -142.689E-03     246.596E-03    -103.442E-03     72.4748E-03
            1147     818.453E-06     121.049E-03    -81.7499E+06    -146.655E+06    -79.8160E+06    -5.36389E+06    -94.4987E-03     188.867E-03    -94.3680E-03     19.8644E-03    -94.5879E-03     188.375E-03    -94.4359E-03     19.6304E-03
            1148     1.63757E-03     121.070E-03    -79.4046E+06    -142.310E+06    -74.2653E+06    -8.73512E+06    -94.0377E-03     188.309E-03    -94.2709E-03     36.0080E-03    -94.1462E-03     187.843E-03    -94.3207E-03     35.5951E-03
            1149     2.45678E-03     121.106E-03    -76.5621E+06    -135.970E+06    -65.6553E+06    -11.7835E+06    -93.3892E-03     187.354E-03    -93.9643E-03     53.6780E-03    -93.5341E-03     186.932E-03    -93.9844E-03     53.0770E-03
            1150     3.27744E-03     121.155E-03    -73.1203E+06    -128.577E+06    -55.2640E+06    -14.2958E+06    -92.6608E-03     186.207E-03    -93.5459E-03     71.3465E-03    -92.8573E-03     185.845E-03    -93.5298E-03     70.5550E-03
            1151     4.09899E-03     121.218E-03    -69.9665E+06    -120.693E+06    -44.6807E+06    -16.1521E+06    -92.0044E-03     185.056E-03    -93.0519E-03     89.0969E-03    -92.2716E-03     184.774E-03    -92.9988E-03     88.1104E-03
            1152     4.92162E-03     121.295E-03    -67.2053E+06    -113.310E+06    -34.8124E+06    -17.1887E+06    -91.5774E-03     184.096E-03    -92.5190E-03     106.852E-03    -91.9369E-03     183.914E-03    -92.4313E-03     105.661E-03
            1153     5.74554E-03     121.385E-03    -64.8256E+06    -105.559E+06    -26.2148E+06    -18.0288E+06    -91.6894E-03     183.683E-03    -91.9938E-03     124.517E-03    -92.1717E-03     183.635E-03    -91.8778E-03     123.086E-03
            1154     6.56973E-03     121.489E-03    -63.0476E+06    -98.3751E+06    -18.8183E+06    -18.6964E+06    -92.5606E-03     184.101E-03    -91.5400E-03     141.688E-03    -93.2066E-03     184.226E-03    -91.4000E-03     139.967E-03
            1155     7.39394E-03     121.608E-03    -60.9540E+06     -91.642E+06    -12.2258E+06    -19.3095E+06    -94.4085E-03     185.630E-03    -91.2212E-03     157.922E-03    -95.2709E-03     185.984E-03    -91.0610E-03     155.834E-03
            1156     8.21726E-03     121.739E-03    -57.5872E+06    -82.6855E+06    -5.98760E+06    -20.6823E+06    -97.4318E-03     188.530E-03    -91.0978E-03     172.931E-03    -98.5810E-03     189.198E-03    -90.9243E-03     170.360E-03
            1157     9.03824E-03     121.885E-03    -53.1940E+06    -73.3222E+06    -332.296E+03    -22.3135E+06    -101.526E-03     192.751E-03    -91.2245E-03     185.942E-03    -103.049E-03     193.825E-03    -91.0427E-03     182.761E-03
            1158     9.85609E-03     122.042E-03    -48.1717E+06    -62.8443E+06     5.21099E+06    -23.5844E+06    -106.636E-03     198.274E-03    -91.6381E-03     196.959E-03    -108.651E-03     199.880E-03    -91.4511E-03     193.018E-03
            1159     10.6703E-03     122.213E-03    -42.1748E+06    -50.5823E+06     11.3646E+06    -24.1443E+06    -112.717E-03     205.082E-03    -92.3650E-03     206.082E-03    -115.365E-03     207.369E-03    -92.1737E-03     201.214E-03
            1160     11.4790E-03     122.395E-03    -34.8132E+06    -21.4311E+06     22.7400E+06    -22.2789E+06    -119.258E-03     212.676E-03    -93.4181E-03     210.077E-03    -122.619E-03     215.774E-03    -93.2228E-03     204.231E-03
            1161     12.2829E-03     122.581E-03    -27.3111E+06     3.98043E+06     34.7714E+06    -19.1152E+06    -126.147E-03     220.962E-03    -94.8152E-03     205.309E-03    -130.090E-03     224.724E-03    -94.6076E-03     198.568E-03
            1162     13.0787E-03     122.764E-03    -20.1101E+06     54.1924E+06     51.2499E+06    -15.3566E+06    -132.870E-03     229.400E-03    -96.5300E-03     190.128E-03    -137.094E-03     233.599E-03    -96.3231E-03     182.745E-03
            1163     13.8684E-03     122.930E-03    -13.7199E+06     104.307E+06     63.4584E+06    -10.1782E+06    -138.896E-03     237.409E-03    -98.5138E-03     161.287E-03    -142.806E-03     241.460E-03    -98.3279E-03     153.725E-03
            1164     14.6518E-03     123.065E-03    -10.3056E+06     118.631E+06     75.8392E+06    -6.43263E+06    -144.683E-03     245.456E-03    -100.773E-03     135.136E-03    -148.287E-03     249.227E-03    -100.551E-03     127.189E-03
            1165     15.4283E-03     123.190E-03    -5.92376E+06     122.190E+06     96.3951E+06    -3.73497E+06    -149.439E-03     252.653E-03    -103.214E-03     83.7182E-03    -151.847E-03     255.197E-03    -102.901E-03     76.9958E-03
            1166     823.259E-06     122.188E-03    -83.0129E+06    -134.642E+06    -81.9609E+06    -4.54605E+06    -88.8012E-03     177.458E-03    -88.6564E-03     20.8007E-03    -88.9100E-03     177.028E-03    -88.7506E-03     20.6221E-03
            1167     1.64650E-03     122.209E-03    -82.3412E+06    -131.767E+06    -77.1444E+06    -8.11920E+06    -88.2773E-03     176.826E-03    -88.5488E-03     37.8386E-03    -88.4074E-03     176.416E-03    -88.6241E-03     37.5094E-03
            1168     2.47097E-03     122.243E-03    -80.6977E+06    -127.215E+06    -70.1103E+06    -10.5030E+06    -87.6083E-03     175.823E-03    -88.2145E-03     56.4015E-03    -87.7702E-03     175.446E-03    -88.2635E-03     55.9313E-03
            1169     3.29617E-03     122.291E-03    -79.1373E+06    -121.302E+06    -61.3172E+06    -12.1322E+06    -86.8349E-03     174.602E-03    -87.7668E-03     75.1527E-03    -87.0450E-03     174.275E-03    -87.7828E-03     74.5432E-03
            1170     4.12284E-03     122.352E-03    -77.6670E+06    -114.606E+06    -51.1802E+06    -12.7164E+06    -86.3516E-03     173.613E-03    -87.2609E-03     94.0101E-03    -86.6280E-03     173.352E-03    -87.2380E-03     93.2608E-03
            1171     4.95029E-03     122.428E-03    -76.2602E+06    -108.344E+06    -41.0342E+06    -13.3245E+06    -86.4277E-03     173.195E-03    -86.7678E-03     112.850E-03    -86.7907E-03     173.019E-03    -86.7053E-03     111.933E-03
            1172     5.77836E-03     122.518E-03    -74.3823E+06    -100.335E+06    -31.3461E+06    -14.1504E+06    -87.2883E-03     173.637E-03    -86.3490E-03     131.462E-03    -87.7675E-03     173.585E-03    -86.2524E-03     130.328E-03
            1173     6.60634E-03     122.623E-03    -71.5483E+06    -93.1855E+06    -22.4235E+06    -15.2566E+06    -89.1788E-03     175.251E-03    -86.0718E-03     149.410E-03    -89.8109E-03     175.361E-03    -85.9450E-03     147.989E-03
            1174     7.43333E-03     122.743E-03    -67.4892E+06    -85.5652E+06    -14.6210E+06    -17.6556E+06    -92.3220E-03     178.320E-03    -85.9983E-03     166.479E-03    -93.1613E-03     178.658E-03    -85.8495E-03     164.660E-03
            1175     8.25811E-03     122.879E-03    -62.4079E+06    -75.5743E+06    -7.69433E+06    -21.0332E+06    -96.7298E-03     182.915E-03    -86.1853E-03     182.128E-03    -97.8547E-03     183.572E-03    -86.0237E-03     179.777E-03
            1176     9.07989E-03     123.030E-03    -56.3819E+06    -67.5712E+06    -1.77374E+06    -24.1604E+06    -102.303E-03     188.983E-03    -86.6804E-03     195.682E-03    -103.806E-03     190.052E-03    -86.5095E-03     192.655E-03
            1177     9.89766E-03     123.195E-03    -49.7150E+06    -57.6952E+06     4.04406E+06    -26.4600E+06    -109.024E-03     196.536E-03    -87.5124E-03     207.370E-03    -111.040E-03     198.161E-03    -87.3364E-03     203.488E-03
            1178     10.7095E-03     123.374E-03    -42.6073E+06    -46.6171E+06     10.4364E+06    -28.6603E+06    -116.639E-03     205.341E-03    -88.7015E-03     216.871E-03    -119.327E-03     207.684E-03    -88.5200E-03     211.924E-03
            1179     11.5162E-03     123.566E-03    -35.3006E+06    -24.3639E+06     19.2411E+06    -27.3003E+06    -124.813E-03     215.063E-03    -90.2500E-03     220.918E-03    -128.265E-03     218.251E-03    -90.0673E-03     214.816E-03
            1180     12.3148E-03     123.763E-03    -28.4204E+06     2.03751E+06     31.8257E+06    -23.9094E+06    -133.125E-03     225.305E-03    -92.1793E-03     216.043E-03    -137.238E-03     229.235E-03    -91.9820E-03     208.849E-03
            1181     13.1065E-03     123.958E-03    -21.7208E+06     48.8537E+06     47.6481E+06    -19.6263E+06    -141.087E-03     235.532E-03    -94.4455E-03     200.562E-03    -145.529E-03     239.937E-03    -94.2466E-03     192.556E-03
            1182     13.8894E-03     124.137E-03    -15.7963E+06     94.4131E+06     58.6614E+06    -12.1403E+06    -148.042E-03     245.029E-03    -96.9869E-03     170.783E-03    -152.168E-03     249.268E-03    -96.8076E-03     162.513E-03
            1183     14.6651E-03     124.282E-03    -9.70375E+06     115.541E+06     73.5459E+06    -6.07297E+06    -153.981E-03     253.762E-03    -99.7811E-03     143.321E-03    -157.767E-03     257.714E-03    -99.5668E-03     134.658E-03
            1184     15.4366E-03     124.418E-03    -4.90030E+06     117.615E+06     94.7411E+06    -3.43698E+06    -158.458E-03     261.174E-03    -102.716E-03     89.8428E-03    -160.970E-03     263.814E-03    -102.405E-03     82.5255E-03
            1185     828.720E-06     123.312E-03    -88.7231E+06    -124.402E+06    -88.3088E+06    -3.53443E+06    -81.7473E-03     163.536E-03    -81.7887E-03     21.4620E-03    -81.8893E-03     163.173E-03    -81.9212E-03     21.3368E-03
            1186     1.65838E-03     123.333E-03     -89.721E+06    -123.755E+06    -84.9976E+06    -5.77794E+06    -81.2278E-03     162.791E-03    -81.5636E-03     39.7573E-03    -81.3904E-03     162.438E-03    -81.6790E-03     39.5333E-03
            1187     2.48823E-03     123.366E-03    -90.4752E+06    -120.990E+06    -79.3990E+06    -6.90893E+06    -80.6953E-03     161.913E-03    -81.2182E-03     59.1096E-03    -80.8905E-03     161.584E-03    -81.3086E-03     58.7980E-03
            1188     3.31944E-03     123.412E-03    -90.6070E+06    -115.788E+06    -70.8020E+06    -7.63688E+06    -80.2483E-03     161.070E-03    -80.8212E-03     78.8396E-03    -80.4900E-03     160.780E-03    -80.8760E-03     78.4354E-03
            1189     4.15127E-03     123.473E-03    -89.8235E+06    -110.834E+06    -60.1962E+06    -8.31372E+06    -80.3260E-03     160.755E-03    -80.4289E-03     98.6976E-03    -80.6252E-03     160.513E-03    -80.4389E-03     98.1823E-03
            1190     4.98392E-03     123.548E-03    -87.2527E+06    -103.431E+06    -47.9484E+06    -9.42449E+06    -81.3026E-03     161.425E-03    -80.1221E-03     118.392E-03    -81.6769E-03     161.258E-03    -80.0853E-03     117.724E-03
            1191     5.81589E-03     123.639E-03    -83.1733E+06    -94.7676E+06    -36.0517E+06    -11.2972E+06    -83.2983E-03     163.266E-03    -79.9677E-03     137.770E-03    -83.7730E-03     163.211E-03    -79.8899E-03     136.886E-03
            1192     6.64708E-03     123.746E-03    -77.6770E+06    -87.0125E+06    -26.0336E+06    -14.1036E+06    -86.5000E-03     166.518E-03    -80.0185E-03     156.558E-03    -87.1108E-03     166.619E-03    -79.9098E-03     155.368E-03
            1193     7.47611E-03     123.871E-03    -71.2232E+06    -77.2260E+06    -17.2274E+06    -18.1733E+06    -91.0597E-03     171.388E-03    -80.3287E-03     174.490E-03    -91.8702E-03     171.721E-03    -80.1995E-03     172.870E-03
            1194     8.30209E-03     124.012E-03    -64.3888E+06    -67.0376E+06    -9.52200E+06    -22.6457E+06    -96.8591E-03     177.804E-03    -80.9446E-03     190.922E-03    -97.9526E-03     178.459E-03    -80.8017E-03     188.735E-03
            1195     9.12395E-03     124.171E-03    -57.5609E+06    -59.7301E+06    -3.29406E+06    -26.9508E+06    -103.892E-03     185.792E-03    -81.9000E-03     205.351E-03    -105.374E-03     186.869E-03    -81.7464E-03     202.427E-03
            1196     9.94023E-03     124.345E-03    -50.4717E+06    -51.0377E+06     2.64206E+06    -30.6303E+06    -112.120E-03     195.340E-03    -83.2194E-03     217.895E-03    -114.140E-03     196.994E-03    -83.0591E-03     214.024E-03
            1197     10.7510E-03     124.535E-03    -43.5083E+06    -40.3922E+06     9.16562E+06    -33.2375E+06    -121.400E-03     206.326E-03    -84.9254E-03     227.966E-03    -124.139E-03     208.743E-03    -84.7579E-03     222.898E-03
            1198     11.5534E-03     124.739E-03    -36.4473E+06    -27.1861E+06     15.5011E+06    -33.0539E+06    -131.185E-03     218.206E-03    -87.0201E-03     232.605E-03    -134.747E-03     221.500E-03    -86.8503E-03     226.180E-03
            1199     12.3481E-03     124.951E-03    -29.4808E+06    -1.86735E+06     28.0524E+06    -28.0840E+06    -140.744E-03     230.256E-03    -89.5114E-03     228.148E-03    -145.052E-03     234.375E-03    -89.3256E-03     220.435E-03
            1200     13.1336E-03     125.159E-03    -24.3541E+06     42.4432E+06     44.0497E+06    -21.7560E+06    -149.725E-03     242.071E-03    -92.3463E-03     212.717E-03    -154.429E-03     246.716E-03    -92.1523E-03     204.031E-03
            1201     13.9110E-03     125.354E-03    -18.4243E+06     84.1114E+06     55.4057E+06    -15.7833E+06    -157.544E-03     252.999E-03    -95.4551E-03     181.961E-03    -161.927E-03     257.459E-03    -95.2733E-03     172.881E-03
            1202     14.6801E-03     125.510E-03    -11.9540E+06     110.094E+06     70.9818E+06    -10.2085E+06    -163.730E-03     262.520E-03    -98.7898E-03     152.748E-03    -167.762E-03     266.698E-03    -98.5772E-03     143.174E-03
            1203     15.4427E-03     125.657E-03    -5.42186E+06     110.175E+06     92.4137E+06    -4.52106E+06    -167.913E-03     270.142E-03    -102.230E-03     97.3268E-03    -170.573E-03     272.909E-03    -101.919E-03     89.2967E-03
            1204     835.701E-06     124.421E-03    -104.830E+06    -119.834E+06    -102.335E+06    -196.930E+03    -73.5413E-03     147.144E-03    -73.6025E-03     22.3344E-03    -73.7490E-03     146.845E-03    -73.7884E-03     22.2872E-03
            1205     1.67169E-03     124.440E-03    -107.327E+06    -119.788E+06    -100.179E+06    -375.885E+03    -73.2211E-03     146.631E-03    -73.4101E-03     41.3868E-03    -73.4502E-03     146.339E-03    -73.5817E-03     41.3006E-03
            1206     2.50870E-03     124.472E-03    -108.197E+06    -116.589E+06    -93.6746E+06    -1.97803E+06    -73.0892E-03     146.268E-03    -73.1783E-03     61.5051E-03    -73.3474E-03     145.994E-03    -73.3208E-03     61.3539E-03
            1207     3.34584E-03     124.518E-03    -106.552E+06    -112.166E+06    -83.2102E+06    -3.67387E+06    -73.4471E-03     146.431E-03    -72.9839E-03     81.9517E-03    -73.7363E-03     146.180E-03    -73.0828E-03     81.7217E-03
            1208     4.18354E-03     124.579E-03    -102.157E+06    -106.300E+06    -69.2745E+06    -5.75287E+06    -74.5876E-03     147.480E-03    -72.8923E-03     102.554E-03    -74.9137E-03     147.263E-03    -72.9364E-03     102.215E-03
            1209     5.02019E-03     124.655E-03    -95.8000E+06    -97.7899E+06    -54.8268E+06    -8.53939E+06    -76.6986E-03     149.649E-03    -72.9503E-03     122.982E-03    -77.0770E-03     149.496E-03    -72.9437E-03     122.485E-03
            1210     5.85619E-03     124.749E-03    -88.0194E+06    -88.4288E+06    -41.5049E+06    -11.8118E+06    -79.9893E-03     153.198E-03    -73.2085E-03     143.063E-03    -80.4453E-03     153.146E-03    -73.1601E-03     142.342E-03
            1211     6.68972E-03     124.860E-03    -79.5403E+06    -78.9623E+06    -30.0421E+06    -16.0668E+06    -84.5909E-03     158.306E-03    -73.7155E-03     162.744E-03    -85.1675E-03     158.407E-03    -73.6359E-03     161.701E-03
            1212     7.52029E-03     124.991E-03    -70.9105E+06    -67.5832E+06    -19.7058E+06    -21.0032E+06    -90.4377E-03     164.947E-03    -74.5094E-03     181.636E-03    -91.2050E-03     165.280E-03    -74.4071E-03     180.151E-03
            1213     8.34685E-03     125.140E-03    -62.3796E+06    -58.2520E+06    -10.6298E+06    -25.6998E+06    -97.5798E-03     173.204E-03    -75.6237E-03     199.123E-03    -98.6256E-03     173.853E-03    -75.5020E-03     197.053E-03
            1214     9.16826E-03     125.307E-03    -54.4550E+06    -50.8465E+06    -3.14543E+06    -29.5633E+06    -106.055E-03     183.144E-03    -77.0885E-03     214.730E-03    -107.499E-03     184.225E-03    -76.9515E-03     211.892E-03
            1215     9.98385E-03     125.493E-03    -48.0185E+06    -42.1914E+06     3.38625E+06    -33.5225E+06    -115.818E-03     194.751E-03    -78.9326E-03     228.317E-03    -117.829E-03     196.435E-03    -78.7849E-03     224.453E-03
            1216     10.7913E-03     125.696E-03    -42.2112E+06    -34.1580E+06     9.29742E+06    -36.5765E+06    -126.570E-03     207.746E-03    -81.1756E-03     239.434E-03    -129.343E-03     210.224E-03    -81.0183E-03     234.253E-03
            1217     11.5909E-03     125.916E-03    -36.0203E+06    -25.6682E+06     15.0825E+06    -37.8154E+06    -137.687E-03     221.504E-03    -83.8163E-03     245.071E-03    -141.347E-03     224.905E-03    -83.6515E-03     238.344E-03
            1218     12.3811E-03     126.142E-03    -28.2034E+06    -11.7376E+06     23.8840E+06    -33.6905E+06    -148.696E-03     235.550E-03    -86.8542E-03     241.336E-03    -153.180E-03     239.829E-03    -86.6768E-03     233.048E-03
            1219     13.1619E-03     126.368E-03    -19.2886E+06      33.985E+06     42.5441E+06    -24.0153E+06    -158.709E-03     248.964E-03    -90.2544E-03     225.526E-03    -163.655E-03     253.844E-03    -90.0630E-03     216.078E-03
            1220     13.9326E-03     126.577E-03    -13.7579E+06     77.0481E+06     55.6551E+06    -16.1786E+06    -166.947E-03     260.867E-03    -93.9196E-03     194.000E-03    -171.587E-03     265.576E-03    -93.7331E-03     184.099E-03
            1221     14.6944E-03     126.750E-03    -10.5789E+06     101.637E+06     72.9208E+06    -10.0703E+06    -173.604E-03     271.404E-03    -97.8003E-03     162.687E-03    -177.869E-03     275.786E-03    -97.5677E-03     152.247E-03
            1222     15.4519E-03     126.904E-03    -7.05676E+06     103.630E+06     94.4175E+06    -5.96906E+06    -177.765E-03     279.514E-03    -101.749E-03     104.860E-03    -180.572E-03     282.394E-03    -101.417E-03     96.1113E-03
            1223     843.557E-06     125.509E-03    -141.279E+06    -121.736E+06    -138.578E+06     1.97166E+06    -64.6826E-03     128.924E-03    -64.2410E-03     23.2109E-03    -65.0159E-03     128.718E-03    -64.5525E-03     23.2213E-03
            1224     1.68723E-03     125.528E-03    -136.056E+06    -117.957E+06    -128.103E+06     1.09784E+06    -64.8559E-03     129.322E-03    -64.4660E-03     42.5881E-03    -65.1859E-03     129.115E-03    -64.7382E-03     42.5727E-03
            1225     2.53074E-03     125.561E-03    -129.285E+06    -112.536E+06    -114.309E+06    -1.33539E+06    -65.5653E-03     130.137E-03    -64.5721E-03     63.2667E-03    -65.8946E-03     129.935E-03    -64.7930E-03     63.1955E-03
            1226     3.37425E-03     125.607E-03    -121.223E+06    -107.248E+06    -97.5649E+06    -4.79329E+06    -67.1230E-03     131.916E-03    -64.7927E-03     84.2089E-03    -67.4555E-03     131.716E-03    -64.9493E-03     84.0522E-03
            1227     4.21625E-03     125.670E-03    -111.426E+06    -99.9985E+06    -80.0066E+06    -8.71284E+06    -69.5235E-03     134.701E-03    -65.1772E-03     105.234E-03    -69.8665E-03     134.522E-03    -65.2706E-03     104.959E-03
            1228     5.05744E-03     125.750E-03    -100.303E+06    -90.6997E+06    -63.1673E+06    -12.8527E+06    -72.8840E-03     138.627E-03    -65.7428E-03     126.195E-03    -73.2529E-03     138.499E-03    -65.7817E-03     125.758E-03
            1229     5.89588E-03     125.848E-03    -88.3763E+06    -80.5957E+06    -47.8541E+06    -17.4482E+06    -77.4362E-03     143.959E-03    -66.5226E-03     147.045E-03    -77.8588E-03     143.919E-03    -66.5168E-03     146.379E-03
            1230     6.73159E-03     125.965E-03    -76.0133E+06    -70.2041E+06    -33.7225E+06    -22.0718E+06    -83.2026E-03     150.757E-03    -67.5547E-03     167.621E-03    -83.7248E-03     150.858E-03    -67.5112E-03     166.641E-03
            1231     7.56332E-03     126.103E-03    -64.8722E+06    -59.1184E+06    -20.7731E+06    -25.7007E+06    -90.2319E-03     159.100E-03    -68.8681E-03     187.604E-03    -90.9297E-03     159.419E-03    -68.7922E-03     186.206E-03
            1232     8.39036E-03     126.262E-03    -56.3537E+06    -49.7739E+06    -9.90759E+06    -28.6033E+06    -98.6800E-03     169.177E-03    -70.4975E-03     206.342E-03    -99.6575E-03     169.809E-03    -70.3932E-03     204.375E-03
            1233     9.21152E-03     126.440E-03    -49.7869E+06    -42.0484E+06    -1.30811E+06    -31.9415E+06    -108.574E-03     181.054E-03    -72.4808E-03     223.133E-03    -109.961E-03     182.123E-03    -72.3542E-03     220.379E-03
            1234     10.0250E-03     126.639E-03    -43.4056E+06    -32.7951E+06     6.60555E+06    -35.5290E+06    -119.665E-03     194.511E-03    -74.8457E-03     238.020E-03    -121.637E-03     196.197E-03    -74.7022E-03     234.192E-03
            1235     10.8307E-03     126.858E-03    -36.6556E+06    -27.3460E+06     13.3393E+06    -38.7564E+06    -131.588E-03     209.189E-03    -77.6017E-03     250.450E-03    -134.341E-03     211.681E-03    -77.4422E-03     245.216E-03
            1236     11.6273E-03     127.093E-03    -30.5210E+06    -21.9543E+06     18.5578E+06    -39.7370E+06    -144.069E-03     224.815E-03    -80.7460E-03     257.420E-03    -147.759E-03     228.271E-03    -80.5771E-03     250.484E-03
            1237     12.4137E-03     127.339E-03    -25.6563E+06    -17.3169E+06     23.3684E+06    -38.4517E+06    -156.673E-03     240.971E-03    -84.2980E-03     254.898E-03    -161.286E-03     245.371E-03    -84.1189E-03     246.099E-03
            1238     13.1883E-03     127.583E-03    -20.2125E+06     18.6478E+06     36.1581E+06    -31.1354E+06    -167.753E-03     255.978E-03    -88.2243E-03     238.619E-03    -172.950E-03     261.071E-03    -88.0412E-03     228.300E-03
            1239     13.9536E-03     127.810E-03    -13.6547E+06      64.159E+06     52.2306E+06    -18.1866E+06    -176.410E-03     268.845E-03    -92.4356E-03     205.542E-03    -181.337E-03     273.807E-03    -92.2477E-03     194.701E-03
            1240     14.7105E-03     127.997E-03    -7.11061E+06     94.0379E+06     70.1506E+06    -9.88629E+06    -183.193E-03     280.015E-03    -96.8217E-03     172.019E-03    -187.683E-03     284.615E-03    -96.5970E-03     160.655E-03
            1241     15.4578E-03     128.167E-03    -874.486E+03     96.3043E+06     93.4213E+06    -4.82160E+06    -187.062E-03     288.316E-03    -101.254E-03     111.787E-03    -189.989E-03     291.314E-03    -100.925E-03     102.276E-03
            1242     851.769E-06     126.578E-03    -185.756E+06    -119.028E+06    -186.519E+06    -4.18568E+06    -55.8041E-03     111.069E-03    -55.2645E-03     23.2823E-03    -56.2924E-03     111.011E-03    -55.7552E-03     23.2304E-03
            1243     1.70250E-03     126.598E-03    -176.181E+06    -111.908E+06    -172.787E+06    -8.08251E+06    -56.8955E-03     112.608E-03    -55.7125E-03     42.5844E-03    -57.3662E-03     112.552E-03    -56.1588E-03     42.4789E-03
            1244     2.55271E-03     126.632E-03    -161.513E+06    -105.110E+06    -150.599E+06    -12.6998E+06    -58.7845E-03     115.056E-03    -56.2712E-03     63.4904E-03    -59.2259E-03     114.983E-03    -56.6376E-03     63.3128E-03
            1245     3.40103E-03     126.681E-03    -143.375E+06    -98.9248E+06    -124.058E+06    -17.3473E+06    -61.5336E-03     118.553E-03    -57.0192E-03     84.8202E-03    -61.9393E-03     118.455E-03    -57.2882E-03     84.5535E-03
            1246     4.24783E-03     126.748E-03    -123.815E+06    -91.2651E+06    -98.8522E+06    -22.2421E+06    -65.1884E-03     123.138E-03    -57.9491E-03     106.204E-03    -65.5623E-03     123.033E-03    -58.1315E-03     105.819E-03
            1247     5.09156E-03     126.832E-03    -104.209E+06    -83.0428E+06    -76.1057E+06    -26.1118E+06    -69.7891E-03     128.859E-03    -59.0701E-03     127.744E-03    -70.1475E-03     128.773E-03    -59.1791E-03     127.213E-03
            1248     5.93275E-03     126.937E-03    -86.4650E+06    -72.0337E+06    -55.6628E+06    -29.2967E+06    -75.4077E-03     135.802E-03    -60.3940E-03     149.342E-03    -75.7917E-03     135.784E-03    -60.4425E-03     148.617E-03
            1249     6.76992E-03     127.062E-03    -72.2445E+06    -63.2662E+06    -38.2922E+06    -31.6318E+06    -82.1922E-03     144.140E-03    -61.9482E-03     170.732E-03    -82.6592E-03     144.238E-03    -61.9431E-03     169.740E-03
            1250     7.60283E-03     127.208E-03    -61.6573E+06    -54.1248E+06    -23.2230E+06    -31.7624E+06    -90.3507E-03     154.118E-03    -63.7670E-03     191.617E-03    -90.9855E-03     154.410E-03    -63.7153E-03     190.268E-03
            1251     8.43003E-03     127.378E-03    -53.0323E+06    -42.4489E+06    -9.22512E+06    -32.5872E+06    -100.032E-03     165.927E-03    -65.8958E-03     211.416E-03    -100.943E-03     166.529E-03    -65.8035E-03     209.532E-03
            1252     9.25020E-03     127.570E-03    -44.4240E+06    -33.6420E+06     2.56629E+06    -35.4713E+06    -111.020E-03     179.390E-03    -68.3695E-03     229.453E-03    -112.327E-03     180.415E-03    -68.2435E-03     226.787E-03
            1253     10.0627E-03     127.783E-03    -36.1905E+06    -25.5044E+06     12.4888E+06    -37.8873E+06    -123.069E-03     194.270E-03    -71.2006E-03     245.825E-03    -124.943E-03     195.893E-03    -71.0487E-03     242.089E-03
            1254     10.8664E-03     128.018E-03    -31.3442E+06    -20.9680E+06     19.1555E+06    -38.5930E+06    -136.204E-03     210.606E-03    -74.4017E-03     259.722E-03    -138.866E-03     213.032E-03    -74.2301E-03     254.559E-03
            1255     11.6603E-03     128.272E-03    -30.5612E+06    -17.8219E+06     22.1725E+06    -38.6748E+06    -150.153E-03     228.147E-03    -77.9932E-03     268.173E-03    -153.801E-03     231.565E-03    -77.8122E-03     261.191E-03
            1256     12.4432E-03     128.539E-03    -30.1780E+06    -13.5643E+06     26.6642E+06    -39.7299E+06    -163.771E-03     245.774E-03    -82.0026E-03     267.073E-03    -168.428E-03     250.206E-03    -81.8058E-03     258.012E-03
            1257     13.2141E-03     128.806E-03    -26.5160E+06     5.39943E+06     32.9900E+06    -36.7778E+06    -176.022E-03     262.403E-03    -86.3814E-03     251.842E-03    -181.393E-03     267.612E-03    -86.1858E-03     240.840E-03
            1258     13.9729E-03     129.050E-03    -19.4672E+06     42.8902E+06     48.4768E+06    -26.0936E+06    -185.626E-03     276.706E-03    -91.0798E-03     218.250E-03    -190.866E-03     281.896E-03    -90.8714E-03     206.343E-03
            1259     14.7210E-03     129.257E-03    -12.9621E+06     83.4244E+06     70.7218E+06    -14.5538E+06    -192.172E-03     288.117E-03    -95.9450E-03     182.691E-03    -196.970E-03     292.965E-03    -95.6936E-03     170.298E-03
            1260     15.4667E-03     129.435E-03    -7.54385E+06     85.8334E+06     92.9476E+06    -5.75255E+06    -195.976E-03     296.791E-03    -100.815E-03     119.833E-03    -199.111E-03     299.938E-03    -100.464E-03     109.434E-03
            1261     857.806E-06     127.628E-03    -182.492E+06    -103.594E+06    -181.103E+06    -9.76979E+06    -48.8525E-03     97.3470E-03    -48.4945E-03     22.0318E-03    -49.3530E-03     97.3548E-03    -48.9852E-03     21.9098E-03
            1262     1.71520E-03     127.651E-03    -176.575E+06    -96.1296E+06    -172.055E+06    -18.1322E+06    -50.5831E-03     99.5333E-03    -48.9501E-03     40.5186E-03    -51.0780E-03     99.5566E-03    -49.4150E-03     40.2876E-03
            1263     2.57015E-03     127.688E-03    -166.503E+06    -89.8469E+06    -154.858E+06    -26.2877E+06    -53.3033E-03     103.074E-03    -49.7706E-03     60.9468E-03    -53.7832E-03     103.091E-03    -50.1732E-03     60.6026E-03
            1264     3.42331E-03     127.742E-03    -152.839E+06    -84.5043E+06    -134.522E+06    -33.8315E+06    -56.8745E-03     107.721E-03    -50.8461E-03     82.2157E-03    -57.3287E-03     107.721E-03    -51.1745E-03     81.7531E-03
            1265     4.27332E-03     127.813E-03    -137.215E+06    -78.0846E+06    -114.948E+06    -40.3041E+06    -61.4074E-03     113.540E-03    -52.1323E-03     103.948E-03    -61.8361E-03     113.537E-03    -52.3949E-03     103.358E-03
            1266     5.12042E-03     127.905E-03    -120.710E+06    -72.5449E+06    -95.4142E+06    -45.6893E+06    -66.9746E-03     120.618E-03    -53.6432E-03     126.102E-03    -67.3884E-03     120.622E-03    -53.8401E-03     125.364E-03
            1267     5.96323E-03     128.016E-03    -102.765E+06    -64.3428E+06    -73.5822E+06    -48.7109E+06    -73.5787E-03     128.970E-03    -55.3910E-03     148.381E-03    -74.0058E-03     129.018E-03    -55.5166E-03     147.471E-03
            1268     6.80200E-03     128.150E-03    -84.4789E+06    -60.0164E+06    -50.6088E+06    -48.2168E+06    -81.4302E-03     138.827E-03    -57.3972E-03     170.428E-03    -81.9090E-03     138.941E-03    -57.4407E-03     169.309E-03
            1269     7.63511E-03     128.307E-03    -66.4416E+06    -54.2693E+06    -28.5914E+06    -44.9570E+06    -90.7027E-03     150.379E-03    -59.6767E-03     192.086E-03    -91.3003E-03     150.634E-03    -59.6446E-03     190.676E-03
            1270     8.46192E-03     128.489E-03    -50.8806E+06    -39.9172E+06    -8.85290E+06    -40.8704E+06    -101.230E-03     163.473E-03    -62.2424E-03     212.887E-03    -102.057E-03     164.005E-03    -62.1550E-03     211.039E-03
            1271     9.28141E-03     128.695E-03    -41.3271E+06    -27.3752E+06     6.49511E+06    -39.3139E+06    -112.921E-03     178.042E-03    -65.1203E-03     232.129E-03    -114.117E-03     178.978E-03    -64.9882E-03     229.593E-03
            1272     10.0931E-03     128.924E-03    -37.2367E+06    -20.6430E+06     16.4500E+06    -39.1512E+06    -125.905E-03     194.237E-03    -68.3319E-03     249.576E-03    -127.644E-03     195.727E-03    -68.1657E-03     246.034E-03
            1273     10.8954E-03     129.177E-03    -34.1476E+06    -16.8436E+06     23.8684E+06    -38.7939E+06    -140.192E-03     212.103E-03    -71.9104E-03     264.655E-03    -142.684E-03     214.350E-03    -71.7171E-03     259.705E-03
            1274     11.6872E-03     129.451E-03    -27.8015E+06    -14.0469E+06     30.8147E+06    -38.2781E+06    -155.020E-03     230.896E-03    -75.8759E-03     274.772E-03    -158.438E-03     234.083E-03    -75.6612E-03     267.996E-03
            1275     12.4665E-03     129.741E-03    -19.4070E+06    -8.83769E+06     38.2231E+06    -37.0936E+06    -169.042E-03     249.258E-03    -80.2168E-03     275.681E-03    -173.443E-03     253.456E-03    -79.9847E-03     266.788E-03
            1276     13.2353E-03     130.028E-03    -13.9862E+06    -139.544E+03     43.0489E+06    -33.4794E+06    -182.044E-03     266.946E-03    -84.9019E-03     263.731E-03    -187.253E-03     271.988E-03    -84.6662E-03     252.697E-03
            1277     13.9904E-03     130.303E-03    -12.5654E+06     26.1369E+06     50.3110E+06    -24.6490E+06    -192.606E-03     282.505E-03    -89.8985E-03     231.400E-03    -197.963E-03     287.772E-03    -89.6666E-03     218.863E-03
            1278     14.7366E-03     130.521E-03    -10.0220E+06     70.8469E+06     78.8392E+06    -14.6164E+06    -200.027E-03     295.178E-03    -95.1515E-03     193.998E-03    -205.050E-03     300.196E-03    -94.8455E-03     180.762E-03
            1279     15.4719E-03     130.719E-03    -4.39231E+06     74.2021E+06     103.580E+06    -6.32134E+06    -204.697E-03     305.119E-03    -100.422E-03     130.117E-03    -207.945E-03     308.320E-03    -100.006E-03     119.128E-03
            1280     861.182E-06     128.667E-03    -132.662E+06    -80.7526E+06    -128.247E+06    -10.4408E+06    -45.7296E-03     90.8959E-03    -45.1663E-03     19.3636E-03    -46.0903E-03     90.8708E-03    -45.4981E-03     19.2243E-03
            1281     1.72108E-03     128.692E-03    -128.485E+06    -74.3897E+06    -118.624E+06    -19.6958E+06    -47.3775E-03     93.1451E-03    -45.7676E-03     35.7996E-03    -47.7418E-03     93.1328E-03    -46.0666E-03     35.5340E-03
            1282     2.57989E-03     128.733E-03    -124.431E+06    -68.5029E+06    -108.982E+06    -28.3652E+06    -50.1215E-03     96.7214E-03    -46.5999E-03     54.3003E-03    -50.4911E-03     96.7218E-03    -46.8651E-03     53.9107E-03
            1283     3.43566E-03     128.792E-03    -120.073E+06    -63.5401E+06    -99.5853E+06    -37.4846E+06    -53.8451E-03     101.546E-03    -47.7006E-03     74.1445E-03    -54.2203E-03     101.558E-03    -47.9323E-03     73.6155E-03
            1284     4.28887E-03     128.870E-03    -114.873E+06    -59.2938E+06    -90.4322E+06    -45.9678E+06    -58.5875E-03     107.640E-03    -49.0522E-03     95.1909E-03    -58.9699E-03     107.666E-03    -49.2519E-03     94.5144E-03
            1285     5.13794E-03     128.968E-03    -108.117E+06    -54.9490E+06    -79.5287E+06    -53.9963E+06    -64.5117E-03     115.179E-03    -50.6670E-03     117.180E-03    -64.9092E-03     115.229E-03    -50.8282E-03     116.334E-03
            1286     5.98290E-03     129.088E-03    -100.178E+06    -52.8108E+06    -67.4038E+06    -59.9351E+06    -71.7434E-03     124.308E-03    -52.5645E-03     139.818E-03    -72.1712E-03     124.389E-03    -52.6797E-03     138.784E-03
            1287     6.82209E-03     129.232E-03    -90.0744E+06    -54.3359E+06    -53.8172E+06    -62.6153E+06    -80.4004E-03     135.168E-03    -54.7680E-03     162.774E-03    -80.8807E-03     135.294E-03    -54.8276E-03     161.523E-03
            1288     7.65537E-03     129.400E-03    -77.3187E+06    -53.6440E+06    -37.8783E+06    -62.7529E+06    -90.4109E-03     147.699E-03    -57.2880E-03     185.629E-03    -90.9911E-03     147.927E-03    -57.2875E-03     184.090E-03
            1289     8.48160E-03     129.595E-03    -61.9453E+06    -45.2351E+06    -18.9764E+06    -58.2267E+06    -101.572E-03     161.695E-03    -60.1229E-03     207.388E-03    -102.329E-03     162.129E-03    -60.0624E-03     205.478E-03
            1290     9.30100E-03     129.815E-03    -46.5519E+06    -31.5073E+06     2.99535E+06    -48.7277E+06    -113.999E-03     177.289E-03    -63.2899E-03     227.361E-03    -115.048E-03     178.056E-03    -63.1617E-03     224.939E-03
            1291     10.1111E-03     130.061E-03    -34.6156E+06    -20.7473E+06     22.5243E+06    -40.6160E+06    -127.897E-03     194.704E-03    -66.8066E-03     245.490E-03    -129.392E-03     195.941E-03    -66.6137E-03     242.247E-03
            1292     10.9114E-03     130.332E-03    -26.5252E+06    -13.2356E+06     35.7181E+06    -37.0708E+06    -142.735E-03     213.406E-03    -70.6712E-03     261.606E-03    -144.863E-03     215.296E-03    -70.4350E-03     257.114E-03
            1293     11.7006E-03     130.628E-03    -22.3759E+06    -8.13753E+06     43.2213E+06    -38.2395E+06    -157.361E-03     232.223E-03    -74.8624E-03     273.294E-03    -160.305E-03     234.941E-03    -74.6020E-03     267.109E-03
            1294     12.4808E-03     130.938E-03    -20.3759E+06    -8.90707E+06     46.0223E+06    -39.4517E+06    -171.337E-03     250.695E-03    -79.3586E-03     276.483E-03    -175.189E-03     254.318E-03    -79.0861E-03     268.265E-03
            1295     13.2480E-03     131.253E-03    -16.4811E+06    -6.21133E+06     49.1288E+06    -36.1026E+06    -183.960E-03     268.109E-03    -84.1487E-03     267.729E-03    -188.660E-03     272.594E-03    -83.8702E-03     257.326E-03
            1296     14.0047E-03     131.550E-03    -9.20079E+06     5.77636E+06     53.8734E+06    -25.4020E+06    -195.507E-03     284.741E-03    -89.2343E-03     239.089E-03    -200.607E-03     289.683E-03    -88.9600E-03     226.651E-03
            1297     14.7455E-03     131.798E-03    -5.22147E+06     53.8481E+06     79.2139E+06    -9.23909E+06    -204.993E-03     299.631E-03    -94.6381E-03     199.466E-03    -210.133E-03     304.722E-03    -94.3125E-03     185.517E-03
            1298     15.4816E-03     132.005E-03    -5.74096E+06     68.4102E+06     106.503E+06    -3.72228E+06    -209.585E-03     309.741E-03    -100.156E-03     134.281E-03    -213.008E-03     313.082E-03    -99.7140E-03     122.719E-03
            1299     860.083E-06     129.704E-03    -82.8835E+06    -58.4212E+06    -79.8571E+06    -9.92515E+06    -47.1704E-03     93.7156E-03    -46.5453E-03     15.3310E-03    -47.3862E-03     93.6601E-03    -46.7396E-03     15.1834E-03
            1300     1.71956E-03     129.731E-03    -80.0976E+06    -53.3354E+06    -71.1118E+06    -17.1116E+06    -48.5133E-03     95.6875E-03    -47.1741E-03     28.2005E-03    -48.7385E-03     95.6435E-03    -47.3362E-03     27.9402E-03
            1301     2.57712E-03     129.775E-03    -76.0068E+06    -47.4040E+06    -60.7403E+06    -24.8134E+06    -50.7894E-03     98.7240E-03    -47.9345E-03     43.0419E-03    -51.0236E-03     98.6946E-03    -48.0593E-03     42.6565E-03
            1302     3.43327E-03     129.838E-03    -71.2913E+06    -41.8305E+06    -50.1515E+06    -32.7212E+06    -54.0063E-03     102.946E-03    -48.9394E-03     59.1855E-03    -54.2504E-03     102.932E-03    -49.0261E-03     58.6637E-03
            1303     4.28620E-03     129.921E-03    -66.5701E+06    -38.2696E+06    -39.9380E+06    -40.9578E+06    -58.1601E-03     108.355E-03    -50.1946E-03     76.9501E-03    -58.4168E-03     108.354E-03    -50.2423E-03     76.2749E-03
            1304     5.13612E-03     130.026E-03    -63.4822E+06    -35.1354E+06    -32.6070E+06    -47.7383E+06    -63.4154E-03     115.106E-03    -51.6909E-03     96.5151E-03    -63.6976E-03     115.133E-03    -51.7110E-03     95.6869E-03
            1305     5.98126E-03     130.154E-03    -62.8563E+06    -35.8934E+06    -29.1220E+06    -53.0000E+06    -70.1013E-03     123.557E-03    -53.4555E-03     117.807E-03    -70.4250E-03     123.615E-03    -53.4579E-03     116.815E-03
            1306     6.82141E-03     130.308E-03    -63.9547E+06    -39.4796E+06    -27.5512E+06    -58.1422E+06    -78.3636E-03     133.894E-03    -55.5299E-03     140.601E-03    -78.7543E-03     133.998E-03    -55.5177E-03     139.399E-03
            1307     7.65479E-03     130.488E-03    -64.1817E+06    -41.8150E+06    -24.0010E+06    -63.5676E+06    -88.1817E-03     146.128E-03    -57.9464E-03     164.119E-03    -88.6755E-03     146.317E-03    -57.9127E-03     162.631E-03
            1308     8.48141E-03     130.695E-03    -61.8053E+06    -44.6404E+06    -17.7148E+06    -65.8629E+06    -99.6456E-03     160.374E-03    -60.7284E-03     187.114E-03    -100.285E-03     160.690E-03    -60.6626E-03     185.265E-03
            1309     9.29873E-03     130.930E-03    -54.9685E+06    -41.1513E+06    -4.92771E+06    -61.6808E+06    -112.771E-03     176.680E-03    -63.9086E-03     208.612E-03    -113.630E-03     177.215E-03    -63.7938E-03     206.314E-03
            1310     10.1077E-03     131.193E-03    -43.3940E+06    -29.6734E+06     18.5442E+06    -53.4828E+06    -127.196E-03     194.716E-03    -67.5204E-03     228.170E-03    -128.387E-03     195.599E-03    -67.3217E-03     225.230E-03
            1311     10.9059E-03     131.484E-03    -30.8987E+06    -19.5098E+06     39.3846E+06    -45.0663E+06    -142.002E-03     213.496E-03    -71.4940E-03     244.899E-03    -143.656E-03     214.862E-03    -71.2240E-03     241.002E-03
            1312     11.6956E-03     131.797E-03    -21.3889E+06    -6.24101E+06     53.2495E+06    -37.6692E+06    -156.205E-03     231.955E-03    -75.7506E-03     256.629E-03    -158.470E-03     233.974E-03    -75.4443E-03     251.427E-03
            1313     12.4735E-03     132.130E-03    -16.7741E+06    -4.46117E+06     60.1110E+06    -34.0201E+06    -168.846E-03     249.086E-03    -80.2402E-03     261.188E-03    -171.805E-03     251.802E-03    -79.9088E-03     254.368E-03
            1314     13.2423E-03     132.466E-03    -16.5588E+06    -6.12038E+06     61.4743E+06    -33.2645E+06    -179.936E-03     264.834E-03    -84.8976E-03     256.389E-03    -183.642E-03     268.289E-03    -84.5574E-03     247.630E-03
            1315     14.0005E-03     132.789E-03    -16.6157E+06    -16.1568E+06     61.6247E+06    -29.3574E+06    -190.111E-03     279.848E-03    -89.7372E-03     237.345E-03    -194.326E-03     283.778E-03    -89.3815E-03     226.642E-03
            1316     14.7453E-03     133.075E-03    -8.67751E+06     26.5616E+06     74.9839E+06    -13.9790E+06    -201.224E-03     296.002E-03    -94.7785E-03     209.156E-03    -206.070E-03     300.706E-03    -94.4295E-03     195.906E-03
            1317     15.4737E-03     133.295E-03     2.39671E+06     63.6624E+06     107.421E+06     975.469E+03    -209.556E-03     309.666E-03    -100.110E-03     145.528E-03    -213.133E-03     313.172E-03    -99.6687E-03     133.659E-03
            1318     854.468E-06     130.750E-03    -38.9095E+06    -38.3123E+06    -36.7814E+06    -8.11178E+06    -53.9677E-03     107.665E-03    -53.6971E-03     9.89167E-03    -54.0592E-03     107.581E-03    -53.7690E-03     9.74442E-03
            1319     1.70781E-03     130.777E-03    -36.4603E+06    -34.7824E+06    -29.9013E+06    -15.1738E+06    -55.1537E-03     109.328E-03    -54.1741E-03     17.7974E-03    -55.2525E-03     109.251E-03    -54.2203E-03     17.5190E-03
            1320     2.56050E-03     130.824E-03    -33.1399E+06    -29.3849E+06    -19.1284E+06    -21.4347E+06    -57.0247E-03     111.938E-03    -54.9130E-03     27.0649E-03    -57.1378E-03     111.875E-03    -54.9180E-03     26.6570E-03
            1321     3.41065E-03     130.889E-03    -29.9601E+06    -23.7965E+06    -8.57725E+06    -27.5589E+06    -59.3477E-03     115.216E-03    -55.8687E-03     37.1895E-03    -59.4800E-03     115.174E-03    -55.8336E-03     36.6443E-03
            1322     4.25892E-03     130.976E-03    -28.2298E+06    -20.2878E+06    -523.487E+03    -32.9545E+06    -62.2086E-03     119.210E-03    -57.0010E-03     49.1107E-03    -62.3664E-03     119.188E-03    -56.9332E-03     48.4285E-03
            1323     5.10404E-03     131.085E-03    -28.3407E+06    -19.5968E+06     3.85796E+06    -36.8710E+06    -65.8970E-03     124.213E-03    -58.3157E-03     63.1536E-03    -66.0875E-03     124.214E-03    -58.2269E-03     62.3420E-03
            1324     5.94636E-03     131.219E-03    -29.0593E+06    -19.9791E+06     7.23261E+06    -40.0852E+06    -70.6543E-03     130.509E-03    -59.8548E-03     79.4219E-03    -70.8871E-03     130.540E-03    -59.7475E-03     78.4727E-03
            1325     6.78393E-03     131.380E-03    -29.5704E+06    -22.5412E+06     11.1046E+06    -43.4832E+06    -76.6945E-03     138.354E-03    -61.6592E-03     97.8444E-03    -76.9793E-03     138.416E-03    -61.5281E-03     96.7288E-03
            1326     7.61682E-03     131.569E-03    -32.0259E+06    -23.8312E+06     13.4105E+06    -47.2206E+06    -84.2886E-03     148.038E-03    -63.7498E-03     118.240E-03    -84.6529E-03     148.162E-03    -63.6017E-03     116.915E-03
            1327     8.44236E-03     131.788E-03    -37.7554E+06    -30.6056E+06     11.1200E+06    -50.6706E+06    -93.9194E-03     160.089E-03    -66.1698E-03     140.019E-03    -94.3921E-03     160.286E-03    -66.0151E-03     138.424E-03
            1328     9.26077E-03     132.037E-03    -43.7654E+06    -33.8489E+06     10.3298E+06    -54.7327E+06    -105.676E-03     174.659E-03    -68.9834E-03     162.211E-03    -106.305E-03     174.985E-03    -68.8192E-03     160.237E-03
            1329     10.0680E-03     132.316E-03    -45.4736E+06    -31.5397E+06     19.4633E+06    -56.6293E+06    -119.027E-03     191.266E-03    -72.2391E-03     183.884E-03    -119.875E-03     191.789E-03    -72.0301E-03     181.408E-03
            1330     10.8662E-03     132.624E-03    -41.0726E+06    -26.2038E+06     33.5990E+06    -54.9856E+06    -133.458E-03     209.353E-03    -75.8951E-03     203.243E-03    -134.594E-03     210.159E-03    -75.6295E-03     200.084E-03
            1331     11.6523E-03     132.956E-03    -31.6878E+06    -19.6354E+06     47.1541E+06    -48.7202E+06    -147.189E-03     227.050E-03    -79.8609E-03     217.666E-03    -148.669E-03     228.218E-03    -79.5507E-03     213.667E-03
            1332     12.4306E-03     133.306E-03    -22.8014E+06    -13.9554E+06     66.7931E+06    -36.2353E+06    -158.426E-03     242.474E-03    -84.0477E-03     225.295E-03    -160.322E-03     244.053E-03    -83.6605E-03     220.367E-03
            1333     13.2032E-03     133.660E-03    -21.4714E+06    -8.17931E+06     80.3722E+06    -24.4408E+06    -166.790E-03     255.048E-03    -88.2582E-03     225.703E-03    -169.192E-03     257.120E-03    -87.8134E-03     219.617E-03
            1334     13.9682E-03     134.010E-03    -23.6107E+06    -10.0616E+06     77.2181E+06    -24.2016E+06    -170.960E-03     263.256E-03    -92.2963E-03     215.577E-03    -173.803E-03     265.765E-03    -91.8614E-03     208.149E-03
            1335     14.7338E-03     134.315E-03    -21.6994E+06     2.48081E+06     69.1746E+06    -27.5828E+06    -180.091E-03     276.333E-03    -96.2417E-03     206.913E-03    -183.886E-03     279.872E-03    -95.8680E-03     196.694E-03
            1336     15.4853E-03     134.597E-03    -15.2456E+06     31.3489E+06     92.5030E+06    -11.4723E+06    -195.162E-03     295.776E-03    -100.614E-03     154.379E-03    -198.481E-03     298.897E-03    -100.174E-03     143.658E-03
            1337     842.993E-06     131.815E-03    -153.248E+03    -20.7828E+06     1.31279E+06    -6.33768E+06    -67.4890E-03     134.931E-03    -67.4419E-03     2.59827E-03    -67.4753E-03     134.814E-03    -67.4050E-03     2.44497E-03
            1338     1.68589E-03     131.845E-03    -188.132E+03    -18.3840E+06     7.48453E+06    -12.1723E+06    -68.7043E-03     136.666E-03    -67.9616E-03     3.83394E-03    -68.7065E-03     136.553E-03    -67.8972E-03     3.53848E-03
            1339     2.52615E-03     131.893E-03     1.73177E+06    -14.8976E+06     15.9528E+06    -17.0654E+06    -69.8852E-03     138.665E-03    -68.7803E-03     5.42309E-03    -69.8989E-03     138.559E-03    -68.6814E-03     4.98592E-03
            1340     3.36504E-03     131.960E-03     3.51505E+06    -10.5900E+06     24.2120E+06    -20.2544E+06    -71.1332E-03     140.857E-03    -69.7240E-03     8.27957E-03    -71.1630E-03     140.765E-03    -69.5926E-03     7.71722E-03
            1341     4.20181E-03     132.048E-03     3.53882E+06    -7.99951E+06     30.9801E+06    -22.2686E+06    -72.7585E-03     143.572E-03    -70.8137E-03     12.3874E-03    -72.8128E-03     143.494E-03    -70.6523E-03     11.7071E-03
            1342     5.03659E-03     132.160E-03     2.59370E+06    -8.16891E+06     37.0784E+06    -24.0308E+06    -74.6574E-03     146.743E-03    -72.0852E-03     17.9524E-03    -74.7406E-03     146.671E-03    -71.8917E-03     17.1479E-03
            1343     5.86768E-03     132.295E-03     815.192E+03    -8.51967E+06     42.2725E+06    -25.6773E+06    -76.8512E-03     150.388E-03    -73.5364E-03     25.4493E-03    -76.9718E-03     150.331E-03    -73.3139E-03     24.5144E-03
            1344     6.69598E-03     132.459E-03    -2.15956E+06    -9.93634E+06     45.4097E+06    -27.4785E+06    -79.5222E-03     154.693E-03    -75.1704E-03     34.9858E-03    -79.6893E-03     154.659E-03    -74.9258E-03     33.9074E-03
            1345     7.51971E-03     132.651E-03    -6.70418E+06    -11.8997E+06     46.2953E+06    -27.6646E+06    -82.9611E-03     159.969E-03    -77.0080E-03     46.5838E-03    -83.1874E-03     159.970E-03    -76.7495E-03     45.3659E-03
            1346     8.33993E-03     132.875E-03    -10.6005E+06    -14.3065E+06     47.2048E+06    -28.8583E+06    -87.5445E-03     166.635E-03    -79.0907E-03     60.5407E-03    -87.8377E-03     166.681E-03    -78.8185E-03     59.1474E-03
            1347     9.15281E-03     133.132E-03    -12.8780E+06    -16.6561E+06     49.0123E+06    -31.9415E+06    -93.4430E-03     174.888E-03    -81.4450E-03     76.6798E-03    -93.8113E-03     174.992E-03    -81.1571E-03     75.0533E-03
            1348     9.96097E-03     133.421E-03    -16.3590E+06    -16.8486E+06     50.8255E+06    -35.3525E+06    -100.951E-03     185.031E-03    -84.0801E-03     94.4756E-03    -101.427E-03     185.230E-03    -83.7778E-03     92.5528E-03
            1349     10.7600E-03     133.743E-03    -22.7351E+06    -15.3703E+06     52.5033E+06    -38.3117E+06    -109.657E-03     196.634E-03    -86.9770E-03     113.550E-03    -110.283E-03     196.971E-03    -86.6592E-03     111.274E-03
            1350     11.5513E-03     134.093E-03    -31.0380E+06    -17.1821E+06     54.1069E+06    -41.0059E+06    -118.342E-03     208.384E-03    -90.0413E-03     131.689E-03    -119.151E-03     208.873E-03    -89.7008E-03     129.008E-03
            1351     12.3355E-03     134.457E-03    -35.9252E+06    -26.4609E+06     61.0731E+06    -37.1327E+06    -126.101E-03     219.235E-03    -93.1342E-03     147.903E-03    -127.104E-03     219.860E-03    -92.7384E-03     144.820E-03
            1352     13.1112E-03     134.830E-03    -30.6273E+06    -23.3305E+06     73.3448E+06    -25.9196E+06    -130.473E-03     226.447E-03    -95.9743E-03     162.583E-03    -131.656E-03     227.254E-03    -95.5293E-03     159.214E-03
            1353     13.8910E-03     135.186E-03    -15.0231E+06     5.81634E+06     92.3827E+06    -23.2736E+06    -134.477E-03     232.916E-03    -98.4394E-03     167.799E-03    -135.892E-03     234.056E-03    -97.9642E-03     163.835E-03
            1354     14.6735E-03     135.509E-03    -11.4982E+06     2.91310E+06     91.4281E+06    -17.1254E+06    -137.968E-03     238.531E-03    -100.564E-03     174.448E-03    -139.935E-03     240.228E-03    -100.094E-03     169.244E-03
            1355     15.4473E-03     135.833E-03    -10.9617E+06      1.7699E+06     80.8265E+06    -10.6860E+06    -150.568E-03     253.191E-03    -102.623E-03     163.634E-03    -152.827E-03     255.209E-03    -102.205E-03     156.895E-03
            1356     825.942E-06     132.918E-03     33.0603E+06    -8.02082E+06     34.5671E+06    -4.40231E+06    -89.6746E-03     179.775E-03    -90.1009E-03    -8.93174E-03    -89.5798E-03     179.603E-03    -89.9643E-03    -9.07667E-03
            1357     1.64907E-03     132.950E-03     32.4179E+06    -6.08749E+06     39.9851E+06    -6.93498E+06    -89.7931E-03     180.183E-03    -90.3902E-03    -15.4643E-03    -89.7072E-03     180.015E-03    -90.2284E-03    -15.7143E-03
            1358     2.47159E-03     132.999E-03     31.7941E+06    -4.68990E+06     45.8558E+06    -9.29345E+06    -90.1422E-03     181.139E-03    -90.9963E-03    -22.0715E-03    -90.0675E-03     180.968E-03    -90.8063E-03    -22.4336E-03
            1359     3.29311E-03     133.066E-03     30.1923E+06    -3.18150E+06     52.2824E+06    -9.97909E+06    -90.7784E-03     182.682E-03    -91.9035E-03    -28.4792E-03    -90.7217E-03     182.507E-03    -91.6813E-03    -28.9350E-03
            1360     4.11197E-03     133.156E-03     28.5977E+06    -1.44636E+06     60.6115E+06    -9.93434E+06    -91.3834E-03     184.496E-03    -93.1128E-03    -34.8656E-03    -91.3467E-03     184.315E-03    -92.8491E-03    -35.4126E-03
            1361     4.92723E-03     133.266E-03     26.7007E+06    -1.36033E+06     68.5102E+06    -9.52194E+06    -91.6533E-03     186.226E-03    -94.5726E-03    -40.7886E-03    -91.6359E-03     186.031E-03    -94.2668E-03    -41.4284E-03
            1362     5.74010E-03     133.402E-03     24.4419E+06    -1.27948E+06       73.76E+06    -9.25275E+06    -91.3523E-03     187.578E-03    -96.2253E-03    -45.8595E-03    -91.3528E-03     187.374E-03    -95.8901E-03    -46.5970E-03
            1363     6.54894E-03     133.563E-03     21.3860E+06    -1.90975E+06     76.6500E+06    -8.79293E+06    -90.4295E-03     188.476E-03    -98.0464E-03    -49.8362E-03    -90.4488E-03     188.265E-03    -97.6914E-03    -50.6724E-03
            1364     7.35469E-03     133.754E-03     19.3719E+06    -5.04123E+06     79.1717E+06    -8.37800E+06    -88.9048E-03     188.938E-03    -100.033E-03    -52.2675E-03    -88.9356E-03     188.711E-03    -99.6583E-03    -53.2064E-03
            1365     8.15464E-03     133.974E-03     18.1743E+06    -5.23545E+06     83.3443E+06    -8.64578E+06    -86.4407E-03     188.596E-03    -102.155E-03    -52.2242E-03    -86.4899E-03     188.370E-03    -101.757E-03    -53.2708E-03
            1366     8.95254E-03     134.227E-03     15.9411E+06    -4.33089E+06     87.4664E+06    -9.84438E+06    -83.2362E-03     187.593E-03    -104.356E-03    -48.7536E-03    -83.3177E-03     187.385E-03    -103.936E-03    -49.9174E-03
            1367     9.74490E-03     134.512E-03     11.8288E+06    -4.55882E+06     88.5694E+06    -9.45133E+06    -79.7072E-03     186.275E-03    -106.568E-03    -40.9023E-03    -79.8350E-03     186.106E-03    -106.136E-03    -42.1550E-03
            1368     10.5343E-03     134.833E-03     7.42730E+06    -2.38260E+06     88.9843E+06    -8.56157E+06    -75.2343E-03     183.893E-03    -108.658E-03    -27.6786E-03    -75.4231E-03     183.793E-03    -108.221E-03    -28.9696E-03
            1369     11.3248E-03     135.179E-03     3.20338E+06    -838.743E+03     89.8680E+06    -6.51237E+06    -70.3342E-03     180.756E-03    -110.422E-03    -8.18199E-03    -70.5934E-03     180.743E-03    -109.976E-03    -9.46385E-03
            1370     12.1166E-03     135.552E-03     1.76856E+06    -3.48159E+06     89.6772E+06    -9.56462E+06    -65.2086E-03     176.814E-03    -111.606E-03     16.7490E-03    -65.5263E-03     176.878E-03    -111.155E-03     15.4379E-03
            1371     12.9217E-03     135.928E-03     1.26383E+06    -20.3621E+06     85.8901E+06    -11.6881E+06    -60.3572E-03     172.396E-03    -112.039E-03     40.1532E-03    -60.6820E-03     172.430E-03    -111.582E-03     38.9289E-03
            1372     13.7401E-03     136.298E-03     3.92671E+06     4.82128E+06     101.837E+06    -14.7402E+06    -61.3986E-03     173.268E-03    -111.870E-03     61.7725E-03    -61.8103E-03     173.470E-03    -111.373E-03     60.4793E-03
            1373     14.5415E-03     136.664E-03     7.39518E+06    -2.76989E+06     104.069E+06    -5.65071E+06    -62.8029E-03     174.048E-03    -111.245E-03     67.1755E-03    -63.2691E-03     174.270E-03    -110.731E-03     65.9330E-03
            1374     15.3917E-03     136.942E-03     13.0826E+06    -11.0530E+06     81.9641E+06    -1.18046E+06    -51.7302E-03     161.387E-03    -109.656E-03     81.7141E-03    -52.4649E-03     161.977E-03    -109.249E-03     79.7328E-03
            1375     15.3608E-03     67.8160E-03    -5.03447E+06     125.423E+06     95.6304E+06    -177.795E+03    -106.322E-03     214.060E-03    -107.738E-03     50.9044E-03    -108.203E-03     216.091E-03    -107.434E-03     46.6298E-03
            1376     14.5487E-03     67.7275E-03    -10.6176E+06     125.016E+06     94.4046E+06    -32.8574E+03    -106.155E-03     213.918E-03    -107.763E-03     88.7862E-03    -109.065E-03     216.960E-03    -107.457E-03     83.1954E-03
            1377     13.7410E-03     67.6288E-03    -16.2512E+06     119.559E+06     83.2541E+06     392.831E+03    -106.828E-03     214.585E-03    -107.757E-03     106.888E-03    -110.135E-03     218.018E-03    -107.491E-03     100.942E-03
            1378     12.9321E-03     67.4977E-03    -22.5144E+06     112.060E+06     63.2258E+06     194.215E+03    -108.021E-03     215.734E-03    -107.713E-03     130.151E-03    -111.807E-03     219.654E-03    -107.527E-03     123.717E-03
            1379     12.1231E-03     67.3473E-03    -28.7934E+06     89.3477E+06     43.6752E+06    -11.1342E+03    -109.024E-03     216.718E-03    -107.693E-03     142.118E-03    -112.796E-03     220.578E-03    -107.563E-03     135.563E-03
            1380     11.3147E-03     67.1888E-03    -32.9244E+06     37.9785E+06     31.5219E+06     361.488E+03    -109.909E-03     217.656E-03    -107.747E-03     145.901E-03    -113.303E-03     220.977E-03    -107.597E-03     139.562E-03
            1381     10.5061E-03     67.0293E-03    -36.2671E+06    -20.7042E+06     18.3370E+06    -85.9970E+03    -110.465E-03     218.263E-03    -107.798E-03     143.408E-03    -113.287E-03     220.829E-03    -107.624E-03     137.542E-03
            1382     9.69754E-03     66.8753E-03    -40.2435E+06    -63.8067E+06     9.55813E+06    -56.1237E+03    -110.696E-03     218.538E-03    -107.842E-03     137.572E-03    -112.950E-03     220.396E-03    -107.644E-03     132.316E-03
            1383     8.88998E-03     66.7278E-03    -44.5029E+06    -93.8951E+06     4.17115E+06     359.214E+03    -110.737E-03     218.619E-03    -107.882E-03     131.004E-03    -112.520E-03     219.898E-03    -107.660E-03     126.373E-03
            1384     8.08089E-03     66.5870E-03    -49.0453E+06    -117.791E+06    -1.95240E+06     243.398E+03    -110.610E-03     218.519E-03    -107.909E-03     123.605E-03    -112.004E-03     219.326E-03    -107.677E-03     119.569E-03
            1385     7.27320E-03     66.4554E-03    -54.2830E+06    -142.452E+06    -7.88957E+06     155.574E+03    -110.357E-03     218.299E-03    -107.941E-03     114.718E-03    -111.422E-03     218.688E-03    -107.695E-03     111.249E-03
            1386     6.46472E-03     66.3336E-03    -59.7420E+06    -159.866E+06    -14.5810E+06     173.991E+03    -110.019E-03     217.980E-03    -107.960E-03     104.671E-03    -110.818E-03     218.041E-03    -107.715E-03     101.736E-03
            1387     5.65642E-03     66.2237E-03    -65.6219E+06    -174.829E+06    -22.2578E+06     250.604E+03    -109.658E-03     217.628E-03    -107.971E-03     93.7675E-03    -110.244E-03     217.426E-03    -107.733E-03     91.3255E-03
            1388     4.84853E-03     66.1257E-03    -71.7908E+06    -190.495E+06    -33.4858E+06     148.436E+03    -109.259E-03     217.222E-03    -107.963E-03     82.0481E-03    -109.673E-03     216.802E-03    -107.750E-03     80.0525E-03
            1389     4.04018E-03     66.0415E-03    -78.0737E+06    -206.989E+06    -46.2025E+06     92.5728E+03    -108.838E-03     216.791E-03    -107.953E-03     69.5999E-03    -109.112E-03     216.188E-03    -107.771E-03     68.0107E-03
            1390     3.23220E-03     65.9711E-03    -84.6549E+06    -222.765E+06    -59.2205E+06     81.0209E+03    -108.499E-03     216.445E-03    -107.946E-03     56.5616E-03    -108.669E-03     215.695E-03    -107.796E-03     55.3404E-03
            1391     2.42394E-03     65.9155E-03    -90.6492E+06    -233.094E+06    -73.5249E+06     51.0925E+03    -108.277E-03     216.190E-03    -107.912E-03     43.0098E-03    -108.372E-03     215.348E-03    -107.810E-03     42.1208E-03
            1392     1.61597E-03     65.8751E-03    -95.4850E+06    -242.243E+06    -86.7529E+06     178.924E+03    -108.122E-03     215.964E-03    -107.842E-03     29.2858E-03    -108.161E-03     215.056E-03    -107.786E-03     28.7050E-03
            1393     808.458E-06     65.8501E-03    -98.9388E+06    -248.870E+06    -96.8059E+06     6.93573E+03    -107.987E-03     215.627E-03    -107.641E-03     16.1784E-03    -107.992E-03     214.679E-03    -107.620E-03     15.8673E-03
            1394     15.3547E-03     66.6407E-03    -4.60428E+06     125.600E+06      95.569E+06    -21.3152E+03    -105.997E-03     213.746E-03    -107.749E-03     50.8341E-03    -107.870E-03     215.772E-03    -107.447E-03     46.5649E-03
            1395     14.5495E-03     66.5508E-03    -10.7002E+06     125.043E+06     94.3469E+06    -242.731E+03    -106.373E-03     214.150E-03    -107.777E-03     87.6920E-03    -109.277E-03     217.186E-03    -107.471E-03     82.0786E-03
            1396     13.7404E-03     66.4536E-03    -16.5394E+06     118.622E+06     82.8740E+06     199.684E+03    -106.890E-03     214.652E-03    -107.762E-03     106.450E-03    -110.193E-03     218.077E-03    -107.496E-03     100.499E-03
            1397     12.9318E-03     66.3219E-03    -22.0802E+06     112.519E+06     63.8704E+06     1.11833E+06    -107.939E-03     215.660E-03    -107.721E-03     130.275E-03    -111.723E-03     219.580E-03    -107.533E-03     123.860E-03
            1398     12.1234E-03     66.1721E-03    -26.7804E+06     90.2629E+06     45.0654E+06     530.241E+03    -109.131E-03     216.833E-03    -107.702E-03     142.049E-03    -112.898E-03     220.694E-03    -107.569E-03     135.491E-03
            1399     11.3145E-03     66.0130E-03    -31.3024E+06     37.8810E+06     32.1514E+06    -545.038E+03    -109.946E-03     217.695E-03    -107.749E-03     145.663E-03    -113.330E-03     221.008E-03    -107.597E-03     139.311E-03
            1400     10.5062E-03     65.8539E-03    -35.8141E+06    -20.6998E+06     18.6389E+06    -137.397E+03    -110.458E-03     218.255E-03    -107.797E-03     143.206E-03    -113.275E-03     220.817E-03    -107.622E-03     137.342E-03
            1401     9.69809E-03     65.6997E-03    -40.2371E+06    -64.0989E+06     9.46622E+06     157.384E+03    -110.717E-03     218.556E-03    -107.840E-03     137.534E-03    -112.970E-03     220.412E-03    -107.641E-03     132.282E-03
            1402     8.88920E-03     65.5521E-03    -44.5879E+06    -94.1496E+06     4.04792E+06     150.598E+03    -110.764E-03     218.640E-03    -107.877E-03     131.001E-03    -112.548E-03     219.920E-03    -107.655E-03     126.364E-03
            1403     8.08165E-03     65.4119E-03    -49.1342E+06    -117.677E+06    -1.86871E+06     379.568E+03    -110.631E-03     218.532E-03    -107.901E-03     123.505E-03    -112.026E-03     219.340E-03    -107.668E-03     119.468E-03
            1404     7.27283E-03     65.2796E-03    -54.0418E+06    -142.282E+06    -7.69191E+06     419.581E+03    -110.365E-03     218.294E-03    -107.929E-03     114.576E-03    -111.428E-03     218.683E-03    -107.683E-03     111.109E-03
            1405     6.46487E-03     65.1585E-03    -59.5135E+06    -159.745E+06    -14.6129E+06     180.311E+03    -110.020E-03     217.965E-03    -107.945E-03     104.595E-03    -110.818E-03     218.027E-03    -107.700E-03     101.660E-03
            1406     5.65674E-03     65.0479E-03    -65.2807E+06    -174.807E+06    -22.0741E+06     73.9459E+03    -109.640E-03     217.595E-03    -107.955E-03     93.7330E-03    -110.225E-03     217.392E-03    -107.717E-03     91.2882E-03
            1407     4.84839E-03     64.9505E-03    -71.6460E+06    -190.248E+06    -32.8785E+06     223.710E+03    -109.232E-03     217.182E-03    -107.951E-03     82.0128E-03    -109.646E-03     216.762E-03    -107.735E-03     80.0182E-03
            1408     4.04038E-03     64.8659E-03    -78.3281E+06    -206.877E+06    -45.9530E+06     241.159E+03    -108.854E-03     216.791E-03    -107.937E-03     69.5870E-03    -109.130E-03     216.188E-03    -107.753E-03     68.0000E-03
            1409     3.23212E-03     64.7958E-03    -84.5350E+06    -222.728E+06    -59.2545E+06     95.3748E+03    -108.541E-03     216.456E-03    -107.915E-03     56.5917E-03    -108.710E-03     215.706E-03    -107.766E-03     55.3707E-03
            1410     2.42425E-03     64.7399E-03    -90.5221E+06    -233.146E+06    -73.7284E+06    -57.5008E+03    -108.246E-03     216.117E-03    -107.871E-03     43.0502E-03    -108.339E-03     215.275E-03    -107.770E-03     42.1615E-03
            1411     1.61623E-03     64.6997E-03    -95.5384E+06    -242.299E+06    -86.8563E+06    -24.7409E+03    -107.938E-03     215.786E-03    -107.848E-03     29.2449E-03    -107.977E-03     214.878E-03    -107.793E-03     28.6616E-03
            1412     807.577E-06     64.6749E-03    -98.8111E+06    -248.513E+06    -96.1626E+06     292.972E+03    -107.883E-03     215.736E-03    -107.853E-03     16.1896E-03    -107.890E-03     214.789E-03    -107.830E-03     15.8811E-03
            1413     15.3610E-03     65.4661E-03    -4.67116E+06     125.909E+06     95.8381E+06    -102.860E+03    -106.333E-03     214.074E-03    -107.741E-03     50.2477E-03    -108.205E-03     216.099E-03    -107.438E-03     45.9757E-03
            1414     14.5492E-03     65.3743E-03    -10.3673E+06     125.335E+06     94.4042E+06     201.650E+03    -105.939E-03     213.709E-03    -107.770E-03     87.8402E-03    -108.840E-03     216.744E-03    -107.465E-03     82.2609E-03
            1415     13.7411E-03     65.2789E-03    -16.7303E+06     117.684E+06     82.1339E+06     382.298E+03    -106.810E-03     214.579E-03    -107.769E-03     106.863E-03    -110.117E-03     218.007E-03    -107.505E-03     100.914E-03
            1416     12.9317E-03     65.1466E-03    -21.6551E+06     112.277E+06     64.5038E+06    -1.70248E+03    -108.159E-03     215.889E-03    -107.730E-03     130.401E-03    -111.944E-03     219.809E-03    -107.539E-03     123.957E-03
            1417     12.1230E-03     64.9958E-03    -25.8104E+06     91.2148E+06     46.2905E+06     23.5971E+03    -109.181E-03     216.884E-03    -107.703E-03     141.927E-03    -112.942E-03     220.742E-03    -107.566E-03     135.365E-03
            1418     11.3150E-03     64.8377E-03    -30.7206E+06     37.8790E+06     32.3260E+06     516.693E+03    -110.001E-03     217.743E-03    -107.742E-03     145.612E-03    -113.383E-03     221.057E-03    -107.591E-03     139.270E-03
            1419     10.5063E-03     64.6783E-03    -35.9762E+06    -20.8788E+06     18.5763E+06     495.305E+03    -110.480E-03     218.268E-03    -107.787E-03     143.183E-03    -113.297E-03     220.829E-03    -107.612E-03     137.327E-03
            1420     9.69764E-03     64.5241E-03    -40.4007E+06    -63.6845E+06     9.55328E+06     236.385E+03    -110.696E-03     218.525E-03    -107.828E-03     137.421E-03    -112.951E-03     220.382E-03    -107.630E-03     132.168E-03
            1421     8.88992E-03     64.3766E-03    -44.7000E+06    -94.2921E+06     3.92167E+06     111.583E+03    -110.757E-03     218.621E-03    -107.864E-03     130.776E-03    -112.541E-03     219.899E-03    -107.642E-03     126.137E-03
            1422     8.08113E-03     64.2359E-03    -49.3080E+06    -117.885E+06    -2.01461E+06     204.032E+03    -110.625E-03     218.511E-03    -107.886E-03     123.366E-03    -112.019E-03     219.317E-03    -107.654E-03     119.327E-03
            1423     7.27348E-03     64.1045E-03    -54.1725E+06    -142.124E+06    -7.67884E+06     329.131E+03    -110.354E-03     218.267E-03    -107.913E-03     114.571E-03    -111.419E-03     218.658E-03    -107.667E-03     111.103E-03
            1424     6.46496E-03     63.9827E-03    -59.3942E+06    -159.402E+06    -14.4009E+06     234.692E+03    -110.012E-03     217.940E-03    -107.928E-03     104.645E-03    -110.809E-03     218.003E-03    -107.683E-03     101.712E-03
            1425     5.65670E-03     63.8728E-03    -65.5060E+06    -174.944E+06    -22.2154E+06     115.976E+03    -109.623E-03     217.561E-03    -107.938E-03     93.7556E-03    -110.210E-03     217.358E-03    -107.700E-03     91.3122E-03
            1426     4.84860E-03     63.7749E-03    -71.8064E+06    -190.371E+06    -32.9608E+06     216.607E+03    -109.223E-03     217.155E-03    -107.932E-03     81.9527E-03    -109.637E-03     216.734E-03    -107.717E-03     79.9598E-03
            1427     4.04031E-03     63.6907E-03    -77.9394E+06    -206.580E+06    -45.6972E+06     241.115E+03    -108.857E-03     216.772E-03    -107.916E-03     69.5390E-03    -109.132E-03     216.170E-03    -107.731E-03     67.9526E-03
            1428     3.23238E-03     63.6202E-03    -84.3423E+06    -222.527E+06    -59.0002E+06     109.805E+03    -108.510E-03     216.403E-03    -107.893E-03     56.6064E-03    -108.679E-03     215.653E-03    -107.743E-03     55.3872E-03
            1429     2.42418E-03     63.5647E-03    -90.4390E+06    -233.032E+06    -73.5966E+06    -60.0414E+03    -108.163E-03     216.025E-03    -107.862E-03     43.1032E-03    -108.256E-03     215.183E-03    -107.761E-03     42.2160E-03
            1430     1.61596E-03     63.5245E-03    -95.5051E+06    -242.422E+06    -87.1206E+06    -194.404E+03    -107.948E-03     215.796E-03    -107.848E-03     29.2307E-03    -107.987E-03     214.888E-03    -107.793E-03     28.6448E-03
            1431     808.168E-06     63.4999E-03    -98.5997E+06    -248.556E+06    -96.4380E+06    -14.2479E+03    -107.975E-03     215.732E-03    -107.757E-03     16.1724E-03    -107.980E-03     214.784E-03    -107.736E-03     15.8630E-03
            1432     15.3562E-03     64.2886E-03    -5.37498E+06     125.278E+06     95.0692E+06     35.8524E+03    -105.894E-03     213.655E-03    -107.761E-03     51.4596E-03    -107.774E-03     215.685E-03    -107.459E-03     47.2076E-03
            1433     14.5496E-03     64.2015E-03    -10.9932E+06     124.728E+06     94.0590E+06     463.311E+03    -106.184E-03     213.984E-03    -107.800E-03     88.9423E-03    -109.096E-03     217.027E-03    -107.495E-03     83.3584E-03
            1434     13.7390E-03     64.1021E-03    -16.3584E+06     118.882E+06     83.2954E+06        -577.945    -107.203E-03     214.990E-03    -107.787E-03     106.899E-03    -110.517E-03     218.427E-03    -107.519E-03     100.918E-03
            1435     12.9321E-03     63.9705E-03    -21.9084E+06     112.762E+06     64.0917E+06    -527.863E+03    -108.329E-03     216.052E-03    -107.723E-03     129.944E-03    -112.116E-03     219.976E-03    -107.534E-03     123.477E-03
            1436     12.1236E-03     63.8208E-03    -27.7641E+06     89.5362E+06     44.2825E+06    -121.090E+03    -109.168E-03     216.854E-03    -107.686E-03     141.752E-03    -112.934E-03     220.711E-03    -107.555E-03     135.184E-03
            1437     11.3144E-03     63.6616E-03    -32.6389E+06     37.9469E+06     31.7999E+06     532.089E+03    -109.953E-03     217.684E-03    -107.730E-03     145.438E-03    -113.342E-03     220.999E-03    -107.579E-03     139.098E-03
            1438     10.5064E-03     63.5029E-03    -36.4644E+06    -20.0326E+06     18.6963E+06     403.432E+03    -110.535E-03     218.308E-03    -107.773E-03     143.049E-03    -113.357E-03     220.875E-03    -107.598E-03     137.184E-03
            1439     9.69842E-03     63.3485E-03    -40.4699E+06    -63.7752E+06     9.49194E+06     167.830E+03    -110.737E-03     218.545E-03    -107.807E-03     137.334E-03    -112.993E-03     220.403E-03    -107.609E-03     132.075E-03
            1440     8.88971E-03     63.2009E-03    -44.8359E+06    -94.0795E+06     3.89307E+06     228.635E+03    -110.682E-03     218.523E-03    -107.842E-03     130.732E-03    -112.464E-03     219.801E-03    -107.621E-03     126.100E-03
            1441     8.08190E-03     63.0608E-03    -49.4288E+06    -117.969E+06    -2.23666E+06     89.2104E+03    -110.543E-03     218.412E-03    -107.870E-03     123.394E-03    -111.936E-03     219.218E-03    -107.638E-03     119.359E-03
            1442     7.27302E-03     62.9288E-03    -54.2324E+06    -142.149E+06    -7.63175E+06     118.587E+03    -110.331E-03     218.233E-03    -107.903E-03     114.607E-03    -111.395E-03     218.622E-03    -107.656E-03     111.139E-03
            1443     6.46507E-03     62.8076E-03    -59.7621E+06    -159.242E+06    -14.3873E+06     248.484E+03    -110.016E-03     217.933E-03    -107.917E-03     104.672E-03    -110.816E-03     217.997E-03    -107.672E-03     101.740E-03
            1444     5.65684E-03     62.6972E-03    -65.5617E+06    -174.801E+06    -22.3751E+06     141.552E+03    -109.638E-03     217.560E-03    -107.922E-03     93.7353E-03    -110.224E-03     217.357E-03    -107.686E-03     91.2946E-03
            1445     4.84865E-03     62.5997E-03    -71.6524E+06    -190.589E+06    -33.3059E+06    -63.6744E+03    -109.230E-03     217.143E-03    -107.912E-03     81.9721E-03    -109.643E-03     216.721E-03    -107.698E-03     79.9763E-03
            1446     4.04059E-03     62.5152E-03    -78.1039E+06    -206.581E+06    -45.6309E+06    -22.1395E+03    -108.850E-03     216.744E-03    -107.894E-03     69.5815E-03    -109.126E-03     216.141E-03    -107.709E-03     67.9926E-03
            1447     3.23229E-03     62.4450E-03    -84.3891E+06    -222.125E+06    -58.3990E+06     161.280E+03    -108.453E-03     216.329E-03    -107.876E-03     56.5013E-03    -108.623E-03     215.580E-03    -107.723E-03     55.2837E-03
            1448     2.42416E-03     62.3895E-03    -90.4526E+06    -232.769E+06    -73.1836E+06     113.649E+03    -108.123E-03     215.975E-03    -107.852E-03     42.9790E-03    -108.217E-03     215.134E-03    -107.750E-03     42.0944E-03
            1449     1.61605E-03     62.3493E-03    -95.6428E+06    -242.451E+06    -87.0366E+06    -37.7967E+03    -108.008E-03     215.827E-03    -107.819E-03     29.2451E-03    -108.047E-03     214.918E-03    -107.764E-03     28.6635E-03
            1450     808.078E-06     62.3240E-03    -98.8862E+06    -248.822E+06    -96.7028E+06    -49.1667E+03    -107.973E-03     215.628E-03    -107.655E-03     16.2438E-03    -107.978E-03     214.680E-03    -107.634E-03     15.9329E-03
            1451     15.3576E-03     63.1152E-03    -5.11758E+06     125.227E+06     94.9038E+06     399.810E+03    -106.004E-03     213.790E-03    -107.786E-03     50.7692E-03    -107.881E-03     215.818E-03    -107.486E-03     46.5000E-03
            1452     14.5470E-03     63.0232E-03    -10.7424E+06     125.149E+06     94.4148E+06    -333.065E+03    -106.780E-03     214.586E-03    -107.805E-03     87.3059E-03    -109.691E-03     217.629E-03    -107.499E-03     81.6510E-03
            1453     13.7419E-03     62.9267E-03    -16.2588E+06     119.023E+06     83.2218E+06    -375.557E+03    -107.307E-03     215.074E-03    -107.767E-03     105.883E-03    -110.615E-03     218.505E-03    -107.499E-03     99.8804E-03
            1454     12.9318E-03     62.7947E-03    -22.4024E+06     112.310E+06     63.5975E+06     351.891E+03    -108.158E-03     215.859E-03    -107.701E-03     129.656E-03    -111.944E-03     219.780E-03    -107.514E-03     123.204E-03
            1455     12.1234E-03     62.6448E-03    -27.8480E+06     90.0229E+06     44.5997E+06     485.418E+03    -109.182E-03     216.851E-03    -107.669E-03     141.555E-03    -112.950E-03     220.711E-03    -107.536E-03     134.989E-03
            1456     11.3155E-03     62.4866E-03    -32.3398E+06     37.6965E+06     31.7675E+06    -176.027E+03    -109.949E-03     217.659E-03    -107.709E-03     145.378E-03    -113.333E-03     220.970E-03    -107.558E-03     139.032E-03
            1457     10.5066E-03     62.3270E-03    -36.4427E+06    -20.4304E+06     18.6343E+06    -123.146E+03    -110.469E-03     218.223E-03    -107.754E-03     143.099E-03    -113.289E-03     220.787E-03    -107.578E-03     137.234E-03
            1458     9.69823E-03     62.1728E-03    -40.5742E+06    -63.6601E+06     9.52057E+06     144.128E+03    -110.665E-03     218.458E-03    -107.793E-03     137.419E-03    -112.919E-03     220.314E-03    -107.594E-03     132.169E-03
            1459     8.89026E-03     62.0258E-03    -44.7965E+06    -94.2879E+06     3.74761E+06     93.1056E+03    -110.646E-03     218.478E-03    -107.832E-03     130.892E-03    -112.428E-03     219.755E-03    -107.611E-03     126.262E-03
            1460     8.08133E-03     61.8852E-03    -49.1902E+06    -117.707E+06    -2.10332E+06     202.531E+03    -110.543E-03     218.405E-03    -107.861E-03     123.477E-03    -111.935E-03     219.210E-03    -107.630E-03     119.448E-03
            1461     7.27360E-03     61.7537E-03    -54.2932E+06    -142.335E+06    -7.74493E+06     117.254E+03    -110.344E-03     218.237E-03    -107.893E-03     114.617E-03    -111.407E-03     218.625E-03    -107.647E-03     111.151E-03
            1462     6.46504E-03     61.6320E-03    -59.5813E+06    -159.089E+06    -14.3956E+06     140.072E+03    -110.036E-03     217.940E-03    -107.904E-03     104.618E-03    -110.835E-03     218.005E-03    -107.659E-03     101.683E-03
            1463     5.65693E-03     61.5219E-03    -65.4172E+06    -174.484E+06    -22.2852E+06     91.1841E+03    -109.624E-03     217.531E-03    -107.907E-03     93.6795E-03    -110.209E-03     217.328E-03    -107.671E-03     91.2404E-03
            1464     4.84870E-03     61.4243E-03    -71.7447E+06    -190.432E+06    -33.1646E+06    -124.044E+03    -109.222E-03     217.119E-03    -107.897E-03     81.9570E-03    -109.635E-03     216.697E-03    -107.682E-03     79.9613E-03
            1465     4.04046E-03     61.3399E-03    -78.1850E+06    -206.686E+06    -45.7768E+06    -202.765E+03    -108.839E-03     216.715E-03    -107.876E-03     69.5340E-03    -109.115E-03     216.112E-03    -107.692E-03     67.9426E-03
            1466     3.23254E-03     61.2696E-03    -84.6778E+06    -222.372E+06    -58.6539E+06    -92.0384E+03    -108.457E-03     216.310E-03    -107.853E-03     56.4109E-03    -108.628E-03     215.560E-03    -107.701E-03     55.1901E-03
            1467     2.42429E-03     61.2145E-03    -90.5380E+06    -232.653E+06    -72.9556E+06     122.187E+03    -108.156E-03     215.971E-03    -107.815E-03     42.9793E-03    -108.251E-03     215.129E-03    -107.711E-03     42.0962E-03
            1468     1.61624E-03     61.1737E-03    -95.4548E+06    -242.222E+06    -86.8081E+06     137.514E+03    -107.935E-03     215.712E-03    -107.776E-03     29.2752E-03    -107.974E-03     214.804E-03    -107.721E-03     28.6959E-03
            1469     808.078E-06     61.1492E-03    -99.2939E+06    -249.076E+06    -96.8371E+06     5.02132E+03    -107.734E-03     215.554E-03    -107.821E-03     16.1018E-03    -107.741E-03     214.606E-03    -107.800E-03     15.7902E-03
            1470     15.3569E-03     61.9380E-03    -5.41847E+06     125.724E+06     95.6300E+06     117.907E+03    -106.676E-03     214.417E-03    -107.742E-03     49.6959E-03    -108.551E-03     216.442E-03    -107.438E-03     45.4093E-03
            1471     14.5516E-03     61.8475E-03    -10.0627E+06     125.736E+06     94.8406E+06    -20.5182E+03    -106.236E-03     213.988E-03    -107.752E-03     87.1927E-03    -109.136E-03     217.024E-03    -107.446E-03     81.5782E-03
            1472     13.7401E-03     61.7506E-03    -16.5596E+06     117.899E+06     82.0383E+06     247.214E+03    -106.942E-03     214.675E-03    -107.734E-03     106.136E-03    -110.243E-03     218.099E-03    -107.470E-03     100.170E-03
            1473     12.9328E-03     61.6195E-03    -22.0893E+06     111.890E+06     63.9450E+06     346.418E+03    -108.116E-03     215.802E-03    -107.686E-03     129.919E-03    -111.898E-03     219.718E-03    -107.497E-03     123.480E-03
            1474     12.1239E-03     61.4690E-03    -26.4911E+06     90.9758E+06     45.9307E+06     393.108E+03    -109.106E-03     216.766E-03    -107.660E-03     141.790E-03    -112.865E-03     220.620E-03    -107.524E-03     135.240E-03
            1475     11.3150E-03     61.3109E-03    -31.2934E+06     37.9749E+06     32.0424E+06     224.456E+03    -109.998E-03     217.696E-03    -107.699E-03     145.641E-03    -113.380E-03     221.009E-03    -107.548E-03     139.299E-03
            1476     10.5070E-03     61.1516E-03    -36.1154E+06    -20.9694E+06     18.4788E+06     52.7113E+03    -110.441E-03     218.184E-03    -107.743E-03     143.239E-03    -113.255E-03     220.742E-03    -107.568E-03     137.385E-03
            1477     9.69841E-03     60.9976E-03    -40.3244E+06    -63.5761E+06     9.75607E+06     49.8386E+03    -110.570E-03     218.359E-03    -107.789E-03     137.421E-03    -112.820E-03     220.212E-03    -107.589E-03     132.180E-03
            1478     8.88964E-03     60.8502E-03    -44.5434E+06    -94.2636E+06     3.91668E+06     7.67455E+03    -110.657E-03     218.488E-03    -107.830E-03     130.838E-03    -112.438E-03     219.764E-03    -107.609E-03     126.208E-03
            1479     8.08198E-03     60.7099E-03    -49.2048E+06    -118.041E+06    -2.40271E+06     222.564E+03    -110.602E-03     218.457E-03    -107.855E-03     123.422E-03    -111.993E-03     219.260E-03    -107.624E-03     119.391E-03
            1480     7.27313E-03     60.5781E-03    -54.0726E+06    -141.973E+06    -7.88585E+06     291.849E+03    -110.399E-03     218.277E-03    -107.878E-03     114.580E-03    -111.462E-03     218.668E-03    -107.634E-03     111.113E-03
            1481     6.46534E-03     60.4566E-03    -59.6019E+06    -158.983E+06    -14.3089E+06     25.1595E+03    -110.031E-03     217.918E-03    -107.886E-03     104.525E-03    -110.830E-03     217.982E-03    -107.641E-03     101.590E-03
            1482     5.65699E-03     60.3466E-03    -65.4672E+06    -174.314E+06    -21.8164E+06    -99.1103E+03    -109.608E-03     217.496E-03    -107.889E-03     93.5968E-03    -110.193E-03     217.294E-03    -107.650E-03     91.1550E-03
            1483     4.84881E-03     60.2489E-03    -71.5549E+06    -190.323E+06    -32.9542E+06    -160.617E+03    -109.200E-03     217.076E-03    -107.876E-03     81.8988E-03    -109.612E-03     216.655E-03    -107.661E-03     79.9040E-03
            1484     4.04078E-03     60.1646E-03    -77.9398E+06    -206.800E+06    -46.0802E+06    -134.431E+03    -108.781E-03     216.638E-03    -107.857E-03     69.4791E-03    -109.055E-03     216.035E-03    -107.675E-03     67.8903E-03
            1485     3.23235E-03     60.0945E-03    -84.3408E+06    -222.635E+06    -59.1856E+06    -137.929E+03    -108.442E-03     216.280E-03    -107.838E-03     56.4938E-03    -108.610E-03     215.530E-03    -107.689E-03     55.2733E-03
            1486     2.42443E-03     60.0390E-03    -90.4483E+06    -232.861E+06    -73.3179E+06    -132.176E+03    -108.173E-03     215.971E-03    -107.798E-03     43.0898E-03    -108.267E-03     215.129E-03    -107.696E-03     42.2030E-03
            1487     1.61622E-03     59.9989E-03    -95.5384E+06    -242.028E+06    -86.4575E+06     188.195E+03    -107.917E-03     215.674E-03    -107.757E-03     29.3212E-03    -107.957E-03     214.767E-03    -107.700E-03     28.7413E-03
            1488     808.073E-06     59.9738E-03    -99.0032E+06    -248.682E+06    -96.4198E+06     470.747E+03    -107.719E-03     215.513E-03    -107.794E-03     16.0219E-03    -107.726E-03     214.565E-03    -107.772E-03     15.7175E-03
            1489     15.3614E-03     60.7627E-03    -4.97836E+06     125.468E+06     95.6675E+06     10.8826E+03    -106.287E-03     214.007E-03    -107.720E-03     51.2908E-03    -108.170E-03     216.040E-03    -107.416E-03     47.0162E-03
            1490     14.5485E-03     60.6730E-03    -10.6600E+06     125.025E+06     94.3881E+06     423.838E+03    -106.190E-03     213.934E-03    -107.744E-03     88.6607E-03    -109.095E-03     216.972E-03    -107.438E-03     83.0782E-03
            1491     13.7418E-03     60.5752E-03    -16.2031E+06     118.190E+06     82.6999E+06     349.878E+03    -106.907E-03     214.640E-03    -107.733E-03     106.641E-03    -110.204E-03     218.059E-03    -107.468E-03     100.698E-03
            1492     12.9321E-03     60.4435E-03    -21.7254E+06     112.143E+06     63.7506E+06     158.471E+03    -108.098E-03     215.783E-03    -107.685E-03     130.102E-03    -111.875E-03     219.696E-03    -107.497E-03     123.670E-03
            1493     12.1236E-03     60.2940E-03    -27.2432E+06     90.2474E+06     44.8256E+06     89.1528E+03    -109.176E-03     216.832E-03    -107.657E-03     141.940E-03    -112.937E-03     220.688E-03    -107.524E-03     135.383E-03
            1494     11.3153E-03     60.1350E-03    -31.8089E+06     38.5034E+06     32.2328E+06     337.591E+03    -109.986E-03     217.683E-03    -107.697E-03     145.516E-03    -113.369E-03     220.996E-03    -107.546E-03     139.178E-03
            1495     10.5067E-03     59.9761E-03    -36.0595E+06    -20.3205E+06     18.6348E+06     249.072E+03    -110.430E-03     218.170E-03    -107.740E-03     143.013E-03    -113.242E-03     220.728E-03    -107.565E-03     137.164E-03
            1496     9.69831E-03     59.8223E-03    -40.2606E+06    -63.8194E+06     9.73654E+06     50.9250E+03    -110.609E-03     218.394E-03    -107.784E-03     137.436E-03    -112.859E-03     220.246E-03    -107.585E-03     132.194E-03
            1497     8.89034E-03     59.6747E-03    -44.5655E+06    -93.8817E+06     4.25089E+06     80.1696E+03    -110.697E-03     218.520E-03    -107.823E-03     130.792E-03    -112.478E-03     219.796E-03    -107.601E-03     126.162E-03
            1498     8.08141E-03     59.5345E-03    -48.9871E+06    -118.505E+06    -2.40563E+06    -52.5206E+03    -110.646E-03     218.486E-03    -107.840E-03     123.302E-03    -112.036E-03     219.288E-03    -107.610E-03     119.263E-03
            1499     7.27389E-03     59.4025E-03    -53.6410E+06    -142.139E+06    -7.71930E+06     291.112E+03    -110.392E-03     218.252E-03    -107.860E-03     114.490E-03    -111.452E-03     218.640E-03    -107.615E-03     111.025E-03
            1500     6.46529E-03     59.2814E-03    -58.7767E+06    -158.208E+06    -13.6248E+06     137.827E+03    -110.016E-03     217.883E-03    -107.868E-03     104.478E-03    -110.812E-03     217.949E-03    -107.621E-03     101.546E-03
            1501     5.65720E-03     59.1712E-03    -64.6370E+06    -174.402E+06    -21.4801E+06    -245.308E+03    -109.599E-03     217.468E-03    -107.869E-03     93.5972E-03    -110.181E-03     217.263E-03    -107.630E-03     91.1543E-03
            1502     4.84900E-03     59.0737E-03    -71.1892E+06    -190.534E+06    -33.1189E+06     99.2662E+03    -109.147E-03     217.005E-03    -107.857E-03     81.9092E-03    -109.557E-03     216.581E-03    -107.643E-03     79.9197E-03
            1503     4.04056E-03     58.9894E-03    -77.8276E+06    -206.703E+06    -46.0428E+06     113.727E+03    -108.733E-03     216.579E-03    -107.846E-03     69.4789E-03    -109.006E-03     215.975E-03    -107.664E-03     67.8951E-03
            1504     3.23255E-03     58.9194E-03    -84.3302E+06    -222.551E+06    -59.1356E+06     14.1114E+03    -108.412E-03     216.247E-03    -107.834E-03     56.5093E-03    -108.580E-03     215.496E-03    -107.685E-03     55.2910E-03
            1505     2.42417E-03     58.8638E-03    -90.4658E+06    -233.041E+06    -73.6553E+06     105.199E+03    -108.155E-03     215.954E-03    -107.799E-03     43.0061E-03    -108.248E-03     215.112E-03    -107.698E-03     42.1211E-03
            1506     1.61623E-03     58.8237E-03    -95.4402E+06    -242.213E+06    -86.9122E+06     72.5795E+03    -107.933E-03     215.690E-03    -107.757E-03     29.2403E-03    -107.971E-03     214.782E-03    -107.702E-03     28.6596E-03
            1507     808.124E-06     58.7988E-03    -98.3763E+06    -248.080E+06    -95.8647E+06    -40.1150E+03    -107.903E-03     215.513E-03    -107.610E-03     16.0844E-03    -107.908E-03     214.566E-03    -107.587E-03     15.7723E-03
            1508     15.3542E-03     59.5867E-03    -4.57496E+06     125.233E+06     95.2031E+06     224.504E+03    -106.210E-03     213.951E-03    -107.741E-03     51.0871E-03    -108.087E-03     215.981E-03    -107.440E-03     46.8024E-03
            1509     14.5504E-03     59.4962E-03    -10.6122E+06     125.186E+06     94.2079E+06    -184.675E+03    -106.521E-03     214.279E-03    -107.758E-03     87.4635E-03    -109.421E-03     217.313E-03    -107.453E-03     81.8419E-03
            1510     13.7404E-03     59.4000E-03    -16.3150E+06     118.111E+06     82.7412E+06     48.9496E+03    -106.943E-03     214.680E-03    -107.737E-03     106.363E-03    -110.240E-03     218.099E-03    -107.471E-03     100.408E-03
            1511     12.9322E-03     59.2681E-03    -22.1148E+06     111.776E+06     63.4631E+06     480.494E+03    -108.150E-03     215.835E-03    -107.685E-03     130.084E-03    -111.930E-03     219.750E-03    -107.498E-03     123.646E-03
            1512     12.1238E-03     59.1179E-03    -27.1487E+06     90.3956E+06     45.0016E+06     148.281E+03    -109.250E-03     216.902E-03    -107.652E-03     141.585E-03    -113.010E-03     220.756E-03    -107.519E-03     135.018E-03
            1513     11.3154E-03     58.9595E-03    -31.8008E+06     38.5528E+06     32.3753E+06     32.6462E+03    -109.911E-03     217.602E-03    -107.691E-03     145.386E-03    -113.290E-03     220.912E-03    -107.539E-03     139.053E-03
            1514     10.5069E-03     58.8008E-03    -36.2478E+06    -19.9638E+06     18.8071E+06     287.190E+03    -110.420E-03     218.157E-03    -107.737E-03     143.020E-03    -113.235E-03     220.718E-03    -107.561E-03     137.171E-03
            1515     9.69854E-03     58.6467E-03    -40.6305E+06    -63.6709E+06     9.53824E+06     232.352E+03    -110.714E-03     218.488E-03    -107.774E-03     137.306E-03    -112.966E-03     220.342E-03    -107.575E-03     132.059E-03
            1516     8.88984E-03     58.4993E-03    -45.1870E+06    -93.7282E+06     4.05652E+06     57.9240E+03    -110.748E-03     218.552E-03    -107.804E-03     130.704E-03    -112.531E-03     219.830E-03    -107.582E-03     126.073E-03
            1517     8.08239E-03     58.3588E-03    -50.1577E+06    -118.412E+06    -2.33548E+06     33.8843E+03    -110.613E-03     218.433E-03    -107.820E-03     123.217E-03    -112.008E-03     219.237E-03    -107.588E-03     119.180E-03
            1518     7.27345E-03     58.2274E-03    -55.1517E+06    -141.879E+06    -8.54131E+06    -588.968E+03    -110.330E-03     218.168E-03    -107.838E-03     114.462E-03    -111.396E-03     218.559E-03    -107.595E-03     110.990E-03
            1519     6.46554E-03     58.1058E-03    -59.8182E+06    -158.326E+06    -14.9630E+06    -855.867E+03    -109.977E-03     217.822E-03    -107.846E-03     104.501E-03    -110.775E-03     217.890E-03    -107.604E-03     101.559E-03
            1520     5.65723E-03     57.9961E-03    -65.2792E+06    -175.189E+06    -22.6209E+06    -9.40842E+03    -109.557E-03     217.408E-03    -107.851E-03     93.5536E-03    -110.139E-03     217.202E-03    -107.616E-03     91.1156E-03
            1521     4.84890E-03     57.8985E-03    -71.6840E+06    -190.328E+06    -33.1737E+06     328.433E+03    -109.110E-03     216.957E-03    -107.847E-03     81.8745E-03    -109.522E-03     216.535E-03    -107.633E-03     79.8892E-03
            1522     4.04083E-03     57.8144E-03    -78.1682E+06    -206.541E+06    -45.7453E+06     293.066E+03    -108.742E-03     216.579E-03    -107.837E-03     69.4534E-03    -109.017E-03     215.976E-03    -107.653E-03     67.8724E-03
            1523     3.23240E-03     57.7441E-03    -84.6000E+06    -222.588E+06    -59.1782E+06     129.599E+03    -108.417E-03     216.236E-03    -107.819E-03     56.4541E-03    -108.586E-03     215.486E-03    -107.669E-03     55.2371E-03
            1524     2.42450E-03     57.6887E-03    -90.6093E+06    -233.046E+06    -73.6955E+06    -7.91511E+03    -108.098E-03     215.886E-03    -107.787E-03     42.9605E-03    -108.192E-03     215.044E-03    -107.686E-03     42.0751E-03
            1525     1.61617E-03     57.6485E-03    -95.1819E+06    -242.134E+06    -86.9825E+06    -93.4586E+03    -107.898E-03     215.660E-03    -107.763E-03     29.2516E-03    -107.935E-03     214.753E-03    -107.708E-03     28.6699E-03
            1526     808.089E-06     57.6237E-03    -98.2852E+06    -248.288E+06    -96.3336E+06    -370.879E+03    -107.903E-03     215.547E-03    -107.644E-03     16.2394E-03    -107.907E-03     214.600E-03    -107.623E-03     15.9220E-03
            1527     15.3616E-03     58.4100E-03    -4.67031E+06     125.473E+06     95.4954E+06     53.6521E+03    -106.397E-03     214.128E-03    -107.731E-03     50.2919E-03    -108.270E-03     216.153E-03    -107.429E-03     46.0184E-03
            1528     14.5492E-03     58.3207E-03    -10.2954E+06     125.483E+06     94.2946E+06     186.480E+03    -106.032E-03     213.788E-03    -107.755E-03     87.6806E-03    -108.933E-03     216.823E-03    -107.451E-03     82.0894E-03
            1529     13.7414E-03     58.2248E-03    -16.7804E+06     117.703E+06     82.1577E+06     388.777E+03    -107.179E-03     214.919E-03    -107.740E-03     106.698E-03    -110.484E-03     218.345E-03    -107.476E-03     100.727E-03
            1530     12.9324E-03     58.0921E-03    -22.0634E+06     111.892E+06     63.8814E+06     3.03842E+03    -108.362E-03     216.040E-03    -107.678E-03     129.996E-03    -112.144E-03     219.955E-03    -107.489E-03     123.538E-03
            1531     12.1241E-03     57.9421E-03    -26.7040E+06     90.4605E+06     45.2791E+06     100.405E+03    -109.083E-03     216.725E-03    -107.642E-03     141.494E-03    -112.835E-03     220.572E-03    -107.508E-03     134.946E-03
            1532     11.3153E-03     57.7844E-03    -31.6506E+06     38.2257E+06     32.1618E+06     428.123E+03    -109.900E-03     217.586E-03    -107.685E-03     145.419E-03    -113.279E-03     220.895E-03    -107.534E-03     139.091E-03
            1533     10.5067E-03     57.6250E-03    -36.3207E+06    -19.9747E+06     18.8119E+06     456.389E+03    -110.535E-03     218.262E-03    -107.727E-03     142.950E-03    -113.352E-03     220.824E-03    -107.551E-03     137.095E-03
            1534     9.69855E-03     57.4711E-03    -40.5427E+06    -63.1412E+06     9.61241E+06     353.323E+03    -110.758E-03     218.514E-03    -107.755E-03     137.143E-03    -113.010E-03     220.370E-03    -107.557E-03     131.894E-03
            1535     8.89086E-03     57.3239E-03    -45.0343E+06    -93.8976E+06     3.84115E+06     417.238E+03    -110.737E-03     218.518E-03    -107.781E-03     130.649E-03    -112.518E-03     219.795E-03    -107.560E-03     126.023E-03
            1536     8.08176E-03     57.1834E-03    -49.5138E+06    -117.699E+06    -2.03520E+06     197.700E+03    -110.569E-03     218.367E-03    -107.798E-03     123.179E-03    -111.961E-03     219.171E-03    -107.566E-03     119.149E-03
            1537     7.27415E-03     57.0521E-03    -54.3609E+06    -140.426E+06    -8.17031E+06    -649.825E+03    -110.304E-03     218.120E-03    -107.816E-03     114.382E-03    -111.367E-03     218.516E-03    -107.575E-03     110.911E-03
            1538     6.46551E-03     56.9306E-03    -60.3874E+06    -159.517E+06    -15.9850E+06    -837.172E+03    -109.924E-03     217.749E-03    -107.825E-03     104.420E-03    -110.721E-03     217.811E-03    -107.586E-03     101.483E-03
            1539     5.65729E-03     56.8208E-03    -66.6001E+06    -176.141E+06    -23.5846E+06    -351.981E+03    -109.508E-03     217.344E-03    -107.836E-03     93.4688E-03    -110.094E-03     217.136E-03    -107.601E-03     91.0283E-03
            1540     4.84909E-03     56.7234E-03    -72.3868E+06    -190.254E+06    -33.7464E+06    -116.540E+03    -109.102E-03     216.934E-03    -107.832E-03     81.7955E-03    -109.517E-03     216.514E-03    -107.620E-03     79.8055E-03
            1541     4.04063E-03     56.6392E-03    -78.2445E+06    -206.665E+06    -45.9420E+06    -34.9847E+03    -108.729E-03     216.551E-03    -107.822E-03     69.4683E-03    -109.005E-03     215.948E-03    -107.638E-03     67.8835E-03
            1542     3.23276E-03     56.5689E-03    -84.4936E+06    -222.406E+06    -58.9744E+06     5.11605E+03    -108.387E-03     216.193E-03    -107.807E-03     56.4848E-03    -108.556E-03     215.444E-03    -107.656E-03     55.2665E-03
            1543     2.42427E-03     56.5137E-03    -90.4614E+06    -232.840E+06    -73.4713E+06    -167.203E+03    -108.077E-03     215.857E-03    -107.780E-03     42.9978E-03    -108.170E-03     215.016E-03    -107.679E-03     42.1109E-03
            1544     1.61618E-03     56.4734E-03     -95.475E+06    -242.185E+06    -86.8887E+06    -254.065E+03    -107.869E-03     215.634E-03    -107.765E-03     29.2721E-03    -107.908E-03     214.727E-03    -107.710E-03     28.6869E-03
            1545     808.043E-06     56.4484E-03    -98.9832E+06    -248.646E+06    -96.2924E+06     139.734E+03    -107.775E-03     215.565E-03    -107.790E-03     16.2383E-03    -107.782E-03     214.617E-03    -107.767E-03     15.9307E-03
            1546     15.3564E-03     57.2359E-03    -4.86741E+06     124.923E+06     95.1494E+06     122.263E+03    -105.970E-03     213.719E-03    -107.749E-03     51.5605E-03    -107.847E-03     215.746E-03    -107.447E-03     47.3008E-03
            1547     14.5492E-03     57.1463E-03    -10.9165E+06     124.865E+06     94.1129E+06     650.638E+03    -106.508E-03     214.284E-03    -107.776E-03     88.5637E-03    -109.415E-03     217.322E-03    -107.470E-03     82.9642E-03
            1548     13.7399E-03     57.0475E-03    -16.0735E+06     118.437E+06     82.9270E+06     204.316E+03    -107.462E-03     215.203E-03    -107.741E-03     106.400E-03    -110.763E-03     218.627E-03    -107.475E-03     100.411E-03
            1549     12.9329E-03     56.9162E-03    -21.6862E+06     112.235E+06     63.7595E+06     28.2346E+03    -108.281E-03     215.949E-03    -107.668E-03     129.595E-03    -112.055E-03     219.859E-03    -107.480E-03     123.147E-03
            1550     12.1239E-03     56.7673E-03    -27.4557E+06     90.3524E+06     44.6588E+06     322.704E+03    -109.090E-03     216.722E-03    -107.632E-03     141.422E-03    -112.846E-03     220.572E-03    -107.500E-03     134.873E-03
            1551     11.3152E-03     56.6085E-03    -32.1434E+06     38.0625E+06     31.8018E+06     390.202E+03    -110.010E-03     217.681E-03    -107.671E-03     145.264E-03    -113.389E-03     220.989E-03    -107.521E-03     138.929E-03
            1552     10.5074E-03     56.4494E-03    -36.1277E+06    -20.2239E+06     18.6523E+06     285.719E+03    -110.559E-03     218.265E-03    -107.706E-03     142.817E-03    -113.372E-03     220.824E-03    -107.531E-03     136.958E-03
            1553     9.69903E-03     56.2957E-03    -40.1615E+06    -63.1305E+06     9.67756E+06     378.869E+03    -110.714E-03     218.448E-03    -107.734E-03     137.104E-03    -112.963E-03     220.302E-03    -107.536E-03     131.859E-03
            1554     8.89018E-03     56.1482E-03    -44.0418E+06    -93.7797E+06     4.09918E+06     331.135E+03    -110.692E-03     218.453E-03    -107.761E-03     130.592E-03    -112.467E-03     219.727E-03    -107.541E-03     125.970E-03
            1555     8.08270E-03     56.0084E-03    -48.1364E+06    -116.868E+06    -1.63706E+06    -166.421E+03    -110.567E-03     218.345E-03    -107.779E-03     123.180E-03    -111.952E-03     219.150E-03    -107.548E-03     119.148E-03
            1556     7.27376E-03     55.8766E-03    -53.0467E+06    -140.519E+06    -7.13476E+06     157.939E+03    -110.313E-03     218.112E-03    -107.799E-03     114.321E-03    -111.371E-03     218.504E-03    -107.554E-03     110.860E-03
            1557     6.46585E-03     55.7557E-03    -58.9417E+06    -159.437E+06    -14.5321E+06     642.708E+03    -109.909E-03     217.717E-03    -107.807E-03     104.287E-03    -110.701E-03     217.775E-03    -107.563E-03     101.370E-03
            1558     5.65740E-03     55.6455E-03    -65.4299E+06    -175.661E+06    -23.1684E+06    -89.0809E+03    -109.472E-03     217.285E-03    -107.813E-03     93.4091E-03    -110.051E-03     217.076E-03    -107.580E-03     90.9749E-03
            1559     4.84907E-03     55.5483E-03    -71.9358E+06    -190.672E+06    -34.0511E+06    -501.969E+03    -109.084E-03     216.893E-03    -107.809E-03     81.7647E-03    -109.495E-03     216.470E-03    -107.599E-03     79.7704E-03
            1560     4.04101E-03     55.4640E-03    -78.3554E+06    -206.844E+06    -46.1438E+06    -349.640E+03    -108.687E-03     216.490E-03    -107.802E-03     69.4187E-03    -108.962E-03     215.886E-03    -107.620E-03     67.8310E-03
            1561     3.23238E-03     55.3940E-03    -84.7536E+06    -222.446E+06    -58.8604E+06    -310.365E+03    -108.331E-03     216.127E-03    -107.796E-03     56.4294E-03    -108.501E-03     215.377E-03    -107.645E-03     55.2083E-03
            1562     2.42445E-03     55.3385E-03    -90.6724E+06    -232.835E+06    -73.2866E+06    -217.522E+03    -108.087E-03     215.858E-03    -107.771E-03     42.9593E-03    -108.182E-03     215.017E-03    -107.669E-03     42.0700E-03
            1563     1.61627E-03     55.2983E-03    -95.6553E+06    -242.347E+06    -86.9688E+06    -92.3701E+03    -107.889E-03     215.629E-03    -107.741E-03     29.2111E-03    -107.928E-03     214.721E-03    -107.685E-03     28.6275E-03
            1564     808.041E-06     55.2734E-03    -98.9457E+06    -248.880E+06    -96.8344E+06     122.528E+03    -107.807E-03     215.490E-03    -107.683E-03     16.2032E-03    -107.812E-03     214.542E-03    -107.663E-03     15.8972E-03
            1565     15.3571E-03     56.0590E-03    -4.97563E+06     124.858E+06     95.1072E+06     340.262E+03    -106.475E-03     214.227E-03    -107.752E-03     49.8848E-03    -108.344E-03     216.246E-03    -107.450E-03     45.5956E-03
            1566     14.5489E-03     55.9689E-03    -10.3562E+06     125.553E+06     94.5683E+06    -344.458E+03    -106.783E-03     214.537E-03    -107.754E-03     86.8439E-03    -109.683E-03     217.571E-03    -107.448E-03     81.1883E-03
            1567     13.7424E-03     55.8716E-03    -16.3215E+06     118.172E+06     82.4847E+06    -23.2814E+03    -107.112E-03     214.828E-03    -107.716E-03     105.732E-03    -110.407E-03     218.245E-03    -107.451E-03     99.7537E-03
            1568     12.9323E-03     55.7410E-03    -22.0775E+06     111.862E+06     63.6035E+06     468.795E+03    -108.064E-03     215.723E-03    -107.659E-03     129.441E-03    -111.835E-03     219.629E-03    -107.471E-03     123.010E-03
            1569     12.1241E-03     55.5912E-03    -26.9552E+06     91.0039E+06     45.4028E+06     547.455E+03    -109.255E-03     216.880E-03    -107.626E-03     141.394E-03    -113.013E-03     220.734E-03    -107.491E-03     134.835E-03
            1570     11.3161E-03     55.4332E-03    -31.6290E+06     38.3817E+06     32.0402E+06     281.787E+03    -110.095E-03     217.748E-03    -107.653E-03     145.360E-03    -113.472E-03     221.056E-03    -107.503E-03     139.022E-03
            1571     10.5072E-03     55.2739E-03    -36.0938E+06    -20.5397E+06     18.4982E+06     49.5063E+03    -110.533E-03     218.218E-03    -107.685E-03     142.838E-03    -113.343E-03     220.773E-03    -107.510E-03     136.983E-03
            1572     9.69893E-03     55.1201E-03    -40.0344E+06    -63.3133E+06     9.74873E+06     86.4625E+03    -110.658E-03     218.373E-03    -107.716E-03     137.026E-03    -112.902E-03     220.223E-03    -107.517E-03     131.785E-03
            1573     8.89116E-03     54.9732E-03    -44.1484E+06    -93.4101E+06     4.07409E+06    -113.524E+03    -110.668E-03     218.411E-03    -107.744E-03     130.559E-03    -112.441E-03     219.685E-03    -107.524E-03     125.936E-03
            1574     8.08202E-03     54.8327E-03    -48.9211E+06    -116.726E+06    -1.84998E+06    -58.0812E+03    -110.566E-03     218.326E-03    -107.761E-03     123.126E-03    -111.954E-03     219.132E-03    -107.530E-03     119.097E-03
            1575     7.27443E-03     54.7015E-03    -54.2963E+06    -141.592E+06    -7.61932E+06     346.540E+03    -110.292E-03     218.072E-03    -107.780E-03     114.222E-03    -111.353E-03     218.460E-03    -107.534E-03     110.766E-03
            1576     6.46581E-03     54.5802E-03    -59.4501E+06    -159.080E+06    -14.4718E+06     596.888E+03    -109.891E-03     217.678E-03    -107.787E-03     104.239E-03    -110.685E-03     217.739E-03    -107.543E-03     101.322E-03
            1577     5.65763E-03     54.4708E-03    -65.0210E+06    -174.519E+06    -22.4096E+06     439.877E+03    -109.476E-03     217.268E-03    -107.792E-03     93.4189E-03    -110.057E-03     217.063E-03    -107.556E-03     90.9919E-03
            1578     4.84927E-03     54.3731E-03    -71.5410E+06    -190.471E+06    -33.4612E+06    -48.1930E+03    -109.079E-03     216.864E-03    -107.784E-03     81.7246E-03    -109.489E-03     216.441E-03    -107.572E-03     79.7366E-03
            1579     4.04083E-03     54.2891E-03    -78.2119E+06    -206.931E+06    -46.2230E+06    -344.962E+03    -108.690E-03     216.459E-03    -107.769E-03     69.2566E-03    -108.964E-03     215.854E-03    -107.587E-03     67.6684E-03
            1580     3.23288E-03     54.2190E-03    -84.6297E+06    -222.657E+06    -59.1059E+06    -330.885E+03    -108.319E-03     216.073E-03    -107.754E-03     56.2782E-03    -108.487E-03     215.322E-03    -107.604E-03     55.0572E-03
            1581     2.42436E-03     54.1634E-03    -90.8463E+06    -233.186E+06    -73.6513E+06    -232.958E+03    -108.032E-03     215.758E-03    -107.726E-03     42.8636E-03    -108.126E-03     214.916E-03    -107.625E-03     41.9760E-03
            1582     1.61626E-03     54.1233E-03    -95.8486E+06    -242.500E+06    -87.0494E+06    -33.5890E+03    -107.880E-03     215.566E-03    -107.686E-03     29.1541E-03    -107.920E-03     214.658E-03    -107.631E-03     28.5727E-03
            1583     808.269E-06     54.0983E-03    -99.2018E+06    -248.968E+06    -96.7528E+06     91.9622E+03    -107.796E-03     215.357E-03    -107.561E-03     16.2005E-03    -107.803E-03     214.409E-03    -107.540E-03     15.8930E-03
            1584     15.3604E-03     54.8849E-03    -5.16771E+06     124.939E+06     95.3035E+06     41.6550E+03    -106.853E-03     214.565E-03    -107.712E-03     50.1010E-03    -108.726E-03     216.586E-03    -107.409E-03     45.8162E-03
            1585     14.5514E-03     54.7921E-03    -9.88507E+06     125.866E+06     94.8387E+06     665.788E+03    -106.176E-03     213.897E-03    -107.721E-03     88.1000E-03    -109.071E-03     216.928E-03    -107.415E-03     82.5198E-03
            1586     13.7407E-03     54.6973E-03    -16.5746E+06     117.848E+06     82.1420E+06     385.235E+03    -106.887E-03     214.593E-03    -107.707E-03     106.305E-03    -110.178E-03     218.006E-03    -107.443E-03     100.361E-03
            1587     12.9330E-03     54.5649E-03    -22.0668E+06     111.873E+06     63.6781E+06     239.396E+03    -108.176E-03     215.832E-03    -107.656E-03     129.872E-03    -111.949E-03     219.739E-03    -107.468E-03     123.438E-03
            1588     12.1243E-03     54.4157E-03    -26.9956E+06     90.5613E+06     45.2584E+06     325.193E+03    -109.313E-03     216.931E-03    -107.618E-03     141.505E-03    -113.066E-03     220.779E-03    -107.484E-03     134.948E-03
            1589     11.3154E-03     54.2572E-03    -31.5435E+06     38.9053E+06     32.3505E+06     364.226E+03    -110.111E-03     217.754E-03    -107.643E-03     145.239E-03    -113.486E-03     221.062E-03    -107.492E-03     138.902E-03
            1590     10.5078E-03     54.0984E-03    -35.8949E+06    -19.8451E+06     18.7768E+06     147.383E+03    -110.510E-03     218.183E-03    -107.674E-03     142.857E-03    -113.318E-03     220.739E-03    -107.499E-03     137.009E-03
            1591     9.69937E-03     53.9449E-03    -40.1329E+06    -63.2856E+06     9.78192E+06    -203.257E+03    -110.706E-03     218.408E-03    -107.703E-03     137.084E-03    -112.951E-03     220.259E-03    -107.504E-03     131.838E-03
            1592     8.89044E-03     53.7976E-03    -44.4426E+06    -93.4259E+06     4.02672E+06    -47.1166E+03    -110.731E-03     218.455E-03    -107.724E-03     130.435E-03    -112.506E-03     219.729E-03    -107.504E-03     125.809E-03
            1593     8.08303E-03     53.6577E-03    -49.1312E+06    -117.248E+06    -2.28127E+06     366.940E+03    -110.537E-03     218.272E-03    -107.735E-03     122.933E-03    -111.923E-03     219.074E-03    -107.505E-03     118.913E-03
            1594     7.27408E-03     53.5261E-03    -54.0879E+06    -141.551E+06    -7.72604E+06     551.066E+03    -110.218E-03     217.975E-03    -107.757E-03     114.107E-03    -111.276E-03     218.361E-03    -107.512E-03     110.659E-03
            1595     6.46606E-03     53.4054E-03    -59.8376E+06    -158.794E+06    -14.3736E+06     349.653E+03    -109.891E-03     217.658E-03    -107.767E-03     104.174E-03    -110.688E-03     217.720E-03    -107.521E-03     101.255E-03
            1596     5.65757E-03     53.2955E-03    -65.7546E+06    -174.195E+06    -21.9974E+06     43.3467E+03    -109.530E-03     217.294E-03    -107.764E-03     93.2556E-03    -110.115E-03     217.091E-03    -107.526E-03     90.8214E-03
            1597     4.84943E-03     53.1982E-03    -71.5546E+06    -190.199E+06    -33.1533E+06    -37.1014E+03    -109.078E-03     216.823E-03    -107.744E-03     81.5346E-03    -109.489E-03     216.400E-03    -107.530E-03     79.5470E-03
            1598     4.04130E-03     53.1140E-03    -77.8529E+06    -206.817E+06    -46.2387E+06    -59.8979E+03    -108.660E-03     216.380E-03    -107.721E-03     69.1979E-03    -108.932E-03     215.776E-03    -107.539E-03     67.6147E-03
            1599     3.23285E-03     53.0440E-03    -84.4135E+06    -222.824E+06    -59.3601E+06    -26.7752E+03    -108.321E-03     216.017E-03    -107.696E-03     56.2740E-03    -108.488E-03     215.266E-03    -107.547E-03     55.0577E-03
            1600     2.42481E-03     52.9887E-03    -90.7383E+06    -233.374E+06    -73.9279E+06     26.8030E+03    -108.009E-03     215.663E-03    -107.654E-03     42.8570E-03    -108.102E-03     214.820E-03    -107.553E-03     41.9760E-03
            1601     1.61643E-03     52.9482E-03    -95.8583E+06    -242.680E+06    -87.3185E+06    -87.3020E+03    -107.788E-03     215.398E-03    -107.610E-03     29.1309E-03    -107.828E-03     214.489E-03    -107.556E-03     28.5496E-03
            1602     808.211E-06     52.9234E-03    -99.2412E+06    -248.971E+06    -96.6983E+06     78.3631E+03    -107.625E-03     215.213E-03    -107.588E-03     16.0451E-03    -107.632E-03     214.265E-03    -107.567E-03     15.7366E-03
            1603     15.3573E-03     53.7066E-03    -5.18541E+06     124.053E+06     94.4023E+06    -110.961E+03    -106.259E-03     213.990E-03    -107.731E-03     51.5380E-03    -108.140E-03     216.019E-03    -107.432E-03     47.2489E-03
            1604     14.5488E-03     53.6189E-03    -10.9653E+06     124.830E+06     94.0191E+06     190.610E+03    -106.570E-03     214.319E-03    -107.749E-03     88.4396E-03    -109.474E-03     217.354E-03    -107.444E-03     82.8331E-03
            1605     13.7414E-03     53.5201E-03    -15.7455E+06     118.689E+06     83.3205E+06      610.64E+03    -107.181E-03     214.902E-03    -107.721E-03     106.251E-03    -110.473E-03     218.317E-03    -107.454E-03     100.294E-03
            1606     12.9326E-03     53.3901E-03    -21.8664E+06     112.079E+06     63.6761E+06     606.797E+03    -108.359E-03     216.011E-03    -107.652E-03     129.595E-03    -112.131E-03     219.918E-03    -107.464E-03     123.152E-03
            1607     12.1240E-03     53.2393E-03    -27.1782E+06     90.4244E+06     44.8214E+06     144.239E+03    -109.310E-03     216.915E-03    -107.605E-03     141.350E-03    -113.060E-03     220.760E-03    -107.473E-03     134.791E-03
            1608     11.3165E-03     53.0818E-03    -31.5660E+06     38.8474E+06     32.4241E+06    -27.0357E+03    -110.049E-03     217.682E-03    -107.633E-03     145.046E-03    -113.422E-03     220.987E-03    -107.482E-03     138.706E-03
            1609     10.5072E-03     52.9230E-03    -35.7014E+06    -19.3164E+06     19.1813E+06     146.314E+03    -110.542E-03     218.205E-03    -107.663E-03     142.668E-03    -113.349E-03     220.761E-03    -107.487E-03     136.816E-03
            1610     9.69900E-03     52.7691E-03    -40.1440E+06    -63.0194E+06     9.85875E+06     109.940E+03    -110.778E-03     218.462E-03    -107.684E-03     136.851E-03    -113.022E-03     220.311E-03    -107.485E-03     131.606E-03
            1611     8.89164E-03     52.6224E-03    -44.7326E+06    -93.6399E+06     4.09099E+06        -704.328    -110.736E-03     218.436E-03    -107.700E-03     130.218E-03    -112.512E-03     219.709E-03    -107.479E-03     125.591E-03
            1612     8.08258E-03     52.4822E-03    -49.0889E+06    -117.804E+06    -2.21317E+06     160.901E+03    -110.488E-03     218.198E-03    -107.710E-03     122.857E-03    -111.872E-03     218.996E-03    -107.479E-03     118.838E-03
            1613     7.27474E-03     52.3514E-03    -53.8332E+06    -141.753E+06    -7.56322E+06     614.023E+03    -110.241E-03     217.971E-03    -107.730E-03     114.040E-03    -111.297E-03     218.355E-03    -107.484E-03     110.594E-03
            1614     6.46605E-03     52.2300E-03    -58.9432E+06    -157.814E+06    -13.4604E+06     426.984E+03    -109.939E-03     217.671E-03    -107.731E-03     104.003E-03    -110.733E-03     217.734E-03    -107.484E-03     101.083E-03
            1615     5.65814E-03     52.1205E-03    -64.6999E+06    -173.981E+06    -21.5502E+06    -40.5122E+03    -109.506E-03     217.226E-03    -107.720E-03     93.1019E-03    -110.086E-03     217.021E-03    -107.482E-03     90.6687E-03
            1616     4.84980E-03     52.0231E-03    -71.3193E+06    -190.496E+06    -33.3806E+06     93.9830E+03    -109.039E-03     216.735E-03    -107.696E-03     81.4824E-03    -109.447E-03     216.311E-03    -107.483E-03     79.4989E-03
            1617     4.04127E-03     51.9393E-03    -78.0481E+06    -206.832E+06    -46.2468E+06     228.460E+03    -108.613E-03     216.286E-03    -107.673E-03     69.1896E-03    -108.886E-03     215.681E-03    -107.491E-03     67.6133E-03
            1618     3.23311E-03     51.8691E-03    -84.5914E+06    -222.651E+06    -59.1107E+06     312.758E+03    -108.284E-03     215.932E-03    -107.647E-03     56.2711E-03    -108.452E-03     215.180E-03    -107.497E-03     55.0619E-03
            1619     2.42474E-03     51.8139E-03    -90.5356E+06    -232.962E+06    -73.3846E+06     301.254E+03    -108.004E-03     215.598E-03    -107.594E-03     42.8431E-03    -108.097E-03     214.755E-03    -107.492E-03     41.9652E-03
            1620     1.61664E-03     51.7736E-03    -95.7211E+06    -242.712E+06    -87.4622E+06     81.8646E+03    -107.713E-03     215.254E-03    -107.541E-03     29.1315E-03    -107.751E-03     214.344E-03    -107.487E-03     28.5545E-03
            1621     808.243E-06     51.7489E-03    -99.1068E+06    -249.021E+06    -96.9441E+06    -117.926E+03    -107.544E-03     215.081E-03    -107.537E-03     16.0100E-03    -107.550E-03     214.133E-03    -107.517E-03     15.6986E-03
            1622     15.3571E-03     52.5311E-03    -4.64565E+06     124.582E+06     95.0598E+06     333.351E+03    -106.407E-03     214.153E-03    -107.746E-03     50.0147E-03    -108.272E-03     216.168E-03    -107.445E-03     45.7317E-03
            1623     14.5499E-03     52.4407E-03    -10.9503E+06     124.962E+06     93.6240E+06    -388.505E+03    -106.598E-03     214.350E-03    -107.753E-03     86.9032E-03    -109.495E-03     217.381E-03    -107.450E-03     81.2606E-03
            1624     13.7411E-03     52.3456E-03    -16.9473E+06     117.571E+06     82.1869E+06    -97.3043E+03    -107.406E-03     215.121E-03    -107.715E-03     105.924E-03    -110.702E-03     218.536E-03    -107.450E-03     99.9318E-03
            1625     12.9330E-03     52.2130E-03    -21.4897E+06     112.476E+06     64.6592E+06     478.295E+03    -108.387E-03     216.029E-03    -107.642E-03     129.450E-03    -112.155E-03     219.932E-03    -107.451E-03     123.003E-03
            1626     12.1251E-03     52.0645E-03    -26.2097E+06     91.3338E+06     45.7826E+06     330.514E+03    -109.272E-03     216.865E-03    -107.593E-03     141.306E-03    -113.020E-03     220.712E-03    -107.459E-03     134.750E-03
            1627     11.3154E-03     51.9058E-03    -31.2729E+06     38.2904E+06     32.2295E+06     132.123E+03    -110.122E-03     217.738E-03    -107.616E-03     144.948E-03    -113.490E-03     221.038E-03    -107.465E-03     138.608E-03
            1628     10.5082E-03     51.7475E-03    -36.1321E+06    -19.6811E+06     18.9983E+06     350.433E+03    -110.648E-03     218.285E-03    -107.638E-03     142.319E-03    -113.453E-03     220.838E-03    -107.462E-03     136.465E-03
            1629     9.70000E-03     51.5938E-03    -40.6612E+06    -62.5096E+06     9.89538E+06     531.005E+03    -110.683E-03     218.338E-03    -107.655E-03     136.683E-03    -112.927E-03     220.187E-03    -107.456E-03     131.452E-03
            1630     8.89096E-03     51.4467E-03    -45.3405E+06    -93.3270E+06     4.01901E+06     198.103E+03    -110.625E-03     218.301E-03    -107.677E-03     130.196E-03    -112.402E-03     219.574E-03    -107.456E-03     125.579E-03
            1631     8.08331E-03     51.3075E-03    -50.5927E+06    -118.182E+06    -2.41858E+06     147.180E+03    -110.566E-03     218.252E-03    -107.686E-03     122.714E-03    -111.956E-03     219.050E-03    -107.453E-03     118.693E-03
            1632     7.27448E-03     51.1759E-03    -55.5069E+06    -141.417E+06    -8.44382E+06    -369.759E+03    -110.323E-03     218.011E-03    -107.688E-03     113.886E-03    -111.386E-03     218.399E-03    -107.444E-03     110.426E-03
            1633     6.46682E-03     51.0551E-03    -59.9739E+06    -157.713E+06    -14.9366E+06    -718.954E+03    -109.883E-03     217.561E-03    -107.678E-03     103.934E-03    -110.678E-03     217.627E-03    -107.437E-03     101.004E-03
            1634     5.65814E-03     50.9454E-03    -65.4389E+06    -174.804E+06    -22.5919E+06     96.3847E+03    -109.412E-03     217.086E-03    -107.674E-03     93.0955E-03    -109.992E-03     216.878E-03    -107.438E-03     90.6705E-03
            1635     4.84978E-03     50.8485E-03    -71.7519E+06    -190.401E+06    -33.3465E+06     398.929E+03    -109.001E-03     216.658E-03    -107.656E-03     81.4544E-03    -109.411E-03     216.234E-03    -107.443E-03     79.4769E-03
            1636     4.04169E-03     50.7644E-03    -78.1261E+06    -206.598E+06    -45.8614E+06     319.418E+03    -108.620E-03     216.248E-03    -107.628E-03     69.1212E-03    -108.894E-03     215.644E-03    -107.445E-03     67.5467E-03
            1637     3.23320E-03     50.6946E-03    -84.6349E+06    -222.530E+06    -58.9795E+06     325.449E+03    -108.243E-03     215.837E-03    -107.594E-03     56.2197E-03    -108.411E-03     215.086E-03    -107.443E-03     55.0119E-03
            1638     2.42501E-03     50.6389E-03    -90.6736E+06    -232.914E+06    -73.3500E+06     298.956E+03    -107.920E-03     215.464E-03    -107.544E-03     42.7621E-03    -108.014E-03     214.621E-03    -107.441E-03     41.8861E-03
            1639     1.61660E-03     50.5992E-03    -95.5404E+06    -242.142E+06    -86.7225E+06     321.761E+03    -107.696E-03     215.183E-03    -107.487E-03     29.0180E-03    -107.735E-03     214.275E-03    -107.431E-03     28.4448E-03
            1640     808.330E-06     50.5742E-03    -99.1710E+06    -248.940E+06    -96.7559E+06     15.6131E+03    -107.526E-03     214.947E-03    -107.421E-03     15.9802E-03    -107.532E-03     213.999E-03    -107.400E-03     15.6709E-03
            1641     15.3604E-03     51.3558E-03    -4.98746E+06     124.449E+06     95.1329E+06     238.766E+03    -106.532E-03     214.260E-03    -107.727E-03     50.3948E-03    -108.395E-03     216.271E-03    -107.425E-03     46.1284E-03
            1642     14.5494E-03     51.2662E-03    -10.4012E+06     125.378E+06     94.3216E+06     975.321E+03    -106.413E-03     214.151E-03    -107.738E-03     87.8430E-03    -109.301E-03     217.174E-03    -107.433E-03     82.2566E-03
            1643     13.7414E-03     51.1680E-03    -16.6141E+06     117.888E+06     82.0218E+06    -36.9748E+03    -107.311E-03     215.017E-03    -107.706E-03     106.048E-03    -110.602E-03     218.429E-03    -107.442E-03     100.070E-03
            1644     12.9333E-03     51.0383E-03    -22.3066E+06     111.709E+06     63.6074E+06    -766.750E+03    -108.457E-03     216.090E-03    -107.633E-03     129.530E-03    -112.227E-03     219.993E-03    -107.444E-03     123.063E-03
            1645     12.1239E-03     50.8880E-03    -27.1389E+06     90.7718E+06     45.2863E+06     143.999E+03    -109.463E-03     217.040E-03    -107.576E-03     141.042E-03    -113.213E-03     220.884E-03    -107.442E-03     134.472E-03
            1646     11.3171E-03     50.7306E-03    -32.0263E+06     38.8212E+06     31.9704E+06     716.390E+03    -110.183E-03     217.770E-03    -107.587E-03     144.615E-03    -113.549E-03     221.068E-03    -107.437E-03     138.285E-03
            1647     10.5080E-03     50.5713E-03    -36.6857E+06    -19.8458E+06     18.5482E+06     605.810E+03    -110.529E-03     218.137E-03    -107.607E-03     142.301E-03    -113.333E-03     220.685E-03    -107.433E-03     136.463E-03
            1648     9.69977E-03     50.4187E-03    -40.7583E+06    -62.4042E+06     9.77549E+06     547.654E+03    -110.668E-03     218.296E-03    -107.628E-03     136.631E-03    -112.912E-03     220.145E-03    -107.430E-03     131.401E-03
            1649     8.89179E-03     50.2718E-03    -45.1486E+06    -93.0464E+06     4.04398E+06     746.407E+03    -110.685E-03     218.330E-03    -107.644E-03     129.941E-03    -112.458E-03     219.600E-03    -107.424E-03     125.334E-03
            1650     8.08298E-03     50.1318E-03    -49.6813E+06    -117.482E+06    -2.25846E+06     379.441E+03    -110.596E-03     218.239E-03    -107.644E-03     122.452E-03    -111.979E-03     219.036E-03    -107.412E-03     118.436E-03
            1651     7.27561E-03     50.0010E-03    -54.4881E+06    -140.093E+06    -8.19675E+06    -649.284E+03    -110.266E-03     217.907E-03    -107.641E-03     113.744E-03    -111.324E-03     218.298E-03    -107.400E-03     110.283E-03
            1652     6.46662E-03     49.8801E-03    -60.4237E+06    -158.849E+06    -15.8696E+06    -758.591E+03    -109.802E-03     217.435E-03    -107.634E-03     103.870E-03    -110.595E-03     217.496E-03    -107.395E-03     100.948E-03
            1653     5.65851E-03     49.7708E-03    -66.4499E+06    -175.853E+06    -23.5311E+06    -355.678E+03    -109.385E-03     217.016E-03    -107.631E-03     93.0111E-03    -109.966E-03     216.805E-03    -107.397E-03     90.5824E-03
            1654     4.85018E-03     49.6735E-03    -72.2611E+06    -190.130E+06    -33.3162E+06    -41.0536E+03    -108.969E-03     216.581E-03    -107.613E-03     81.3597E-03    -109.381E-03     216.159E-03    -107.399E-03     79.3789E-03
            1655     4.04161E-03     49.5898E-03    -78.4974E+06    -206.679E+06    -45.8743E+06     197.056E+03    -108.582E-03     216.164E-03    -107.582E-03     69.0704E-03    -108.857E-03     215.560E-03    -107.398E-03     67.4966E-03
            1656     3.23355E-03     49.5197E-03    -84.5071E+06    -222.362E+06    -58.9402E+06     169.655E+03    -108.191E-03     215.737E-03    -107.546E-03     56.1790E-03    -108.359E-03     214.986E-03    -107.395E-03     54.9703E-03
            1657     2.42500E-03     49.4647E-03    -90.5379E+06    -232.755E+06    -73.3552E+06     81.6636E+03    -107.847E-03     215.348E-03    -107.501E-03     42.8146E-03    -107.940E-03     214.506E-03    -107.399E-03     41.9381E-03
            1658     1.61674E-03     49.4243E-03    -95.8074E+06    -242.220E+06    -86.7219E+06     94.0227E+03    -107.661E-03     215.111E-03    -107.450E-03     29.0555E-03    -107.701E-03     214.203E-03    -107.393E-03     28.4789E-03
            1659     808.502E-06     49.4001E-03    -98.9586E+06    -248.476E+06    -96.1500E+06     270.460E+03    -107.502E-03     214.870E-03    -107.369E-03     15.8689E-03    -107.509E-03     213.923E-03    -107.346E-03     15.5637E-03
            1660     15.3558E-03     50.1799E-03    -5.06973E+06     123.857E+06     94.6003E+06     279.546E+03    -106.585E-03     214.320E-03    -107.734E-03     50.6333E-03    -108.455E-03     216.337E-03    -107.434E-03     46.3413E-03
            1661     14.5502E-03     50.0892E-03    -10.4533E+06     125.387E+06     94.5318E+06     76.8025E+03    -106.741E-03     214.478E-03    -107.737E-03     87.4800E-03    -109.634E-03     217.505E-03    -107.431E-03     81.8511E-03
            1662     13.7413E-03     49.9933E-03    -15.6171E+06     118.867E+06     83.0677E+06     449.239E+03    -107.333E-03     215.027E-03    -107.694E-03     105.760E-03    -110.618E-03     218.437E-03    -107.428E-03     99.7836E-03
            1663     12.9325E-03     49.8612E-03    -22.2897E+06     111.681E+06     62.8915E+06     326.008E+03    -108.592E-03     216.199E-03    -107.607E-03     128.845E-03    -112.354E-03     220.097E-03    -107.423E-03     122.380E-03
            1664     12.1259E-03     49.7125E-03    -28.4531E+06     90.2284E+06     43.9983E+06    -36.7236E+03    -109.466E-03     217.008E-03    -107.542E-03     140.576E-03    -113.209E-03     220.843E-03    -107.412E-03     134.009E-03
            1665     11.3164E-03     49.5543E-03    -32.7969E+06     38.7671E+06     31.6877E+06     216.456E+03    -110.055E-03     217.612E-03    -107.558E-03     144.630E-03    -113.422E-03     220.909E-03    -107.408E-03     138.304E-03
            1666     10.5087E-03     49.3969E-03    -36.5654E+06    -19.6740E+06     18.5014E+06     213.436E+03    -110.523E-03     218.103E-03    -107.580E-03     142.166E-03    -113.323E-03     220.650E-03    -107.406E-03     136.326E-03
            1667     9.70008E-03     49.2427E-03    -40.4856E+06    -62.7239E+06     9.62589E+06     321.605E+03    -110.773E-03     218.366E-03    -107.593E-03     136.299E-03    -113.011E-03     220.209E-03    -107.395E-03     131.065E-03
            1668     8.89196E-03     49.0966E-03    -44.2013E+06    -93.0336E+06     4.21081E+06     508.411E+03    -110.768E-03     218.365E-03    -107.597E-03     129.701E-03    -112.534E-03     219.631E-03    -107.376E-03     125.091E-03
            1669     8.08425E-03     48.9568E-03    -47.9944E+06    -116.283E+06    -1.63500E+06    -18.7128E+03    -110.485E-03     218.077E-03    -107.592E-03     122.379E-03    -111.860E-03     218.873E-03    -107.362E-03     118.367E-03
            1670     7.27504E-03     48.8259E-03    -52.8832E+06    -140.346E+06    -7.17903E+06     226.572E+03    -110.143E-03     217.744E-03    -107.601E-03     113.593E-03    -111.192E-03     218.128E-03    -107.357E-03     110.152E-03
            1671     6.46727E-03     48.7055E-03    -58.7983E+06    -158.930E+06    -14.4261E+06     533.236E+03    -109.803E-03     217.400E-03    -107.597E-03     103.739E-03    -110.589E-03     217.455E-03    -107.354E-03     100.835E-03
            1672     5.65868E-03     48.5958E-03    -65.2664E+06    -175.173E+06    -22.7407E+06    -40.2443E+03    -109.381E-03     216.966E-03    -107.585E-03     92.9082E-03    -109.958E-03     216.755E-03    -107.350E-03     90.4847E-03
            1673     4.85028E-03     48.4991E-03    -71.9496E+06    -190.582E+06    -33.7575E+06    -214.888E+03    -108.935E-03     216.494E-03    -107.559E-03     81.2832E-03    -109.344E-03     216.068E-03    -107.347E-03     79.3046E-03
            1674     4.04210E-03     48.4150E-03    -78.2040E+06    -206.848E+06    -46.1941E+06    -127.898E+03    -108.499E-03     216.029E-03    -107.529E-03     68.9734E-03    -108.771E-03     215.423E-03    -107.347E-03     67.3980E-03
            1675     3.23341E-03     48.3454E-03    -84.5999E+06    -222.338E+06    -58.8790E+06    -46.2728E+03    -108.122E-03     215.623E-03    -107.501E-03     56.0632E-03    -108.290E-03     214.872E-03    -107.351E-03     54.8538E-03
            1676     2.42517E-03     48.2901E-03    -90.5118E+06    -232.675E+06    -73.2571E+06     82.6248E+03    -107.796E-03     215.256E-03    -107.460E-03     42.6908E-03    -107.889E-03     214.414E-03    -107.358E-03     41.8139E-03
            1677     1.61667E-03     48.2501E-03    -95.3786E+06    -242.275E+06    -87.2447E+06    -60.2091E+03    -107.549E-03     214.980E-03    -107.431E-03     29.0743E-03    -107.586E-03     214.072E-03    -107.378E-03     28.4979E-03
            1678     808.269E-06     48.2253E-03    -98.5432E+06    -248.326E+06    -96.3382E+06    -482.004E+03    -107.538E-03     214.889E-03    -107.351E-03     15.7496E-03    -107.543E-03     213.943E-03    -107.330E-03     15.4330E-03
            1679     15.3601E-03     49.0023E-03    -4.79435E+06     124.182E+06     95.0659E+06     172.022E+03    -106.818E-03     214.545E-03    -107.727E-03     49.9261E-03    -108.680E-03     216.555E-03    -107.425E-03     45.6308E-03
            1680     14.5499E-03     48.9138E-03    -10.2635E+06     125.601E+06     94.4813E+06     178.181E+03    -106.838E-03     214.555E-03    -107.717E-03     86.9412E-03    -109.724E-03     217.576E-03    -107.411E-03     81.3043E-03
            1681     13.7419E-03     48.8170E-03    -16.6751E+06     117.843E+06     82.2006E+06     443.650E+03    -107.609E-03     215.269E-03    -107.660E-03     105.525E-03    -110.891E-03     218.672E-03    -107.396E-03     99.5349E-03
            1682     12.9348E-03     48.6852E-03    -21.6669E+06     112.264E+06     63.8676E+06     1.03307E+06    -108.444E-03     216.016E-03    -107.572E-03     128.793E-03    -112.194E-03     219.903E-03    -107.384E-03     122.360E-03
            1683     12.1250E-03     48.5368E-03    -26.3920E+06     90.9941E+06     45.3701E+06     813.411E+03    -109.250E-03     216.768E-03    -107.518E-03     140.678E-03    -112.981E-03     220.596E-03    -107.385E-03     134.142E-03
            1684     11.3173E-03     48.3794E-03    -31.4414E+06     38.6022E+06     32.1559E+06     52.1377E+03    -110.135E-03     217.669E-03    -107.534E-03     144.493E-03    -113.493E-03     220.960E-03    -107.384E-03     138.162E-03
            1685     10.5085E-03     48.2206E-03    -35.9799E+06    -19.5196E+06     18.7866E+06     5.74483E+03    -110.668E-03     218.213E-03    -107.545E-03     141.901E-03    -113.464E-03     220.757E-03    -107.370E-03     136.050E-03
            1686     9.70090E-03     48.0678E-03    -40.1218E+06    -62.8442E+06     9.63270E+06     81.6651E+03    -110.778E-03     218.325E-03    -107.547E-03     136.231E-03    -113.009E-03     220.163E-03    -107.350E-03     131.003E-03
            1687     8.89261E-03     47.9210E-03    -44.1786E+06    -92.9203E+06     4.14345E+06    -212.115E+03    -110.664E-03     218.215E-03    -107.551E-03     129.667E-03    -112.427E-03     219.479E-03    -107.332E-03     125.058E-03
            1688     8.08388E-03     47.7819E-03    -48.8455E+06    -116.195E+06    -1.70812E+06    -18.7853E+03    -110.443E-03     217.992E-03    -107.550E-03     122.283E-03    -111.821E-03     218.790E-03    -107.319E-03     118.274E-03
            1689     7.27614E-03     47.6513E-03    -54.0142E+06    -141.061E+06    -7.47843E+06     423.662E+03    -110.155E-03     217.710E-03    -107.555E-03     113.490E-03    -111.206E-03     218.090E-03    -107.310E-03     110.057E-03
            1690     6.46722E-03     47.5304E-03    -59.2136E+06    -158.547E+06    -14.2836E+06      593.89E+03    -109.789E-03     217.333E-03    -107.544E-03     103.514E-03    -110.576E-03     217.389E-03    -107.299E-03     100.612E-03
            1691     5.65908E-03     47.4214E-03    -64.8545E+06    -174.210E+06    -22.2134E+06     461.051E+03    -109.349E-03     216.874E-03    -107.525E-03     92.6663E-03    -109.924E-03     216.665E-03    -107.289E-03     90.2534E-03
            1692     4.85070E-03     47.3242E-03    -71.0485E+06    -190.633E+06    -32.8632E+06     60.8530E+03    -108.882E-03     216.379E-03    -107.497E-03     81.0507E-03    -109.287E-03     215.950E-03    -107.282E-03     79.0778E-03
            1693     4.04208E-03     47.2407E-03    -77.7877E+06    -207.015E+06    -45.5514E+06     12.3492E+03    -108.428E-03     215.893E-03    -107.465E-03     68.7567E-03    -108.698E-03     215.284E-03    -107.280E-03     67.1858E-03
            1694     3.23383E-03     47.1709E-03    -84.3660E+06    -222.448E+06    -59.0353E+06     104.307E+03    -108.037E-03     215.472E-03    -107.435E-03     55.9195E-03    -108.203E-03     214.720E-03    -107.285E-03     54.7147E-03
            1695     2.42531E-03     47.1157E-03    -90.3739E+06    -232.820E+06    -73.4526E+06    -109.111E+03    -107.712E-03     215.112E-03    -107.399E-03     42.5774E-03    -107.804E-03     214.269E-03    -107.298E-03     41.6988E-03
            1696     1.61685E-03     47.0761E-03    -95.1815E+06    -241.874E+06    -86.6359E+06    -2.31443E+03    -107.483E-03     214.863E-03    -107.379E-03     28.9924E-03    -107.521E-03     213.955E-03    -107.324E-03     28.4173E-03
            1697     808.288E-06     47.0509E-03    -98.7013E+06    -248.634E+06    -96.8091E+06    -220.902E+03    -107.455E-03     214.785E-03    -107.330E-03     15.7500E-03    -107.459E-03     213.838E-03    -107.311E-03     15.4367E-03
            1698     15.3574E-03     47.8270E-03    -4.99983E+06     123.576E+06     94.7064E+06    -8.17959E+03    -106.882E-03     214.582E-03    -107.700E-03     49.8289E-03    -108.738E-03     216.585E-03    -107.399E-03     45.5313E-03
            1699     14.5504E-03     47.7374E-03    -10.6157E+06     125.210E+06     94.2400E+06     554.176E+03    -106.878E-03     214.565E-03    -107.687E-03     87.0490E-03    -109.759E-03     217.580E-03    -107.382E-03     81.4235E-03
            1700     13.7429E-03     47.6398E-03    -16.3135E+06     118.181E+06     82.5800E+06     528.630E+03    -107.399E-03     215.035E-03    -107.635E-03     105.505E-03    -110.673E-03     218.430E-03    -107.370E-03     99.5412E-03
            1701     12.9335E-03     47.5103E-03    -21.8693E+06     112.106E+06     64.0657E+06     294.788E+03    -108.285E-03     215.845E-03    -107.560E-03     129.199E-03    -112.034E-03     219.728E-03    -107.370E-03     122.776E-03
            1702     12.1258E-03     47.3610E-03    -26.6242E+06     91.0837E+06     45.5024E+06     492.889E+03    -109.450E-03     216.952E-03    -107.503E-03     140.755E-03    -113.182E-03     220.782E-03    -107.369E-03     134.204E-03
            1703     11.3172E-03     47.2034E-03    -31.0311E+06     39.3485E+06     32.4817E+06     579.277E+03    -110.303E-03     217.807E-03    -107.504E-03     144.291E-03    -113.658E-03     221.097E-03    -107.353E-03     137.959E-03
            1704     10.5096E-03     47.0454E-03    -35.6323E+06    -19.5036E+06     18.8334E+06     317.218E+03    -110.671E-03     218.176E-03    -107.505E-03     141.790E-03    -113.460E-03     220.715E-03    -107.331E-03     135.951E-03
            1705     9.70094E-03     46.8923E-03    -39.9234E+06    -62.4832E+06     9.77562E+06     30.3013E+03    -110.704E-03     218.211E-03    -107.507E-03     136.076E-03    -112.931E-03     220.045E-03    -107.309E-03     130.857E-03
            1706     8.89270E-03     46.7461E-03    -44.3690E+06    -92.8367E+06     4.19227E+06    -93.8802E+03    -110.619E-03     218.131E-03    -107.512E-03     129.525E-03    -112.380E-03     219.392E-03    -107.292E-03     124.923E-03
            1707     8.08466E-03     46.6071E-03    -49.0049E+06    -116.610E+06    -1.78991E+06     170.289E+03    -110.495E-03     217.999E-03    -107.505E-03     122.010E-03    -111.871E-03     218.793E-03    -107.273E-03     118.004E-03
            1708     7.27586E-03     46.4762E-03    -53.9241E+06    -141.150E+06    -7.50839E+06     367.925E+03    -110.230E-03     217.725E-03    -107.495E-03     113.219E-03    -111.279E-03     218.103E-03    -107.250E-03     109.785E-03
            1709     6.46811E-03     46.3560E-03    -59.2994E+06    -158.605E+06    -14.3995E+06     310.523E+03    -109.782E-03     217.252E-03    -107.470E-03     103.247E-03    -110.568E-03     217.306E-03    -107.226E-03     100.345E-03
            1710     5.65948E-03     46.2466E-03    -65.0219E+06    -173.795E+06    -21.9795E+06     256.687E+03    -109.283E-03     216.728E-03    -107.445E-03     92.4453E-03    -109.858E-03     216.519E-03    -107.209E-03     90.0340E-03
            1711     4.85107E-03     46.1500E-03    -71.4464E+06    -190.461E+06    -32.6991E+06     257.721E+03    -108.810E-03     216.223E-03    -107.414E-03     80.8555E-03    -109.216E-03     215.794E-03    -107.197E-03     78.8876E-03
            1712     4.04269E-03     46.0664E-03    -77.8992E+06    -206.997E+06    -45.4976E+06     225.310E+03    -108.360E-03     215.737E-03    -107.377E-03     68.5739E-03    -108.630E-03     215.127E-03    -107.191E-03     67.0090E-03
            1713     3.23403E-03     45.9968E-03    -84.2168E+06    -222.303E+06    -58.9346E+06     3.45772E+03    -107.938E-03     215.282E-03    -107.343E-03     55.7541E-03    -108.104E-03     214.530E-03    -107.193E-03     54.5507E-03
            1714     2.42541E-03     45.9418E-03    -90.3291E+06    -232.692E+06    -73.2621E+06    -39.5416E+03    -107.631E-03     214.937E-03    -107.306E-03     42.4534E-03    -107.723E-03     214.095E-03    -107.204E-03     41.5781E-03
            1715     1.61693E-03     45.9016E-03    -95.5854E+06    -242.058E+06    -86.5029E+06     99.0028E+03    -107.448E-03     214.711E-03    -107.263E-03     28.8609E-03    -107.488E-03     213.803E-03    -107.206E-03     28.2865E-03
            1716     808.613E-06     45.8771E-03    -98.9135E+06    -248.463E+06    -96.1363E+06     329.311E+03    -107.207E-03     214.505E-03    -107.298E-03     15.7871E-03    -107.214E-03     213.558E-03    -107.275E-03     15.4832E-03
            1717     15.3601E-03     46.6515E-03    -4.95488E+06     123.367E+06     94.4311E+06     279.060E+03    -107.105E-03     214.802E-03    -107.698E-03     50.2668E-03    -108.971E-03     216.815E-03    -107.397E-03     45.9540E-03
            1718     14.5515E-03     46.5599E-03    -10.3693E+06     125.465E+06     94.3129E+06     389.321E+03    -106.845E-03     214.526E-03    -107.680E-03     87.5380E-03    -109.729E-03     217.544E-03    -107.376E-03     81.9155E-03
            1719     13.7423E-03     46.4655E-03    -16.1856E+06     118.294E+06     82.7728E+06     212.049E+03    -107.251E-03     214.888E-03    -107.636E-03     105.661E-03    -110.523E-03     218.281E-03    -107.370E-03     99.7036E-03
            1720     12.9341E-03     46.3341E-03    -21.7997E+06     112.200E+06     64.0324E+06     359.014E+03    -108.595E-03     216.149E-03    -107.554E-03     129.079E-03    -112.344E-03     220.033E-03    -107.365E-03     122.634E-03
            1721     12.1256E-03     46.1848E-03    -27.0576E+06     90.9194E+06     45.0665E+06     257.156E+03    -109.680E-03     217.157E-03    -107.476E-03     140.389E-03    -113.408E-03     220.980E-03    -107.344E-03     133.825E-03
            1722     11.3180E-03     46.0278E-03    -31.7156E+06     39.2164E+06     32.1968E+06     351.054E+03    -110.296E-03     217.763E-03    -107.467E-03     143.971E-03    -113.648E-03     221.048E-03    -107.317E-03     137.641E-03
            1723     10.5093E-03     45.8696E-03    -35.9426E+06    -18.9540E+06     18.9182E+06     324.541E+03    -110.619E-03     218.085E-03    -107.466E-03     141.538E-03    -113.404E-03     220.621E-03    -107.292E-03     135.709E-03
            1724     9.70163E-03     45.7173E-03    -39.9703E+06    -62.3024E+06     9.91311E+06     106.059E+03    -110.723E-03     218.189E-03    -107.465E-03     135.789E-03    -112.948E-03     220.021E-03    -107.267E-03     130.570E-03
            1725     8.89321E-03     45.5711E-03    -44.3013E+06    -92.7106E+06     4.39582E+06     193.017E+03    -110.706E-03     218.166E-03    -107.460E-03     129.150E-03    -112.464E-03     219.425E-03    -107.239E-03     124.552E-03
            1726     8.08482E-03     45.4319E-03    -49.0922E+06    -116.790E+06    -1.93637E+06     134.811E+03    -110.541E-03     217.978E-03    -107.437E-03     121.658E-03    -111.914E-03     218.767E-03    -107.206E-03     117.655E-03
            1727     7.27712E-03     45.3016E-03    -53.9630E+06    -141.416E+06    -7.64919E+06     163.659E+03    -110.202E-03     217.619E-03    -107.417E-03     112.884E-03    -111.249E-03     217.994E-03    -107.172E-03     109.448E-03
            1728     6.46832E-03     45.1811E-03    -59.1815E+06    -158.410E+06    -14.2078E+06     273.872E+03    -109.734E-03     217.120E-03    -107.386E-03     103.028E-03    -110.518E-03     217.172E-03    -107.141E-03     100.130E-03
            1729     5.66013E-03     45.0725E-03    -65.1678E+06    -173.825E+06    -22.0222E+06     301.775E+03    -109.230E-03     216.584E-03    -107.354E-03     92.2609E-03    -109.805E-03     216.374E-03    -107.117E-03     89.8535E-03
            1730     4.85151E-03     44.9756E-03    -71.3146E+06    -190.215E+06    -32.6846E+06     142.909E+03    -108.740E-03     216.055E-03    -107.315E-03     80.6751E-03    -109.144E-03     215.625E-03    -107.099E-03     78.7109E-03
            1731     4.04295E-03     44.8923E-03    -77.6162E+06    -206.749E+06    -45.2374E+06     73.5755E+03    -108.296E-03     215.567E-03    -107.271E-03     68.3915E-03    -108.564E-03     214.957E-03    -107.085E-03     66.8268E-03
            1732     3.23443E-03     44.8229E-03    -84.2747E+06    -222.055E+06    -58.5100E+06     132.453E+03    -107.895E-03     215.119E-03    -107.224E-03     55.5257E-03    -108.061E-03     214.367E-03    -107.072E-03     54.3255E-03
            1733     2.42592E-03     44.7678E-03    -90.4794E+06    -232.717E+06    -73.2278E+06     141.208E+03    -107.534E-03     214.701E-03    -107.166E-03     42.2950E-03    -107.626E-03     213.858E-03    -107.064E-03     41.4250E-03
            1734     1.61731E-03     44.7279E-03    -95.3447E+06    -242.228E+06    -87.0338E+06     34.0851E+03    -107.269E-03     214.391E-03    -107.123E-03     28.8296E-03    -107.306E-03     213.483E-03    -107.068E-03     28.2581E-03
            1735     808.592E-06     44.7031E-03    -98.3851E+06    -248.192E+06    -95.9706E+06    -300.295E+03    -107.194E-03     214.254E-03    -107.060E-03     15.7432E-03    -107.198E-03     213.307E-03    -107.038E-03     15.4302E-03
            1736     15.3571E-03     45.4727E-03    -4.87353E+06     123.045E+06     94.1347E+06     154.864E+03    -106.871E-03     214.588E-03    -107.716E-03     50.6226E-03    -108.728E-03     216.591E-03    -107.417E-03     46.3253E-03
            1737     14.5499E-03     45.3849E-03    -10.4728E+06     125.395E+06     94.1980E+06     328.742E+03    -107.015E-03     214.717E-03    -107.702E-03     87.1510E-03    -109.892E-03     217.729E-03    -107.398E-03     81.5220E-03
            1738     13.7420E-03     45.2890E-03    -16.1957E+06     118.377E+06     82.7319E+06     412.185E+03    -107.803E-03     215.440E-03    -107.637E-03     105.369E-03    -111.077E-03     218.837E-03    -107.371E-03     99.3723E-03
            1739     12.9343E-03     45.1576E-03    -22.0577E+06     111.979E+06     63.5426E+06     521.798E+03    -108.920E-03     216.444E-03    -107.524E-03     128.593E-03    -112.665E-03     220.324E-03    -107.337E-03     122.126E-03
            1740     12.1267E-03     45.0091E-03    -27.1692E+06     90.8975E+06      44.875E+06     389.916E+03    -109.644E-03     217.078E-03    -107.435E-03     139.956E-03    -113.363E-03     220.894E-03    -107.303E-03     133.398E-03
            1741     11.3181E-03     44.8517E-03    -31.7129E+06     39.5975E+06     32.4597E+06    -10.4046E+03    -110.242E-03     217.667E-03    -107.425E-03     143.603E-03    -113.586E-03     220.945E-03    -107.274E-03     137.278E-03
            1742     10.5104E-03     44.6948E-03    -35.8858E+06    -18.5070E+06     19.2729E+06    -43.2129E+03    -110.647E-03     218.068E-03    -107.420E-03     141.193E-03    -113.428E-03     220.600E-03    -107.245E-03     135.361E-03
            1743     9.70170E-03     44.5417E-03    -40.1328E+06    -62.3778E+06     9.80523E+06     93.6725E+03    -110.838E-03     218.244E-03    -107.406E-03     135.387E-03    -113.059E-03     220.073E-03    -107.208E-03     130.166E-03
            1744     8.89397E-03     44.3961E-03    -44.5346E+06    -92.8936E+06     4.21256E+06     202.238E+03    -110.785E-03     218.168E-03    -107.383E-03     128.719E-03    -112.539E-03     219.422E-03    -107.163E-03     124.122E-03
            1745     8.08595E-03     44.2570E-03    -48.9575E+06    -116.656E+06    -1.82396E+06     191.799E+03    -110.502E-03     217.851E-03    -107.349E-03     121.308E-03    -111.870E-03     218.637E-03    -107.118E-03     117.313E-03
            1746     7.27720E-03     44.1268E-03    -53.7836E+06    -141.408E+06    -7.52543E+06     112.728E+03    -110.103E-03     217.428E-03    -107.325E-03     112.595E-03    -111.146E-03     217.800E-03    -107.080E-03     109.167E-03
            1747     6.46920E-03     44.0070E-03    -59.2135E+06    -158.478E+06    -14.1301E+06     172.693E+03    -109.662E-03     216.953E-03    -107.291E-03     102.781E-03    -110.444E-03     217.003E-03    -107.046E-03     99.8876E-03
            1748     5.66051E-03     43.8980E-03    -64.9315E+06    -173.601E+06    -21.8658E+06     246.943E+03    -109.193E-03     216.444E-03    -107.251E-03     91.9851E-03    -109.766E-03     216.233E-03    -107.014E-03     89.5821E-03
            1749     4.85217E-03     43.8018E-03    -71.3567E+06    -190.123E+06    -32.6181E+06     187.981E+03    -108.691E-03     215.891E-03    -107.200E-03     80.4068E-03    -109.094E-03     215.460E-03    -106.984E-03     78.4474E-03
            1750     4.04351E-03     43.7184E-03    -78.0364E+06    -206.823E+06    -45.1338E+06     38.4195E+03    -108.217E-03     215.362E-03    -107.145E-03     68.1581E-03    -108.487E-03     214.751E-03    -106.958E-03     66.5972E-03
            1751     3.23497E-03     43.6490E-03    -84.1274E+06    -221.855E+06    -58.2179E+06     138.815E+03    -107.797E-03     214.882E-03    -107.085E-03     55.3838E-03    -107.962E-03     214.130E-03    -106.933E-03     54.1873E-03
            1752     2.42625E-03     43.5944E-03    -90.1698E+06    -232.519E+06    -73.0264E+06     50.1458E+03    -107.409E-03     214.426E-03    -107.017E-03     42.2352E-03    -107.500E-03     213.583E-03    -106.915E-03     41.3683E-03
            1753     1.61742E-03     43.5544E-03    -95.2726E+06    -242.085E+06    -86.8033E+06    -114.959E+03    -107.124E-03     214.092E-03    -106.967E-03     28.7419E-03    -107.161E-03     213.183E-03    -106.912E-03     28.1715E-03
            1754     808.591E-06     43.5299E-03    -98.5684E+06    -248.518E+06    -96.5170E+06    -236.066E+03    -107.196E-03     213.933E-03    -106.737E-03     15.7401E-03    -107.200E-03     212.985E-03    -106.717E-03     15.4288E-03
            1755     15.3590E-03     44.2965E-03    -4.97025E+06     123.108E+06     94.4833E+06     332.936E+03    -106.988E-03     214.702E-03    -107.715E-03     49.5685E-03    -108.838E-03     216.699E-03    -107.414E-03     45.2701E-03
            1756     14.5502E-03     44.2082E-03    -10.7013E+06     125.252E+06     93.9205E+06    -110.145E+03    -107.095E-03     214.785E-03    -107.690E-03     86.0640E-03    -109.971E-03     217.795E-03    -107.386E-03     80.3969E-03
            1757     13.7429E-03     44.1117E-03    -16.7284E+06     117.916E+06     82.0815E+06     454.558E+03    -108.093E-03     215.702E-03    -107.609E-03     104.879E-03    -111.365E-03     219.095E-03    -107.346E-03     98.8567E-03
            1758     12.9352E-03     43.9815E-03    -21.8824E+06     112.217E+06     64.1630E+06     531.740E+03    -108.977E-03     216.464E-03    -107.487E-03     128.220E-03    -112.716E-03     220.337E-03    -107.297E-03     121.752E-03
            1759     12.1268E-03     43.8329E-03    -26.6305E+06     91.8960E+06     45.8133E+06     138.873E+03    -109.615E-03     217.008E-03    -107.393E-03     139.673E-03    -113.325E-03     220.817E-03    -107.259E-03     133.122E-03
            1760     11.3190E-03     43.6766E-03    -31.2035E+06     39.6645E+06     32.5945E+06    -105.210E+03    -110.297E-03     217.673E-03    -107.376E-03     143.405E-03    -113.632E-03     220.944E-03    -107.225E-03     137.082E-03
            1761     10.5104E-03     43.5188E-03    -35.8152E+06    -19.0352E+06     19.0974E+06    -31.7568E+03    -110.836E-03     218.192E-03    -107.356E-03     140.821E-03    -113.614E-03     220.720E-03    -107.181E-03     134.979E-03
            1762     9.70312E-03     43.3667E-03    -40.1849E+06    -62.1682E+06     9.86831E+06     148.556E+03    -110.910E-03     218.233E-03    -107.324E-03     134.926E-03    -113.124E-03     220.055E-03    -107.126E-03     129.711E-03
            1763     8.89474E-03     43.2208E-03    -44.3324E+06    -93.0576E+06     4.12324E+06     84.1728E+03    -110.726E-03     218.016E-03    -107.290E-03     128.357E-03    -112.473E-03     219.264E-03    -107.071E-03     123.767E-03
            1764     8.08648E-03     43.0824E-03    -48.7815E+06    -116.631E+06    -1.76511E+06     162.638E+03    -110.432E-03     217.684E-03    -107.252E-03     121.021E-03    -111.795E-03     218.465E-03    -107.021E-03     117.034E-03
            1765     7.27845E-03     42.9526E-03    -53.7636E+06    -141.341E+06    -7.45071E+06     172.081E+03    -110.070E-03     217.291E-03    -107.221E-03     112.303E-03    -111.109E-03     217.659E-03    -106.976E-03     108.884E-03
            1766     6.46965E-03     42.8326E-03    -59.1486E+06    -158.471E+06    -14.2311E+06     170.130E+03    -109.627E-03     216.803E-03    -107.176E-03     102.421E-03    -110.405E-03     216.850E-03    -106.931E-03     99.5340E-03
            1767     5.66140E-03     42.7241E-03    -65.3190E+06    -173.739E+06    -21.9158E+06     177.755E+03    -109.111E-03     216.237E-03    -107.126E-03     91.6340E-03    -109.682E-03     216.023E-03    -106.889E-03     89.2378E-03
            1768     4.85267E-03     42.6279E-03    -71.5761E+06    -189.639E+06    -32.5208E+06     288.497E+03    -108.591E-03     215.657E-03    -107.066E-03     80.1152E-03    -108.994E-03     215.228E-03    -106.850E-03     78.1629E-03
            1769     4.04420E-03     42.5448E-03    -77.8934E+06    -206.591E+06    -45.8409E+06    -34.2591E+03    -108.078E-03     215.080E-03    -107.002E-03     68.0124E-03    -108.345E-03     214.470E-03    -106.819E-03     66.4582E-03
            1770     3.23531E-03     42.4758E-03    -84.2371E+06    -222.288E+06    -58.7552E+06    -300.838E+03    -107.640E-03     214.587E-03    -106.947E-03     55.3053E-03    -107.804E-03     213.833E-03    -106.796E-03     54.1091E-03
            1771     2.42654E-03     42.4210E-03    -90.1178E+06    -232.239E+06    -72.5989E+06     98.7099E+03    -107.319E-03     214.194E-03    -106.875E-03     42.0887E-03    -107.410E-03     213.352E-03    -106.771E-03     41.2246E-03
            1772     1.61784E-03     42.3815E-03    -95.3178E+06    -241.958E+06    -86.5354E+06     108.516E+03    -107.065E-03     213.847E-03    -106.782E-03     28.6016E-03    -107.103E-03     212.938E-03    -106.726E-03     28.0355E-03
            1773     809.147E-06     42.3566E-03    -98.8878E+06    -248.648E+06    -96.5446E+06     142.994E+03    -106.820E-03     213.494E-03    -106.674E-03     15.7086E-03    -106.826E-03     212.546E-03    -106.652E-03     15.4080E-03
            1774     15.3591E-03     43.1219E-03    -5.14198E+06     122.795E+06     94.2879E+06     450.373E+03    -107.264E-03     214.965E-03    -107.701E-03     49.7470E-03    -109.115E-03     216.961E-03    -107.400E-03     45.4434E-03
            1775     14.5512E-03     43.0308E-03    -10.3419E+06     125.523E+06     94.2927E+06     1.10820E+06    -107.326E-03     214.991E-03    -107.665E-03     87.1768E-03    -110.198E-03     217.999E-03    -107.361E-03     81.5363E-03
            1776     13.7431E-03     42.9356E-03    -16.4619E+06     118.127E+06     82.3021E+06     268.262E+03    -108.139E-03     215.716E-03    -107.577E-03     104.955E-03    -111.401E-03     219.100E-03    -107.313E-03     98.9390E-03
            1777     12.9352E-03     42.8045E-03    -21.5325E+06     112.560E+06     64.6038E+06    -370.566E+03    -108.996E-03     216.447E-03    -107.451E-03     127.743E-03    -112.719E-03     220.305E-03    -107.260E-03     121.275E-03
            1778     12.1277E-03     42.6576E-03    -26.2453E+06     92.1169E+06     46.2692E+06     38.2617E+03    -109.720E-03     217.069E-03    -107.349E-03     139.213E-03    -113.419E-03     220.867E-03    -107.213E-03     132.664E-03
            1779     11.3191E-03     42.5006E-03    -31.3280E+06     39.6223E+06     32.3314E+06     327.769E+03    -110.543E-03     217.854E-03    -107.311E-03     143.037E-03    -113.875E-03     221.122E-03    -107.162E-03     136.708E-03
            1780     10.5120E-03     42.3433E-03    -35.9161E+06    -19.3137E+06     18.8185E+06     164.129E+03    -110.930E-03     218.202E-03    -107.272E-03     140.271E-03    -113.698E-03     220.719E-03    -107.098E-03     134.435E-03
            1781     9.70358E-03     42.1913E-03    -39.8669E+06    -62.0140E+06     10.1958E+06     98.5119E+03    -110.835E-03     218.066E-03    -107.231E-03     134.528E-03    -113.041E-03     219.881E-03    -107.032E-03     129.323E-03
            1782     8.89576E-03     42.0462E-03    -44.1230E+06    -92.9281E+06     4.36027E+06     51.0670E+03    -110.642E-03     217.836E-03    -107.194E-03     128.120E-03    -112.383E-03     219.078E-03    -106.974E-03     123.543E-03
            1783     8.08742E-03     41.9079E-03    -48.7953E+06    -116.967E+06    -2.05143E+06     186.090E+03    -110.433E-03     217.580E-03    -107.147E-03     120.705E-03    -111.791E-03     218.355E-03    -106.917E-03     116.726E-03
            1784     7.27883E-03     41.7782E-03    -53.8689E+06    -141.163E+06    -7.58331E+06     376.713E+03    -110.095E-03     217.197E-03    -107.101E-03     111.936E-03    -111.131E-03     217.562E-03    -106.857E-03     108.526E-03
            1785     6.47089E-03     41.6586E-03    -59.4846E+06    -158.246E+06    -14.0443E+06     252.663E+03    -109.580E-03     216.621E-03    -107.041E-03     102.060E-03    -110.357E-03     216.666E-03    -106.796E-03     99.1832E-03
            1786     5.66210E-03     41.5504E-03    -65.0803E+06    -173.563E+06    -21.4494E+06     9.59942E+03    -109.002E-03     215.984E-03    -106.982E-03     91.3366E-03    -109.570E-03     215.767E-03    -106.743E-03     88.9472E-03
            1787     4.85361E-03     41.4544E-03    -71.0398E+06    -189.824E+06    -32.6895E+06    -127.213E+03    -108.433E-03     215.348E-03    -106.916E-03     79.8406E-03    -108.830E-03     214.915E-03    -106.701E-03     77.8930E-03
            1788     4.04457E-03     41.3717E-03    -77.2852E+06    -206.141E+06    -45.5074E+06     93.4801E+03    -107.931E-03     214.782E-03    -106.852E-03     67.7118E-03    -108.194E-03     214.171E-03    -106.668E-03     66.1663E-03
            1789     3.23582E-03     41.3026E-03    -84.0942E+06    -222.243E+06    -58.8100E+06     77.9041E+03    -107.515E-03     214.305E-03    -106.790E-03     55.0253E-03    -107.677E-03     213.550E-03    -106.639E-03     53.8397E-03
            1790     2.42694E-03     41.2482E-03    -90.3396E+06    -232.717E+06    -73.2074E+06    -17.3417E+03    -107.161E-03     213.871E-03    -106.710E-03     41.9119E-03    -107.251E-03     213.026E-03    -106.608E-03     41.0498E-03
            1791     1.61807E-03     41.2084E-03    -95.1034E+06    -241.756E+06    -86.3878E+06     125.495E+03    -106.834E-03     213.473E-03    -106.640E-03     28.5344E-03    -106.871E-03     212.565E-03    -106.583E-03     27.9705E-03
            1792     808.981E-06     41.1844E-03    -98.5774E+06    -248.334E+06    -96.2311E+06     283.976E+03    -106.598E-03     213.254E-03    -106.656E-03     15.7242E-03    -106.603E-03     212.307E-03    -106.635E-03     15.4276E-03
            1793     15.3576E-03     41.9428E-03    -5.13893E+06     121.882E+06     93.4290E+06     483.609E+03    -107.310E-03     215.008E-03    -107.698E-03     50.0468E-03    -109.154E-03     216.996E-03    -107.400E-03     45.7281E-03
            1794     14.5506E-03     41.8549E-03    -10.5295E+06     125.392E+06     94.3143E+06     246.151E+03    -107.909E-03     215.556E-03    -107.647E-03     86.5169E-03    -110.774E-03     218.555E-03    -107.342E-03     80.8316E-03
            1795     13.7435E-03     41.7575E-03    -15.0581E+06     119.516E+06     83.9598E+06     46.0957E+03    -108.266E-03     215.804E-03    -107.538E-03     104.000E-03    -111.511E-03     219.176E-03    -107.270E-03     97.9767E-03
            1796     12.9364E-03     41.6288E-03    -21.4185E+06     112.587E+06     64.0330E+06     94.9301E+03    -108.944E-03     216.341E-03    -107.397E-03     126.866E-03    -112.649E-03     220.184E-03    -107.209E-03     120.412E-03
            1797     12.1278E-03     41.4812E-03    -27.5024E+06     91.1876E+06     44.8148E+06     40.6727E+03    -109.948E-03     217.230E-03    -107.282E-03     138.820E-03    -113.647E-03     221.025E-03    -107.150E-03     132.252E-03
            1798     11.3209E-03     41.3247E-03    -31.9634E+06     40.1366E+06     32.4741E+06     138.038E+03    -110.672E-03     217.902E-03    -107.230E-03     142.508E-03    -113.998E-03     221.162E-03    -107.079E-03     136.176E-03
            1799     10.5125E-03     41.1675E-03    -35.8213E+06    -18.7662E+06     19.1132E+06     2.85193E+03    -110.799E-03     217.981E-03    -107.182E-03     139.959E-03    -113.555E-03     220.487E-03    -107.007E-03     134.143E-03
            1800     9.70494E-03     41.0166E-03    -39.9708E+06    -62.4604E+06     10.0331E+06     15.1363E+03    -110.793E-03     217.932E-03    -107.139E-03     134.292E-03    -112.992E-03     219.738E-03    -106.940E-03     129.098E-03
            1801     8.89635E-03     40.8714E-03    -44.4177E+06    -92.4762E+06     4.60324E+06     144.236E+03    -110.713E-03     217.805E-03    -107.091E-03     127.703E-03    -112.450E-03     219.042E-03    -106.870E-03     123.134E-03
            1802     8.08826E-03     40.7335E-03    -48.8852E+06    -117.229E+06    -1.82280E+06    -75.1407E+03    -110.477E-03     217.503E-03    -107.026E-03     120.238E-03    -111.829E-03     218.270E-03    -106.794E-03     116.265E-03
            1803     7.28035E-03     40.6039E-03    -53.3089E+06    -141.545E+06    -7.24973E+06     264.261E+03    -110.057E-03     217.020E-03    -106.963E-03     111.439E-03    -111.084E-03     217.376E-03    -106.717E-03     108.038E-03
            1804     6.47151E-03     40.4849E-03    -58.0746E+06    -157.556E+06    -13.4112E+06     232.522E+03    -109.490E-03     216.380E-03    -106.890E-03     101.624E-03    -110.257E-03     216.421E-03    -106.644E-03     98.7583E-03
            1805     5.66316E-03     40.3768E-03    -64.0229E+06    -173.679E+06    -21.4922E+06     100.082E+03    -108.884E-03     215.704E-03    -106.820E-03     90.9430E-03    -109.443E-03     215.481E-03    -106.582E-03     88.5658E-03
            1806     4.85416E-03     40.2815E-03    -70.8617E+06    -189.761E+06    -32.5727E+06     249.017E+03    -108.324E-03     215.069E-03    -106.745E-03     79.4619E-03    -108.719E-03     214.633E-03    -106.530E-03     77.5280E-03
            1807     4.04551E-03     40.1986E-03    -77.7059E+06    -206.095E+06    -45.2969E+06     205.980E+03    -107.809E-03     214.476E-03    -106.668E-03     67.3244E-03    -108.073E-03     213.864E-03    -106.483E-03     65.7866E-03
            1808     3.23650E-03     40.1301E-03    -83.9491E+06    -222.034E+06    -58.6523E+06     346.252E+03    -107.327E-03     213.921E-03    -106.594E-03     54.7430E-03    -107.488E-03     213.166E-03    -106.444E-03     53.5670E-03
            1809     2.42747E-03     40.0755E-03    -90.0528E+06    -232.623E+06    -73.2781E+06     56.6738E+03    -106.893E-03     213.418E-03    -106.525E-03     41.7002E-03    -106.981E-03     212.573E-03    -106.423E-03     40.8450E-03
            1810     1.61822E-03     40.0363E-03    -95.2455E+06    -241.901E+06    -86.5302E+06    -17.3562E+03    -106.588E-03     213.080E-03    -106.492E-03     28.2979E-03    -106.625E-03     212.171E-03    -106.435E-03     27.7348E-03
            1811     808.888E-06     40.0121E-03    -98.3599E+06    -247.981E+06     -95.772E+06     166.093E+03    -106.564E-03     213.005E-03    -106.441E-03     15.6413E-03    -106.569E-03     212.059E-03    -106.418E-03     15.3445E-03
            1812     15.3593E-03     40.7665E-03    -4.79131E+06     122.651E+06     94.4943E+06     321.983E+03    -108.241E-03     215.895E-03    -107.654E-03     48.5772E-03    -110.081E-03     217.879E-03    -107.352E-03     44.2202E-03
            1813     14.5521E-03     40.6760E-03    -9.72339E+06     126.261E+06     94.6604E+06    -496.102E+03    -107.579E-03     215.155E-03    -107.576E-03     84.9929E-03    -110.432E-03     218.148E-03    -107.272E-03     79.2922E-03
            1814     13.7453E-03     40.5812E-03    -16.4267E+06     118.124E+06     82.1181E+06    -43.8843E+03    -107.989E-03     215.463E-03    -107.475E-03     103.653E-03    -111.225E-03     218.822E-03    -107.211E-03     97.6448E-03
            1815     12.9365E-03     40.4528E-03    -21.6767E+06     112.384E+06     64.2819E+06     578.851E+03    -109.121E-03     216.461E-03    -107.340E-03     126.832E-03    -112.823E-03     220.298E-03    -107.150E-03     120.375E-03
            1816     12.1295E-03     40.3048E-03    -26.2665E+06     92.0315E+06     46.0214E+06     440.973E+03    -110.088E-03     217.299E-03    -107.211E-03     138.716E-03    -113.771E-03     221.082E-03    -107.076E-03     132.158E-03
            1817     11.3214E-03     40.1485E-03    -31.0986E+06     40.0806E+06     32.8793E+06    -77.2714E+03    -110.581E-03     217.731E-03    -107.150E-03     142.235E-03    -113.888E-03     220.975E-03    -106.999E-03     135.922E-03
            1818     10.5138E-03     39.9931E-03    -35.8295E+06    -18.6603E+06     19.2062E+06     93.4300E+03    -110.829E-03     217.926E-03    -107.097E-03     139.644E-03    -113.576E-03     220.424E-03    -106.922E-03     133.840E-03
            1819     9.70515E-03     39.8410E-03    -40.3459E+06    -62.4824E+06     9.70951E+06     168.811E+03    -110.933E-03     217.969E-03    -107.036E-03     133.775E-03    -113.123E-03     219.766E-03    -106.838E-03     128.590E-03
            1820     8.89781E-03     39.6970E-03    -44.8286E+06    -92.5496E+06     4.36307E+06     249.859E+03    -110.809E-03     217.775E-03    -106.966E-03     127.107E-03    -112.538E-03     219.004E-03    -106.745E-03     122.546E-03
            1821     8.08967E-03     39.5589E-03    -49.9557E+06    -116.850E+06    -2.11995E+06     376.614E+03    -110.458E-03     217.339E-03    -106.881E-03     119.729E-03    -111.808E-03     218.103E-03    -106.650E-03     115.774E-03
            1822     7.28106E-03     39.4303E-03    -55.4017E+06    -141.041E+06    -8.74965E+06    -689.047E+03    -109.970E-03     216.769E-03    -106.799E-03     110.986E-03    -111.000E-03     217.127E-03    -106.558E-03     107.588E-03
            1823     6.47297E-03     39.3112E-03    -60.3751E+06    -158.184E+06    -15.3747E+06    -869.845E+03    -109.402E-03     216.114E-03    -106.713E-03     101.141E-03    -110.172E-03     216.153E-03    -106.472E-03     98.2725E-03
            1824     5.66399E-03     39.2040E-03    -65.7002E+06    -174.269E+06    -22.6536E+06     58.0071E+03    -108.805E-03     215.433E-03    -106.628E-03     90.3845E-03    -109.366E-03     215.208E-03    -106.393E-03     88.0163E-03
            1825     4.85539E-03     39.1084E-03    -71.5586E+06    -189.409E+06    -33.0172E+06     248.903E+03    -108.198E-03     214.732E-03    -106.534E-03     78.9475E-03    -108.592E-03     214.296E-03    -106.321E-03     77.0236E-03
            1826     4.04631E-03     39.0263E-03    -77.6394E+06    -206.226E+06    -45.5068E+06     245.180E+03    -107.624E-03     214.068E-03    -106.444E-03     66.9247E-03    -107.885E-03     213.453E-03    -106.260E-03     65.3973E-03
            1827     3.23722E-03     38.9578E-03    -84.1271E+06    -221.915E+06    -58.4039E+06     181.707E+03    -107.107E-03     213.471E-03    -106.365E-03     54.3912E-03    -107.267E-03     212.715E-03    -106.213E-03     53.2207E-03
            1828     2.42790E-03     38.9036E-03    -90.0436E+06    -232.244E+06    -72.8579E+06     170.251E+03    -106.653E-03     212.944E-03    -106.292E-03     41.3105E-03    -106.741E-03     212.100E-03    -106.189E-03     40.4620E-03
            1829     1.61855E-03     38.8645E-03    -94.9006E+06    -241.697E+06    -86.5230E+06    -32.4792E+03    -106.414E-03     212.649E-03    -106.235E-03     28.1235E-03    -106.450E-03     211.740E-03    -106.179E-03     27.5655E-03
            1830     809.578E-06     38.8398E-03    -98.2006E+06    -248.073E+06    -96.0279E+06    -102.053E+03    -106.298E-03     212.450E-03    -106.152E-03     15.5169E-03    -106.302E-03     211.503E-03    -106.130E-03     15.2191E-03
            1831     15.3619E-03     39.5872E-03    -4.70341E+06     122.634E+06     94.6122E+06    -342.438E+03    -108.181E-03     215.802E-03    -107.621E-03     49.4969E-03    -110.024E-03     217.790E-03    -107.319E-03     45.1419E-03
            1832     14.5542E-03     39.5014E-03    -9.84384E+06     125.990E+06     94.6991E+06       1.088E+06    -107.546E-03     215.095E-03    -107.549E-03     86.9308E-03    -110.399E-03     218.085E-03    -107.244E-03     81.2892E-03
            1833     13.7441E-03     39.4048E-03    -16.3143E+06     118.164E+06     81.8967E+06     797.732E+03    -108.233E-03     215.674E-03    -107.441E-03     104.451E-03    -111.461E-03     219.027E-03    -107.180E-03     98.4647E-03
            1834     12.9378E-03     39.2758E-03    -21.9283E+06     112.175E+06     63.9986E+06    -386.795E+03    -109.461E-03     216.750E-03    -107.289E-03     126.867E-03    -113.155E-03     220.578E-03    -107.100E-03     120.389E-03
            1835     12.1299E-03     39.1285E-03    -26.5857E+06     92.2470E+06     46.0852E+06     11.2322E+03    -110.166E-03     217.310E-03    -107.144E-03     138.301E-03    -113.834E-03     221.078E-03    -107.009E-03     131.751E-03
            1836     11.3222E-03     38.9733E-03    -31.2344E+06     40.1023E+06     32.4606E+06     461.079E+03    -110.653E-03     217.722E-03    -107.069E-03     141.652E-03    -113.945E-03     220.951E-03    -106.919E-03     135.357E-03
            1837     10.5142E-03     38.8170E-03    -35.9598E+06    -18.9327E+06     18.8169E+06     396.649E+03    -111.074E-03     218.068E-03    -106.994E-03     138.914E-03    -113.811E-03     220.556E-03    -106.821E-03     133.109E-03
            1838     9.70729E-03     38.6666E-03    -40.1719E+06    -61.9048E+06     9.68252E+06     332.726E+03    -111.066E-03     217.972E-03    -106.905E-03     133.060E-03    -113.246E-03     219.761E-03    -106.709E-03     127.881E-03
            1839     8.89881E-03     38.5219E-03    -44.2944E+06    -93.0560E+06     4.01737E+06     349.854E+03    -110.803E-03     217.617E-03    -106.814E-03     126.464E-03    -112.519E-03     218.834E-03    -106.595E-03     121.916E-03
            1840     8.09078E-03     38.3852E-03    -47.9825E+06    -116.144E+06    -1.56247E+06     210.956E+03    -110.438E-03     217.151E-03    -106.712E-03     119.063E-03    -111.772E-03     217.906E-03    -106.482E-03     115.117E-03
            1841     7.28273E-03     38.2563E-03    -52.2339E+06    -140.002E+06    -6.96693E+06     173.179E+03    -109.936E-03     216.552E-03    -106.616E-03     110.237E-03    -110.947E-03     216.900E-03    -106.372E-03     106.861E-03
            1842     6.47386E-03     38.1383E-03    -58.7154E+06    -158.715E+06    -14.4713E+06     115.154E+03    -109.333E-03     215.841E-03    -106.508E-03     100.396E-03    -110.090E-03     215.868E-03    -106.265E-03     97.5524E-03
            1843     5.66553E-03     38.0309E-03    -65.4160E+06    -174.360E+06    -22.6158E+06    -209.629E+03    -108.685E-03     215.085E-03    -106.400E-03     89.7982E-03    -109.240E-03     214.854E-03    -106.165E-03     87.4397E-03
            1844     4.85653E-03     37.9363E-03    -71.5398E+06    -189.716E+06    -33.2189E+06    -155.573E+03    -108.026E-03     214.314E-03    -106.289E-03     78.4511E-03    -108.416E-03     213.874E-03    -106.076E-03     76.5345E-03
            1845     4.04738E-03     37.8543E-03    -77.8935E+06    -206.284E+06    -45.4966E+06    -15.5127E+03    -107.416E-03     213.601E-03    -106.184E-03     66.4671E-03    -107.676E-03     212.984E-03    -106.000E-03     64.9476E-03
            1846     3.23814E-03     37.7861E-03    -84.1649E+06    -221.822E+06    -58.3321E+06     28.6950E+03    -106.885E-03     212.974E-03    -106.089E-03     53.9436E-03    -107.044E-03     212.217E-03    -105.937E-03     52.7789E-03
            1847     2.42876E-03     37.7324E-03    -90.0362E+06    -232.030E+06    -72.5415E+06    -14.1915E+03    -106.464E-03     212.452E-03    -105.988E-03     40.9895E-03    -106.552E-03     211.607E-03    -105.884E-03     40.1453E-03
            1848     1.61928E-03     37.6931E-03    -94.9704E+06    -241.546E+06    -86.2521E+06     54.1971E+03    -106.125E-03     212.022E-03    -105.897E-03     27.9106E-03    -106.161E-03     211.113E-03    -105.840E-03     27.3589E-03
            1849     809.434E-06     37.6688E-03    -98.6820E+06    -248.422E+06    -96.2840E+06     75.4901E+03    -105.913E-03     211.742E-03    -105.829E-03     15.3668E-03    -105.918E-03     210.794E-03    -105.807E-03     15.0715E-03
            1850     15.3573E-03     38.4110E-03    -4.87744E+06     121.553E+06     93.4289E+06     6.87959E+03    -107.605E-03     215.262E-03    -107.657E-03     50.2636E-03    -109.444E-03     217.244E-03    -107.359E-03     45.9152E-03
            1851     14.5499E-03     38.3223E-03    -11.1972E+06     124.719E+06     93.6335E+06    -228.359E+03    -108.557E-03     216.132E-03    -107.575E-03     86.0730E-03    -111.409E-03     219.115E-03    -107.272E-03     80.3456E-03
            1852     13.7460E-03     38.2282E-03    -15.0778E+06     119.471E+06     84.0458E+06     264.005E+03    -109.026E-03     216.449E-03    -107.423E-03     103.379E-03    -112.245E-03     219.794E-03    -107.154E-03     97.3339E-03
            1853     12.9377E-03     38.0984E-03    -20.9586E+06     112.981E+06     64.2381E+06     688.863E+03    -109.611E-03     216.839E-03    -107.228E-03     126.179E-03    -113.285E-03     220.653E-03    -107.041E-03     119.713E-03
            1854     12.1309E-03     37.9525E-03    -27.2643E+06     91.7146E+06     44.8400E+06     109.384E+03    -110.342E-03     217.405E-03    -107.062E-03     137.285E-03    -113.997E-03     221.158E-03    -106.932E-03     130.726E-03
            1855     11.3234E-03     37.7973E-03    -31.9727E+06     40.0684E+06     32.1271E+06     232.405E+03    -110.950E-03     217.914E-03    -106.964E-03     140.910E-03    -114.233E-03     221.132E-03    -106.815E-03     134.601E-03
            1856     10.5163E-03     37.6418E-03    -35.8597E+06    -18.5413E+06     18.8186E+06     223.836E+03    -111.207E-03     218.068E-03    -106.861E-03     138.162E-03    -113.929E-03     220.542E-03    -106.688E-03     132.359E-03
            1857     9.70801E-03     37.4912E-03    -39.7914E+06    -61.9960E+06     9.87484E+06     235.257E+03    -111.100E-03     217.852E-03    -106.752E-03     132.347E-03    -113.265E-03     219.627E-03    -106.555E-03     127.179E-03
            1858     8.90071E-03     37.3480E-03    -43.7555E+06    -92.5973E+06     4.17524E+06     36.0046E+03    -110.843E-03     217.481E-03    -106.638E-03     125.754E-03    -112.547E-03     218.688E-03    -106.419E-03     121.215E-03
            1859     8.09254E-03     37.2109E-03    -48.6421E+06    -116.043E+06    -1.81795E+06    -191.745E+03    -110.436E-03     216.949E-03    -106.513E-03     118.282E-03    -111.763E-03     217.696E-03    -106.283E-03     114.347E-03
            1860     7.28413E-03     37.0832E-03    -54.2181E+06    -140.648E+06    -7.64348E+06     278.894E+03    -109.894E-03     216.285E-03    -106.391E-03     109.487E-03    -110.904E-03     216.625E-03    -106.147E-03     106.129E-03
            1861     6.47600E-03     36.9653E-03    -59.0428E+06    -158.079E+06    -14.3823E+06     589.193E+03    -109.227E-03     215.486E-03    -106.259E-03     99.6811E-03    -109.979E-03     215.509E-03    -106.016E-03     96.8611E-03
            1862     5.66684E-03     36.8588E-03    -64.6298E+06    -174.030E+06    -22.2024E+06     246.239E+03    -108.517E-03     214.648E-03    -106.131E-03     89.0798E-03    -109.064E-03     214.411E-03    -105.895E-03     86.7435E-03
            1863     4.85780E-03     36.7643E-03    -71.2508E+06    -189.708E+06    -32.6085E+06    -29.5626E+03    -107.838E-03     213.839E-03    -106.001E-03     77.7212E-03    -108.224E-03     213.393E-03    -105.786E-03     75.8199E-03
            1864     4.04867E-03     36.6828E-03    -77.7643E+06    -206.119E+06    -45.3837E+06    -145.643E+03    -107.196E-03     213.067E-03    -105.872E-03     65.8235E-03    -107.452E-03     212.448E-03    -105.687E-03     64.3132E-03
            1865     3.23913E-03     36.6152E-03    -83.9968E+06    -221.853E+06    -58.4908E+06    -352.221E+03    -106.626E-03     212.378E-03    -105.752E-03     53.4187E-03    -106.782E-03     211.619E-03    -105.601E-03     52.2587E-03
            1866     2.42950E-03     36.5614E-03    -90.0882E+06    -232.150E+06    -72.6271E+06    -192.037E+03    -106.165E-03     211.794E-03    -105.629E-03     40.6404E-03    -106.252E-03     210.948E-03    -105.525E-03     39.8013E-03
            1867     1.61987E-03     36.5228E-03    -95.4808E+06    -241.818E+06    -86.2886E+06     59.9555E+03    -105.779E-03     211.296E-03    -105.517E-03     27.5982E-03    -105.816E-03     210.386E-03    -105.460E-03     27.0502E-03
            1868     810.077E-06     36.4988E-03    -98.7828E+06    -248.219E+06    -96.0152E+06     253.585E+03    -105.506E-03     210.959E-03    -105.453E-03     15.3387E-03    -105.512E-03     210.012E-03    -105.430E-03     15.0509E-03
            1869     15.3594E-03     37.2336E-03    -4.50976E+06     122.446E+06     94.3283E+06     302.569E+03    -108.700E-03     216.337E-03    -107.637E-03     48.0268E-03    -110.523E-03     218.305E-03    -107.336E-03     43.6444E-03
            1870     14.5541E-03     37.1425E-03    -10.1425E+06     125.822E+06     94.1707E+06    -744.696E+03    -108.483E-03     216.003E-03    -107.519E-03     83.8399E-03    -111.310E-03     218.967E-03    -107.216E-03     78.0866E-03
            1871     13.7456E-03     37.0506E-03    -16.9260E+06     117.628E+06     81.9312E+06    -787.380E+03    -109.034E-03     216.390E-03    -107.356E-03     102.206E-03    -112.241E-03     219.717E-03    -107.093E-03     96.1353E-03
            1872     12.9397E-03     36.9216E-03    -21.6138E+06     112.387E+06     64.3792E+06     386.923E+03    -109.838E-03     216.994E-03    -107.156E-03     125.595E-03    -113.501E-03     220.792E-03    -106.965E-03     119.114E-03
            1873     12.1320E-03     36.7760E-03    -25.7614E+06     92.3387E+06     46.2273E+06     1.09614E+06    -110.586E-03     217.554E-03    -106.968E-03     136.758E-03    -114.221E-03     221.292E-03    -106.834E-03     130.208E-03
            1874     11.3250E-03     36.6211E-03    -30.9565E+06     40.8576E+06     32.9426E+06     556.923E+03    -111.183E-03     218.025E-03    -106.842E-03     140.307E-03    -114.447E-03     221.228E-03    -106.691E-03     134.006E-03
            1875     10.5174E-03     36.4662E-03    -35.7747E+06    -18.3187E+06     19.0348E+06     117.332E+03    -111.328E-03     218.041E-03    -106.713E-03     137.569E-03    -114.034E-03     220.499E-03    -106.539E-03     131.779E-03
            1876     9.71036E-03     36.3168E-03    -39.8513E+06    -62.1210E+06     9.95364E+06    -36.6450E+03    -111.222E-03     217.799E-03    -106.578E-03     131.592E-03    -113.373E-03     219.559E-03    -106.380E-03     126.432E-03
            1877     8.90216E-03     36.1732E-03    -44.2360E+06    -92.2440E+06     4.27808E+06     16.3706E+03    -110.918E-03     217.352E-03    -106.434E-03     124.895E-03    -112.610E-03     218.548E-03    -106.215E-03     120.371E-03
            1878     8.09438E-03     36.0376E-03    -48.8454E+06    -116.266E+06    -2.28221E+06     392.242E+03    -110.444E-03     216.720E-03    -106.277E-03     117.417E-03    -111.758E-03     217.455E-03    -106.049E-03     113.507E-03
            1879     7.28622E-03     35.9100E-03    -53.5964E+06    -140.787E+06    -7.80213E+06     444.186E+03    -109.837E-03     215.964E-03    -106.128E-03     108.628E-03    -110.833E-03     216.294E-03    -105.885E-03     105.292E-03
            1880     6.47734E-03     35.7930E-03    -59.3386E+06    -157.907E+06    -14.2213E+06     211.664E+03    -109.134E-03     215.103E-03    -105.969E-03     98.7734E-03    -109.880E-03     215.119E-03    -105.725E-03     95.9641E-03
            1881     5.66880E-03     35.6870E-03    -65.2005E+06    -173.341E+06    -21.7580E+06     70.8742E+03    -108.374E-03     214.183E-03    -105.809E-03     88.1889E-03    -108.919E-03     213.944E-03    -105.572E-03     85.8645E-03
            1882     4.85974E-03     35.5930E-03    -71.0636E+06    -189.610E+06    -32.8272E+06    -38.5676E+03    -107.627E-03     213.272E-03    -105.645E-03     76.9144E-03    -108.007E-03     212.822E-03    -105.431E-03     75.0275E-03
            1883     4.05012E-03     35.5123E-03    -77.1605E+06    -206.022E+06    -45.4902E+06    -150.104E+03    -106.922E-03     212.409E-03    -105.488E-03     65.0463E-03    -107.172E-03     211.786E-03    -105.305E-03     63.5488E-03
            1884     3.24059E-03     35.4447E-03    -83.8230E+06    -221.919E+06    -58.6233E+06    -115.660E+03    -106.274E-03     211.621E-03    -105.347E-03     52.8087E-03    -106.427E-03     210.858E-03    -105.197E-03     51.6643E-03
            1885     2.43069E-03     35.3919E-03    -90.3828E+06    -232.615E+06    -73.2924E+06    -46.1574E+03    -105.738E-03     210.953E-03    -105.214E-03     40.2089E-03    -105.824E-03     210.104E-03    -105.113E-03     39.3808E-03
            1886     1.62044E-03     35.3530E-03    -95.1568E+06    -241.751E+06    -86.5888E+06    -114.649E+03    -105.394E-03     210.487E-03    -105.093E-03     27.2721E-03    -105.428E-03     209.577E-03    -105.038E-03     26.7280E-03
            1887     810.258E-06     35.3297E-03    -98.2324E+06    -247.932E+06    -96.0433E+06    -107.990E+03    -105.056E-03     210.093E-03    -105.037E-03     15.0169E-03    -105.059E-03     209.147E-03    -105.016E-03     14.7278E-03
            1888     15.3626E-03     36.0532E-03    -4.99437E+06     122.384E+06     94.2507E+06    -249.367E+03    -109.044E-03     216.635E-03    -107.591E-03     49.2724E-03    -110.875E-03     218.609E-03    -107.290E-03     44.8761E-03
            1889     14.5537E-03     35.9678E-03    -9.91670E+06     125.914E+06     94.6104E+06     758.574E+03    -108.581E-03     216.046E-03    -107.465E-03     85.5163E-03    -111.401E-03     219.003E-03    -107.160E-03     79.8136E-03
            1890     13.7473E-03     35.8714E-03    -16.3027E+06     118.167E+06      81.996E+06     340.949E+03    -109.090E-03     216.384E-03    -107.294E-03     102.480E-03    -112.279E-03     219.696E-03    -107.032E-03     96.4457E-03
            1891     12.9399E-03     35.7453E-03    -22.8855E+06     111.185E+06     63.0771E+06    -415.193E+03    -110.160E-03     217.237E-03    -107.076E-03     125.167E-03    -113.811E-03     221.018E-03    -106.889E-03     118.668E-03
            1892     12.1333E-03     35.5986E-03    -27.9684E+06     91.7715E+06     45.1778E+06    -16.4641E+03    -110.938E-03     217.800E-03    -106.862E-03     136.285E-03    -114.562E-03     221.519E-03    -106.728E-03     129.718E-03
            1893     11.3264E-03     35.4453E-03    -31.7426E+06     41.5356E+06     32.7858E+06     416.484E+03    -111.389E-03     218.094E-03    -106.705E-03     139.430E-03    -114.635E-03     221.280E-03    -106.556E-03     133.134E-03
            1894     10.5193E-03     35.2908E-03    -35.7641E+06    -17.8748E+06     19.2006E+06     216.422E+03    -111.545E-03     218.091E-03    -106.546E-03     136.613E-03    -114.233E-03     220.533E-03    -106.372E-03     130.830E-03
            1895     9.71172E-03     35.1416E-03    -40.0904E+06    -61.8345E+06     9.82246E+06    -14.1088E+03    -111.410E-03     217.784E-03    -106.374E-03     130.616E-03    -113.547E-03     219.531E-03    -106.177E-03     125.464E-03
            1896     8.90466E-03     34.9995E-03    -44.3063E+06    -92.4099E+06     4.17874E+06     32.7895E+03    -111.033E-03     217.226E-03    -106.193E-03     123.805E-03    -112.711E-03     218.407E-03    -105.974E-03     119.295E-03
            1897     8.09657E-03     34.8640E-03    -48.5897E+06      -116.6E+06    -2.23350E+06     110.934E+03    -110.467E-03     216.466E-03    -105.999E-03     116.239E-03    -111.767E-03     217.186E-03    -105.770E-03     112.342E-03
            1898     7.28830E-03     34.7375E-03    -53.4701E+06    -140.850E+06    -7.69774E+06     534.537E+03    -109.793E-03     215.605E-03    -105.812E-03     107.446E-03    -110.778E-03     215.922E-03    -105.569E-03     104.129E-03
            1899     6.48005E-03     34.6209E-03    -58.5765E+06    -157.087E+06    -13.5638E+06     399.347E+03    -109.009E-03     214.626E-03    -105.617E-03     97.6261E-03    -109.744E-03     214.635E-03    -105.372E-03     94.8396E-03
            1900     5.67095E-03     34.5157E-03    -64.4026E+06    -173.139E+06    -21.4176E+06    -21.8253E+03    -108.166E-03     213.588E-03    -105.423E-03     87.1283E-03    -108.700E-03     213.342E-03    -105.185E-03     84.8225E-03
            1901     4.86151E-03     34.4227E-03     -70.747E+06    -189.488E+06    -32.6026E+06    -18.5066E+03    -107.328E-03     212.558E-03    -105.230E-03     76.0497E-03    -107.702E-03     212.103E-03    -105.015E-03     74.1807E-03
            1902     4.05217E-03     34.3421E-03    -77.5215E+06    -206.108E+06    -45.5372E+06     86.3823E+03    -106.536E-03     211.587E-03    -105.052E-03     64.3597E-03    -106.784E-03     210.961E-03    -104.868E-03     62.8823E-03
            1903     3.24199E-03     34.2759E-03    -84.1723E+06    -222.070E+06    -58.7969E+06     229.963E+03    -105.841E-03     210.740E-03    -104.899E-03     52.3222E-03    -105.994E-03     209.976E-03    -104.749E-03     51.1954E-03
            1904     2.43164E-03     34.2226E-03    -89.9865E+06    -232.297E+06    -73.1410E+06     78.0433E+03    -105.320E-03     210.074E-03    -104.754E-03     39.8300E-03    -105.403E-03     209.225E-03    -104.653E-03     39.0135E-03
            1905     1.62133E-03     34.1850E-03    -95.1597E+06    -241.788E+06    -86.7476E+06    -94.5174E+03    -104.936E-03     209.555E-03    -104.620E-03     26.9621E-03    -104.970E-03     208.645E-03    -104.565E-03     26.4252E-03
            1906     810.845E-06     34.1607E-03    -98.1903E+06    -247.912E+06    -96.2130E+06    -199.129E+03    -104.553E-03     209.134E-03    -104.581E-03     14.5834E-03    -104.556E-03     208.188E-03    -104.560E-03     14.2958E-03
            1907     15.3572E-03     34.8758E-03    -4.89556E+06     121.824E+06     93.7675E+06    -24.1460E+03    -108.911E-03     216.504E-03    -107.593E-03     48.8965E-03    -110.731E-03     218.468E-03    -107.294E-03     44.4935E-03
            1908     14.5538E-03     34.7865E-03    -11.0220E+06     124.833E+06     93.6904E+06    -321.889E+03    -109.149E-03     216.601E-03    -107.452E-03     84.5037E-03    -111.963E-03     219.548E-03    -107.149E-03     78.7392E-03
            1909     13.7475E-03     34.6957E-03    -15.9691E+06     118.537E+06     82.9510E+06     710.986E+03    -109.729E-03     216.978E-03    -107.249E-03     101.989E-03    -112.910E-03     220.282E-03    -106.983E-03     95.9180E-03
            1910     12.9412E-03     34.5662E-03    -21.6521E+06     112.365E+06     64.1695E+06     913.047E+03    -110.645E-03     217.635E-03    -106.990E-03     124.408E-03    -114.273E-03     221.399E-03    -106.801E-03     117.903E-03
            1911     12.1349E-03     34.4225E-03    -27.1167E+06     92.0672E+06     45.3483E+06    -446.599E+03    -111.295E-03     218.030E-03    -106.735E-03     135.043E-03    -114.891E-03     221.725E-03    -106.602E-03     128.460E-03
            1912     11.3280E-03     34.2684E-03    -31.8266E+06     40.8820E+06     32.5391E+06    -539.066E+03    -111.683E-03     218.225E-03    -106.542E-03     138.364E-03    -114.908E-03     221.388E-03    -106.393E-03     132.052E-03
            1913     10.5215E-03     34.1154E-03    -35.9502E+06    -17.6762E+06     19.1561E+06     106.298E+03    -111.833E-03     218.176E-03    -106.342E-03     135.410E-03    -114.504E-03     220.600E-03    -106.169E-03     129.625E-03
            1914     9.71452E-03     33.9668E-03    -40.0974E+06    -61.7012E+06     9.82100E+06     174.759E+03    -111.572E-03     217.700E-03    -106.128E-03     129.318E-03    -113.690E-03     219.428E-03    -105.931E-03     124.180E-03
            1915     8.90686E-03     33.8252E-03    -44.8244E+06    -92.3381E+06     4.08171E+06     155.708E+03    -111.120E-03     217.027E-03    -105.907E-03     122.535E-03    -112.783E-03     218.190E-03    -105.687E-03     118.046E-03
            1916     8.09940E-03     33.6910E-03    -50.0976E+06    -117.008E+06    -2.69036E+06     347.980E+03    -110.523E-03     216.191E-03    -105.668E-03     115.021E-03    -111.815E-03     216.898E-03    -105.440E-03     111.145E-03
            1917     7.29130E-03     33.5652E-03    -55.0316E+06    -140.257E+06    -8.64856E+06    -108.120E+03    -109.727E-03     215.160E-03    -105.434E-03     106.262E-03    -110.707E-03     215.472E-03    -105.194E-03     102.958E-03
            1918     6.48249E-03     33.4496E-03    -59.8135E+06    -156.662E+06    -14.8723E+06    -620.096E+03    -108.805E-03     214.003E-03    -105.198E-03     96.5303E-03    -109.534E-03     214.007E-03    -104.959E-03     93.7581E-03
            1919     5.67352E-03     33.3454E-03    -64.9801E+06    -173.794E+06    -22.1033E+06    -232.786E+03    -107.869E-03     212.846E-03    -104.977E-03     86.1111E-03    -108.396E-03     212.590E-03    -104.741E-03     83.8272E-03
            1920     4.86419E-03     33.2529E-03    -71.1714E+06    -189.380E+06    -32.6364E+06     259.698E+03    -106.917E-03     211.681E-03    -104.764E-03     75.1230E-03    -107.287E-03     211.221E-03    -104.550E-03     73.2795E-03
            1921     4.05375E-03     33.1736E-03    -77.7426E+06    -206.033E+06    -45.5436E+06     392.108E+03    -106.074E-03     210.648E-03    -104.574E-03     63.5929E-03    -106.319E-03     210.018E-03    -104.390E-03     62.1395E-03
            1922     3.24355E-03     33.1073E-03    -84.0100E+06    -221.782E+06    -58.6316E+06     167.628E+03    -105.409E-03     209.815E-03    -104.406E-03     51.6214E-03    -105.558E-03     209.049E-03    -104.256E-03     50.5079E-03
            1923     2.43298E-03     33.0553E-03    -90.1317E+06    -232.053E+06    -72.8035E+06     180.996E+03    -104.835E-03     209.082E-03    -104.247E-03     39.3206E-03    -104.919E-03     208.233E-03    -104.143E-03     38.5164E-03
            1924     1.62214E-03     33.0169E-03    -95.1003E+06    -241.477E+06    -86.4547E+06     69.9158E+03    -104.368E-03     208.488E-03    -104.120E-03     26.5948E-03    -104.401E-03     207.578E-03    -104.065E-03     26.0675E-03
            1925     810.979E-06     32.9946E-03    -98.6559E+06    -248.139E+06    -96.3419E+06     28.7847E+03    -104.135E-03     208.162E-03    -104.027E-03     14.4981E-03    -104.139E-03     207.215E-03    -104.006E-03     14.2177E-03
            1926     15.3636E-03     33.6967E-03    -4.55595E+06     122.390E+06     94.3569E+06     457.007E+03    -109.629E-03     217.212E-03    -107.584E-03     48.3834E-03    -111.440E-03     219.168E-03    -107.283E-03     43.9647E-03
            1927     14.5543E-03     33.6090E-03    -10.6987E+06     125.080E+06     93.7080E+06     466.258E+03    -109.479E-03     216.890E-03    -107.411E-03     83.9061E-03    -112.275E-03     219.821E-03    -107.108E-03     78.1327E-03
            1928     13.7484E-03     33.5158E-03    -17.0493E+06     117.436E+06     81.9699E+06    -262.985E+03    -110.335E-03     217.510E-03    -107.175E-03     101.079E-03    -113.502E-03     220.795E-03    -106.911E-03     94.9534E-03
            1929     12.9429E-03     33.3888E-03    -21.2379E+06     112.777E+06     65.1230E+06    -213.974E+03    -111.217E-03     218.094E-03    -106.877E-03     123.296E-03    -114.821E-03     221.834E-03    -106.684E-03     116.750E-03
            1930     12.1367E-03     33.2444E-03    -25.5495E+06     92.9324E+06     46.6540E+06     356.088E+03    -111.614E-03     218.194E-03    -106.580E-03     133.772E-03    -115.177E-03     221.861E-03    -106.444E-03     127.197E-03
            1931     11.3307E-03     33.0927E-03    -30.9508E+06     40.9307E+06     32.8121E+06     332.706E+03    -112.016E-03     218.361E-03    -106.345E-03     137.274E-03    -115.214E-03     221.499E-03    -106.195E-03     130.972E-03
            1932     10.5238E-03     32.9392E-03    -36.2020E+06    -17.8629E+06     18.9170E+06     231.631E+03    -112.133E-03     218.232E-03    -106.099E-03     134.211E-03    -114.781E-03     220.634E-03    -105.926E-03     128.433E-03
            1933     9.71723E-03     32.7923E-03    -40.6683E+06    -61.4627E+06     9.68578E+06     342.430E+03    -111.773E-03     217.611E-03    -105.838E-03     127.951E-03    -113.872E-03     219.319E-03    -105.641E-03     122.831E-03
            1934     8.91013E-03     32.6517E-03    -45.0244E+06    -92.3892E+06     3.88402E+06     433.461E+03    -111.160E-03     216.732E-03    -105.571E-03     121.231E-03    -112.805E-03     217.877E-03    -105.353E-03     116.768E-03
            1935     8.10229E-03     32.5181E-03    -49.1509E+06    -116.693E+06    -2.44170E+06     341.258E+03    -110.492E-03     215.784E-03    -105.292E-03     113.769E-03    -111.765E-03     216.475E-03    -105.064E-03     109.918E-03
            1936     7.29425E-03     32.3935E-03    -53.5812E+06    -138.880E+06    -8.15441E+06    -181.470E+03    -109.613E-03     214.628E-03    -105.015E-03     105.021E-03    -110.575E-03     214.931E-03    -104.777E-03     101.742E-03
            1937     6.48569E-03     32.2792E-03    -59.0971E+06    -156.661E+06    -14.9831E+06    -572.203E+03    -108.552E-03     213.296E-03    -104.744E-03     95.4000E-03    -109.267E-03     213.289E-03    -104.506E-03     92.6552E-03
            1938     5.67634E-03     32.1757E-03    -65.4421E+06    -174.711E+06    -22.8150E+06    -407.951E+03    -107.505E-03     212.001E-03    -104.496E-03     85.1306E-03    -108.025E-03     211.734E-03    -104.262E-03     82.8705E-03
            1939     4.86623E-03     32.0845E-03    -71.6961E+06    -189.705E+06    -33.3349E+06    -17.0637E+03    -106.530E-03     210.788E-03    -104.258E-03     74.1753E-03    -106.895E-03     210.322E-03    -104.046E-03     72.3513E-03
            1940     4.05624E-03     32.0059E-03    -77.6775E+06    -205.943E+06    -45.5667E+06     178.011E+03    -105.678E-03     209.717E-03    -104.040E-03     62.7381E-03    -105.919E-03     209.084E-03    -103.856E-03     61.3004E-03
            1941     3.24540E-03     31.9403E-03    -84.0490E+06    -221.568E+06    -58.5830E+06     326.153E+03    -104.933E-03     208.775E-03    -103.842E-03     50.8347E-03    -105.080E-03     208.007E-03    -103.692E-03     49.7386E-03
            1942     2.43438E-03     31.8887E-03    -90.1548E+06    -231.920E+06    -72.9648E+06     276.583E+03    -104.248E-03     207.914E-03    -103.666E-03     38.6388E-03    -104.330E-03     207.064E-03    -103.563E-03     37.8483E-03
            1943     1.62295E-03     31.8512E-03    -95.0957E+06    -241.232E+06    -86.3151E+06     81.8453E+03    -103.755E-03     207.302E-03    -103.547E-03     26.1039E-03    -103.789E-03     206.392E-03    -103.491E-03     25.5853E-03
            1944     811.513E-06     31.8284E-03    -98.8046E+06    -247.996E+06    -96.1629E+06     109.010E+03    -103.693E-03     207.026E-03    -103.333E-03     14.2946E-03    -103.698E-03     206.079E-03    -103.311E-03     14.0193E-03
            1945     15.3575E-03     32.5160E-03    -5.35333E+06     121.521E+06     93.4615E+06     322.612E+03    -110.178E-03     217.740E-03    -107.563E-03     48.4221E-03    -111.985E-03     219.689E-03    -107.264E-03     43.9622E-03
            1946     14.5555E-03     32.4297E-03    -10.0984E+06     125.659E+06     94.6112E+06     503.203E+03    -110.475E-03     217.824E-03    -107.350E-03     83.1029E-03    -113.253E-03     220.738E-03    -107.044E-03     77.2769E-03
            1947     13.7499E-03     32.3367E-03    -15.3907E+06     119.014E+06     83.1096E+06    -18.1193E+03    -110.837E-03     217.900E-03    -107.063E-03     100.005E-03    -113.971E-03     221.161E-03    -106.797E-03     93.8673E-03
            1948     12.9446E-03     32.2095E-03    -22.1422E+06     111.802E+06     63.4928E+06    -653.765E+03    -111.458E-03     218.183E-03    -106.725E-03     121.997E-03    -115.030E-03     221.889E-03    -106.537E-03     115.445E-03
            1949     12.1392E-03     32.0677E-03    -27.8933E+06      91.701E+06     44.8251E+06    -31.8762E+03    -112.013E-03     218.407E-03    -106.394E-03     132.747E-03    -115.556E-03     222.047E-03    -106.263E-03     126.160E-03
            1950     11.3328E-03     31.9155E-03    -32.1647E+06     41.3811E+06     32.3154E+06     624.092E+03    -112.458E-03     218.572E-03    -106.114E-03     136.100E-03    -115.637E-03     221.690E-03    -105.966E-03     129.795E-03
            1951     10.5270E-03     31.7637E-03    -36.2531E+06    -17.1610E+06     19.0971E+06     524.153E+03    -112.372E-03     218.192E-03    -105.820E-03     132.763E-03    -114.994E-03     220.569E-03    -105.647E-03     127.004E-03
            1952     9.72039E-03     31.6173E-03    -40.5409E+06    -61.2017E+06     9.58704E+06     369.062E+03    -111.890E-03     217.402E-03    -105.512E-03     126.536E-03    -113.964E-03     219.087E-03    -105.317E-03     121.441E-03
            1953     8.91339E-03     31.4784E-03    -44.4455E+06    -92.2052E+06     3.84561E+06     245.560E+03    -111.254E-03     216.453E-03    -105.199E-03     119.909E-03    -112.878E-03     217.581E-03    -104.982E-03     115.464E-03
            1954     8.10583E-03     31.3459E-03    -48.8335E+06    -116.132E+06    -2.50027E+06    -20.9373E+03    -110.380E-03     215.257E-03    -104.877E-03     112.443E-03    -111.634E-03     215.933E-03    -104.650E-03     108.620E-03
            1955     7.29760E-03     31.2224E-03    -53.8641E+06    -138.249E+06    -8.27478E+06    -152.474E+03    -109.360E-03     213.927E-03    -104.567E-03     103.705E-03    -110.309E-03     214.218E-03    -104.330E-03     100.462E-03
            1956     6.48866E-03     31.1094E-03    -59.2047E+06    -156.592E+06    -15.1345E+06    -80.2104E+03    -108.282E-03     212.547E-03    -104.264E-03     94.1857E-03    -108.987E-03     212.529E-03    -104.027E-03     91.4751E-03
            1957     5.67908E-03     31.0073E-03    -65.0568E+06    -175.009E+06    -23.1084E+06     13.0916E+03    -107.181E-03     211.163E-03    -103.981E-03     83.9195E-03    -107.689E-03     210.886E-03    -103.749E-03     81.6917E-03
            1958     4.86922E-03     30.9170E-03    -71.4467E+06    -189.916E+06    -33.6273E+06    -123.815E+03    -106.157E-03     209.866E-03    -103.708E-03     73.0827E-03    -106.515E-03     209.393E-03    -103.497E-03     71.2813E-03
            1959     4.05838E-03     30.8392E-03    -78.0251E+06    -206.216E+06    -46.0092E+06    -6.25317E+03    -105.255E-03     208.707E-03    -103.452E-03     61.8352E-03    -105.492E-03     208.069E-03    -103.270E-03     60.4135E-03
            1960     3.24751E-03     30.7746E-03    -84.2384E+06    -221.541E+06    -58.7241E+06     167.127E+03    -104.417E-03     207.637E-03    -103.220E-03     50.0601E-03    -104.563E-03     206.867E-03    -103.070E-03     48.9780E-03
            1961     2.43600E-03     30.7236E-03    -90.0620E+06    -231.638E+06    -72.8733E+06     182.228E+03    -103.655E-03     206.671E-03    -103.016E-03     37.8993E-03    -103.735E-03     205.820E-03    -102.914E-03     37.1195E-03
            1962     1.62419E-03     30.6868E-03    -95.1427E+06    -241.135E+06    -86.4823E+06     223.762E+03    -103.118E-03     205.992E-03    -102.874E-03     25.7657E-03    -103.151E-03     205.082E-03    -102.819E-03     25.2582E-03
            1963     812.160E-06     30.6637E-03    -98.6034E+06    -247.659E+06    -96.2035E+06     160.010E+03    -102.887E-03     205.661E-03    -102.774E-03     14.2389E-03    -102.892E-03     204.716E-03    -102.753E-03     13.9688E-03
            1964     15.3635E-03     31.3353E-03    -4.80518E+06     121.798E+06     93.9253E+06     276.782E+03    -111.131E-03     218.639E-03    -107.508E-03     47.1054E-03    -112.921E-03     220.572E-03    -107.208E-03     42.6075E-03
            1965     14.5565E-03     31.2483E-03    -9.82347E+06     125.917E+06     94.7220E+06    -524.906E+03    -110.905E-03     218.156E-03    -107.250E-03     81.7337E-03    -113.663E-03     221.050E-03    -106.945E-03     75.8620E-03
            1966     13.7526E-03     31.1572E-03    -15.7746E+06     118.575E+06     82.8399E+06     339.550E+03    -111.204E-03     218.136E-03    -106.933E-03     99.2763E-03    -114.314E-03     221.371E-03    -106.667E-03     93.1335E-03
            1967     12.9469E-03     31.0315E-03    -21.6525E+06     112.164E+06     63.7144E+06     1.17387E+06    -111.809E-03     218.372E-03    -106.563E-03     121.210E-03    -115.351E-03     222.050E-03    -106.376E-03     114.680E-03
            1968     12.1410E-03     30.8894E-03    -27.2562E+06     91.9229E+06     44.6941E+06     273.031E+03    -112.555E-03     218.742E-03    -106.187E-03     131.668E-03    -116.067E-03     222.354E-03    -106.057E-03     125.070E-03
            1969     11.3363E-03     30.7385E-03    -31.9358E+06     41.3134E+06     32.3847E+06    -161.331E+03    -112.865E-03     218.720E-03    -105.856E-03     134.683E-03    -116.012E-03     221.807E-03    -105.707E-03     128.369E-03
            1970     10.5302E-03     30.5879E-03    -35.9539E+06    -16.8473E+06     19.1588E+06     261.100E+03    -112.560E-03     218.072E-03    -105.512E-03     131.407E-03    -115.153E-03     220.423E-03    -105.340E-03     125.665E-03
            1971     9.72387E-03     30.4433E-03    -39.8253E+06    -60.9151E+06     9.70354E+06     341.654E+03    -112.031E-03     217.190E-03    -105.159E-03     125.190E-03    -114.078E-03     218.851E-03    -104.964E-03     120.117E-03
            1972     8.91689E-03     30.3050E-03    -44.1427E+06    -91.8036E+06     3.89451E+06     240.501E+03    -111.278E-03     216.078E-03    -104.800E-03     118.401E-03    -112.880E-03     217.186E-03    -104.583E-03     113.984E-03
            1973     8.10947E-03     30.1744E-03    -48.6400E+06    -115.662E+06    -2.47475E+06     226.560E+03    -110.252E-03     214.686E-03    -104.434E-03     110.942E-03    -111.487E-03     215.345E-03    -104.208E-03     107.155E-03
            1974     7.30100E-03     30.0524E-03    -53.6301E+06    -138.272E+06    -8.37806E+06     160.076E+03    -109.111E-03     213.199E-03    -104.088E-03     102.308E-03    -110.043E-03     213.474E-03    -103.852E-03     99.1041E-03
            1975     6.49197E-03     29.9405E-03    -59.1437E+06    -156.698E+06    -15.4948E+06     6.97979E+03    -108.004E-03     211.753E-03    -103.749E-03     92.7447E-03    -108.695E-03     211.723E-03    -103.513E-03     90.0655E-03
            1976     5.68247E-03     29.8397E-03    -64.9178E+06    -174.933E+06    -23.0666E+06     105.639E+03    -106.862E-03     210.290E-03    -103.427E-03     82.5760E-03    -107.361E-03     210.004E-03    -103.195E-03     80.3754E-03
            1977     4.87189E-03     29.7506E-03    -71.1478E+06    -189.634E+06    -33.4103E+06     321.344E+03    -105.739E-03     208.855E-03    -103.115E-03     71.9733E-03    -106.089E-03     208.376E-03    -102.904E-03     70.2024E-03
            1978     4.06116E-03     29.6738E-03    -77.6400E+06    -206.121E+06    -46.2561E+06     156.701E+03    -104.730E-03     207.556E-03    -102.826E-03     60.8512E-03    -104.961E-03     206.914E-03    -102.646E-03     59.4531E-03
            1979     3.24958E-03     29.6100E-03    -84.0991E+06    -221.688E+06    -59.1702E+06     78.5935E+03    -103.815E-03     206.387E-03    -102.573E-03     49.2796E-03    -103.956E-03     205.614E-03    -102.425E-03     48.2144E-03
            1980     2.43771E-03     29.5600E-03    -90.0276E+06    -231.525E+06    -72.9531E+06     193.589E+03    -103.031E-03     205.386E-03    -102.354E-03     37.3720E-03    -103.110E-03     204.534E-03    -102.253E-03     36.6060E-03
            1981     1.62530E-03     29.5239E-03    -94.9943E+06    -240.882E+06    -86.5449E+06     446.827E+03    -102.470E-03     204.666E-03    -102.196E-03     25.5380E-03    -102.501E-03     203.756E-03    -102.142E-03     25.0436E-03
            1982     812.583E-06     29.5011E-03    -98.3127E+06    -247.325E+06    -96.3132E+06     248.136E+03    -102.135E-03     204.290E-03    -102.155E-03     13.9990E-03    -102.138E-03     203.346E-03    -102.135E-03     13.7349E-03
            1983     15.3619E-03     30.1538E-03    -4.74997E+06     121.823E+06     94.0945E+06    -12.4301E+03    -111.827E-03     219.278E-03    -107.450E-03     47.3446E-03    -113.612E-03     221.206E-03    -107.150E-03     42.8173E-03
            1984     14.5590E-03     30.0687E-03    -10.3926E+06     125.209E+06     94.0515E+06     318.792E+03    -111.222E-03     218.384E-03    -107.162E-03     82.3829E-03    -113.969E-03     221.266E-03    -106.858E-03     76.5144E-03
            1985     13.7530E-03     29.9767E-03    -16.6673E+06     117.612E+06     82.1146E+06     431.116E+03    -111.805E-03     218.618E-03    -106.813E-03     98.8070E-03    -114.898E-03     221.831E-03    -106.549E-03     92.6370E-03
            1986     12.9488E-03     29.8529E-03    -21.5490E+06     112.308E+06     64.6323E+06     490.353E+03    -112.670E-03     219.064E-03    -106.393E-03     120.081E-03    -116.183E-03     222.711E-03    -106.202E-03     113.506E-03
            1987     12.1446E-03     29.7107E-03    -25.7065E+06      93.451E+06     46.3269E+06     711.899E+03    -113.060E-03     219.016E-03    -105.956E-03     130.327E-03    -116.535E-03     222.598E-03    -105.823E-03     123.730E-03
            1988     11.3391E-03     29.5614E-03    -30.6874E+06     41.5645E+06     32.4816E+06     390.506E+03    -113.081E-03     218.654E-03    -105.572E-03     133.131E-03    -116.188E-03     221.705E-03    -105.426E-03     126.845E-03
            1989     10.5335E-03     29.4125E-03    -35.5602E+06    -17.1417E+06     18.9001E+06     213.457E+03    -112.770E-03     217.955E-03    -105.185E-03     129.868E-03    -115.329E-03     220.272E-03    -105.014E-03     124.148E-03
            1990     9.72749E-03     29.2687E-03    -39.9678E+06    -60.6204E+06     9.53097E+06     393.919E+03    -112.133E-03     216.918E-03    -104.785E-03     123.704E-03    -114.157E-03     218.557E-03    -104.591E-03     118.656E-03
            1991     8.92092E-03     29.1326E-03    -44.1926E+06    -91.5715E+06     3.69754E+06     388.401E+03    -111.234E-03     215.615E-03    -104.381E-03     116.937E-03    -112.814E-03     216.702E-03    -104.166E-03     112.555E-03
            1992     8.11309E-03     29.0032E-03    -48.7472E+06    -115.473E+06    -2.65007E+06     373.838E+03    -110.147E-03     214.121E-03    -103.973E-03     109.389E-03    -111.365E-03     214.763E-03    -103.748E-03     105.636E-03
            1993     7.30485E-03     28.8831E-03    -53.6634E+06    -138.003E+06    -8.54888E+06     320.880E+03    -108.960E-03     212.541E-03    -103.581E-03     100.803E-03    -109.878E-03     212.803E-03    -103.346E-03     97.6308E-03
            1994     6.49569E-03     28.7723E-03    -58.9220E+06    -156.534E+06    -15.5363E+06     234.690E+03    -107.698E-03     210.897E-03    -103.199E-03     91.3391E-03    -108.376E-03     210.855E-03    -102.964E-03     88.6964E-03
            1995     5.68560E-03     28.6732E-03    -64.8387E+06    -175.059E+06    -23.3013E+06     397.821E+03    -106.456E-03     209.297E-03    -102.841E-03     81.2507E-03    -106.944E-03     209.001E-03    -102.609E-03     79.0838E-03
            1996     4.87519E-03     28.5853E-03    -71.1270E+06    -189.465E+06    -33.4537E+06     452.787E+03    -105.259E-03     207.756E-03    -102.498E-03     70.8323E-03    -105.602E-03     207.272E-03    -102.287E-03     69.0883E-03
            1997     4.06367E-03     28.5098E-03    -77.4876E+06    -205.721E+06    -46.0958E+06     484.349E+03    -104.133E-03     206.320E-03    -102.187E-03     59.8983E-03    -104.360E-03     205.675E-03    -102.006E-03     58.5282E-03
            1998     3.25175E-03     28.4472E-03    -83.8415E+06    -221.482E+06    -59.4173E+06     454.630E+03    -103.142E-03     205.066E-03    -101.924E-03     48.4889E-03    -103.278E-03     204.291E-03    -101.779E-03     47.4480E-03
            1999     2.43911E-03     28.3979E-03    -89.9018E+06    -231.543E+06    -73.4158E+06     286.010E+03    -102.404E-03     204.104E-03    -101.701E-03     36.7763E-03    -102.479E-03     203.252E-03    -101.602E-03     36.0248E-03
            2000     1.62628E-03     28.3624E-03    -94.9582E+06    -240.550E+06    -86.3077E+06     273.187E+03    -101.925E-03     203.425E-03    -101.499E-03     24.9906E-03    -101.957E-03     202.515E-03    -101.444E-03     24.5013E-03
            2001     813.327E-06     28.3399E-03    -98.0085E+06    -246.595E+06    -95.5809E+06     170.925E+03    -101.572E-03     202.812E-03    -101.240E-03     13.5175E-03    -101.576E-03     201.870E-03    -101.218E-03     13.2587E-03
            2002     15.3633E-03     28.9718E-03    -4.83119E+06     121.445E+06     93.7701E+06     192.737E+03    -112.265E-03     219.704E-03    -107.439E-03     47.1306E-03    -114.041E-03     221.622E-03    -107.139E-03     42.5655E-03
            2003     14.5582E-03     28.8870E-03    -10.7875E+06     124.795E+06     93.7703E+06     422.111E+03    -112.458E-03     219.561E-03    -107.103E-03     81.5956E-03    -115.190E-03     222.425E-03    -106.799E-03     75.6511E-03
            2004     13.7555E-03     28.7965E-03    -16.0184E+06     118.259E+06     82.8410E+06     233.331E+03    -112.895E-03     219.577E-03    -106.682E-03     97.4313E-03    -115.961E-03     222.766E-03    -106.416E-03     91.1990E-03
            2005     12.9518E-03     28.6720E-03    -21.5526E+06     112.251E+06     64.3736E+06    -143.296E+03    -113.356E-03     219.548E-03    -106.192E-03     118.585E-03    -116.835E-03     223.163E-03    -106.002E-03     111.973E-03
            2006     12.1475E-03     28.5326E-03    -26.9321E+06     93.0639E+06     45.3334E+06     236.490E+03    -113.439E-03     219.139E-03    -105.701E-03     128.825E-03    -116.881E-03     222.685E-03    -105.570E-03     122.227E-03
            2007     11.3427E-03     28.3844E-03    -31.4411E+06     42.4780E+06     32.2240E+06     778.353E+03    -113.298E-03     218.571E-03    -105.273E-03     131.665E-03    -116.373E-03     221.591E-03    -105.128E-03     125.407E-03
            2008     10.5375E-03     28.2367E-03    -35.8467E+06    -17.1232E+06     18.3830E+06     562.711E+03    -112.963E-03     217.802E-03    -104.840E-03     128.404E-03    -115.492E-03     220.091E-03    -104.671E-03     122.710E-03
            2009     9.73139E-03     28.0952E-03    -39.9424E+06    -60.6972E+06     9.29873E+06     433.044E+03    -112.188E-03     216.583E-03    -104.395E-03     122.092E-03    -114.184E-03     218.195E-03    -104.203E-03     117.075E-03
            2010     8.92433E-03     27.9600E-03    -44.2938E+06    -91.1904E+06     3.53444E+06     510.380E+03    -111.156E-03     215.105E-03    -103.949E-03     115.242E-03    -112.713E-03     216.170E-03    -103.735E-03     110.897E-03
            2011     8.11707E-03     27.8330E-03    -48.8686E+06    -115.512E+06    -3.00372E+06     379.696E+03    -110.056E-03     213.553E-03    -103.497E-03     107.791E-03    -111.254E-03     214.177E-03    -103.274E-03     104.070E-03
            2012     7.30860E-03     27.7140E-03    -53.6364E+06    -137.529E+06    -8.42106E+06     433.588E+03    -108.772E-03     211.832E-03    -103.060E-03     99.2392E-03    -109.676E-03     212.082E-03    -102.825E-03     96.0994E-03
            2013     6.49933E-03     27.6056E-03    -59.0340E+06    -156.183E+06    -15.5735E+06     567.071E+03    -107.351E-03     209.988E-03    -102.637E-03     89.9123E-03    -108.018E-03     209.936E-03    -102.403E-03     87.3081E-03
            2014     5.68925E-03     27.5076E-03    -64.7357E+06    -175.281E+06    -23.9428E+06     554.857E+03    -106.004E-03     208.250E-03    -102.246E-03     80.0518E-03    -106.482E-03     207.945E-03    -102.017E-03     77.9193E-03
            2015     4.87805E-03     27.4215E-03    -70.8984E+06    -189.477E+06    -33.8360E+06     777.147E+03    -104.732E-03     206.611E-03    -101.879E-03     69.7094E-03    -105.068E-03     206.120E-03    -101.671E-03     67.9966E-03
            2016     4.06634E-03     27.3471E-03    -77.4206E+06    -205.426E+06    -45.9895E+06     882.649E+03    -103.531E-03     205.084E-03    -101.553E-03     58.8691E-03    -103.753E-03     204.435E-03    -101.373E-03     57.5276E-03
            2017     3.25380E-03     27.2858E-03    -83.8296E+06    -221.006E+06    -59.0371E+06     707.526E+03    -102.535E-03     203.812E-03    -101.277E-03     47.6420E-03    -102.670E-03     203.036E-03    -101.131E-03     46.6216E-03
            2018     2.44083E-03     27.2374E-03    -89.8969E+06    -230.887E+06    -72.7874E+06     453.831E+03    -101.821E-03     202.850E-03    -101.029E-03     36.1666E-03    -101.897E-03     201.998E-03    -100.928E-03     35.4296E-03
            2019     1.62766E-03     27.2020E-03    -94.8180E+06    -240.125E+06    -86.1873E+06     33.1218E+03    -101.242E-03     202.045E-03    -100.803E-03     24.5253E-03    -101.273E-03     201.137E-03    -100.748E-03     24.0397E-03
            2020     814.160E-06     27.1807E-03    -98.0281E+06    -246.382E+06    -95.6407E+06    -128.563E+03    -100.810E-03     201.406E-03    -100.596E-03     13.4478E-03    -100.814E-03     200.465E-03    -100.574E-03     13.1877E-03
            2021     15.3615E-03     27.7889E-03    -4.98764E+06     121.270E+06     93.5633E+06     276.160E+03    -113.443E-03     220.839E-03    -107.396E-03     45.3913E-03    -115.196E-03     222.734E-03    -107.097E-03     40.7851E-03
            2022     14.5605E-03     27.7035E-03    -10.0243E+06     125.505E+06     94.4109E+06     378.551E+03    -113.354E-03     220.354E-03    -107.000E-03     79.6436E-03    -116.049E-03     223.185E-03    -106.695E-03     73.6533E-03
            2023     13.7578E-03     27.6140E-03    -15.9824E+06     118.218E+06     82.5046E+06     78.2206E+03    -113.546E-03     220.068E-03    -106.522E-03     96.1507E-03    -116.581E-03     223.227E-03    -106.258E-03     89.8871E-03
            2024     12.9545E-03     27.4922E-03    -21.7211E+06     111.988E+06     63.9009E+06     403.311E+03    -113.804E-03     219.791E-03    -105.987E-03     117.582E-03    -117.251E-03     223.373E-03    -105.798E-03     110.971E-03
            2025     12.1506E-03     27.3533E-03    -26.9568E+06     92.9836E+06     45.0962E+06     580.516E+03    -113.823E-03     219.274E-03    -105.451E-03     127.493E-03    -117.225E-03     222.780E-03    -105.321E-03     120.911E-03
            2026     11.3463E-03     27.2078E-03    -31.7466E+06     42.6011E+06     31.9895E+06     444.380E+03    -113.673E-03     218.647E-03    -104.974E-03     130.391E-03    -116.718E-03     221.638E-03    -104.830E-03     124.137E-03
            2027     10.5407E-03     27.0612E-03    -35.9067E+06    -16.2973E+06     18.4266E+06     596.211E+03    -113.161E-03     217.651E-03    -104.491E-03     126.860E-03    -115.663E-03     219.915E-03    -104.323E-03     121.190E-03
            2028     9.73524E-03     26.9213E-03    -40.0707E+06    -60.6117E+06     8.90340E+06     484.324E+03    -112.236E-03     216.234E-03    -103.998E-03     120.369E-03    -114.203E-03     217.818E-03    -103.808E-03     115.386E-03
            2029     8.92883E-03     26.7888E-03    -44.1626E+06    -91.0867E+06     3.35353E+06     502.617E+03    -111.109E-03     214.618E-03    -103.509E-03     113.636E-03    -112.643E-03     215.662E-03    -103.296E-03     109.325E-03
            2030     8.12088E-03     26.6628E-03    -48.7311E+06    -115.156E+06    -3.09567E+06     604.838E+03    -109.857E-03     212.874E-03    -103.017E-03     106.258E-03    -111.036E-03     213.481E-03    -102.795E-03     102.579E-03
            2031     7.31256E-03     26.5462E-03    -53.7669E+06    -137.537E+06    -8.70727E+06     617.928E+03    -108.469E-03     211.016E-03    -102.547E-03     97.7771E-03    -109.359E-03     211.252E-03    -102.313E-03     94.6765E-03
            2032     6.50301E-03     26.4395E-03    -58.8318E+06    -155.947E+06    -15.4287E+06     687.937E+03    -107.013E-03     209.107E-03    -102.093E-03     88.5781E-03    -107.669E-03     209.044E-03    -101.859E-03     86.0066E-03
            2033     5.69233E-03     26.3435E-03    -64.6176E+06    -175.205E+06    -23.9580E+06     848.181E+03    -105.595E-03     207.264E-03    -101.669E-03     78.7985E-03    -106.064E-03     206.951E-03    -101.441E-03     76.6986E-03
            2034     4.88110E-03     26.2587E-03    -70.7898E+06    -189.648E+06    -34.6014E+06     1.05507E+06    -104.230E-03     205.502E-03    -101.272E-03     68.4507E-03    -104.557E-03     205.004E-03    -101.067E-03     66.7683E-03
            2035     4.06885E-03     26.1860E-03    -76.9314E+06    -205.032E+06    -45.9066E+06     1.22556E+06    -103.005E-03     203.927E-03    -100.922E-03     57.7256E-03    -103.221E-03     203.275E-03    -100.743E-03     56.4079E-03
            2036     3.25591E-03     26.1258E-03    -83.3628E+06    -220.054E+06     -58.017E+06     935.924E+03    -101.965E-03     202.588E-03    -100.623E-03     46.7088E-03    -102.098E-03     201.812E-03    -100.473E-03     45.7077E-03
            2037     2.44255E-03     26.0780E-03    -89.5162E+06    -230.247E+06    -72.3523E+06     439.695E+03    -101.093E-03     201.460E-03    -100.367E-03     35.6088E-03    -101.167E-03     200.608E-03    -100.265E-03     34.8857E-03
            2038     1.62860E-03     26.0438E-03    -94.6806E+06    -239.852E+06    -86.3160E+06     191.127E+03    -100.470E-03     200.656E-03    -100.186E-03     24.1437E-03    -100.500E-03     199.749E-03    -100.132E-03     23.6697E-03
            2039     813.921E-06     26.0230E-03    -97.9164E+06    -246.071E+06    -95.8193E+06    -134.455E+03    -100.195E-03     200.248E-03    -100.052E-03     13.0994E-03    -100.198E-03     199.308E-03    -100.033E-03     12.8437E-03
            2040     15.3664E-03     26.6045E-03    -5.10976E+06     121.037E+06     93.3985E+06    -119.161E+03    -114.580E-03     221.902E-03    -107.322E-03     44.8803E-03    -116.319E-03     223.782E-03    -107.023E-03     40.2317E-03
            2041     14.5629E-03     26.5201E-03    -10.0370E+06     125.320E+06     94.3518E+06     278.123E+03    -113.769E-03     220.650E-03    -106.880E-03     79.5176E-03    -116.440E-03     223.456E-03    -106.576E-03     73.5176E-03
            2042     13.7596E-03     26.4326E-03    -15.7096E+06     118.314E+06     82.6629E+06     672.731E+03    -113.967E-03     220.340E-03    -106.372E-03     95.4952E-03    -116.967E-03     223.464E-03    -106.108E-03     89.2407E-03
            2043     12.9568E-03     26.3104E-03    -21.4719E+06     111.537E+06     64.0082E+06      654.88E+03    -114.294E-03     220.091E-03    -105.798E-03     116.197E-03    -117.697E-03     223.628E-03    -105.608E-03     109.591E-03
            2044     12.1534E-03     26.1750E-03    -26.5010E+06     92.9881E+06     45.1141E+06     820.003E+03    -114.285E-03     219.498E-03    -105.213E-03     126.043E-03    -117.647E-03     222.965E-03    -105.084E-03     119.467E-03
            2045     11.3490E-03     26.0297E-03    -31.3136E+06     43.0245E+06     31.8863E+06     823.533E+03    -114.068E-03     218.750E-03    -104.682E-03     128.759E-03    -117.078E-03     221.710E-03    -104.539E-03     122.519E-03
            2046     10.5452E-03     25.8860E-03    -36.0128E+06    -15.6114E+06     18.3711E+06     640.710E+03    -113.306E-03     217.455E-03    -104.150E-03     125.246E-03    -115.779E-03     219.692E-03    -103.983E-03     119.603E-03
            2047     9.73902E-03     25.7481E-03    -40.1017E+06    -59.9780E+06     8.68101E+06     570.873E+03    -112.256E-03     215.870E-03    -103.614E-03     118.930E-03    -114.199E-03     217.433E-03    -103.426E-03     113.983E-03
            2048     8.93218E-03     25.6172E-03    -44.4231E+06    -91.2670E+06     2.78076E+06     572.859E+03    -111.067E-03     214.151E-03    -103.084E-03     112.118E-03    -112.579E-03     215.174E-03    -102.874E-03     107.840E-03
            2049     8.12492E-03     25.4939E-03    -48.8356E+06    -114.963E+06    -3.43073E+06     795.079E+03    -109.629E-03     212.186E-03    -102.557E-03     104.741E-03    -110.791E-03     212.777E-03    -102.337E-03     101.100E-03
            2050     7.31588E-03     25.3790E-03    -53.5279E+06    -137.207E+06    -8.74528E+06     760.865E+03    -108.150E-03     210.209E-03    -102.059E-03     96.3221E-03    -109.024E-03     210.431E-03    -101.826E-03     93.2607E-03
            2051     6.50617E-03     25.2744E-03    -59.1204E+06    -156.195E+06    -15.5841E+06     786.913E+03    -106.718E-03     208.294E-03    -101.575E-03     87.0703E-03    -107.363E-03     208.219E-03    -101.341E-03     84.5286E-03
            2052     5.69571E-03     25.1801E-03    -64.9765E+06    -175.239E+06    -23.6287E+06     1.23898E+06    -105.222E-03     206.340E-03    -101.118E-03     77.3413E-03    -105.684E-03     206.017E-03    -100.888E-03     75.2735E-03
            2053     4.88396E-03     25.0973E-03    -71.3661E+06    -189.661E+06    -34.8524E+06     1.62086E+06    -103.780E-03     204.465E-03    -100.685E-03     67.1827E-03    -104.102E-03     203.962E-03    -100.481E-03     65.5315E-03
            2054     4.07138E-03     25.0261E-03    -77.8762E+06    -203.965E+06    -47.7915E+06     1.36085E+06    -102.510E-03     202.806E-03    -100.296E-03     56.6353E-03    -102.725E-03     202.159E-03    -100.126E-03     55.3391E-03
            2055     3.25828E-03     24.9669E-03    -83.8503E+06    -218.665E+06    -59.5834E+06     638.736E+03    -101.350E-03     201.325E-03    -99.9749E-03     45.8262E-03    -101.482E-03     200.556E-03    -99.8341E-03     44.8376E-03
            2056     2.44406E-03     24.9209E-03    -89.5446E+06    -230.132E+06    -72.7526E+06     453.347E+03    -100.404E-03     200.130E-03    -99.7259E-03     34.8784E-03    -100.476E-03     199.278E-03    -99.6261E-03     34.1673E-03
            2057     1.62930E-03     24.8867E-03    -94.4412E+06    -239.222E+06    -86.0610E+06     412.384E+03    -99.8536E-03     199.398E-03    -99.5446E-03     23.5538E-03    -99.8829E-03     198.493E-03    -99.4911E-03     23.0905E-03
            2058     815.236E-06     24.8663E-03    -98.1233E+06    -245.654E+06    -95.5321E+06     211.537E+03    -99.6440E-03     198.944E-03    -99.2998E-03     12.6931E-03    -99.6487E-03     198.006E-03    -99.2790E-03     12.4471E-03
            2059     15.3639E-03     25.4184E-03    -4.89245E+06     120.788E+06     93.4117E+06    -5.81302E+03    -115.213E-03     222.516E-03    -107.303E-03     45.4868E-03    -116.946E-03     224.389E-03    -107.004E-03     40.7943E-03
            2060     14.5629E-03     25.3375E-03    -10.4197E+06     124.904E+06     93.9357E+06     60.0818E+03    -115.061E-03     221.867E-03    -106.806E-03     79.1109E-03    -117.715E-03     224.656E-03    -106.502E-03     73.0319E-03
            2061     13.7616E-03     25.2484E-03    -15.6312E+06     118.305E+06     83.1313E+06     326.001E+03    -114.800E-03     221.034E-03    -106.234E-03     93.9940E-03    -117.761E-03     224.118E-03    -105.967E-03     87.7081E-03
            2062     12.9594E-03     25.1303E-03    -21.0570E+06     111.198E+06     64.3011E+06     1.12658E+06    -114.741E-03     220.348E-03    -105.607E-03     114.419E-03    -118.094E-03     223.834E-03    -105.416E-03     107.825E-03
            2063     12.1561E-03     24.9948E-03    -26.8027E+06     93.0910E+06     44.6312E+06     1.31271E+06    -114.656E-03     219.629E-03    -104.974E-03     124.340E-03    -117.980E-03     223.059E-03    -104.847E-03     117.779E-03
            2064     11.3532E-03     24.8525E-03    -31.8044E+06     43.9469E+06     31.5600E+06     1.02763E+06    -114.208E-03     218.610E-03    -104.402E-03     127.179E-03    -117.185E-03     221.538E-03    -104.261E-03     120.970E-03
            2065     10.5476E-03     24.7107E-03    -35.8816E+06    -15.3959E+06     18.0509E+06     728.478E+03    -113.374E-03     217.208E-03    -103.834E-03     123.693E-03    -115.818E-03     219.418E-03    -103.669E-03     118.077E-03
            2066     9.74244E-03     24.5749E-03    -40.1240E+06    -59.5483E+06     8.51075E+06     811.409E+03    -112.277E-03     215.540E-03    -103.263E-03     117.441E-03    -114.198E-03     217.082E-03    -103.076E-03     112.525E-03
            2067     8.93614E-03     24.4464E-03    -44.5538E+06    -91.0688E+06     2.34126E+06     802.764E+03    -110.983E-03     213.678E-03    -102.696E-03     110.586E-03    -112.475E-03     214.683E-03    -102.488E-03     106.344E-03
            2068     8.12809E-03     24.3253E-03    -48.9326E+06    -115.052E+06    -3.91353E+06     851.113E+03    -109.527E-03     211.659E-03    -102.132E-03     103.075E-03    -110.671E-03     212.232E-03    -101.913E-03     99.4646E-03
            2069     7.31947E-03     24.2130E-03    -53.9486E+06    -136.914E+06    -9.12951E+06     1.03498E+06    -107.967E-03     209.560E-03    -101.594E-03     94.6557E-03    -108.827E-03     209.770E-03    -101.363E-03     91.6279E-03
            2070     6.50962E-03     24.1098E-03    -59.5095E+06    -156.293E+06    -15.8635E+06     1.17225E+06    -106.374E-03     207.450E-03    -101.077E-03     85.4554E-03    -107.007E-03     207.364E-03    -100.843E-03     82.9504E-03
            2071     5.69859E-03     24.0180E-03    -65.5455E+06    -175.734E+06    -23.9671E+06     1.62601E+06    -104.815E-03     205.408E-03    -100.593E-03     75.8392E-03    -105.269E-03     205.075E-03    -100.363E-03     73.8030E-03
            2072     4.88661E-03     23.9368E-03    -71.8471E+06    -189.407E+06    -34.7256E+06     2.17258E+06    -103.325E-03     203.462E-03    -100.137E-03     65.9310E-03    -103.644E-03     202.954E-03    -99.9320E-03     64.3103E-03
            2073     4.07390E-03     23.8672E-03    -78.1112E+06    -201.824E+06    -48.3785E+06     1.64566E+06    -101.941E-03     201.668E-03    -99.7267E-03     55.6316E-03    -102.155E-03     201.028E-03    -99.5627E-03     54.3611E-03
            2074     3.25988E-03     23.8100E-03    -84.2370E+06    -217.550E+06    -61.6432E+06     536.400E+03    -100.818E-03     200.208E-03    -99.3897E-03     45.0679E-03    -100.948E-03     199.445E-03    -99.2604E-03     44.0934E-03
            2075     2.44558E-03     23.7645E-03    -89.7172E+06    -230.117E+06    -73.4297E+06     388.404E+03    -99.9579E-03     199.070E-03    -99.1120E-03     34.2186E-03    -100.029E-03     198.218E-03    -99.0154E-03     33.5169E-03
            2076     1.63101E-03     23.7316E-03    -94.6334E+06    -238.633E+06    -85.7964E+06     567.441E+03    -99.2337E-03     198.130E-03    -98.8960E-03     23.2412E-03    -99.2645E-03     197.226E-03    -98.8418E-03     22.7891E-03
            2077     815.140E-06     23.7111E-03    -98.1594E+06    -245.256E+06    -95.7057E+06     351.841E+03    -99.0259E-03     197.625E-03    -98.5992E-03     12.5633E-03    -99.0310E-03     196.689E-03    -98.5797E-03     12.3212E-03
            2078     15.3641E-03     24.2328E-03    -4.39280E+06     121.029E+06     93.8367E+06     11.7342E+03    -116.307E-03     223.582E-03    -107.275E-03     43.3465E-03    -118.010E-03     225.427E-03    -106.975E-03     38.6087E-03
            2079     14.5646E-03     24.1488E-03    -10.0100E+06     125.213E+06     94.2853E+06    -73.3489E+03    -115.830E-03     222.552E-03    -106.722E-03     76.5079E-03    -118.442E-03     225.299E-03    -106.418E-03     70.3814E-03
            2080     13.7641E-03     24.0666E-03    -16.6322E+06     117.170E+06     81.7728E+06     352.248E+03    -115.458E-03     221.553E-03    -106.095E-03     92.4392E-03    -118.385E-03     224.600E-03    -105.832E-03     86.1274E-03
            2081     12.9617E-03     23.9475E-03    -22.4218E+06     109.930E+06     63.4675E+06     924.991E+03    -115.275E-03     220.699E-03    -105.423E-03     113.196E-03    -118.594E-03     224.144E-03    -105.233E-03     106.594E-03
            2082     12.1597E-03     23.8158E-03    -26.8523E+06     93.5809E+06     44.9662E+06     1.39741E+06    -114.851E-03     219.603E-03    -104.752E-03     122.903E-03    -118.137E-03     222.996E-03    -104.624E-03     116.364E-03
            2083     11.3549E-03     23.6748E-03    -31.2261E+06     44.9444E+06     31.6200E+06     1.15736E+06    -114.279E-03     218.426E-03    -104.147E-03     125.601E-03    -117.221E-03     221.325E-03    -104.008E-03     119.421E-03
            2084     10.5515E-03     23.5356E-03    -35.8911E+06    -14.9786E+06     17.8129E+06     1.01968E+06    -113.453E-03     217.000E-03    -103.547E-03     121.959E-03    -115.865E-03     219.180E-03    -103.384E-03     116.378E-03
            2085     9.74555E-03     23.4022E-03    -40.2237E+06    -59.4810E+06     8.13621E+06     1.07172E+06    -112.234E-03     215.178E-03    -102.943E-03     115.679E-03    -114.131E-03     216.697E-03    -102.758E-03     110.794E-03
            2086     8.93869E-03     23.2758E-03    -44.5464E+06    -90.6549E+06     2.19433E+06     1.09581E+06    -110.873E-03     213.220E-03    -102.347E-03     108.943E-03    -112.345E-03     214.206E-03    -102.140E-03     104.736E-03
            2087     8.13142E-03     23.1572E-03    -49.2919E+06    -115.084E+06    -4.59043E+06     1.14675E+06    -109.489E-03     211.235E-03    -101.745E-03     101.459E-03    -110.617E-03     211.792E-03    -101.530E-03     97.8786E-03
            2088     7.32267E-03     23.0470E-03    -54.0486E+06    -136.904E+06    -9.83630E+06     1.38949E+06    -107.842E-03     209.007E-03    -101.165E-03     93.0067E-03    -108.688E-03     209.203E-03    -100.937E-03     90.0089E-03
            2089     6.51261E-03     22.9467E-03    -59.4023E+06    -156.191E+06    -16.1520E+06     1.74244E+06    -106.052E-03     206.668E-03    -100.616E-03     83.9253E-03    -106.673E-03     206.571E-03    -100.384E-03     81.4587E-03
            2090     5.70139E-03     22.8566E-03    -65.4547E+06    -175.983E+06    -24.2461E+06     2.12517E+06    -104.401E-03     204.513E-03    -100.112E-03     74.4104E-03    -104.844E-03     204.170E-03    -99.8832E-03     72.4086E-03
            2091     4.88926E-03     22.7775E-03    -71.4226E+06    -188.792E+06    -34.7567E+06     2.11657E+06    -102.837E-03     202.480E-03    -99.6431E-03     64.6395E-03    -103.148E-03     201.968E-03    -99.4396E-03     63.0436E-03
            2092     4.07561E-03     22.7099E-03    -77.2121E+06    -200.281E+06    -47.0612E+06     1.68440E+06    -101.471E-03     200.698E-03    -99.2268E-03     54.4707E-03    -101.680E-03     200.058E-03    -99.0597E-03     53.2210E-03
            2093     3.26163E-03     22.6538E-03    -83.1921E+06    -216.129E+06    -60.6242E+06     1.24366E+06    -100.382E-03     199.250E-03    -98.8678E-03     44.0351E-03    -100.508E-03     198.489E-03    -98.7369E-03     43.0849E-03
            2094     2.44698E-03     22.6094E-03    -89.3310E+06    -229.889E+06    -74.1214E+06     849.891E+03    -99.4352E-03     198.000E-03    -98.5651E-03     33.4677E-03    -99.5014E-03     197.148E-03    -98.4729E-03     32.7847E-03
            2095     1.63138E-03     22.5777E-03    -94.3792E+06    -238.120E+06    -86.0947E+06     680.162E+03    -98.6439E-03     197.002E-03    -98.3582E-03     22.7692E-03    -98.6729E-03     196.100E-03    -98.3066E-03     22.3271E-03
            2096     815.965E-06     22.5578E-03    -97.4731E+06    -244.108E+06    -95.2448E+06     459.973E+03    -98.4462E-03     196.581E-03    -98.1350E-03     12.8880E-03    -98.4500E-03     195.649E-03    -98.1160E-03     12.6515E-03
            2097     15.3680E-03     23.0434E-03    -4.33058E+06     120.813E+06     93.8004E+06    -74.3764E+03    -117.218E-03     224.450E-03    -107.232E-03     43.5380E-03    -118.901E-03     226.275E-03    -106.932E-03     38.7865E-03
            2098     14.5664E-03     22.9656E-03    -10.2193E+06     124.142E+06     93.7824E+06     959.110E+03    -116.247E-03     222.888E-03    -106.641E-03     76.2122E-03    -118.819E-03     225.592E-03    -106.337E-03     70.1199E-03
            2099     13.7644E-03     22.8805E-03    -16.5409E+06     117.008E+06     81.9313E+06     1.23528E+06    -115.924E-03     221.909E-03    -105.985E-03     91.1732E-03    -118.806E-03     224.910E-03    -105.721E-03     84.8851E-03
            2100     12.9642E-03     22.7663E-03    -22.1964E+06     109.825E+06     63.4604E+06     963.946E+03    -115.675E-03     220.951E-03    -105.276E-03     111.739E-03    -118.951E-03     224.354E-03    -105.086E-03     105.147E-03
            2101     12.1609E-03     22.6355E-03    -27.3857E+06     93.3291E+06     44.0012E+06     818.339E+03    -115.163E-03     219.727E-03    -104.564E-03     121.459E-03    -118.415E-03     223.086E-03    -104.440E-03     114.925E-03
            2102     11.3588E-03     22.4978E-03    -32.0334E+06     45.5405E+06     31.0211E+06     1.31308E+06    -114.432E-03     218.357E-03    -103.925E-03     123.971E-03    -117.344E-03     221.227E-03    -103.789E-03     117.815E-03
            2103     10.5533E-03     22.3602E-03    -36.4315E+06    -14.2738E+06     17.2982E+06     1.41798E+06    -113.472E-03     216.767E-03    -103.296E-03     120.536E-03    -115.859E-03     218.925E-03    -103.136E-03     114.989E-03
            2104     9.74843E-03     22.2295E-03    -40.5648E+06    -59.4842E+06     7.51487E+06     1.08857E+06    -112.318E-03     214.978E-03    -102.660E-03     113.968E-03    -114.191E-03     216.474E-03    -102.478E-03     109.105E-03
            2105     8.94199E-03     22.1061E-03    -44.6422E+06    -90.5123E+06     1.87444E+06     1.32684E+06    -110.864E-03     212.892E-03    -102.027E-03     107.039E-03    -112.314E-03     213.856E-03    -101.822E-03     102.861E-03
            2106     8.13397E-03     21.9890E-03    -49.0351E+06    -114.758E+06    -4.87197E+06     1.40631E+06    -109.262E-03     210.658E-03    -101.396E-03     99.6386E-03    -110.369E-03     211.198E-03    -101.183E-03     96.0945E-03
            2107     7.32532E-03     21.8818E-03    -53.9377E+06    -137.028E+06    -10.4029E+06     1.70998E+06    -107.605E-03     208.399E-03    -100.793E-03     91.2679E-03    -108.433E-03     208.579E-03    -100.568E-03     88.3066E-03
            2108     6.51524E-03     21.7839E-03    -59.2301E+06    -156.484E+06    -16.7769E+06     2.22398E+06    -105.866E-03     206.082E-03    -100.216E-03     82.2790E-03    -106.472E-03     205.971E-03    -99.9870E-03     79.8457E-03
            2109     5.70388E-03     21.6963E-03    -64.6546E+06    -175.650E+06    -24.3363E+06     2.24947E+06    -104.086E-03     203.769E-03    -99.6836E-03     72.8067E-03    -104.515E-03     203.416E-03    -99.4569E-03     70.8347E-03
            2110     4.89104E-03     21.6193E-03    -70.4267E+06    -187.790E+06    -34.5129E+06     2.07680E+06    -102.475E-03     201.667E-03    -99.1919E-03     63.0641E-03    -102.775E-03     201.150E-03    -98.9901E-03     61.4919E-03
            2111     4.07775E-03     21.5534E-03    -76.7515E+06    -199.476E+06    -46.7824E+06     1.89134E+06    -101.096E-03     199.848E-03    -98.7517E-03     53.1107E-03    -101.299E-03     199.206E-03    -98.5851E-03     51.8829E-03
            2112     3.26341E-03     21.4984E-03    -82.9290E+06    -215.151E+06    -60.1112E+06     1.83812E+06    -99.8941E-03     198.271E-03    -98.3764E-03     42.9648E-03    -100.017E-03     197.509E-03    -98.2447E-03     42.0390E-03
            2113     2.44805E-03     21.4561E-03    -88.4466E+06    -228.623E+06    -73.8119E+06     1.65075E+06    -98.8914E-03     196.966E-03    -98.0746E-03     32.5593E-03    -98.9536E-03     196.117E-03    -97.9839E-03     31.8997E-03
            2114     1.63248E-03     21.4245E-03    -93.2170E+06    -236.918E+06    -86.0578E+06     1.11332E+06    -98.1929E-03     196.054E-03    -97.8608E-03     22.0987E-03    -98.2171E-03     195.155E-03    -97.8124E-03     21.6688E-03
            2115     815.978E-06     21.4060E-03    -96.5178E+06    -242.621E+06    -94.5191E+06     819.711E+03    -97.8317E-03     195.568E-03    -97.7365E-03     12.7182E-03    -97.8338E-03     194.641E-03    -97.7174E-03     12.4919E-03
            2116     15.3635E-03     21.8553E-03    -5.15946E+06     119.477E+06     92.4899E+06     195.383E+03    -117.907E-03     225.132E-03    -107.225E-03     42.4755E-03    -119.562E-03     226.924E-03    -106.928E-03     37.7082E-03
            2117     14.5658E-03     21.7774E-03    -10.9458E+06     122.587E+06     92.9451E+06     443.989E+03    -117.217E-03     223.805E-03    -106.588E-03     74.1674E-03    -119.747E-03     226.462E-03    -106.285E-03     68.0236E-03
            2118     13.7673E-03     21.6963E-03    -15.6802E+06     117.614E+06     83.0502E+06     1.15088E+06    -116.376E-03     222.266E-03    -105.890E-03     89.0217E-03    -119.209E-03     225.220E-03    -105.622E-03     82.7283E-03
            2119     12.9647E-03     21.5837E-03    -21.4103E+06     110.070E+06     63.9885E+06     1.61735E+06    -115.766E-03     220.917E-03    -105.151E-03     109.700E-03    -118.991E-03     224.271E-03    -104.960E-03     103.142E-03
            2120     12.1638E-03     21.4551E-03    -27.0448E+06     93.6798E+06     43.7868E+06     1.74240E+06    -115.238E-03     219.655E-03    -104.417E-03     119.860E-03    -118.450E-03     222.977E-03    -104.295E-03     113.363E-03
            2121     11.3595E-03     21.3202E-03    -32.2582E+06     45.6322E+06     30.3424E+06     1.54276E+06    -114.610E-03     218.362E-03    -103.752E-03     122.569E-03    -117.495E-03     221.206E-03    -103.620E-03     116.428E-03
            2122     10.5562E-03     21.1855E-03    -36.6416E+06    -13.6510E+06     17.0165E+06     1.28709E+06    -113.671E-03     216.762E-03    -103.091E-03     118.878E-03    -116.035E-03     218.898E-03    -102.933E-03     113.340E-03
            2123     9.75039E-03     21.0567E-03    -40.6881E+06    -59.0841E+06     7.12975E+06     1.21430E+06    -112.384E-03     214.803E-03    -102.420E-03     112.192E-03    -114.229E-03     216.274E-03    -102.239E-03     107.358E-03
            2124     8.94439E-03     20.9357E-03    -44.8924E+06    -90.9092E+06     1.17139E+06     1.34308E+06    -110.898E-03     212.651E-03    -101.753E-03     105.331E-03    -112.326E-03     213.594E-03    -101.550E-03     101.175E-03
            2125     8.13695E-03     20.8223E-03    -49.2356E+06    -114.333E+06    -5.31075E+06     1.78737E+06    -109.182E-03     210.270E-03    -101.089E-03     97.8167E-03    -110.268E-03     210.792E-03    -100.878E-03     94.3099E-03
            2126     7.32748E-03     20.7169E-03    -54.2894E+06    -137.482E+06    -11.1702E+06     2.10058E+06    -107.410E-03     207.868E-03    -100.458E-03     89.1782E-03    -108.217E-03     208.027E-03    -100.235E-03     86.2595E-03
            2127     6.51736E-03     20.6215E-03    -59.3208E+06    -156.303E+06    -17.5826E+06     2.17125E+06    -105.649E-03     205.501E-03    -99.8515E-03     80.1175E-03    -106.238E-03     205.375E-03    -99.6267E-03     77.7149E-03
            2128     5.70597E-03     20.5365E-03    -64.4185E+06    -174.877E+06    -25.2748E+06     2.03167E+06    -103.915E-03     203.196E-03    -99.2815E-03     70.7730E-03    -104.331E-03     202.836E-03    -99.0609E-03     68.8244E-03
            2129     4.89352E-03     20.4619E-03    -70.1082E+06    -187.506E+06    -35.2057E+06     2.25728E+06    -102.226E-03     200.976E-03    -98.7498E-03     61.2389E-03    -102.515E-03     200.452E-03    -98.5523E-03     59.6940E-03
            2130     4.07960E-03     20.3975E-03    -76.1316E+06    -198.531E+06    -46.7989E+06     2.63021E+06    -100.688E-03     198.969E-03    -98.2810E-03     51.5198E-03    -100.882E-03     198.324E-03    -98.1167E-03     50.3247E-03
            2131     3.26460E-03     20.3450E-03    -82.2689E+06    -214.134E+06    -60.1376E+06     2.43236E+06    -99.4317E-03     197.321E-03    -97.8888E-03     41.5566E-03    -99.5485E-03     196.559E-03    -97.7597E-03     40.6576E-03
            2132     2.44933E-03     20.3027E-03    -87.9151E+06    -227.225E+06    -73.2257E+06     2.04746E+06    -98.4294E-03     196.002E-03    -97.5730E-03     31.3806E-03    -98.4894E-03     195.156E-03    -97.4822E-03     30.7384E-03
            2133     1.63296E-03     20.2736E-03    -92.6224E+06    -235.056E+06    -84.6991E+06     1.60442E+06    -97.8281E-03     195.128E-03    -97.2997E-03     21.4321E-03    -97.8529E-03     194.235E-03    -97.2481E-03     21.0172E-03
            2134     817.038E-06     20.2534E-03    -95.8470E+06    -240.801E+06    -93.5331E+06     916.268E+03    -97.3775E-03     194.329E-03    -96.9519E-03     11.5205E-03    -97.3797E-03     193.408E-03    -96.9315E-03     11.3008E-03
            2135     15.3682E-03     20.6662E-03    -4.56523E+06     120.035E+06     93.0374E+06     478.184E+03    -119.106E-03     226.317E-03    -107.211E-03     40.3560E-03    -120.722E-03     228.073E-03    -106.913E-03     35.5791E-03
            2136     14.5684E-03     20.5888E-03    -9.79991E+06     122.563E+06      93.364E+06     417.308E+03    -117.431E-03     223.965E-03    -106.534E-03     72.2481E-03    -119.906E-03     226.570E-03    -106.230E-03     66.1211E-03
            2137     13.7672E-03     20.5117E-03    -16.2670E+06     115.926E+06     81.8406E+06     988.704E+03    -116.545E-03     222.361E-03    -105.816E-03     87.7454E-03    -119.340E-03     225.273E-03    -105.552E-03     81.4612E-03
            2138     12.9677E-03     20.4008E-03    -21.8968E+06     109.247E+06     63.7069E+06     2.01467E+06    -115.881E-03     220.947E-03    -105.066E-03     108.571E-03    -119.071E-03     224.263E-03    -104.874E-03     102.036E-03
            2139     12.1639E-03     20.2760E-03    -27.1401E+06     94.2325E+06     43.6723E+06     2.55470E+06    -115.244E-03     219.561E-03    -104.318E-03     118.679E-03    -118.423E-03     222.852E-03    -104.197E-03     112.217E-03
            2140     11.3615E-03     20.1418E-03    -31.7047E+06     46.8098E+06     30.2308E+06     1.90664E+06    -114.881E-03     218.511E-03    -103.630E-03     121.167E-03    -117.735E-03     221.331E-03    -103.501E-03     115.037E-03
            2141     10.5573E-03     20.0100E-03    -36.1162E+06    -13.2196E+06     16.8065E+06     1.46193E+06    -114.019E-03     216.949E-03    -102.930E-03     116.985E-03    -116.349E-03     219.055E-03    -102.774E-03     111.454E-03
            2142     9.75286E-03     19.8843E-03    -40.4168E+06    -58.7304E+06     6.91503E+06     1.65924E+06    -112.557E-03     214.774E-03    -102.217E-03     110.155E-03    -114.369E-03     216.213E-03    -102.038E-03     105.350E-03
            2143     8.94605E-03     19.7659E-03    -44.7692E+06    -90.9825E+06     680.129E+03     1.72564E+06    -111.017E-03     212.525E-03    -101.508E-03     102.858E-03    -112.410E-03     213.434E-03    -101.308E-03     98.7402E-03
            2144     8.13847E-03     19.6547E-03    -49.4134E+06    -114.785E+06    -6.23975E+06     2.07230E+06    -109.396E-03     210.186E-03    -100.790E-03     94.9811E-03    -110.451E-03     210.675E-03    -100.583E-03     91.5087E-03
            2145     7.33030E-03     19.5527E-03    -53.8006E+06    -137.353E+06    -11.6950E+06     2.44379E+06    -107.506E-03     207.600E-03    -100.095E-03     86.1371E-03    -108.282E-03     207.732E-03    -99.8758E-03     83.2596E-03
            2146     6.51985E-03     19.4599E-03    -58.7562E+06    -155.211E+06    -18.0976E+06     2.24518E+06    -105.534E-03     204.962E-03    -99.4280E-03     76.8580E-03    -106.096E-03     204.817E-03    -99.2082E-03     74.5000E-03
            2147     5.70825E-03     19.3773E-03    -64.3487E+06    -174.348E+06    -26.2402E+06     2.23372E+06    -103.693E-03     202.497E-03    -98.8045E-03     67.5489E-03    -104.088E-03     202.121E-03    -98.5896E-03     65.6450E-03
            2148     4.89550E-03     19.3048E-03    -70.1176E+06    -187.854E+06    -36.5781E+06     2.54482E+06    -101.956E-03     200.174E-03    -98.2172E-03     58.1935E-03    -102.227E-03     199.635E-03    -98.0260E-03     56.6899E-03
            2149     4.08147E-03     19.2433E-03    -75.9026E+06    -197.803E+06    -47.3889E+06     2.92448E+06    -100.347E-03     198.036E-03    -97.6889E-03     48.6768E-03    -100.530E-03     197.385E-03    -97.5290E-03     47.5195E-03
            2150     3.26678E-03     19.1914E-03    -81.6630E+06    -212.489E+06    -59.6784E+06     3.09044E+06    -98.9346E-03     196.177E-03    -97.2421E-03     38.9949E-03    -99.0439E-03     195.415E-03    -97.1140E-03     38.1338E-03
            2151     2.45058E-03     19.1521E-03    -87.2286E+06    -225.272E+06    -72.1643E+06     2.50238E+06    -97.9209E-03     194.784E-03    -96.8634E-03     29.4148E-03    -97.9777E-03     193.941E-03    -96.7711E-03     28.8005E-03
            2152     1.63437E-03     19.1220E-03    -91.8795E+06    -232.900E+06    -83.5011E+06     1.63921E+06    -97.1990E-03     193.703E-03    -96.5038E-03     19.9179E-03    -97.2230E-03     192.816E-03    -96.4504E-03     19.5191E-03
            2153     817.482E-06     19.1042E-03    -94.8435E+06    -238.601E+06    -92.5986E+06     543.682E+03    -96.4842E-03     192.633E-03    -96.1488E-03     10.3481E-03    -96.4852E-03     191.719E-03    -96.1283E-03     10.1307E-03
            2154     15.3653E-03     19.4736E-03    -4.95240E+06     119.268E+06     92.3478E+06     192.877E+03    -119.398E-03     226.624E-03    -107.227E-03     39.9263E-03    -120.988E-03     228.353E-03    -106.931E-03     35.1586E-03
            2155     14.5673E-03     19.4032E-03    -9.98959E+06     121.876E+06     93.1762E+06     1.13697E+06    -117.791E-03     224.326E-03    -106.536E-03     71.4566E-03    -120.222E-03     226.885E-03    -106.232E-03     65.3681E-03
            2156     13.7681E-03     19.3251E-03    -15.8232E+06     115.035E+06     81.8089E+06     1.65630E+06    -116.557E-03     222.366E-03    -105.808E-03     86.5349E-03    -119.306E-03     225.229E-03    -105.543E-03     80.2983E-03
            2157     12.9660E-03     19.2186E-03    -21.7606E+06     108.001E+06     63.2995E+06     2.29394E+06    -116.087E-03     221.134E-03    -105.048E-03     107.314E-03    -119.236E-03     224.407E-03    -104.856E-03     100.793E-03
            2158     12.1653E-03     19.0954E-03    -26.7454E+06     95.1093E+06     43.4049E+06     2.65013E+06    -115.823E-03     220.089E-03    -104.266E-03     117.297E-03    -118.966E-03     223.349E-03    -104.148E-03     110.820E-03
            2159     11.3619E-03     18.9637E-03    -31.4246E+06     47.9556E+06     29.6200E+06     2.31410E+06    -115.284E-03     218.817E-03    -103.533E-03     119.373E-03    -118.093E-03     221.599E-03    -103.409E-03     113.256E-03
            2160     10.5589E-03     18.8338E-03    -35.9197E+06    -12.7349E+06     16.2994E+06     2.11509E+06    -114.451E-03     217.240E-03    -102.788E-03     114.569E-03    -116.733E-03     219.301E-03    -102.636E-03     109.060E-03
            2161     9.75397E-03     18.7114E-03    -40.2402E+06    -58.6046E+06     6.45813E+06     2.10720E+06    -113.323E-03     215.326E-03    -102.003E-03     106.975E-03    -115.086E-03     216.719E-03    -101.828E-03     102.181E-03
            2162     8.94882E-03     18.5958E-03    -44.3733E+06    -90.7429E+06     339.668E+03     2.25279E+06    -111.769E-03     212.960E-03    -101.191E-03     98.8076E-03    -113.107E-03     213.818E-03    -100.994E-03     94.7224E-03
            2163     8.14198E-03     18.4876E-03    -48.4320E+06    -114.809E+06    -6.66278E+06     2.30315E+06    -109.864E-03     210.224E-03    -100.360E-03     90.0973E-03    -110.860E-03     210.661E-03    -100.157E-03     86.6748E-03
            2164     7.33321E-03     18.3882E-03    -52.8036E+06    -137.248E+06    -12.1930E+06     2.61224E+06    -107.808E-03     207.359E-03    -99.5511E-03     80.8700E-03    -108.531E-03     207.443E-03    -99.3365E-03     78.0521E-03
            2165     6.52374E-03     18.2989E-03    -57.8297E+06    -154.289E+06    -18.6298E+06     2.97255E+06    -105.658E-03     204.422E-03    -98.7633E-03     71.4680E-03    -106.175E-03     204.240E-03    -98.5489E-03     69.1857E-03
            2166     5.71240E-03     18.2189E-03    -63.5925E+06    -174.126E+06    -26.9931E+06     3.24530E+06    -103.512E-03     201.535E-03    -98.0230E-03     62.1094E-03    -103.868E-03     201.126E-03    -97.8133E-03     60.2886E-03
            2167     4.89935E-03     18.1493E-03    -69.8300E+06    -187.356E+06    -37.2127E+06     3.46206E+06    -101.551E-03     198.879E-03    -97.3277E-03     52.9607E-03    -101.795E-03     198.318E-03    -97.1409E-03     51.5341E-03
            2168     4.08554E-03     18.0892E-03    -76.0344E+06    -196.926E+06    -48.1748E+06     3.26224E+06    -99.7539E-03     196.447E-03    -96.6933E-03     43.9713E-03    -99.9190E-03     195.783E-03    -96.5384E-03     42.8770E-03
            2169     3.26980E-03     18.0408E-03    -81.5548E+06    -210.948E+06    -59.8595E+06     2.96322E+06    -98.2029E-03     194.342E-03    -96.1393E-03     35.0549E-03    -98.3018E-03     193.576E-03    -96.0144E-03     34.2408E-03
            2170     2.45358E-03     18.0016E-03    -86.2242E+06    -222.748E+06    -71.3533E+06     2.59142E+06    -96.9921E-03     192.642E-03    -95.6503E-03     26.4094E-03    -97.0419E-03     191.802E-03    -95.5591E-03     25.8364E-03
            2171     1.63656E-03     17.9735E-03    -90.5406E+06    -230.503E+06    -83.0613E+06     1.78929E+06    -95.8992E-03     191.135E-03    -95.2358E-03     17.5772E-03    -95.9173E-03     190.254E-03    -95.1856E-03     17.2085E-03
            2172     818.332E-06     17.9572E-03    -93.4335E+06    -236.242E+06    -92.1432E+06     679.369E+03    -94.9800E-03     190.099E-03    -95.1186E-03     8.93852E-03    -94.9770E-03     189.193E-03    -95.1013E-03     8.73702E-03
            2173     15.3649E-03     18.2838E-03    -4.97465E+06     118.783E+06     91.8655E+06     419.964E+03    -119.581E-03     226.856E-03    -107.275E-03     37.5776E-03    -121.130E-03     228.543E-03    -106.981E-03     32.8318E-03
            2174     14.5670E-03     18.2122E-03    -10.5718E+06     120.778E+06     92.1708E+06     412.519E+03    -117.915E-03     224.491E-03    -106.575E-03     68.3944E-03    -120.289E-03     226.988E-03    -106.274E-03     62.3080E-03
            2175     13.7672E-03     18.1416E-03    -15.7184E+06     113.813E+06     81.6731E+06     1.61561E+06    -116.825E-03     222.663E-03    -105.839E-03     84.5269E-03    -119.518E-03     225.469E-03    -105.573E-03     78.3003E-03
            2176     12.9667E-03     18.0349E-03    -20.9465E+06     107.226E+06     63.7650E+06     2.65715E+06    -116.623E-03     221.677E-03    -105.053E-03     105.411E-03    -119.714E-03     224.889E-03    -104.860E-03     98.8853E-03
            2177     12.1647E-03     17.9137E-03    -26.1137E+06     95.8758E+06     43.4812E+06     3.01451E+06    -116.589E-03     220.808E-03    -104.219E-03     114.858E-03    -119.669E-03     224.010E-03    -104.103E-03     108.366E-03
            2178     11.3635E-03     17.7850E-03    -31.1028E+06     49.0298E+06     29.2785E+06     3.04758E+06    -116.363E-03     219.769E-03    -103.406E-03     116.205E-03    -119.102E-03     222.487E-03    -103.286E-03     110.076E-03
            2179     10.5601E-03     17.6575E-03    -35.6782E+06    -12.1540E+06     15.8397E+06     2.51774E+06    -115.813E-03     218.357E-03    -102.544E-03     109.891E-03    -118.008E-03     220.337E-03    -102.396E-03     104.378E-03
            2180     9.75719E-03     17.5371E-03    -39.5604E+06    -58.5166E+06     6.25873E+06     2.35515E+06    -114.708E-03     216.313E-03    -101.605E-03     100.662E-03    -116.373E-03     217.613E-03    -101.432E-03     95.8885E-03
            2181     8.95297E-03     17.4246E-03    -43.6352E+06    -90.3811E+06     353.119E+03     2.68861E+06    -112.997E-03     213.609E-03    -100.612E-03     91.6241E-03    -114.241E-03     214.377E-03    -100.416E-03     87.5933E-03
            2182     8.14742E-03     17.3202E-03    -47.9757E+06    -114.190E+06    -6.95278E+06     2.78913E+06    -110.832E-03     210.412E-03    -99.5796E-03     82.3040E-03    -111.741E-03     210.766E-03    -99.3793E-03     78.9664E-03
            2183     7.34034E-03     17.2246E-03    -52.4273E+06    -137.385E+06    -12.8322E+06     2.97301E+06    -108.339E-03     206.903E-03    -98.5643E-03     72.5326E-03    -108.983E-03     206.911E-03    -98.3532E-03     69.8206E-03
            2184     6.53083E-03     17.1382E-03    -57.1462E+06    -154.251E+06    -19.1283E+06     3.68914E+06    -105.772E-03     203.346E-03    -97.5741E-03     63.0593E-03    -106.221E-03     203.101E-03    -97.3632E-03     60.8971E-03
            2185     5.71973E-03     17.0622E-03    -62.5813E+06    -173.945E+06    -27.0523E+06     4.53402E+06    -103.291E-03     199.924E-03    -96.6328E-03     53.9913E-03    -103.594E-03     199.465E-03    -96.4251E-03     52.2946E-03
            2186     4.90707E-03     16.9952E-03    -68.5792E+06    -185.740E+06    -36.2739E+06     4.79443E+06    -100.791E-03     196.543E-03    -95.7515E-03     45.4479E-03    -100.996E-03     195.950E-03    -95.5641E-03     44.1432E-03
            2187     4.09186E-03     16.9387E-03    -74.4684E+06    -194.715E+06    -48.1326E+06     4.08775E+06    -98.5764E-03     193.529E-03    -94.9526E-03     37.3181E-03    -98.7118E-03     192.848E-03    -94.8030E-03     36.3282E-03
            2188     3.27592E-03     16.8917E-03    -79.9360E+06    -209.156E+06    -60.7480E+06     3.10976E+06    -96.7868E-03     191.037E-03    -94.2505E-03     29.5460E-03    -96.8630E-03     190.263E-03    -94.1351E-03     28.8113E-03
            2189     2.45846E-03     16.8551E-03    -85.1262E+06    -220.981E+06    -72.1815E+06     2.71845E+06    -95.1117E-03     188.776E-03    -93.6640E-03     22.1094E-03    -95.1484E-03     187.935E-03    -93.5811E-03     21.5984E-03
            2190     1.63938E-03     16.8288E-03    -89.3619E+06    -228.026E+06    -82.7070E+06     2.32549E+06    -93.7833E-03     187.037E-03    -93.2539E-03     14.7038E-03    -93.7957E-03     186.162E-03    -93.2073E-03     14.3827E-03
            2191     819.972E-06     16.8134E-03    -92.0883E+06    -232.824E+06    -90.3465E+06     1.23421E+06    -92.9994E-03     186.187E-03    -93.1879E-03     7.57915E-03    -92.9962E-03     185.293E-03    -93.1685E-03     7.40695E-03
            2192     15.3655E-03     17.0907E-03    -4.39744E+06     118.674E+06     91.6430E+06     477.693E+03    -119.685E-03     227.020E-03    -107.334E-03     36.4047E-03    -121.186E-03     228.660E-03    -107.042E-03     31.7113E-03
            2193     14.5664E-03     17.0261E-03    -9.64264E+06     120.186E+06     91.9744E+06     1.16430E+06    -118.071E-03     224.702E-03    -106.631E-03     66.7694E-03    -120.376E-03     227.133E-03    -106.332E-03     60.7444E-03
            2194     13.7662E-03     16.9544E-03    -15.7570E+06     112.334E+06     80.9383E+06     1.50542E+06    -117.644E-03     223.512E-03    -105.868E-03     82.6589E-03    -120.281E-03     226.257E-03    -105.604E-03     76.4038E-03
            2195     12.9666E-03     16.8511E-03    -21.2302E+06     106.223E+06     63.8809E+06     2.55029E+06    -117.946E-03     222.964E-03    -105.018E-03     102.788E-03    -120.962E-03     226.096E-03    -104.822E-03     96.2089E-03
            2196     12.1664E-03     16.7316E-03    -26.0331E+06     95.6940E+06     43.7208E+06     3.42259E+06    -118.394E-03     222.462E-03    -104.068E-03     110.772E-03    -121.374E-03     225.563E-03    -103.950E-03     104.222E-03
            2197     11.3651E-03     16.6042E-03    -30.2731E+06     50.3313E+06     29.6317E+06     3.21542E+06    -118.843E-03     221.915E-03    -103.071E-03     109.675E-03    -121.452E-03     224.509E-03    -102.952E-03     103.479E-03
            2198     10.5660E-03     16.4788E-03    -34.2502E+06    -10.7901E+06     16.2516E+06     2.81127E+06    -118.314E-03     220.279E-03    -101.966E-03     101.336E-03    -120.357E-03     222.116E-03    -101.819E-03     95.8131E-03
            2199     9.76499E-03     16.3618E-03    -38.2193E+06    -58.3431E+06     6.23338E+06     3.01762E+06    -116.738E-03     217.494E-03    -100.756E-03     90.6742E-03    -118.247E-03     218.643E-03    -100.585E-03     85.9687E-03
            2200     8.96260E-03     16.2532E-03    -42.2552E+06    -89.8709E+06     673.597E+03     3.38973E+06    -114.548E-03     214.032E-03    -99.4834E-03     80.5512E-03    -115.646E-03     214.659E-03    -99.2884E-03     76.6381E-03
            2201     8.15845E-03     16.1525E-03    -46.7636E+06    -113.519E+06    -6.71060E+06     3.59929E+06    -111.913E-03     210.073E-03    -98.1599E-03     70.7051E-03    -112.696E-03     210.307E-03    -97.9611E-03     67.5153E-03
            2202     7.35233E-03     16.0613E-03    -51.6047E+06    -137.053E+06    -13.0558E+06     3.99513E+06    -108.879E-03     205.725E-03    -96.8456E-03     60.9687E-03    -109.420E-03     205.634E-03    -96.6373E-03     58.4225E-03
            2203     6.54382E-03     15.9801E-03    -57.0909E+06    -154.590E+06    -19.8090E+06     4.79070E+06    -105.608E-03     201.175E-03    -95.5665E-03     51.9647E-03    -105.978E-03     200.851E-03    -95.3586E-03     49.9760E-03
            2204     5.73286E-03     15.9071E-03    -62.7128E+06    -173.270E+06    -27.2877E+06     5.32703E+06    -102.372E-03     196.740E-03    -94.3678E-03     43.7864E-03    -102.618E-03     196.228E-03    -94.1621E-03     42.2532E-03
            2205     4.91917E-03     15.8454E-03    -67.6173E+06    -183.674E+06    -36.6196E+06     4.99971E+06    -99.3541E-03     192.609E-03    -93.2544E-03     36.4544E-03    -99.5165E-03     191.985E-03    -93.0732E-03     35.2870E-03
            2206     4.10359E-03     15.7917E-03    -72.5269E+06    -192.520E+06    -48.4689E+06     4.92224E+06    -96.6312E-03     188.885E-03    -92.2534E-03     29.7590E-03    -96.7330E-03     188.186E-03    -92.1114E-03     28.8959E-03
            2207     3.28546E-03     15.7481E-03    -78.2641E+06    -206.766E+06    -60.9829E+06     4.83217E+06    -94.2369E-03     185.647E-03    -91.4100E-03     23.4007E-03    -94.2916E-03     184.866E-03    -91.3016E-03     22.7844E-03
            2208     2.46562E-03     15.7140E-03    -83.7168E+06    -218.481E+06    -72.2005E+06     3.87675E+06    -92.2739E-03     183.026E-03    -90.7524E-03     17.3208E-03    -92.2983E-03     182.187E-03    -90.6752E-03     16.8955E-03
            2209     1.64448E-03     15.6902E-03    -87.8193E+06    -224.823E+06    -81.7926E+06     2.65790E+06    -90.8762E-03     181.181E-03    -90.3050E-03     11.4937E-03    -90.8830E-03     180.314E-03    -90.2606E-03     11.2234E-03
            2210     822.103E-06     15.6747E-03    -90.3336E+06    -228.989E+06    -88.5508E+06     1.35041E+06    -90.0959E-03     180.248E-03    -90.1519E-03     5.96293E-03    -90.0911E-03     179.366E-03    -90.1316E-03     5.81860E-03
            2211     15.3612E-03     15.8987E-03    -4.61038E+06     117.655E+06     90.6332E+06     334.072E+03    -119.779E-03     227.185E-03    -107.406E-03     34.3082E-03    -121.232E-03     228.777E-03    -107.116E-03     29.6358E-03
            2212     14.5643E-03     15.8369E-03    -10.1805E+06     118.963E+06     91.2201E+06     644.375E+03    -119.079E-03     225.754E-03    -106.676E-03     63.6857E-03    -121.321E-03     228.119E-03    -106.377E-03     57.6110E-03
            2213     13.7666E-03     15.7671E-03    -15.4507E+06     111.866E+06     81.4430E+06     1.95257E+06    -119.458E-03     225.291E-03    -105.833E-03     79.6202E-03    -122.025E-03     227.964E-03    -105.566E-03     73.2710E-03
            2214     12.9679E-03     15.6650E-03    -21.1760E+06     105.399E+06     64.3617E+06     2.57820E+06    -120.854E-03     225.679E-03    -104.826E-03     97.9612E-03    -123.757E-03     228.695E-03    -104.626E-03     91.2325E-03
            2215     12.1701E-03     15.5465E-03    -25.5651E+06     95.3153E+06     43.8900E+06     2.45517E+06    -122.299E-03     225.917E-03    -103.618E-03     103.514E-03    -125.122E-03     228.860E-03    -103.499E-03     96.7835E-03
            2216     11.3748E-03     15.4201E-03    -29.1135E+06     51.1239E+06     29.7405E+06     2.94813E+06    -122.644E-03     224.930E-03    -102.286E-03     99.8114E-03    -125.053E-03     227.332E-03    -102.169E-03     93.5311E-03
            2217     10.5774E-03     15.2982E-03    -33.0826E+06    -9.00783E+06     16.6457E+06     3.44280E+06    -121.530E-03     222.346E-03    -100.816E-03     89.4633E-03    -123.365E-03     223.985E-03    -100.672E-03     83.9730E-03
            2218     9.77942E-03     15.1852E-03    -37.1092E+06    -57.5032E+06     6.08791E+06     3.72446E+06    -119.296E-03     218.523E-03    -99.2262E-03     77.5236E-03    -120.611E-03     219.484E-03    -99.0586E-03     72.9298E-03
            2219     8.97969E-03     15.0814E-03    -41.1161E+06    -89.5318E+06     536.520E+03     4.14360E+06    -116.305E-03     213.876E-03    -97.5714E-03     66.8677E-03    -117.234E-03     214.341E-03    -97.3793E-03     63.1193E-03
            2220     8.17741E-03     14.9860E-03    -45.4202E+06    -112.952E+06    -6.43934E+06     4.73414E+06    -112.723E-03     208.601E-03    -95.8782E-03     56.9244E-03    -113.366E-03     208.702E-03    -95.6808E-03     53.9373E-03
            2221     7.37192E-03     14.9006E-03    -50.4747E+06    -136.817E+06    -13.3065E+06     5.65584E+06    -108.758E-03     202.975E-03    -94.2173E-03     47.7158E-03    -109.189E-03     202.780E-03    -94.0123E-03     45.3893E-03
            2222     6.56369E-03     14.8243E-03    -55.8642E+06    -154.189E+06    -20.4598E+06     6.50666E+06    -104.617E-03     197.243E-03    -92.6263E-03     39.9082E-03    -104.905E-03     196.845E-03    -92.4240E-03     38.1304E-03
            2223     5.75155E-03     14.7584E-03    -61.1838E+06    -170.713E+06    -27.4510E+06     6.16268E+06    -100.574E-03     191.734E-03    -91.1602E-03     33.2124E-03    -100.763E-03     191.179E-03    -90.9612E-03     31.8640E-03
            2224     4.93640E-03     14.7001E-03    -66.7884E+06    -181.798E+06    -37.5898E+06     5.32244E+06    -96.9307E-03     186.752E-03    -89.8214E-03     27.3700E-03    -97.0546E-03     186.102E-03    -89.6489E-03     26.3549E-03
            2225     4.11839E-03     14.6518E-03    -72.4699E+06    -191.974E+06    -49.5901E+06     5.92999E+06    -93.6334E-03     182.278E-03    -88.6443E-03     22.1521E-03    -93.7115E-03     181.560E-03    -88.5088E-03     21.4227E-03
            2226     3.29787E-03     14.6116E-03    -77.5278E+06    -203.485E+06    -60.1173E+06     6.27258E+06    -90.7843E-03     178.466E-03    -87.6822E-03     17.3533E-03    -90.8279E-03     177.686E-03    -87.5753E-03     16.8507E-03
            2227     2.47507E-03     14.5810E-03    -81.9483E+06    -214.098E+06    -70.3404E+06     4.94770E+06    -88.6528E-03     175.589E-03    -86.9362E-03     12.7261E-03    -88.6703E-03     174.758E-03    -86.8586E-03     12.3839E-03
            2228     1.65091E-03     14.5583E-03    -85.7568E+06    -220.677E+06    -80.2515E+06     3.11849E+06    -87.1664E-03     173.552E-03    -86.3853E-03     8.42709E-03    -87.1681E-03     172.697E-03    -86.3422E-03     8.20891E-03
            2229     825.973E-06     14.5453E-03    -88.4863E+06    -225.292E+06    -87.2632E+06     1.70445E+06    -86.2965E-03     172.285E-03    -85.9882E-03     4.52690E-03    -86.2888E-03     171.415E-03    -85.9695E-03     4.41438E-03
            2230     15.3640E-03     14.7081E-03    -4.31521E+06     117.505E+06     90.9368E+06     647.147E+03    -121.018E-03     228.460E-03    -107.442E-03     32.0504E-03    -122.429E-03     230.009E-03    -107.151E-03     27.3565E-03
            2231     14.5655E-03     14.6458E-03    -10.0386E+06     118.329E+06     91.1397E+06     1.10898E+06    -121.119E-03     227.741E-03    -106.621E-03     60.8520E-03    -123.295E-03     230.036E-03    -106.323E-03     54.6780E-03
            2232     13.7684E-03     14.5777E-03    -16.0857E+06     110.509E+06     81.2198E+06     1.38633E+06    -123.259E-03     228.860E-03    -105.601E-03     75.3847E-03    -125.738E-03     231.438E-03    -105.332E-03     68.8029E-03
            2233     12.9739E-03     14.4745E-03    -20.0636E+06     105.642E+06     66.1281E+06     1.56899E+06    -126.006E-03     230.300E-03    -104.295E-03     90.9025E-03    -128.758E-03     233.165E-03    -104.088E-03     83.8876E-03
            2234     12.1823E-03     14.3560E-03    -24.2478E+06     95.2555E+06     44.4853E+06     1.84799E+06    -127.503E-03     230.185E-03    -102.681E-03     93.6246E-03    -130.114E-03     232.919E-03    -102.562E-03     86.6958E-03
            2235     11.3894E-03     14.2329E-03    -28.7277E+06     51.0157E+06     28.8660E+06     2.81209E+06    -127.247E-03     228.146E-03    -100.899E-03     87.6431E-03    -129.422E-03     230.317E-03    -100.787E-03     81.2967E-03
            2236     10.5973E-03     14.1152E-03    -32.2778E+06    -7.70211E+06     16.3360E+06     3.75475E+06    -125.185E-03     224.153E-03    -98.9680E-03     75.5427E-03    -126.793E-03     225.574E-03    -98.8284E-03     70.1116E-03
            2237     9.80268E-03     14.0078E-03    -35.8353E+06    -56.5524E+06     5.83053E+06     4.38837E+06    -121.811E-03     218.737E-03    -96.9255E-03     63.0467E-03    -122.927E-03     219.510E-03    -96.7624E-03     58.6022E-03
            2238     9.00484E-03     13.9106E-03    -39.9569E+06    -88.9418E+06     265.840E+03     5.10978E+06    -117.686E-03     212.527E-03    -94.8410E-03     52.6041E-03    -118.456E-03     212.840E-03    -94.6527E-03     49.0558E-03
            2239     8.20354E-03     13.8219E-03    -44.4821E+06    -112.573E+06    -6.48266E+06     6.06697E+06    -112.938E-03     205.691E-03    -92.7526E-03     43.1423E-03    -113.458E-03     205.673E-03    -92.5573E-03     40.3830E-03
            2240     7.39859E-03     13.7439E-03    -48.9468E+06    -136.292E+06    -12.9184E+06     7.01427E+06    -107.749E-03     198.497E-03    -90.7478E-03     34.9081E-03    -108.085E-03     198.213E-03    -90.5438E-03     32.8133E-03
            2241     6.58847E-03     13.6750E-03    -53.0802E+06    -152.753E+06    -19.7940E+06     7.29395E+06    -102.659E-03     191.527E-03    -88.8679E-03     28.3283E-03    -102.874E-03     191.069E-03    -88.6684E-03     26.7580E-03
            2242     5.77505E-03     13.6151E-03    -57.4518E+06    -167.986E+06    -26.5165E+06     7.29788E+06    -97.9735E-03     185.127E-03    -87.1535E-03     22.9838E-03    -98.1055E-03     184.535E-03    -86.9592E-03     21.8202E-03
            2243     4.95768E-03     13.5634E-03    -63.0545E+06    -179.957E+06    -35.0740E+06     7.32510E+06    -93.6064E-03     179.228E-03    -85.6211E-03     18.5726E-03    -93.6891E-03     178.549E-03    -85.4441E-03     17.7279E-03
            2244     4.13677E-03     13.5198E-03    -69.1329E+06    -190.849E+06    -45.6020E+06     7.41517E+06    -89.7695E-03     174.075E-03    -84.3056E-03     14.7480E-03    -89.8203E-03     173.334E-03    -84.1566E-03     14.1523E-03
            2245     3.31278E-03     13.4846E-03    -74.4794E+06    -199.666E+06    -56.7152E+06     7.04242E+06    -86.6695E-03     169.893E-03    -83.2232E-03     11.5326E-03    -86.6979E-03     169.111E-03    -83.1093E-03     11.1276E-03
            2246     2.48675E-03     13.4564E-03      -79.37E+06    -208.999E+06    -68.1531E+06     5.78064E+06    -84.2973E-03     166.672E-03    -82.3750E-03     8.51900E-03    -84.3071E-03     165.854E-03    -82.2977E-03     8.25205E-03
            2247     1.65880E-03     13.4370E-03    -83.3455E+06    -215.933E+06    -78.4159E+06     4.19672E+06    -82.6240E-03     164.380E-03    -81.7558E-03     5.67903E-03    -82.6210E-03     163.540E-03    -81.7139E-03     5.51698E-03
            2248     829.584E-06     13.4241E-03    -85.9236E+06    -220.293E+06    -84.9004E+06     2.55490E+06    -81.7138E-03     162.974E-03    -81.2598E-03     3.23514E-03    -81.7035E-03     162.121E-03    -81.2403E-03     3.15663E-03
            2249     15.3603E-03     13.5123E-03    -4.62861E+06     116.001E+06     89.8100E+06     460.796E+03    -123.282E-03     230.690E-03    -107.408E-03     31.0950E-03    -124.661E-03     232.204E-03    -107.121E-03     26.2747E-03
            2250     14.5671E-03     13.4541E-03    -9.30344E+06     117.735E+06     91.6905E+06     1.37215E+06    -125.871E-03     232.267E-03    -106.396E-03     57.7694E-03    -127.986E-03     234.501E-03    -106.095E-03     51.3163E-03
            2251     13.7752E-03     13.3811E-03    -14.1752E+06     111.798E+06     82.8923E+06     986.096E+03    -129.444E-03     234.483E-03    -105.039E-03     70.0372E-03    -131.822E-03     236.967E-03    -104.766E-03     63.0736E-03
            2252     12.9876E-03     13.2775E-03    -19.7612E+06     105.183E+06     66.0919E+06     306.101E+03    -132.394E-03     235.686E-03    -103.292E-03     82.3247E-03    -134.972E-03     238.377E-03    -103.086E-03     74.9702E-03
            2253     12.1997E-03     13.1613E-03    -23.9759E+06     94.2896E+06     44.3373E+06     1.23011E+06    -133.264E-03     234.455E-03    -101.191E-03     82.7130E-03    -135.654E-03     236.967E-03    -101.071E-03     75.5956E-03
            2254     11.4136E-03     13.0417E-03    -27.3251E+06     51.2269E+06     28.7517E+06     2.64527E+06    -132.023E-03     230.921E-03    -98.8982E-03     74.7297E-03    -133.962E-03     232.864E-03    -98.7891E-03     68.3443E-03
            2255     10.6247E-03     12.9303E-03    -30.9784E+06    -7.01273E+06     15.8134E+06     3.86051E+06    -128.519E-03     224.989E-03    -96.4706E-03     61.7006E-03    -129.915E-03     226.207E-03    -96.3365E-03     56.3615E-03
            2256     9.83229E-03     12.8312E-03    -34.9645E+06    -56.0038E+06     5.04366E+06     5.40037E+06    -123.781E-03     217.751E-03    -93.9696E-03     49.6302E-03    -124.729E-03     218.363E-03    -93.8125E-03     45.3656E-03
            2257     9.03614E-03     12.7416E-03    -39.1687E+06    -88.0155E+06    -91.2933E+03     6.45744E+06    -118.389E-03     209.858E-03    -91.4689E-03     39.5895E-03    -119.030E-03     210.050E-03    -91.2849E-03     36.2575E-03
            2258     8.23543E-03     12.6622E-03    -43.4161E+06    -111.915E+06    -6.22339E+06     7.29937E+06    -112.295E-03     201.313E-03    -89.0179E-03     30.7443E-03    -112.715E-03     201.201E-03    -88.8238E-03     28.2165E-03
            2259     7.42897E-03     12.5931E-03    -47.4959E+06    -134.777E+06    -11.9367E+06     7.72211E+06    -106.081E-03     192.786E-03    -86.7049E-03     23.6020E-03    -106.346E-03     192.439E-03    -86.5002E-03     21.7163E-03
            2260     6.61825E-03     12.5329E-03    -51.8223E+06    -150.713E+06    -18.6800E+06     7.49408E+06    -100.167E-03     184.726E-03    -84.5588E-03     18.2626E-03    -100.333E-03     184.228E-03    -84.3585E-03     16.8707E-03
            2261     5.80202E-03     12.4803E-03    -56.6988E+06    -166.892E+06    -26.6061E+06     8.06566E+06    -94.6722E-03     177.293E-03    -82.6209E-03     14.1646E-03    -94.7709E-03     176.675E-03    -82.4297E-03     13.1604E-03
            2262     4.98171E-03     12.4357E-03    -61.4869E+06    -177.899E+06    -34.0036E+06     8.67188E+06    -89.7254E-03     170.646E-03    -80.9203E-03     11.0081E-03    -89.7848E-03     169.953E-03    -80.7432E-03     10.3023E-03
            2263     4.15723E-03     12.3983E-03    -66.3428E+06    -188.205E+06    -42.0410E+06     8.47172E+06    -85.4978E-03     164.975E-03    -79.4772E-03     8.58723E-03    -85.5314E-03     164.226E-03    -79.3183E-03     8.10064E-03
            2264     3.32977E-03     12.3672E-03    -71.6038E+06    -195.861E+06    -53.2566E+06     8.11303E+06    -82.0456E-03     160.331E-03    -78.2857E-03     6.63142E-03    -82.0631E-03     159.552E-03    -78.1641E-03     6.31209E-03
            2265     2.49935E-03     12.3435E-03    -76.6997E+06    -203.646E+06    -65.3099E+06     7.00381E+06    -79.4177E-03     156.779E-03    -77.3617E-03     4.99940E-03    -79.4225E-03     155.976E-03    -77.2817E-03     4.80033E-03
            2266     1.66733E-03     12.3256E-03    -80.5416E+06    -210.083E+06    -75.1584E+06     5.02137E+06    -77.6126E-03     154.317E-03    -76.7039E-03     3.32102E-03    -77.6072E-03     153.495E-03    -76.6583E-03     3.20361E-03
            2267     833.981E-06     12.3156E-03    -83.2191E+06    -214.165E+06    -81.3992E+06     3.16149E+06    -76.6639E-03     152.835E-03    -76.1715E-03     1.88531E-03    -76.6536E-03     152.004E-03    -76.1473E-03     1.83305E-03
            2268     15.3642E-03     12.3148E-03    -4.60192E+06     115.703E+06     89.9758E+06    -14.2025E+03    -128.380E-03     235.579E-03    -107.199E-03     27.5927E-03    -129.725E-03     237.057E-03    -106.910E-03     22.5029E-03
            2269     14.5742E-03     12.2526E-03    -8.87909E+06     116.851E+06     91.5187E+06    -386.368E+03    -131.842E-03     237.708E-03    -105.866E-03     53.3479E-03    -133.905E-03     239.888E-03    -105.565E-03     46.4590E-03
            2270     13.7897E-03     12.1776E-03    -13.5317E+06     111.804E+06     83.5833E+06     473.257E+03    -136.428E-03     240.527E-03    -104.099E-03     65.3600E-03    -138.720E-03     242.926E-03    -103.824E-03     57.9573E-03
            2271     13.0062E-03     12.0745E-03    -18.6184E+06     105.763E+06     67.4168E+06     894.261E+03    -139.132E-03     240.998E-03    -101.865E-03     74.5696E-03    -141.553E-03     243.533E-03    -101.655E-03     66.9034E-03
            2272     12.2255E-03     11.9615E-03    -23.6788E+06     93.6738E+06     44.1683E+06     518.024E+03    -139.030E-03     238.272E-03    -99.2415E-03     72.9739E-03    -141.234E-03     240.598E-03    -99.1221E-03     65.6793E-03
            2273     11.4423E-03     11.8474E-03    -27.4507E+06     50.8950E+06     27.8926E+06     1.67212E+06    -136.179E-03     232.621E-03    -96.4427E-03     63.4757E-03    -137.929E-03     234.377E-03    -96.3373E-03     57.0824E-03
            2274     10.6568E-03     11.7455E-03    -30.7881E+06    -7.34674E+06     14.9393E+06     4.20683E+06    -131.129E-03     224.684E-03    -93.5554E-03     49.9403E-03    -132.361E-03     225.740E-03    -93.4254E-03     44.7216E-03
            2275     9.86626E-03     11.6560E-03    -34.4702E+06    -55.7101E+06     4.37822E+06     6.42956E+06    -125.062E-03     215.702E-03    -90.6401E-03     38.3201E-03    -125.883E-03     216.193E-03    -90.4875E-03     34.2330E-03
            2276     9.07080E-03     11.5760E-03    -38.4293E+06    -86.9946E+06    -430.704E+03     7.59188E+06    -118.168E-03     205.952E-03    -87.7832E-03     28.8335E-03    -118.714E-03     206.055E-03    -87.6035E-03     25.7099E-03
            2277     8.26911E-03     11.5082E-03    -42.4769E+06    -111.076E+06    -6.11261E+06     8.32356E+06    -110.912E-03     195.956E-03    -85.0435E-03     21.0877E-03    -111.265E-03     195.782E-03    -84.8514E-03     18.7610E-03
            2278     7.46192E-03     11.4489E-03    -47.0814E+06    -132.417E+06    -10.9322E+06     8.55457E+06    -103.893E-03     186.383E-03    -82.4904E-03     15.3231E-03    -104.119E-03     186.005E-03    -82.2848E-03     13.6108E-03
            2279     6.64831E-03     11.3985E-03    -51.8409E+06    -148.607E+06    -17.2384E+06     8.35019E+06    -97.2592E-03     177.401E-03    -80.1422E-03     11.2337E-03    -97.4037E-03     176.885E-03    -79.9378E-03     9.98793E-03
            2280     5.82997E-03     11.3547E-03    -56.4100E+06    -165.886E+06    -25.4918E+06     8.64287E+06    -91.1266E-03     169.166E-03    -78.0392E-03     8.34204E-03    -91.2103E-03     168.534E-03    -77.8443E-03     7.45562E-03
            2281     5.00607E-03     11.3181E-03    -61.2792E+06    -175.655E+06    -33.8780E+06     8.90850E+06    -85.7604E-03     161.961E-03    -76.2001E-03     6.30182E-03    -85.8121E-03     161.269E-03    -76.0260E-03     5.68632E-03
            2282     4.17843E-03     11.2865E-03    -66.1329E+06    -185.203E+06    -42.7996E+06     8.78161E+06    -81.2381E-03     155.875E-03    -74.6367E-03     4.79058E-03    -81.2680E-03     155.136E-03    -74.4863E-03     4.37322E-03
            2283     3.34680E-03     11.2615E-03    -70.5436E+06    -192.246E+06    -52.0431E+06     8.32088E+06    -77.5044E-03     150.856E-03    -73.3512E-03     3.68209E-03    -77.5202E-03     150.088E-03    -73.2304E-03     3.41271E-03
            2284     2.51262E-03     11.2409E-03    -74.3137E+06    -197.842E+06    -61.3004E+06     7.18387E+06    -74.6265E-03     146.979E-03    -72.3524E-03     2.75805E-03    -74.6318E-03     146.194E-03    -72.2643E-03     2.59456E-03
            2285     1.67607E-03     11.2267E-03    -77.5314E+06    -203.707E+06    -70.9906E+06     5.00575E+06    -72.6454E-03     144.274E-03    -71.6290E-03     1.84461E-03    -72.6395E-03     143.474E-03    -71.5762E-03     1.74895E-03
            2286     838.486E-06     11.2170E-03    -79.6703E+06    -207.625E+06    -77.5914E+06     2.76489E+06    -71.5688E-03     142.624E-03    -71.0547E-03     1.08027E-03    -71.5555E-03     141.814E-03    -71.0261E-03     1.03390E-03
            2287     15.3728E-03     11.1109E-03    -4.23201E+06     116.327E+06     91.1008E+06    -995.321E+03    -135.093E-03     241.938E-03    -106.845E-03     28.6907E-03    -136.462E-03     243.441E-03    -106.552E-03     23.2067E-03
            2288     14.5876E-03     11.0474E-03    -8.55239E+06     116.603E+06     92.1743E+06    -54.5285E+03    -138.924E-03     244.044E-03    -105.120E-03     55.1789E-03    -140.999E-03     246.235E-03    -104.816E-03     47.8440E-03
            2289     13.8053E-03     10.9662E-03    -14.3924E+06     110.669E+06     82.8301E+06    -91.7595E+03    -143.594E-03     246.494E-03    -102.900E-03     63.4395E-03    -145.839E-03     248.842E-03    -102.626E-03     55.6208E-03
            2290     13.0298E-03     10.8650E-03    -18.7839E+06     105.583E+06     67.3581E+06    -110.234E+03    -145.644E-03     245.820E-03    -100.176E-03     68.8304E-03    -147.959E-03     248.249E-03    -99.9651E-03     60.8468E-03
            2291     12.2523E-03     10.7572E-03    -22.7028E+06     93.6950E+06     43.7248E+06     665.668E+03    -144.060E-03     241.120E-03    -97.0596E-03     65.2588E-03    -146.128E-03     243.316E-03    -96.9439E-03     57.8277E-03
            2292     11.4740E-03     10.6517E-03     -27.743E+06     49.9219E+06     25.7165E+06     2.42392E+06    -139.407E-03     233.219E-03    -93.8122E-03     54.2655E-03    -141.018E-03     234.837E-03    -93.7157E-03     47.9115E-03
            2293     10.6897E-03     10.5615E-03    -32.6946E+06    -8.30869E+06     12.8557E+06     4.98503E+06    -132.782E-03     223.328E-03    -90.5457E-03     40.8629E-03    -133.906E-03     224.272E-03    -90.4220E-03     35.7764E-03
            2294     9.90065E-03     10.4821E-03    -36.3762E+06    -55.1966E+06     2.39475E+06     6.59958E+06    -125.124E-03     212.443E-03    -87.3183E-03     30.2886E-03    -125.875E-03     212.864E-03    -87.1735E-03     26.3617E-03
            2295     9.10450E-03     10.4166E-03    -39.0868E+06    -86.4433E+06    -1.24380E+06     7.52468E+06    -116.871E-03     201.107E-03    -84.2359E-03     22.1053E-03    -117.367E-03     201.163E-03    -84.0601E-03     19.1526E-03
            2296     8.30150E-03     10.3592E-03    -42.0968E+06    -110.375E+06    -5.58434E+06     8.81188E+06    -108.751E-03     190.090E-03    -81.3395E-03     16.0142E-03    -109.073E-03     189.889E-03    -81.1463E-03     13.8404E-03
            2297     7.49164E-03     10.3127E-03    -46.1066E+06    -129.975E+06    -9.17444E+06     9.39877E+06    -101.112E-03     179.788E-03    -78.6754E-03     11.8126E-03    -101.324E-03     179.402E-03    -78.4660E-03     10.2296E-03
            2298     6.67612E-03     10.2716E-03    -50.7998E+06    -146.457E+06    -14.7624E+06     9.09763E+06    -94.0364E-03     170.291E-03    -76.2548E-03     9.03759E-03    -94.1759E-03     169.774E-03    -76.0426E-03     7.89139E-03
            2299     5.85414E-03     10.2385E-03    -55.7053E+06    -164.036E+06    -22.4519E+06     8.95133E+06    -87.7270E-03     161.825E-03    -74.0983E-03     7.22466E-03    -87.8124E-03     161.196E-03    -73.8919E-03     6.40711E-03
            2300     5.02763E-03     10.2088E-03    -60.2649E+06    -173.342E+06    -30.5812E+06     8.75088E+06    -82.2208E-03     154.426E-03    -72.2050E-03     6.01841E-03    -82.2757E-03     153.740E-03    -72.0191E-03     5.44700E-03
            2301     4.19631E-03     10.1852E-03    -64.5093E+06    -182.188E+06    -40.8744E+06     8.50809E+06    -77.5791E-03     148.155E-03    -70.5761E-03     4.91865E-03    -77.6088E-03     147.427E-03    -70.4228E-03     4.52946E-03
            2302     3.36172E-03     10.1648E-03     -68.392E+06    -188.046E+06    -49.8642E+06     7.45559E+06    -73.7628E-03     142.983E-03    -69.2206E-03     3.98974E-03    -73.7778E-03     142.232E-03    -69.0981E-03     3.73011E-03
            2303     2.52395E-03     10.1495E-03    -71.6927E+06    -192.558E+06    -57.6395E+06     5.65998E+06    -70.7065E-03     138.853E-03    -68.1464E-03     3.12333E-03    -70.7119E-03     138.087E-03    -68.0514E-03     2.95406E-03
            2304     1.68405E-03     10.1374E-03    -74.4126E+06    -197.957E+06    -66.9749E+06     3.98810E+06    -68.4950E-03     135.850E-03    -67.3553E-03     2.23937E-03    -68.4875E-03     135.069E-03    -67.2953E-03     2.13974E-03
            2305     842.352E-06     10.1306E-03    -76.1094E+06    -201.924E+06    -74.1068E+06     2.11200E+06    -67.1665E-03     134.024E-03    -66.8575E-03     1.25230E-03    -67.1485E-03     133.233E-03    -66.8249E-03     1.20069E-03
            2306     15.3733E-03     9.89843E-03    -4.72136E+06     116.099E+06     90.8538E+06    -1.22825E+06    -142.009E-03     248.522E-03    -106.514E-03     33.3372E-03    -143.459E-03     250.104E-03    -106.221E-03     27.3036E-03
            2307     14.5966E-03     9.83060E-03    -9.91834E+06     116.391E+06     92.1409E+06    -1.57682E+06    -147.838E-03     252.184E-03    -104.346E-03     57.1715E-03    -149.995E-03     254.452E-03    -104.040E-03     49.1231E-03
            2308     13.8254E-03     9.74830E-03    -13.5915E+06     111.440E+06     83.9310E+06    -1.24488E+06    -150.912E-03     252.537E-03    -101.625E-03     62.3457E-03    -153.161E-03     254.891E-03    -101.347E-03     54.0358E-03
            2309     13.0524E-03     9.64985E-03    -18.8290E+06     104.116E+06     64.3908E+06    -663.074E+03    -151.098E-03     249.524E-03    -98.4255E-03     64.9385E-03    -153.356E-03     251.900E-03    -98.2272E-03     56.6691E-03
            2310     12.2807E-03     9.54917E-03    -24.4904E+06     90.9532E+06     38.8066E+06     1.39951E+06    -147.761E-03     242.661E-03    -94.9006E-03     59.1860E-03    -149.745E-03     244.772E-03    -94.8030E-03     51.6649E-03
            2311     11.5031E-03     9.45599E-03    -29.7191E+06     48.6473E+06     22.6210E+06     5.10300E+06    -141.039E-03     232.375E-03    -91.3355E-03     47.7318E-03    -142.566E-03     233.906E-03    -91.2498E-03     41.4875E-03
            2312     10.7209E-03     9.37774E-03    -35.2096E+06    -7.59640E+06     11.3508E+06     6.96783E+06    -132.487E-03     220.343E-03    -87.8552E-03     35.9062E-03    -133.561E-03     221.235E-03    -87.7363E-03     31.0026E-03
            2313     9.93008E-03     9.31421E-03    -39.7847E+06    -53.0046E+06     1.32927E+06      6.6806E+06    -123.318E-03     207.836E-03    -84.5180E-03     27.3235E-03    -124.054E-03     208.242E-03    -84.3768E-03     23.5726E-03
            2314     9.13196E-03     9.26075E-03    -43.1981E+06    -86.0543E+06    -2.45263E+06     6.58248E+06    -114.179E-03     195.595E-03    -81.4169E-03     21.3448E-03    -114.682E-03     195.650E-03    -81.2418E-03     18.5360E-03
            2315     8.32627E-03     9.21843E-03    -45.8146E+06    -109.955E+06    -5.89698E+06     7.04559E+06    -105.567E-03     184.134E-03    -78.5671E-03     17.4440E-03    -105.911E-03     183.944E-03    -78.3707E-03     15.3673E-03
            2316     7.51380E-03     9.18192E-03    -47.3824E+06    -128.773E+06    -7.99266E+06     7.57473E+06    -97.7196E-03     173.715E-03    -75.9952E-03     14.9793E-03    -97.9516E-03     173.346E-03    -75.7797E-03     13.4558E-03
            2317     6.69441E-03     9.15343E-03    -50.0254E+06    -145.449E+06    -11.2513E+06     8.72705E+06    -90.8035E-03     164.498E-03    -73.6944E-03     13.3588E-03    -90.9582E-03     163.992E-03    -73.4672E-03     12.2590E-03
            2318     5.87011E-03     9.12802E-03    -54.9280E+06    -161.103E+06    -16.6965E+06     8.97943E+06    -84.7670E-03     156.419E-03    -71.6520E-03     12.1968E-03    -84.8726E-03     155.807E-03    -71.4222E-03     11.4085E-03
            2319     5.04066E-03     9.10800E-03    -60.0236E+06    -170.694E+06    -25.3470E+06     7.78262E+06    -79.5184E-03     149.365E-03    -69.8462E-03     11.2005E-03    -79.5927E-03     148.694E-03    -69.6384E-03     10.6318E-03
            2320     4.20728E-03     9.08994E-03    -63.8274E+06    -178.736E+06    -36.1381E+06     6.54300E+06    -75.0841E-03     143.367E-03    -68.2827E-03     10.0673E-03    -75.1287E-03     142.655E-03    -68.1116E-03     9.66176E-03
            2321     3.37032E-03     9.07616E-03    -66.5576E+06    -183.845E+06    -45.6331E+06     4.90958E+06    -71.4276E-03     138.399E-03    -66.9713E-03     8.64838E-03    -71.4498E-03     137.665E-03    -66.8364E-03     8.36072E-03
            2322     2.53049E-03     9.06459E-03    -69.1553E+06    -188.746E+06    -54.4654E+06     3.45612E+06    -68.4885E-03     134.406E-03    -65.9170E-03     6.97909E-03    -68.4936E-03     133.653E-03    -65.8154E-03     6.78355E-03
            2323     1.68828E-03     9.05671E-03    -71.6140E+06    -193.845E+06    -63.4815E+06     2.25580E+06    -66.3078E-03     131.437E-03    -65.1288E-03     5.02715E-03    -66.2982E-03     130.669E-03    -65.0613E-03     4.90624E-03
            2324     844.585E-06     9.05109E-03    -73.7145E+06    -198.002E+06    -70.6416E+06     1.06861E+06    -65.0112E-03     129.566E-03    -64.5549E-03     2.73770E-03    -64.9918E-03     128.787E-03    -64.5141E-03     2.67319E-03
            2325     15.3800E-03     8.67413E-03    -4.29067E+06     117.647E+06     92.5507E+06    -973.353E+03    -149.817E-03     255.961E-03    -106.144E-03     35.3909E-03    -151.341E-03     257.619E-03    -105.846E-03     28.8040E-03
            2326     14.6108E-03     8.60287E-03    -9.94661E+06     117.301E+06     92.1125E+06    -2.37812E+06    -154.661E-03     258.218E-03    -103.557E-03     57.7753E-03    -156.910E-03     260.581E-03    -103.252E-03     49.0926E-03
            2327     13.8416E-03     8.52328E-03    -16.0708E+06     110.001E+06     81.2112E+06    -2.45370E+06    -156.839E-03     257.265E-03    -100.427E-03     62.2820E-03    -159.144E-03     259.670E-03    -100.157E-03     53.5034E-03
            2328     13.0750E-03     8.43062E-03    -21.6369E+06     100.078E+06     61.3052E+06     328.025E+03    -154.873E-03     251.749E-03    -96.8759E-03     63.0782E-03    -157.128E-03     254.107E-03    -96.6831E-03     54.6273E-03
            2329     12.3035E-03     8.33933E-03    -28.1470E+06     86.2356E+06     36.0179E+06     4.75619E+06    -148.798E-03     241.912E-03    -93.1150E-03     56.3316E-03    -150.746E-03     243.966E-03    -93.0191E-03     48.9144E-03
            2330     11.5280E-03     8.26118E-03    -34.7413E+06     47.6026E+06     20.5561E+06     7.50660E+06    -139.692E-03     229.148E-03    -89.4568E-03     46.0607E-03    -141.193E-03     230.639E-03    -89.3726E-03     40.0665E-03
            2331     10.7419E-03     8.19923E-03    -39.1436E+06    -5.08889E+06     11.4584E+06     7.84705E+06    -129.320E-03     215.354E-03    -86.0335E-03     37.0823E-03    -130.402E-03     216.249E-03    -85.9121E-03     32.4453E-03
            2332     9.94869E-03     8.15024E-03    -42.3785E+06    -49.6247E+06     3.21043E+06     6.76518E+06    -119.137E-03     202.017E-03    -82.8798E-03     31.5209E-03    -119.903E-03     202.450E-03    -82.7303E-03     28.0010E-03
            2333     9.14655E-03     8.11283E-03    -45.9024E+06    -84.4318E+06    -751.842E+03     5.46333E+06    -109.720E-03     189.766E-03    -80.0457E-03     28.5025E-03    -110.268E-03     189.855E-03    -79.8605E-03     25.8486E-03
            2334     8.33699E-03     8.08206E-03    -48.9844E+06    -108.418E+06    -4.09027E+06     4.19413E+06    -101.342E-03     178.855E-03    -77.5128E-03     26.8149E-03    -101.737E-03     178.705E-03    -77.3050E-03     24.8139E-03
            2335     7.52038E-03     8.05900E-03    -51.8465E+06    -129.044E+06    -6.14095E+06     3.86389E+06    -94.0939E-03     169.373E-03    -75.2790E-03     25.7601E-03    -94.3805E-03     169.037E-03    -75.0474E-03     24.2547E-03
            2336     6.69864E-03     8.03861E-03    -54.2658E+06    -146.714E+06    -8.67907E+06     5.39743E+06    -87.9315E-03     161.241E-03    -73.3092E-03     24.7410E-03    -88.1348E-03     160.757E-03    -73.0612E-03     23.6333E-03
            2337     5.87169E-03     8.02338E-03    -56.0265E+06    -158.616E+06    -11.4626E+06     6.31892E+06    -82.6712E-03     154.246E-03    -71.5753E-03     23.5371E-03    -82.8136E-03     153.661E-03    -71.3214E-03     22.7295E-03
            2338     5.04074E-03     8.00939E-03    -58.7046E+06    -167.197E+06    -19.0996E+06     5.08262E+06    -78.1628E-03     148.209E-03    -70.0466E-03     21.9854E-03    -78.2593E-03     147.560E-03    -69.8145E-03     21.3862E-03
            2339     4.20615E-03     7.99886E-03    -62.0190E+06    -174.969E+06    -30.4620E+06     2.76438E+06    -74.3664E-03     143.093E-03    -68.7265E-03     19.9275E-03    -74.4256E-03     142.399E-03    -68.5352E-03     19.4748E-03
            2340     3.36847E-03     7.98917E-03    -64.8412E+06    -181.275E+06    -41.2592E+06     966.351E+03    -71.2682E-03     138.898E-03    -67.6294E-03     17.0852E-03    -71.2980E-03     138.173E-03    -67.4788E-03     16.7473E-03
            2341     2.52859E-03     7.98259E-03    -67.3613E+06    -186.957E+06    -51.3312E+06     262.887E+03    -68.8570E-03     135.607E-03    -66.7498E-03     13.6385E-03    -68.8637E-03     134.859E-03    -66.6377E-03     13.4017E-03
            2342     1.68685E-03     7.97703E-03    -69.6345E+06    -192.233E+06    -60.6616E+06    -85.5892E+03    -67.0778E-03     133.161E-03    -66.0832E-03     9.64864E-03    -67.0664E-03     132.395E-03    -66.0068E-03     9.49718E-03
            2343     843.852E-06     7.97413E-03    -71.6729E+06    -196.943E+06     -68.715E+06    -84.0790E+03    -65.9805E-03     131.560E-03    -65.5800E-03     5.49570E-03    -65.9560E-03     130.781E-03    -65.5340E-03     5.41745E-03
            2344     15.3901E-03     7.44498E-03    -4.38091E+06     118.535E+06     93.2871E+06    -1.38744E+06    -156.358E-03     262.162E-03    -105.804E-03     41.5173E-03    -157.993E-03     263.932E-03    -105.504E-03     34.4697E-03
            2345     14.6196E-03     7.37166E-03    -9.77297E+06     117.555E+06     92.2296E+06    -535.670E+03    -159.048E-03     261.963E-03    -102.914E-03     62.9822E-03    -161.408E-03     264.438E-03    -102.609E-03     54.0023E-03
            2346     13.8559E-03     7.29126E-03    -17.5640E+06     108.257E+06     78.7115E+06     887.934E+03    -159.472E-03     259.027E-03    -99.5545E-03     65.3309E-03    -161.848E-03     261.498E-03    -99.2924E-03     56.4407E-03
            2347     13.0898E-03     7.20892E-03    -26.3293E+06     94.0075E+06     57.0273E+06     3.14485E+06    -155.211E-03     251.091E-03    -95.8805E-03     65.3521E-03    -157.499E-03     253.458E-03    -95.6935E-03     57.0057E-03
            2348     12.3192E-03     7.13183E-03    -32.8708E+06     80.5751E+06     35.2271E+06     7.18504E+06    -145.935E-03     238.109E-03    -92.1742E-03     58.8117E-03    -147.872E-03     240.117E-03    -92.0672E-03     51.7838E-03
            2349     11.5373E-03     7.07128E-03    -37.6486E+06     48.4520E+06     23.3140E+06     9.62436E+06    -134.164E-03     222.930E-03    -88.7665E-03     51.1810E-03    -135.663E-03     224.405E-03    -88.6656E-03     45.6849E-03
            2350     10.7483E-03     7.02633E-03    -42.4845E+06    -700.734E+03     14.8829E+06     7.70498E+06    -122.636E-03     208.398E-03    -85.7621E-03     46.5502E-03    -123.760E-03     209.330E-03    -85.6250E-03     42.3221E-03
            2351     9.94808E-03     6.99452E-03    -46.1903E+06    -46.5457E+06     6.84486E+06     4.72694E+06    -112.498E-03     195.637E-03    -83.1390E-03     44.8172E-03    -113.327E-03     196.120E-03    -82.9703E-03     41.5854E-03
            2352     9.14058E-03     6.96955E-03    -48.0797E+06    -81.9566E+06     4.51274E+06     2.59446E+06    -103.909E-03     184.797E-03    -80.8873E-03     44.2163E-03    -104.520E-03     184.935E-03    -80.6761E-03     41.7369E-03
            2353     8.32611E-03     6.95229E-03    -50.1311E+06    -106.851E+06     2.09695E+06     1.05923E+06    -96.8047E-03     175.743E-03    -78.9385E-03     43.9025E-03    -97.2573E-03     175.635E-03    -78.7004E-03     41.9908E-03
            2354     7.50669E-03     6.93727E-03    -52.9543E+06    -129.378E+06     284.921E+03     417.023E+03    -91.0342E-03     168.294E-03    -77.2603E-03     43.1153E-03    -91.3689E-03     167.983E-03    -76.9945E-03     41.6401E-03
            2355     6.68234E-03     6.92703E-03    -55.5106E+06    -147.620E+06    -2.32123E+06    -321.257E+03    -86.2122E-03     162.016E-03    -75.8038E-03     41.5951E-03    -86.4559E-03     161.546E-03    -75.5208E-03     40.4547E-03
            2356     5.85451E-03     6.91710E-03    -56.7467E+06    -157.914E+06    -6.37547E+06    -866.241E+03    -82.2032E-03     156.739E-03    -74.5359E-03     39.3190E-03    -82.3767E-03     156.169E-03    -74.2565E-03     38.4414E-03
            2357     5.02363E-03     6.91053E-03    -57.4867E+06    -165.298E+06    -14.0793E+06    -1.16307E+06    -78.9314E-03     152.365E-03    -73.4332E-03     36.1418E-03    -79.0452E-03     151.727E-03    -73.1805E-03     35.4728E-03
            2358     4.19002E-03     6.90375E-03    -59.3225E+06    -172.733E+06    -25.4932E+06    -1.93018E+06    -76.2216E-03     148.711E-03    -72.4893E-03     32.0641E-03    -76.2865E-03     148.024E-03    -72.2803E-03     31.5559E-03
            2359     3.35463E-03     6.89918E-03    -62.3430E+06    -180.647E+06    -38.1136E+06    -2.89589E+06    -74.0671E-03     145.778E-03    -71.7109E-03     27.0433E-03    -74.0954E-03     145.052E-03    -71.5491E-03     26.6587E-03
            2360     2.51724E-03     6.89484E-03    -65.3222E+06    -187.719E+06    -49.5909E+06    -3.20657E+06    -72.4145E-03     143.513E-03    -71.0986E-03     21.1625E-03    -72.4159E-03     142.757E-03    -70.9797E-03     20.8825E-03
            2361     1.67894E-03     6.89220E-03    -68.0462E+06    -193.990E+06    -59.8892E+06    -2.36594E+06    -71.2031E-03     141.862E-03    -70.6592E-03     14.8035E-03    -71.1846E-03     141.084E-03    -70.5787E-03     14.6233E-03
            2362     839.604E-06     6.89039E-03    -69.8761E+06    -198.658E+06    -67.7285E+06    -918.453E+03    -70.4359E-03     140.923E-03    -70.4872E-03     8.34617E-03    -70.4031E-03     140.130E-03    -70.4364E-03     8.25722E-03
            2363     15.3861E-03     6.20729E-03    -4.87238E+06     118.667E+06     91.9809E+06    -349.053E+03    -160.077E-03     265.870E-03    -105.793E-03     50.2700E-03    -161.851E-03     267.781E-03    -105.498E-03     42.9564E-03
            2364     14.6266E-03     6.13300E-03    -12.7160E+06     113.822E+06     88.7178E+06     1.24717E+06    -161.116E-03     263.874E-03    -102.758E-03     72.2613E-03    -163.628E-03     266.489E-03    -102.461E-03     63.2084E-03
            2365     13.8603E-03     6.06228E-03    -19.9380E+06     104.755E+06     77.3880E+06     5.33660E+06    -158.302E-03     257.694E-03    -99.3914E-03     73.2320E-03    -160.753E-03     260.223E-03    -99.1274E-03     64.6395E-03
            2366     13.0915E-03     5.98659E-03    -27.4935E+06     91.7348E+06     58.0821E+06     8.14643E+06    -149.981E-03     245.906E-03    -95.9245E-03     71.7978E-03    -152.255E-03     248.244E-03    -95.7272E-03     64.1094E-03
            2367     12.3148E-03     5.93105E-03    -34.9452E+06     76.6023E+06     38.0631E+06     9.27270E+06    -137.285E-03     229.974E-03    -92.6891E-03     67.5067E-03    -139.171E-03     231.904E-03    -92.5592E-03     61.3007E-03
            2368     11.5281E-03     5.88941E-03    -40.9661E+06     49.8688E+06     29.5435E+06     9.74704E+06    -123.961E-03     213.938E-03    -89.9763E-03     65.7569E-03    -125.462E-03     215.390E-03    -89.8415E-03     61.0076E-03
            2369     10.7276E-03     5.86356E-03    -44.9773E+06     5.78034E+06     23.6592E+06     6.29566E+06    -113.192E-03     200.973E-03    -87.7809E-03     65.7287E-03    -114.355E-03     201.932E-03    -87.6058E-03     62.0600E-03
            2370     9.92107E-03     5.84376E-03    -47.6541E+06    -42.9470E+06     15.9091E+06     915.756E+03    -104.929E-03     190.912E-03    -85.9825E-03     66.0300E-03    -105.799E-03     191.418E-03    -85.7716E-03     63.1497E-03
            2371     9.10772E-03     5.83209E-03    -49.5894E+06    -80.0989E+06     13.5478E+06    -2.74295E+06    -98.4724E-03     182.989E-03    -84.5169E-03     65.9976E-03    -99.1245E-03     183.144E-03    -84.2611E-03     63.7176E-03
            2372     8.28992E-03     5.82183E-03    -50.6423E+06    -106.472E+06     11.9455E+06    -4.82178E+06    -93.6086E-03     176.904E-03    -83.2956E-03     65.0883E-03    -94.0957E-03     176.800E-03    -83.0080E-03     63.2727E-03
            2373     7.46830E-03     5.81563E-03    -50.7475E+06    -129.840E+06     11.2221E+06    -6.16709E+06    -89.8480E-03     172.122E-03    -82.2739E-03     62.8529E-03    -90.1998E-03     171.800E-03    -81.9559E-03     61.4033E-03
            2374     6.64439E-03     5.80955E-03    -51.0808E+06    -147.232E+06     8.13688E+06    -7.42469E+06    -86.8951E-03     168.290E-03    -81.3953E-03     59.3925E-03    -87.1423E-03     167.809E-03    -81.0670E-03     58.2271E-03
            2375     5.81792E-03     5.80634E-03    -53.0804E+06    -158.590E+06    -1.62218E+06    -8.72438E+06    -84.5417E-03     165.157E-03    -80.6149E-03     54.8158E-03    -84.7102E-03     164.576E-03    -80.3161E-03     53.8752E-03
            2376     4.98950E-03     5.80193E-03    -55.1786E+06    -167.315E+06    -13.7731E+06    -8.61177E+06    -82.6888E-03     162.627E-03    -79.9385E-03     49.1253E-03    -82.7938E-03     161.979E-03    -79.6848E-03     48.3808E-03
            2377     4.16015E-03     5.79983E-03    -57.0003E+06    -174.313E+06    -24.5365E+06    -7.41894E+06    -81.1981E-03     160.572E-03    -79.3735E-03     42.4620E-03    -81.2544E-03     159.873E-03    -79.1608E-03     41.8910E-03
            2378     3.32904E-03     5.79677E-03    -59.6420E+06    -182.593E+06    -37.2296E+06    -6.43096E+06    -79.9690E-03     158.881E-03    -78.9121E-03     35.1603E-03    -79.9852E-03     158.140E-03    -78.7470E-03     34.7321E-03
            2379     2.49783E-03     5.79506E-03    -62.9918E+06    -191.383E+06    -50.5135E+06    -5.03843E+06    -79.0955E-03     157.656E-03    -78.5608E-03     27.1783E-03    -79.0810E-03     156.879E-03    -78.4445E-03     26.8731E-03
            2380     1.66523E-03     5.79374E-03    -66.2593E+06    -198.067E+06    -60.5997E+06    -3.13854E+06    -78.5502E-03     156.866E-03    -78.3161E-03     18.6515E-03    -78.5179E-03     156.065E-03    -78.2358E-03     18.4579E-03
            2381     832.638E-06     5.79245E-03    -68.3170E+06    -202.190E+06    -67.0133E+06    -1.59891E+06    -78.1516E-03     156.387E-03    -78.2357E-03     10.2535E-03    -78.1085E-03     155.572E-03    -78.1786E-03     10.1536E-03
            2382     15.3850E-03     4.96653E-03    -6.12879E+06     117.292E+06     88.7280E+06     2.78200E+06    -160.340E-03     266.711E-03    -106.370E-03     62.2027E-03    -162.207E-03     268.715E-03    -106.088E-03     55.0955E-03
            2383     14.6143E-03     4.89571E-03    -14.2311E+06     110.366E+06     86.0055E+06     6.20128E+06    -158.659E-03     262.105E-03    -103.446E-03     84.6233E-03    -161.230E-03     264.770E-03    -103.155E-03     76.1284E-03
            2384     13.8495E-03     4.83018E-03    -21.9468E+06     100.730E+06     77.2921E+06     7.42379E+06    -150.820E-03     251.244E-03    -100.424E-03     83.8815E-03    -153.235E-03     253.722E-03    -100.152E-03     76.1868E-03
            2385     13.0750E-03     4.77711E-03    -27.0731E+06     90.0048E+06     64.6872E+06     9.56717E+06    -136.790E-03     234.455E-03    -97.6645E-03     86.3127E-03    -138.948E-03     236.657E-03    -97.4323E-03     79.9045E-03
            2386     12.2862E-03     4.74070E-03    -32.2798E+06     75.5710E+06     49.4039E+06     11.5380E+06    -123.010E-03     218.428E-03    -95.4186E-03     87.3711E-03    -124.762E-03     220.199E-03    -95.2344E-03     82.4215E-03
            2387     11.4838E-03     4.72162E-03    -37.5576E+06     54.6844E+06     43.3067E+06     8.50303E+06    -112.333E-03     206.080E-03    -93.7466E-03     88.8770E-03    -113.746E-03     207.433E-03    -93.5549E-03     85.0338E-03
            2388     10.6767E-03     4.70529E-03    -41.2981E+06     12.3258E+06     38.2684E+06     1.53981E+06    -104.676E-03     197.204E-03    -92.5279E-03     89.1942E-03    -105.772E-03     198.089E-03    -92.2945E-03     86.1407E-03
            2389     9.86363E-03     4.69777E-03    -43.1995E+06    -39.7864E+06     29.4520E+06    -4.63563E+06    -99.5656E-03     191.176E-03    -91.6100E-03     88.2738E-03    -100.377E-03     191.608E-03    -91.3424E-03     85.7975E-03
            2390     9.04745E-03     4.69127E-03    -44.6493E+06    -78.4296E+06     25.6897E+06    -9.09030E+06    -96.2685E-03     187.173E-03    -90.9047E-03     86.1097E-03    -96.8717E-03     187.265E-03    -90.5978E-03     84.0686E-03
            2391     8.22912E-03     4.68771E-03    -45.8542E+06    -105.988E+06     23.0105E+06    -12.8049E+06    -93.9109E-03     184.242E-03    -90.3309E-03     82.2313E-03    -94.3563E-03     184.079E-03    -89.9957E-03     80.5315E-03
            2392     7.40940E-03     4.68426E-03    -46.5321E+06    -130.976E+06     18.7197E+06    -15.5690E+06    -92.1889E-03     182.044E-03    -89.8548E-03     77.1290E-03    -92.5041E-03     181.671E-03    -89.5039E-03     75.7028E-03
            2393     6.58801E-03     4.68260E-03    -47.1502E+06    -149.823E+06     9.90690E+06    -16.2578E+06    -91.0083E-03     180.439E-03    -89.4304E-03     70.9437E-03    -91.2178E-03     179.916E-03    -89.0952E-03     69.7557E-03
            2394     5.76629E-03     4.68044E-03    -48.2873E+06    -161.839E+06    -3.86982E+06    -15.0528E+06    -90.1877E-03     179.217E-03    -89.0295E-03     63.9585E-03    -90.3135E-03     178.603E-03    -88.7442E-03     62.9885E-03
            2395     4.94408E-03     4.67957E-03    -50.5675E+06    -172.306E+06    -18.4815E+06    -13.5947E+06    -89.5130E-03     178.182E-03    -88.6691E-03     56.1376E-03    -89.5748E-03     177.500E-03    -88.4384E-03     55.3544E-03
            2396     4.12073E-03     4.67781E-03    -53.4336E+06    -180.385E+06    -29.8525E+06    -11.2500E+06    -88.8982E-03     177.269E-03    -88.3712E-03     47.6694E-03    -88.9171E-03     176.538E-03    -88.1814E-03     47.0580E-03
            2397     3.29765E-03     4.67734E-03    -56.9626E+06    -188.559E+06    -41.1144E+06    -7.73722E+06    -88.3889E-03     176.522E-03    -88.1331E-03     38.8056E-03    -88.3764E-03     175.749E-03    -87.9827E-03     38.3588E-03
            2398     2.47280E-03     4.67622E-03    -60.9753E+06    -196.689E+06    -52.4478E+06    -4.61290E+06    -88.0720E-03     176.023E-03    -87.9515E-03     29.6374E-03    -88.0369E-03     175.218E-03    -87.8401E-03     29.3321E-03
            2399     1.64911E-03     4.67505E-03    -64.4541E+06    -202.491E+06    -60.4992E+06    -2.57275E+06    -87.9501E-03     175.751E-03    -87.8007E-03     20.1231E-03    -87.9029E-03     174.923E-03    -87.7161E-03     19.9313E-03
            2400     824.813E-06     4.67503E-03    -66.2643E+06    -205.797E+06    -65.6014E+06    -1.32041E+06    -87.6873E-03     175.400E-03    -87.7124E-03     10.9535E-03    -87.6315E-03     174.560E-03    -87.6459E-03     10.8521E-03
            2401     15.3574E-03     3.73051E-03    -8.99921E+06     112.807E+06     83.6616E+06     5.95572E+06    -156.145E-03     264.101E-03    -107.955E-03     80.5270E-03    -158.032E-03     266.116E-03    -107.688E-03     74.1405E-03
            2402     14.5933E-03     3.65505E-03    -12.2603E+06     107.967E+06     86.1725E+06     7.39816E+06    -147.442E-03     252.985E-03    -105.543E-03     104.324E-03    -149.978E-03     255.619E-03    -105.251E-03     97.0620E-03
            2403     13.8159E-03     3.61445E-03    -15.4035E+06     99.6777E+06     82.8145E+06     8.85152E+06    -134.192E-03     237.618E-03    -103.426E-03     106.068E-03    -136.425E-03     239.920E-03    -103.134E-03     99.9588E-03
            2404     13.0210E-03     3.58427E-03    -22.4458E+06     87.9924E+06     71.4837E+06     9.91429E+06    -120.662E-03     222.460E-03    -101.799E-03     109.611E-03    -122.505E-03     224.336E-03    -101.536E-03     104.836E-03
            2405     12.2155E-03     3.56752E-03    -26.9794E+06     76.8789E+06     59.6551E+06     8.45465E+06    -110.946E-03     211.632E-03    -100.686E-03     109.792E-03    -112.405E-03     213.099E-03    -100.460E-03     106.106E-03
            2406     11.4091E-03     3.55459E-03    -28.3953E+06     62.0481E+06     54.4944E+06     4.66953E+06    -105.497E-03     205.465E-03    -99.9686E-03     107.537E-03    -106.645E-03     206.576E-03    -99.7449E-03     104.597E-03
            2407     10.5972E-03     3.54969E-03    -31.4618E+06     18.6463E+06     45.5370E+06    -2.70647E+06    -102.042E-03     201.542E-03    -99.4996E-03     103.468E-03    -102.912E-03     202.233E-03    -99.2534E-03     101.043E-03
            2408     9.78335E-03     3.54490E-03    -35.1620E+06    -37.2261E+06     31.8980E+06    -10.5941E+06    -100.098E-03     199.277E-03    -99.1792E-03     98.4580E-03    -100.724E-03     199.551E-03    -98.9148E-03     96.3985E-03
            2409     8.96940E-03     3.54162E-03    -36.5908E+06    -76.5121E+06     24.2709E+06    -16.2316E+06    -99.1560E-03     198.109E-03    -98.9528E-03     92.3486E-03    -99.6039E-03     198.081E-03    -98.6675E-03     90.5698E-03
            2410     8.15516E-03     3.53976E-03    -37.1513E+06    -106.084E+06     16.6273E+06    -20.2626E+06    -98.6262E-03     197.388E-03    -98.7614E-03     85.6343E-03    -98.9341E-03     197.134E-03    -98.4706E-03     84.0892E-03
            2411     7.34019E-03     3.53846E-03    -38.6851E+06    -133.715E+06     7.30781E+06    -22.4397E+06    -98.3560E-03     196.948E-03    -98.5919E-03     78.3420E-03    -98.5517E-03     196.505E-03    -98.3054E-03     76.9998E-03
            2412     6.52559E-03     3.53745E-03    -41.1388E+06    -156.333E+06    -3.60779E+06    -22.1376E+06    -98.2164E-03     196.645E-03    -98.4285E-03     70.5292E-03    -98.3250E-03     196.057E-03    -98.1602E-03     69.3831E-03
            2413     5.71024E-03     3.53672E-03    -43.5877E+06    -170.049E+06    -15.5131E+06    -19.0679E+06    -98.1182E-03     196.379E-03    -98.2612E-03     62.4280E-03    -98.1633E-03     195.705E-03    -98.0290E-03     61.4843E-03
            2414     4.89482E-03     3.53584E-03    -46.6387E+06    -180.387E+06    -27.1403E+06    -14.7615E+06    -97.9982E-03     196.104E-03    -98.1056E-03     54.0762E-03    -97.9977E-03     195.369E-03    -97.9122E-03     53.3261E-03
            2415     4.07971E-03     3.53587E-03    -51.0117E+06    -189.375E+06    -38.2825E+06    -10.2451E+06    -97.9065E-03     195.874E-03    -97.9677E-03     45.5842E-03    -97.8768E-03     195.095E-03    -97.8106E-03     45.0134E-03
            2416     3.26339E-03     3.53533E-03    -55.5274E+06    -196.510E+06    -46.9503E+06    -5.97155E+06    -97.9086E-03     195.751E-03    -97.8422E-03     36.8012E-03    -97.8625E-03     194.939E-03    -97.7115E-03     36.3904E-03
            2417     2.44862E-03     3.53498E-03    -58.9355E+06    -201.728E+06    -53.7140E+06    -2.90624E+06    -97.8070E-03     195.528E-03    -97.7213E-03     27.8670E-03    -97.7491E-03     194.693E-03    -97.6119E-03     27.5896E-03
            2418     1.63200E-03     3.53432E-03    -61.5019E+06    -205.661E+06    -59.3017E+06    -1.35033E+06    -97.6057E-03     195.246E-03    -97.6402E-03     18.9442E-03    -97.5391E-03     194.395E-03    -97.5494E-03     18.7705E-03
            2419     816.079E-06     3.53391E-03    -63.1573E+06    -208.181E+06    -62.8280E+06    -626.000E+03    -97.5848E-03     195.196E-03    -97.6111E-03     10.2217E-03    -97.5134E-03     194.336E-03    -97.5318E-03     10.1285E-03
            2420     15.3196E-03     2.48256E-03    -7.18588E+06     111.820E+06     85.7406E+06     6.44263E+06    -145.016E-03     256.487E-03    -111.471E-03     117.417E-03    -147.077E-03     258.678E-03    -111.194E-03     111.770E-03
            2421     14.5325E-03     2.44433E-03    -6.74421E+06     105.459E+06     89.4602E+06     5.91853E+06    -132.973E-03     242.845E-03    -109.872E-03     132.093E-03    -135.312E-03     245.280E-03    -109.568E-03     126.261E-03
            2422     13.7310E-03     2.41424E-03    -12.0829E+06     96.0367E+06     85.6222E+06     8.99388E+06    -121.075E-03     229.806E-03    -108.732E-03     125.081E-03    -122.805E-03     231.589E-03    -108.425E-03     120.746E-03
            2423     12.9307E-03     2.40324E-03    -16.4326E+06     91.3175E+06     77.1620E+06     8.68628E+06    -114.224E-03     222.201E-03    -107.977E-03     118.060E-03    -115.517E-03     223.537E-03    -107.700E-03     114.769E-03
            2424     12.1263E-03     2.39213E-03    -19.8412E+06     81.9838E+06     58.5706E+06     3.84420E+06    -109.937E-03     217.385E-03    -107.448E-03     110.480E-03    -110.926E-03     218.422E-03    -107.245E-03     107.874E-03
            2425     11.3166E-03     2.38447E-03    -22.8208E+06     65.7876E+06     36.9375E+06    -56.8625E+03    -107.522E-03     214.619E-03    -107.097E-03     101.445E-03    -108.270E-03     215.409E-03    -106.975E-03     99.3447E-03
            2426     10.5092E-03     2.38091E-03    -24.9375E+06     24.3171E+06     18.9189E+06    -5.43781E+06    -106.695E-03     213.594E-03    -106.899E-03     92.9720E-03    -107.235E-03     214.073E-03    -106.803E-03     91.1893E-03
            2427     9.70237E-03     2.37787E-03    -26.7973E+06    -32.2994E+06     2.55967E+06    -13.8218E+06    -106.349E-03     213.125E-03    -106.776E-03     85.6275E-03    -106.700E-03     213.255E-03    -106.677E-03     84.0391E-03
            2428     8.89402E-03     2.37602E-03    -28.4074E+06    -75.1920E+06    -9.15439E+06    -20.4003E+06    -106.063E-03     212.755E-03    -106.692E-03     78.0109E-03    -106.275E-03     212.621E-03    -106.587E-03     76.5824E-03
            2429     8.08525E-03     2.37424E-03    -30.3738E+06    -109.077E+06    -18.1160E+06    -22.8285E+06    -106.006E-03     212.642E-03    -106.637E-03     70.6249E-03    -106.117E-03     212.306E-03    -106.525E-03     69.3601E-03
            2430     7.27723E-03     2.37339E-03    -33.4632E+06    -139.568E+06    -25.3737E+06    -22.4741E+06    -106.106E-03     212.704E-03    -106.598E-03     63.5732E-03    -106.140E-03     212.193E-03    -106.474E-03     62.4740E-03
            2431     6.46857E-03     2.37268E-03    -37.7844E+06    -164.575E+06    -30.6216E+06    -20.4970E+06    -106.220E-03     212.784E-03    -106.564E-03     56.6679E-03    -106.205E-03     212.134E-03    -106.424E-03     55.7307E-03
            2432     5.66055E-03     2.37225E-03    -42.7108E+06    -180.956E+06    -36.2816E+06    -16.9425E+06    -106.234E-03     212.753E-03    -106.519E-03     49.6802E-03    -106.189E-03     212.015E-03    -106.376E-03     48.9076E-03
            2433     4.85201E-03     2.37217E-03    -47.2432E+06    -191.331E+06    -41.1311E+06    -11.6609E+06    -106.236E-03     212.714E-03    -106.478E-03     42.6072E-03    -106.176E-03     211.921E-03    -106.337E-03     42.0056E-03
            2434     4.04292E-03     2.37199E-03    -51.3166E+06    -198.327E+06    -46.3545E+06    -6.53710E+06    -106.331E-03     212.759E-03    -106.428E-03     35.5975E-03    -106.260E-03     211.932E-03    -106.298E-03     35.1536E-03
            2435     3.23521E-03     2.37163E-03    -54.4174E+06    -202.646E+06    -51.2242E+06    -3.24051E+06    -106.379E-03     212.745E-03    -106.366E-03     28.7107E-03    -106.301E-03     211.898E-03    -106.249E-03     28.3920E-03
            2436     2.42590E-03     2.37147E-03    -56.6687E+06    -205.482E+06    -54.6884E+06    -1.22814E+06    -106.342E-03     212.643E-03    -106.301E-03     21.7660E-03    -106.259E-03     211.783E-03    -106.195E-03     21.5488E-03
            2437     1.61792E-03     2.37171E-03    -57.9735E+06    -207.268E+06    -57.1395E+06    -55.5298E+03    -106.236E-03     212.493E-03    -106.257E-03     14.7714E-03    -106.149E-03     211.625E-03    -106.159E-03     14.6386E-03
            2438     808.479E-06     2.37137E-03    -59.2187E+06    -208.815E+06    -59.0722E+06     275.735E+03    -106.256E-03     212.467E-03    -106.211E-03     7.98241E-03    -106.167E-03     211.593E-03    -106.118E-03     7.91625E-03
            2439     15.2109E-03     1.25357E-03     40.1454E+03     113.131E+06     94.1211E+06     4.29713E+06    -145.678E-03     262.656E-03    -116.978E-03     131.178E-03    -147.332E-03     264.431E-03    -116.672E-03     126.709E-03
            2440     14.4277E-03     1.23011E-03    -3.98123E+06     103.274E+06     92.8614E+06     6.12443E+06    -135.044E-03     250.604E-03    -115.561E-03     114.918E-03    -136.436E-03     252.075E-03    -115.240E-03     111.261E-03
            2441     13.6398E-03     1.22085E-03    -8.89532E+06     95.4390E+06     87.4422E+06     5.41568E+06    -125.951E-03     240.503E-03    -114.552E-03     95.7808E-03    -126.846E-03     241.447E-03    -114.240E-03     93.3322E-03
            2442     12.8405E-03     1.20763E-03    -10.2477E+06     95.2497E+06     74.0899E+06     3.68949E+06    -120.738E-03     234.558E-03    -113.820E-03     81.1481E-03    -121.408E-03     235.312E-03    -113.573E-03     79.3062E-03
            2443     12.0435E-03     1.20358E-03    -12.3379E+06     87.2701E+06     43.3854E+06     2.07150E+06    -117.501E-03     230.720E-03    -113.220E-03     70.3829E-03    -118.000E-03     231.356E-03    -113.112E-03     68.9594E-03
            2444     11.2458E-03     1.19897E-03    -14.9469E+06     67.7878E+06     5.34289E+06    -1.27249E+06    -115.201E-03     227.951E-03    -112.749E-03     62.2375E-03    -115.551E-03     228.470E-03    -112.799E-03     61.0707E-03
            2445     10.4443E-03     1.19601E-03    -16.7846E+06     28.5815E+06    -24.7516E+06    -5.34665E+06    -114.019E-03     226.469E-03    -112.450E-03     54.9986E-03    -114.229E-03     226.790E-03    -112.591E-03     54.0023E-03
            2446     9.64151E-03     1.19433E-03    -18.9971E+06    -26.4674E+06    -43.1620E+06    -10.8946E+06    -113.369E-03     225.661E-03    -112.292E-03     49.4523E-03    -113.453E-03     225.706E-03    -112.441E-03     48.5376E-03
            2447     8.83941E-03     1.19297E-03    -23.0653E+06    -75.4057E+06    -53.1342E+06    -14.8806E+06    -112.911E-03     225.121E-03    -112.210E-03     44.5665E-03    -112.906E-03     224.918E-03    -112.332E-03     43.7332E-03
            2448     8.03695E-03     1.19237E-03    -28.8085E+06    -114.241E+06    -57.3689E+06    -15.3746E+06    -112.576E-03     224.753E-03    -112.177E-03     39.9645E-03    -112.520E-03     224.354E-03    -112.256E-03     39.2291E-03
            2449     7.23312E-03     1.19160E-03    -34.7464E+06    -146.247E+06    -58.1706E+06    -14.0009E+06    -112.374E-03     224.550E-03    -112.177E-03     35.5849E-03    -112.287E-03     223.988E-03    -112.205E-03     34.9541E-03
            2450     6.42993E-03     1.19110E-03    -40.3534E+06    -172.288E+06    -56.7715E+06    -12.0196E+06    -112.268E-03     224.464E-03    -112.195E-03     31.3933E-03    -112.165E-03     223.768E-03    -112.171E-03     30.8611E-03
            2451     5.62593E-03     1.19093E-03    -45.5416E+06    -189.816E+06    -54.9424E+06    -9.16063E+06    -112.222E-03     224.435E-03    -112.213E-03     27.3248E-03    -112.114E-03     223.650E-03    -112.147E-03     26.8911E-03
            2452     4.82234E-03     1.19097E-03    -49.8705E+06    -200.159E+06    -53.9255E+06    -6.08821E+06    -112.237E-03     224.454E-03    -112.217E-03     23.4577E-03    -112.132E-03     223.616E-03    -112.124E-03     23.1211E-03
            2453     4.01934E-03     1.19071E-03    -52.5101E+06    -204.851E+06    -53.0580E+06    -3.27038E+06    -112.228E-03     224.437E-03    -112.209E-03     19.6543E-03    -112.126E-03     223.574E-03    -112.101E-03     19.4060E-03
            2454     3.21482E-03     1.19078E-03    -54.0027E+06    -206.310E+06    -53.7451E+06    -1.11952E+06    -112.172E-03     224.364E-03    -112.193E-03     15.7747E-03    -112.071E-03     223.494E-03    -112.084E-03     15.6005E-03
            2455     2.41159E-03     1.19069E-03    -54.8991E+06    -207.352E+06    -54.6531E+06    -74.3181E+03    -112.164E-03     224.345E-03    -112.181E-03     11.8636E-03    -112.063E-03     223.469E-03    -112.074E-03     11.7452E-03
            2456     1.60719E-03     1.19066E-03    -55.2743E+06    -207.783E+06    -54.8988E+06     405.556E+03    -112.209E-03     224.368E-03    -112.159E-03     8.05015E-03    -112.107E-03     223.489E-03    -112.052E-03     7.97731E-03
            2457     804.331E-06     1.19074E-03    -55.3009E+06    -207.930E+06    -55.1346E+06     531.944E+03    -112.205E-03     224.274E-03    -112.069E-03     4.55048E-03    -112.101E-03     223.394E-03    -111.963E-03     4.51727E-03


