********************************************************************************
Field Output Report, written Sat Jul 27 20:38:03 2024

Source 1
---------

   ODB: D:/Project_1740/abaqus/results//zeides_2a_40_red_250_cal_10_vel_30_fric_050.odb
   Step: Step-1
   Frame: Increment   4324276: Step Time =   0.5471

Loc 1 : Nodal values from source 1

Output sorted by column "Nodal Label".

Field Output reported at nodes for region: DIE_2A_40_D0_36-1.Region_1
   Computation algorithm: EXTRAPOLATE_COMPUTE_AVERAGE
   Averaged at nodes
   Averaging regions: ODB_REGIONS

      Node Label     COORD.COOR1     COORD.COOR2
                          @Loc 1          @Loc 1
-------------------------------------------------
               1     23.5525E-03     251.193E-03


Field Output reported at nodes for region: DIE_2A_40_D0_36-1.Region_2
   Computation algorithm: EXTRAPOLATE_COMPUTE_AVERAGE
   Averaged at nodes
   Averaging regions: ODB_REGIONS

      Node Label     COORD.COOR1     COORD.COOR2
                          @Loc 1          @Loc 1
-------------------------------------------------
               1     23.5525E-03     251.193E-03


Field Output reported at nodes for part: WIRE-1
   Computation algorithm: EXTRAPOLATE_COMPUTE_AVERAGE
   Averaged at nodes
   Averaging regions: ODB_REGIONS

      Node Label     COORD.COOR1     COORD.COOR2           S.S11           S.S22           S.S33           S.S12         PE.PE11         PE.PE22         PE.PE33         PE.PE12         LE.LE11         LE.LE22         LE.LE33         LE.LE12
                          @Loc 1          @Loc 1          @Loc 1          @Loc 1          @Loc 1          @Loc 1          @Loc 1          @Loc 1          @Loc 1          @Loc 1          @Loc 1          @Loc 1          @Loc 1          @Loc 1
-------------------------------------------------------------------------------------------------------------------------------------------------------------------------------------------------------------------------------------------------
               1    -210.341E-09     57.4723E-03    -21.7766E+06    -104.672E+06    -22.1870E+06     202.388E+03    -27.1371E-03     54.3296E-03    -27.1924E-03     3.43536E-03    -27.0621E-03     53.8701E-03    -27.1200E-03     3.43640E-03
               2     17.5227E-03     59.1487E-03    -2.83729E+06     198.537E+06     124.503E+06     188.054E+03    -39.6486E-03     66.9234E-03    -27.2748E-03     321.544E-03    -56.8499E-03     84.4584E-03    -26.9361E-03     336.012E-03
               3     17.1504E-03     117.138E-03    -7.86491E+06    -10.1082E+06    -9.93768E+06     463.664E+03     21.0823E-03     21.5519E-03    -42.6343E-03     3.48692E-03     21.0813E-03     21.5365E-03    -42.6579E-03     3.49289E-03
               4    -892.010E-09     115.263E-03     38.2828E+06    -2.51125E+06     37.0764E+06    -1.24889E+06    -30.3092E-03     61.4932E-03    -31.1840E-03    -1.00840E-03    -30.1696E-03     61.3696E-03    -31.0505E-03    -1.02558E-03
               5     347.553E-09    -291.434E-18    -14.3727E+06    -84.6427E+06    -13.3037E+06    -488.170E+03    -19.6258E-03     38.9808E-03    -19.3550E-03     96.2846E-06    -19.5553E-03     38.5979E-03    -19.2780E-03     89.9839E-06
               6     17.4238E-03    -291.434E-18     17.4377E+06     117.468E+06     96.5230E+06    -2.30534E+06    -92.2381E-03     123.164E-03    -30.9261E-03     100.135E-03    -93.0103E-03     124.176E-03    -30.6391E-03     98.7266E-03
               7     876.001E-06     57.4754E-03    -21.6610E+06    -104.142E+06    -21.4747E+06     298.645E+03    -27.1533E-03     54.3316E-03    -27.1783E-03     5.70652E-03    -27.0796E-03     53.8736E-03    -27.1032E-03     5.70759E-03
               8     1.75182E-03     57.4831E-03    -21.3002E+06    -103.077E+06    -19.9912E+06     306.343E+03    -27.1754E-03     54.3396E-03    -27.1641E-03     10.5184E-03    -27.1039E-03     53.8845E-03    -27.0838E-03     10.5170E-03
               9     2.62794E-03     57.4954E-03    -20.4731E+06    -101.987E+06    -17.4938E+06     353.103E+03    -27.2051E-03     54.3745E-03    -27.1694E-03     15.6638E-03    -27.1352E-03     53.9206E-03    -27.0793E-03     15.6601E-03
              10     3.50378E-03     57.5129E-03    -19.5205E+06    -100.783E+06    -14.5887E+06     427.614E+03    -27.2540E-03     54.4321E-03    -27.1781E-03     20.8867E-03    -27.1861E-03     53.9795E-03    -27.0766E-03     20.8806E-03
              11     4.37986E-03     57.5350E-03    -18.3213E+06    -99.5152E+06    -11.9712E+06     588.322E+03    -27.3129E-03     54.4984E-03    -27.1855E-03     26.2168E-03    -27.2459E-03     54.0477E-03    -27.0745E-03     26.2087E-03
              12     5.25569E-03     57.5629E-03    -16.8044E+06    -97.5657E+06    -8.51994E+06     816.094E+03    -27.3815E-03     54.5762E-03    -27.1947E-03     31.6559E-03    -27.3165E-03     54.1299E-03    -27.0715E-03     31.6459E-03
              13     6.13182E-03     57.5952E-03    -15.1328E+06    -95.3858E+06    -4.61362E+06     777.144E+03    -27.4627E-03     54.6674E-03    -27.2046E-03     37.1066E-03    -27.4009E-03     54.2265E-03    -27.0674E-03     37.0899E-03
              14     7.00767E-03     57.6334E-03    -13.5648E+06    -94.0944E+06    -1.39869E+06     777.829E+03    -27.5670E-03     54.7789E-03    -27.2119E-03     42.6895E-03    -27.5076E-03     54.3413E-03    -27.0628E-03     42.6651E-03
              15     7.88388E-03     57.6763E-03    -12.3638E+06    -92.6273E+06     3.75875E+03     732.922E+03    -27.6356E-03     54.8432E-03    -27.2076E-03     48.2180E-03    -27.5798E-03     54.4147E-03    -27.0553E-03     48.1835E-03
              16     8.75982E-03     57.7249E-03    -11.4950E+06    -88.9750E+06    -161.469E+03     691.663E+03    -27.7767E-03     54.9679E-03    -27.1912E-03     53.7467E-03    -27.7296E-03     54.5646E-03    -27.0463E-03     53.6993E-03
              17     9.63609E-03     57.7781E-03    -10.5614E+06    -82.8099E+06     -872.63E+03     781.534E+03    -28.0744E-03     55.2507E-03    -27.1763E-03     59.3580E-03    -28.0424E-03     54.8897E-03    -27.0453E-03     59.2955E-03
              18     10.5114E-03     57.8380E-03    -10.0899E+06    -76.9891E+06    -5.60784E+06     629.353E+03    -28.2047E-03     55.3528E-03    -27.1481E-03     64.5952E-03    -28.1893E-03     55.0445E-03    -27.0498E-03     64.5107E-03
              19     11.3879E-03     57.9007E-03    -9.64988E+06    -61.3847E+06    -7.18345E+06     548.573E+03    -28.2342E-03     55.3481E-03    -27.1138E-03     71.1968E-03    -28.2651E-03     55.1476E-03    -27.0468E-03     71.0860E-03
              20     12.2635E-03     57.9729E-03    -9.29385E+06    -38.2627E+06    -4.85206E+06     463.015E+03    -28.4741E-03     55.5597E-03    -27.0856E-03     77.1659E-03    -28.5783E-03     55.5091E-03    -27.0409E-03     77.0261E-03
              21     13.1400E-03     58.0475E-03    -9.60520E+06    -24.2602E+06    -12.0630E+06     322.584E+03    -28.4277E-03     55.4562E-03    -27.0285E-03     76.9500E-03    -28.5955E-03     55.5388E-03    -27.0397E-03     76.7767E-03
              22     14.0155E-03     58.1187E-03    -9.63732E+06     1.12170E+06    -26.8610E+06     626.671E+03    -29.0375E-03     55.9540E-03    -26.9165E-03     93.8576E-03    -29.4171E-03     56.3813E-03    -27.0385E-03     93.6297E-03
              23     14.8930E-03     58.2259E-03    -10.3118E+06     54.8323E+06    -22.2622E+06     635.516E+03    -34.5342E-03     61.3923E-03    -26.8581E-03     176.125E-03    -36.2251E-03     63.3058E-03    -27.0340E-03     175.847E-03
              24     15.7665E-03     58.4567E-03    -10.0943E+06     130.473E+06     31.1207E+06     256.255E+03    -43.7575E-03     70.7466E-03    -26.9891E-03     306.389E-03    -52.9941E-03     80.3203E-03    -27.0081E-03     307.712E-03
              25     16.6448E-03     58.8214E-03    -6.02686E+06     186.060E+06     98.2283E+06     151.715E+03    -43.9810E-03     71.1719E-03    -27.1909E-03     347.453E-03    -60.4090E-03     87.9542E-03    -26.9608E-03     356.155E-03
              26     17.5208E-03     60.1495E-03    -3.29072E+06     198.259E+06     124.224E+06    -222.541E+03    -39.9413E-03     67.2234E-03    -27.2821E-03     320.273E-03    -57.1241E-03     84.7381E-03    -26.9437E-03     334.732E-03
              27     17.5217E-03     61.1498E-03    -3.77898E+06     197.813E+06     123.706E+06    -65.4559E+03    -39.1397E-03     66.4374E-03    -27.2977E-03     320.227E-03    -56.2940E-03     83.9218E-03    -26.9605E-03     334.806E-03
              28     17.5221E-03     62.1499E-03    -3.21784E+06     198.451E+06     124.057E+06     416.664E+03    -39.2348E-03     66.5111E-03    -27.2764E-03     321.073E-03    -56.4086E-03     84.0183E-03    -26.9392E-03     335.614E-03
              29     17.5219E-03     63.1529E-03    -3.09082E+06     198.936E+06     124.700E+06    -365.320E+03    -40.0382E-03     67.3201E-03    -27.2818E-03     319.272E-03    -57.2027E-03     84.8181E-03    -26.9423E-03     333.740E-03
              30     17.5198E-03     64.1508E-03    -2.99263E+06     199.003E+06     124.224E+06     469.444E+03    -38.9388E-03     66.2355E-03    -27.2966E-03     319.452E-03    -56.0524E-03     83.6845E-03    -26.9597E-03     334.043E-03
              31     17.5250E-03     65.1541E-03    -3.73324E+06     198.489E+06     123.374E+06    -149.871E+03    -39.2639E-03     66.5377E-03    -27.2737E-03     322.985E-03    -56.5558E-03     84.1631E-03    -26.9393E-03     337.524E-03
              32     17.5183E-03     66.1578E-03    -3.92134E+06     198.641E+06     123.706E+06     801.154E+03    -40.2107E-03     67.4847E-03    -27.2741E-03     321.339E-03    -57.5100E-03     85.1166E-03    -26.9379E-03     335.831E-03
              33     17.5245E-03     67.1508E-03    -2.88967E+06     199.654E+06     124.368E+06     467.595E+03    -38.9770E-03     66.2548E-03    -27.2778E-03     318.546E-03    -56.0497E-03     83.6654E-03    -26.9413E-03     333.139E-03
              34     17.5201E-03     68.1575E-03    -3.54970E+06     199.168E+06     123.690E+06    -282.295E+03    -39.1680E-03     66.4181E-03    -27.2501E-03     320.825E-03    -56.3329E-03     83.9187E-03    -26.9153E-03     335.358E-03
              35     17.5247E-03     69.1583E-03    -3.09150E+06     200.006E+06     124.032E+06    -9.02688E+03    -39.6462E-03     66.8935E-03    -27.2473E-03     321.794E-03    -56.9560E-03     84.5427E-03    -26.9127E-03     336.339E-03
              36     17.5195E-03     70.1568E-03    -3.39339E+06     199.987E+06     124.148E+06    -326.481E+03    -39.9141E-03     67.1888E-03    -27.2747E-03     319.845E-03    -57.1800E-03     84.7926E-03    -26.9390E-03     334.387E-03
              37     17.5226E-03     71.1601E-03    -3.02044E+06     200.189E+06     123.939E+06     662.459E+03    -39.8224E-03     67.1065E-03    -27.2841E-03     320.549E-03    -57.0820E-03     84.7067E-03    -26.9503E-03     335.094E-03
              38     17.5212E-03     72.1604E-03    -2.72788E+06     200.483E+06     124.101E+06    -953.430E+03    -39.5899E-03     66.8702E-03    -27.2804E-03     322.777E-03    -56.9294E-03     84.5519E-03    -26.9466E-03     337.310E-03
              39     17.5220E-03     73.1652E-03    -3.77417E+06     199.557E+06     123.136E+06     550.298E+03    -39.0397E-03     66.3390E-03    -27.2993E-03     322.884E-03    -56.3830E-03     84.0203E-03    -26.9675E-03     337.491E-03
              40     17.5212E-03     74.1581E-03    -2.85690E+06     200.218E+06     123.676E+06     253.734E+03    -38.5818E-03     65.8810E-03    -27.2992E-03     320.816E-03    -55.7934E-03     83.4347E-03    -26.9670E-03     335.504E-03
              41     17.5224E-03     75.1610E-03    -2.63539E+06     200.783E+06     123.934E+06    -168.314E+03    -39.5415E-03     66.8072E-03    -27.2658E-03     320.526E-03    -56.7075E-03     84.3172E-03    -26.9334E-03     335.034E-03
              42     17.5215E-03     76.1653E-03    -4.05539E+06     199.926E+06     122.942E+06    -433.082E+03    -40.4579E-03     67.7299E-03    -27.2720E-03     322.034E-03    -57.8165E-03     85.4273E-03    -26.9413E-03     336.493E-03
              43     17.5202E-03     77.1648E-03    -2.67390E+06     200.915E+06     123.618E+06     611.732E+03    -39.2219E-03     66.5178E-03    -27.2958E-03     320.993E-03    -56.4849E-03     84.1259E-03    -26.9652E-03     335.600E-03
              44     17.5241E-03     78.1620E-03    -2.82191E+06     201.122E+06     123.143E+06     322.788E+03    -38.5753E-03     65.8499E-03    -27.2746E-03     321.542E-03    -55.7653E-03     83.3868E-03    -26.9464E-03     336.154E-03
              45     17.5203E-03     79.1685E-03    -4.27465E+06     200.185E+06     122.134E+06    -186.089E+03    -39.6388E-03     66.8953E-03    -27.2565E-03     321.602E-03    -56.9295E-03     84.5273E-03    -26.9299E-03     336.159E-03
              46     17.5231E-03     80.1630E-03    -2.28579E+06     201.884E+06     123.227E+06     667.881E+03    -39.0758E-03     66.3359E-03    -27.2602E-03     321.377E-03    -56.3495E-03     83.9609E-03    -26.9335E-03     336.019E-03
              47     17.5219E-03     81.1690E-03    -2.49970E+06     202.816E+06     123.612E+06    -458.672E+03    -39.6278E-03     66.8800E-03    -27.2522E-03     323.103E-03    -56.9972E-03     84.6020E-03    -26.9246E-03     337.638E-03
              48     17.5216E-03     82.1683E-03    -3.54774E+06     202.948E+06     123.226E+06     49.1156E+03    -39.7352E-03     67.0000E-03    -27.2647E-03     321.579E-03    -57.0163E-03     84.6315E-03    -26.9377E-03     336.072E-03
              49     17.5221E-03     83.1659E-03    -2.47473E+06     203.616E+06     123.289E+06     525.903E+03    -38.8063E-03     66.0741E-03    -27.2678E-03     320.139E-03    -55.9581E-03     83.5824E-03    -26.9430E-03     334.772E-03
              50     17.5224E-03     84.1683E-03    -3.26911E+06     205.009E+06     123.535E+06     761.075E+03    -39.3055E-03     66.5535E-03    -27.2481E-03     321.080E-03    -56.5247E-03     84.1307E-03    -26.9229E-03     335.645E-03
              51     17.5219E-03     85.1710E-03    -3.36745E+06     206.637E+06     124.183E+06     736.387E+03    -39.2928E-03     66.5407E-03    -27.2479E-03     322.841E-03    -56.6703E-03     84.2797E-03    -26.9217E-03     337.449E-03
              52     17.5229E-03     86.1697E-03    -3.00336E+06     208.492E+06     124.661E+06     826.461E+03    -38.8500E-03     66.0844E-03    -27.2343E-03     323.734E-03    -56.2557E-03     83.8580E-03    -26.9090E-03     338.377E-03
              53     17.5232E-03     87.1707E-03    -4.62102E+06     209.050E+06     124.719E+06     773.302E+03    -39.7447E-03     66.9578E-03    -27.2131E-03     322.677E-03    -57.1039E-03     84.6810E-03    -26.8859E-03     337.195E-03
              54     17.5214E-03     88.1713E-03    -3.64824E+06     210.374E+06     124.860E+06     1.62031E+06    -38.9418E-03     66.1353E-03    -27.1935E-03     321.833E-03    -56.2168E-03     83.7821E-03    -26.8690E-03     336.451E-03
              55     17.5272E-03     89.1694E-03    -2.64285E+06     212.024E+06     126.062E+06     63.9967E+03    -38.1441E-03     65.3038E-03    -27.1597E-03     321.894E-03    -55.3764E-03     82.9139E-03    -26.8330E-03     336.560E-03
              56     17.5213E-03     90.1713E-03    -3.97582E+06     211.284E+06     126.252E+06    -262.047E+03    -39.6451E-03     66.7727E-03    -27.1276E-03     320.977E-03    -56.9424E-03     84.4399E-03    -26.7969E-03     335.514E-03
              57     17.5267E-03     91.1710E-03    -2.97123E+06     211.743E+06     127.227E+06     520.307E+03    -39.4077E-03     66.5125E-03    -27.1048E-03     321.885E-03    -56.7556E-03     84.2326E-03    -26.7714E-03     336.476E-03
              58     17.5241E-03     92.1748E-03    -3.87624E+06     211.120E+06     127.144E+06    -613.850E+03    -38.5612E-03     65.6256E-03    -27.0644E-03     324.248E-03    -55.9830E-03     83.4144E-03    -26.7291E-03     338.888E-03
              59     17.5289E-03     93.1717E-03    -3.30798E+06     211.171E+06     128.022E+06     530.356E+03    -37.8505E-03     64.8568E-03    -27.0063E-03     322.166E-03    -55.1044E-03     82.4774E-03    -26.6676E-03     336.856E-03
              60     17.5271E-03     94.1673E-03    -1.88315E+06     212.096E+06     130.091E+06     66.2107E+03    -38.6498E-03     65.5730E-03    -26.9232E-03     318.981E-03    -55.7685E-03     83.0607E-03    -26.5775E-03     333.612E-03
              61     17.5300E-03     95.1720E-03    -3.60069E+06     209.755E+06     129.020E+06    -868.865E+03    -40.1261E-03     66.9522E-03    -26.8261E-03     320.448E-03    -57.3741E-03     84.5578E-03    -26.4799E-03     334.884E-03
              62     17.5303E-03     96.1762E-03    -5.23603E+06     207.494E+06     127.882E+06     425.913E+03    -39.4841E-03     66.2220E-03    -26.7378E-03     323.769E-03    -56.8746E-03     83.9596E-03    -26.3917E-03     338.293E-03
              63     17.5347E-03     97.1734E-03    -3.63135E+06     207.494E+06     129.568E+06     818.130E+03    -38.8487E-03     65.4694E-03    -26.6207E-03     322.451E-03    -56.1394E-03     83.1081E-03    -26.2685E-03     337.063E-03
              64     17.5349E-03     98.1718E-03    -2.45090E+06     207.063E+06     131.129E+06    -211.482E+03    -39.6935E-03     66.1540E-03    -26.4605E-03     318.982E-03    -56.8092E-03     83.6159E-03    -26.1016E-03     333.469E-03
              65     17.5392E-03     99.1746E-03    -688.098E+03     206.166E+06     132.066E+06    -797.027E+03    -41.1094E-03     67.3933E-03    -26.2839E-03     318.692E-03    -58.2227E-03     84.8531E-03    -25.9215E-03     332.970E-03
              66     17.5401E-03     100.180E-03    -2.68957E+06     202.676E+06     131.020E+06    -2.55149E+06    -42.5305E-03     68.6762E-03    -26.1457E-03     318.913E-03    -59.7267E-03     86.2024E-03    -25.7805E-03     332.975E-03
              67     17.5411E-03     101.184E-03    -2.88231E+06     199.138E+06     130.146E+06    -647.060E+03    -43.7992E-03     69.8438E-03    -26.0445E-03     317.876E-03    -60.9922E-03     87.3559E-03    -25.6784E-03     331.813E-03
              68     17.5427E-03     102.187E-03    -3.89150E+06     195.708E+06     129.584E+06    -1.20639E+06    -45.6144E-03     71.5553E-03    -25.9409E-03     316.369E-03    -62.7648E-03     89.0110E-03    -25.5711E-03     330.035E-03
              69     17.5423E-03     103.198E-03    -4.35537E+06     190.376E+06     128.524E+06    -2.04165E+06    -48.3474E-03     74.2084E-03    -25.8610E-03     317.699E-03    -65.6531E-03     91.8020E-03    -25.4881E-03     331.001E-03
              70     17.5427E-03     104.211E-03    -6.74534E+06     184.107E+06     126.332E+06    -1.79967E+06    -49.8784E-03     75.6898E-03    -25.8114E-03     321.198E-03    -67.3238E-03     93.3986E-03    -25.4370E-03     334.186E-03
              71     17.5441E-03     105.220E-03    -3.74925E+06     179.233E+06     127.411E+06    -260.696E+03    -49.9107E-03     75.6571E-03    -25.7465E-03     320.513E-03    -67.0372E-03     93.0368E-03    -25.3639E-03     333.194E-03
              72     17.5461E-03     106.225E-03    -5.94306E+06     171.779E+06     127.326E+06    -2.76800E+06    -53.1789E-03     78.7716E-03    -25.5927E-03     317.272E-03    -69.9470E-03     95.7592E-03    -25.1965E-03     329.269E-03
              73     17.5461E-03     107.244E-03    -3.49275E+06     165.201E+06     130.145E+06    -1.79521E+06    -60.0377E-03     85.4203E-03    -25.3826E-03     321.883E-03    -76.9326E-03     102.514E-03    -24.9664E-03     332.721E-03
              74     17.5494E-03     108.283E-03    -2.97213E+06     160.895E+06     133.580E+06    -495.236E+03    -63.7556E-03     89.0151E-03    -25.2595E-03     334.529E-03    -81.1200E-03     106.554E-03    -24.8206E-03     344.450E-03
              75     17.5496E-03     109.301E-03     -210.68E+03     159.111E+06     135.222E+06     2.65161E+06    -65.2141E-03     90.3542E-03    -25.1400E-03     341.052E-03    -82.4885E-03     107.800E-03    -24.6943E-03     350.238E-03
              76     17.5541E-03     110.320E-03    -7.12576E+06     150.503E+06     130.292E+06    -2.59410E+06    -69.8140E-03     94.7267E-03    -24.9127E-03     342.389E-03    -86.5794E-03     111.625E-03    -24.4692E-03     350.011E-03
              77     17.5535E-03     111.359E-03    -4.64203E+06     132.137E+06     119.556E+06     -9.9893E+06    -73.9639E-03     98.6720E-03    -24.7081E-03     348.421E-03    -90.1979E-03     115.013E-03    -24.2951E-03     353.961E-03
              78     17.5575E-03     112.387E-03     4.18495E+06     122.283E+06     112.972E+06    -2.90739E+06    -75.0900E-03     99.7285E-03    -24.6384E-03     359.735E-03    -90.3220E-03     115.083E-03    -24.2569E-03     363.379E-03
              79     17.5557E-03     113.420E-03    -20.6905E+06     96.1936E+06     71.8897E+06    -17.5518E+06    -62.6056E-03     87.3876E-03    -24.7820E-03     359.686E-03    -74.6952E-03     99.5402E-03    -24.5320E-03     362.075E-03
              80     17.5617E-03     114.395E-03    -1.93637E+06     43.2442E+06     27.2002E+06    -32.6555E+06    -21.2147E-03     46.7693E-03    -25.5546E-03     330.000E-03    -27.2618E-03     52.9023E-03    -25.4785E-03     331.716E-03
              81     17.5579E-03     115.291E-03     18.1727E+06     8.72667E+06     21.6532E+06    -12.0108E+06     18.2605E-03     10.5700E-03    -28.8305E-03     208.320E-03     16.9732E-03     11.8828E-03    -28.7612E-03     209.054E-03
              82     17.3764E-03     116.183E-03     2.89079E+06    -3.10252E+06     8.19347E+06     4.72880E+06     25.1006E-03     11.9545E-03    -37.0551E-03     56.7486E-03     25.0715E-03     11.9455E-03    -37.0139E-03     56.8357E-03
              83     16.2522E-03     116.900E-03    -1.51667E+06     6.75908E+06     34.0246E+06     2.18336E+06     17.4864E-03     26.1274E-03    -43.6138E-03     10.7195E-03     17.4263E-03     26.1209E-03    -43.4513E-03     10.7475E-03
              84     15.3634E-03     116.666E-03     5.20353E+06     13.2555E+06     72.0103E+06    -5.52547E+06    -4.79636E-03     49.5458E-03    -44.7495E-03     15.6271E-03    -4.90541E-03     49.4921E-03    -44.4162E-03     15.5414E-03
              85     14.5249E-03     116.425E-03     8.85154E+06    -10.7762E+06     58.2655E+06    -6.00282E+06    -33.0748E-03     77.3773E-03    -44.3025E-03     2.17358E-03    -33.1268E-03     77.2022E-03    -44.0084E-03     2.04713E-03
              86     13.7030E-03     116.218E-03     14.3051E+06    -6.53470E+06     60.5569E+06    -593.925E+03    -43.3338E-03     86.3251E-03    -42.9913E-03    -13.9404E-03    -43.3653E-03     86.1571E-03    -42.6998E-03    -14.0167E-03
              87     12.8772E-03     116.049E-03     17.8535E+06    -1.43821E+06     68.0599E+06    -1.06851E+06    -45.0983E-03     86.7425E-03    -41.6442E-03    -19.9775E-03    -45.1204E-03     86.5909E-03    -41.3277E-03    -20.0550E-03
              88     12.0372E-03     115.918E-03     20.5493E+06    -331.293E+03     68.6134E+06    -124.188E+03    -47.2663E-03     87.6162E-03    -40.3499E-03    -20.9313E-03    -47.2718E-03     87.4707E-03    -40.0361E-03    -20.9905E-03
              89     11.2010E-03     115.802E-03     23.5832E+06       1.047E+03     68.3100E+06    -986.725E+03    -47.5733E-03     86.6311E-03    -39.0578E-03    -18.8365E-03    -47.5619E-03     86.4860E-03    -38.7505E-03    -18.8989E-03
              90     10.3544E-03     115.708E-03     24.7859E+06    -1.24550E+06     67.5381E+06     129.167E+03    -46.6670E-03     84.4720E-03    -37.8051E-03    -15.8169E-03    -46.6438E-03     84.3243E-03    -37.5015E-03    -15.8565E-03
              91     9.50665E-03     115.624E-03     24.1575E+06     1.43615E+06     65.8351E+06     22.3400E+03    -45.3291E-03     81.9162E-03    -36.5871E-03    -13.3374E-03    -45.3101E-03     81.7864E-03    -36.2950E-03    -13.3718E-03
              92     8.65478E-03     115.554E-03     24.3316E+06    -286.519E+03     63.0834E+06    -796.020E+03    -42.8044E-03     78.2594E-03    -35.4550E-03    -10.7813E-03    -42.7773E-03     78.1264E-03    -35.1745E-03    -10.8192E-03
              93     7.79855E-03     115.492E-03     25.1876E+06     264.292E+03     60.2862E+06    -1.61518E+06    -40.3637E-03     74.8191E-03    -34.4554E-03    -8.80773E-03    -40.3285E-03     74.6927E-03    -34.1909E-03    -8.85073E-03
              94     6.93948E-03     115.441E-03     26.4196E+06    -215.225E+03     55.2709E+06    -1.91323E+06    -38.1753E-03     71.7546E-03    -33.5793E-03    -7.11765E-03    -38.1255E-03     71.6320E-03    -33.3410E-03    -7.15970E-03
              95     6.07708E-03     115.397E-03     28.3426E+06     119.922E+03     51.1994E+06    -2.24200E+06    -36.2038E-03     69.0403E-03    -32.8365E-03    -5.73184E-03    -36.1387E-03     68.9231E-03    -32.6218E-03    -5.77432E-03
              96     5.21266E-03     115.361E-03     30.5535E+06    -753.797E+03     47.2334E+06    -1.96761E+06    -34.5907E-03     66.8110E-03    -32.2203E-03    -4.64256E-03    -34.5073E-03     66.6922E-03    -32.0273E-03    -4.67861E-03
              97     4.34611E-03     115.330E-03     32.6700E+06     623.442E+03     45.0493E+06    -2.11363E+06    -33.2923E-03     65.0143E-03    -31.7220E-03    -3.72380E-03    -33.1970E-03     64.9028E-03    -31.5450E-03    -3.75937E-03
              98     3.47842E-03     115.306E-03     34.9090E+06    -1.18134E+06     44.1107E+06    -2.10783E+06    -32.2896E-03     63.6263E-03    -31.3366E-03    -2.97156E-03    -32.1791E-03     63.5040E-03    -31.1650E-03    -3.00511E-03
              99     2.60950E-03     115.287E-03     36.5155E+06    -276.616E+03     42.0828E+06    -1.27398E+06    -31.5272E-03     62.5676E-03    -31.0404E-03    -2.29219E-03    -31.4069E-03     62.4505E-03    -30.8826E-03    -2.31324E-03
             100     1.74001E-03     115.274E-03     37.2121E+06    -346.318E+03     38.9920E+06    -951.928E+03    -30.9883E-03     61.8361E-03    -30.8478E-03    -1.65208E-03    -30.8600E-03     61.7222E-03    -30.7063E-03    -1.66740E-03
             101     869.761E-06     115.266E-03     37.8337E+06    -661.872E+03     37.8656E+06    -1.14650E+06    -30.5492E-03     61.5333E-03    -30.9841E-03    -1.17351E-03    -30.4156E-03     61.4186E-03    -30.8487E-03    -1.18997E-03
             102     133.245E-09     114.253E-03     33.6447E+06    -2.63100E+06     33.4500E+06    -896.583E+03    -27.6847E-03     55.6059E-03    -27.9212E-03    -110.380E-06    -27.5624E-03     55.4943E-03    -27.7989E-03    -123.173E-06
             103     228.552E-09     113.258E-03     22.1510E+06    -6.09649E+06     22.1528E+06    -736.092E+03    -22.8839E-03     45.5539E-03    -22.6700E-03     963.098E-06    -22.7970E-03     45.4587E-03    -22.5825E-03     952.272E-06
             104    -208.217E-09     112.269E-03     4.68384E+06    -10.8512E+06     5.79870E+06    -1.70545E+06    -19.2767E-03     38.5360E-03    -19.2593E-03     1.47952E-03    -19.2462E-03     38.4663E-03    -19.2214E-03     1.45642E-03
             105     233.576E-09     111.288E-03    -16.8511E+06    -19.8529E+06    -16.1650E+06    -4.01930E+06    -16.9649E-03     33.9018E-03    -16.9369E-03     2.05025E-03    -16.9970E-03     33.8504E-03    -16.9646E-03     1.99762E-03
             106    -202.272E-09     110.308E-03    -38.9459E+06    -31.3201E+06    -39.6097E+06    -2.97504E+06    -15.6476E-03     31.2356E-03    -15.5881E-03     2.53829E-03    -15.7394E-03     31.1930E-03    -15.6842E-03     2.49941E-03
             107     266.244E-09     109.331E-03    -64.6546E+06    -40.3982E+06    -63.7743E+06    -2.58513E+06    -15.0454E-03     30.0877E-03    -15.0423E-03     2.89345E-03    -15.2175E-03     30.0720E-03    -15.2089E-03     2.85979E-03
             108    -318.567E-09     108.354E-03    -89.5966E+06    -50.6617E+06    -90.0080E+06    -3.53022E+06    -14.9629E-03     30.0051E-03    -15.0421E-03     3.07252E-03    -15.2069E-03     30.0123E-03    -15.2888E-03     3.02679E-03
             109     221.492E-09     107.376E-03    -105.342E+06    -58.6225E+06    -106.250E+06    -1.36879E+06    -15.3230E-03     30.6907E-03    -15.3677E-03     3.18064E-03    -15.6106E-03     30.7045E-03    -15.6612E-03     3.16291E-03
             110    -218.697E-09     106.398E-03    -87.1357E+06    -55.5662E+06    -88.9044E+06     3.38764E+06    -16.0754E-03     32.1175E-03    -16.0421E-03     3.31218E-03    -16.3016E-03     32.0949E-03    -16.2797E-03     3.35589E-03
             111     249.666E-09     105.418E-03    -53.2063E+06    -37.9283E+06    -53.4046E+06     7.06186E+06    -17.0869E-03     34.1422E-03    -17.0553E-03     3.45127E-03    -17.2205E-03     34.1072E-03    -17.1902E-03     3.54242E-03
             112    -232.314E-09     104.436E-03    -33.0467E+06    -15.3982E+06    -32.4496E+06     6.52885E+06    -18.2172E-03     36.4796E-03    -18.2624E-03     3.52821E-03    -18.3131E-03     36.4976E-03    -18.3544E-03     3.61247E-03
             113     136.574E-09     103.451E-03    -20.7117E+06     1.52604E+06    -19.4200E+06     3.44177E+06    -19.4887E-03     39.0385E-03    -19.5498E-03     3.59581E-03    -19.5664E-03     39.1043E-03    -19.6190E-03     3.64016E-03
             114    -139.353E-09     102.464E-03    -10.6149E+06     7.45431E+06    -10.0365E+06     256.708E+03    -20.8097E-03     41.6283E-03    -20.8186E-03     3.67704E-03    -20.8591E-03     41.6956E-03    -20.8642E-03     3.68018E-03
             115     127.395E-09     101.473E-03    -2.69794E+06     6.28753E+06    -2.49401E+06    -923.975E+03    -22.0340E-03     44.0277E-03    -21.9937E-03     3.71211E-03    -22.0530E-03     44.0667E-03    -22.0114E-03     3.69984E-03
             116    -48.1070E-09     100.482E-03     1.53561E+06     1.34984E+06     1.84205E+06    -1.84337E+06    -23.0938E-03     46.1476E-03    -23.0538E-03     3.67780E-03    -23.0908E-03     46.1495E-03    -23.0488E-03     3.65345E-03
             117     36.8389E-09     99.4871E-03     4.14949E+06    -5.33098E+06     4.01736E+06    -2.23845E+06    -23.9904E-03     47.9921E-03    -24.0016E-03     3.61726E-03    -23.9678E-03     47.9537E-03    -23.9799E-03     3.58760E-03
             118    -52.3970E-09     98.4917E-03     4.40161E+06    -13.7887E+06     4.64105E+06    -2.75975E+06    -24.7414E-03     49.5307E-03    -24.7894E-03     3.56707E-03    -24.7061E-03     49.4488E-03    -24.7526E-03     3.53051E-03
             119    -19.1628E-09     97.4943E-03     4.40042E+06    -22.9061E+06     4.05027E+06    -2.61067E+06    -25.3939E-03     50.7771E-03    -25.3832E-03     3.51616E-03    -25.3446E-03     50.6505E-03    -25.3362E-03     3.48140E-03
             120     99.9053E-09     96.4966E-03     2.22811E+06    -31.1588E+06     2.23581E+06    -2.23304E+06    -25.8824E-03     51.7523E-03    -25.8699E-03     3.53574E-03    -25.8293E-03     51.5901E-03    -25.8168E-03     3.50567E-03
             121    -164.179E-09     95.4972E-03    -459.180E+03    -38.4069E+06    -668.032E+03    -1.86921E+06    -26.2030E-03     52.4861E-03    -26.2831E-03     3.55140E-03    -26.1487E-03     52.2958E-03    -26.2300E-03     3.52596E-03
             122     80.0935E-09     94.4981E-03    -3.23922E+06    -44.9399E+06    -3.12327E+06    -1.88072E+06    -26.4905E-03     53.0225E-03    -26.5320E-03     3.44443E-03    -26.4370E-03     52.8072E-03    -26.4778E-03     3.41874E-03
             123    -72.9638E-09     93.4980E-03    -6.36749E+06    -51.9707E+06    -6.31082E+06    -2.25682E+06    -26.7273E-03     53.4421E-03    -26.7148E-03     3.40742E-03    -26.6747E-03     53.2007E-03    -26.6617E-03     3.37671E-03
             124     83.2754E-09     92.4979E-03    -10.2833E+06    -59.6442E+06    -10.3488E+06    -2.49322E+06    -26.9127E-03     53.7748E-03    -26.8621E-03     3.41917E-03    -26.8626E-03     53.5066E-03    -26.8125E-03     3.38530E-03
             125    -10.9304E-09     91.4971E-03    -12.6298E+06    -67.0272E+06    -12.8590E+06    -1.90101E+06    -27.0481E-03     53.9910E-03    -26.9430E-03     3.47731E-03    -26.9954E-03     53.6930E-03    -26.8918E-03     3.45106E-03
             126     114.727E-09     90.4967E-03    -14.0529E+06    -72.9931E+06    -14.0397E+06    -1.65066E+06    -27.0781E-03     54.1314E-03    -27.0532E-03     3.48019E-03    -27.0222E-03     53.8073E-03    -26.9972E-03     3.45719E-03
             127    -180.229E-09     89.4957E-03    -16.2496E+06    -78.9322E+06    -16.2387E+06    -1.66801E+06    -27.1047E-03     54.2461E-03    -27.1414E-03     3.41217E-03    -27.0480E-03     53.8987E-03    -27.0846E-03     3.38903E-03
             128     176.200E-09     88.4951E-03    -19.7376E+06    -84.1283E+06    -20.0023E+06    -1.25661E+06    -27.1530E-03     54.3111E-03    -27.1581E-03     3.37383E-03    -27.1007E-03     53.9482E-03    -27.1075E-03     3.35604E-03
             129    -189.295E-09     87.4941E-03    -22.4490E+06    -87.5853E+06    -22.5154E+06    -732.214E+03    -27.1650E-03     54.3327E-03    -27.1677E-03     3.32626E-03    -27.1176E-03     53.9602E-03    -27.1208E-03     3.31520E-03
             130     191.844E-09     86.4936E-03    -23.6729E+06    -90.6002E+06    -23.4058E+06    -1.15093E+06    -27.2040E-03     54.3936E-03    -27.1896E-03     3.34225E-03    -27.1571E-03     54.0090E-03    -27.1409E-03     3.32575E-03
             131    -171.277E-09     85.4922E-03    -24.4453E+06    -94.2313E+06    -24.7591E+06    -1.01209E+06    -27.2234E-03     54.4211E-03    -27.1976E-03     3.44194E-03    -27.1731E-03     54.0214E-03    -27.1494E-03     3.42716E-03
             132     186.913E-09     84.4915E-03    -24.1294E+06    -97.9798E+06    -23.7107E+06    -1.06662E+06    -27.1760E-03     54.4095E-03    -27.2335E-03     3.48017E-03    -27.1202E-03     53.9891E-03    -27.1750E-03     3.46466E-03
             133    -304.016E-09     83.4906E-03    -23.3578E+06    -100.364E+06    -24.2893E+06    -333.670E+03    -27.1895E-03     54.4278E-03    -27.2382E-03     3.42499E-03    -27.1256E-03     53.9952E-03    -27.1803E-03     3.41899E-03
             134     319.976E-09     82.4896E-03    -25.0461E+06    -101.024E+06    -24.3513E+06     16.7513E+03    -27.2606E-03     54.4447E-03    -27.1841E-03     3.42968E-03    -27.2040E-03     54.0113E-03    -27.1231E-03     3.42824E-03
             135    -199.603E-09     81.4889E-03    -24.2552E+06    -102.459E+06    -24.5330E+06    -798.432E+03    -27.2674E-03     54.4147E-03    -27.1473E-03     3.43877E-03    -27.2045E-03     53.9733E-03    -27.0863E-03     3.42674E-03
             136     280.950E-09     80.4878E-03    -24.4360E+06    -104.011E+06    -24.3718E+06    -214.303E+03    -27.2402E-03     54.4001E-03    -27.1599E-03     3.45158E-03    -27.1762E-03     53.9510E-03    -27.0955E-03     3.44709E-03
             137    -226.441E-09     79.4873E-03    -24.9290E+06    -105.256E+06    -24.8586E+06    -519.935E+03    -27.1756E-03     54.3721E-03    -27.1965E-03     3.39305E-03    -27.1116E-03     53.9182E-03    -27.1320E-03     3.38467E-03
             138     130.948E-09     78.4862E-03    -25.2039E+06    -106.389E+06    -25.3631E+06    -210.150E+03    -27.1740E-03     54.3542E-03    -27.1802E-03     3.35557E-03    -27.1090E-03     53.8957E-03    -27.1162E-03     3.35119E-03
             139    -53.2926E-09     77.4858E-03    -25.7930E+06    -107.122E+06    -25.7742E+06    -252.217E+03    -27.1865E-03     54.3507E-03    -27.1642E-03     3.35686E-03    -27.1228E-03     53.8900E-03    -27.1003E-03     3.35192E-03
             140     9.81085E-09     76.4847E-03    -26.1333E+06    -107.606E+06    -26.1560E+06    -248.045E+03    -27.1770E-03     54.3389E-03    -27.1619E-03     3.35639E-03    -27.1138E-03     53.8769E-03    -27.0988E-03     3.35153E-03
             141     54.8015E-09     75.4842E-03    -24.6936E+06    -109.155E+06    -24.4969E+06    -488.378E+03    -27.1662E-03     54.3411E-03    -27.1750E-03     3.41275E-03    -27.0959E-03     53.8668E-03    -27.1034E-03     3.40484E-03
             142    -137.967E-09     74.4832E-03    -21.5154E+06    -109.876E+06    -21.9833E+06     136.725E+03    -27.1616E-03     54.3228E-03    -27.1612E-03     3.38211E-03    -27.0780E-03     53.8366E-03    -27.0806E-03     3.38226E-03
             143     211.290E-09     73.4827E-03    -22.3649E+06    -108.407E+06    -22.4688E+06     739.188E+03    -27.1158E-03     54.2592E-03    -27.1434E-03     3.39105E-03    -27.0379E-03     53.7823E-03    -27.0661E-03     3.39886E-03
             144    -339.377E-09     72.4819E-03    -22.4760E+06    -105.670E+06    -22.3561E+06     778.818E+03    -27.0642E-03     54.2282E-03    -27.1640E-03     3.37479E-03    -26.9910E-03     53.7650E-03    -27.0899E-03     3.38318E-03
             145     288.748E-09     71.4813E-03    -22.2756E+06    -105.099E+06    -21.6436E+06    -350.386E+03    -27.1177E-03     54.2134E-03    -27.0957E-03     3.39062E-03    -27.0454E-03     53.7518E-03    -27.0192E-03     3.38448E-03
             146    -197.620E-09     70.4806E-03    -22.5283E+06    -106.110E+06    -23.2991E+06    -173.106E+03    -27.0958E-03     54.1369E-03    -27.0411E-03     3.42127E-03    -27.0208E-03     53.6729E-03    -26.9710E-03     3.41735E-03
             147     188.315E-09     69.4803E-03    -22.8140E+06    -105.731E+06    -22.2945E+06     285.008E+03    -27.0917E-03     54.1423E-03    -27.0506E-03     3.37480E-03    -27.0202E-03     53.6792E-03    -26.9757E-03     3.37680E-03
             148    -106.327E-09     68.4795E-03    -22.1684E+06    -105.477E+06    -22.4978E+06    -140.989E+03    -27.0922E-03     54.1626E-03    -27.0704E-03     3.38828E-03    -27.0175E-03     53.7001E-03    -26.9978E-03     3.38481E-03
             149     53.6408E-09     67.4790E-03    -22.1324E+06    -105.254E+06    -21.9153E+06     248.499E+03    -27.0788E-03     54.1710E-03    -27.0922E-03     3.42571E-03    -27.0051E-03     53.7088E-03    -27.0171E-03     3.42730E-03
             150    -27.3221E-09     66.4783E-03    -21.8191E+06    -105.042E+06    -21.9284E+06    -9.91128E+03    -27.0829E-03     54.1559E-03    -27.0730E-03     3.39509E-03    -27.0079E-03     53.6942E-03    -26.9987E-03     3.39335E-03
             151     11.7941E-09     65.4779E-03    -21.7433E+06    -104.761E+06    -21.7142E+06     236.767E+03    -27.1058E-03     54.1722E-03    -27.0664E-03     3.39286E-03    -27.0312E-03     53.7116E-03    -26.9915E-03     3.39428E-03
             152     67.8359E-09     64.4771E-03    -21.4003E+06    -104.320E+06    -21.3881E+06    -1.97537E+03    -27.1086E-03     54.2158E-03    -27.1073E-03     3.44269E-03    -27.0333E-03     53.7564E-03    -27.0319E-03     3.44098E-03
             153    -150.435E-09     63.4765E-03    -21.3804E+06    -104.232E+06    -21.4177E+06     158.423E+03    -27.0866E-03     54.2104E-03    -27.1238E-03     3.41974E-03    -27.0113E-03     53.7514E-03    -27.0488E-03     3.42015E-03
             154     162.037E-09     62.4759E-03    -21.7323E+06    -104.242E+06    -21.6047E+06    -140.981E+03    -27.1312E-03     54.2486E-03    -27.1175E-03     3.38685E-03    -27.0574E-03     53.7904E-03    -27.0428E-03     3.38335E-03
             155    -153.432E-09     61.4752E-03    -21.8834E+06    -104.455E+06    -21.9860E+06    -180.237E+03    -27.1513E-03     54.2886E-03    -27.1373E-03     3.38059E-03    -27.0774E-03     53.8301E-03    -27.0640E-03     3.37659E-03
             156     163.072E-09     60.4744E-03    -22.1186E+06    -104.999E+06    -22.0472E+06    -242.909E+03    -27.1723E-03     54.2985E-03    -27.1262E-03     3.32795E-03    -27.0988E-03     53.8377E-03    -27.0521E-03     3.32313E-03
             157    -96.0728E-09     59.4739E-03    -21.9748E+06    -104.956E+06    -22.2545E+06     143.069E+03    -27.1874E-03     54.3134E-03    -27.1260E-03     3.34200E-03    -27.1129E-03     53.8529E-03    -27.0532E-03     3.34216E-03
             158     128.465E-09     58.4728E-03    -22.0856E+06    -104.733E+06    -21.7389E+06     37.0919E+03    -27.1626E-03     54.3526E-03    -27.1900E-03     3.45123E-03    -27.0897E-03     53.8926E-03    -27.1148E-03     3.45006E-03
             159     185.254E-09     56.4713E-03    -21.9455E+06    -104.033E+06    -21.4822E+06     254.457E+03    -27.1513E-03     54.2871E-03    -27.1359E-03     3.36855E-03    -27.0790E-03     53.8301E-03    -27.0606E-03     3.37024E-03
             160    -133.158E-09     55.4711E-03    -21.4915E+06    -103.822E+06    -21.8442E+06    -85.8868E+03    -27.1665E-03     54.2902E-03    -27.1237E-03     3.32351E-03    -27.0918E-03     53.8341E-03    -27.0512E-03     3.32078E-03
             161     147.015E-09     54.4697E-03    -21.5823E+06    -103.378E+06    -21.3654E+06     213.545E+03    -27.1617E-03     54.3036E-03    -27.1420E-03     3.36109E-03    -27.0888E-03     53.8492E-03    -27.0676E-03     3.36223E-03
             162    -129.019E-09     53.4696E-03    -21.6279E+06    -103.398E+06    -21.6577E+06    -91.3733E+03    -27.1157E-03     54.2910E-03    -27.1752E-03     3.40159E-03    -27.0426E-03     53.8369E-03    -27.1022E-03     3.39876E-03
             163     1.18859E-09     52.4682E-03    -21.2655E+06    -102.999E+06    -21.3752E+06     208.966E+03    -27.1191E-03     54.2843E-03    -27.1652E-03     3.43488E-03    -27.0451E-03     53.8313E-03    -27.0919E-03     3.43585E-03
             164     39.3057E-09     51.4680E-03    -21.3003E+06    -102.710E+06    -21.2042E+06    -66.7069E+03    -27.1336E-03     54.2572E-03    -27.1236E-03     3.49420E-03    -27.0605E-03     53.8054E-03    -27.0498E-03     3.49153E-03
             165    -66.6791E-09     50.4669E-03    -21.0929E+06    -102.394E+06    -21.2257E+06     66.4633E+03    -27.1219E-03     54.2154E-03    -27.0935E-03     3.44738E-03    -27.0482E-03     53.7649E-03    -27.0206E-03     3.44651E-03
             166     136.934E-09     49.4668E-03    -21.3209E+06    -102.243E+06    -21.1129E+06    -33.9665E+03    -27.0934E-03     54.1825E-03    -27.0891E-03     3.36151E-03    -27.0212E-03     53.7330E-03    -27.0155E-03     3.35944E-03
             167    -202.382E-09     48.4658E-03    -21.1516E+06    -102.182E+06    -21.4052E+06     147.754E+03    -27.0818E-03     54.1803E-03    -27.0985E-03     3.32573E-03    -27.0083E-03     53.7312E-03    -27.0267E-03     3.32605E-03
             168     230.510E-09     47.4655E-03    -21.0842E+06    -101.828E+06    -20.8700E+06     28.2527E+03    -27.0654E-03     54.1656E-03    -27.1002E-03     3.35741E-03    -26.9930E-03     53.7175E-03    -27.0263E-03     3.35618E-03
             169    -322.307E-09     46.4646E-03    -21.0935E+06    -101.968E+06    -21.2900E+06     16.1258E+03    -27.0255E-03     54.1055E-03    -27.0800E-03     3.36015E-03    -26.9523E-03     53.6573E-03    -27.0080E-03     3.35877E-03
             170     311.185E-09     45.4643E-03    -21.2583E+06    -101.731E+06    -21.1905E+06     152.129E+03    -27.0211E-03     54.0344E-03    -27.0132E-03     3.31898E-03    -26.9492E-03     53.5874E-03    -26.9408E-03     3.31937E-03
             171    -290.467E-09     44.4638E-03    -21.2206E+06    -101.590E+06    -21.1421E+06    -56.3423E+03    -26.9930E-03     53.9821E-03    -26.9891E-03     3.31308E-03    -26.9211E-03     53.5357E-03    -26.9167E-03     3.31075E-03
             172     272.429E-09     43.4635E-03    -20.9969E+06    -101.416E+06    -21.1119E+06    -90.5539E+03    -26.9709E-03     53.9547E-03    -26.9837E-03     3.29502E-03    -26.8983E-03     53.5088E-03    -26.9118E-03     3.29221E-03
             173    -283.015E-09     42.4629E-03    -20.9455E+06    -101.164E+06    -20.9911E+06     204.376E+03    -26.9304E-03     53.8504E-03    -26.9200E-03     3.30724E-03    -26.8580E-03     53.4056E-03    -26.8479E-03     3.30834E-03
             174     306.278E-09     41.4629E-03    -21.0012E+06    -101.031E+06    -20.8490E+06    -40.2978E+03    -26.8515E-03     53.6898E-03    -26.8383E-03     3.21664E-03    -26.7798E-03     53.2455E-03    -26.7656E-03     3.21465E-03
             175    -309.571E-09     40.4629E-03    -21.0052E+06    -101.129E+06    -21.2841E+06     147.138E+03    -26.7542E-03     53.5252E-03    -26.7709E-03     3.14925E-03    -26.6818E-03     53.0810E-03    -26.7003E-03     3.14973E-03
             176     275.880E-09     39.4628E-03    -20.9590E+06    -100.614E+06    -20.6117E+06     18.2893E+03    -26.6942E-03     53.3682E-03    -26.6740E-03     3.09415E-03    -26.6232E-03     52.9255E-03    -26.6007E-03     3.09298E-03
             177    -207.159E-09     38.4635E-03    -20.8732E+06    -100.723E+06    -21.2285E+06    -98.3033E+03    -26.5642E-03     53.1401E-03    -26.5759E-03     3.09234E-03    -26.4918E-03     52.6977E-03    -26.5057E-03     3.08961E-03
             178     109.534E-09     37.4635E-03    -20.7373E+06    -100.135E+06    -20.5707E+06     223.094E+03    -26.4134E-03     52.8920E-03    -26.4787E-03     3.17483E-03    -26.3420E-03     52.4514E-03    -26.4063E-03     3.17621E-03
             179    -129.135E-09     36.4647E-03    -20.8299E+06    -100.081E+06    -20.9647E+06    -38.1223E+03    -26.2781E-03     52.5675E-03    -26.2894E-03     3.19014E-03    -26.2067E-03     52.1278E-03    -26.2189E-03     3.18817E-03
             180     122.711E-09     35.4655E-03    -20.7701E+06    -99.7936E+06    -20.7349E+06     265.251E+03    -26.1419E-03     52.2249E-03    -26.0830E-03     3.17360E-03    -26.0710E-03     51.7862E-03    -26.0118E-03     3.17560E-03
             181    -17.0817E-09     34.4675E-03    -20.4865E+06    -99.3576E+06    -20.4505E+06     59.4489E+03    -25.9552E-03     51.8620E-03    -25.9068E-03     3.03408E-03    -25.8840E-03     51.4247E-03    -25.8353E-03     3.03348E-03
             182    -7.41807E-09     33.4690E-03    -20.1660E+06    -98.7427E+06    -20.2519E+06     246.115E+03    -25.6896E-03     51.4225E-03    -25.7329E-03     2.94972E-03    -25.6179E-03     50.9875E-03    -25.6618E-03     2.95162E-03
             183    -49.1507E-09     32.4718E-03    -20.1686E+06    -98.3136E+06    -20.1330E+06     46.4230E+03    -25.4261E-03     50.9270E-03    -25.5009E-03     2.87296E-03    -25.3552E-03     50.4940E-03    -25.4298E-03     2.87228E-03
             184    -28.9796E-09     31.4741E-03    -19.7733E+06    -97.7905E+06    -19.9111E+06     203.699E+03    -25.1715E-03     50.3665E-03    -25.1949E-03     2.89361E-03    -25.0998E-03     49.9352E-03    -25.1240E-03     2.89494E-03
             185     60.6724E-09     30.4782E-03    -19.7291E+06    -97.3610E+06    -19.6336E+06    -23.9674E+03    -24.8767E-03     49.7457E-03    -24.8689E-03     2.84318E-03    -24.8058E-03     49.3161E-03    -24.7973E-03     2.84159E-03
             186    -81.1998E-09     29.4818E-03    -19.6086E+06    -96.9733E+06    -19.8292E+06     235.167E+03    -24.5127E-03     49.0358E-03    -24.5230E-03     2.78553E-03    -24.4414E-03     48.6082E-03    -24.4531E-03     2.78737E-03
             187     77.6438E-09     28.4871E-03    -19.3359E+06    -96.0696E+06    -19.1034E+06     255.614E+03    -24.1384E-03     48.2864E-03    -24.1479E-03     2.75201E-03    -24.0681E-03     47.8619E-03    -24.0761E-03     2.75419E-03
             188    -91.6308E-09     27.4924E-03    -18.8427E+06    -95.3077E+06    -19.1016E+06     314.752E+03    -23.7036E-03     47.4452E-03    -23.7416E-03     2.67099E-03    -23.6319E-03     47.0237E-03    -23.6716E-03     2.67397E-03
             189     32.5935E-09     26.4994E-03    -18.6893E+06    -94.3744E+06    -18.5071E+06     278.360E+03    -23.2300E-03     46.5267E-03    -23.2968E-03     2.57785E-03    -23.1597E-03     46.1089E-03    -23.2254E-03     2.58040E-03
             190    -91.9823E-09     25.5064E-03    -18.3241E+06    -93.5674E+06    -18.6402E+06     181.474E+03    -22.7398E-03     45.5377E-03    -22.7979E-03     2.44332E-03    -22.6687E-03     45.1236E-03    -22.7289E-03     2.44467E-03
             191     42.7895E-09     24.5154E-03    -18.3471E+06    -92.7066E+06    -18.2472E+06     344.554E+03    -22.2399E-03     44.5053E-03    -22.2654E-03     2.39234E-03    -22.1708E-03     44.0950E-03    -22.1956E-03     2.39586E-03
             192    -39.7351E-09     23.5243E-03    -18.0391E+06    -91.8299E+06    -18.1530E+06     207.969E+03    -21.7048E-03     43.4489E-03    -21.7441E-03     2.32135E-03    -21.6355E-03     43.0423E-03    -21.6756E-03     2.32315E-03
             193    -36.2993E-09     22.5357E-03    -17.7093E+06    -90.7725E+06    -17.7329E+06     288.832E+03    -21.1447E-03     42.3541E-03    -21.2095E-03     2.17115E-03    -21.0759E-03     41.9518E-03    -21.1409E-03     2.17407E-03
             194    -4.23017E-09     21.5466E-03    -16.9631E+06    -89.5057E+06    -17.2116E+06     473.332E+03    -20.5694E-03     41.1520E-03    -20.5826E-03     2.01125E-03    -20.4995E-03     40.7541E-03    -20.5142E-03     2.01664E-03
             195     17.0298E-09     20.5605E-03    -16.4219E+06    -88.0104E+06    -16.2294E+06     588.062E+03    -19.9942E-03     39.9449E-03    -19.9507E-03     1.84079E-03    -19.9252E-03     39.5523E-03    -19.8804E-03     1.84776E-03
             196     47.6817E-09     19.5739E-03    -15.1893E+06    -86.0446E+06    -15.3016E+06     556.793E+03    -19.4054E-03     38.7710E-03    -19.3656E-03     1.69332E-03    -19.3344E-03     38.3851E-03    -19.2953E-03     1.69995E-03
             197    -44.5547E-09     18.5897E-03    -14.3230E+06     -83.858E+06    -14.2076E+06     579.625E+03    -18.7188E-03     37.4558E-03    -18.7370E-03     1.48435E-03    -18.6483E-03     37.0780E-03    -18.6657E-03     1.49130E-03
             198     9.78347E-09     17.6061E-03    -13.4521E+06    -81.9571E+06    -13.3033E+06     291.350E+03    -18.1565E-03     36.2317E-03    -18.0753E-03     1.28510E-03    -18.0856E-03     35.8609E-03    -18.0035E-03     1.28837E-03
             199     169.527E-09     16.6242E-03    -12.3963E+06    -80.0081E+06    -12.5881E+06     600.858E+03    -17.5902E-03     35.0638E-03    -17.4736E-03     1.12141E-03    -17.5179E-03     34.7001E-03    -17.4025E-03     1.12877E-03
             200    -145.257E-09     15.6427E-03    -10.8896E+06    -77.0741E+06    -11.0009E+06     1.00790E+06    -16.8662E-03     33.7404E-03    -16.8742E-03     1.09649E-03    -16.7930E-03     33.3869E-03    -16.8016E-03     1.10918E-03
             201     105.198E-09     14.6630E-03    -8.32503E+06    -73.4813E+06    -8.69370E+06     1.18905E+06    -16.2119E-03     32.4180E-03    -16.2061E-03     1.05377E-03    -16.1344E-03     32.0754E-03    -16.1309E-03     1.06883E-03
             202    -59.3250E-09     13.6846E-03    -5.95322E+06    -70.4194E+06    -6.14929E+06     843.343E+03    -15.4463E-03     30.9371E-03    -15.4908E-03     830.766E-06    -15.3650E-03     30.6027E-03    -15.4108E-03     841.392E-06
             203    -67.8700E-09     12.7077E-03    -5.55904E+06    -68.2497E+06    -5.69785E+06     454.106E+03    -14.5979E-03     29.1548E-03    -14.5569E-03     575.716E-06    -14.5184E-03     28.8300E-03    -14.4784E-03     581.342E-06
             204     266.555E-09     11.7328E-03    -8.77083E+06    -67.7771E+06    -8.32898E+06     191.903E+03    -13.7695E-03     27.3143E-03    -13.5448E-03     537.516E-06    -13.7030E-03     27.0003E-03    -13.4754E-03     539.758E-06
             205    -60.9753E-09     10.7593E-03    -11.9174E+06    -67.7642E+06    -11.6825E+06    -60.4832E+03    -12.8962E-03     25.6996E-03    -12.8034E-03     488.267E-06    -12.8405E-03     25.3952E-03    -12.7463E-03     487.206E-06
             206     22.8380E-09     9.78781E-03    -14.5155E+06    -68.3219E+06    -14.2250E+06    -135.092E+03    -12.3770E-03     24.7324E-03    -12.3554E-03     521.709E-06    -12.3297E-03     24.4326E-03    -12.3064E-03     519.672E-06
             207     56.6663E-09     8.81601E-03    -15.1003E+06    -69.0718E+06    -14.9529E+06    -475.543E+03    -12.3868E-03     24.7762E-03    -12.3894E-03     736.402E-06    -12.3404E-03     24.4746E-03    -12.3421E-03     729.970E-06
             208    -139.405E-09     7.84457E-03    -14.6057E+06    -70.8831E+06    -14.2589E+06    -508.572E+03    -12.9616E-03     25.9009E-03    -12.9394E-03     1.01159E-03    -12.9110E-03     25.5885E-03    -12.8867E-03     1.00476E-03
             209     265.052E-09     6.86999E-03    -12.5439E+06    -72.9710E+06    -12.5148E+06    -662.432E+03    -13.8520E-03     27.7361E-03    -13.8841E-03     1.16483E-03    -13.7906E-03     27.4076E-03    -13.8227E-03     1.15605E-03
             210    -447.727E-09     5.89573E-03    -10.7430E+06    -75.0561E+06    -11.1613E+06    -915.236E+03    -14.9690E-03     30.0357E-03    -15.0667E-03     1.13047E-03    -14.8976E-03     29.6923E-03    -14.9981E-03     1.11846E-03
             211     451.941E-09     4.91622E-03    -11.3043E+06    -77.5666E+06    -11.2046E+06    -637.597E+03    -16.2572E-03     32.4894E-03    -16.2322E-03     1.17784E-03    -16.1849E-03     32.1343E-03    -16.1593E-03     1.16946E-03
             212    -411.030E-09     3.93702E-03    -11.9722E+06    -79.6317E+06    -11.7493E+06    -409.050E+03    -17.2415E-03     34.5940E-03    -17.3525E-03     1.10261E-03    -17.1687E-03     34.2304E-03    -17.2784E-03     1.09724E-03
             213     175.842E-09     2.95384E-03    -12.2474E+06    -81.4890E+06    -12.4941E+06    -594.972E+03    -18.1966E-03     36.4325E-03    -18.2359E-03     810.689E-06    -18.1214E-03     36.0611E-03    -18.1625E-03     802.885E-06
             214    -13.4720E-09     1.97095E-03    -12.8088E+06    -83.0573E+06    -13.1631E+06    -502.455E+03    -18.9343E-03     37.8400E-03    -18.9057E-03     537.545E-06    -18.8586E-03     37.4626E-03    -18.8325E-03     530.963E-06
             215    -102.727E-09     985.171E-06    -13.7129E+06    -84.2170E+06    -13.4996E+06    -248.940E+03    -19.3707E-03     38.6697E-03    -19.2990E-03     325.001E-06    -19.2973E-03     38.2882E-03    -19.2245E-03     321.791E-06
             216     882.754E-06    -291.434E-18    -13.9691E+06    -84.5713E+06    -13.4619E+06    -388.424E+03    -19.6272E-03     39.0730E-03    -19.4458E-03     220.526E-06    -19.5547E-03     38.6900E-03    -19.3702E-03     215.486E-06
             217     1.76491E-03    -291.434E-18    -13.2011E+06    -84.3685E+06    -13.4450E+06    -324.693E+03    -19.7688E-03     39.3516E-03    -19.5828E-03     525.739E-06    -19.6930E-03     38.9684E-03    -19.5086E-03     521.496E-06
             218     2.64764E-03    -291.434E-18    -12.5948E+06    -84.3056E+06    -13.3883E+06    -444.576E+03    -20.0946E-03     39.7886E-03    -19.6941E-03     751.143E-06    -20.0159E-03     39.4048E-03    -19.6205E-03     745.355E-06
             219     3.52899E-03    -291.434E-18    -12.0173E+06    -84.5594E+06    -13.7959E+06    -752.824E+03    -20.5885E-03     40.4369E-03    -19.8485E-03     1.01208E-03    -20.5059E-03     40.0516E-03    -19.7774E-03     1.00221E-03
             220     4.41112E-03    -291.434E-18    -11.1195E+06    -85.1782E+06    -15.1515E+06    -1.07231E+06    -21.2068E-03     41.2526E-03    -20.0457E-03     1.30752E-03    -21.1169E-03     40.8648E-03    -19.9819E-03     1.29354E-03
             221     5.29090E-03    -291.434E-18    -9.66713E+06    -85.9151E+06    -17.4397E+06    -1.65434E+06    -21.9489E-03     42.2302E-03    -20.2813E-03     1.81765E-03    -21.8474E-03     41.8400E-03    -20.2300E-03     1.79605E-03
             222     6.17202E-03    -291.434E-18    -7.80651E+06    -86.4695E+06    -20.5848E+06    -2.09347E+06    -22.8154E-03     43.3693E-03    -20.5539E-03     2.07372E-03    -22.6992E-03     42.9781E-03    -20.5201E-03     2.04637E-03
             223     7.05030E-03    -291.434E-18    -5.81115E+06    -87.2333E+06    -25.2059E+06    -2.62556E+06    -23.8661E-03     44.7300E-03    -20.8640E-03     2.71358E-03    -23.7321E-03     44.3389E-03    -20.8551E-03     2.67916E-03
             224     7.92922E-03    -291.434E-18    -2.76737E+06    -87.1788E+06    -30.6171E+06    -4.16693E+06    -24.9692E-03     46.1796E-03    -21.2104E-03     3.20997E-03    -24.8122E-03     45.7922E-03    -21.2331E-03     3.15541E-03
             225     8.80572E-03    -291.434E-18     1.49273E+06    -85.3279E+06    -36.5175E+06    -4.39534E+06    -26.2309E-03     47.8207E-03    -21.5899E-03     3.86938E-03    -26.0467E-03     47.4450E-03    -21.6509E-03     3.81146E-03
             226     9.68274E-03    -291.434E-18     5.52985E+06    -76.0584E+06    -40.2830E+06    -4.94378E+06    -27.5585E-03     49.5678E-03    -22.0093E-03     4.88132E-03    -27.3622E-03     49.2379E-03    -22.1085E-03     4.81604E-03
             227     10.5552E-03    -291.434E-18     10.3864E+06    -54.7412E+06    -37.3192E+06    -4.23574E+06    -28.8889E-03     51.3669E-03    -22.4780E-03     5.65100E-03    -28.7036E-03     51.1325E-03    -22.6003E-03     5.59325E-03
             228     11.4327E-03    -291.434E-18     11.8455E+06    -26.2826E+06    -30.4720E+06    -2.30013E+06    -30.4247E-03     53.4216E-03    -22.9970E-03     7.39162E-03    -30.2834E-03     53.3172E-03    -23.1284E-03     7.35885E-03
             229     12.2976E-03    -291.434E-18     12.9110E+06     7.57163E+06    -16.9583E+06    -1.73773E+06    -31.5430E-03     55.1087E-03    -23.5657E-03     8.35681E-03    -31.4652E-03     55.1528E-03    -23.6802E-03     8.32745E-03
             230     13.1783E-03    -291.434E-18     12.2406E+06     32.2088E+06     1.20626E+06     671.492E+03    -33.7672E-03     57.9810E-03    -24.2138E-03     10.8031E-03    -33.7551E-03     58.1231E-03    -24.2722E-03     10.8033E-03
             231     14.0349E-03    -291.434E-18     12.8202E+06     50.5102E+06     27.7644E+06    -1.68935E+06    -37.7948E-03     62.8286E-03    -25.0338E-03     16.1845E-03    -37.8457E-03     63.0240E-03    -24.9868E-03     16.1477E-03
             232     14.9055E-03    -291.434E-18     12.2909E+06     71.1894E+06     61.9277E+06     3.17058E+06    -47.6571E-03     73.8644E-03    -26.2074E-03     35.1097E-03    -47.7914E-03     74.1136E-03    -26.0188E-03     35.1376E-03
             233     15.7340E-03    -291.434E-18     2.71711E+06     74.9595E+06     73.0261E+06     12.5526E+06    -56.3940E-03     84.1149E-03    -27.7210E-03     55.6381E-03    -56.6107E-03     84.3880E-03    -27.4685E-03     55.7519E-03
             234     16.5736E-03    -291.434E-18     7.51361E+06     93.9547E+06     82.5433E+06     5.30785E+06    -74.8352E-03     104.563E-03    -29.7282E-03     80.1356E-03    -75.3421E-03     105.206E-03    -29.4626E-03     79.4670E-03
             235     17.4385E-03     1.12453E-03    -3.18721E+06     117.582E+06     87.1588E+06     1.58427E+06    -109.965E-03     139.621E-03    -29.6568E-03     142.303E-03    -111.794E-03     141.637E-03    -29.3869E-03     139.830E-03
             236     17.4845E-03     2.27354E-03    -6.76768E+06     130.251E+06     84.5415E+06     10.9027E+06    -112.829E-03     140.526E-03    -27.6971E-03     196.419E-03    -116.351E-03     144.259E-03    -27.4534E-03     193.577E-03
             237     17.5110E-03     3.36655E-03     5.44911E+06     148.062E+06     96.0050E+06     9.58922E+06    -93.8243E-03     120.604E-03    -26.7799E-03     228.092E-03    -99.2336E-03     126.287E-03    -26.5225E-03     226.632E-03
             238     17.5106E-03     4.42945E-03    -4.59407E+06     156.570E+06     103.183E+06     3.37720E+06    -95.6344E-03     121.996E-03    -26.3619E-03     251.525E-03    -102.826E-03     129.434E-03    -26.0664E-03     250.405E-03
             239     17.5155E-03     5.51257E-03    -7.61072E+06     162.531E+06     106.776E+06     3.50552E+06    -96.1712E-03     122.366E-03    -26.1944E-03     261.681E-03    -104.540E-03     130.979E-03    -25.8851E-03     261.121E-03
             240     17.5183E-03     6.56639E-03    -4.59014E+06     167.183E+06     109.181E+06     2.60199E+06    -88.2162E-03     114.466E-03    -26.2495E-03     275.411E-03    -97.7529E-03     124.264E-03    -25.9394E-03     276.364E-03
             241     17.5189E-03     7.62166E-03    -2.97784E+06     170.473E+06     110.624E+06     1.67959E+06    -84.6701E-03     110.944E-03    -26.2742E-03     283.065E-03    -94.9369E-03     121.485E-03    -25.9639E-03     284.887E-03
             242     17.5201E-03     8.66273E-03    -2.41218E+06     172.783E+06     111.406E+06     2.00817E+06    -80.9772E-03     107.307E-03    -26.3302E-03     278.564E-03    -91.4732E-03     118.083E-03    -26.0202E-03     281.192E-03
             243     17.5179E-03     9.69882E-03    -3.14658E+06     174.735E+06     111.400E+06     1.72608E+06    -78.2980E-03     104.708E-03    -26.4102E-03     270.955E-03    -88.9958E-03     115.690E-03    -26.1020E-03     274.377E-03
             244     17.5177E-03     10.7368E-03    -2.08039E+06     177.785E+06     112.360E+06     454.065E+03    -77.5005E-03     103.929E-03    -26.4285E-03     275.860E-03    -88.8932E-03     115.622E-03    -26.1215E-03     279.906E-03
             245     17.5206E-03     11.7997E-03    -2.24298E+06     177.315E+06     111.724E+06    -633.600E+03    -72.7149E-03     99.2453E-03    -26.5304E-03     291.610E-03    -85.0776E-03     111.909E-03    -26.2256E-03     296.587E-03
             246     17.5186E-03     12.8230E-03    -3.59961E+06     177.710E+06     111.844E+06    -337.719E+03    -68.5164E-03     95.1606E-03    -26.6442E-03     294.195E-03    -81.2914E-03     108.227E-03    -26.3375E-03     300.173E-03
             247     17.5192E-03     13.8380E-03    -3.29752E+06     180.356E+06     113.934E+06    -159.840E+03    -68.3800E-03     94.9866E-03    -26.6065E-03     283.964E-03    -80.9568E-03     107.862E-03    -26.2936E-03     290.431E-03
             248     17.5209E-03     14.8863E-03    -2.01853E+06     180.525E+06     114.596E+06    -906.112E+03    -65.8616E-03     92.4802E-03    -26.6185E-03     288.329E-03    -78.9544E-03     105.876E-03    -26.3044E-03     295.451E-03
             249     17.5209E-03     15.9118E-03    -1.34792E+06     182.144E+06     116.052E+06     90.8506E+03    -62.4573E-03     89.1503E-03    -26.6929E-03     298.472E-03    -76.4306E-03     103.429E-03    -26.3748E-03     306.572E-03
             250     17.5216E-03     16.9337E-03    -1.48571E+06     184.579E+06     117.169E+06     119.133E+03    -60.8553E-03     87.5597E-03    -26.7044E-03     299.179E-03    -75.1328E-03     102.148E-03    -26.3841E-03     307.831E-03
             251     17.5221E-03     17.9600E-03    -1.74102E+06     186.041E+06     117.621E+06    -87.4885E+03    -59.4699E-03     86.1876E-03    -26.7177E-03     302.192E-03    -74.1450E-03     101.176E-03    -26.3969E-03     311.371E-03
             252     17.5222E-03     18.9813E-03    -866.135E+03     187.895E+06     119.041E+06     819.264E+03    -57.3951E-03     84.1475E-03    -26.7524E-03     305.352E-03    -72.4494E-03     99.5207E-03    -26.4284E-03     315.145E-03
             253     17.5232E-03     19.9994E-03    -1.38240E+06     187.671E+06     118.935E+06    -744.658E+03    -55.0976E-03     81.8895E-03    -26.7918E-03     304.869E-03    -70.3094E-03     97.4175E-03    -26.4673E-03     315.192E-03
             254     17.5220E-03     21.0125E-03    -4.50802E+06     185.029E+06     116.861E+06    -1.28677E+06    -55.0069E-03     81.8212E-03    -26.8143E-03     304.032E-03    -70.3649E-03     97.4812E-03    -26.4917E-03     314.662E-03
             255     17.5215E-03     22.0343E-03    -5.18936E+06     185.039E+06     116.655E+06     23.0022E+03    -54.2348E-03     81.0932E-03    -26.8584E-03     305.024E-03    -69.8129E-03     96.9717E-03    -26.5359E-03     315.991E-03
             256     17.5221E-03     23.0489E-03     -4.4239E+06     186.136E+06     117.531E+06     437.313E+03    -51.6666E-03     78.6035E-03    -26.9368E-03     308.081E-03    -67.5604E-03     94.8015E-03    -26.6127E-03     319.685E-03
             257     17.5210E-03     24.0620E-03    -3.89125E+06     187.301E+06     118.278E+06     719.918E+03    -49.6510E-03     76.6445E-03    -26.9935E-03     310.017E-03    -65.7514E-03     93.0530E-03    -26.6681E-03     322.139E-03
             258     17.5224E-03     25.0729E-03    -3.84698E+06     188.446E+06     119.008E+06     326.236E+03    -47.9715E-03     75.0142E-03    -27.0427E-03     312.362E-03    -64.2823E-03     91.6352E-03    -26.7153E-03     324.853E-03
             259     17.5207E-03     26.0846E-03    -2.97976E+06     190.113E+06     120.184E+06     1.10473E+06    -46.2660E-03     73.3514E-03    -27.0853E-03     315.194E-03    -62.7940E-03     90.1951E-03    -26.7558E-03     328.051E-03
             260     17.5235E-03     27.0886E-03    -3.34735E+06     190.459E+06     120.180E+06     481.417E+03    -45.4405E-03     72.5364E-03    -27.0959E-03     315.678E-03    -62.0677E-03     89.4793E-03    -26.7663E-03     328.782E-03
             261     17.5204E-03     28.0983E-03    -2.01410E+06     192.056E+06     121.236E+06     802.086E+03    -44.5546E-03     71.6568E-03    -27.1022E-03     316.690E-03    -61.2495E-03     88.6748E-03    -26.7715E-03     329.948E-03
             262     17.5252E-03     29.1030E-03    -2.26782E+06     192.330E+06     121.390E+06    -1.02213E+06    -44.0509E-03     71.1690E-03    -27.1181E-03     318.161E-03    -60.8825E-03     88.3233E-03    -26.7867E-03     331.557E-03
             263     17.5188E-03     30.1094E-03    -3.87528E+06     191.361E+06     120.660E+06     386.525E+03    -43.4616E-03     70.6169E-03    -27.1553E-03     317.016E-03    -60.3006E-03     87.7716E-03    -26.8239E-03     330.613E-03
             264     17.5249E-03     31.1113E-03    -2.86717E+06     192.790E+06     121.431E+06     536.874E+03    -41.9938E-03     69.1661E-03    -27.1723E-03     317.597E-03    -58.8529E-03     86.3475E-03    -26.8406E-03     331.459E-03
             265     17.5206E-03     32.1156E-03    -3.58263E+06     192.711E+06     121.198E+06    -109.324E+03    -42.0812E-03     69.2419E-03    -27.1607E-03     320.176E-03    -59.0832E-03     86.5641E-03    -26.8289E-03     334.036E-03
             266     17.5243E-03     33.1248E-03    -3.48418E+06     193.272E+06     121.544E+06     1.15386E+06    -41.4525E-03     68.6402E-03    -27.1876E-03     320.891E-03    -58.5929E-03     86.1019E-03    -26.8551E-03     334.961E-03
             267     17.5205E-03     34.1165E-03    -1.87155E+06     195.147E+06     123.041E+06    -303.387E+03    -40.6246E-03     67.8247E-03    -27.2000E-03     318.729E-03    -57.6663E-03     85.1957E-03    -26.8651E-03     332.951E-03
             268     17.5247E-03     35.1261E-03    -2.97135E+06     194.492E+06     122.415E+06    -597.072E+03    -41.5149E-03     68.6987E-03    -27.1838E-03     320.549E-03    -58.6384E-03     86.1472E-03    -26.8494E-03     334.639E-03
             269     17.5201E-03     36.1304E-03    -3.73039E+06     193.973E+06     121.940E+06     276.883E+03    -41.3652E-03     68.5712E-03    -27.2061E-03     322.515E-03    -58.6742E-03     86.2020E-03    -26.8722E-03     336.737E-03
             270     17.5241E-03     37.1276E-03    -2.38607E+06     195.250E+06     122.983E+06     680.826E+03    -39.4117E-03     66.6555E-03    -27.2438E-03     319.956E-03    -56.5409E-03     84.1127E-03    -26.9085E-03     334.415E-03
             271     17.5211E-03     38.1282E-03    -2.74107E+06     194.661E+06     122.729E+06    -456.658E+03    -39.8332E-03     67.0728E-03    -27.2396E-03     321.462E-03    -57.0431E-03     84.6081E-03    -26.9043E-03     335.884E-03
             272     17.5230E-03     39.1348E-03    -3.29836E+06     194.112E+06     122.282E+06    -136.629E+03    -40.5285E-03     67.7590E-03    -27.2306E-03     321.886E-03    -57.7574E-03     85.3108E-03    -26.8958E-03     336.175E-03
             273     17.5216E-03     40.1297E-03    -3.20338E+06     194.326E+06     122.517E+06     140.863E+03    -39.2322E-03     66.4864E-03    -27.2542E-03     319.855E-03    -56.3170E-03     83.8944E-03    -26.9188E-03     334.320E-03
             274     17.5228E-03     41.1333E-03    -3.00208E+06     194.829E+06     122.861E+06     106.697E+03    -39.2816E-03     66.5324E-03    -27.2508E-03     320.160E-03    -56.3966E-03     83.9721E-03    -26.9147E-03     334.668E-03
             275     17.5221E-03     42.1325E-03    -3.23501E+06     194.854E+06     122.868E+06     53.0921E+03    -39.8945E-03     67.1265E-03    -27.2320E-03     320.716E-03    -57.0529E-03     84.6089E-03    -26.8955E-03     335.128E-03
             276     17.5226E-03     43.1372E-03    -2.96472E+06     195.467E+06     123.214E+06     316.017E+03    -39.7855E-03     67.0321E-03    -27.2466E-03     321.358E-03    -57.0360E-03     84.6086E-03    -26.9096E-03     335.843E-03
             277     17.5215E-03     44.1354E-03    -3.47267E+06     195.339E+06     123.040E+06    -292.817E+03    -39.7137E-03     66.9836E-03    -27.2699E-03     321.769E-03    -57.0401E-03     84.6343E-03    -26.9329E-03     336.310E-03
             278     17.5217E-03     45.1383E-03    -3.52357E+06     195.311E+06     122.795E+06     464.385E+03    -39.6172E-03     66.8764E-03    -27.2592E-03     322.587E-03    -56.9064E-03     84.4903E-03    -26.9233E-03     337.099E-03
             279     17.5236E-03     46.1377E-03    -3.32194E+06     195.766E+06     122.997E+06     5.28534E+03    -39.8110E-03     67.0583E-03    -27.2472E-03     321.824E-03    -57.0046E-03     84.5782E-03    -26.9113E-03     336.241E-03
             280     17.5201E-03     47.1398E-03    -4.53026E+06     195.043E+06     122.396E+06     635.223E+03    -39.9801E-03     67.2509E-03    -27.2708E-03     318.352E-03    -57.0870E-03     84.6791E-03    -26.9351E-03     332.840E-03
             281     17.5224E-03     48.1355E-03    -2.83985E+06     196.683E+06     123.660E+06     749.660E+03    -38.8021E-03     66.0897E-03    -27.2877E-03     317.154E-03    -55.8131E-03     83.4302E-03    -26.9504E-03     331.786E-03
             282     17.5220E-03     49.1419E-03    -2.37737E+06     197.106E+06     123.984E+06    -991.032E+03    -38.6696E-03     65.9471E-03    -27.2775E-03     321.501E-03    -55.8674E-03     83.4766E-03    -26.9400E-03     336.080E-03
             283     17.5224E-03     50.1427E-03    -3.15359E+06     196.730E+06     123.667E+06    -93.4588E+03    -39.4189E-03     66.6909E-03    -27.2720E-03     323.551E-03    -56.7780E-03     84.3786E-03    -26.9344E-03     338.083E-03
             284     17.5215E-03     51.1407E-03    -2.13213E+06     197.997E+06     124.974E+06     387.324E+03    -39.4770E-03     66.7569E-03    -27.2799E-03     320.532E-03    -56.6963E-03     84.3091E-03    -26.9391E-03     335.092E-03
             285     17.5218E-03     52.1411E-03    -3.28871E+06     196.909E+06     123.658E+06    -286.585E+03    -39.6895E-03     66.9628E-03    -27.2732E-03     320.205E-03    -56.8887E-03     84.4907E-03    -26.9357E-03     334.735E-03
             286     17.5219E-03     53.1454E-03    -4.03748E+06     196.330E+06     122.867E+06     56.2689E+03    -39.7467E-03     67.0176E-03    -27.2709E-03     322.057E-03    -57.0199E-03     84.6172E-03    -26.9354E-03     336.539E-03
             287     17.5218E-03     54.1450E-03    -2.89350E+06     197.746E+06     124.296E+06     157.958E+03    -39.5267E-03     66.8178E-03    -27.2912E-03     321.361E-03    -56.7804E-03     84.4028E-03    -26.9522E-03     335.889E-03
             288     17.5210E-03     55.1437E-03    -2.86462E+06     197.802E+06     124.342E+06     85.9342E+03    -39.3353E-03     66.6352E-03    -27.2999E-03     319.633E-03    -56.4739E-03     84.1052E-03    -26.9609E-03     334.170E-03
             289     17.5221E-03     56.1457E-03    -3.34410E+06     197.485E+06     123.703E+06     288.683E+03    -39.1934E-03     66.4871E-03    -27.2938E-03     320.319E-03    -56.3352E-03     83.9594E-03    -26.9567E-03     334.852E-03
             290     17.5214E-03     57.1473E-03    -3.40515E+06     197.716E+06     123.964E+06    -262.694E+03    -39.2801E-03     66.5805E-03    -27.3004E-03     320.641E-03    -56.4675E-03     84.0982E-03    -26.9624E-03     335.184E-03
             291     17.5212E-03     58.1460E-03    -2.97667E+06     198.308E+06     124.422E+06     381.903E+03    -39.1963E-03     66.4948E-03    -27.2985E-03     320.854E-03    -56.3682E-03     83.9993E-03    -26.9597E-03     335.393E-03
             292     875.855E-06     58.4763E-03    -21.8152E+06    -104.552E+06    -21.6032E+06     96.8402E+03    -27.1575E-03     54.3338E-03    -27.1763E-03     5.71761E-03    -27.0838E-03     53.8742E-03    -27.1011E-03     5.71604E-03
             293     1.75199E-03     58.4837E-03    -21.2621E+06    -103.434E+06    -20.1973E+06     363.955E+03    -27.1707E-03     54.3339E-03    -27.1632E-03     10.5305E-03    -27.0982E-03     53.8773E-03    -27.0834E-03     10.5298E-03
             294     2.62779E-03     58.4963E-03    -20.6756E+06    -102.181E+06    -17.7152E+06     467.680E+03    -27.2060E-03     54.3736E-03    -27.1676E-03     15.6676E-03    -27.1365E-03     53.9193E-03    -27.0780E-03     15.6654E-03
             295     3.50390E-03     58.5135E-03    -19.7316E+06    -101.174E+06    -14.8862E+06     668.404E+03    -27.2507E-03     54.4271E-03    -27.1763E-03     20.9002E-03    -27.1829E-03     53.9732E-03    -27.0754E-03     20.8972E-03
             296     4.37970E-03     58.5360E-03    -18.6796E+06    -99.6466E+06    -11.8119E+06     668.385E+03    -27.3048E-03     54.4898E-03    -27.1851E-03     26.2440E-03    -27.2396E-03     54.0388E-03    -27.0726E-03     26.2369E-03
             297     5.25588E-03     58.5633E-03    -17.2386E+06    -97.7379E+06    -8.74194E+06     446.054E+03    -27.3610E-03     54.5518E-03    -27.1908E-03     31.6689E-03    -27.2976E-03     54.1056E-03    -27.0678E-03     31.6542E-03
             298     6.13173E-03     58.5963E-03    -15.4964E+06    -95.5365E+06    -4.71505E+06     583.552E+03    -27.4596E-03     54.6596E-03    -27.2000E-03     37.1653E-03    -27.3992E-03     54.2187E-03    -27.0626E-03     37.1461E-03
             299     7.00783E-03     58.6338E-03    -14.0100E+06    -94.5742E+06    -1.99226E+06     865.270E+03    -27.5376E-03     54.7418E-03    -27.2042E-03     42.6745E-03    -27.4789E-03     54.3034E-03    -27.0567E-03     42.6513E-03
             300     7.88376E-03     58.6773E-03    -12.5828E+06    -92.8334E+06    -848.032E+03     1.06336E+06    -27.6321E-03     54.8289E-03    -27.1969E-03     48.1049E-03    -27.5759E-03     54.4009E-03    -27.0482E-03     48.0746E-03
             301     8.76009E-03     58.7251E-03    -11.4462E+06    -88.3027E+06     223.300E+03     795.649E+03    -27.8646E-03     55.0544E-03    -27.1898E-03     53.7442E-03    -27.8189E-03     54.6540E-03    -27.0441E-03     53.6977E-03
             302     9.63555E-03     58.7797E-03    -10.6333E+06    -83.3801E+06    -1.11862E+06     730.508E+03    -27.9576E-03     55.1306E-03    -27.1731E-03     59.3961E-03    -27.9245E-03     54.7671E-03    -27.0423E-03     59.3336E-03
             303     10.5121E-03     58.8380E-03    -9.62319E+06    -76.8602E+06    -5.29501E+06     677.036E+03    -28.0537E-03     55.1882E-03    -27.1346E-03     64.7635E-03    -28.0363E-03     54.8792E-03    -27.0356E-03     64.6805E-03
             304     11.3878E-03     58.9020E-03    -9.40440E+06    -60.5916E+06    -6.56705E+06     576.846E+03    -28.3850E-03     55.4862E-03    -27.1013E-03     71.4014E-03    -28.4170E-03     55.2888E-03    -27.0326E-03     71.2903E-03
             305     12.2642E-03     58.9732E-03    -9.49097E+06    -39.0723E+06    -5.20801E+06     471.430E+03    -28.5019E-03     55.5803E-03    -27.0783E-03     77.2806E-03    -28.6059E-03     55.5270E-03    -27.0340E-03     77.1405E-03
             306     13.1398E-03     59.0489E-03    -9.48977E+06    -24.0290E+06    -11.9631E+06     568.702E+03    -28.4508E-03     55.4743E-03    -27.0235E-03     76.9118E-03    -28.6189E-03     55.5581E-03    -27.0348E-03     76.7409E-03
             307     14.0163E-03     59.1190E-03    -10.7748E+06     1.52887E+06    -26.4268E+06     29.8645E+03    -29.1872E-03     56.1076E-03    -26.9204E-03     94.0286E-03    -29.5763E-03     56.5405E-03    -27.0391E-03     93.7912E-03
             308     14.8902E-03     59.2279E-03    -11.4186E+06     54.6434E+06    -21.2328E+06     366.738E+03    -34.1092E-03     60.9674E-03    -26.8582E-03     176.284E-03    -35.7999E-03     62.8731E-03    -27.0271E-03     176.017E-03
             309     15.7700E-03     59.4556E-03    -9.84956E+06     130.902E+06     31.1140E+06     878.794E+03    -43.6846E-03     70.6516E-03    -26.9670E-03     306.441E-03    -52.9183E-03     80.2248E-03    -26.9869E-03     307.733E-03
             310     16.6469E-03     59.8238E-03    -5.91937E+06     186.146E+06     97.4074E+06    -18.8810E+03    -44.5016E-03     71.6803E-03    -27.1787E-03     347.002E-03    -60.9251E-03     88.4611E-03    -26.9530E-03     355.646E-03
             311     876.037E-06     59.4769E-03    -21.9002E+06    -104.688E+06    -21.5608E+06     72.2997E+03    -27.1784E-03     54.3212E-03    -27.1429E-03     5.66575E-03    -27.1049E-03     53.8610E-03    -27.0671E-03     5.66385E-03
             312     1.75183E-03     59.4846E-03    -21.3936E+06    -103.962E+06    -20.3026E+06     173.357E+03    -27.1783E-03     54.3384E-03    -27.1600E-03     10.5303E-03    -27.1055E-03     53.8795E-03    -27.0798E-03     10.5271E-03
             313     2.62795E-03     59.4969E-03    -20.3505E+06    -102.365E+06    -17.9735E+06     419.799E+03    -27.2010E-03     54.3652E-03    -27.1643E-03     15.6729E-03    -27.1292E-03     53.9099E-03    -27.0762E-03     15.6701E-03
             314     3.50376E-03     59.5144E-03    -19.0716E+06    -101.758E+06    -14.2927E+06     575.981E+03    -27.2414E-03     54.4168E-03    -27.1753E-03     20.9157E-03    -27.1703E-03     53.9581E-03    -27.0716E-03     20.9115E-03
             315     4.37995E-03     59.5366E-03    -17.6870E+06    -99.8390E+06    -10.8444E+06     949.167E+03    -27.2950E-03     54.4781E-03    -27.1830E-03     26.2413E-03    -27.2260E-03     54.0233E-03    -27.0668E-03     26.2378E-03
             316     5.25571E-03     59.5643E-03    -16.7217E+06    -97.2864E+06    -7.97790E+06     663.947E+03    -27.3589E-03     54.5459E-03    -27.1870E-03     31.6559E-03    -27.2947E-03     54.1001E-03    -27.0616E-03     31.6439E-03
             317     6.13193E-03     59.5966E-03    -15.6128E+06    -96.1665E+06    -5.11575E+06     527.340E+03    -27.4197E-03     54.6106E-03    -27.1908E-03     37.1837E-03    -27.3584E-03     54.1672E-03    -27.0543E-03     37.1639E-03
             318     7.00779E-03     59.6350E-03    -14.1764E+06    -94.9858E+06    -2.45431E+06     1.00210E+06    -27.5157E-03     54.7071E-03    -27.1914E-03     42.6690E-03    -27.4565E-03     54.2675E-03    -27.0454E-03     42.6476E-03
             319     7.88403E-03     59.6774E-03    -12.7614E+06    -93.0212E+06    -1.36348E+06     899.231E+03    -27.7451E-03     54.9343E-03    -27.1892E-03     48.2536E-03    -27.6889E-03     54.5065E-03    -27.0426E-03     48.2208E-03
             320     8.75958E-03     59.7266E-03    -11.0392E+06     -87.941E+06     215.712E+03     849.131E+03    -27.8405E-03     55.0286E-03    -27.1881E-03     53.8212E-03    -27.7933E-03     54.6294E-03    -27.0435E-03     53.7755E-03
             321     9.63606E-03     59.7798E-03    -9.79109E+06    -83.4551E+06    -605.168E+03     678.510E+03    -27.8378E-03     55.0053E-03    -27.1675E-03     59.2653E-03    -27.8011E-03     54.6393E-03    -27.0353E-03     59.2024E-03
             322     10.5122E-03     59.8387E-03    -9.72603E+06    -76.8932E+06    -5.79417E+06     743.467E+03    -28.0945E-03     55.2169E-03    -27.1224E-03     64.6555E-03    -28.0769E-03     54.9086E-03    -27.0257E-03     64.5733E-03
             323     11.3884E-03     59.9030E-03    -9.74489E+06    -60.6413E+06    -6.60193E+06     669.086E+03    -28.3676E-03     55.4616E-03    -27.0940E-03     71.2126E-03    -28.4014E-03     55.2647E-03    -27.0250E-03     71.1024E-03
             324     12.2636E-03     59.9744E-03    -9.60689E+06    -39.2688E+06    -5.15301E+06     579.613E+03    -28.5042E-03     55.5761E-03    -27.0719E-03     77.1789E-03    -28.6084E-03     55.5217E-03    -27.0268E-03     77.0402E-03
             325     13.1403E-03     60.0490E-03    -9.30561E+06    -23.6325E+06    -11.4764E+06     432.984E+03    -28.4390E-03     55.4569E-03    -27.0180E-03     77.1660E-03    -28.6083E-03     55.5426E-03    -27.0276E-03     76.9931E-03
             326     14.0152E-03     60.1212E-03    -9.69599E+06     1.21631E+06    -26.9097E+06     947.690E+03    -28.8597E-03     55.7586E-03    -26.8988E-03     94.3265E-03    -29.2393E-03     56.1861E-03    -27.0211E-03     94.1057E-03
             327     14.8936E-03     60.2273E-03    -10.7689E+06     54.1040E+06    -22.9148E+06     529.877E+03    -34.1643E-03     60.9894E-03    -26.8251E-03     175.831E-03    -35.8469E-03     62.8923E-03    -27.0025E-03     175.560E-03
             328     15.7686E-03     60.4557E-03    -9.44555E+06     131.504E+06     32.0648E+06    -207.392E+03    -44.3755E-03     71.3454E-03    -26.9699E-03     306.010E-03    -53.6169E-03     80.9271E-03    -26.9866E-03     307.229E-03
             329     16.6430E-03     60.8249E-03    -5.83140E+06     186.757E+06     98.5782E+06     188.409E+03    -44.4846E-03     71.6865E-03    -27.2019E-03     347.056E-03    -60.9002E-03     88.4586E-03    -26.9714E-03     355.713E-03
             330     875.887E-06     60.4777E-03    -21.8553E+06    -104.744E+06    -21.7073E+06    -90.0028E+03    -27.1719E-03     54.3111E-03    -27.1391E-03     5.66413E-03    -27.0980E-03     53.8507E-03    -27.0641E-03     5.66013E-03
             331     1.75198E-03     60.4852E-03    -21.2673E+06    -104.043E+06    -20.2057E+06    -36.0584E+03    -27.1753E-03     54.3310E-03    -27.1557E-03     10.5383E-03    -27.1019E-03     53.8714E-03    -27.0751E-03     10.5325E-03
             332     2.62780E-03     60.4977E-03    -20.4877E+06    -102.831E+06    -17.9863E+06     102.817E+03    -27.1919E-03     54.3519E-03    -27.1600E-03     15.6806E-03    -27.1201E-03     53.8945E-03    -27.0711E-03     15.6736E-03
             333     3.50397E-03     60.5150E-03    -19.4285E+06    -102.161E+06    -14.6770E+06     483.512E+03    -27.2317E-03     54.4001E-03    -27.1684E-03     20.9243E-03    -27.1612E-03     53.9405E-03    -27.0654E-03     20.9189E-03
             334     4.37972E-03     60.5375E-03    -17.9923E+06    -100.428E+06    -11.6648E+06     676.907E+03    -27.2787E-03     54.4515E-03    -27.1727E-03     26.2443E-03    -27.2092E-03     53.9954E-03    -27.0594E-03     26.2373E-03
             335     5.25601E-03     60.5648E-03    -16.3611E+06    -97.2043E+06    -8.10574E+06     1.08190E+06    -27.3413E-03     54.5177E-03    -27.1764E-03     31.6818E-03    -27.2752E-03     54.0720E-03    -27.0523E-03     31.6752E-03
             336     6.13174E-03     60.5976E-03    -15.3104E+06    -96.1451E+06    -5.30501E+06     894.682E+03    -27.4066E-03     54.5856E-03    -27.1790E-03     37.1255E-03    -27.3435E-03     54.1422E-03    -27.0439E-03     37.1104E-03
             337     7.00815E-03     60.6351E-03    -13.7433E+06    -95.4020E+06    -3.16194E+06     559.303E+03    -27.5407E-03     54.7198E-03    -27.1791E-03     42.6600E-03    -27.4778E-03     54.2786E-03    -27.0366E-03     42.6328E-03
             338     7.88388E-03     60.6788E-03    -12.2534E+06    -92.5122E+06    -523.080E+03       874.9E+03    -27.6990E-03     54.8817E-03    -27.1828E-03     48.3752E-03    -27.6421E-03     54.4544E-03    -27.0335E-03     48.3425E-03
             339     8.76000E-03     60.7271E-03    -11.4170E+06    -88.4793E+06    -244.617E+03     738.811E+03    -27.7930E-03     54.9670E-03    -27.1740E-03     53.8118E-03    -27.7462E-03     54.5663E-03    -27.0304E-03     53.7649E-03
             340     9.63605E-03     60.7803E-03    -10.4689E+06    -83.2953E+06    -1.27376E+06     710.719E+03    -28.0134E-03     55.1719E-03    -27.1585E-03     59.2457E-03    -27.9797E-03     54.8090E-03    -27.0290E-03     59.1823E-03
             341     10.5119E-03     60.8397E-03    -9.79862E+06    -77.0910E+06    -5.84139E+06     732.686E+03    -28.1713E-03     55.2990E-03    -27.1276E-03     64.6512E-03    -28.1540E-03     54.9901E-03    -27.0308E-03     64.5683E-03
             342     11.3875E-03     60.9036E-03    -9.07259E+06    -60.9451E+06    -6.78518E+06     730.034E+03    -28.2096E-03     55.3039E-03    -27.0943E-03     71.2599E-03    -28.2389E-03     55.1042E-03    -27.0267E-03     71.1516E-03
             343     12.2648E-03     60.9749E-03    -8.60734E+06    -38.5481E+06    -4.60279E+06     795.176E+03    -28.3209E-03     55.3817E-03    -27.0608E-03     77.4237E-03    -28.4215E-03     55.3283E-03    -27.0155E-03     77.2892E-03
             344     13.1396E-03     61.0507E-03    -9.11807E+06    -24.3156E+06    -12.1247E+06     711.077E+03    -28.3155E-03     55.3090E-03    -26.9935E-03     77.5159E-03    -28.4809E-03     55.3909E-03    -27.0057E-03     77.3488E-03
             345     14.0173E-03     61.1206E-03    -9.53327E+06      992.61E+03    -26.5731E+06     499.493E+03    -28.9312E-03     55.8100E-03    -26.8788E-03     93.7099E-03    -29.3078E-03     56.2333E-03    -26.9993E-03     93.4827E-03
             346     14.8922E-03     61.2283E-03    -9.40382E+06     54.9141E+06    -21.3787E+06      431.75E+03    -34.5940E-03     61.4183E-03    -26.8243E-03     175.465E-03    -36.2761E-03     63.3239E-03    -26.9972E-03     175.180E-03
             347     15.7679E-03     61.4578E-03    -9.55831E+06     131.494E+06     32.2912E+06     70.5562E+03    -44.3599E-03     71.3344E-03    -26.9746E-03     306.821E-03    -53.6180E-03     80.9318E-03    -26.9899E-03     308.084E-03
             348     16.6461E-03     61.8261E-03    -6.42042E+06     186.587E+06     98.6326E+06    -30.6289E+03    -44.1883E-03     71.3808E-03    -27.1925E-03     347.845E-03    -60.6289E-03     88.1749E-03    -26.9606E-03     356.530E-03
             349     876.032E-06     61.4784E-03    -21.7882E+06    -104.478E+06    -21.6080E+06    -265.021E+03    -27.1511E-03     54.2913E-03    -27.1402E-03     5.68999E-03    -27.0774E-03     53.8320E-03    -27.0652E-03     5.68373E-03
             350     1.75187E-03     61.4860E-03    -21.5118E+06    -104.227E+06    -20.4081E+06    -62.2720E+03    -27.1613E-03     54.3061E-03    -27.1448E-03     10.5386E-03    -27.0885E-03     53.8462E-03    -27.0645E-03     10.5324E-03
             351     2.62800E-03     61.4984E-03    -21.1282E+06    -103.347E+06    -18.2792E+06     383.957E+03    -27.1869E-03     54.3371E-03    -27.1501E-03     15.6835E-03    -27.1172E-03     53.8784E-03    -27.0610E-03     15.6802E-03
             352     3.50378E-03     61.5157E-03    -20.4156E+06    -102.408E+06    -16.4039E+06     445.071E+03    -27.2138E-03     54.3656E-03    -27.1519E-03     20.9289E-03    -27.1453E-03     53.9088E-03    -27.0558E-03     20.9230E-03
             353     4.38005E-03     61.5381E-03    -19.1672E+06    -100.460E+06    -13.1145E+06     280.045E+03    -27.2601E-03     54.4165E-03    -27.1564E-03     26.2650E-03    -27.1943E-03     53.9641E-03    -27.0485E-03     26.2529E-03
             354     5.25579E-03     61.5656E-03    -17.3418E+06    -98.1134E+06    -9.12784E+06     446.772E+03    -27.3155E-03     54.4774E-03    -27.1619E-03     31.6779E-03    -27.2516E-03     54.0300E-03    -27.0401E-03     31.6632E-03
             355     6.13217E-03     61.5982E-03    -15.0904E+06    -95.8532E+06    -5.43807E+06     900.390E+03    -27.4354E-03     54.6026E-03    -27.1672E-03     37.1326E-03    -27.3715E-03     54.1606E-03    -27.0335E-03     37.1176E-03
             356     7.00778E-03     61.6360E-03    -14.1096E+06    -95.4103E+06    -3.32033E+06     753.256E+03    -27.5661E-03     54.7393E-03    -27.1731E-03     42.7108E-03    -27.5048E-03     54.2987E-03    -27.0309E-03     42.6861E-03
             357     7.88402E-03     61.6793E-03    -13.0388E+06    -93.2463E+06    -2.38019E+06     719.957E+03    -27.6027E-03     54.7699E-03    -27.1672E-03     48.2742E-03    -27.5458E-03     54.3426E-03    -27.0250E-03     48.2397E-03
             358     8.76032E-03     61.7276E-03    -11.6985E+06    -88.1615E+06    -552.422E+03     822.723E+03    -27.7987E-03     54.9589E-03    -27.1602E-03     53.7719E-03    -27.7533E-03     54.5606E-03    -27.0182E-03     53.7260E-03
             359     9.63599E-03     61.7816E-03    -10.8679E+06    -83.3688E+06    -1.55875E+06     601.620E+03    -28.0534E-03     55.2020E-03    -27.1486E-03     59.4666E-03    -28.0212E-03     54.8398E-03    -27.0198E-03     59.4019E-03
             360     10.5118E-03     61.8404E-03    -9.81069E+06    -76.8967E+06    -6.09648E+06     543.646E+03    -28.1190E-03     55.2358E-03    -27.1168E-03     64.8554E-03    -28.1015E-03     54.9282E-03    -27.0216E-03     64.7704E-03
             361     11.3886E-03     61.9040E-03    -9.15735E+06    -60.9744E+06    -7.20407E+06     574.336E+03    -28.2030E-03     55.2838E-03    -27.0809E-03     71.4665E-03    -28.2319E-03     55.0846E-03    -27.0152E-03     71.3566E-03
             362     12.2636E-03     61.9759E-03    -8.66682E+06    -38.5960E+06    -5.04534E+06     574.139E+03    -28.3722E-03     55.4217E-03    -27.0495E-03     77.2865E-03    -28.4726E-03     55.3689E-03    -27.0062E-03     77.1488E-03
             363     13.1418E-03     62.0503E-03    -8.78929E+06    -24.0897E+06    -11.6549E+06     815.506E+03    -28.3105E-03     55.2997E-03    -26.9892E-03     76.7539E-03    -28.4743E-03     55.3806E-03    -26.9998E-03     76.5877E-03
             364     14.0157E-03     62.1231E-03     -9.5886E+06     1.44742E+06    -25.9447E+06     56.1101E+03    -29.0939E-03     55.9755E-03    -26.8816E-03     93.5887E-03    -29.4746E-03     56.4026E-03    -26.9995E-03     93.3531E-03
             365     14.8922E-03     62.2282E-03    -11.2731E+06     54.9681E+06    -20.2603E+06    -47.4151E+03    -34.3669E-03     61.1975E-03    -26.8307E-03     175.965E-03    -36.0616E-03     63.1062E-03    -26.9953E-03     175.684E-03
             366     15.7692E-03     62.4595E-03    -10.1607E+06     131.239E+06     31.1809E+06     1.11408E+06    -44.0230E-03     70.9741E-03    -26.9511E-03     307.035E-03    -53.2621E-03     80.5526E-03    -26.9708E-03     308.303E-03
             367     16.6452E-03     62.8248E-03    -5.49078E+06     186.964E+06     97.1367E+06     457.371E+03    -44.6881E-03     71.8581E-03    -27.1701E-03     347.023E-03    -61.0993E-03     88.6318E-03    -26.9475E-03     355.660E-03
             368     875.908E-06     62.4791E-03    -21.5934E+06    -104.103E+06    -21.1128E+06    -173.893E+03    -27.1362E-03     54.2590E-03    -27.1228E-03     5.69589E-03    -27.0627E-03     53.8006E-03    -27.0461E-03     5.69081E-03
             369     1.75203E-03     62.4867E-03    -21.2054E+06    -104.862E+06    -19.5502E+06     205.268E+03    -27.1554E-03     54.2901E-03    -27.1347E-03     10.5383E-03    -27.0814E-03     53.8253E-03    -27.0496E-03     10.5356E-03
             370     2.62785E-03     62.4991E-03    -20.3460E+06    -103.768E+06    -17.9080E+06     524.818E+03    -27.1741E-03     54.3121E-03    -27.1380E-03     15.6773E-03    -27.1004E-03     53.8497E-03    -27.0475E-03     15.6758E-03
             371     3.50406E-03     62.5164E-03    -19.1386E+06    -102.206E+06    -15.0922E+06     342.163E+03    -27.2083E-03     54.3510E-03    -27.1427E-03     20.9208E-03    -27.1357E-03     53.8914E-03    -27.0422E-03     20.9136E-03
             372     4.37983E-03     62.5387E-03    -18.0662E+06    -100.645E+06    -11.6984E+06     340.008E+03    -27.2541E-03     54.4035E-03    -27.1494E-03     26.2549E-03    -27.1846E-03     53.9465E-03    -27.0358E-03     26.2436E-03
             373     5.25614E-03     62.5663E-03    -17.0643E+06    -98.0380E+06    -9.06475E+06     164.567E+03    -27.3265E-03     54.4775E-03    -27.1510E-03     31.6471E-03    -27.2614E-03     54.0301E-03    -27.0294E-03     31.6287E-03
             374     6.13189E-03     62.5987E-03    -16.0237E+06    -97.0922E+06    -6.69732E+06     547.210E+03    -27.4254E-03     54.5805E-03    -27.1551E-03     37.1810E-03    -27.3625E-03     54.1354E-03    -27.0245E-03     37.1614E-03
             375     7.00818E-03     62.6370E-03    -14.2867E+06    -94.7780E+06    -3.08822E+06     1.02850E+06    -27.5389E-03     54.7024E-03    -27.1636E-03     42.7360E-03    -27.4796E-03     54.2650E-03    -27.0209E-03     42.7150E-03
             376     7.88410E-03     62.6796E-03    -12.8071E+06    -93.3330E+06    -1.76226E+06     478.825E+03    -27.6692E-03     54.8325E-03    -27.1633E-03     48.1985E-03    -27.6121E-03     54.4037E-03    -27.0182E-03     48.1605E-03
             377     8.75994E-03     62.7285E-03    -11.3660E+06    -88.6713E+06    -1.14841E+06     587.772E+03    -27.7427E-03     54.8947E-03    -27.1520E-03     53.8873E-03    -27.6939E-03     54.4941E-03    -27.0127E-03     53.8387E-03
             378     9.63627E-03     62.7821E-03    -10.0034E+06    -82.8844E+06    -1.24225E+06     637.178E+03    -27.8820E-03     55.0146E-03    -27.1326E-03     59.5312E-03    -27.8463E-03     54.6527E-03    -27.0041E-03     59.4678E-03
             379     10.5127E-03     62.8411E-03    -9.67163E+06    -77.1142E+06    -6.52116E+06     467.159E+03    -28.1608E-03     55.2553E-03    -27.0945E-03     64.7445E-03    -28.1417E-03     54.9470E-03    -27.0012E-03     64.6585E-03
             380     11.3878E-03     62.9048E-03    -9.68413E+06    -60.7763E+06    -7.66005E+06     291.067E+03    -28.3789E-03     55.4480E-03    -27.0692E-03     71.1269E-03    -28.4106E-03     55.2519E-03    -27.0053E-03     71.0118E-03
             381     12.2653E-03     62.9762E-03    -9.71816E+06    -39.1377E+06    -5.55586E+06     431.295E+03    -28.5362E-03     55.5892E-03    -27.0530E-03     77.2750E-03    -28.6405E-03     55.5361E-03    -27.0099E-03     77.1344E-03
             382     13.1383E-03     63.0524E-03    -9.05118E+06    -23.8793E+06    -11.4390E+06     426.419E+03    -28.3253E-03     55.3254E-03    -27.0001E-03     76.8701E-03    -28.4922E-03     55.4085E-03    -27.0095E-03     76.6983E-03
             383     14.0172E-03     63.1215E-03    -10.0334E+06     1.28479E+06    -27.4456E+06     1.16427E+06    -28.6912E-03     55.5623E-03    -26.8711E-03     94.1756E-03    -29.0694E-03     55.9891E-03    -26.9956E-03     93.9595E-03
             384     14.8926E-03     63.2318E-03    -10.4202E+06     54.8316E+06    -23.7884E+06     757.531E+03    -34.3512E-03     61.1468E-03    -26.7956E-03     175.923E-03    -36.0378E-03     63.0601E-03    -26.9790E-03     175.648E-03
             385     15.7693E-03     63.4561E-03    -9.13776E+06     131.519E+06     31.0575E+06    -407.864E+03    -44.6652E-03     71.6207E-03    -26.9555E-03     305.970E-03    -53.9161E-03     81.2160E-03    -26.9777E-03     307.166E-03
             386     16.6456E-03     63.8309E-03    -5.98911E+06     187.027E+06     98.2092E+06     318.195E+03    -44.4637E-03     71.6629E-03    -27.1992E-03     346.855E-03    -60.8655E-03     88.4225E-03    -26.9706E-03     355.504E-03
             387     876.082E-06     63.4798E-03    -21.2866E+06    -103.964E+06    -20.8631E+06     68.9755E+03    -27.1111E-03     54.2298E-03    -27.1187E-03     5.70123E-03    -27.0367E-03     53.7713E-03    -27.0414E-03     5.69931E-03
             388     1.75192E-03     63.4874E-03    -20.5556E+06    -105.541E+06    -18.8629E+06     202.025E+03    -27.1433E-03     54.2661E-03    -27.1228E-03     10.5291E-03    -27.0661E-03     53.7960E-03    -27.0343E-03     10.5264E-03
             389     2.62807E-03     63.4998E-03    -19.4689E+06    -103.797E+06    -16.7510E+06     283.231E+03    -27.1647E-03     54.2923E-03    -27.1276E-03     15.6724E-03    -27.0882E-03     53.8268E-03    -27.0326E-03     15.6679E-03
             390     3.50392E-03     63.5170E-03    -18.4922E+06    -102.331E+06    -13.8713E+06     324.054E+03    -27.2039E-03     54.3385E-03    -27.1346E-03     20.9096E-03    -27.1296E-03     53.8755E-03    -27.0288E-03     20.9022E-03
             391     4.38013E-03     63.5395E-03    -17.1821E+06    -100.764E+06    -10.2307E+06     421.087E+03    -27.2597E-03     54.4043E-03    -27.1445E-03     26.2342E-03    -27.1877E-03     53.9432E-03    -27.0247E-03     26.2241E-03
             392     5.25594E-03     63.5667E-03    -15.9810E+06    -98.2502E+06    -7.58301E+06     713.862E+03    -27.3367E-03     54.4854E-03    -27.1487E-03     31.6547E-03    -27.2679E-03     54.0331E-03    -27.0210E-03     31.6434E-03
             393     6.13214E-03     63.5997E-03    -14.9273E+06    -97.5958E+06    -5.46770E+06     761.788E+03    -27.4130E-03     54.5656E-03    -27.1526E-03     37.1410E-03    -27.3457E-03     54.1146E-03    -27.0167E-03     37.1243E-03
             394     7.00810E-03     63.6371E-03    -13.8009E+06    -95.0736E+06    -3.48227E+06     727.204E+03    -27.5163E-03     54.6683E-03    -27.1519E-03     42.7340E-03    -27.4536E-03     54.2292E-03    -27.0115E-03     42.7092E-03
             395     7.88409E-03     63.6810E-03    -12.3712E+06    -92.4644E+06    -1.13627E+06     583.212E+03    -27.6504E-03     54.8040E-03    -27.1535E-03     48.2649E-03    -27.5933E-03     54.3779E-03    -27.0072E-03     48.2284E-03
             396     8.76027E-03     63.7286E-03    -11.1466E+06    -88.8845E+06    -1.01197E+06     219.485E+03    -27.7641E-03     54.9068E-03    -27.1427E-03     53.8640E-03    -27.7141E-03     54.5047E-03    -27.0027E-03     53.8106E-03
             397     9.63650E-03     63.7829E-03    -10.3173E+06    -83.2470E+06    -1.83780E+06     493.846E+03    -27.9264E-03     55.0510E-03    -27.1247E-03     59.3827E-03    -27.8908E-03     54.6887E-03    -26.9982E-03     59.3172E-03
             398     10.5121E-03     63.8417E-03    -9.61622E+06    -76.9929E+06    -6.01277E+06     267.395E+03    -28.1493E-03     55.2426E-03    -27.0933E-03     64.6119E-03    -28.1309E-03     54.9342E-03    -26.9977E-03     64.5231E-03
             399     11.3887E-03     63.9059E-03    -9.54036E+06    -60.9515E+06    -7.83508E+06     428.407E+03    -28.4561E-03     55.5235E-03    -27.0674E-03     71.3139E-03    -28.4867E-03     55.3265E-03    -27.0043E-03     71.2004E-03
             400     12.2628E-03     63.9771E-03    -9.10176E+06    -39.0239E+06    -5.37613E+06     362.714E+03    -28.3674E-03     55.4158E-03    -27.0484E-03     77.3851E-03    -28.4684E-03     55.3616E-03    -27.0055E-03     77.2451E-03
             401     13.1423E-03     64.0527E-03    -9.09460E+06    -25.3813E+06    -12.6152E+06     682.245E+03    -28.1546E-03     55.1345E-03    -26.9800E-03     77.3183E-03    -28.3164E-03     55.2105E-03    -26.9930E-03     77.1525E-03
             402     14.0156E-03     64.1230E-03    -8.90253E+06     1.61483E+06    -26.0914E+06     850.509E+03    -28.9067E-03     55.7681E-03    -26.8614E-03     93.8325E-03    -29.2820E-03     56.1933E-03    -26.9813E-03     93.6101E-03
             403     14.8941E-03     64.2297E-03    -9.57055E+06     55.6032E+06    -20.1966E+06     401.412E+03    -34.9222E-03     61.7419E-03    -26.8197E-03     175.973E-03    -36.6198E-03     63.6615E-03    -26.9874E-03     175.678E-03
             404     15.7673E-03     64.4624E-03    -9.96658E+06     131.963E+06     32.7341E+06     405.704E+03    -44.4478E-03     71.4294E-03    -26.9816E-03     306.229E-03    -53.6936E-03     81.0134E-03    -26.9948E-03     307.516E-03
             405     16.6424E-03     64.8259E-03    -6.36125E+06     187.171E+06     98.3535E+06    -46.9756E+03    -43.9524E-03     71.1480E-03    -27.1956E-03     347.950E-03    -60.4247E-03     87.9769E-03    -26.9660E-03     356.666E-03
             406     875.928E-06     64.4804E-03    -21.2518E+06    -104.097E+06    -21.0311E+06     116.488E+03    -27.1045E-03     54.2088E-03    -27.1044E-03     5.71386E-03    -27.0294E-03     53.7498E-03    -27.0278E-03     5.71256E-03
             407     1.75207E-03     64.4880E-03    -20.7527E+06    -105.711E+06    -19.0348E+06     82.2039E+03    -27.1251E-03     54.2357E-03    -27.1106E-03     10.5193E-03    -27.0484E-03     53.7652E-03    -27.0224E-03     10.5151E-03
             408     2.62797E-03     64.5003E-03    -19.8309E+06    -104.099E+06    -16.5724E+06     234.941E+03    -27.1569E-03     54.2741E-03    -27.1172E-03     15.6617E-03    -27.0820E-03     53.8074E-03    -27.0204E-03     15.6565E-03
             409     3.50410E-03     64.5178E-03    -18.6734E+06    -102.493E+06    -13.5968E+06     417.059E+03    -27.1980E-03     54.3239E-03    -27.1260E-03     20.8925E-03    -27.1248E-03     53.8601E-03    -27.0183E-03     20.8862E-03
             410     4.37998E-03     64.5399E-03    -17.5634E+06    -101.123E+06    -10.4140E+06     568.926E+03    -27.2587E-03     54.3945E-03    -27.1358E-03     26.2355E-03    -27.1878E-03     53.9325E-03    -27.0158E-03     26.2273E-03
             411     5.25614E-03     64.5677E-03    -16.2119E+06    -98.7775E+06    -7.85943E+06     829.562E+03    -27.3241E-03     54.4642E-03    -27.1401E-03     31.6482E-03    -27.2554E-03     54.0101E-03    -27.0127E-03     31.6385E-03
             412     6.13209E-03     64.5999E-03    -14.7625E+06    -97.5691E+06    -5.15016E+06     946.850E+03    -27.4176E-03     54.5636E-03    -27.1460E-03     37.1394E-03    -27.3499E-03     54.1121E-03    -27.0089E-03     37.1250E-03
             413     7.00812E-03     64.6383E-03    -13.4780E+06    -95.3111E+06    -3.17497E+06     852.157E+03    -27.4772E-03     54.6216E-03    -27.1444E-03     42.7304E-03    -27.4129E-03     54.1803E-03    -27.0025E-03     42.7074E-03
             414     7.88439E-03     64.6809E-03    -12.3166E+06    -92.5723E+06    -1.85106E+06     636.806E+03    -27.6102E-03     54.7477E-03    -27.1374E-03     48.2928E-03    -27.5515E-03     54.3220E-03    -26.9946E-03     48.2573E-03
             415     8.76039E-03     64.7298E-03    -11.3831E+06    -88.0745E+06    -530.845E+03     272.033E+03    -27.8932E-03     55.0303E-03    -27.1371E-03     53.8121E-03    -27.8465E-03     54.6321E-03    -26.9955E-03     53.7588E-03
             416     9.63597E-03     64.7832E-03    -10.3670E+06    -83.6699E+06    -1.79326E+06     31.2043E+03    -28.0220E-03     55.1517E-03    -27.1297E-03     59.3397E-03    -27.9864E-03     54.7874E-03    -27.0023E-03     59.2679E-03
             417     10.5124E-03     64.8427E-03    -9.65314E+06    -76.6702E+06    -5.83856E+06     222.066E+03    -28.0746E-03     55.1732E-03    -27.0986E-03     64.7302E-03    -28.0569E-03     54.8660E-03    -27.0026E-03     64.6414E-03
             418     11.3880E-03     64.9062E-03    -9.34783E+06    -61.1109E+06    -7.20189E+06     297.288E+03    -28.2355E-03     55.2989E-03    -27.0633E-03     71.5391E-03    -28.2652E-03     55.0993E-03    -26.9972E-03     71.4255E-03
             419     12.2656E-03     64.9788E-03    -9.29215E+06    -39.6480E+06    -5.77121E+06     386.923E+03    -28.3941E-03     55.4280E-03    -27.0339E-03     77.0213E-03    -28.4946E-03     55.3715E-03    -26.9918E-03     76.8812E-03
             420     13.1393E-03     65.0514E-03    -8.94530E+06    -24.8995E+06    -12.1107E+06     252.264E+03    -28.2709E-03     55.2457E-03    -26.9748E-03     76.6393E-03    -28.4331E-03     55.3229E-03    -26.9863E-03     76.4665E-03
             421     14.0183E-03     65.1255E-03    -9.03742E+06     1.35603E+06    -26.3485E+06    -560.121E+03    -29.3123E-03     56.1839E-03    -26.8716E-03     93.6952E-03    -29.6924E-03     56.6132E-03    -26.9922E-03     93.4482E-03
             422     14.8905E-03     65.2303E-03    -10.4840E+06     55.6014E+06    -20.3170E+06     759.365E+03    -34.5702E-03     61.4014E-03    -26.8312E-03     176.637E-03    -36.2694E-03     63.3197E-03    -26.9982E-03     176.365E-03
             423     15.7687E-03     65.4640E-03    -9.42101E+06     132.464E+06     32.3263E+06     1.29802E+06    -43.7994E-03     70.7552E-03    -26.9558E-03     306.926E-03    -53.0178E-03     80.3166E-03    -26.9726E-03     308.225E-03
             424     16.6496E-03     65.8260E-03    -5.69429E+06     187.835E+06     97.7717E+06     355.358E+03    -44.6111E-03     71.7799E-03    -27.1688E-03     347.168E-03    -61.0667E-03     88.5985E-03    -26.9440E-03     355.835E-03
             425     876.054E-06     65.4810E-03    -21.5825E+06    -104.338E+06    -21.1512E+06     137.217E+03    -27.1055E-03     54.1839E-03    -27.0784E-03     5.69697E-03    -27.0316E-03     53.7243E-03    -27.0016E-03     5.69595E-03
             426     1.75200E-03     65.4886E-03    -20.9904E+06    -105.830E+06    -18.9980E+06     231.346E+03    -27.1214E-03     54.2226E-03    -27.1012E-03     10.5266E-03    -27.0458E-03     53.7519E-03    -27.0123E-03     10.5242E-03
             427     2.62807E-03     65.5010E-03    -20.1098E+06    -104.433E+06    -16.7228E+06     337.157E+03    -27.1466E-03     54.2555E-03    -27.1089E-03     15.6538E-03    -27.0724E-03     53.7877E-03    -27.0119E-03     15.6500E-03
             428     3.50404E-03     65.5183E-03    -19.0895E+06    -102.889E+06    -13.7982E+06     581.168E+03    -27.1904E-03     54.3081E-03    -27.1177E-03     20.8982E-03    -27.1184E-03     53.8432E-03    -27.0099E-03     20.8942E-03
             429     4.38012E-03     65.5408E-03    -17.7906E+06    -101.380E+06    -10.6106E+06     736.242E+03    -27.2481E-03     54.3753E-03    -27.1272E-03     26.2383E-03    -27.1777E-03     53.9126E-03    -27.0075E-03     26.2323E-03
             430     5.25611E-03     65.5680E-03    -16.4481E+06    -99.1457E+06    -8.30098E+06     774.394E+03    -27.3193E-03     54.4499E-03    -27.1306E-03     31.6406E-03    -27.2506E-03     53.9948E-03    -27.0045E-03     31.6302E-03
             431     6.13217E-03     65.6009E-03    -15.0993E+06    -97.7467E+06    -5.32599E+06     921.071E+03    -27.3885E-03     54.5251E-03    -27.1367E-03     37.1406E-03    -27.3219E-03     54.0734E-03    -26.9997E-03     37.1260E-03
             432     7.00830E-03     65.6384E-03    -13.5503E+06    -95.0071E+06    -2.85839E+06     688.924E+03    -27.4836E-03     54.6198E-03    -27.1363E-03     42.6487E-03    -27.4206E-03     54.1798E-03    -26.9931E-03     42.6235E-03
             433     7.88432E-03     65.6818E-03    -12.2147E+06    -92.5803E+06    -1.73372E+06     623.956E+03    -27.6854E-03     54.8194E-03    -27.1340E-03     48.3103E-03    -27.6264E-03     54.3934E-03    -26.9907E-03     48.2744E-03
             434     8.76024E-03     65.7304E-03    -11.2463E+06    -87.8921E+06    -807.077E+03     438.891E+03    -27.8529E-03     54.9865E-03    -27.1336E-03     53.9176E-03    -27.8052E-03     54.5892E-03    -26.9939E-03     53.8668E-03
             435     9.63638E-03     65.7844E-03    -10.5437E+06    -83.3594E+06    -1.88007E+06     120.791E+03    -27.9807E-03     55.1042E-03    -27.1235E-03     59.4245E-03    -27.9462E-03     54.7418E-03    -26.9968E-03     59.3539E-03
             436     10.5121E-03     65.8428E-03    -10.0343E+06    -76.7397E+06    -6.56681E+06     208.245E+03    -28.1318E-03     55.2226E-03    -27.0908E-03     64.8595E-03    -28.1149E-03     54.9167E-03    -26.9978E-03     64.7704E-03
             437     11.3887E-03     65.9075E-03    -9.72576E+06    -61.1255E+06    -7.31182E+06     210.396E+03    -28.2211E-03     55.2822E-03    -27.0611E-03     71.2498E-03    -28.2527E-03     55.0835E-03    -26.9949E-03     71.1346E-03
             438     12.2639E-03     65.9780E-03    -9.50105E+06    -40.0669E+06    -5.90452E+06     236.680E+03    -28.4259E-03     55.4589E-03    -27.0330E-03     77.0359E-03    -28.5262E-03     55.4004E-03    -26.9907E-03     76.8940E-03
             439     13.1412E-03     66.0549E-03    -9.12855E+06    -23.8061E+06    -11.9983E+06    -118.533E+03    -28.5017E-03     55.4832E-03    -26.9814E-03     76.8422E-03    -28.6687E-03     55.5680E-03    -26.9937E-03     76.6618E-03
             440     14.0148E-03     66.1229E-03    -10.8222E+06     793.937E+03    -28.5241E+06     259.937E+03    -28.9423E-03     55.8071E-03    -26.8648E-03     94.9936E-03    -29.3249E-03     56.2369E-03    -26.9929E-03     94.7633E-03
             441     14.8932E-03     66.2361E-03    -10.3119E+06     54.7772E+06    -23.0759E+06     938.204E+03    -34.0681E-03     60.8623E-03    -26.7942E-03     176.430E-03    -35.7513E-03     62.7704E-03    -26.9741E-03     176.169E-03
             442     15.7713E-03     66.4570E-03    -8.70521E+06     132.894E+06     32.3322E+06      728.59E+03    -44.4989E-03     71.4375E-03    -26.9386E-03     306.523E-03    -53.7689E-03     81.0546E-03    -26.9570E-03     307.734E-03
             443     16.6407E-03     66.8348E-03    -6.19697E+06     187.555E+06     97.7115E+06     593.855E+03    -44.6621E-03     71.8354E-03    -27.1733E-03     347.027E-03    -61.0670E-03     88.6007E-03    -26.9477E-03     355.669E-03
             444     876.031E-06     66.4816E-03    -21.6860E+06    -104.669E+06    -21.3142E+06     218.760E+03    -27.0913E-03     54.1694E-03    -27.0782E-03     5.69109E-03    -27.0172E-03     53.7086E-03    -27.0015E-03     5.69113E-03
             445     1.75204E-03     66.4892E-03    -21.1307E+06    -106.163E+06    -19.1535E+06     378.515E+03    -27.1137E-03     54.2074E-03    -27.0937E-03     10.5168E-03    -27.0380E-03     53.7354E-03    -27.0049E-03     10.5164E-03
             446     2.62806E-03     66.5016E-03    -20.2245E+06    -104.754E+06    -16.9835E+06     538.407E+03    -27.1405E-03     54.2414E-03    -27.1009E-03     15.6528E-03    -27.0661E-03     53.7726E-03    -27.0046E-03     15.6516E-03
             447     3.50410E-03     66.5190E-03    -19.1340E+06    -103.331E+06    -14.1949E+06     679.002E+03    -27.1827E-03     54.2918E-03    -27.1092E-03     20.8958E-03    -27.1097E-03     53.8253E-03    -27.0026E-03     20.8930E-03
             448     4.38012E-03     66.5412E-03    -17.7251E+06    -101.429E+06    -10.6627E+06     646.679E+03    -27.2395E-03     54.3588E-03    -27.1193E-03     26.2334E-03    -27.1686E-03     53.8958E-03    -26.9998E-03     26.2262E-03
             449     5.25616E-03     66.5689E-03    -16.1035E+06    -99.5616E+06    -7.11110E+06     751.427E+03    -27.3082E-03     54.4368E-03    -27.1285E-03     31.6402E-03    -27.2389E-03     53.9774E-03    -26.9964E-03     31.6294E-03
             450     6.13224E-03     66.6012E-03    -14.5515E+06    -97.9545E+06    -4.14472E+06     902.683E+03    -27.3894E-03     54.5238E-03    -27.1343E-03     37.0811E-03    -27.3216E-03     54.0685E-03    -26.9919E-03     37.0662E-03
             451     7.00831E-03     66.6393E-03    -13.2511E+06    -94.5807E+06    -2.50759E+06     722.991E+03    -27.5497E-03     54.6838E-03    -27.1341E-03     42.6522E-03    -27.4864E-03     54.2450E-03    -26.9903E-03     42.6273E-03
             452     7.88426E-03     66.6823E-03    -12.2708E+06    -92.6573E+06    -2.04693E+06     553.996E+03    -27.6718E-03     54.8050E-03    -27.1332E-03     48.3574E-03    -27.6125E-03     54.3791E-03    -26.9913E-03     48.3208E-03
             453     8.76028E-03     66.7314E-03    -11.2145E+06    -87.8073E+06    -1.29627E+06     585.484E+03    -27.7497E-03     54.8753E-03    -27.1256E-03     53.9726E-03    -27.7011E-03     54.4790E-03    -26.9885E-03     53.9242E-03
             454     9.63650E-03     66.7845E-03    -10.3017E+06    -83.1264E+06    -1.89157E+06     351.788E+03    -27.9555E-03     55.0673E-03    -27.1118E-03     59.4188E-03    -27.9200E-03     54.7056E-03    -26.9857E-03     59.3515E-03
             455     10.5126E-03     66.8443E-03    -9.85729E+06    -76.7112E+06    -6.72006E+06     235.076E+03    -28.2046E-03     55.2860E-03    -27.0814E-03     64.8298E-03    -28.1869E-03     54.9805E-03    -26.9895E-03     64.7406E-03
             456     11.3880E-03     66.9074E-03    -9.54032E+06    -61.3240E+06    -7.85288E+06     120.756E+03    -28.2829E-03     55.3387E-03    -27.0558E-03     71.2831E-03    -28.3124E-03     55.1394E-03    -26.9923E-03     71.1668E-03
             457     12.2647E-03     66.9799E-03    -8.95779E+06    -39.3761E+06    -5.84297E+06     202.259E+03    -28.2700E-03     55.2951E-03    -27.0251E-03     77.5585E-03    -28.3686E-03     55.2391E-03    -26.9843E-03     77.4174E-03
             458     13.1402E-03     67.0538E-03    -9.52020E+06    -24.9295E+06    -13.3257E+06     399.157E+03    -28.2677E-03     55.2240E-03    -26.9563E-03     77.5087E-03    -28.4322E-03     55.3048E-03    -26.9730E-03     77.3379E-03
             459     14.0176E-03     67.1269E-03    -9.86813E+06     1.42405E+06    -28.4281E+06     933.302E+03    -28.8599E-03     55.6933E-03    -26.8334E-03     94.5082E-03    -29.2365E-03     56.1224E-03    -26.9633E-03     94.2878E-03
             460     14.8944E-03     67.2308E-03    -11.9669E+06     55.2307E+06    -22.6893E+06    -292.655E+03    -34.8080E-03     61.5980E-03    -26.7900E-03     176.003E-03    -36.5097E-03     63.5191E-03    -26.9662E-03     175.702E-03
             461     15.7660E-03     67.4656E-03    -11.3354E+06     131.575E+06     31.0461E+06    -201.826E+03    -44.4294E-03     71.3819E-03    -26.9525E-03     306.231E-03    -53.6998E-03     80.9891E-03    -26.9716E-03     307.504E-03
             462     16.6494E-03     67.8296E-03    -5.74975E+06     188.143E+06     97.5842E+06     700.555E+03    -43.9467E-03     71.1120E-03    -27.1654E-03     347.687E-03    -60.3762E-03     87.9060E-03    -26.9419E-03     356.401E-03
             463     875.979E-06     67.4822E-03    -21.8588E+06    -105.053E+06    -21.5677E+06     185.500E+03    -27.0811E-03     54.1677E-03    -27.0866E-03     5.69967E-03    -27.0070E-03     53.7056E-03    -27.0104E-03     5.69929E-03
             464     1.75208E-03     67.4898E-03    -21.1861E+06    -106.678E+06    -19.6855E+06     418.561E+03    -27.1029E-03     54.1919E-03    -27.0890E-03     10.5090E-03    -27.0260E-03     53.7182E-03    -27.0020E-03     10.5091E-03
             465     2.62805E-03     67.5022E-03    -20.3350E+06    -105.158E+06    -17.4066E+06     628.602E+03    -27.1341E-03     54.2283E-03    -27.0941E-03     15.6499E-03    -27.0590E-03     53.7582E-03    -26.9992E-03     15.6499E-03
             466     3.50413E-03     67.5195E-03    -19.2070E+06    -103.534E+06    -14.3519E+06     635.749E+03    -27.1786E-03     54.2818E-03    -27.1032E-03     20.8914E-03    -27.1055E-03     53.8146E-03    -26.9970E-03     20.8881E-03
             467     4.38013E-03     67.5420E-03    -17.9136E+06    -101.545E+06    -10.7566E+06     620.771E+03    -27.2313E-03     54.3450E-03    -27.1137E-03     26.2277E-03    -27.1610E-03     53.8819E-03    -26.9943E-03     26.2202E-03
             468     5.25624E-03     67.5692E-03    -16.5156E+06    -99.8717E+06    -7.37372E+06     669.490E+03    -27.3001E-03     54.4226E-03    -27.1225E-03     31.6086E-03    -27.2320E-03     53.9627E-03    -26.9906E-03     31.5968E-03
             469     6.13225E-03     67.6021E-03    -14.8874E+06    -98.2248E+06    -4.38603E+06     792.027E+03    -27.4251E-03     54.5560E-03    -27.1310E-03     37.0850E-03    -27.3581E-03     54.1003E-03    -26.9889E-03     37.0686E-03
             470     7.00826E-03     67.6397E-03    -13.2982E+06    -94.4467E+06    -2.48460E+06     782.420E+03    -27.5418E-03     54.6751E-03    -27.1333E-03     42.7372E-03    -27.4789E-03     54.2370E-03    -26.9895E-03     42.7132E-03
             471     7.88422E-03     67.6834E-03    -11.7451E+06    -92.3042E+06    -1.43508E+06     555.663E+03    -27.6385E-03     54.7706E-03    -27.1320E-03     48.3091E-03    -27.5780E-03     54.3448E-03    -26.9883E-03     48.2724E-03
             472     8.76061E-03     67.7312E-03    -10.6920E+06    -87.8574E+06    -1.16902E+06     404.458E+03    -27.7650E-03     54.8869E-03    -27.1219E-03     53.8909E-03    -27.7139E-03     54.4894E-03    -26.9849E-03     53.8400E-03
             473     9.63636E-03     67.7861E-03    -9.87040E+06    -83.0204E+06    -1.94039E+06     426.333E+03    -27.9280E-03     55.0349E-03    -27.1068E-03     59.4199E-03    -27.8904E-03     54.6731E-03    -26.9818E-03     59.3537E-03
             474     10.5124E-03     67.8440E-03    -9.15715E+06    -77.0744E+06    -6.58896E+06     311.400E+03    -28.0611E-03     55.1317E-03    -27.0706E-03     64.9752E-03    -28.0391E-03     54.8227E-03    -26.9785E-03     64.8879E-03
             475     11.3886E-03     67.9096E-03    -9.13225E+06    -60.6927E+06    -7.63311E+06     249.282E+03    -28.2519E-03     55.2897E-03    -27.0377E-03     71.4103E-03    -28.2802E-03     55.0922E-03    -26.9747E-03     71.2963E-03
             476     12.2648E-03     67.9783E-03    -9.33220E+06    -39.2733E+06    -6.00504E+06     207.425E+03    -28.3184E-03     55.3275E-03    -27.0092E-03     77.2473E-03    -28.4194E-03     55.2735E-03    -26.9687E-03     77.1053E-03
             477     13.1415E-03     68.0567E-03    -9.47471E+06    -25.1675E+06    -13.3321E+06     423.181E+03    -28.2228E-03     55.1662E-03    -26.9434E-03     76.9989E-03    -28.3852E-03     55.2443E-03    -26.9598E-03     76.8290E-03
             478     14.0174E-03     68.1241E-03    -10.3279E+06      916.26E+03    -27.5655E+06     206.784E+03    -29.2736E-03     56.1135E-03    -26.8399E-03     93.7429E-03    -29.6567E-03     56.5432E-03    -26.9641E-03     93.5071E-03
             479     14.8909E-03     68.2366E-03    -10.4961E+06     54.9776E+06    -22.5018E+06     225.909E+03    -34.6558E-03     61.4510E-03    -26.7952E-03     176.947E-03    -36.3512E-03     63.3695E-03    -26.9722E-03     176.664E-03
             480     15.7705E-03     68.4633E-03    -10.1686E+06     132.074E+06     30.8034E+06     270.899E+03    -44.0043E-03     70.9369E-03    -26.9326E-03     306.952E-03    -53.2386E-03     80.5145E-03    -26.9553E-03     308.239E-03
             481     16.6425E-03     68.8298E-03    -6.78328E+06     187.819E+06     97.5971E+06    -80.3442E+03    -44.3396E-03     71.4910E-03    -27.1514E-03     347.417E-03    -60.8204E-03     88.3314E-03    -26.9259E-03     356.117E-03
             482     876.078E-06     68.4828E-03    -22.1236E+06    -105.319E+06    -22.0306E+06     33.3086E+03    -27.0881E-03     54.1626E-03    -27.0746E-03     5.68327E-03    -27.0141E-03     53.7002E-03    -26.9999E-03     5.68091E-03
             483     1.75200E-03     68.4904E-03    -21.5399E+06    -107.139E+06    -20.1347E+06     178.442E+03    -27.1011E-03     54.1875E-03    -27.0864E-03     10.5103E-03    -27.0247E-03     53.7127E-03    -27.0004E-03     10.5073E-03
             484     2.62813E-03     68.5027E-03    -20.4017E+06    -105.642E+06    -17.7849E+06     476.097E+03    -27.1304E-03     54.2215E-03    -27.0911E-03     15.6468E-03    -27.0544E-03     53.7496E-03    -26.9973E-03     15.6448E-03
             485     3.50409E-03     68.5202E-03    -19.3474E+06    -103.769E+06    -14.4243E+06     715.190E+03    -27.1745E-03     54.2754E-03    -27.1009E-03     20.8837E-03    -27.1017E-03     53.8073E-03    -26.9945E-03     20.8814E-03
             486     4.38021E-03     68.5424E-03    -18.1210E+06    -101.633E+06    -10.7895E+06     705.198E+03    -27.2318E-03     54.3435E-03    -27.1117E-03     26.2052E-03    -27.1624E-03     53.8803E-03    -26.9920E-03     26.1988E-03
             487     5.25617E-03     68.5700E-03    -16.5861E+06    -99.9978E+06    -7.51587E+06     622.316E+03    -27.3170E-03     54.4387E-03    -27.1217E-03     31.5882E-03    -27.2489E-03     53.9785E-03    -26.9902E-03     31.5758E-03
             488     6.13228E-03     68.6024E-03    -14.8817E+06    -98.3915E+06    -4.48448E+06      499.17E+03    -27.4189E-03     54.5502E-03    -27.1312E-03     37.1185E-03    -27.3516E-03     54.0937E-03    -26.9894E-03     37.0984E-03
             489     7.00823E-03     68.6407E-03    -13.2427E+06    -94.3950E+06    -2.42532E+06     533.645E+03    -27.5158E-03     54.6477E-03    -27.1320E-03     42.6931E-03    -27.4528E-03     54.2097E-03    -26.9880E-03     42.6659E-03
             490     7.88456E-03     68.6834E-03    -11.9414E+06    -92.1466E+06    -1.50265E+06     448.222E+03    -27.6694E-03     54.8000E-03    -27.1307E-03     48.2785E-03    -27.6100E-03     54.3755E-03    -26.9872E-03     48.2403E-03
             491     8.76003E-03     68.7327E-03    -10.4945E+06    -87.7850E+06    -1.06841E+06     209.334E+03    -27.7658E-03     54.8886E-03    -27.1229E-03     53.8341E-03    -27.7140E-03     54.4910E-03    -26.9857E-03     53.7807E-03
             492     9.63661E-03     68.7856E-03    -9.39009E+06    -83.2019E+06    -1.95942E+06     289.162E+03    -27.8514E-03     54.9550E-03    -27.1036E-03     59.5019E-03    -27.8110E-03     54.5916E-03    -26.9791E-03     59.4342E-03
             493     10.5126E-03     68.8459E-03    -9.37994E+06    -77.1008E+06    -6.70124E+06     414.070E+03    -27.9848E-03     55.0465E-03    -27.0616E-03     64.7243E-03    -27.9635E-03     54.7376E-03    -26.9698E-03     64.6386E-03
             494     11.3893E-03     68.9081E-03    -9.47333E+06    -61.2360E+06    -7.90555E+06     370.398E+03    -28.2673E-03     55.2949E-03    -27.0276E-03     71.2981E-03    -28.2964E-03     55.0960E-03    -26.9646E-03     71.1851E-03
             495     12.2644E-03     68.9821E-03    -9.19553E+06    -39.1394E+06    -5.79858E+06     385.251E+03    -28.5429E-03     55.5524E-03    -27.0095E-03     76.8614E-03    -28.6438E-03     55.4986E-03    -26.9684E-03     76.7202E-03
             496     13.1406E-03     69.0535E-03    -9.04680E+06    -24.3613E+06    -12.4499E+06     318.344E+03    -28.4625E-03     55.4245E-03    -26.9620E-03     76.9195E-03    -28.6271E-03     55.5066E-03    -26.9758E-03     76.7455E-03
             497     14.0158E-03     69.1298E-03    -9.65205E+06     -58.973E+03    -27.4335E+06     258.863E+03    -28.9034E-03     55.7547E-03    -26.8513E-03     94.6223E-03    -29.2796E-03     56.1760E-03    -26.9744E-03     94.3926E-03
             498     14.8941E-03     69.2331E-03    -10.5864E+06     53.4788E+06    -23.4574E+06     648.774E+03    -34.1553E-03     60.9320E-03    -26.7767E-03     176.692E-03    -35.8412E-03     62.8381E-03    -26.9562E-03     176.423E-03
             499     15.7697E-03     69.4658E-03    -9.14153E+06     133.072E+06     30.8694E+06     777.369E+03    -44.3215E-03     71.2332E-03    -26.9117E-03     306.475E-03    -53.5567E-03     80.8188E-03    -26.9371E-03     307.714E-03
             500     16.6486E-03     69.8335E-03    -5.39462E+06     189.394E+06     98.5570E+06     72.0721E+03    -44.8548E-03     72.0161E-03    -27.1613E-03     346.465E-03    -61.3160E-03     88.8447E-03    -26.9353E-03     355.112E-03
             501     875.944E-06     69.4833E-03    -22.5476E+06    -105.482E+06    -21.9456E+06     142.241E+03    -27.0912E-03     54.1541E-03    -27.0628E-03     5.67759E-03    -27.0193E-03     53.6914E-03    -26.9869E-03     5.67661E-03
             502     1.75212E-03     69.4909E-03    -21.8949E+06    -107.233E+06    -20.0837E+06     52.9815E+03    -27.1094E-03     54.1955E-03    -27.0861E-03     10.5097E-03    -27.0347E-03     53.7206E-03    -26.9993E-03     10.5051E-03
             503     2.62801E-03     69.5034E-03    -20.9162E+06    -106.156E+06    -18.0357E+06     146.174E+03    -27.1354E-03     54.2291E-03    -27.0937E-03     15.6356E-03    -27.0609E-03     53.7557E-03    -26.9996E-03     15.6293E-03
             504     3.50418E-03     69.5206E-03    -19.5148E+06    -104.360E+06    -15.0188E+06     606.662E+03    -27.1756E-03     54.2773E-03    -27.1018E-03     20.8682E-03    -27.1018E-03     53.8074E-03    -26.9972E-03     20.8645E-03
             505     4.38009E-03     69.5431E-03    -18.1297E+06    -101.635E+06    -11.1085E+06     788.810E+03    -27.2402E-03     54.3533E-03    -27.1131E-03     26.1913E-03    -27.1704E-03     53.8905E-03    -26.9950E-03     26.1860E-03
             506     5.25626E-03     69.5704E-03    -16.6045E+06    -99.8209E+06    -7.48180E+06     446.160E+03    -27.3284E-03     54.4541E-03    -27.1257E-03     31.5973E-03    -27.2607E-03     53.9947E-03    -26.9943E-03     31.5826E-03
             507     6.13213E-03     69.6033E-03    -15.0129E+06    -98.4358E+06    -4.41233E+06     312.728E+03    -27.4131E-03     54.5491E-03    -27.1360E-03     37.0751E-03    -27.3465E-03     54.0925E-03    -26.9936E-03     37.0526E-03
             508     7.00842E-03     69.6409E-03    -13.3521E+06    -94.4892E+06    -2.51616E+06     269.654E+03    -27.5383E-03     54.6749E-03    -27.1366E-03     42.6586E-03    -27.4756E-03     54.2366E-03    -26.9928E-03     42.6278E-03
             509     7.88402E-03     69.6847E-03    -11.7669E+06    -92.0779E+06    -1.72061E+06     105.467E+03    -27.6368E-03     54.7699E-03    -27.1331E-03     48.2360E-03    -27.5763E-03     54.3458E-03    -26.9911E-03     48.1935E-03
             510     8.76070E-03     69.7326E-03    -10.7439E+06    -87.9026E+06    -1.47971E+06     188.331E+03    -27.7314E-03     54.8530E-03    -27.1216E-03     53.7928E-03    -27.6801E-03     54.4558E-03    -26.9859E-03     53.7391E-03
             511     9.63634E-03     69.7868E-03    -10.1531E+06    -83.3184E+06    -2.57748E+06     319.985E+03    -27.8974E-03     55.0001E-03    -27.1027E-03     59.3493E-03    -27.8598E-03     54.6382E-03    -26.9801E-03     59.2817E-03
             512     10.5128E-03     69.8454E-03    -9.56026E+06    -76.9958E+06    -7.13327E+06     336.273E+03    -28.1384E-03     55.2077E-03    -27.0693E-03     64.5400E-03    -28.1179E-03     54.9006E-03    -26.9794E-03     64.4523E-03
             513     11.3880E-03     69.9101E-03    -9.24256E+06    -61.6893E+06    -8.18446E+06     400.673E+03    -28.2222E-03     55.2627E-03    -27.0406E-03     71.0309E-03    -28.2488E-03     55.0613E-03    -26.9786E-03     70.9186E-03
             514     12.2654E-03     69.9809E-03    -9.20024E+06    -39.5642E+06    -6.37908E+06     319.286E+03    -28.4735E-03     55.4893E-03    -27.0157E-03     77.2867E-03    -28.5728E-03     55.4339E-03    -26.9769E-03     77.1454E-03
             515     13.1400E-03     70.0576E-03    -8.93573E+06    -24.3812E+06    -12.7787E+06     336.433E+03    -28.4152E-03     55.3784E-03    -26.9632E-03     77.1076E-03    -28.5794E-03     55.4614E-03    -26.9788E-03     76.9338E-03
             516     14.0177E-03     70.1263E-03    -9.56919E+06    -343.382E+03    -28.3972E+06     593.502E+03    -28.7487E-03     55.5921E-03    -26.8434E-03     94.1545E-03    -29.1203E-03     56.0109E-03    -26.9710E-03     93.9296E-03
             517     14.8930E-03     70.2364E-03    -10.4948E+06     54.0008E+06    -23.4939E+06     332.059E+03    -34.5815E-03     61.3644E-03    -26.7829E-03     176.011E-03    -36.2744E-03     63.2798E-03    -26.9634E-03     175.723E-03
             518     15.7686E-03     70.4647E-03    -9.65326E+06     133.519E+06     31.5016E+06    -273.426E+03    -44.5140E-03     71.4568E-03    -26.9428E-03     306.174E-03    -53.7791E-03     81.0702E-03    -26.9649E-03     307.421E-03
             519     16.6425E-03     70.8334E-03    -5.81093E+06     189.214E+06     98.0915E+06     128.587E+03    -44.5817E-03     71.7639E-03    -27.1822E-03     347.229E-03    -61.0584E-03     88.6071E-03    -26.9577E-03     355.907E-03
             520     876.147E-06     70.4840E-03    -22.4890E+06    -105.781E+06    -22.3453E+06     119.553E+03    -27.1012E-03     54.1622E-03    -27.0610E-03     5.69314E-03    -27.0280E-03     53.6985E-03    -26.9867E-03     5.69187E-03
             521     1.75196E-03     70.4915E-03    -21.8143E+06    -106.992E+06    -19.7759E+06     33.0320E+03    -27.1191E-03     54.2118E-03    -27.0926E-03     10.4930E-03    -27.0448E-03     53.7376E-03    -27.0047E-03     10.4881E-03
             522     2.62814E-03     70.5039E-03    -20.5189E+06    -106.426E+06    -17.0550E+06    -69.2293E+03    -27.1489E-03     54.2548E-03    -27.1059E-03     15.6250E-03    -27.0734E-03     53.7781E-03    -27.0071E-03     15.6159E-03
             523     3.50400E-03     70.5213E-03    -19.1613E+06    -105.031E+06    -14.4475E+06     205.403E+03    -27.1931E-03     54.3074E-03    -27.1143E-03     20.8511E-03    -27.1175E-03     53.8328E-03    -27.0064E-03     20.8421E-03
             524     4.38020E-03     70.5436E-03    -17.3592E+06    -101.699E+06    -11.4933E+06     386.209E+03    -27.2519E-03     54.3718E-03    -27.1199E-03     26.1832E-03    -27.1775E-03     53.9081E-03    -27.0048E-03     26.1726E-03
             525     5.25605E-03     70.5713E-03    -15.8933E+06    -99.8402E+06    -7.59904E+06     585.506E+03    -27.3315E-03     54.4644E-03    -27.1329E-03     31.5740E-03    -27.2600E-03     54.0041E-03    -27.0031E-03     31.5611E-03
             526     6.13229E-03     70.6037E-03    -14.6948E+06    -98.2309E+06    -4.29424E+06     413.444E+03    -27.4420E-03     54.5872E-03    -27.1452E-03     37.0495E-03    -27.3743E-03     54.1310E-03    -27.0029E-03     37.0281E-03
             527     7.00800E-03     70.6419E-03    -13.2718E+06    -94.3479E+06    -2.77189E+06    -47.3287E+03    -27.5172E-03     54.6609E-03    -27.1438E-03     42.6648E-03    -27.4539E-03     54.2236E-03    -27.0016E-03     42.6300E-03
             528     7.88448E-03     70.6849E-03    -11.8525E+06    -92.5273E+06    -2.06900E+06     6.48873E+03    -27.6177E-03     54.7554E-03    -27.1377E-03     48.1924E-03    -27.5565E-03     54.3296E-03    -26.9967E-03     48.1486E-03
             529     8.76009E-03     70.7334E-03    -10.9557E+06    -87.8953E+06    -1.64654E+06     341.511E+03    -27.8249E-03     54.9546E-03    -27.1297E-03     53.6896E-03    -27.7746E-03     54.5581E-03    -26.9946E-03     53.6374E-03
             530     9.63658E-03     70.7873E-03    -10.1378E+06    -83.0273E+06    -2.72395E+06     254.715E+03    -28.0114E-03     55.1307E-03    -27.1194E-03     59.1121E-03    -27.9741E-03     54.7706E-03    -26.9979E-03     59.0430E-03
             531     10.5120E-03     70.8465E-03     -9.5822E+06    -77.1845E+06    -7.60617E+06     152.558E+03    -28.1086E-03     55.1962E-03    -27.0875E-03     64.5978E-03    -28.0873E-03     54.8889E-03    -26.9997E-03     64.5078E-03
             532     11.3888E-03     70.9106E-03    -9.33131E+06    -61.4964E+06    -8.50603E+06     148.584E+03    -28.2645E-03     55.3224E-03    -27.0578E-03     71.0230E-03    -28.2915E-03     55.1226E-03    -26.9977E-03     70.9070E-03
             533     12.2638E-03     70.9814E-03    -8.94833E+06    -39.3792E+06    -6.43304E+06     241.052E+03    -28.2645E-03     55.2914E-03    -27.0269E-03     77.2935E-03    -28.3622E-03     55.2362E-03    -26.9890E-03     77.1527E-03
             534     13.1416E-03     71.0584E-03    -8.99367E+06    -24.5670E+06    -12.8520E+06    -2.41498E+03    -28.3092E-03     55.2733E-03    -26.9641E-03     76.7661E-03    -28.4715E-03     55.3538E-03    -26.9797E-03     76.5892E-03
             535     14.0159E-03     71.1271E-03    -8.98041E+06    -839.589E+03    -27.9556E+06     540.039E+03    -29.2271E-03     56.0854E-03    -26.8584E-03     93.6743E-03    -29.6008E-03     56.5054E-03    -26.9839E-03     93.4427E-03
             536     14.8925E-03     71.2372E-03    -9.78555E+06     54.1351E+06    -22.3142E+06     589.012E+03    -34.7635E-03     61.5811E-03    -26.8177E-03     176.734E-03    -36.4621E-03     63.5019E-03    -26.9935E-03     176.449E-03
             537     15.7684E-03     71.4665E-03    -10.2012E+06     133.726E+06     31.9123E+06     458.228E+03    -44.2761E-03     71.2459E-03    -26.9698E-03     306.391E-03    -53.5198E-03     80.8356E-03    -26.9894E-03     307.664E-03
             538     16.6474E-03     71.8355E-03    -6.27374E+06     189.023E+06     97.7304E+06     100.371E+03    -44.2946E-03     71.4825E-03    -27.1879E-03     347.949E-03    -60.7872E-03     88.3404E-03    -26.9642E-03     356.644E-03
             539     875.881E-06     71.4845E-03    -21.9191E+06    -106.180E+06    -21.3738E+06     31.8657E+03    -27.1091E-03     54.2087E-03    -27.0997E-03     5.66570E-03    -27.0338E-03     53.7408E-03    -27.0208E-03     5.66332E-03
             540     1.75211E-03     71.4922E-03    -21.4475E+06    -106.689E+06    -19.9495E+06     180.432E+03    -27.1195E-03     54.2260E-03    -27.1065E-03     10.4866E-03    -27.0435E-03     53.7530E-03    -27.0205E-03     10.4836E-03
             541     2.62793E-03     71.5045E-03    -20.9145E+06    -106.605E+06    -17.2545E+06     49.3923E+03    -27.1613E-03     54.2788E-03    -27.1175E-03     15.6246E-03    -27.0872E-03     53.8021E-03    -27.0189E-03     15.6170E-03
             542     3.50413E-03     71.5219E-03    -19.8211E+06    -105.160E+06    -14.6687E+06     61.5151E+03    -27.2124E-03     54.3399E-03    -27.1276E-03     20.8533E-03    -27.1395E-03     53.8659E-03    -27.0197E-03     20.8424E-03
             543     4.37992E-03     71.5443E-03    -18.7913E+06    -101.869E+06    -13.1023E+06    -14.7649E+03    -27.2600E-03     54.3884E-03    -27.1284E-03     26.1787E-03    -27.1903E-03     53.9283E-03    -27.0190E-03     26.1629E-03
             544     5.25619E-03     71.5718E-03    -17.2991E+06    -100.409E+06    -9.91728E+06     333.364E+03    -27.3384E-03     54.4763E-03    -27.1379E-03     31.5787E-03    -27.2698E-03     54.0186E-03    -27.0168E-03     31.5625E-03
             545     6.13195E-03     71.6045E-03    -15.1612E+06    -97.3146E+06    -5.16144E+06    -30.6192E+03    -27.4325E-03     54.5847E-03    -27.1522E-03     37.0809E-03    -27.3671E-03     54.1350E-03    -27.0149E-03     37.0539E-03
             546     7.00825E-03     71.6424E-03    -13.2484E+06    -94.4636E+06    -2.98821E+06    -318.012E+03    -27.5175E-03     54.6704E-03    -27.1529E-03     42.5685E-03    -27.4536E-03     54.2328E-03    -27.0117E-03     42.5301E-03
             547     7.88408E-03     71.6855E-03    -12.3309E+06    -93.0079E+06    -2.90058E+06     269.774E+03    -27.7006E-03     54.8491E-03    -27.1485E-03     48.1359E-03    -27.6400E-03     54.4229E-03    -27.0102E-03     48.0952E-03
             548     8.76039E-03     71.7343E-03    -11.3798E+06    -87.8313E+06    -2.09524E+06     345.056E+03    -27.8949E-03     55.0429E-03    -27.1480E-03     53.7088E-03    -27.8462E-03     54.6481E-03    -27.0146E-03     53.6565E-03
             549     9.63566E-03     71.7881E-03    -10.3351E+06    -82.8183E+06    -3.05302E+06     6.95216E+03    -28.0059E-03     55.1449E-03    -27.1390E-03     59.2218E-03    -27.9695E-03     54.7866E-03    -27.0192E-03     59.1495E-03
             550     10.5123E-03     71.8470E-03    -9.54299E+06    -77.3319E+06    -7.98195E+06    -118.706E+03    -28.1011E-03     55.2058E-03    -27.1047E-03     64.5340E-03    -28.0787E-03     54.8981E-03    -27.0186E-03     64.4405E-03
             551     11.3880E-03     71.9110E-03    -9.13269E+06    -61.0756E+06    -8.86406E+06    -82.0540E+03    -28.2658E-03     55.3381E-03    -27.0723E-03     71.0537E-03    -28.2920E-03     55.1408E-03    -27.0148E-03     70.9348E-03
             552     12.2645E-03     71.9829E-03    -8.47428E+06    -39.0553E+06    -6.38658E+06    -58.5162E+03    -28.3245E-03     55.3689E-03    -27.0444E-03     76.9621E-03    -28.4202E-03     55.3144E-03    -27.0074E-03     76.8168E-03
             553     13.1400E-03     72.0570E-03    -8.35992E+06    -25.0299E+06    -13.2163E+06     113.870E+03    -28.3148E-03     55.2962E-03    -26.9813E-03     77.1483E-03    -28.4729E-03     55.3740E-03    -26.9990E-03     76.9735E-03
             554     14.0169E-03     72.1309E-03    -10.2445E+06    -650.655E+03    -28.7983E+06    -102.670E+03    -29.2731E-03     56.1481E-03    -26.8751E-03     93.9564E-03    -29.6537E-03     56.5736E-03    -27.0033E-03     93.7161E-03
             555     14.8921E-03     72.2355E-03    -11.7511E+06     53.2328E+06    -24.5662E+06     683.617E+03    -34.8249E-03     61.6561E-03    -26.8312E-03     176.674E-03    -36.5264E-03     63.5761E-03    -27.0142E-03     176.389E-03
             556     15.7683E-03     72.4699E-03    -9.73679E+06     133.712E+06     30.6365E+06     362.630E+03    -44.2346E-03     71.2204E-03    -26.9857E-03     305.726E-03    -53.4353E-03     80.7723E-03    -27.0123E-03     306.981E-03
             557     16.6429E-03     72.8313E-03    -5.52348E+06     190.019E+06     98.0891E+06    -242.984E+03    -44.0198E-03     71.2299E-03    -27.2101E-03     346.728E-03    -60.4755E-03     88.0561E-03    -26.9872E-03     355.428E-03
             558     876.082E-06     72.4852E-03    -22.2629E+06    -106.497E+06    -21.5880E+06     376.572E+03    -27.0960E-03     54.2387E-03    -27.1427E-03     5.67005E-03    -27.0217E-03     53.7700E-03    -27.0639E-03     5.67208E-03
             559     1.75189E-03     72.4927E-03    -21.5804E+06    -106.839E+06    -20.1937E+06     235.953E+03    -27.1387E-03     54.2607E-03    -27.1220E-03     10.4952E-03    -27.0628E-03     53.7875E-03    -27.0367E-03     10.4929E-03
             560     2.62810E-03     72.5052E-03    -20.5965E+06    -106.597E+06    -17.5200E+06     320.424E+03    -27.1781E-03     54.3105E-03    -27.1324E-03     15.6205E-03    -27.1020E-03     53.8337E-03    -27.0356E-03     15.6164E-03
             561     3.50387E-03     72.5225E-03    -19.4407E+06    -104.934E+06    -14.4970E+06     1.37469E+03    -27.2261E-03     54.3696E-03    -27.1435E-03     20.8493E-03    -27.1519E-03     53.8959E-03    -27.0356E-03     20.8376E-03
             562     4.38010E-03     72.5450E-03    -18.2384E+06    -102.335E+06    -11.9844E+06     302.869E+03    -27.2855E-03     54.4357E-03    -27.1501E-03     26.1552E-03    -27.2140E-03     53.9708E-03    -27.0352E-03     26.1434E-03
             563     5.25585E-03     72.5724E-03    -17.0309E+06    -99.8598E+06    -9.79850E+06    -264.577E+03    -27.3488E-03     54.5026E-03    -27.1538E-03     31.5793E-03    -27.2798E-03     54.0471E-03    -27.0333E-03     31.5553E-03
             564     6.13212E-03     72.6052E-03    -15.4632E+06    -96.8103E+06    -6.90155E+06    -787.573E+03    -27.4197E-03     54.5770E-03    -27.1573E-03     37.0594E-03    -27.3541E-03     54.1328E-03    -27.0290E-03     37.0227E-03
             565     7.00795E-03     72.6430E-03    -14.3576E+06    -95.2492E+06    -3.94200E+06    -79.2584E+03    -27.5951E-03     54.7622E-03    -27.1671E-03     42.5524E-03    -27.5343E-03     54.3237E-03    -27.0279E-03     42.5169E-03
             566     7.88406E-03     72.6863E-03    -13.2239E+06    -92.8147E+06    -3.32251E+06     117.326E+03    -27.7482E-03     54.9175E-03    -27.1693E-03     48.1664E-03    -27.6917E-03     54.4941E-03    -27.0321E-03     48.1236E-03
             567     8.75960E-03     72.7351E-03    -11.7243E+06    -87.9385E+06    -2.76231E+06    -74.3929E+03    -27.8103E-03     54.9739E-03    -27.1636E-03     53.7822E-03    -27.7620E-03     54.5798E-03    -27.0329E-03     53.7248E-03
             568     9.63641E-03     72.7887E-03    -10.3699E+06    -82.7308E+06    -3.49222E+06    -316.269E+03    -27.9842E-03     55.1323E-03    -27.1481E-03     59.3130E-03    -27.9474E-03     54.7751E-03    -27.0306E-03     59.2367E-03
             569     10.5118E-03     72.8479E-03    -9.72387E+06    -77.0855E+06    -8.30879E+06    -410.811E+03    -28.1704E-03     55.2854E-03    -27.1151E-03     64.5996E-03    -28.1489E-03     54.9798E-03    -27.0307E-03     64.5021E-03
             570     11.3879E-03     72.9117E-03    -9.20180E+06    -61.1778E+06    -9.32464E+06    -348.427E+03    -28.3006E-03     55.3858E-03    -27.0852E-03     71.2013E-03    -28.3265E-03     55.1889E-03    -27.0298E-03     71.0786E-03
             571     12.2639E-03     72.9831E-03    -8.90332E+06    -39.4747E+06    -7.15229E+06    -442.934E+03    -28.5168E-03     55.5802E-03    -27.0635E-03     76.9159E-03    -28.6135E-03     55.5260E-03    -27.0291E-03     76.7642E-03
             572     13.1403E-03     73.0588E-03    -8.75713E+06    -25.8183E+06    -13.8610E+06    -115.666E+03    -28.3831E-03     55.3925E-03    -27.0094E-03     76.9004E-03    -28.5417E-03     55.4686E-03    -27.0285E-03     76.7215E-03
             573     14.0161E-03     73.1300E-03    -9.77016E+06    -103.138E+03    -28.8341E+06     392.996E+03    -29.1415E-03     56.0406E-03    -26.8991E-03     94.1995E-03    -29.5182E-03     56.4658E-03    -27.0289E-03     93.9671E-03
             574     14.8916E-03     73.2393E-03    -11.2589E+06     54.0573E+06    -24.8943E+06    -256.469E+03    -34.7521E-03     61.5991E-03    -26.8470E-03     176.291E-03    -36.4456E-03     63.5167E-03    -27.0335E-03     175.996E-03
             575     15.7678E-03     73.4676E-03    -9.97749E+06     133.182E+06     29.2046E+06    -36.7441E+03    -44.3164E-03     71.3113E-03    -26.9950E-03     306.613E-03    -53.5713E-03     80.9189E-03    -27.0276E-03     307.867E-03
             576     16.6446E-03     73.8377E-03    -5.80265E+06     189.695E+06     97.2644E+06     545.096E+03    -43.9394E-03     71.1521E-03    -27.2126E-03     347.304E-03    -60.3903E-03     87.9737E-03    -26.9930E-03     356.060E-03
             577     875.918E-06     73.4858E-03    -22.2297E+06    -106.855E+06    -22.1900E+06     374.251E+03    -27.1328E-03     54.2688E-03    -27.1360E-03     5.67025E-03    -27.0570E-03     53.7991E-03    -27.0598E-03     5.67225E-03
             578     1.75205E-03     73.4935E-03    -21.6718E+06    -106.927E+06    -20.1585E+06     74.7637E+03    -27.1689E-03     54.3099E-03    -27.1410E-03     10.4872E-03    -27.0935E-03     53.8364E-03    -27.0553E-03     10.4828E-03
             579     2.62781E-03     73.5058E-03    -20.4611E+06    -106.510E+06    -17.7386E+06    -43.9232E+03    -27.1955E-03     54.3474E-03    -27.1519E-03     15.6235E-03    -27.1186E-03     53.8712E-03    -27.0565E-03     15.6147E-03
             580     3.50402E-03     73.5233E-03    -19.1276E+06    -104.795E+06    -14.6400E+06    -32.3387E+03    -27.2380E-03     54.3992E-03    -27.1612E-03     20.8498E-03    -27.1623E-03     53.9260E-03    -27.0547E-03     20.8377E-03
             581     4.37977E-03     73.5456E-03    -17.5670E+06    -102.864E+06    -11.1687E+06     20.2990E+03    -27.3002E-03     54.4716E-03    -27.1714E-03     26.1709E-03    -27.2257E-03     54.0020E-03    -27.0526E-03     26.1555E-03
             582     5.25598E-03     73.5732E-03    -16.0639E+06    -98.5886E+06    -8.78119E+06    -213.861E+03    -27.3636E-03     54.5358E-03    -27.1722E-03     31.5708E-03    -27.2931E-03     54.0838E-03    -27.0499E-03     31.5474E-03
             583     6.13179E-03     73.6057E-03    -15.6173E+06    -97.0960E+06    -7.25308E+06    -382.539E+03    -27.4699E-03     54.6447E-03    -27.1748E-03     37.0332E-03    -27.4041E-03     54.1998E-03    -27.0476E-03     37.0015E-03
             584     7.00798E-03     73.6439E-03    -14.5239E+06    -95.9218E+06    -4.65672E+06    -114.268E+03    -27.6064E-03     54.7912E-03    -27.1848E-03     42.6573E-03    -27.5444E-03     54.3507E-03    -27.0480E-03     42.6214E-03
             585     7.88361E-03     73.6872E-03    -12.8627E+06    -92.4044E+06    -2.66977E+06    -250.685E+03    -27.7112E-03     54.8989E-03    -27.1877E-03     48.2160E-03    -27.6544E-03     54.4761E-03    -27.0484E-03     48.1686E-03
             586     8.76020E-03     73.7355E-03    -11.4283E+06    -87.4859E+06    -2.91829E+06    -869.885E+03    -27.8262E-03     55.0013E-03    -27.1751E-03     53.7665E-03    -27.7769E-03     54.6093E-03    -27.0462E-03     53.6988E-03
             587     9.63555E-03     73.7896E-03    -10.1313E+06    -82.6276E+06    -3.84113E+06    -835.384E+03    -27.9667E-03     55.1246E-03    -27.1579E-03     59.2989E-03    -27.9282E-03     54.7680E-03    -27.0426E-03     59.2162E-03
             588     10.5120E-03     73.8487E-03    -9.26239E+06    -77.0941E+06    -8.22161E+06    -794.690E+03    -28.1494E-03     55.2736E-03    -27.1242E-03     64.5576E-03    -28.1257E-03     54.9672E-03    -27.0401E-03     64.4552E-03
             589     11.3881E-03     73.9123E-03    -9.02930E+06    -61.2052E+06    -9.64325E+06    -758.026E+03    -28.4430E-03     55.5395E-03    -27.0964E-03     71.2038E-03    -28.4677E-03     55.3428E-03    -27.0428E-03     71.0751E-03
             590     12.2637E-03     73.9845E-03    -9.11594E+06    -39.9593E+06    -7.64436E+06    -493.311E+03    -28.5822E-03     55.6635E-03    -27.0813E-03     77.0988E-03    -28.6792E-03     55.6084E-03    -27.0484E-03     76.9459E-03
             591     13.1392E-03     74.0592E-03    -9.20739E+06    -26.3616E+06    -14.4075E+06    -224.030E+03    -28.4837E-03     55.5148E-03    -27.0311E-03     77.1287E-03    -28.6435E-03     55.5901E-03    -27.0516E-03     76.9473E-03
             592     14.0154E-03     74.1310E-03    -8.89486E+06    -160.898E+03    -28.2217E+06     241.271E+03    -29.0236E-03     55.9443E-03    -26.9207E-03     94.8262E-03    -29.3964E-03     56.3668E-03    -27.0487E-03     94.5940E-03
             593     14.8919E-03     74.2400E-03    -9.57571E+06     54.3352E+06    -24.2914E+06     346.096E+03    -34.4586E-03     61.3100E-03    -26.8514E-03     176.918E-03    -36.1482E-03     63.2289E-03    -27.0377E-03     176.638E-03
             594     15.7677E-03     74.4690E-03    -10.2159E+06     132.787E+06     28.2378E+06     157.205E+03    -43.8214E-03     70.7924E-03    -26.9711E-03     306.845E-03    -53.0697E-03     80.3940E-03    -27.0076E-03     308.159E-03
             595     16.6454E-03     74.8367E-03    -6.12319E+06     189.632E+06     96.9317E+06    -5.73539E+03    -43.9467E-03     71.1243E-03    -27.1776E-03     347.354E-03    -60.3664E-03     87.9144E-03    -26.9590E-03     356.069E-03
             596     876.006E-06     74.4866E-03    -21.7968E+06    -107.160E+06    -22.1394E+06     145.301E+03    -27.1633E-03     54.3184E-03    -27.1550E-03     5.67101E-03    -27.0849E-03     53.8465E-03    -27.0788E-03     5.67008E-03
             597     1.75183E-03     74.4941E-03    -21.8741E+06    -106.919E+06    -20.7959E+06     144.767E+03    -27.1808E-03     54.3401E-03    -27.1592E-03     10.5014E-03    -27.1055E-03     53.8678E-03    -27.0765E-03     10.4979E-03
             598     2.62796E-03     74.5066E-03    -21.4956E+06    -106.051E+06    -18.7776E+06    -139.391E+03    -27.2078E-03     54.3739E-03    -27.1661E-03     15.6383E-03    -27.1353E-03     53.9030E-03    -27.0750E-03     15.6282E-03
             599     3.50374E-03     74.5238E-03    -20.4660E+06    -104.858E+06    -16.6031E+06    -426.994E+03    -27.2446E-03     54.4153E-03    -27.1707E-03     20.8791E-03    -27.1726E-03     53.9465E-03    -27.0720E-03     20.8619E-03
             600     4.37993E-03     74.5465E-03    -18.8124E+06    -102.480E+06    -12.7346E+06    -684.942E+03    -27.2984E-03     54.4784E-03    -27.1799E-03     26.2072E-03    -27.2285E-03     54.0147E-03    -27.0677E-03     26.1827E-03
             601     5.25574E-03     74.5737E-03    -17.2046E+06    -99.0720E+06    -8.86951E+06    -236.152E+03    -27.3909E-03     54.5802E-03    -27.1894E-03     31.5930E-03    -27.3252E-03     54.1275E-03    -27.0651E-03     31.5693E-03
             602     6.13186E-03     74.6067E-03    -15.6607E+06    -96.9732E+06    -5.55337E+06     323.758E+03    -27.5053E-03     54.7064E-03    -27.2011E-03     37.0945E-03    -27.4424E-03     54.2597E-03    -27.0655E-03     37.0720E-03
             603     7.00755E-03     74.6444E-03    -14.4991E+06    -95.4359E+06    -4.70096E+06    -539.976E+03    -27.5637E-03     54.7633E-03    -27.1995E-03     42.6730E-03    -27.5022E-03     54.3251E-03    -27.0636E-03     42.6318E-03
             604     7.88405E-03     74.6880E-03    -12.8354E+06    -92.3110E+06    -4.65267E+06    -969.537E+03    -27.6952E-03     54.8832E-03    -27.1879E-03     48.2667E-03    -27.6355E-03     54.4637E-03    -27.0587E-03     48.2102E-03
             605     8.75939E-03     74.7363E-03    -11.5552E+06    -86.4764E+06    -3.46114E+06    -1.20205E+06    -27.8798E-03     55.0616E-03    -27.1819E-03     53.8125E-03    -27.8318E-03     54.6758E-03    -27.0570E-03     53.7403E-03
             606     9.63593E-03     74.7904E-03    -10.5840E+06    -82.7602E+06    -4.41029E+06    -1.55549E+06    -27.9676E-03     55.1360E-03    -27.1684E-03     59.2961E-03    -27.9302E-03     54.7801E-03    -27.0551E-03     59.2041E-03
             607     10.5118E-03     74.8491E-03    -9.48662E+06    -77.0371E+06    -8.77152E+06    -1.49029E+06    -28.2054E-03     55.3408E-03    -27.1353E-03     64.7025E-03    -28.1823E-03     55.0359E-03    -27.0537E-03     64.5908E-03
             608     11.3874E-03     74.9137E-03    -8.90702E+06    -61.5583E+06    -9.80876E+06    -1.17843E+06    -28.4182E-03     55.5277E-03    -27.1095E-03     71.3031E-03    -28.4414E-03     55.3292E-03    -27.0564E-03     71.1694E-03
             609     12.2635E-03     74.9850E-03    -8.41365E+06    -40.6696E+06    -7.75043E+06    -737.264E+03    -28.5018E-03     55.5909E-03    -27.0891E-03     77.2817E-03    -28.5941E-03     55.5315E-03    -27.0567E-03     77.1261E-03
             610     13.1402E-03     75.0603E-03    -8.47983E+06    -26.1294E+06    -14.3971E+06    -132.328E+03    -28.4901E-03     55.5242E-03    -27.0342E-03     77.3335E-03    -28.6470E-03     55.6001E-03    -27.0560E-03     77.1531E-03
             611     14.0156E-03     75.1322E-03    -9.35774E+06     -704.78E+03    -28.4920E+06    -365.848E+03    -28.9339E-03     55.8566E-03    -26.9227E-03     94.5328E-03    -29.3078E-03     56.2773E-03    -27.0505E-03     94.2938E-03
             612     14.8921E-03     75.2396E-03    -10.6550E+06     53.2292E+06    -24.0792E+06     389.869E+03    -34.0496E-03     60.8922E-03    -26.8426E-03     177.049E-03    -35.7395E-03     62.8031E-03    -27.0247E-03     176.780E-03
             613     15.7689E-03     75.4712E-03    -9.49035E+06     134.102E+06     28.8420E+06     886.356E+03    -43.6747E-03     70.6184E-03    -26.9437E-03     306.486E-03    -52.8722E-03     80.1747E-03    -26.9802E-03     307.801E-03
             614     16.6460E-03     75.8348E-03    -5.90600E+06     190.147E+06     96.4294E+06    -314.432E+03    -44.5898E-03     71.7532E-03    -27.1634E-03     347.310E-03    -61.0562E-03     88.5940E-03    -26.9484E-03     355.980E-03
             615     875.899E-06     75.4872E-03    -24.4075E+06    -107.426E+06    -24.2617E+06    -63.4717E+03    -27.1657E-03     54.3335E-03    -27.1678E-03     5.69692E-03    -27.0970E-03     53.8671E-03    -27.0979E-03     5.69329E-03
             616     1.75196E-03     75.4950E-03    -23.7380E+06    -106.850E+06    -22.7528E+06     63.3302E+03    -27.1834E-03     54.3497E-03    -27.1663E-03     10.5159E-03    -27.1146E-03     53.8833E-03    -27.0907E-03     10.5113E-03
             617     2.62777E-03     75.5072E-03    -22.6865E+06    -105.660E+06    -20.2985E+06    -177.801E+03    -27.2137E-03     54.3859E-03    -27.1722E-03     15.6555E-03    -27.1455E-03     53.9209E-03    -27.0875E-03     15.6449E-03
             618     3.50388E-03     75.5248E-03    -21.5308E+06    -104.033E+06    -17.2784E+06    -779.954E+03    -27.2548E-03     54.4350E-03    -27.1802E-03     20.8862E-03    -27.1883E-03     53.9729E-03    -27.0845E-03     20.8645E-03
             619     4.37969E-03     75.5469E-03    -20.2219E+06    -102.193E+06    -13.8249E+06    -1.17454E+06    -27.3160E-03     54.5060E-03    -27.1900E-03     26.2208E-03    -27.2519E-03     54.0474E-03    -27.0816E-03     26.1900E-03
             620     5.25580E-03     75.5748E-03    -18.3150E+06    -99.9044E+06    -9.64755E+06    -788.663E+03    -27.4007E-03     54.6036E-03    -27.2029E-03     31.6374E-03    -27.3383E-03     54.1495E-03    -27.0797E-03     31.6066E-03
             621     6.13159E-03     75.6072E-03    -15.8939E+06    -97.1792E+06    -6.20661E+06    -445.440E+03    -27.4789E-03     54.6890E-03    -27.2101E-03     37.1441E-03    -27.4159E-03     54.2426E-03    -27.0772E-03     37.1117E-03
             622     7.00785E-03     75.6455E-03    -13.8162E+06    -93.9526E+06    -3.99279E+06    -568.992E+03    -27.5877E-03     54.7975E-03    -27.2097E-03     42.6558E-03    -27.5260E-03     54.3647E-03    -27.0734E-03     42.6141E-03
             623     7.88344E-03     75.6882E-03    -12.9483E+06    -92.0101E+06    -4.55101E+06    -1.35541E+06    -27.7166E-03     54.9161E-03    -27.1995E-03     48.2958E-03    -27.6580E-03     54.4981E-03    -27.0700E-03     48.2342E-03
             624     8.76002E-03     75.7377E-03    -11.5697E+06    -86.1498E+06    -3.99091E+06    -1.74902E+06    -27.8187E-03     55.0058E-03    -27.1871E-03     53.8348E-03    -27.7704E-03     54.6222E-03    -27.0654E-03     53.7560E-03
             625     9.63548E-03     75.7906E-03    -10.1669E+06    -82.1985E+06    -4.20592E+06    -2.16041E+06    -28.0346E-03     55.2101E-03    -27.1755E-03     59.3470E-03    -27.9965E-03     54.8563E-03    -27.0626E-03     59.2468E-03
             626     10.5116E-03     75.8504E-03    -9.81006E+06    -77.2196E+06    -9.64257E+06    -2.07932E+06    -28.2152E-03     55.3567E-03    -27.1415E-03     64.9211E-03    -28.1921E-03     55.0525E-03    -27.0635E-03     64.8021E-03
             627     11.3876E-03     75.9143E-03    -9.61418E+06    -62.2261E+06    -10.4870E+06    -1.72789E+06    -28.3059E-03     55.4190E-03    -27.1130E-03     71.3753E-03    -28.3308E-03     55.2192E-03    -27.0613E-03     71.2348E-03
             628     12.2640E-03     75.9857E-03    -9.23328E+06    -41.2494E+06    -8.29211E+06    -1.28891E+06    -28.5620E-03     55.6528E-03    -27.0907E-03     77.4622E-03    -28.6570E-03     55.5926E-03    -27.0590E-03     77.2991E-03
             629     13.1390E-03     76.0617E-03    -8.27787E+06    -25.7828E+06    -13.9613E+06    -852.260E+03    -28.5471E-03     55.5889E-03    -27.0418E-03     77.0926E-03    -28.7052E-03     55.6665E-03    -27.0622E-03     76.9018E-03
             630     14.0157E-03     76.1323E-03    -8.76966E+06    -2.27567E+06    -29.2867E+06     222.405E+03    -28.7882E-03     55.7126E-03    -26.9244E-03     93.8239E-03    -29.1528E-03     56.1230E-03    -27.0548E-03     93.5939E-03
             631     14.8917E-03     76.2407E-03    -9.31498E+06     52.4901E+06    -26.4554E+06     539.976E+03    -33.8005E-03     60.6248E-03    -26.8243E-03     176.490E-03    -35.4732E-03     62.5274E-03    -27.0192E-03     176.228E-03
             632     15.7696E-03     76.4692E-03    -8.38481E+06     134.466E+06     28.7392E+06     104.684E+03    -44.2429E-03     71.1882E-03    -26.9452E-03     306.363E-03    -53.4533E-03     80.7628E-03    -26.9843E-03     307.578E-03
             633     16.6449E-03     76.8389E-03    -5.31925E+06     190.898E+06     97.6685E+06     614.484E+03    -44.6685E-03     71.8580E-03    -27.1895E-03     346.985E-03    -61.1092E-03     88.6743E-03    -26.9702E-03     355.644E-03
             634     875.953E-06     76.4881E-03    -25.9462E+06    -107.337E+06    -25.5980E+06    -211.624E+03    -27.1763E-03     54.3419E-03    -27.1656E-03     5.67202E-03    -27.1134E-03     53.8802E-03    -27.1003E-03     5.66648E-03
             635     1.75183E-03     76.4955E-03    -25.2393E+06    -106.538E+06    -24.0131E+06    -350.492E+03    -27.1880E-03     54.3595E-03    -27.1714E-03     10.5250E-03    -27.1253E-03     53.8986E-03    -27.1004E-03     10.5152E-03
             636     2.62787E-03     76.5081E-03    -24.0993E+06    -105.178E+06    -21.4316E+06    -713.346E+03    -27.2176E-03     54.3954E-03    -27.1778E-03     15.6628E-03    -27.1554E-03     53.9365E-03    -27.0975E-03     15.6454E-03
             637     3.50372E-03     76.5253E-03    -22.8248E+06    -103.311E+06    -17.8817E+06    -823.913E+03    -27.2660E-03     54.4549E-03    -27.1888E-03     20.8989E-03    -27.2062E-03     53.9991E-03    -27.0953E-03     20.8767E-03
             638     4.37976E-03     76.5480E-03    -21.6463E+06    -101.555E+06    -14.5551E+06    -1.19680E+06    -27.3261E-03     54.5257E-03    -27.1996E-03     26.2498E-03    -27.2690E-03     54.0734E-03    -27.0938E-03     26.2187E-03
             639     5.25559E-03     76.5752E-03    -19.8806E+06    -99.7027E+06    -11.7321E+06    -1.87649E+06    -27.3850E-03     54.5902E-03    -27.2052E-03     31.6944E-03    -27.3276E-03     54.1423E-03    -27.0905E-03     31.6497E-03
             640     6.13173E-03     76.6083E-03    -17.2551E+06    -97.2023E+06    -7.91447E+06    -2.07692E+06    -27.4680E-03     54.6795E-03    -27.2115E-03     37.1561E-03    -27.4093E-03     54.2374E-03    -27.0851E-03     37.1028E-03
             641     7.00755E-03     76.6458E-03    -14.5926E+06    -94.2688E+06    -4.28054E+06    -1.42862E+06    -27.6189E-03     54.8372E-03    -27.2183E-03     42.7267E-03    -27.5602E-03     54.4044E-03    -27.0818E-03     42.6739E-03
             642     7.88372E-03     76.6897E-03    -12.3924E+06    -90.0083E+06    -2.84594E+06    -1.61497E+06    -27.7259E-03     54.9402E-03    -27.2144E-03     48.2552E-03    -27.6699E-03     54.5290E-03    -27.0801E-03     48.1902E-03
             643     8.75928E-03     76.7375E-03    -10.9669E+06    -86.0232E+06    -3.74832E+06    -2.46166E+06    -27.7933E-03     54.9891E-03    -27.1958E-03     53.8052E-03    -27.7426E-03     54.6049E-03    -27.0739E-03     53.7172E-03
             644     9.63593E-03     76.7922E-03    -10.1968E+06    -81.8998E+06    -4.77339E+06    -2.47022E+06    -28.0011E-03     55.1781E-03    -27.1770E-03     59.5271E-03    -27.9628E-03     54.8267E-03    -27.0673E-03     59.4231E-03
             645     10.5114E-03     76.8508E-03    -9.57096E+06    -77.2828E+06    -9.44577E+06    -2.50106E+06    -28.1599E-03     55.3025E-03    -27.1426E-03     64.8869E-03    -28.1356E-03     54.9973E-03    -27.0639E-03     64.7626E-03
             646     11.3877E-03     76.9151E-03    -9.04182E+06    -62.7274E+06    -11.3639E+06    -2.19249E+06    -28.3629E-03     55.4715E-03    -27.1086E-03     71.4399E-03    -28.3831E-03     55.2699E-03    -27.0613E-03     71.2931E-03
             647     12.2633E-03     76.9866E-03    -8.63899E+06    -40.8341E+06    -8.80572E+06    -1.70511E+06    -28.4541E-03     55.5386E-03    -27.0845E-03     77.6521E-03    -28.5452E-03     55.4796E-03    -27.0568E-03     77.4849E-03
             648     13.1400E-03     77.0629E-03    -8.97520E+06    -27.3698E+06    -15.9256E+06    -1.05648E+06    -28.3286E-03     55.3494E-03    -27.0208E-03     77.9423E-03    -28.4837E-03     55.4217E-03    -27.0478E-03     77.7523E-03
             649     14.0149E-03     77.1332E-03    -8.99228E+06    -3.29058E+06    -30.1536E+06    -337.800E+03    -28.9022E-03     55.8056E-03    -26.9033E-03     94.2011E-03    -29.2651E-03     56.2122E-03    -27.0363E-03     93.9638E-03
             650     14.8927E-03     77.2396E-03    -9.22758E+06     52.9558E+06    -24.2568E+06     213.985E+03    -34.6348E-03     61.4796E-03    -26.8448E-03     176.053E-03    -36.3206E-03     63.3910E-03    -27.0295E-03     175.762E-03
             651     15.7681E-03     77.4708E-03    -9.88328E+06     134.425E+06     29.5467E+06     247.243E+03    -44.3239E-03     71.3113E-03    -26.9874E-03     306.698E-03    -53.5705E-03     80.9144E-03    -27.0202E-03     307.964E-03
             652     16.6430E-03     77.8407E-03    -6.28641E+06     190.255E+06     96.6441E+06     118.344E+03    -43.7262E-03     70.9218E-03    -27.1955E-03     347.580E-03    -60.1506E-03     87.7189E-03    -26.9791E-03     356.306E-03
             653     875.928E-06     77.4887E-03    -25.5104E+06    -106.873E+06    -25.3011E+06    -364.432E+03    -27.1868E-03     54.3568E-03    -27.1700E-03     5.67938E-03    -27.1228E-03     53.8963E-03    -27.1045E-03     5.67184E-03
             654     1.75188E-03     77.4965E-03    -24.8834E+06    -105.925E+06    -23.5655E+06    -625.746E+03    -27.1987E-03     54.3785E-03    -27.1798E-03     10.5390E-03    -27.1358E-03     53.9195E-03    -27.1079E-03     10.5255E-03
             655     2.62776E-03     77.5087E-03    -23.9911E+06    -104.493E+06    -20.8135E+06    -905.416E+03    -27.2298E-03     54.4185E-03    -27.1887E-03     15.6757E-03    -27.1690E-03     53.9620E-03    -27.1065E-03     15.6557E-03
             656     3.50376E-03     77.5263E-03    -22.6210E+06    -102.951E+06    -17.9607E+06    -1.15664E+06    -27.2720E-03     54.4688E-03    -27.1968E-03     20.9249E-03    -27.2115E-03     54.0147E-03    -27.1046E-03     20.8984E-03
             657     4.37964E-03     77.5485E-03    -20.6575E+06    -100.579E+06    -14.0926E+06    -1.49260E+06    -27.3250E-03     54.5317E-03    -27.2066E-03     26.2739E-03    -27.2651E-03     54.0822E-03    -27.1013E-03     26.2391E-03
             658     5.25569E-03     77.5763E-03    -19.0144E+06    -98.3073E+06    -10.3900E+06    -2.28811E+06    -27.3898E-03     54.6047E-03    -27.2149E-03     31.6878E-03    -27.3321E-03     54.1606E-03    -27.0967E-03     31.6377E-03
             659     6.13157E-03     77.6087E-03    -17.8783E+06    -97.0203E+06    -7.59432E+06    -2.74919E+06    -27.4919E-03     54.7131E-03    -27.2212E-03     37.1873E-03    -27.4370E-03     54.2724E-03    -27.0926E-03     37.1251E-03
             660     7.00763E-03     77.6471E-03    -16.0126E+06     -94.452E+06    -5.51236E+06    -2.89106E+06    -27.5954E-03     54.8171E-03    -27.2217E-03     42.7966E-03    -27.5417E-03     54.3872E-03    -27.0891E-03     42.7251E-03
             661     7.88340E-03     77.6900E-03    -13.3454E+06    -89.3599E+06    -4.51447E+06    -2.95931E+06    -27.6840E-03     54.8937E-03    -27.2097E-03     48.3018E-03    -27.6313E-03     54.4894E-03    -27.0833E-03     48.2197E-03
             662     8.75981E-03     77.7389E-03    -11.5641E+06    -84.9746E+06    -3.98601E+06    -2.95365E+06    -27.8435E-03     55.0407E-03    -27.1972E-03     53.9199E-03    -27.7970E-03     54.6630E-03    -27.0771E-03     53.8253E-03
             663     9.63529E-03     77.7922E-03    -10.4078E+06    -82.0146E+06    -5.51480E+06    -3.09597E+06    -27.9564E-03     55.1335E-03    -27.1772E-03     59.5438E-03    -27.9176E-03     54.7827E-03    -27.0707E-03     59.4321E-03
             664     10.5119E-03     77.8522E-03    -9.38590E+06    -77.0142E+06    -9.70585E+06    -3.02819E+06    -28.1130E-03     55.2530E-03    -27.1400E-03     64.8261E-03    -28.0877E-03     54.9491E-03    -27.0632E-03     64.6954E-03
             665     11.3875E-03     77.9153E-03    -8.87806E+06    -62.6700E+06    -11.2682E+06    -2.80085E+06    -28.3046E-03     55.4084E-03    -27.1038E-03     71.6725E-03    -28.3238E-03     55.2062E-03    -27.0563E-03     71.5186E-03
             666     12.2638E-03     77.9883E-03    -8.48048E+06    -41.8742E+06    -9.40210E+06    -2.25912E+06    -28.3299E-03     55.4013E-03    -27.0714E-03     77.5855E-03    -28.4178E-03     55.3377E-03    -27.0454E-03     77.4118E-03
             667     13.1403E-03     78.0617E-03    -8.19094E+06    -28.0854E+06    -15.8640E+06    -1.59608E+06    -28.1269E-03     55.1271E-03    -27.0002E-03     77.3254E-03    -28.2753E-03     55.1927E-03    -27.0270E-03     77.1302E-03
             668     14.0178E-03     78.1357E-03    -9.48802E+06    -3.64721E+06    -30.6109E+06    -1.67305E+06    -29.1956E-03     56.0821E-03    -26.8865E-03     93.7158E-03    -29.5617E-03     56.4904E-03    -27.0206E-03     93.4566E-03
             669     14.8913E-03     78.2399E-03    -11.2370E+06     52.3983E+06    -25.6457E+06     54.7510E+03    -34.9518E-03     61.7953E-03    -26.8435E-03     176.630E-03    -36.6486E-03     63.7126E-03    -27.0314E-03     176.336E-03
             670     15.7658E-03     78.4743E-03    -9.60636E+06     134.678E+06     28.0276E+06     1.43687E+06    -43.8263E-03     70.7968E-03    -26.9704E-03     307.694E-03    -53.0616E-03     80.3948E-03    -27.0117E-03     309.027E-03
             671     16.6478E-03     78.8356E-03    -5.99353E+06     190.761E+06     95.6825E+06     251.271E+03    -43.9196E-03     71.0877E-03    -27.1682E-03     347.879E-03    -60.3825E-03     87.9291E-03    -26.9577E-03     356.630E-03
             672     875.906E-06     78.4897E-03    -25.1005E+06    -105.999E+06    -24.7286E+06    -483.639E+03    -27.1858E-03     54.3670E-03    -27.1813E-03     5.67786E-03    -27.1219E-03     53.9095E-03    -27.1148E-03     5.66878E-03
             673     1.75185E-03     78.4971E-03    -24.4634E+06    -105.184E+06    -23.1468E+06    -846.946E+03    -27.2105E-03     54.3966E-03    -27.1862E-03     10.5452E-03    -27.1471E-03     53.9402E-03    -27.1139E-03     10.5290E-03
             674     2.62779E-03     78.5097E-03    -23.2916E+06    -103.780E+06    -20.5439E+06    -1.13077E+06    -27.2390E-03     54.4343E-03    -27.1953E-03     15.6892E-03    -27.1762E-03     53.9799E-03    -27.1138E-03     15.6664E-03
             675     3.50369E-03     78.5269E-03    -21.8185E+06    -101.971E+06    -17.4082E+06    -1.70436E+06    -27.2792E-03     54.4833E-03    -27.2041E-03     20.9327E-03    -27.2170E-03     54.0321E-03    -27.1116E-03     20.8991E-03
             676     4.37968E-03     78.5495E-03    -20.0717E+06     -99.615E+06    -13.5811E+06    -2.35520E+06    -27.3282E-03     54.5416E-03    -27.2134E-03     26.2726E-03    -27.2675E-03     54.0953E-03    -27.1077E-03     26.2266E-03
             677     5.25558E-03     78.5768E-03    -18.2298E+06    -97.5998E+06    -9.66325E+06    -2.26902E+06    -27.4041E-03     54.6270E-03    -27.2229E-03     31.6763E-03    -27.3445E-03     54.1843E-03    -27.1033E-03     31.6265E-03
             678     6.13159E-03     78.6098E-03    -16.6252E+06    -96.0411E+06    -7.08711E+06    -2.56357E+06    -27.4921E-03     54.7189E-03    -27.2268E-03     37.2097E-03    -27.4331E-03     54.2805E-03    -27.0989E-03     37.1500E-03
             679     7.00746E-03     78.6476E-03    -15.2717E+06    -93.2612E+06    -5.71531E+06    -3.57892E+06    -27.5487E-03     54.7689E-03    -27.2202E-03     42.7938E-03    -27.4927E-03     54.3442E-03    -27.0914E-03     42.7136E-03
             680     7.88374E-03     78.6911E-03    -13.8752E+06    -89.4038E+06    -5.63453E+06    -4.16695E+06    -27.6702E-03     54.8735E-03    -27.2034E-03     48.3366E-03    -27.6184E-03     54.4714E-03    -27.0818E-03     48.2390E-03
             681     8.75945E-03     78.7392E-03    -12.0246E+06    -84.6403E+06    -4.83448E+06    -4.16424E+06    -27.8385E-03     55.0294E-03    -27.1909E-03     53.9652E-03    -27.7935E-03     54.6553E-03    -27.0749E-03     53.8551E-03
             682     9.63574E-03     78.7938E-03    -10.4462E+06    -81.2590E+06    -5.71378E+06    -3.99483E+06    -27.9956E-03     55.1703E-03    -27.1746E-03     59.5444E-03    -27.9580E-03     54.8237E-03    -27.0702E-03     59.4208E-03
             683     10.5114E-03     78.8518E-03    -9.59683E+06    -77.0964E+06    -10.6625E+06    -3.84140E+06    -28.1064E-03     55.2430E-03    -27.1366E-03     64.8717E-03    -28.0806E-03     54.9404E-03    -27.0642E-03     64.7305E-03
             684     11.3878E-03     78.9173E-03    -8.96188E+06    -62.7782E+06    -11.5887E+06    -3.47060E+06    -28.1872E-03     55.2863E-03    -27.0991E-03     71.4023E-03    -28.2060E-03     55.0840E-03    -27.0530E-03     71.2401E-03
             685     12.2643E-03     78.9872E-03    -8.56095E+06    -42.4705E+06    -9.87916E+06    -2.99225E+06    -28.3871E-03     55.4522E-03    -27.0651E-03     77.3825E-03    -28.4737E-03     55.3863E-03    -27.0405E-03     77.1990E-03
             686     13.1395E-03     79.0647E-03    -8.21858E+06    -28.4808E+06    -16.0040E+06    -2.42307E+06    -28.3799E-03     55.3863E-03    -27.0064E-03     77.0143E-03    -28.5286E-03     55.4511E-03    -27.0332E-03     76.8057E-03
             687     14.0149E-03     79.1331E-03    -9.08817E+06    -4.67619E+06    -31.5929E+06    -827.077E+03    -28.9057E-03     55.7920E-03    -26.8862E-03     94.5870E-03    -29.2658E-03     56.1948E-03    -27.0243E-03     94.3427E-03
             688     14.8917E-03     79.2458E-03    -9.79168E+06     51.0461E+06    -28.6520E+06     660.766E+03    -34.2576E-03     61.0594E-03    -26.8019E-03     176.934E-03    -35.9248E-03     62.9562E-03    -27.0049E-03     176.663E-03
             689     15.7722E-03     79.4690E-03    -9.24385E+06     133.848E+06     26.0136E+06     492.164E+03    -44.1333E-03     71.0634E-03    -26.9301E-03     306.253E-03    -53.3405E-03     80.6375E-03    -26.9807E-03     307.506E-03
             690     16.6432E-03     79.8432E-03    -5.66022E+06     191.007E+06     95.5765E+06     424.691E+03    -44.2027E-03     71.3630E-03    -27.1603E-03     347.292E-03    -60.6503E-03     88.1915E-03    -26.9512E-03     356.006E-03
             691     875.971E-06     79.4903E-03    -24.6043E+06    -104.939E+06    -24.3227E+06    -592.182E+03    -27.1923E-03     54.3858E-03    -27.1936E-03     5.69961E-03    -27.1280E-03     53.9323E-03    -27.1273E-03     5.68914E-03
             692     1.75181E-03     79.4981E-03    -23.9586E+06    -104.079E+06    -22.6703E+06    -1.07682E+06    -27.2180E-03     54.4131E-03    -27.1951E-03     10.5449E-03    -27.1544E-03     53.9608E-03    -27.1228E-03     10.5256E-03
             693     2.62776E-03     79.5103E-03    -22.7770E+06    -102.688E+06    -20.1647E+06    -1.77335E+06    -27.2460E-03     54.4491E-03    -27.2031E-03     15.6899E-03    -27.1827E-03     53.9989E-03    -27.1220E-03     15.6587E-03
             694     3.50369E-03     79.5280E-03    -21.1623E+06    -100.724E+06    -16.7557E+06    -2.28837E+06    -27.2850E-03     54.4973E-03    -27.2122E-03     20.9313E-03    -27.2223E-03     54.0504E-03    -27.1193E-03     20.8901E-03
             695     4.37959E-03     79.5501E-03    -19.7280E+06    -98.5920E+06    -12.9653E+06    -2.63256E+06    -27.3336E-03     54.5554E-03    -27.2218E-03     26.2719E-03    -27.2735E-03     54.1128E-03    -27.1150E-03     26.2223E-03
             696     5.25559E-03     79.5779E-03    -18.0077E+06    -97.3171E+06    -9.94288E+06    -2.93374E+06    -27.4026E-03     54.6297E-03    -27.2272E-03     31.7066E-03    -27.3419E-03     54.1885E-03    -27.1097E-03     31.6482E-03
             697     6.13150E-03     79.6104E-03    -15.7246E+06    -94.8044E+06    -6.84751E+06    -3.21310E+06    -27.4633E-03     54.6914E-03    -27.2281E-03     37.2029E-03    -27.4020E-03     54.2575E-03    -27.1021E-03     37.1349E-03
             698     7.00763E-03     79.6486E-03    -13.7738E+06    -91.7308E+06    -4.91576E+06    -3.81566E+06    -27.5461E-03     54.7663E-03    -27.2202E-03     42.7304E-03    -27.4859E-03     54.3459E-03    -27.0918E-03     42.6470E-03
             699     7.88351E-03     79.6914E-03    -12.5523E+06    -88.4275E+06    -5.42992E+06    -4.57005E+06    -27.6763E-03     54.8775E-03    -27.2012E-03     48.3554E-03    -27.6196E-03     54.4780E-03    -27.0819E-03     48.2526E-03
             700     8.75965E-03     79.7406E-03    -11.6354E+06    -84.2670E+06    -5.55343E+06    -5.08475E+06    -27.8175E-03     55.0027E-03    -27.1852E-03     53.9616E-03    -27.7700E-03     54.6309E-03    -27.0739E-03     53.8397E-03
             701     9.63564E-03     79.7936E-03    -10.4320E+06    -80.9537E+06    -6.29550E+06    -4.97912E+06    -27.9728E-03     55.1411E-03    -27.1683E-03     59.5428E-03    -27.9347E-03     54.7968E-03    -27.0673E-03     59.4066E-03
             702     10.5117E-03     79.8540E-03    -9.32378E+06    -76.8249E+06    -11.1383E+06    -4.64703E+06    -28.1323E-03     55.2630E-03    -27.1307E-03     64.8710E-03    -28.1050E-03     54.9622E-03    -27.0615E-03     64.7191E-03
             703     11.3877E-03     79.9162E-03    -8.59514E+06    -63.4131E+06    -12.7126E+06    -4.32733E+06    -28.2771E-03     55.3725E-03    -27.0955E-03     71.4053E-03    -28.2916E-03     55.1683E-03    -27.0546E-03     71.2315E-03
             704     12.2633E-03     79.9898E-03    -7.88665E+06    -42.7168E+06    -10.4046E+06    -3.48878E+06    -28.3515E-03     55.4164E-03    -27.0649E-03     77.5376E-03    -28.4333E-03     55.3488E-03    -27.0436E-03     77.3482E-03
             705     13.1405E-03     80.0634E-03    -8.40212E+06    -29.9377E+06    -17.4249E+06    -2.48898E+06    -28.2858E-03     55.2851E-03    -26.9992E-03     77.4665E-03    -28.4308E-03     55.3445E-03    -27.0308E-03     77.2583E-03
             706     14.0165E-03     80.1369E-03    -8.57720E+06    -6.35056E+06    -32.5163E+06    -740.703E+03    -28.8311E-03     55.7066E-03    -26.8755E-03     94.3052E-03    -29.1834E-03     56.1002E-03    -27.0164E-03     94.0627E-03
             707     14.8946E-03     80.2409E-03    -10.2998E+06     50.1775E+06    -28.5761E+06    -38.2527E+03    -34.4689E-03     61.2721E-03    -26.8032E-03     175.999E-03    -36.1354E-03     63.1630E-03    -27.0039E-03     175.710E-03
             708     15.7650E-03     80.4760E-03    -10.5731E+06     133.141E+06     24.6500E+06     361.185E+03    -43.9838E-03     70.9151E-03    -26.9313E-03     305.835E-03    -53.1961E-03     80.4910E-03    -26.9857E-03     307.126E-03
             709     16.6464E-03     80.8370E-03    -5.49763E+06     191.488E+06     94.8686E+06     410.960E+03    -44.0533E-03     71.2062E-03    -27.1528E-03     348.038E-03    -60.5485E-03     88.0865E-03    -26.9482E-03     356.754E-03
             710     875.830E-06     80.4913E-03    -24.2758E+06    -103.567E+06    -23.9773E+06    -726.855E+03    -27.2269E-03     54.4073E-03    -27.1804E-03     5.72756E-03    -27.1635E-03     53.9596E-03    -27.1149E-03     5.71532E-03
             711     1.75185E-03     80.4987E-03    -23.6139E+06    -102.799E+06    -22.3765E+06    -1.30572E+06    -27.2263E-03     54.4315E-03    -27.2052E-03     10.5485E-03    -27.1633E-03     53.9846E-03    -27.1338E-03     10.5262E-03
             712     2.62771E-03     80.5114E-03    -22.7872E+06    -100.909E+06    -19.9517E+06    -2.08845E+06    -27.2485E-03     54.4598E-03    -27.2113E-03     15.6945E-03    -27.1881E-03     54.0182E-03    -27.1317E-03     15.6593E-03
             713     3.50365E-03     80.5286E-03    -21.6537E+06    -99.6403E+06    -17.2749E+06    -2.80299E+06    -27.2790E-03     54.4955E-03    -27.2165E-03     20.9356E-03    -27.2196E-03     54.0556E-03    -27.1270E-03     20.8878E-03
             714     4.37961E-03     80.5512E-03    -19.9565E+06    -97.6892E+06    -13.7965E+06    -2.98471E+06    -27.3323E-03     54.5548E-03    -27.2224E-03     26.2894E-03    -27.2735E-03     54.1183E-03    -27.1208E-03     26.2353E-03
             715     5.25554E-03     80.5785E-03    -18.0651E+06    -95.8818E+06    -10.1175E+06    -3.70256E+06    -27.3880E-03     54.6162E-03    -27.2282E-03     31.7015E-03    -27.3295E-03     54.1825E-03    -27.1135E-03     31.6332E-03
             716     6.13156E-03     80.6114E-03    -15.9694E+06    -93.7900E+06    -7.44550E+06    -4.49502E+06    -27.4519E-03     54.6776E-03    -27.2258E-03     37.1752E-03    -27.3923E-03     54.2501E-03    -27.1039E-03     37.0906E-03
             717     7.00752E-03     80.6490E-03    -13.6909E+06    -90.5952E+06    -5.87974E+06    -4.75880E+06    -27.5511E-03     54.7660E-03    -27.2149E-03     42.7421E-03    -27.4909E-03     54.3526E-03    -27.0931E-03     42.6465E-03
             718     7.88356E-03     80.6927E-03    -11.7817E+06    -87.1546E+06    -5.67829E+06    -5.07300E+06    -27.6764E-03     54.8746E-03    -27.1982E-03     48.3604E-03    -27.6173E-03     54.4808E-03    -27.0832E-03     48.2510E-03
             719     8.75967E-03     80.7406E-03    -10.5546E+06    -83.1299E+06    -5.62638E+06    -5.49212E+06    -27.8271E-03     55.0100E-03    -27.1829E-03     53.9565E-03    -27.7758E-03     54.6424E-03    -27.0752E-03     53.8293E-03
             720     9.63548E-03     80.7954E-03    -9.60783E+06    -80.7535E+06    -6.79008E+06    -5.82571E+06    -27.9280E-03     55.0918E-03    -27.1638E-03     59.4496E-03    -27.8852E-03     54.7479E-03    -27.0667E-03     59.3026E-03
             721     10.5119E-03     80.8533E-03    -8.82509E+06    -77.0914E+06    -11.9008E+06    -5.58518E+06    -28.0758E-03     55.1974E-03    -27.1216E-03     64.9202E-03    -28.0443E-03     54.8954E-03    -27.0565E-03     64.7567E-03
             722     11.3876E-03     80.9188E-03    -8.72653E+06    -63.4470E+06    -13.3476E+06    -4.96520E+06    -28.3141E-03     55.4008E-03    -27.0867E-03     71.5319E-03    -28.3284E-03     55.1976E-03    -27.0488E-03     71.3499E-03
             723     12.2644E-03     80.9885E-03    -8.58828E+06    -44.0383E+06    -11.5968E+06    -4.32864E+06    -28.3922E-03     55.4513E-03    -27.0591E-03     77.5183E-03    -28.4747E-03     55.3807E-03    -27.0408E-03     77.3171E-03
             724     13.1395E-03     81.0660E-03    -7.99418E+06    -31.1019E+06    -17.8355E+06    -3.02553E+06    -28.3301E-03     55.3290E-03    -26.9989E-03     77.0732E-03    -28.4706E-03     55.3824E-03    -27.0314E-03     76.8575E-03
             725     14.0166E-03     81.1346E-03    -9.25839E+06    -8.34207E+06    -32.7624E+06    -1.60703E+06    -29.1882E-03     56.0807E-03    -26.8925E-03     93.6018E-03    -29.5443E-03     56.4694E-03    -27.0308E-03     93.3426E-03
             726     14.8890E-03     81.2458E-03    -10.4611E+06     48.1065E+06    -30.6857E+06     7.38697E+03    -34.1786E-03     60.9894E-03    -26.8108E-03     176.500E-03    -35.8398E-03     62.8732E-03    -27.0188E-03     176.225E-03
             727     15.7714E-03     81.4725E-03    -9.13644E+06     134.056E+06     23.8529E+06     577.058E+03    -43.7621E-03     70.6804E-03    -26.9184E-03     306.740E-03    -52.9875E-03     80.2801E-03    -26.9802E-03     308.013E-03
             728     16.6458E-03     81.8413E-03    -5.81788E+06     192.313E+06     95.2532E+06     88.5383E+03    -44.4908E-03     71.6441E-03    -27.1533E-03     347.377E-03    -60.9673E-03     88.5064E-03    -26.9474E-03     356.025E-03
             729     875.998E-06     81.4920E-03    -24.1660E+06    -102.078E+06    -23.8185E+06    -758.869E+03    -27.2470E-03     54.4270E-03    -27.1800E-03     5.72082E-03    -27.1854E-03     53.9863E-03    -27.1160E-03     5.70817E-03
             730     1.75174E-03     81.4997E-03    -23.7042E+06    -101.137E+06    -22.3149E+06    -1.48032E+06    -27.2294E-03     54.4432E-03    -27.2137E-03     10.5475E-03    -27.1694E-03     54.0046E-03    -27.1443E-03     10.5231E-03
             731     2.62773E-03     81.5120E-03    -22.6268E+06    -99.1902E+06    -20.1027E+06    -2.27555E+06    -27.2422E-03     54.4574E-03    -27.2152E-03     15.6973E-03    -27.1833E-03     54.0243E-03    -27.1391E-03     15.6597E-03
             732     3.50362E-03     81.5296E-03    -21.4766E+06    -98.0900E+06    -17.0585E+06    -2.96439E+06    -27.2818E-03     54.5021E-03    -27.2203E-03     20.9383E-03    -27.2240E-03     54.0693E-03    -27.1322E-03     20.8883E-03
             733     4.37958E-03     81.5518E-03    -20.1678E+06    -96.7172E+06    -14.4351E+06    -3.61265E+06    -27.3238E-03     54.5460E-03    -27.2222E-03     26.2864E-03    -27.2665E-03     54.1156E-03    -27.1249E-03     26.2242E-03
             734     5.25553E-03     81.5796E-03    -18.5151E+06    -93.7322E+06    -11.6153E+06    -4.35761E+06    -27.3743E-03     54.5944E-03    -27.2201E-03     31.6931E-03    -27.3189E-03     54.1743E-03    -27.1155E-03     31.6163E-03
             735     6.13152E-03     81.6118E-03    -16.6718E+06    -92.0786E+06    -8.85153E+06    -5.61779E+06    -27.4505E-03     54.6688E-03    -27.2183E-03     37.1773E-03    -27.3950E-03     54.2529E-03    -27.1049E-03     37.0781E-03
             736     7.00753E-03     81.6502E-03    -14.6484E+06    -89.7468E+06    -7.59431E+06    -6.24093E+06    -27.5466E-03     54.7541E-03    -27.2075E-03     42.7472E-03    -27.4898E-03     54.3488E-03    -27.0941E-03     42.6324E-03
             737     7.88365E-03     81.6928E-03    -12.7787E+06    -85.9606E+06    -7.13580E+06    -6.28606E+06    -27.6914E-03     54.8840E-03    -27.1926E-03     48.3802E-03    -27.6370E-03     54.4998E-03    -27.0851E-03     48.2551E-03
             738     8.75940E-03     81.7422E-03    -10.8744E+06    -82.2387E+06    -6.36443E+06    -6.43391E+06    -27.7799E-03     54.9589E-03    -27.1790E-03     53.9543E-03    -27.7303E-03     54.5973E-03    -27.0758E-03     53.8152E-03
             739     9.63582E-03     81.7951E-03    -9.39431E+06    -80.2441E+06    -7.47617E+06    -6.61799E+06    -27.9191E-03     55.0763E-03    -27.1573E-03     59.4964E-03    -27.8750E-03     54.7358E-03    -27.0647E-03     59.3392E-03
             740     10.5115E-03     81.8550E-03    -9.09852E+06    -77.2725E+06    -12.6675E+06    -6.41385E+06    -28.0931E-03     55.2100E-03    -27.1169E-03     64.8458E-03    -28.0616E-03     54.9086E-03    -27.0550E-03     64.6715E-03
             741     11.3883E-03     81.9181E-03    -8.65564E+06    -63.8158E+06    -13.9440E+06    -5.93579E+06    -28.3101E-03     55.3936E-03    -27.0834E-03     71.4134E-03    -28.3228E-03     55.1895E-03    -27.0481E-03     71.2186E-03
             742     12.2633E-03     81.9910E-03    -8.09942E+06    -44.4633E+06    -11.9305E+06    -5.05653E+06    -28.4974E-03     55.5581E-03    -27.0607E-03     77.1726E-03    -28.5761E-03     55.4848E-03    -27.0442E-03     76.9615E-03
             743     13.1406E-03     82.0646E-03    -8.08021E+06    -32.5837E+06    -18.6135E+06    -3.80060E+06    -28.3967E-03     55.4028E-03    -27.0061E-03     77.4275E-03    -28.5352E-03     55.4509E-03    -27.0402E-03     77.2013E-03
             744     14.0144E-03     82.1388E-03    -8.25796E+06    -10.6448E+06    -33.7206E+06    -1.64211E+06    -28.8385E-03     55.7253E-03    -26.8868E-03     94.8515E-03    -29.1835E-03     56.1009E-03    -27.0280E-03     94.5980E-03
             745     14.8946E-03     82.2432E-03    -9.13017E+06     47.0592E+06    -31.5888E+06    -143.688E+03    -34.1340E-03     60.9251E-03    -26.7911E-03     176.086E-03    -35.7790E-03     62.7963E-03    -27.0040E-03     175.805E-03
             746     15.7681E-03     82.4733E-03    -8.77509E+06     133.802E+06     23.1551E+06     370.693E+03    -44.3678E-03     71.2847E-03    -26.9169E-03     306.521E-03    -53.5964E-03     80.8899E-03    -26.9824E-03     307.735E-03
             747     16.6435E-03     82.8434E-03    -5.14331E+06     192.663E+06     95.2330E+06     693.759E+03    -44.3309E-03     71.4942E-03    -27.1633E-03     347.375E-03    -60.7521E-03     88.3049E-03    -26.9591E-03     356.052E-03
             748     875.770E-06     82.4930E-03    -24.5703E+06    -100.498E+06    -24.0997E+06    -716.654E+03    -27.2375E-03     54.4370E-03    -27.1995E-03     5.71968E-03    -27.1798E-03     54.0052E-03    -27.1387E-03     5.70759E-03
             749     1.75184E-03     82.5005E-03    -23.7009E+06    -99.1294E+06    -22.6544E+06    -1.70927E+06    -27.2208E-03     54.4354E-03    -27.2146E-03     10.5535E-03    -27.1631E-03     54.0074E-03    -27.1498E-03     10.5260E-03
             750     2.62766E-03     82.5130E-03    -22.8783E+06    -97.4370E+06    -20.5505E+06    -2.62057E+06    -27.2430E-03     54.4566E-03    -27.2136E-03     15.7001E-03    -27.1873E-03     54.0334E-03    -27.1419E-03     15.6580E-03
             751     3.50366E-03     82.5303E-03    -21.6555E+06    -96.5401E+06    -17.7705E+06    -3.22320E+06    -27.2774E-03     54.4946E-03    -27.2171E-03     20.9464E-03    -27.2217E-03     54.0708E-03    -27.1346E-03     20.8931E-03
             752     4.37952E-03     82.5528E-03    -20.1942E+06    -94.8269E+06    -14.8157E+06    -4.08129E+06    -27.3145E-03     54.5331E-03    -27.2186E-03     26.2771E-03    -27.2595E-03     54.1128E-03    -27.1259E-03     26.2088E-03
             753     5.25559E-03     82.5800E-03    -18.3780E+06    -91.6486E+06    -12.3866E+06    -5.30483E+06    -27.3666E-03     54.5794E-03    -27.2128E-03     31.7065E-03    -27.3125E-03     54.1706E-03    -27.1152E-03     31.6176E-03
             754     6.13150E-03     82.6130E-03    -16.5679E+06    -89.6242E+06    -8.97671E+06    -6.38070E+06    -27.4557E-03     54.6695E-03    -27.2138E-03     37.1737E-03    -27.4030E-03     54.2659E-03    -27.1047E-03     37.0647E-03
             755     7.00759E-03     82.6504E-03    -14.8511E+06    -88.3885E+06    -7.57740E+06    -7.43609E+06    -27.5732E-03     54.7813E-03    -27.2081E-03     42.7352E-03    -27.5195E-03     54.3831E-03    -27.0963E-03     42.6048E-03
             756     7.88340E-03     82.6943E-03    -13.0783E+06    -85.0953E+06    -8.03321E+06    -7.66872E+06    -27.6443E-03     54.8330E-03    -27.1886E-03     48.3891E-03    -27.5913E-03     54.4547E-03    -27.0864E-03     48.2463E-03
             757     8.75975E-03     82.7422E-03    -11.7995E+06    -81.4747E+06    -7.39516E+06    -7.73153E+06    -27.7638E-03     54.9362E-03    -27.1724E-03     53.9349E-03    -27.7185E-03     54.5812E-03    -27.0741E-03     53.7789E-03
             758     9.63559E-03     82.7964E-03    -10.4060E+06    -79.6033E+06    -8.16821E+06    -7.80407E+06    -27.9532E-03     55.1073E-03    -27.1541E-03     59.4391E-03    -27.9142E-03     54.7724E-03    -27.0644E-03     59.2665E-03
             759     10.5120E-03     82.8552E-03    -8.91731E+06    -76.9795E+06    -13.0889E+06    -7.62301E+06    -28.1633E-03     55.2818E-03    -27.1185E-03     64.7891E-03    -28.1310E-03     54.9825E-03    -27.0594E-03     64.5985E-03
             760     11.3871E-03     82.9195E-03    -8.37471E+06    -64.2993E+06    -14.7155E+06    -6.96073E+06    -28.2921E-03     55.3780E-03    -27.0859E-03     71.5015E-03    -28.3012E-03     55.1719E-03    -27.0541E-03     71.2939E-03
             761     12.2643E-03     82.9910E-03    -7.91363E+06    -45.1206E+06    -12.4499E+06    -5.91898E+06    -28.4078E-03     55.4676E-03    -27.0598E-03     77.5931E-03    -28.4837E-03     55.3913E-03    -27.0451E-03     77.3718E-03
             762     13.1388E-03     83.0666E-03    -7.64586E+06    -34.2567E+06    -19.3261E+06    -4.33006E+06    -28.1293E-03     55.1219E-03    -26.9926E-03     77.4346E-03    -28.2607E-03     55.1606E-03    -27.0285E-03     77.2043E-03
             763     14.0182E-03     83.1371E-03    -8.03032E+06    -12.8280E+06    -34.2533E+06    -2.72804E+06    -28.7338E-03     55.5982E-03    -26.8644E-03     94.2934E-03    -29.0693E-03     55.9590E-03    -27.0054E-03     94.0269E-03
             764     14.8913E-03     83.2452E-03    -8.91994E+06     45.9704E+06    -31.8811E+06    -923.952E+03    -34.8657E-03     61.6542E-03    -26.7884E-03     175.817E-03    -36.5181E-03     63.5305E-03    -27.0015E-03     175.506E-03
             765     15.7678E-03     83.4748E-03    -8.86295E+06     132.887E+06     20.8962E+06     729.717E+03    -44.2120E-03     71.1332E-03    -26.9211E-03     306.610E-03    -53.4230E-03     80.7238E-03    -26.9965E-03     307.893E-03
             766     16.6470E-03     83.8431E-03    -5.63141E+06     192.440E+06     93.4785E+06     930.423E+03    -43.8664E-03     71.0163E-03    -27.1499E-03     347.965E-03    -60.2916E-03     87.8335E-03    -26.9534E-03     356.691E-03
             767     875.995E-06     83.4938E-03    -23.6700E+06    -98.5196E+06    -24.0679E+06    -912.850E+03    -27.2025E-03     54.4239E-03    -27.2214E-03     5.72165E-03    -27.1432E-03     54.0007E-03    -27.1646E-03     5.70701E-03
             768     1.75173E-03     83.5014E-03    -23.6431E+06    -96.9527E+06    -23.0898E+06    -2.05768E+06    -27.2260E-03     54.4324E-03    -27.2065E-03     10.5526E-03    -27.1706E-03     54.0159E-03    -27.1471E-03     10.5207E-03
             769     2.62776E-03     83.5138E-03    -22.8033E+06    -95.4043E+06    -20.9654E+06    -2.90121E+06    -27.2431E-03     54.4517E-03    -27.2086E-03     15.6962E-03    -27.1893E-03     54.0391E-03    -27.1420E-03     15.6504E-03
             770     3.50356E-03     83.5312E-03    -21.4919E+06    -94.5985E+06    -18.1919E+06    -3.99570E+06    -27.2685E-03     54.4801E-03    -27.2116E-03     20.9398E-03    -27.2142E-03     54.0664E-03    -27.1342E-03     20.8765E-03
             771     4.37966E-03     83.5534E-03    -19.5302E+06    -92.6245E+06    -14.8360E+06    -4.98614E+06    -27.3123E-03     54.5253E-03    -27.2130E-03     26.2701E-03    -27.2572E-03     54.1150E-03    -27.1245E-03     26.1901E-03
             772     5.25547E-03     83.5811E-03    -17.7717E+06    -89.0933E+06    -11.5739E+06    -6.14492E+06    -27.3693E-03     54.5806E-03    -27.2114E-03     31.6850E-03    -27.3170E-03     54.1825E-03    -27.1143E-03     31.5852E-03
             773     6.13162E-03     83.6134E-03    -16.0620E+06    -87.6805E+06    -8.91616E+06    -7.12525E+06    -27.4622E-03     54.6728E-03    -27.2106E-03     37.1951E-03    -27.4098E-03     54.2780E-03    -27.1048E-03     37.0766E-03
             774     7.00739E-03     83.6518E-03    -14.6591E+06    -86.0134E+06    -7.22369E+06    -7.98123E+06    -27.5515E-03     54.7570E-03    -27.2055E-03     42.7662E-03    -27.5007E-03     54.3698E-03    -27.0957E-03     42.6290E-03
             775     7.88364E-03     83.6944E-03    -13.4244E+06    -83.8274E+06    -8.03327E+06    -8.96614E+06    -27.6460E-03     54.8320E-03    -27.1859E-03     48.3490E-03    -27.5966E-03     54.4606E-03    -27.0851E-03     48.1894E-03
             776     8.75957E-03     83.7433E-03    -11.6677E+06    -80.6835E+06    -7.79081E+06    -9.02617E+06    -27.8104E-03     54.9808E-03    -27.1704E-03     53.9503E-03    -27.7650E-03     54.6302E-03    -27.0755E-03     53.7775E-03
             777     9.63561E-03     83.7969E-03    -10.0640E+06    -78.7047E+06    -8.30220E+06    -9.05036E+06    -27.9713E-03     55.1271E-03    -27.1558E-03     59.4330E-03    -27.9316E-03     54.7964E-03    -27.0686E-03     59.2443E-03
             778     10.5114E-03     83.8561E-03    -9.29023E+06    -76.7483E+06    -13.7749E+06    -8.86330E+06    -28.1025E-03     55.2198E-03    -27.1173E-03     64.9489E-03    -28.0712E-03     54.9230E-03    -27.0615E-03     64.7428E-03
             779     11.3881E-03     83.9202E-03    -8.50815E+06    -64.3901E+06    -15.1702E+06    -8.22380E+06    -28.2397E-03     55.3211E-03    -27.0813E-03     71.5411E-03    -28.2484E-03     55.1150E-03    -27.0515E-03     71.3177E-03
             780     12.2634E-03     83.9914E-03    -7.54284E+06    -46.1243E+06    -13.0119E+06    -7.21354E+06    -28.2984E-03     55.3480E-03    -27.0496E-03     77.5622E-03    -28.3697E-03     55.2665E-03    -27.0368E-03     77.3251E-03
             781     13.1415E-03     84.0675E-03    -7.15120E+06    -36.2594E+06    -20.0344E+06    -5.50752E+06    -28.2426E-03     55.2265E-03    -26.9839E-03     76.7592E-03    -28.3667E-03     55.2546E-03    -27.0212E-03     76.5125E-03
             782     14.0148E-03     84.1368E-03    -7.95564E+06    -15.2615E+06    -35.7023E+06    -2.94750E+06    -29.0841E-03     55.9522E-03    -26.8681E-03     94.2525E-03    -29.4167E-03     56.3060E-03    -27.0130E-03     93.9791E-03
             783     14.8931E-03     84.2477E-03    -9.94646E+06     43.6459E+06    -35.0771E+06    -1.18901E+06    -34.5171E-03     61.2995E-03    -26.7824E-03     176.869E-03    -36.1683E-03     63.1721E-03    -27.0066E-03     176.569E-03
             784     15.7685E-03     84.4753E-03    -9.65515E+06     131.482E+06     17.5822E+06     176.927E+03    -43.9609E-03     70.8573E-03    -26.8964E-03     306.004E-03    -53.1279E-03     80.4058E-03    -26.9852E-03     307.271E-03
             785     16.6443E-03     84.8412E-03    -5.88037E+06     192.908E+06     92.5727E+06     1.01052E+06    -44.0758E-03     71.2127E-03    -27.1369E-03     347.961E-03    -60.5398E-03     88.0721E-03    -26.9452E-03     356.683E-03
             786     875.811E-06     84.4947E-03    -23.8233E+06    -96.2812E+06    -23.9473E+06    -1.32800E+06    -27.1984E-03     54.4140E-03    -27.2155E-03     5.73149E-03    -27.1433E-03     54.0020E-03    -27.1611E-03     5.71148E-03
             787     1.75187E-03     84.5023E-03    -23.4132E+06    -94.3619E+06    -22.9561E+06    -2.23928E+06    -27.2237E-03     54.4255E-03    -27.2018E-03     10.5332E-03    -27.1711E-03     54.0214E-03    -27.1459E-03     10.4989E-03
             788     2.62761E-03     84.5147E-03    -22.6691E+06    -93.1229E+06    -20.9312E+06    -3.51507E+06    -27.2343E-03     54.4380E-03    -27.2038E-03     15.6885E-03    -27.1832E-03     54.0366E-03    -27.1405E-03     15.6348E-03
             789     3.50373E-03     84.5320E-03    -21.2943E+06    -91.7282E+06    -17.9541E+06    -4.78880E+06    -27.2660E-03     54.4725E-03    -27.2064E-03     20.9326E-03    -27.2152E-03     54.0725E-03    -27.1323E-03     20.8591E-03
             790     4.37947E-03     84.5544E-03    -19.7002E+06    -90.2915E+06    -14.8493E+06    -6.18997E+06    -27.3074E-03     54.5158E-03    -27.2084E-03     26.2632E-03    -27.2565E-03     54.1175E-03    -27.1232E-03     26.1677E-03
             791     5.25567E-03     84.5817E-03    -17.7293E+06    -86.7010E+06    -11.8840E+06    -6.97529E+06    -27.3693E-03     54.5746E-03    -27.2053E-03     31.6993E-03    -27.3198E-03     54.1888E-03    -27.1133E-03     31.5888E-03
             792     6.13140E-03     84.6145E-03    -15.9237E+06    -85.4148E+06    -8.80462E+06    -8.00757E+06    -27.4396E-03     54.6453E-03    -27.2057E-03     37.2115E-03    -27.3900E-03     54.2615E-03    -27.1028E-03     37.0816E-03
             793     7.00771E-03     84.6522E-03    -13.9586E+06    -84.0575E+06    -7.04090E+06      -8.745E+06    -27.5331E-03     54.7315E-03    -27.1985E-03     42.7423E-03    -27.4819E-03     54.3528E-03    -27.0916E-03     42.5952E-03
             794     7.88354E-03     84.6955E-03    -12.6805E+06    -81.4195E+06    -7.24296E+06    -9.48015E+06    -27.6919E-03     54.8750E-03    -27.1831E-03     48.3547E-03    -27.6434E-03     54.5134E-03    -27.0828E-03     48.1883E-03
             795     8.75951E-03     84.7438E-03    -11.6097E+06    -79.6316E+06    -8.09868E+06    -10.4230E+06    -27.7770E-03     54.9431E-03    -27.1661E-03     54.0294E-03    -27.7323E-03     54.5980E-03    -27.0743E-03     53.8389E-03
             796     9.63561E-03     84.7979E-03    -10.2785E+06    -77.9364E+06    -8.91144E+06    -10.2855E+06    -27.9062E-03     55.0524E-03    -27.1462E-03     59.6756E-03    -27.8677E-03     54.7266E-03    -27.0628E-03     59.4715E-03
             797     10.5119E-03     84.8566E-03    -9.07094E+06    -76.2568E+06    -13.6407E+06    -10.0934E+06    -28.0852E-03     55.1930E-03    -27.1078E-03     65.0226E-03    -28.0536E-03     54.8980E-03    -27.0523E-03     64.8010E-03
             798     11.3875E-03     84.9208E-03    -8.31632E+06    -64.6747E+06    -15.8163E+06    -9.61158E+06    -28.2510E-03     55.3203E-03    -27.0693E-03     71.5822E-03    -28.2575E-03     55.1135E-03    -27.0425E-03     71.3409E-03
             799     12.2643E-03     84.9923E-03    -7.85930E+06    -47.4420E+06    -13.9870E+06    -8.50015E+06    -28.3540E-03     55.3951E-03    -27.0410E-03     77.4610E-03    -28.4231E-03     55.3084E-03    -27.0308E-03     77.2074E-03
             800     13.1389E-03     85.0674E-03    -7.25073E+06    -38.2452E+06    -20.7608E+06    -6.71729E+06    -28.4800E-03     55.4667E-03    -26.9868E-03     77.2195E-03    -28.6024E-03     55.4879E-03    -27.0246E-03     76.9552E-03
             801     14.0171E-03     85.1389E-03    -7.32952E+06    -18.8053E+06    -36.2679E+06    -3.72779E+06    -29.0136E-03     55.8914E-03    -26.8779E-03     94.2646E-03    -29.3367E-03     56.2269E-03    -27.0213E-03     93.9825E-03
             802     14.8915E-03     85.2465E-03    -7.50492E+06     41.1807E+06    -36.6486E+06    -525.275E+03    -34.1514E-03     60.9196E-03    -26.7682E-03     176.816E-03    -35.7803E-03     62.7744E-03    -27.0003E-03     176.531E-03
             803     15.7695E-03     85.4767E-03    -8.38846E+06     130.740E+06     16.2273E+06     585.667E+03    -44.0423E-03     70.9155E-03    -26.8732E-03     306.093E-03    -53.1966E-03     80.4571E-03    -26.9694E-03     307.355E-03
             804     16.6459E-03     85.8435E-03    -6.07234E+06     193.218E+06     92.7858E+06     633.243E+03    -44.0170E-03     71.1420E-03    -27.1250E-03     347.842E-03    -60.4939E-03     88.0142E-03    -26.9325E-03     356.565E-03
             805     875.973E-06     85.4957E-03    -24.2800E+06    -93.2909E+06    -24.0787E+06    -1.66177E+06    -27.2075E-03     54.4068E-03    -27.1993E-03     5.72343E-03    -27.1589E-03     54.0107E-03    -27.1492E-03     5.69910E-03
             806     1.75170E-03     85.5031E-03    -23.4527E+06    -91.8075E+06    -22.5474E+06    -2.75733E+06    -27.2034E-03     54.4020E-03    -27.1985E-03     10.5445E-03    -27.1553E-03     54.0101E-03    -27.1441E-03     10.5036E-03
             807     2.62782E-03     85.5156E-03    -22.3573E+06    -90.0542E+06    -20.2868E+06    -3.98307E+06    -27.2305E-03     54.4281E-03    -27.1976E-03     15.6893E-03    -27.1832E-03     54.0406E-03    -27.1360E-03     15.6295E-03
             808     3.50353E-03     85.5329E-03    -21.2679E+06    -88.8449E+06    -17.6724E+06    -5.40981E+06    -27.2574E-03     54.4573E-03    -27.1999E-03     20.9333E-03    -27.2111E-03     54.0713E-03    -27.1286E-03     20.8518E-03
             809     4.37972E-03     85.5552E-03    -19.8177E+06    -86.9782E+06    -14.6633E+06    -6.90612E+06    -27.2994E-03     54.5004E-03    -27.2010E-03     26.2734E-03    -27.2541E-03     54.1185E-03    -27.1195E-03     26.1686E-03
             810     5.25543E-03     85.5826E-03    -18.0230E+06    -84.6390E+06    -12.1603E+06    -8.28975E+06    -27.3490E-03     54.5458E-03    -27.1968E-03     31.7268E-03    -27.3035E-03     54.1712E-03    -27.1088E-03     31.5993E-03
             811     6.13171E-03     85.6152E-03    -15.9791E+06    -82.8399E+06    -9.20764E+06    -8.87553E+06    -27.4184E-03     54.6121E-03    -27.1937E-03     37.2163E-03    -27.3722E-03     54.2418E-03    -27.0965E-03     37.0753E-03
             812     7.00746E-03     85.6530E-03    -14.3580E+06    -82.1770E+06    -7.47918E+06    -9.70638E+06    -27.5384E-03     54.7263E-03    -27.1879E-03     42.8012E-03    -27.4913E-03     54.3582E-03    -27.0853E-03     42.6419E-03
             813     7.88362E-03     85.6962E-03    -12.4779E+06    -79.3641E+06    -7.61581E+06    -10.3642E+06    -27.6409E-03     54.8110E-03    -27.1701E-03     48.4614E-03    -27.5937E-03     54.4599E-03    -27.0750E-03     48.2840E-03
             814     8.75967E-03     85.7447E-03    -11.1531E+06    -77.1776E+06    -7.59730E+06    -11.2183E+06    -27.7116E-03     54.8632E-03    -27.1516E-03     54.0142E-03    -27.6689E-03     54.5290E-03    -27.0615E-03     53.8136E-03
             815     9.63595E-03     85.7981E-03    -10.2219E+06    -77.3494E+06    -9.37674E+06    -11.8528E+06    -27.8245E-03     54.9491E-03    -27.1247E-03     59.7818E-03    -27.7856E-03     54.6266E-03    -27.0446E-03     59.5580E-03
             816     10.5118E-03     85.8578E-03    -9.17235E+06    -75.5881E+06    -14.2714E+06    -11.5742E+06    -28.0574E-03     55.1394E-03    -27.0820E-03     65.2309E-03    -28.0262E-03     54.8487E-03    -27.0305E-03     64.9906E-03
             817     11.3882E-03     85.9210E-03    -8.43550E+06    -65.0945E+06    -16.4944E+06    -10.8536E+06    -28.2643E-03     55.3096E-03    -27.0453E-03     71.8491E-03    -28.2698E-03     55.1019E-03    -27.0212E-03     71.5919E-03
             818     12.2638E-03     85.9933E-03    -7.76487E+06    -48.7550E+06    -14.8854E+06    -9.70430E+06    -28.4160E-03     55.4361E-03    -27.0202E-03     77.7975E-03    -28.4818E-03     55.3445E-03    -27.0126E-03     77.5278E-03
             819     13.1414E-03     86.0678E-03    -7.38026E+06    -40.3945E+06    -21.8483E+06    -7.65027E+06    -28.4123E-03     55.3783E-03    -26.9660E-03     77.9671E-03    -28.5310E-03     55.3907E-03    -27.0060E-03     77.6921E-03
             820     14.0148E-03     86.1406E-03    -7.77356E+06    -22.2726E+06    -37.2619E+06    -5.11221E+06    -29.1158E-03     55.9767E-03    -26.8609E-03     94.4856E-03    -29.4359E-03     56.2981E-03    -27.0036E-03     94.1840E-03
             821     14.8934E-03     86.2452E-03    -9.59869E+06     37.8020E+06    -37.5281E+06    -1.79506E+06    -34.4281E-03     61.1948E-03    -26.7666E-03     176.446E-03    -36.0588E-03     63.0345E-03    -26.9952E-03     176.139E-03
             822     15.7685E-03     86.4789E-03    -8.57657E+06     130.270E+06     12.9483E+06     867.428E+03    -43.6143E-03     70.4620E-03    -26.8477E-03     306.590E-03    -52.7729E-03     80.0150E-03    -26.9594E-03     307.908E-03
             823     16.6453E-03     86.8420E-03    -5.52677E+06     193.981E+06     90.1532E+06     918.115E+03    -44.0216E-03     71.1081E-03    -27.0865E-03     347.776E-03    -60.4780E-03     87.9721E-03    -26.9090E-03     356.493E-03
             824     875.785E-06     86.4964E-03    -23.4922E+06    -89.8199E+06    -23.0931E+06    -1.75737E+06    -27.1921E-03     54.3803E-03    -27.1882E-03     5.68542E-03    -27.1460E-03     53.9989E-03    -27.1393E-03     5.65991E-03
             825     1.75193E-03     86.5041E-03    -22.9421E+06    -88.5603E+06    -21.7769E+06    -3.24207E+06    -27.1965E-03     54.3837E-03    -27.1871E-03     10.5594E-03    -27.1517E-03     54.0061E-03    -27.1343E-03     10.5122E-03
             826     2.62762E-03     86.5164E-03    -21.7572E+06    -86.9675E+06    -19.6437E+06    -4.63841E+06    -27.2174E-03     54.4043E-03    -27.1869E-03     15.6978E-03    -27.1726E-03     54.0305E-03    -27.1274E-03     15.6296E-03
             827     3.50379E-03     86.5338E-03    -20.1825E+06    -85.5727E+06    -16.7029E+06    -5.96164E+06    -27.2455E-03     54.4347E-03    -27.1892E-03     20.9449E-03    -27.1999E-03     54.0621E-03    -27.1194E-03     20.8563E-03
             828     4.37950E-03     86.5560E-03    -18.6980E+06    -83.6158E+06    -13.8457E+06    -7.47775E+06    -27.2818E-03     54.4702E-03    -27.1885E-03     26.2997E-03    -27.2369E-03     54.1023E-03    -27.1093E-03     26.1876E-03
             829     5.25575E-03     86.5835E-03    -17.4239E+06    -81.5437E+06    -11.4325E+06    -8.90021E+06    -27.3245E-03     54.5079E-03    -27.1834E-03     31.7382E-03    -27.2816E-03     54.1468E-03    -27.0970E-03     31.6029E-03
             830     6.13152E-03     86.6159E-03    -16.1166E+06    -81.0671E+06    -9.51041E+06    -9.83514E+06    -27.4008E-03     54.5779E-03    -27.1770E-03     37.2740E-03    -27.3574E-03     54.2171E-03    -27.0837E-03     37.1207E-03
             831     7.00781E-03     86.6539E-03    -14.3375E+06    -79.3437E+06    -7.37728E+06    -10.5631E+06    -27.4892E-03     54.6585E-03    -27.1693E-03     42.8951E-03    -27.4462E-03     54.3043E-03    -27.0703E-03     42.7249E-03
             832     7.88371E-03     86.6968E-03    -12.6841E+06    -77.4884E+06    -7.42683E+06    -11.7551E+06    -27.5406E-03     54.6880E-03    -27.1474E-03     48.5054E-03    -27.4973E-03     54.3462E-03    -27.0538E-03     48.3104E-03
             833     8.75995E-03     86.7453E-03    -10.8385E+06    -75.0444E+06    -7.61855E+06    -12.3671E+06    -27.6690E-03     54.7906E-03    -27.1216E-03     54.1791E-03    -27.6277E-03     54.4665E-03    -27.0352E-03     53.9641E-03
             834     9.63585E-03     86.7989E-03    -9.38819E+06    -75.4692E+06    -8.84285E+06    -12.9204E+06    -27.8241E-03     54.9213E-03    -27.0972E-03     59.8010E-03    -27.7846E-03     54.6062E-03    -27.0184E-03     59.5634E-03
             835     10.5126E-03     86.8579E-03    -8.75326E+06    -75.3274E+06    -14.8052E+06    -12.8878E+06    -27.9435E-03     54.9931E-03    -27.0495E-03     65.3296E-03    -27.9094E-03     54.7034E-03    -27.0016E-03     65.0733E-03
             836     11.3883E-03     86.9223E-03    -8.37697E+06    -64.8694E+06    -16.5412E+06    -12.2965E+06    -28.2065E-03     55.2175E-03    -27.0110E-03     71.9291E-03    -28.2117E-03     55.0107E-03    -26.9875E-03     71.6539E-03
             837     12.2651E-03     86.9932E-03    -7.84085E+06    -49.6732E+06    -14.9369E+06    -11.1420E+06    -28.4320E-03     55.4202E-03    -26.9882E-03     77.9733E-03    -28.4969E-03     55.3243E-03    -26.9795E-03     77.6853E-03
             838     13.1395E-03     87.0695E-03    -6.94199E+06    -42.7953E+06    -22.3156E+06    -9.15248E+06    -28.2536E-03     55.1842E-03    -26.9307E-03     77.8389E-03    -28.3648E-03     55.1836E-03    -26.9701E-03     77.5460E-03
             839     14.0189E-03     87.1397E-03    -8.16025E+06    -26.1695E+06    -40.2729E+06    -5.44482E+06    -29.1551E-03     55.9679E-03    -26.8128E-03     95.1202E-03    -29.4685E-03     56.2762E-03    -26.9644E-03     94.8142E-03
             840     14.8910E-03     87.2494E-03    -8.91541E+06     34.7915E+06    -43.8387E+06    -2.35782E+06    -34.5899E-03     61.2962E-03    -26.7062E-03     176.757E-03    -36.2037E-03     63.1289E-03    -26.9630E-03     176.443E-03
             841     15.7692E-03     87.4748E-03    -8.52643E+06     128.118E+06     9.28808E+06    -728.429E+03    -43.9131E-03     70.7278E-03    -26.8147E-03     306.463E-03    -53.0821E-03     80.2944E-03    -26.9417E-03     307.716E-03
             842     16.6483E-03     87.8458E-03    -6.29517E+06     194.071E+06     90.1502E+06     1.18835E+06    -43.9346E-03     71.0088E-03    -27.0742E-03     348.003E-03    -60.3761E-03     87.8554E-03    -26.8957E-03     356.723E-03
             843     876.041E-06     87.4974E-03    -22.2719E+06    -86.1521E+06    -22.1591E+06    -1.73384E+06    -27.1761E-03     54.3432E-03    -27.1671E-03     5.67535E-03    -27.1305E-03     53.9771E-03    -27.1207E-03     5.65015E-03
             844     1.75171E-03     87.5049E-03    -21.6419E+06    -84.5825E+06    -20.7503E+06    -3.59657E+06    -27.1852E-03     54.3540E-03    -27.1689E-03     10.5667E-03    -27.1411E-03     53.9930E-03    -27.1186E-03     10.5149E-03
             845     2.62788E-03     87.5174E-03    -20.6682E+06    -83.4753E+06    -18.7239E+06    -5.32500E+06    -27.1947E-03     54.3641E-03    -27.1693E-03     15.7086E-03    -27.1509E-03     54.0048E-03    -27.1119E-03     15.6316E-03
             846     3.50362E-03     87.5345E-03    -19.2587E+06    -82.0842E+06    -16.2456E+06    -6.89854E+06    -27.2190E-03     54.3865E-03    -27.1676E-03     20.9719E-03    -27.1745E-03     54.0294E-03    -27.1018E-03     20.8713E-03
             847     4.37983E-03     87.5569E-03    -17.4555E+06    -80.2251E+06    -13.0054E+06    -8.25883E+06    -27.2515E-03     54.4178E-03    -27.1663E-03     26.3239E-03    -27.2066E-03     54.0638E-03    -27.0897E-03     26.2018E-03
             848     5.25562E-03     87.5840E-03    -15.8447E+06    -78.7958E+06    -9.88097E+06    -9.14161E+06    -27.3008E-03     54.4645E-03    -27.1637E-03     31.7618E-03    -27.2562E-03     54.1126E-03    -27.0759E-03     31.6235E-03
             849     6.13190E-03     87.6168E-03    -14.4336E+06    -78.0881E+06    -7.52937E+06    -10.3245E+06    -27.3574E-03     54.5144E-03    -27.1571E-03     37.3199E-03    -27.3127E-03     54.1632E-03    -27.0606E-03     37.1605E-03
             850     7.00774E-03     87.6544E-03    -12.9996E+06    -76.8848E+06    -6.56565E+06    -11.6578E+06    -27.4050E-03     54.5445E-03    -27.1394E-03     42.9542E-03    -27.3600E-03     54.1994E-03    -27.0419E-03     42.7703E-03
             851     7.88407E-03     87.6977E-03    -11.1701E+06    -74.5305E+06    -6.30270E+06    -12.8542E+06    -27.4822E-03     54.5953E-03    -27.1131E-03     48.5120E-03    -27.4372E-03     54.2643E-03    -27.0203E-03     48.3031E-03
             852     8.76029E-03     87.7455E-03    -9.95870E+06    -73.3515E+06    -6.92810E+06    -13.7151E+06    -27.6004E-03     54.6850E-03    -27.0846E-03     54.2580E-03    -27.5580E-03     54.3669E-03    -26.9985E-03     54.0260E-03
             853     9.63666E-03     87.7999E-03    -9.14930E+06    -73.5866E+06    -8.17570E+06    -13.7105E+06    -27.7748E-03     54.8333E-03    -27.0585E-03     59.9440E-03    -27.7377E-03     54.5261E-03    -26.9794E-03     59.6967E-03
             854     10.5121E-03     87.8581E-03    -8.41065E+06    -74.4187E+06    -13.8651E+06    -13.9669E+06    -27.9335E-03     54.9474E-03    -27.0139E-03     65.4621E-03    -27.9003E-03     54.6604E-03    -26.9632E-03     65.1920E-03
             855     11.3893E-03     87.9227E-03    -7.88264E+06    -64.9306E+06    -16.9593E+06    -13.5417E+06    -28.1522E-03     55.1220E-03    -26.9697E-03     72.2312E-03    -28.1539E-03     54.9143E-03    -26.9490E-03     71.9408E-03
             856     12.2644E-03     87.9943E-03    -7.03032E+06    -49.7427E+06    -14.9981E+06    -12.5632E+06    -28.2512E-03     55.1931E-03    -26.9419E-03     78.1252E-03    -28.3109E-03     55.0947E-03    -26.9345E-03     77.8207E-03
             857     13.1426E-03     88.0695E-03    -7.27518E+06    -45.6557E+06    -23.6569E+06    -10.3483E+06    -28.3729E-03     55.2561E-03    -26.8833E-03     78.2497E-03    -28.4797E-03     55.2436E-03    -26.9248E-03     77.9413E-03
             858     14.0155E-03     88.1405E-03    -7.32549E+06    -30.1111E+06    -39.6399E+06    -6.81304E+06    -29.0637E-03     55.8419E-03    -26.7781E-03     95.2147E-03    -29.3657E-03     56.1259E-03    -26.9221E-03     94.8941E-03
             859     14.8957E-03     88.2497E-03    -8.72978E+06     31.2488E+06    -42.6933E+06    -3.07432E+06    -34.4216E-03     61.0910E-03    -26.6694E-03     176.408E-03    -36.0236E-03     62.8969E-03    -26.9156E-03     176.085E-03
             860     15.7702E-03     88.4771E-03    -10.4648E+06     125.823E+06     5.95083E+06     44.4231E+03    -44.3567E-03     71.1220E-03    -26.7654E-03     306.757E-03    -53.5415E-03     80.6991E-03    -26.9029E-03     307.988E-03
             861     16.6428E-03     88.8446E-03    -6.44473E+06     193.466E+06     88.0561E+06     528.740E+03    -43.7866E-03     70.8201E-03    -27.0334E-03     348.309E-03    -60.2225E-03     87.6645E-03    -26.8643E-03     357.027E-03
             862     875.821E-06     88.4981E-03    -19.7146E+06    -82.1060E+06    -20.0417E+06    -2.08545E+06    -27.1522E-03     54.3023E-03    -27.1501E-03     5.70044E-03    -27.1028E-03     53.9496E-03    -27.1026E-03     5.67074E-03
             863     1.75199E-03     88.5058E-03    -19.4323E+06    -80.1478E+06    -19.1576E+06    -4.02319E+06    -27.1569E-03     54.2997E-03    -27.1428E-03     10.5703E-03    -27.1105E-03     53.9553E-03    -27.0942E-03     10.5130E-03
             864     2.62773E-03     88.5180E-03    -18.6862E+06    -79.5759E+06    -17.1711E+06    -5.80333E+06    -27.1668E-03     54.3088E-03    -27.1420E-03     15.7262E-03    -27.1209E-03     53.9639E-03    -27.0854E-03     15.6430E-03
             865     3.50393E-03     88.5354E-03    -17.7391E+06    -78.0272E+06    -14.7880E+06    -7.54380E+06    -27.1807E-03     54.3192E-03    -27.1384E-03     20.9904E-03    -27.1366E-03     53.9780E-03    -27.0735E-03     20.8816E-03
             866     4.37975E-03     88.5575E-03    -16.6047E+06    -77.0115E+06    -12.0600E+06    -9.01606E+06    -27.2074E-03     54.3418E-03    -27.1344E-03     26.3521E-03    -27.1642E-03     54.0013E-03    -27.0590E-03     26.2204E-03
             867     5.25600E-03     88.5850E-03    -14.9941E+06    -76.2499E+06    -9.17506E+06    -9.86106E+06    -27.2459E-03     54.3746E-03    -27.1286E-03     31.8158E-03    -27.2018E-03     54.0331E-03    -27.0422E-03     31.6684E-03
             868     6.13187E-03     88.6172E-03    -13.1990E+06    -74.6030E+06    -6.71130E+06    -10.9624E+06    -27.2773E-03     54.3931E-03    -27.1158E-03     37.3775E-03    -27.2326E-03     54.0562E-03    -27.0221E-03     37.2101E-03
             869     7.00828E-03     88.6552E-03    -11.4333E+06    -73.5516E+06    -5.56064E+06    -12.5882E+06    -27.3155E-03     54.4083E-03    -27.0928E-03     43.0077E-03    -27.2688E-03     54.0761E-03    -26.9974E-03     42.8122E-03
             870     7.88441E-03     88.6978E-03    -10.0358E+06    -72.0779E+06    -5.70529E+06    -13.7789E+06    -27.4365E-03     54.4997E-03    -27.0632E-03     48.6886E-03    -27.3901E-03     54.1784E-03    -26.9726E-03     48.4682E-03
             871     8.76050E-03     88.7465E-03    -9.01403E+06    -71.0063E+06    -5.50969E+06    -14.2891E+06    -27.5574E-03     54.5966E-03    -27.0392E-03     54.3392E-03    -27.5155E-03     54.2867E-03    -26.9508E-03     54.1002E-03
             872     9.63680E-03     88.7996E-03    -8.36870E+06    -72.3336E+06    -7.37391E+06    -14.6157E+06    -27.6660E-03     54.6752E-03    -27.0092E-03     60.0396E-03    -27.6276E-03     54.3717E-03    -26.9290E-03     59.7814E-03
             873     10.5138E-03     88.8593E-03    -7.86402E+06    -72.7809E+06    -13.0934E+06    -14.8000E+06    -27.8902E-03     54.8520E-03    -26.9617E-03     65.5839E-03    -27.8577E-03     54.5711E-03    -26.9103E-03     65.3036E-03
             874     11.3890E-03     88.9225E-03    -7.41349E+06    -64.1993E+06    -16.1981E+06    -14.6418E+06    -28.0499E-03     54.9668E-03    -26.9169E-03     72.5359E-03    -28.0509E-03     54.7605E-03    -26.8940E-03     72.2325E-03
             875     12.2664E-03     88.9952E-03    -7.47042E+06    -50.8215E+06    -15.2255E+06    -13.7395E+06    -28.2979E-03     55.1872E-03    -26.8892E-03     78.2181E-03    -28.3580E-03     55.0845E-03    -26.8808E-03     77.8983E-03
             876     13.1414E-03     89.0687E-03    -7.56995E+06    -47.7314E+06    -23.4156E+06    -11.7125E+06    -28.4686E-03     55.3111E-03    -26.8424E-03     78.2614E-03    -28.5747E-03     55.2887E-03    -26.8793E-03     77.9345E-03
             877     14.0195E-03     89.1437E-03    -7.50397E+06    -34.4904E+06    -40.2936E+06    -8.96308E+06    -29.1164E-03     55.8605E-03    -26.7441E-03     94.9042E-03    -29.4110E-03     56.1229E-03    -26.8847E-03     94.5551E-03
             878     14.8925E-03     89.2467E-03    -9.19119E+06     26.7598E+06    -45.9806E+06    -3.29205E+06    -34.3920E-03     61.0166E-03    -26.6246E-03     176.511E-03    -35.9855E-03     62.8059E-03    -26.8800E-03     176.188E-03
             879     15.7701E-03     89.4807E-03    -9.21978E+06     124.414E+06    -546.224E+03     728.232E+03    -43.8421E-03     70.5235E-03    -26.6815E-03     307.146E-03    -52.9770E-03     80.0690E-03    -26.8513E-03     308.423E-03
             880     16.6518E-03     89.8445E-03    -5.74417E+06     193.795E+06     84.4329E+06      69.118E+03    -44.1852E-03     71.1480E-03    -26.9627E-03     347.558E-03    -60.6090E-03     87.9944E-03    -26.8132E-03     356.241E-03
             881     876.059E-06     89.4991E-03    -16.2242E+06    -77.4790E+06    -16.4681E+06    -2.46291E+06    -27.1132E-03     54.2393E-03    -27.1260E-03     5.72028E-03    -27.0582E-03     53.8995E-03    -27.0725E-03     5.68569E-03
             882     1.75184E-03     89.5065E-03    -16.0622E+06    -75.3849E+06    -16.0659E+06    -4.34424E+06    -27.1214E-03     54.2298E-03    -27.1083E-03     10.5783E-03    -27.0696E-03     53.8999E-03    -27.0561E-03     10.5169E-03
             883     2.62804E-03     89.5189E-03    -15.5925E+06    -75.5898E+06    -14.1541E+06    -6.13281E+06    -27.1270E-03     54.2341E-03    -27.1071E-03     15.7317E-03    -27.0758E-03     53.9002E-03    -27.0457E-03     15.6444E-03
             884     3.50388E-03     89.5360E-03    -14.7998E+06    -73.7958E+06    -11.9510E+06    -7.69564E+06    -27.1320E-03     54.2322E-03    -27.1002E-03     21.0061E-03    -27.0834E-03     53.9038E-03    -27.0315E-03     20.8954E-03
             885     4.38012E-03     89.5584E-03    -13.8830E+06    -73.5216E+06    -9.69454E+06    -9.24348E+06    -27.1450E-03     54.2366E-03    -27.0916E-03     26.3835E-03    -27.0967E-03     53.9061E-03    -27.0133E-03     26.2490E-03
             886     5.25607E-03     89.5854E-03    -12.7845E+06    -73.2878E+06    -7.77789E+06    -10.5244E+06    -27.1602E-03     54.2370E-03    -27.0769E-03     31.8673E-03    -27.1112E-03     53.9051E-03    -26.9910E-03     31.7117E-03
             887     6.13246E-03     89.6180E-03    -11.0373E+06    -70.6831E+06    -5.44212E+06    -12.1583E+06    -27.1838E-03     54.2397E-03    -27.0559E-03     37.4329E-03    -27.1358E-03     53.9174E-03    -26.9646E-03     37.2505E-03
             888     7.00853E-03     89.6553E-03    -9.38512E+06    -70.5472E+06    -3.77358E+06    -13.3505E+06    -27.2377E-03     54.2706E-03    -27.0329E-03     43.0497E-03    -27.1877E-03     53.9477E-03    -26.9359E-03     42.8447E-03
             889     7.88494E-03     89.6986E-03    -8.64284E+06    -69.6936E+06    -4.42074E+06    -13.8919E+06    -27.3281E-03     54.3267E-03    -26.9986E-03     48.8383E-03    -27.2799E-03     54.0132E-03    -26.9071E-03     48.6171E-03
             890     8.76137E-03     89.7466E-03    -7.96751E+06    -68.7030E+06    -4.54008E+06    -14.7091E+06    -27.4828E-03     54.4532E-03    -26.9704E-03     54.5528E-03    -27.4402E-03     54.1516E-03    -26.8819E-03     54.3091E-03
             891     9.63758E-03     89.8003E-03    -7.01940E+06    -70.1192E+06    -5.99659E+06    -15.4300E+06    -27.6797E-03     54.6244E-03    -26.9447E-03     60.2681E-03    -27.6397E-03     54.3280E-03    -26.8628E-03     59.9997E-03
             892     10.5134E-03     89.8589E-03    -6.65572E+06    -71.3174E+06    -12.1996E+06    -15.4743E+06    -27.8428E-03     54.7425E-03    -26.8997E-03     65.7143E-03    -27.8073E-03     54.4656E-03    -26.8477E-03     65.4259E-03
             893     11.3908E-03     89.9236E-03    -7.02181E+06    -63.6567E+06    -15.2627E+06    -15.1322E+06    -28.0336E-03     54.8937E-03    -26.8601E-03     72.2778E-03    -28.0348E-03     54.6882E-03    -26.8339E-03     71.9680E-03
             894     12.2663E-03     89.9943E-03    -7.54996E+06    -51.5001E+06    -14.5112E+06    -14.4955E+06    -28.4201E-03     55.2616E-03    -26.8415E-03     78.6224E-03    -28.4806E-03     55.1546E-03    -26.8284E-03     78.2926E-03
             895     13.1425E-03     90.0719E-03    -6.73536E+06    -48.6303E+06    -22.4330E+06    -13.5676E+06    -28.4277E-03     55.2281E-03    -26.8005E-03     78.4503E-03    -28.5298E-03     55.1988E-03    -26.8324E-03     78.0998E-03
             896     14.0175E-03     90.1406E-03    -7.34325E+06    -40.3117E+06    -42.6545E+06    -9.41474E+06    -28.8748E-03     55.5606E-03    -26.6858E-03     95.4755E-03    -29.1535E-03     55.7938E-03    -26.8299E-03     95.1247E-03
             897     14.8957E-03     90.2521E-03    -7.90669E+06     20.7791E+06    -51.7061E+06    -3.50456E+06    -34.4617E-03     61.0042E-03    -26.5425E-03     177.450E-03    -36.0455E-03     62.7837E-03    -26.8197E-03     177.120E-03
             898     15.7725E-03     90.4758E-03    -7.61818E+06     123.297E+06    -5.12164E+06    -1.03331E+06    -44.2287E-03     70.8422E-03    -26.6134E-03     306.636E-03    -53.3433E-03     80.3822E-03    -26.8068E-03     307.869E-03
             899     16.6447E-03     90.8475E-03    -5.71359E+06     193.449E+06     82.4770E+06    -91.7800E+03    -44.2569E-03     71.1822E-03    -26.9253E-03     347.598E-03    -60.6824E-03     88.0349E-03    -26.7851E-03     356.288E-03
             900     875.936E-06     90.4997E-03    -13.7644E+06    -72.2153E+06    -13.6414E+06    -2.75254E+06    -27.0765E-03     54.1348E-03    -27.0583E-03     5.75360E-03    -27.0210E-03     53.8136E-03    -27.0018E-03     5.71525E-03
             901     1.75212E-03     90.5074E-03    -13.1807E+06    -70.6140E+06    -12.5763E+06    -4.68565E+06    -27.0692E-03     54.1297E-03    -27.0605E-03     10.5809E-03    -27.0149E-03     53.8144E-03    -27.0019E-03     10.5152E-03
             902     2.62800E-03     90.5195E-03    -12.4009E+06    -71.3463E+06    -10.7795E+06    -6.38857E+06    -27.0656E-03     54.1228E-03    -27.0572E-03     15.7418E-03    -27.0095E-03     53.8006E-03    -26.9897E-03     15.6513E-03
             903     3.50424E-03     90.5368E-03    -11.3147E+06    -69.6040E+06    -9.27202E+06    -8.14710E+06    -27.0584E-03     54.1005E-03    -27.0421E-03     21.0316E-03    -27.0023E-03     53.7841E-03    -26.9711E-03     20.9152E-03
             904     4.38025E-03     90.5587E-03    -10.1493E+06    -70.0505E+06    -6.90888E+06    -9.45257E+06    -27.0589E-03     54.0880E-03    -27.0291E-03     26.4111E-03    -27.0010E-03     53.7654E-03    -26.9473E-03     26.2741E-03
             905     5.25660E-03     90.5861E-03    -8.96889E+06    -69.4338E+06    -4.82410E+06    -10.9587E+06    -27.0615E-03     54.0701E-03    -27.0085E-03     31.9005E-03    -27.0033E-03     53.7475E-03    -26.9190E-03     31.7395E-03
             906     6.13274E-03     90.6181E-03    -8.12268E+06    -66.6366E+06    -3.55774E+06    -12.7260E+06    -27.0783E-03     54.0560E-03    -26.9777E-03     37.4998E-03    -27.0242E-03     53.7468E-03    -26.8871E-03     37.3105E-03
             907     7.00923E-03     90.6560E-03    -7.45715E+06    -68.1884E+06    -2.18195E+06    -13.6375E+06    -27.1481E-03     54.1018E-03    -26.9537E-03     43.1583E-03    -27.0940E-03     53.7855E-03    -26.8549E-03     42.9500E-03
             908     7.88554E-03     90.6984E-03    -6.63699E+06    -66.9402E+06    -2.82828E+06    -14.1714E+06    -27.2210E-03     54.1372E-03    -26.9161E-03     48.9271E-03    -27.1689E-03     53.8320E-03    -26.8236E-03     48.7029E-03
             909     8.76196E-03     90.7471E-03    -5.84368E+06    -65.7973E+06    -3.08262E+06    -15.0439E+06    -27.3645E-03     54.2477E-03    -26.8832E-03     54.7258E-03    -27.3174E-03     53.9552E-03    -26.7948E-03     54.4785E-03
             910     9.63845E-03     90.8003E-03    -5.33188E+06    -68.0352E+06    -4.43225E+06    -15.8121E+06    -27.5955E-03     54.4531E-03    -26.8576E-03     60.5346E-03    -27.5521E-03     54.1621E-03    -26.7734E-03     60.2621E-03
             911     10.5150E-03     90.8598E-03    -5.12344E+06    -70.1021E+06    -11.2179E+06    -15.9123E+06    -27.8606E-03     54.6749E-03    -26.8144E-03     66.1791E-03    -27.8205E-03     54.4004E-03    -26.7614E-03     65.8856E-03
             912     11.3904E-03     90.9229E-03    -5.19375E+06    -63.4365E+06    -14.8806E+06    -15.5018E+06    -28.1023E-03     54.8830E-03    -26.7807E-03     72.9124E-03    -28.0952E-03     54.6754E-03    -26.7556E-03     72.5983E-03
             913     12.2671E-03     90.9958E-03    -5.05282E+06    -50.6410E+06    -13.3448E+06    -14.6045E+06    -28.2479E-03     55.0113E-03    -26.7635E-03     79.5972E-03    -28.2983E-03     54.9028E-03    -26.7494E-03     79.2684E-03
             914     13.1437E-03     91.0709E-03    -6.17787E+06    -49.7346E+06    -22.7245E+06    -13.5523E+06    -28.2632E-03     54.9751E-03    -26.7119E-03     79.2580E-03    -28.3592E-03     54.9385E-03    -26.7444E-03     78.9109E-03
             915     14.0204E-03     91.1432E-03    -7.42304E+06    -45.3482E+06    -43.6130E+06    -10.2391E+06    -29.0683E-03     55.6731E-03    -26.6048E-03     95.6162E-03    -29.3405E-03     55.8845E-03    -26.7464E-03     95.2528E-03
             916     14.8968E-03     91.2481E-03    -7.96767E+06     14.3161E+06    -52.8537E+06    -6.36403E+06    -35.0283E-03     61.5182E-03    -26.4899E-03     177.199E-03    -36.6049E-03     63.2706E-03    -26.7634E-03     176.820E-03
             917     15.7706E-03     91.4826E-03    -7.96364E+06     120.396E+06    -7.76234E+06    -2.08850E+06    -44.4987E-03     71.0787E-03    -26.5799E-03     305.641E-03    -53.5886E-03     80.5901E-03    -26.7818E-03     306.864E-03
             918     16.6510E-03     91.8441E-03    -5.54725E+06     193.810E+06     81.2840E+06     271.627E+03    -43.7071E-03     70.5983E-03    -26.8911E-03     348.057E-03    -60.1466E-03     87.4703E-03    -26.7577E-03     356.797E-03
             919     876.142E-06     91.5005E-03    -12.4882E+06    -66.2609E+06    -12.3799E+06    -3.09087E+06    -27.0148E-03     53.9794E-03    -26.9646E-03     5.75674E-03    -26.9633E-03     53.6843E-03    -26.9123E-03     5.71405E-03
             920     1.75208E-03     91.5079E-03    -12.0045E+06    -65.8938E+06    -11.2221E+06    -4.99991E+06    -26.9774E-03     53.9595E-03    -26.9821E-03     10.5991E-03    -26.9260E-03     53.6641E-03    -26.9253E-03     10.5294E-03
             921     2.62835E-03     91.5202E-03    -11.0351E+06    -66.4448E+06    -9.64768E+06    -7.03670E+06    -26.9684E-03     53.9402E-03    -26.9718E-03     15.7805E-03    -26.9142E-03     53.6389E-03    -26.9077E-03     15.6818E-03
             922     3.50440E-03     91.5371E-03    -9.82759E+06    -65.3529E+06    -8.21868E+06    -8.93402E+06    -26.9519E-03     53.9043E-03    -26.9523E-03     21.0766E-03    -26.8961E-03     53.6054E-03    -26.8844E-03     20.9503E-03
             923     4.38077E-03     91.5593E-03    -8.40490E+06    -66.4265E+06    -5.89794E+06    -10.3623E+06    -26.9401E-03     53.8744E-03    -26.9342E-03     26.4648E-03    -26.8802E-03     53.5658E-03    -26.8552E-03     26.3163E-03
             924     5.25698E-03     91.5861E-03    -6.72105E+06    -65.3049E+06    -3.55390E+06    -11.8458E+06    -26.9336E-03     53.8413E-03    -26.9077E-03     31.9790E-03    -26.8719E-03     53.5342E-03    -26.8211E-03     31.8070E-03
             925     6.13350E-03     91.6186E-03    -5.52393E+06    -63.6200E+06    -1.64014E+06    -12.6593E+06    -26.9529E-03     53.8291E-03    -26.8762E-03     37.6081E-03    -26.8929E-03     53.5284E-03    -26.7841E-03     37.4202E-03
             926     7.00988E-03     91.6557E-03    -4.88256E+06    -65.1677E+06    -201.642E+03    -13.5531E+06    -27.0188E-03     53.8672E-03    -26.8484E-03     43.3241E-03    -26.9589E-03     53.5591E-03    -26.7478E-03     43.1177E-03
             927     7.88639E-03     91.6989E-03    -4.07674E+06    -63.7289E+06    -735.697E+03    -14.7219E+06    -27.1298E-03     53.9394E-03    -26.8096E-03     49.1412E-03    -27.0724E-03     53.6433E-03    -26.7149E-03     48.9107E-03
             928     8.76299E-03     91.7465E-03    -3.64057E+06    -63.2573E+06    -1.34575E+06    -15.2850E+06    -27.2492E-03     54.0249E-03    -26.7758E-03     55.0360E-03    -27.1969E-03     53.7391E-03    -26.6855E-03     54.7867E-03
             929     9.63941E-03     91.8009E-03    -3.29706E+06    -66.0650E+06    -2.76402E+06    -15.8681E+06    -27.3652E-03     54.1092E-03    -26.7440E-03     60.8595E-03    -27.3163E-03     53.8220E-03    -26.6572E-03     60.5882E-03
             930     10.5159E-03     91.8590E-03    -3.07535E+06    -69.3010E+06    -9.82395E+06    -16.2056E+06    -27.6029E-03     54.2915E-03    -26.6886E-03     66.8549E-03    -27.5549E-03     54.0150E-03    -26.6328E-03     66.5602E-03
             931     11.3928E-03     91.9245E-03    -3.53970E+06    -61.8260E+06    -13.5917E+06    -16.0062E+06    -28.0674E-03     54.7167E-03    -26.6493E-03     73.8687E-03    -28.0556E-03     54.5122E-03    -26.6225E-03     73.5499E-03
             932     12.2692E-03     91.9944E-03    -3.60746E+06    -50.2531E+06    -11.7799E+06    -15.2460E+06    -28.2748E-03     54.9174E-03    -26.6427E-03     79.9384E-03    -28.3211E-03     54.8067E-03    -26.6235E-03     79.6016E-03
             933     13.1453E-03     92.0728E-03    -3.87880E+06    -52.0422E+06    -20.2915E+06    -12.9122E+06    -28.3031E-03     54.9105E-03    -26.6074E-03     79.4807E-03    -28.3862E-03     54.8539E-03    -26.6278E-03     79.1434E-03
             934     14.0215E-03     92.1412E-03    -5.83828E+06    -47.4387E+06    -40.0047E+06    -11.1793E+06    -29.7658E-03     56.3011E-03    -26.5353E-03     96.0837E-03    -30.0395E-03     56.5016E-03    -26.6580E-03     95.7004E-03
             935     14.8951E-03     92.2531E-03    -7.96348E+06     8.15141E+06    -55.4736E+06    -8.27411E+06    -35.3758E-03     61.8050E-03    -26.4292E-03     178.287E-03    -36.9391E-03     63.5298E-03    -26.7068E-03     177.885E-03
             936     15.7728E-03     92.4799E-03    -8.41056E+06     115.358E+06    -14.1956E+06    -3.12622E+06    -44.4058E-03     70.9075E-03    -26.5017E-03     306.891E-03    -53.5227E-03     80.4452E-03    -26.7278E-03     308.106E-03
             937     16.6463E-03     92.8457E-03    -5.76888E+06     193.723E+06     79.6575E+06    -128.466E+03    -43.5119E-03     70.3349E-03    -26.8230E-03     347.356E-03    -59.9179E-03     87.1771E-03    -26.6972E-03     356.103E-03
             938     876.085E-06     92.5009E-03    -10.2767E+06    -59.9951E+06    -10.3131E+06    -3.28505E+06    -26.8855E-03     53.7525E-03    -26.8670E-03     5.74927E-03    -26.8351E-03     53.4825E-03    -26.8167E-03     5.70414E-03
             939     1.75242E-03     92.5084E-03    -9.90997E+06    -60.6060E+06    -9.61739E+06    -5.40161E+06    -26.8563E-03     53.7218E-03    -26.8655E-03     10.6405E-03    -26.8044E-03     53.4475E-03    -26.8114E-03     10.5658E-03
             940     2.62854E-03     92.5204E-03    -8.97313E+06    -60.8069E+06    -7.99589E+06    -7.90439E+06    -26.8407E-03     53.6920E-03    -26.8513E-03     15.8246E-03    -26.7867E-03     53.4135E-03    -26.7901E-03     15.7149E-03
             941     3.50493E-03     92.5376E-03    -7.71576E+06    -60.9615E+06    -6.29422E+06    -9.89995E+06    -26.8126E-03     53.6434E-03    -26.8308E-03     21.1331E-03    -26.7553E-03     53.3606E-03    -26.7627E-03     20.9946E-03
             942     4.38121E-03     92.5593E-03    -6.22799E+06    -62.0240E+06    -4.33187E+06    -11.6553E+06    -26.7893E-03     53.5949E-03    -26.8057E-03     26.5539E-03    -26.7270E-03     53.3029E-03    -26.7284E-03     26.3892E-03
             943     5.25776E-03     92.5865E-03    -4.79552E+06    -61.7197E+06    -2.18620E+06    -12.9495E+06    -26.7775E-03     53.5522E-03    -26.7747E-03     32.0966E-03    -26.7133E-03     53.2582E-03    -26.6892E-03     31.9110E-03
             944     6.13423E-03     92.6182E-03    -3.34626E+06    -61.3941E+06     10.1506E+03    -13.2952E+06    -26.7909E-03     53.5323E-03    -26.7414E-03     37.7734E-03    -26.7254E-03     53.2369E-03    -26.6475E-03     37.5781E-03
             945     7.01088E-03     92.6560E-03    -1.89841E+06    -61.7589E+06     1.97500E+06    -13.8767E+06    -26.8434E-03     53.5514E-03    -26.7081E-03     43.5687E-03    -26.7764E-03     53.2527E-03    -26.6059E-03     43.3591E-03
             946     7.88760E-03     92.6982E-03    -1.33365E+06    -61.2443E+06     1.58896E+06    -14.5763E+06    -26.9452E-03     53.6110E-03    -26.6658E-03     49.5245E-03    -26.8806E-03     53.3197E-03    -26.5672E-03     49.2972E-03
             947     8.76404E-03     92.7470E-03    -1.12630E+06    -60.9857E+06     861.404E+03    -15.2072E+06    -27.0226E-03     53.6473E-03    -26.6246E-03     55.5037E-03    -26.9637E-03     53.3654E-03    -26.5302E-03     55.2572E-03
             948     9.64104E-03     92.7998E-03    -858.965E+03    -63.5671E+06    -365.443E+03    -15.9423E+06    -27.1740E-03     53.7606E-03    -26.5866E-03     61.5044E-03    -27.1193E-03     53.4782E-03    -26.4950E-03     61.2340E-03
             949     10.5180E-03     92.8595E-03    -1.41958E+06    -67.7899E+06    -7.56347E+06    -16.2188E+06    -27.4690E-03     54.0002E-03    -26.5312E-03     67.2343E-03    -27.4174E-03     53.7248E-03    -26.4687E-03     66.9412E-03
             950     11.3948E-03     92.9229E-03    -2.29782E+06    -60.7328E+06    -11.7983E+06    -16.0784E+06    -27.9170E-03     54.4081E-03    -26.4911E-03     74.3413E-03    -27.9024E-03     54.2039E-03    -26.4587E-03     74.0237E-03
             951     12.2702E-03     92.9971E-03    -2.96671E+06    -50.3677E+06    -10.2939E+06    -15.6952E+06    -28.3483E-03     54.8413E-03    -26.4929E-03     80.2407E-03    -28.3924E-03     54.7259E-03    -26.4670E-03     79.8993E-03
             952     13.1472E-03     93.0697E-03    -3.43254E+06    -54.1113E+06    -18.7060E+06    -13.8100E+06    -28.7089E-03     55.1945E-03    -26.4856E-03     80.4167E-03    -28.7909E-03     55.1266E-03    -26.4957E-03     80.0654E-03
             953     14.0222E-03     93.1460E-03    -4.29674E+06    -49.4361E+06    -35.2884E+06    -11.2069E+06    -29.7570E-03     56.2019E-03    -26.4448E-03     97.7942E-03    -30.0269E-03     56.3833E-03    -26.5434E-03     97.4136E-03
             954     14.8991E-03     93.2516E-03    -7.45225E+06     5.12591E+06    -49.9054E+06    -7.86590E+06    -35.1330E-03     61.4749E-03    -26.3419E-03     178.929E-03    -36.6989E-03     63.1772E-03    -26.5880E-03     178.538E-03
             955     15.7746E-03     93.4825E-03    -9.51401E+06     109.941E+06    -19.6466E+06    -3.55852E+06    -44.5394E-03     70.9006E-03    -26.3612E-03     308.175E-03    -53.6821E-03     80.4568E-03    -26.6051E-03     309.382E-03
             956     16.6527E-03     93.8489E-03    -5.52688E+06     191.291E+06     73.6343E+06    -815.024E+03    -44.0230E-03     70.7131E-03    -26.6901E-03     346.970E-03    -60.3813E-03     87.5173E-03    -26.5913E-03     355.678E-03
             957     876.364E-06     93.5012E-03    -6.17530E+06    -53.5573E+06    -5.94257E+06    -3.33725E+06    -26.7266E-03     53.4450E-03    -26.7185E-03     5.75814E-03    -26.6713E-03     53.1950E-03    -26.6616E-03     5.71246E-03
             958     1.75259E-03     93.5085E-03    -5.69878E+06    -54.4008E+06    -5.46414E+06    -5.88229E+06    -26.7075E-03     53.4201E-03    -26.7126E-03     10.6708E-03    -26.6495E-03     53.1647E-03    -26.6528E-03     10.5900E-03
             959     2.62903E-03     93.5207E-03    -5.10699E+06    -54.7767E+06    -4.69640E+06    -8.59791E+06    -26.6704E-03     53.3635E-03    -26.6931E-03     15.8731E-03    -26.6106E-03     53.1047E-03    -26.6298E-03     15.7546E-03
             960     3.50541E-03     93.5374E-03    -4.32438E+06    -56.0634E+06       -3.35E+06    -10.7733E+06    -26.6310E-03     53.2988E-03    -26.6678E-03     21.2125E-03    -26.5681E-03     53.0312E-03    -26.5970E-03     21.0631E-03
             961     4.38202E-03     93.5594E-03    -3.39865E+06    -57.1535E+06    -1.80606E+06    -12.6322E+06    -26.5964E-03     53.2323E-03    -26.6360E-03     26.6702E-03    -26.5306E-03     52.9568E-03    -26.5572E-03     26.4934E-03
             962     5.25860E-03     93.5859E-03    -2.46347E+06    -58.6000E+06    -424.516E+03    -13.6673E+06    -26.5776E-03     53.1768E-03    -26.5992E-03     32.2732E-03    -26.5086E-03     52.8923E-03    -26.5128E-03     32.0790E-03
             963     6.13535E-03     93.6182E-03    -1.45435E+06    -58.6306E+06     935.355E+03    -14.3111E+06    -26.5657E-03     53.1223E-03    -26.5567E-03     38.0225E-03    -26.4958E-03     52.8365E-03    -26.4649E-03     37.8151E-03
             964     7.01221E-03     93.6551E-03    -377.240E+03    -59.3297E+06     2.69356E+06    -14.6048E+06    -26.5904E-03     53.1055E-03    -26.5151E-03     43.9385E-03    -26.5200E-03     52.8153E-03    -26.4150E-03     43.7210E-03
             965     7.88898E-03     93.6982E-03     439.424E+03    -59.5570E+06     3.00932E+06    -14.4460E+06    -26.6168E-03     53.0815E-03    -26.4647E-03     49.9789E-03    -26.5473E-03     52.7934E-03    -26.3639E-03     49.7552E-03
             966     8.76630E-03     93.7457E-03     739.182E+03    -58.1552E+06     2.56681E+06    -15.0294E+06    -26.7349E-03     53.1457E-03    -26.4108E-03     56.0564E-03    -26.6726E-03     52.8721E-03    -26.3147E-03     55.8143E-03
             967     9.64320E-03     93.7996E-03     545.917E+03    -61.0812E+06     1.81763E+06    -15.7195E+06    -27.0664E-03     53.4422E-03    -26.3758E-03     62.1307E-03    -27.0108E-03     53.1665E-03    -26.2789E-03     61.8649E-03
             968     10.5199E-03     93.8584E-03     167.865E+03    -65.9344E+06    -5.23910E+06    -15.8913E+06    -27.5020E-03     53.8364E-03    -26.3344E-03     68.0321E-03    -27.4483E-03     53.5644E-03    -26.2652E-03     67.7444E-03
             969     11.3958E-03     93.9235E-03    -477.768E+03    -60.1403E+06    -10.2543E+06    -15.7485E+06    -27.7610E-03     54.0616E-03    -26.3005E-03     75.2174E-03    -27.7395E-03     53.8546E-03    -26.2639E-03     74.9064E-03
             970     12.2742E-03     93.9953E-03    -1.54836E+06    -49.6815E+06    -8.31843E+06    -15.2982E+06    -28.3386E-03     54.6480E-03    -26.3094E-03     81.5048E-03    -28.3790E-03     54.5307E-03    -26.2767E-03     81.1704E-03
             971     13.1487E-03     94.0728E-03    -2.67455E+06    -55.7857E+06    -17.8723E+06    -14.2524E+06    -28.8595E-03     55.1739E-03    -26.3144E-03     81.5749E-03    -28.9382E-03     55.0969E-03    -26.3190E-03     81.2178E-03
             972     14.0252E-03     94.1442E-03    -4.13264E+06    -52.5057E+06    -35.8494E+06    -11.1943E+06    -29.6353E-03     55.9136E-03    -26.2784E-03     98.7145E-03    -29.8967E-03     56.0779E-03    -26.3755E-03     98.3371E-03
             973     14.9005E-03     94.2542E-03    -4.94030E+06     1.61535E+06    -45.2953E+06    -6.88689E+06    -35.4904E-03     61.7029E-03    -26.2125E-03     179.389E-03    -37.0584E-03     63.3905E-03    -26.4342E-03     179.002E-03
             974     15.7763E-03     94.4824E-03    -5.82628E+06     106.661E+06    -17.2151E+06    -2.99411E+06    -44.5385E-03     70.7801E-03    -26.2416E-03     306.985E-03    -53.6164E-03     80.2659E-03    -26.4739E-03     308.232E-03
             975     16.6529E-03     94.8482E-03    -5.20564E+06     189.950E+06     70.8588E+06    -965.943E+03    -44.3295E-03     70.8969E-03    -26.5674E-03     346.701E-03    -60.6810E-03     87.6988E-03    -26.4810E-03     355.361E-03
             976     876.456E-06     94.5010E-03    -2.94230E+06    -46.6779E+06    -2.61741E+06    -3.38571E+06    -26.5047E-03     53.0281E-03    -26.5234E-03     5.78940E-03    -26.4481E-03     52.8030E-03    -26.4645E-03     5.74325E-03
             977     1.75300E-03     94.5085E-03    -2.42288E+06    -47.6346E+06    -2.27898E+06    -6.34146E+06    -26.4898E-03     52.9917E-03    -26.5019E-03     10.7156E-03    -26.4299E-03     52.7607E-03    -26.4407E-03     10.6291E-03
             978     2.62954E-03     94.5203E-03    -1.94459E+06    -48.5184E+06    -1.78392E+06    -9.04990E+06    -26.4398E-03     52.9170E-03    -26.4772E-03     15.9517E-03    -26.3774E-03     52.6806E-03    -26.4130E-03     15.8278E-03
             979     3.50624E-03     94.5373E-03    -1.39055E+06    -50.6318E+06    -760.025E+03    -11.3706E+06    -26.3908E-03     52.8370E-03    -26.4462E-03     21.3254E-03    -26.3248E-03     52.5885E-03    -26.3746E-03     21.1689E-03
             980     4.38295E-03     94.5586E-03    -740.232E+03    -52.3231E+06     233.126E+03    -13.1599E+06    -26.3408E-03     52.7477E-03    -26.4069E-03     26.8412E-03    -26.2715E-03     52.4894E-03    -26.3288E-03     26.6584E-03
             981     5.25984E-03     94.5856E-03     103.508E+03    -55.2021E+06     1.24314E+06    -14.3968E+06    -26.2944E-03     52.6570E-03    -26.3626E-03     32.5164E-03    -26.2197E-03     52.3831E-03    -26.2765E-03     32.3139E-03
             982     6.13684E-03     94.6171E-03     961.023E+03    -55.7016E+06     2.01205E+06    -14.9297E+06    -26.2637E-03     52.5721E-03    -26.3084E-03     38.3682E-03    -26.1872E-03     52.2955E-03    -26.2190E-03     38.1542E-03
             983     7.01389E-03     94.6545E-03     1.42136E+06    -57.4763E+06     3.35292E+06    -14.9221E+06    -26.2287E-03     52.4836E-03    -26.2550E-03     44.3726E-03    -26.1524E-03     52.1986E-03    -26.1569E-03     44.1528E-03
             984     7.89131E-03     94.6966E-03     1.82880E+06    -58.1204E+06     3.65787E+06    -14.6881E+06    -26.2810E-03     52.4748E-03    -26.1938E-03     50.4890E-03    -26.2069E-03     52.1903E-03    -26.0939E-03     50.2643E-03
             985     8.76849E-03     94.7448E-03     1.86889E+06    -55.4019E+06     3.65449E+06    -14.5901E+06    -26.5235E-03     52.6616E-03    -26.1381E-03     56.6759E-03    -26.4604E-03     52.3979E-03    -26.0422E-03     56.4416E-03
             986     9.64569E-03     94.7984E-03     1.46820E+06     -58.491E+06     3.63365E+06    -15.3307E+06    -26.8153E-03     52.9245E-03    -26.1093E-03     62.9512E-03    -26.7605E-03     52.6568E-03    -26.0084E-03     62.6931E-03
             987     10.5226E-03     94.8581E-03     1.10635E+06    -64.7270E+06    -3.90350E+06    -15.7142E+06    -27.1909E-03     53.2547E-03    -26.0638E-03     69.3282E-03    -27.1350E-03     52.9842E-03    -25.9911E-03     69.0462E-03
             988     11.4002E-03     94.9225E-03     474.491E+03    -58.8845E+06    -9.39225E+06    -15.4318E+06    -27.8208E-03     53.8554E-03    -26.0347E-03     76.5030E-03    -27.7970E-03     53.6515E-03    -25.9969E-03     76.1979E-03
             989     12.2752E-03     94.9951E-03     30.1225E+03    -48.5118E+06    -6.21903E+06    -14.9796E+06    -28.3950E-03     54.4629E-03    -26.0679E-03     83.1328E-03    -28.4325E-03     54.3463E-03    -26.0287E-03     82.8042E-03
             990     13.1527E-03     95.0733E-03    -780.604E+03    -58.0195E+06    -16.2505E+06    -13.3798E+06    -28.8520E-03     54.9407E-03    -26.0887E-03     82.8739E-03    -28.9190E-03     54.8461E-03    -26.0847E-03     82.5309E-03
             991     14.0278E-03     95.1445E-03    -2.81057E+06    -54.8075E+06    -35.4485E+06    -10.5575E+06    -30.2357E-03     56.3121E-03    -26.0763E-03     99.5289E-03    -30.4924E-03     56.4670E-03    -26.1700E-03     99.1554E-03
             992     14.9038E-03     95.2556E-03    -5.79569E+06    -3.69802E+06    -42.9106E+06    -7.67601E+06    -36.0508E-03     62.1215E-03    -26.0707E-03     180.303E-03    -37.6274E-03     63.7889E-03    -26.2715E-03     179.901E-03
             993     15.7781E-03     95.4852E-03    -6.56257E+06     102.499E+06    -14.0434E+06    -4.34999E+06    -45.0764E-03     71.2204E-03    -26.1441E-03     306.150E-03    -54.1486E-03     80.6739E-03    -26.3534E-03     307.342E-03
             994     16.6552E-03     95.8468E-03    -5.42307E+06     189.817E+06     71.3947E+06    -918.144E+03    -44.4437E-03     70.9214E-03    -26.4777E-03     347.282E-03    -60.8564E-03     87.7816E-03    -26.3881E-03     355.940E-03
             995     876.732E-06     95.5007E-03    -400.361E+03    -39.3008E+06    -550.550E+03    -3.61519E+06    -26.2073E-03     52.4626E-03    -26.2553E-03     5.86152E-03    -26.1516E-03     52.2676E-03    -26.2005E-03     5.81259E-03
             996     1.75348E-03     95.5077E-03    -81.9758E+03    -40.4342E+06    -114.221E+03    -6.80731E+06    -26.1899E-03     52.4048E-03    -26.2150E-03     10.7775E-03    -26.1318E-03     52.2033E-03    -26.1568E-03     10.6853E-03
             997     2.63032E-03     95.5198E-03     418.211E+03    -42.1415E+06     620.127E+03    -9.52366E+06    -26.1369E-03     52.3238E-03    -26.1869E-03     16.0567E-03    -26.0754E-03     52.1124E-03    -26.1233E-03     15.9272E-03
             998     3.50722E-03     95.5362E-03     951.746E+03    -44.8636E+06     1.19752E+06    -11.8455E+06    -26.0706E-03     52.2197E-03    -26.1491E-03     21.4847E-03    -26.0040E-03     51.9937E-03    -26.0794E-03     21.3227E-03
             999     4.38428E-03     95.5579E-03     1.49175E+06    -47.5785E+06     1.60187E+06    -13.6620E+06    -25.9932E-03     52.0934E-03    -26.1002E-03     27.0704E-03    -25.9215E-03     51.8534E-03    -26.0254E-03     26.8821E-03
            1000     5.26146E-03     95.5841E-03     1.99724E+06    -51.0873E+06     2.27013E+06    -15.0585E+06    -25.9201E-03     51.9652E-03    -26.0451E-03     32.8224E-03    -25.8431E-03     51.7073E-03    -25.9625E-03     32.6126E-03
            1001     6.13879E-03     95.6159E-03     2.49226E+06    -53.4685E+06     2.39669E+06    -15.4581E+06    -25.8478E-03     51.8261E-03    -25.9783E-03     38.7800E-03    -25.7671E-03     51.5575E-03    -25.8924E-03     38.5609E-03
            1002     7.01634E-03     95.6526E-03     3.06745E+06    -55.3280E+06     3.43533E+06    -15.2576E+06    -25.8271E-03     51.7383E-03    -25.9112E-03     44.8368E-03    -25.7453E-03     51.4610E-03    -25.8183E-03     44.6146E-03
            1003     7.89396E-03     95.6949E-03     3.26483E+06    -56.7412E+06     4.25162E+06    -14.7309E+06    -25.9732E-03     51.8231E-03    -25.8500E-03     51.1803E-03    -25.8941E-03     51.5418E-03    -25.7512E-03     50.9573E-03
            1004     8.77146E-03     95.7431E-03     3.07522E+06    -54.1957E+06     4.02833E+06    -13.8498E+06    -26.1581E-03     51.9501E-03    -25.7919E-03     57.6404E-03    -26.0903E-03     51.6890E-03    -25.6977E-03     57.4187E-03
            1005     9.64883E-03     95.7969E-03     2.53030E+06    -55.5218E+06     5.08618E+06    -14.2708E+06    -26.3943E-03     52.1532E-03    -25.7588E-03     64.1241E-03    -26.3394E-03     51.8953E-03    -25.6566E-03     63.8833E-03
            1006     10.5267E-03     95.8560E-03     1.52845E+06    -63.3216E+06    -1.95740E+06    -15.2715E+06    -26.9006E-03     52.6160E-03    -25.7153E-03     70.5538E-03    -26.8459E-03     52.3475E-03    -25.6355E-03     70.2814E-03
            1007     11.4032E-03     95.9219E-03     296.158E+03    -57.6307E+06    -9.16024E+06    -15.0309E+06    -27.7157E-03     53.4023E-03    -25.6866E-03     78.2303E-03    -27.6938E-03     53.2034E-03    -25.6493E-03     77.9339E-03
            1008     12.2806E-03     95.9953E-03    -819.714E+03    -47.3442E+06    -5.38717E+06    -14.8456E+06    -28.4495E-03     54.1919E-03    -25.7423E-03     84.7835E-03    -28.4935E-03     54.0805E-03    -25.6994E-03     84.4590E-03
            1009     13.1562E-03     96.0722E-03    -1.44694E+06    -60.5558E+06    -15.5580E+06    -13.1451E+06    -29.3045E-03     55.1058E-03    -25.8013E-03     84.8050E-03    -29.3735E-03     54.9999E-03    -25.7892E-03     84.4648E-03
            1010     14.0316E-03     96.1471E-03    -3.20059E+06    -57.1466E+06    -33.6368E+06    -10.3072E+06    -31.0323E-03     56.8789E-03    -25.8466E-03     101.102E-03    -31.2971E-03     57.0270E-03    -25.9272E-03     100.726E-03
            1011     14.9048E-03     96.2566E-03    -6.01449E+06    -5.64437E+06    -37.0539E+06    -7.73945E+06    -36.5879E-03     62.4976E-03    -25.9097E-03     181.134E-03    -38.1749E-03     64.1507E-03    -26.0781E-03     180.724E-03
            1012     15.7813E-03     96.4869E-03    -7.99103E+06     97.6423E+06    -14.8629E+06    -4.39512E+06    -45.6879E-03     71.6797E-03    -25.9919E-03     307.192E-03    -54.7884E-03     81.1416E-03    -26.1962E-03     308.342E-03
            1013     16.6546E-03     96.8492E-03    -6.15017E+06     187.048E+06     67.7888E+06    -987.648E+03    -44.6011E-03     70.9343E-03    -26.3332E-03     346.951E-03    -60.9921E-03     87.7709E-03    -26.2566E-03     355.610E-03
            1014     877.028E-06     96.4993E-03     2.39070E+06    -31.3533E+06     2.27846E+06    -3.95166E+06    -25.8573E-03     51.7195E-03    -25.8622E-03     5.89096E-03    -25.8033E-03     51.5562E-03    -25.8088E-03     5.83787E-03
            1015     1.75412E-03     96.5067E-03     2.50221E+06    -32.9808E+06     2.34623E+06    -7.09183E+06    -25.8041E-03     51.6439E-03    -25.8398E-03     10.8650E-03    -25.7475E-03     51.4723E-03    -25.7838E-03     10.7696E-03
            1016     2.63128E-03     96.5182E-03     2.58149E+06    -35.5199E+06     2.37195E+06    -9.88419E+06    -25.7358E-03     51.5393E-03    -25.8035E-03     16.1954E-03    -25.6755E-03     51.3552E-03    -25.7439E-03     16.0619E-03
            1017     3.50857E-03     96.5349E-03     2.81039E+06    -39.0023E+06     2.44873E+06    -12.2808E+06    -25.6455E-03     51.4018E-03    -25.7564E-03     21.6924E-03    -25.5797E-03     51.2005E-03    -25.6917E-03     21.5257E-03
            1018     4.38599E-03     96.5559E-03     2.97152E+06    -42.7719E+06     2.31450E+06    -14.0218E+06    -25.5431E-03     51.2398E-03    -25.6967E-03     27.3495E-03    -25.4718E-03     51.0204E-03    -25.6274E-03     27.1578E-03
            1019     5.26358E-03     96.5823E-03     2.97012E+06    -46.8778E+06     2.27927E+06    -15.2891E+06    -25.4399E-03     51.0678E-03    -25.6280E-03     33.1956E-03    -25.3638E-03     50.8293E-03    -25.5529E-03     32.9845E-03
            1020     6.14136E-03     96.6134E-03     2.87058E+06    -51.1636E+06     2.04454E+06    -15.7796E+06    -25.3531E-03     50.9042E-03    -25.5511E-03     39.2133E-03    -25.2729E-03     50.6466E-03    -25.4708E-03     38.9919E-03
            1021     7.01936E-03     96.6502E-03     2.81443E+06    -53.3365E+06     1.99948E+06    -15.5994E+06    -25.3914E-03     50.8645E-03    -25.4732E-03     45.5033E-03    -25.3110E-03     50.5990E-03    -25.3899E-03     45.2791E-03
            1022     7.89721E-03     96.6924E-03     2.73991E+06    -55.7986E+06     2.92562E+06    -14.7312E+06    -25.4650E-03     50.8730E-03    -25.4080E-03     52.0836E-03    -25.3870E-03     50.5981E-03    -25.3164E-03     51.8638E-03
            1023     8.77524E-03     96.7407E-03     2.62781E+06    -54.1800E+06     2.97309E+06    -13.4185E+06    -25.5893E-03     50.9291E-03    -25.3398E-03     58.7831E-03    -25.5207E-03     50.6689E-03    -25.2502E-03     58.5709E-03
            1024     9.65372E-03     96.7941E-03     2.00578E+06    -53.1195E+06     5.24621E+06    -12.8393E+06    -26.0311E-03     51.3352E-03    -25.3042E-03     65.5142E-03    -25.9810E-03     51.0885E-03    -25.2038E-03     65.2958E-03
            1025     10.5309E-03     96.8546E-03     287.146E+03    -61.0346E+06     1.12495E+06    -13.4712E+06    -26.6989E-03     51.9860E-03    -25.2872E-03     72.1386E-03    -26.6567E-03     51.7250E-03    -25.1934E-03     71.8931E-03
            1026     11.4088E-03     96.9197E-03    -1.81112E+06    -56.7285E+06    -7.79523E+06    -14.3452E+06    -27.5173E-03     52.7852E-03    -25.2679E-03     80.0893E-03    -27.5078E-03     52.5905E-03    -25.2220E-03     79.8058E-03
            1027     12.2850E-03     96.9949E-03    -2.54718E+06    -45.1512E+06    -3.37443E+06    -14.8388E+06    -28.6152E-03     53.9643E-03    -25.3492E-03     86.4604E-03    -28.6734E-03     53.8630E-03    -25.2969E-03     86.1379E-03
            1028     13.1613E-03     97.0725E-03    -3.20031E+06    -63.2751E+06    -14.4829E+06    -13.4641E+06    -29.8352E-03     55.2907E-03    -25.4555E-03     87.0082E-03    -29.9131E-03     55.1747E-03    -25.4316E-03     86.6626E-03
            1029     14.0352E-03     97.1494E-03    -4.71079E+06    -59.9046E+06    -34.9382E+06    -9.91382E+06    -31.5381E-03     57.0752E-03    -25.5370E-03     103.553E-03    -31.8079E-03     57.2169E-03    -25.6180E-03     103.181E-03
            1030     14.9103E-03     97.2589E-03    -7.08686E+06    -6.44574E+06    -32.1880E+06    -7.09709E+06    -37.2859E-03     62.9604E-03    -25.6745E-03     182.575E-03    -38.8982E-03     64.6180E-03    -25.8158E-03     182.159E-03
            1031     15.7836E-03     97.4892E-03    -8.17126E+06     92.7597E+06    -15.7618E+06    -3.86667E+06    -46.2215E-03     71.9943E-03    -25.7729E-03     308.596E-03    -55.3681E-03     81.4870E-03    -25.9743E-03     309.748E-03
            1032     16.6611E-03     97.8528E-03    -4.99022E+06     184.420E+06     63.0646E+06    -878.249E+03    -45.1080E-03     71.2329E-03    -26.1249E-03     346.127E-03    -61.4377E-03     88.0167E-03    -26.0698E-03     354.740E-03
            1033     877.445E-06     97.4976E-03     4.09436E+06    -23.1272E+06     3.76115E+06    -4.10739E+06    -25.3677E-03     50.7412E-03    -25.3735E-03     5.92277E-03    -25.3192E-03     50.6143E-03    -25.3271E-03     5.86793E-03
            1034     1.75497E-03     97.5045E-03     3.85708E+06    -25.3952E+06     3.47510E+06    -7.19220E+06    -25.3065E-03     50.6542E-03    -25.3477E-03     10.9791E-03    -25.2557E-03     50.5168E-03    -25.2990E-03     10.8829E-03
            1035     2.63255E-03     97.5162E-03     3.79343E+06    -28.7090E+06     3.01994E+06    -10.0751E+06    -25.2169E-03     50.5213E-03    -25.3044E-03     16.3693E-03    -25.1614E-03     50.3685E-03    -25.2532E-03     16.2341E-03
            1036     3.51031E-03     97.5322E-03     3.53907E+06    -33.0727E+06     2.48442E+06    -12.4285E+06    -25.1031E-03     50.3503E-03    -25.2472E-03     21.9268E-03    -25.0422E-03     50.1773E-03    -25.1920E-03     21.7593E-03
            1037     4.38821E-03     97.5534E-03     3.18617E+06    -38.0910E+06     1.80397E+06    -14.0787E+06    -24.9764E-03     50.1533E-03    -25.1769E-03     27.6699E-03    -24.9098E-03     49.9576E-03    -25.1173E-03     27.4788E-03
            1038     5.26631E-03     97.5791E-03     2.57285E+06    -42.9684E+06     1.06925E+06    -15.0181E+06    -24.8479E-03     49.9432E-03    -25.0954E-03     33.6010E-03    -24.7774E-03     49.7262E-03    -25.0315E-03     33.3952E-03
            1039     6.14463E-03     97.6104E-03     1.73617E+06    -48.6051E+06     565.690E+03    -15.4045E+06    -24.7912E-03     49.8031E-03    -25.0119E-03     39.7812E-03    -24.7177E-03     49.5615E-03    -24.9411E-03     39.5669E-03
            1040     7.02298E-03     97.6466E-03     583.356E+03    -51.8661E+06    -312.352E+03    -14.9933E+06    -24.7738E-03     49.6989E-03    -24.9251E-03     46.3361E-03    -24.7025E-03     49.4464E-03    -24.8523E-03     46.1226E-03
            1041     7.90156E-03     97.6892E-03    -371.254E+03    -55.2609E+06     132.924E+03    -14.3397E+06    -24.7902E-03     49.6375E-03    -24.8473E-03     53.0080E-03    -24.7233E-03     49.3728E-03    -24.7660E-03     52.7968E-03
            1042     8.78053E-03     97.7364E-03    -1.27938E+06    -54.2238E+06     829.436E+03    -12.9585E+06    -25.0592E-03     49.8367E-03    -24.7775E-03     60.0017E-03    -25.0057E-03     49.5837E-03    -24.6928E-03     59.7994E-03
            1043     9.65853E-03     97.7915E-03    -2.23573E+06    -52.1964E+06     3.60797E+06    -11.5554E+06    -25.5850E-03     50.3325E-03    -24.7475E-03     67.0638E-03    -25.5534E-03     50.0972E-03    -24.6505E-03     66.8664E-03
            1044     10.5371E-03     97.8511E-03    -3.36216E+06    -58.9287E+06     2.63977E+06    -11.4207E+06    -26.4004E-03     51.1559E-03    -24.7556E-03     73.9840E-03    -26.3801E-03     50.9069E-03    -24.6520E-03     73.7692E-03
            1045     11.4141E-03     97.9182E-03    -4.86125E+06    -53.5408E+06    -4.61026E+06    -12.5722E+06    -27.5327E-03     52.3014E-03    -24.7686E-03     82.1991E-03    -27.5466E-03     52.1213E-03    -24.7070E-03     81.9416E-03
            1046     12.2912E-03     97.9934E-03    -6.29555E+06    -43.1938E+06    -1.48214E+06    -14.7196E+06    -28.8653E-03     53.7521E-03    -24.8869E-03     89.1388E-03    -28.9484E-03     53.6639E-03    -24.8225E-03     88.8194E-03
            1047     13.1663E-03     98.0739E-03    -6.53322E+06    -66.4221E+06    -14.1683E+06    -13.8477E+06    -30.1191E-03     55.1544E-03    -25.0352E-03     89.5345E-03    -30.2105E-03     55.0278E-03    -25.0003E-03     89.1854E-03
            1048     14.0416E-03     98.1501E-03    -7.32223E+06    -63.1271E+06    -36.3486E+06    -9.84510E+06    -31.9486E-03     57.0971E-03    -25.1486E-03     106.070E-03    -32.2276E-03     57.2315E-03    -25.2282E-03     105.698E-03
            1049     14.9143E-03     98.2629E-03    -8.02012E+06    -7.28789E+06    -27.2340E+06    -7.27085E+06    -38.1614E-03     63.5270E-03    -25.3655E-03     184.333E-03    -39.8075E-03     65.1977E-03    -25.4795E-03     183.901E-03
            1050     15.7889E-03     98.4916E-03    -8.46997E+06     88.9326E+06    -14.5118E+06    -4.75637E+06    -46.9898E-03     72.5019E-03    -25.5121E-03     308.414E-03    -56.1639E-03     82.0037E-03    -25.7013E-03     309.529E-03
            1051     16.6624E-03     98.8548E-03    -5.10933E+06     181.027E+06     59.0220E+06    -1.78472E+06    -46.0052E-03     71.9038E-03    -25.8986E-03     345.675E-03    -62.3375E-03     88.6895E-03    -25.8586E-03     354.162E-03
            1052     878.008E-06     98.4944E-03     4.45971E+06    -14.9423E+06     4.33786E+06    -4.08878E+06    -24.7297E-03     49.4954E-03    -24.7658E-03     5.98574E-03    -24.6921E-03     49.4081E-03    -24.7289E-03     5.93142E-03
            1053     1.75602E-03     98.5015E-03     4.14479E+06    -17.6830E+06     3.51667E+06    -7.12461E+06    -24.6739E-03     49.3953E-03    -24.7214E-03     11.0923E-03    -24.6329E-03     49.2960E-03    -24.6842E-03     10.9975E-03
            1054     2.63420E-03     98.5127E-03     3.48880E+06    -22.0217E+06     2.37920E+06    -9.96056E+06    -24.5689E-03     49.2408E-03    -24.6719E-03     16.5458E-03    -24.5236E-03     49.1228E-03    -24.6332E-03     16.4129E-03
            1055     3.51248E-03     98.5289E-03     2.63101E+06    -27.3412E+06     993.403E+03    -12.0673E+06    -24.4335E-03     49.0390E-03    -24.6055E-03     22.1777E-03    -24.3832E-03     48.8980E-03    -24.5647E-03     22.0160E-03
            1056     4.39099E-03     98.5494E-03     1.37285E+06    -33.6982E+06    -442.479E+03    -13.4625E+06    -24.2794E-03     48.8047E-03    -24.5253E-03     28.0025E-03    -24.2247E-03     48.6365E-03    -24.4807E-03     27.8209E-03
            1057     5.26971E-03     98.5752E-03    -247.580E+03    -39.7350E+06    -1.95976E+06    -13.9507E+06    -24.1493E-03     48.5835E-03    -24.4342E-03     34.0568E-03    -24.0928E-03     48.3907E-03    -24.3860E-03     33.8668E-03
            1058     6.14860E-03     98.6057E-03    -2.25000E+06    -46.2362E+06    -2.87189E+06    -13.9463E+06    -24.0666E-03     48.4100E-03    -24.3434E-03     40.4531E-03    -24.0108E-03     48.1904E-03    -24.2874E-03     40.2602E-03
            1059     7.02765E-03     98.6423E-03    -4.47654E+06    -50.9966E+06    -3.44156E+06    -13.2067E+06    -23.9985E-03     48.2493E-03    -24.2509E-03     47.0993E-03    -23.9483E-03     48.0121E-03    -24.1876E-03     46.9121E-03
            1060     7.90708E-03     98.6838E-03    -6.75758E+06    -54.1819E+06    -3.04092E+06    -12.5514E+06    -24.1433E-03     48.3129E-03    -24.1696E-03     54.0253E-03    -24.1042E-03     48.0662E-03    -24.0964E-03     53.8407E-03
            1061     8.78591E-03     98.7323E-03    -8.45941E+06    -54.5228E+06    -1.85307E+06    -11.6830E+06    -24.5055E-03     48.6176E-03    -24.1121E-03     61.2941E-03    -24.4821E-03     48.3759E-03    -24.0300E-03     61.1122E-03
            1062     9.66534E-03     98.7865E-03    -9.28574E+06    -51.7624E+06     861.364E+03    -10.6506E+06    -25.0494E-03     49.1396E-03    -24.0902E-03     68.6788E-03    -25.0478E-03     48.9187E-03    -23.9974E-03     68.4978E-03
            1063     10.5436E-03     98.8478E-03    -9.25763E+06    -57.5409E+06     1.88871E+06    -10.3279E+06    -26.0684E-03     50.1888E-03    -24.1204E-03     76.1000E-03    -26.0767E-03     49.9545E-03    -24.0141E-03     75.9039E-03
            1064     11.4216E-03     98.9154E-03    -9.19537E+06    -49.5244E+06    -2.25557E+06    -11.4548E+06    -27.5041E-03     51.6773E-03    -24.1732E-03     84.7010E-03    -27.5479E-03     51.5192E-03    -24.0993E-03     84.4616E-03
            1065     12.2978E-03     98.9924E-03    -9.07653E+06    -39.4407E+06     1.39708E+06    -13.9957E+06    -28.9966E-03     53.3294E-03    -24.3329E-03     92.0127E-03    -29.1035E-03     53.2601E-03    -24.2555E-03     91.7050E-03
            1066     13.1738E-03     99.0741E-03    -9.41070E+06    -69.7170E+06    -13.9513E+06    -14.2216E+06    -30.6315E-03     55.1613E-03    -24.5298E-03     92.3663E-03    -30.7349E-03     55.0243E-03    -24.4848E-03     92.0121E-03
            1067     14.0472E-03     99.1517E-03    -8.81467E+06    -65.4557E+06    -34.4876E+06    -11.6199E+06    -32.8875E-03     57.6056E-03    -24.7181E-03     108.245E-03    -33.1837E-03     57.7383E-03    -24.7829E-03     107.841E-03
            1068     14.9215E-03     99.2665E-03    -7.97395E+06    -10.7898E+06    -22.1874E+06    -8.95923E+06    -39.2138E-03     64.2423E-03    -25.0285E-03     185.740E-03    -40.8757E-03     65.9020E-03    -25.1122E-03     185.266E-03
            1069     15.7926E-03     99.4968E-03    -7.17865E+06     85.4757E+06    -11.9300E+06    -4.70683E+06    -48.1701E-03     73.4155E-03    -25.2454E-03     307.403E-03    -57.3505E-03     82.9084E-03    -25.4186E-03     308.446E-03
            1070     16.6681E-03     99.8566E-03    -4.32719E+06     180.077E+06     59.1254E+06    -2.04244E+06    -47.3324E-03     73.0431E-03    -25.7107E-03     344.222E-03    -63.7084E-03     89.8715E-03    -25.6699E-03     352.551E-03
            1071     878.610E-06     99.4902E-03     3.73389E+06    -7.01915E+06     3.54690E+06    -3.81038E+06    -23.9704E-03     47.9582E-03    -23.9878E-03     6.05822E-03    -23.9468E-03     47.9126E-03    -23.9653E-03     6.00780E-03
            1072     1.75738E-03     99.4969E-03     2.85121E+06    -10.4112E+06     2.14077E+06    -6.62667E+06    -23.8984E-03     47.8486E-03    -23.9502E-03     11.2044E-03    -23.8724E-03     47.7895E-03    -23.9285E-03     11.1166E-03
            1073     2.63616E-03     99.5082E-03     1.47484E+06    -15.6768E+06     225.988E+03    -9.08779E+06    -23.7781E-03     47.6734E-03    -23.8953E-03     16.7137E-03    -23.7488E-03     47.5929E-03    -23.8736E-03     16.5929E-03
            1074     3.51519E-03     99.5237E-03    -506.508E+03    -22.4154E+06    -2.17360E+06    -10.7789E+06    -23.6231E-03     47.4444E-03    -23.8213E-03     22.4173E-03    -23.5908E-03     47.3370E-03    -23.7990E-03     22.2735E-03
            1075     4.39437E-03     99.5443E-03    -3.06201E+06    -30.0068E+06    -4.62332E+06    -11.5280E+06    -23.4598E-03     47.1932E-03    -23.7334E-03     28.3275E-03    -23.4262E-03     47.0556E-03    -23.7086E-03     28.1726E-03
            1076     5.27382E-03     99.5693E-03    -6.17011E+06    -37.6186E+06    -6.62220E+06    -11.4352E+06    -23.3197E-03     46.9585E-03    -23.6388E-03     34.5307E-03    -23.2886E-03     46.7911E-03    -23.6084E-03     34.3752E-03
            1077     6.15341E-03     99.6001E-03    -9.68064E+06    -44.4476E+06    -7.58968E+06    -10.8632E+06    -23.1991E-03     46.7426E-03    -23.5435E-03     41.0249E-03    -23.1755E-03     46.5488E-03    -23.5030E-03     40.8744E-03
            1078     7.03336E-03     99.6357E-03    -12.8848E+06    -50.2767E+06    -7.29259E+06    -10.2767E+06    -23.2143E-03     46.6700E-03    -23.4557E-03     47.8072E-03    -23.2006E-03     46.4532E-03    -23.4006E-03     47.6608E-03
            1079     7.91310E-03     99.6779E-03    -15.5413E+06    -52.8186E+06    -6.06523E+06    -9.54601E+06    -23.4438E-03     46.8289E-03    -23.3852E-03     55.1032E-03    -23.4448E-03     46.6049E-03    -23.3164E-03     54.9609E-03
            1080     8.79305E-03     99.7261E-03    -17.2049E+06    -53.7958E+06    -4.35962E+06    -9.79532E+06    -23.8543E-03     47.1969E-03    -23.3425E-03     62.6232E-03    -23.8704E-03     46.9735E-03    -23.2614E-03     62.4698E-03
            1081     9.67224E-03     99.7809E-03    -17.0336E+06    -51.1645E+06    -1.45183E+06    -10.1872E+06    -24.5871E-03     47.9256E-03    -23.3386E-03     70.4445E-03    -24.6200E-03     47.7206E-03    -23.2469E-03     70.2737E-03
            1082     10.5515E-03     99.8430E-03    -15.6606E+06    -55.7600E+06     591.858E+03    -10.6258E+06    -25.7678E-03     49.1656E-03    -23.3978E-03     78.2813E-03    -25.8069E-03     48.9494E-03    -23.2913E-03     78.0859E-03
            1083     11.4292E-03     99.9121E-03    -13.6408E+06     -46.081E+06    -943.659E+03    -12.2559E+06    -27.4130E-03     50.9067E-03    -23.4937E-03     87.3218E-03    -27.4849E-03     50.7693E-03    -23.4118E-03     87.0757E-03
            1084     12.3062E-03     99.9910E-03    -11.5753E+06    -35.6443E+06     3.72645E+06    -14.3178E+06    -29.2456E-03     52.9487E-03    -23.7031E-03     94.4754E-03    -29.3743E-03     52.8991E-03    -23.6160E-03     94.1649E-03
            1085     13.1816E-03     100.074E-03    -9.94731E+06    -71.0521E+06    -12.8624E+06    -14.9028E+06    -31.3631E-03     55.3288E-03    -23.9657E-03     95.1842E-03    -31.4723E-03     55.1878E-03    -23.9126E-03     94.8188E-03
            1086     14.0546E-03     100.156E-03    -9.54552E+06    -65.7025E+06     -32.989E+06    -13.9301E+06    -34.3181E-03     58.5672E-03    -24.2492E-03     110.915E-03    -34.6346E-03     58.7125E-03    -24.3050E-03     110.467E-03
            1087     14.9250E-03     100.269E-03    -9.32569E+06    -15.3921E+06    -20.5730E+06    -11.2317E+06    -40.8120E-03     65.4902E-03    -24.6782E-03     186.730E-03    -42.4972E-03     67.1474E-03    -24.7452E-03     186.190E-03
            1088     15.7985E-03     100.503E-03    -7.55468E+06     79.6993E+06    -10.2263E+06    -7.03808E+06    -49.7411E-03     74.7466E-03    -25.0055E-03     306.675E-03    -58.9341E-03     84.2255E-03    -25.1613E-03     307.559E-03
            1089     16.6674E-03     100.861E-03    -4.59512E+06     178.637E+06     60.2136E+06    -2.85423E+06    -48.8507E-03     74.4168E-03    -25.5661E-03     342.769E-03    -65.2362E-03     91.2456E-03    -25.5174E-03     350.906E-03
            1090     879.498E-06     100.484E-03     1.07366E+06    -55.3043E+03     1.03118E+06    -3.05122E+06    -23.0624E-03     46.1146E-03    -23.0522E-03     6.12166E-03    -23.0585E-03     46.1113E-03    -23.0485E-03     6.08137E-03
            1091     1.75891E-03     100.491E-03    -450.959E+03    -4.22289E+06    -1.04823E+06    -5.34123E+06    -22.9738E-03     46.0010E-03    -23.0272E-03     11.2937E-03    -22.9686E-03     45.9822E-03    -23.0257E-03     11.2231E-03
            1092     2.63859E-03     100.502E-03    -2.96390E+06    -10.6223E+06    -3.90203E+06    -6.97351E+06    -22.8406E-03     45.8097E-03    -22.9691E-03     16.8559E-03    -22.8347E-03     45.7668E-03    -22.9689E-03     16.7634E-03
            1093     3.51835E-03     100.517E-03    -6.47004E+06    -18.8725E+06    -7.17524E+06    -7.73685E+06    -22.6825E-03     45.5752E-03    -22.8927E-03     22.6136E-03    -22.6778E-03     45.5013E-03    -22.8918E-03     22.5103E-03
            1094     4.39841E-03     100.537E-03    -10.7684E+06    -27.7923E+06    -10.2117E+06    -7.66717E+06    -22.5252E-03     45.3311E-03    -22.8059E-03     28.6115E-03    -22.5250E-03     45.2236E-03    -22.8011E-03     28.5080E-03
            1095     5.27858E-03     100.562E-03    -15.4366E+06    -36.6693E+06    -12.0663E+06    -6.91753E+06    -22.3791E-03     45.0958E-03    -22.7167E-03     34.8943E-03    -22.3874E-03     44.9540E-03    -22.7015E-03     34.7992E-03
            1096     6.15910E-03     100.592E-03    -19.7611E+06    -43.4098E+06    -12.2104E+06    -6.21579E+06    -22.3080E-03     44.9383E-03    -22.6304E-03     41.4784E-03    -22.3289E-03     44.7703E-03    -22.5998E-03     41.3902E-03
            1097     7.03959E-03     100.628E-03    -23.1073E+06    -49.0927E+06    -10.8824E+06    -6.28941E+06    -22.4150E-03     44.9742E-03    -22.5592E-03     48.5306E-03    -22.4481E-03     44.7825E-03    -22.5089E-03     48.4383E-03
            1098     7.92017E-03     100.670E-03    -24.5453E+06    -51.4037E+06    -8.57834E+06    -7.00859E+06    -22.6662E-03     45.1726E-03    -22.5064E-03     56.0342E-03    -22.7094E-03     44.9710E-03    -22.4392E-03     55.9280E-03
            1099     8.80052E-03     100.719E-03    -24.1491E+06    -50.9843E+06    -5.49083E+06    -8.52882E+06    -23.2087E-03     45.6918E-03    -22.4831E-03     63.9025E-03    -23.2604E-03     45.4926E-03    -22.4016E-03     63.7691E-03
            1100     9.68082E-03     100.774E-03    -22.5665E+06    -49.3712E+06    -2.25540E+06    -10.4265E+06    -24.1762E-03     46.6849E-03    -22.5086E-03     72.1746E-03    -24.2366E-03     46.4964E-03    -22.4156E-03     72.0045E-03
            1101     10.5597E-03     100.837E-03    -19.8449E+06    -53.3501E+06    -203.209E+03    -11.9968E+06    -25.5380E-03     48.1417E-03    -22.6037E-03     80.4712E-03    -25.5988E-03     47.9432E-03    -22.4986E-03     80.2620E-03
            1102     11.4381E-03     100.908E-03    -16.9438E+06    -42.3647E+06    -261.741E+03    -14.0808E+06    -27.4549E-03     50.2058E-03    -22.7509E-03     90.1018E-03    -27.5489E-03     50.0901E-03    -22.6663E-03     89.8350E-03
            1103     12.3146E-03     100.989E-03    -13.9087E+06    -33.0245E+06     4.59048E+06    -16.1631E+06    -29.8027E-03     52.8303E-03    -23.0276E-03     97.2921E-03    -29.9499E-03     52.7976E-03    -22.9366E-03     96.9572E-03
            1104     13.1890E-03     101.074E-03    -11.6949E+06    -71.4285E+06    -12.7314E+06    -16.2996E+06    -32.2816E-03     55.6570E-03    -23.3754E-03     98.0849E-03    -32.4041E-03     55.5215E-03    -23.3185E-03     97.6969E-03
            1105     14.0618E-03     101.159E-03    -11.3969E+06    -65.5514E+06    -31.6964E+06    -15.7682E+06    -35.6391E-03     59.3997E-03    -23.7605E-03     114.288E-03    -35.9792E-03     59.5587E-03    -23.8074E-03     113.803E-03
            1106     14.9323E-03     101.277E-03    -10.0674E+06    -16.7477E+06    -18.2619E+06    -14.0302E+06    -42.8531E-03     67.1672E-03    -24.3140E-03     188.435E-03    -44.5833E-03     68.8552E-03    -24.3665E-03     187.809E-03
            1107     15.8000E-03     101.507E-03    -8.01796E+06     73.1045E+06    -13.5712E+06    -9.24409E+06    -51.6273E-03     76.3720E-03    -24.7447E-03     306.998E-03    -60.8221E-03     85.8373E-03    -24.9070E-03     307.739E-03
            1108     16.6725E-03     101.870E-03    -5.72282E+06     173.061E+06     55.5514E+06    -3.75744E+06    -50.4523E-03     75.8521E-03    -25.3998E-03     342.409E-03    -66.7905E-03     92.6233E-03    -25.3647E-03     350.330E-03
            1109     880.299E-06     101.476E-03    -3.71092E+06     4.71177E+06    -3.64833E+06    -1.59019E+06    -21.9914E-03     43.9796E-03    -21.9882E-03     6.15066E-03    -22.0116E-03     44.0139E-03    -22.0079E-03     6.12955E-03
            1110     1.76083E-03     101.483E-03    -6.35801E+06    -238.425E+03    -6.34859E+06    -2.61802E+06    -21.8967E-03     43.8553E-03    -21.9586E-03     11.3415E-03    -21.9191E-03     43.8726E-03    -21.9808E-03     11.3066E-03
            1111     2.64131E-03     101.494E-03    -10.3256E+06    -7.99345E+06    -9.88425E+06    -3.00255E+06    -21.7761E-03     43.6780E-03    -21.9019E-03     16.9359E-03    -21.8020E-03     43.6675E-03    -21.9248E-03     16.8955E-03
            1112     3.52209E-03     101.508E-03    -15.3077E+06    -17.6664E+06    -13.3386E+06    -2.48017E+06    -21.6399E-03     43.4747E-03    -21.8348E-03     22.7363E-03    -21.6720E-03     43.4283E-03    -21.8537E-03     22.7020E-03
            1113     4.40292E-03     101.528E-03    -20.9385E+06    -27.5315E+06    -15.6865E+06    -1.43573E+06    -21.5042E-03     43.2680E-03    -21.7638E-03     28.7880E-03    -21.5470E-03     43.1841E-03    -21.7719E-03     28.7664E-03
            1114     5.28407E-03     101.553E-03    -26.1919E+06    -36.5186E+06    -16.3643E+06    -726.958E+03    -21.4096E-03     43.1038E-03    -21.6942E-03     35.1294E-03    -21.4651E-03     42.9841E-03    -21.6851E-03     35.1159E-03
            1115     6.16524E-03     101.583E-03    -29.7708E+06    -42.3111E+06    -15.1960E+06    -1.14196E+06    -21.4272E-03     43.0580E-03    -21.6309E-03     41.8865E-03    -21.4947E-03     42.9137E-03    -21.6023E-03     41.8659E-03
            1116     7.04656E-03     101.619E-03    -31.0878E+06    -46.8237E+06    -12.7507E+06    -2.83904E+06    -21.5823E-03     43.1648E-03    -21.5825E-03     49.1434E-03    -21.6549E-03     42.9978E-03    -21.5333E-03     49.0982E-03
            1117     7.92775E-03     101.661E-03    -30.4168E+06    -48.0209E+06    -9.39360E+06    -5.73451E+06    -21.9456E-03     43.5001E-03    -21.5545E-03     56.8588E-03    -22.0208E-03     43.3241E-03    -21.4878E-03     56.7719E-03
            1118     8.80890E-03     101.709E-03    -28.2596E+06    -47.4664E+06    -5.89526E+06    -8.69889E+06    -22.6539E-03     44.2155E-03    -21.5616E-03     65.1241E-03    -22.7292E-03     44.0391E-03    -21.4813E-03     64.9917E-03
            1119     9.68905E-03     101.766E-03    -25.2890E+06    -45.5060E+06    -2.31307E+06    -11.3773E+06    -23.7439E-03     45.3666E-03    -21.6227E-03     73.8102E-03    -23.8217E-03     45.1998E-03    -21.5316E-03     73.6316E-03
            1120     10.5690E-03     101.830E-03    -21.6585E+06    -50.2322E+06    -680.862E+03    -14.3041E+06    -25.3914E-03     47.1512E-03    -21.7598E-03     82.6563E-03    -25.4638E-03     46.9704E-03    -21.6590E-03     82.4205E-03
            1121     11.4471E-03     101.903E-03    -18.0399E+06    -39.2157E+06    -111.640E+03    -16.1862E+06    -27.6383E-03     49.6054E-03    -21.9671E-03     92.9208E-03    -27.7420E-03     49.5062E-03    -21.8846E-03     92.6293E-03
            1122     12.3235E-03     101.987E-03    -15.5978E+06    -29.8538E+06     4.98827E+06    -17.4662E+06    -30.3658E-03     52.6833E-03    -22.3175E-03     100.793E-03    -30.5288E-03     52.6706E-03    -22.2267E-03     100.441E-03
            1123     13.1976E-03     102.075E-03    -13.9701E+06    -71.5411E+06    -13.6236E+06    -17.9657E+06    -33.4436E-03     56.2007E-03    -22.7571E-03     101.744E-03    -33.5839E-03     56.0772E-03    -22.7012E-03     101.326E-03
            1124     14.0685E-03     102.162E-03    -12.0306E+06    -63.6909E+06    -30.3999E+06    -18.9057E+06    -37.1380E-03     60.3946E-03    -23.2566E-03     118.095E-03    -37.5032E-03     60.5794E-03    -23.2988E-03     117.552E-03
            1125     14.9376E-03     102.285E-03    -8.85551E+06    -19.8114E+06    -17.1543E+06    -17.2363E+06    -44.7680E-03     68.6988E-03    -23.9308E-03     190.880E-03    -46.5266E-03     70.4056E-03    -23.9750E-03     190.163E-03
            1126     15.8060E-03     102.517E-03    -6.65585E+06     65.2580E+06    -16.3142E+06    -10.3567E+06    -53.5367E-03     78.0099E-03    -24.4732E-03     305.828E-03    -62.6003E-03     87.3289E-03    -24.6397E-03     306.406E-03
            1127     16.6739E-03     102.874E-03    -5.35738E+06     168.319E+06     52.9222E+06    -4.20802E+06    -52.5667E-03     77.8159E-03    -25.2492E-03     341.577E-03    -68.8392E-03     94.5135E-03    -25.2209E-03     349.204E-03
            1128     881.461E-06     102.466E-03    -11.7902E+06     5.43830E+06    -11.2585E+06     815.133E+03    -20.7782E-03     41.5801E-03    -20.8018E-03     6.13137E-03    -20.8288E-03     41.6407E-03    -20.8489E-03     6.14157E-03
            1129     1.76282E-03     102.473E-03    -15.2775E+06    -192.529E+03    -13.9856E+06     1.92149E+06    -20.7081E-03     41.4738E-03    -20.7657E-03     11.3295E-03    -20.7640E-03     41.5153E-03    -20.8132E-03     11.3537E-03
            1130     2.64449E-03     102.483E-03    -20.3609E+06    -8.73867E+06    -16.8232E+06     3.25372E+06    -20.6239E-03     41.3498E-03    -20.7258E-03     16.9209E-03    -20.6889E-03     41.3601E-03    -20.7678E-03     16.9620E-03
            1131     3.52609E-03     102.498E-03    -25.9970E+06    -19.2660E+06    -18.9549E+06     4.72818E+06    -20.5312E-03     41.2155E-03    -20.6843E-03     22.7430E-03    -20.6061E-03     41.1846E-03    -20.7134E-03     22.8027E-03
            1132     4.40798E-03     102.517E-03    -30.9542E+06    -28.9837E+06    -19.2986E+06     5.90935E+06    -20.4580E-03     41.1010E-03    -20.6430E-03     28.8350E-03    -20.5432E-03     41.0293E-03    -20.6526E-03     28.9094E-03
            1133     5.28986E-03     102.542E-03    -34.2785E+06    -36.1290E+06    -17.8375E+06     5.47605E+06    -20.4582E-03     41.0633E-03    -20.6051E-03     35.2853E-03    -20.5523E-03     40.9590E-03    -20.5922E-03     35.3532E-03
            1134     6.17191E-03     102.571E-03    -35.5620E+06    -39.9208E+06    -15.4505E+06     2.98089E+06    -20.5554E-03     41.1274E-03    -20.5720E-03     42.2054E-03    -20.6545E-03     41.0033E-03    -20.5398E-03     42.2397E-03
            1135     7.05385E-03     102.607E-03    -34.8638E+06    -42.6172E+06    -12.6409E+06    -988.293E+03    -20.7940E-03     41.3456E-03    -20.5515E-03     49.6124E-03    -20.8911E-03     41.2042E-03    -20.5024E-03     49.5932E-03
            1136     7.93583E-03     102.649E-03    -32.6344E+06    -42.8499E+06    -9.20610E+06    -5.50310E+06    -21.2990E-03     41.8545E-03    -20.5556E-03     57.6561E-03    -21.3920E-03     41.7063E-03    -20.4922E-03     57.5746E-03
            1137     8.81712E-03     102.699E-03    -29.7313E+06    -43.2123E+06    -5.99325E+06    -9.49173E+06    -22.1262E-03     42.7271E-03    -20.6009E-03     66.3100E-03    -22.2137E-03     42.5730E-03    -20.5251E-03     66.1703E-03
            1138     9.69831E-03     102.756E-03    -26.2140E+06    -40.6797E+06    -2.47368E+06    -13.0642E+06    -23.3625E-03     44.0645E-03    -20.7021E-03     75.4983E-03    -23.4501E-03     43.9219E-03    -20.6174E-03     75.3012E-03
            1139     10.5780E-03     102.823E-03    -22.1701E+06    -45.2853E+06    -742.348E+03    -16.9049E+06    -25.2894E-03     46.1778E-03    -20.8884E-03     85.1199E-03    -25.3701E-03     46.0212E-03    -20.7943E-03     84.8537E-03
            1140     11.4562E-03     102.898E-03    -18.5629E+06    -37.2284E+06    -263.125E+03    -18.3262E+06    -27.8808E-03     49.0425E-03    -21.1617E-03     96.0085E-03    -27.9895E-03     48.9541E-03    -21.0821E-03     95.6914E-03
            1141     12.3327E-03     102.984E-03    -15.6577E+06    -27.0928E+06     5.48050E+06    -18.2296E+06    -30.9478E-03     52.5356E-03    -21.5878E-03     104.464E-03    -31.1180E-03     52.5383E-03    -21.4984E-03     104.101E-03
            1142     13.2061E-03     103.077E-03    -13.4563E+06    -69.6287E+06    -13.4622E+06    -20.4525E+06    -34.4275E-03     56.5398E-03    -22.1124E-03     105.893E-03    -34.5752E-03     56.4318E-03    -22.0592E-03     105.438E-03
            1143     14.0764E-03     103.167E-03    -11.4479E+06    -60.4201E+06    -29.1352E+06    -22.2029E+06    -39.0266E-03     61.7542E-03    -22.7276E-03     122.881E-03    -39.4194E-03     61.9769E-03    -22.7691E-03     122.271E-03
            1144     14.9438E-03     103.294E-03    -9.65052E+06    -24.6838E+06    -18.3720E+06    -21.0496E+06    -47.3168E-03     70.8652E-03    -23.5485E-03     193.632E-03    -49.1064E-03     72.5866E-03    -23.5905E-03     192.799E-03
            1145     15.8088E-03     103.528E-03    -7.29811E+06     54.4694E+06    -20.1954E+06    -13.7611E+06    -55.8350E-03     80.0767E-03    -24.2417E-03     303.323E-03    -64.6923E-03     89.1602E-03    -24.4111E-03     303.643E-03
            1146     16.6762E-03     103.883E-03    -6.21655E+06     163.310E+06     50.7511E+06    -4.78771E+06    -54.3586E-03     79.5038E-03    -25.1452E-03     340.725E-03    -70.4899E-03     96.0456E-03    -25.1192E-03     348.019E-03
            1147     882.461E-06     103.454E-03    -22.4018E+06    -265.287E+03    -20.5045E+06     4.98107E+06    -19.4910E-03     39.0216E-03    -19.5306E-03     6.04748E-03    -19.5729E-03     39.0824E-03    -19.6002E-03     6.11165E-03
            1148     1.76516E-03     103.460E-03    -26.2002E+06    -5.32859E+06    -22.1205E+06     8.09820E+06    -19.4742E-03     38.9811E-03    -19.5069E-03     11.2219E-03    -19.5655E-03     39.0245E-03    -19.5718E-03     11.3261E-03
            1149     2.64768E-03     103.470E-03    -30.5956E+06    -13.5258E+06    -22.6720E+06     10.8676E+06    -19.4347E-03     38.9337E-03    -19.4989E-03     16.7906E-03    -19.5353E-03     38.9433E-03    -19.5483E-03     16.9305E-03
            1150     3.53045E-03     103.485E-03    -34.7442E+06    -23.0530E+06    -21.9031E+06     12.6415E+06    -19.4114E-03     38.9045E-03    -19.4931E-03     22.6309E-03    -19.5201E-03     38.8714E-03    -19.5188E-03     22.7934E-03
            1151     4.41312E-03     103.504E-03    -37.4608E+06    -30.6301E+06    -19.9805E+06     12.3874E+06    -19.4376E-03     38.9254E-03    -19.4877E-03     28.7935E-03    -19.5518E-03     38.8557E-03    -19.4889E-03     28.9524E-03
            1152     5.29596E-03     103.528E-03    -37.8040E+06    -34.4241E+06    -17.2677E+06     9.67692E+06    -19.5293E-03     39.0116E-03    -19.4823E-03     35.3562E-03    -19.6439E-03     38.9198E-03    -19.4639E-03     35.4795E-03
            1153     6.17866E-03     103.558E-03    -36.3325E+06    -35.9836E+06    -14.1916E+06     5.31295E+06    -19.7113E-03     39.1932E-03    -19.4819E-03     42.3962E-03    -19.8213E-03     39.0875E-03    -19.4480E-03     42.4620E-03
            1154     7.06144E-03     103.594E-03    -34.1637E+06    -36.7019E+06    -11.1854E+06    -11.1837E+03    -20.0725E-03     39.5687E-03    -19.4962E-03     50.0218E-03    -20.1761E-03     39.4531E-03    -19.4493E-03     50.0168E-03
            1155     7.94377E-03     103.637E-03    -31.8538E+06    -36.7668E+06    -8.28918E+06    -5.50100E+06    -20.6721E-03     40.2103E-03    -19.5382E-03     58.3880E-03    -20.7705E-03     40.0891E-03    -19.4802E-03     58.3087E-03
            1156     8.82602E-03     103.687E-03    -28.8360E+06    -37.7489E+06    -5.33306E+06    -10.4612E+06    -21.5927E-03     41.2164E-03    -19.6237E-03     67.4130E-03    -21.6833E-03     41.0861E-03    -19.5538E-03     67.2634E-03
            1157     9.70712E-03     103.746E-03    -25.2564E+06    -34.8883E+06    -1.86832E+06    -14.8740E+06    -23.0513E-03     42.8204E-03    -19.7691E-03     77.2614E-03    -23.1420E-03     42.7031E-03    -19.6913E-03     77.0439E-03
            1158     10.5874E-03     103.814E-03    -22.0742E+06    -39.3446E+06    -181.203E+03    -18.9236E+06    -25.1493E-03     45.1568E-03    -20.0075E-03     87.6152E-03    -25.2375E-03     45.0275E-03    -19.9193E-03     87.3263E-03
            1159     11.4660E-03     103.891E-03    -18.6934E+06    -35.8955E+06    -127.347E+03    -20.8055E+06    -28.0395E-03     48.3821E-03    -20.3426E-03     99.5189E-03    -28.1506E-03     48.2999E-03    -20.2641E-03     99.1722E-03
            1160     12.3414E-03     103.982E-03    -14.4237E+06    -25.7950E+06     5.58011E+06    -20.5238E+06    -31.4917E-03     52.3259E-03    -20.8343E-03     108.959E-03    -31.6593E-03     52.3348E-03    -20.7480E-03     108.567E-03
            1161     13.2147E-03     104.078E-03    -11.7460E+06    -65.1950E+06    -11.7420E+06    -22.0804E+06    -35.4673E-03     56.9130E-03    -21.4457E-03     110.966E-03    -35.6226E-03     56.8295E-03    -21.3929E-03     110.484E-03
            1162     14.0847E-03     104.173E-03    -10.8074E+06    -57.1481E+06    -26.0762E+06    -24.8316E+06    -41.1708E-03     63.3603E-03    -22.1894E-03     128.706E-03    -41.5944E-03     63.6188E-03    -22.2213E-03     128.035E-03
            1163     14.9491E-03     104.307E-03    -8.82922E+06    -27.3344E+06    -16.6861E+06    -24.0105E+06    -50.0957E-03     73.2615E-03    -23.1658E-03     197.375E-03    -51.9104E-03     74.9966E-03    -23.1968E-03     196.433E-03
            1164     15.8115E-03     104.541E-03    -8.18261E+06     42.5486E+06    -26.2372E+06    -16.8904E+06    -58.7236E-03     82.7225E-03    -23.9989E-03     303.496E-03    -67.4155E-03     91.6126E-03    -24.1799E-03     303.528E-03
            1165     16.6755E-03     104.893E-03    -6.29698E+06     153.869E+06     45.3332E+06    -5.91233E+06    -55.9148E-03     80.9345E-03    -25.0197E-03     339.937E-03    -71.7200E-03     97.1321E-03    -25.0071E-03     346.854E-03
            1166     883.776E-06     104.438E-03    -34.2630E+06    -14.9422E+06    -31.5177E+06     10.0826E+06    -18.2323E-03     36.4911E-03    -18.2588E-03     5.92502E-03    -18.3363E-03     36.5118E-03    -18.3450E-03     6.05514E-03
            1167     1.76727E-03     104.445E-03    -37.1733E+06    -15.9852E+06    -29.4289E+06     15.4815E+06    -18.2475E-03     36.5131E-03    -18.2656E-03     11.0158E-03    -18.3675E-03     36.5297E-03    -18.3357E-03     11.2155E-03
            1168     2.65105E-03     104.455E-03    -39.5537E+06    -21.0340E+06    -26.5146E+06     18.0192E+06    -18.2656E-03     36.5552E-03    -18.2895E-03     16.5575E-03    -18.3945E-03     36.5457E-03    -18.3342E-03     16.7900E-03
            1169     3.53464E-03     104.469E-03    -39.6191E+06    -27.5005E+06    -22.6835E+06     18.1889E+06    -18.3310E-03     36.6474E-03    -18.3164E-03     22.4256E-03    -18.4564E-03     36.6002E-03    -18.3325E-03     22.6602E-03
            1170     4.41837E-03     104.489E-03    -37.7692E+06    -31.1827E+06    -18.7571E+06     16.0957E+06    -18.4523E-03     36.7938E-03    -18.3414E-03     28.6660E-03    -18.5689E-03     36.7199E-03    -18.3352E-03     28.8734E-03
            1171     5.30188E-03     104.513E-03    -35.6478E+06    -31.5169E+06    -15.3609E+06     11.9616E+06    -18.6289E-03     36.9947E-03    -18.3658E-03     35.3214E-03    -18.7395E-03     36.9113E-03    -18.3452E-03     35.4750E-03
            1172     6.18549E-03     104.543E-03    -33.8107E+06    -31.1134E+06    -12.4420E+06     6.72656E+06    -18.9081E-03     37.3065E-03    -18.3984E-03     42.4835E-03    -19.0147E-03     37.2187E-03    -18.3665E-03     42.5685E-03
            1173     7.06878E-03     104.580E-03    -31.7827E+06    -29.9024E+06    -9.44677E+06     675.102E+03    -19.3609E-03     37.8104E-03    -18.4495E-03     50.3457E-03    -19.4644E-03     37.7222E-03    -18.4073E-03     50.3509E-03
            1174     7.95194E-03     104.623E-03    -29.4575E+06    -30.1217E+06    -6.58966E+06    -5.22603E+06    -20.0440E-03     38.5753E-03    -18.5313E-03     58.9703E-03    -20.1417E-03     38.4806E-03    -18.4779E-03     58.8963E-03
            1175     8.83435E-03     104.674E-03    -26.9224E+06    -30.3568E+06    -3.76845E+06    -11.1917E+06    -21.1124E-03     39.7701E-03    -18.6577E-03     68.4569E-03    -21.2053E-03     39.6706E-03    -18.5934E-03     68.3001E-03
            1176     9.71636E-03     104.734E-03    -24.0657E+06    -28.7665E+06    -730.327E+03    -16.2372E+06    -22.7153E-03     41.5645E-03    -18.8493E-03     78.9676E-03    -22.8090E-03     41.4729E-03    -18.7763E-03     78.7354E-03
            1177     10.5966E-03     104.804E-03    -21.4471E+06    -33.6189E+06     747.484E+03    -19.7440E+06    -24.9084E-03     44.0411E-03    -19.1327E-03     90.0672E-03    -25.0011E-03     43.9362E-03    -19.0491E-03     89.7716E-03
            1178     11.4751E-03     104.884E-03    -18.7738E+06    -32.7598E+06     684.415E+03    -23.0767E+06    -27.9597E-03     47.4744E-03    -19.5147E-03     103.300E-03    -28.0750E-03     47.4050E-03    -19.4366E-03     102.928E-03
            1179     12.3518E-03     104.979E-03    -15.0979E+06    -24.8715E+06     4.90906E+06    -24.2652E+06    -31.7611E-03     51.8129E-03    -20.0518E-03     113.715E-03    -31.9319E-03     51.8278E-03    -19.9693E-03     113.277E-03
            1180     13.2247E-03     105.078E-03    -10.9318E+06    -61.3623E+06    -9.68627E+06    -24.9082E+06    -36.6532E-03     57.4015E-03    -20.7483E-03     117.237E-03    -36.8212E-03     57.3414E-03    -20.6919E-03     116.712E-03
            1181     14.0920E-03     105.181E-03    -8.36227E+06    -52.2371E+06    -21.1292E+06    -26.8895E+06    -43.1919E-03     64.8086E-03    -21.6167E-03     136.564E-03    -43.6436E-03     65.1071E-03    -21.6345E-03     135.841E-03
            1182     14.9557E-03     105.321E-03    -7.50421E+06    -30.3469E+06    -14.6484E+06    -25.9249E+06    -52.0825E-03     74.7934E-03    -22.7110E-03     202.948E-03    -53.8960E-03     76.5155E-03    -22.7293E-03     201.928E-03
            1183     15.8181E-03     105.557E-03    -6.36927E+06     30.3398E+06    -28.8470E+06    -17.1705E+06    -61.0461E-03     84.6849E-03    -23.6388E-03     306.960E-03    -69.4752E-03     93.2829E-03    -23.8178E-03     306.768E-03
            1184     16.6795E-03     105.909E-03    -5.78716E+06     144.170E+06     42.6315E+06    -6.62446E+06    -58.9731E-03     83.7530E-03    -24.7798E-03     340.217E-03    -74.3575E-03     99.5050E-03    -24.7673E-03     346.613E-03
            1185     884.592E-06     105.421E-03    -51.2328E+06    -36.0903E+06    -49.5388E+06     11.3706E+06    -17.0823E-03     34.1562E-03    -17.0739E-03     5.77468E-03    -17.2143E-03     34.1218E-03    -17.1950E-03     5.92145E-03
            1186     1.76948E-03     105.427E-03    -47.0475E+06    -31.5767E+06    -39.9996E+06     18.7701E+06    -17.0958E-03     34.2089E-03    -17.1131E-03     10.7492E-03    -17.2273E-03     34.1772E-03    -17.1991E-03     10.9915E-03
            1187     2.65402E-03     105.437E-03    -43.2589E+06    -29.5701E+06    -29.9392E+06     21.9276E+06    -17.1723E-03     34.3318E-03    -17.1594E-03     16.2581E-03    -17.3024E-03     34.2900E-03    -17.2035E-03     16.5412E-03
            1188     3.53871E-03     105.452E-03    -40.0518E+06    -30.7193E+06    -23.2266E+06     20.4502E+06    -17.3158E-03     34.5226E-03    -17.2068E-03     22.1597E-03    -17.4378E-03     34.4606E-03    -17.2203E-03     22.4238E-03
            1189     4.42314E-03     105.471E-03    -36.4132E+06    -30.6690E+06    -18.8768E+06     16.6201E+06    -17.5042E-03     34.7554E-03    -17.2512E-03     28.4292E-03    -17.6144E-03     34.6821E-03    -17.2483E-03     28.6437E-03
            1190     5.30770E-03     105.496E-03    -32.3233E+06    -28.5616E+06    -14.6514E+06     12.2404E+06    -17.7543E-03     35.0555E-03    -17.3012E-03     35.1227E-03    -17.8534E-03     34.9809E-03    -17.2862E-03     35.2805E-03
            1191     6.19188E-03     105.526E-03    -28.6786E+06    -26.0841E+06    -10.4758E+06     7.24966E+06    -18.1257E-03     35.4911E-03    -17.3653E-03     42.4238E-03    -18.2165E-03     35.4178E-03    -17.3383E-03     42.5165E-03
            1192     7.07597E-03     105.563E-03    -26.4740E+06    -23.4572E+06    -6.65416E+06     1.85302E+06    -18.6575E-03     36.1090E-03    -17.4515E-03     50.4774E-03    -18.7474E-03     36.0409E-03    -17.4123E-03     50.4990E-03
            1193     7.95957E-03     105.607E-03    -25.5322E+06    -23.0306E+06    -3.84936E+06    -3.99987E+06    -19.4376E-03     37.0070E-03    -17.5694E-03     59.3602E-03    -19.5292E-03     36.9373E-03    -17.5183E-03     59.3035E-03
            1194     8.84284E-03     105.659E-03    -24.3361E+06    -21.3522E+06    -1.06042E+06    -10.8215E+06    -20.6481E-03     38.3822E-03    -17.7341E-03     69.4161E-03    -20.7439E-03     38.3189E-03    -17.6732E-03     69.2663E-03
            1195     9.72462E-03     105.721E-03    -22.9163E+06    -22.7853E+06     925.440E+03    -16.2751E+06    -22.2731E-03     40.2383E-03    -17.9651E-03     80.4619E-03    -22.3704E-03     40.1706E-03    -17.8942E-03     80.2325E-03
            1196     10.6057E-03     105.792E-03    -20.6593E+06    -27.6000E+06     2.09206E+06    -20.4942E+06    -24.5108E-03     42.7895E-03    -18.2787E-03     92.5153E-03    -24.6076E-03     42.7089E-03    -18.1983E-03     92.2145E-03
            1197     11.4851E-03     105.876E-03    -18.0679E+06    -27.2313E+06     2.89339E+06    -24.3061E+06    -27.7635E-03     46.4599E-03    -18.6963E-03     106.913E-03    -27.8832E-03     46.4105E-03    -18.6162E-03     106.531E-03
            1198     12.3611E-03     105.974E-03    -15.9615E+06    -22.1342E+06     5.61741E+06    -26.5301E+06    -31.9445E-03     51.2171E-03    -19.2725E-03     118.521E-03    -32.1226E-03     51.2439E-03    -19.1892E-03     118.059E-03
            1199     13.2341E-03     106.080E-03    -12.9811E+06    -57.6742E+06    -7.97798E+06    -29.4588E+06    -37.2335E-03     57.2610E-03    -20.0275E-03     124.173E-03    -37.4226E-03     57.2229E-03    -19.9650E-03     123.589E-03
            1200     14.1022E-03     106.190E-03    -8.95128E+06    -48.5218E+06    -15.9928E+06    -30.4262E+06    -44.3855E-03     65.3636E-03    -20.9781E-03     145.295E-03    -44.8684E-03     65.6896E-03    -20.9747E-03     144.513E-03
            1201     14.9648E-03     106.336E-03    -7.21320E+06    -34.5533E+06    -12.6624E+06    -26.9589E+06    -54.4563E-03     76.6302E-03    -22.1738E-03     208.279E-03    -56.2569E-03     78.3199E-03    -22.1766E-03     207.169E-03
            1202     15.8254E-03     106.573E-03    -7.99786E+06     16.5248E+06    -29.0299E+06    -19.2463E+06    -62.5221E-03     85.7436E-03    -23.2215E-03     305.888E-03    -70.4021E-03     93.7380E-03    -23.3790E-03     305.494E-03
            1203     16.6897E-03     106.927E-03    -5.85795E+06     133.926E+06     44.9660E+06    -7.74042E+06    -62.3481E-03     86.8424E-03    -24.4944E-03     340.739E-03    -77.2771E-03     102.096E-03    -24.4552E-03     346.424E-03
            1204     885.635E-06     106.401E-03    -82.5963E+06    -52.7555E+06    -83.0169E+06     5.43972E+06    -16.0662E-03     32.1248E-03    -16.0587E-03     5.58972E-03    -16.2823E-03     32.1012E-03    -16.2775E-03     5.65991E-03
            1205     1.77101E-03     106.407E-03    -70.1163E+06    -46.2558E+06    -67.1292E+06     10.1668E+06    -16.0813E-03     32.1823E-03    -16.1010E-03     10.4445E-03    -16.2675E-03     32.1500E-03    -16.2679E-03     10.5757E-03
            1206     2.65676E-03     106.417E-03    -53.9710E+06    -38.7997E+06    -47.2119E+06     14.5419E+06    -16.1718E-03     32.3294E-03    -16.1576E-03     15.8258E-03    -16.3169E-03     32.2821E-03    -16.2592E-03     16.0135E-03
            1207     3.54216E-03     106.432E-03    -39.9424E+06    -33.6845E+06    -31.1261E+06     15.6961E+06    -16.3467E-03     32.5639E-03    -16.2173E-03     21.6735E-03    -16.4524E-03     32.4985E-03    -16.2661E-03     21.8763E-03
            1208     4.42760E-03     106.452E-03    -31.2501E+06    -30.6655E+06    -21.3590E+06     14.2825E+06    -16.6009E-03     32.8771E-03    -16.2763E-03     27.9771E-03    -16.6816E-03     32.8000E-03    -16.2933E-03     28.1616E-03
            1209     5.31266E-03     106.477E-03    -27.3923E+06    -26.5913E+06    -15.1816E+06     11.6701E+06    -16.9343E-03     33.2791E-03    -16.3448E-03     34.7325E-03    -17.0106E-03     33.2078E-03    -16.3425E-03     34.8831E-03
            1210     6.19778E-03     106.508E-03    -25.6842E+06    -21.3542E+06    -10.0147E+06     7.46983E+06    -17.3724E-03     33.8056E-03    -16.4332E-03     42.0980E-03    -17.4556E-03     33.7508E-03    -16.4150E-03     42.1939E-03
            1211     7.08242E-03     106.545E-03    -23.3708E+06    -17.6920E+06    -5.15904E+06     2.11974E+06    -17.9725E-03     34.5201E-03    -16.5476E-03     50.2593E-03    -18.0570E-03     34.4738E-03    -16.5138E-03     50.2850E-03
            1212     7.96676E-03     106.589E-03    -19.8893E+06    -15.8116E+06    -541.495E+03    -3.56786E+06    -18.8711E-03     35.5685E-03    -16.6974E-03     59.4483E-03    -18.9491E-03     35.5213E-03    -16.6483E-03     59.3984E-03
            1213     8.85015E-03     106.643E-03    -18.3975E+06    -13.6842E+06     3.10130E+06    -8.60379E+06    -20.1088E-03     37.0026E-03    -16.8938E-03     69.9567E-03    -20.1909E-03     36.9618E-03    -16.8318E-03     69.8376E-03
            1214     9.73302E-03     106.706E-03    -19.0073E+06    -15.6502E+06     4.87407E+06    -13.8522E+06    -21.7166E-03     38.8665E-03    -17.1499E-03     81.4519E-03    -21.8083E-03     38.8210E-03    -17.0753E-03     81.2571E-03
            1215     10.6144E-03     106.780E-03    -18.7062E+06    -18.7511E+06     5.68799E+06    -20.7610E+06    -24.0640E-03     41.5459E-03    -17.4820E-03     94.5385E-03    -24.1657E-03     41.4983E-03    -17.3992E-03     94.2390E-03
            1216     11.4938E-03     106.867E-03    -16.8876E+06    -23.0282E+06     5.69013E+06    -24.5856E+06    -27.4324E-03     45.3563E-03    -17.9238E-03     110.068E-03    -27.5510E-03     45.3167E-03    -17.8375E-03     109.689E-03
            1217     12.3711E-03     106.969E-03    -16.6699E+06    -19.0769E+06     6.80187E+06    -25.3766E+06    -31.7766E-03     50.2925E-03    -18.5159E-03     123.585E-03    -31.9594E-03     50.3289E-03    -18.4301E-03     123.145E-03
            1218     13.2438E-03     107.081E-03    -17.3207E+06    -47.8037E+06    -4.29563E+06    -31.0563E+06    -37.2773E-03     56.5770E-03    -19.2997E-03     131.236E-03    -37.5035E-03     56.5850E-03    -19.2268E-03     130.639E-03
            1219     14.1123E-03     107.197E-03    -14.7658E+06    -46.8973E+06    -13.4658E+06    -36.1518E+06    -45.7238E-03     66.0353E-03    -20.3115E-03     153.963E-03    -46.2518E-03     66.3846E-03    -20.2894E-03     153.091E-03
            1220     14.9746E-03     107.354E-03    -9.45934E+06    -41.6624E+06    -11.5462E+06    -32.4360E+06    -57.3212E-03     78.9523E-03    -21.6311E-03     213.775E-03    -59.1049E-03     80.5889E-03    -21.6147E-03     212.516E-03
            1221     15.8293E-03     107.594E-03    -4.49737E+06     3.21559E+06    -22.8236E+06    -20.5627E+06    -65.4850E-03     88.3666E-03    -22.8817E-03     301.727E-03    -72.6914E-03     95.6348E-03    -22.9939E-03     300.978E-03
            1222     16.6915E-03     107.933E-03    -2.84669E+06     120.777E+06     50.4650E+06    -6.59311E+06    -65.5785E-03     89.8971E-03    -24.3186E-03     342.331E-03    -80.1042E-03     104.696E-03    -24.2373E-03     347.285E-03
            1223     885.972E-06     107.379E-03    -102.419E+06    -55.8916E+06    -102.446E+06    -2.26494E+06    -15.3300E-03     30.6894E-03    -15.3595E-03     5.39820E-03    -15.6125E-03     30.7071E-03    -15.6421E-03     5.36884E-03
            1224     1.77231E-03     107.385E-03    -94.0250E+06    -51.0715E+06    -91.9307E+06    -3.09540E+06    -15.3464E-03     30.7120E-03    -15.3656E-03     10.0953E-03    -15.6092E-03     30.7263E-03    -15.6149E-03     10.0551E-03
            1225     2.65833E-03     107.396E-03    -80.4845E+06    -44.5485E+06    -77.6566E+06    -2.00712E+06    -15.3768E-03     30.7672E-03    -15.3904E-03     15.2433E-03    -15.6021E-03     30.7738E-03    -15.5974E-03     15.2172E-03
            1226     3.54472E-03     107.411E-03    -63.4048E+06    -36.8787E+06    -62.0459E+06     130.772E+03    -15.4787E-03     30.8967E-03    -15.4180E-03     20.8303E-03    -15.6524E-03     30.8942E-03    -15.5828E-03     20.8318E-03
            1227     4.43089E-03     107.431E-03    -45.7046E+06    -32.8717E+06    -44.9765E+06     2.24916E+06    -15.7213E-03     31.1945E-03    -15.4732E-03     26.9619E-03    -15.8370E-03     31.1616E-03    -15.5841E-03     26.9909E-03
            1228     5.31703E-03     107.456E-03    -30.2177E+06    -27.5554E+06    -27.3784E+06     4.28878E+06    -16.1122E-03     31.6730E-03    -15.5608E-03     33.7171E-03    -16.1837E-03     31.6187E-03    -15.6139E-03     33.7724E-03
            1229     6.20251E-03     107.487E-03    -19.7406E+06    -18.8736E+06    -12.6446E+06     4.52753E+06    -16.6467E-03     32.3184E-03    -15.6717E-03     41.2109E-03    -16.6999E-03     32.2711E-03    -15.6789E-03     41.2690E-03
            1230     7.08781E-03     107.525E-03    -15.4516E+06    -12.8477E+06    -3.17617E+06     2.04275E+06    -17.3644E-03     33.1732E-03    -15.8088E-03     49.5233E-03    -17.4191E-03     33.1366E-03    -15.7837E-03     49.5485E-03
            1231     7.97254E-03     107.571E-03    -15.5674E+06    -9.62168E+06     2.09850E+06    -2.31702E+06    -18.3351E-03     34.3164E-03    -15.9812E-03     58.9764E-03    -18.4038E-03     34.2895E-03    -15.9342E-03     58.9436E-03
            1232     8.85669E-03     107.625E-03    -14.9553E+06    -7.83295E+06     6.35321E+06    -6.98362E+06    -19.5205E-03     35.7180E-03    -16.1975E-03     69.6128E-03    -19.5974E-03     35.6956E-03    -16.1327E-03     69.5165E-03
            1233     9.73985E-03     107.690E-03    -13.0343E+06    -8.48923E+06     9.92951E+06    -11.4283E+06    -21.1253E-03     37.5907E-03    -16.4654E-03     81.5899E-03    -21.2025E-03     37.5627E-03    -16.3846E-03     81.4296E-03
            1234     10.6218E-03     107.766E-03    -14.1756E+06    -8.28743E+06     12.0012E+06    -17.0698E+06    -23.5254E-03     40.3324E-03    -16.8070E-03     95.6855E-03    -23.6247E-03     40.3172E-03    -16.7144E-03     95.4389E-03
            1235     11.5022E-03     107.856E-03    -16.3776E+06    -18.0342E+06     9.79532E+06    -22.8379E+06    -26.8284E-03     44.0808E-03    -17.2524E-03     112.304E-03    -26.9501E-03     44.0520E-03    -17.1535E-03     111.956E-03
            1236     12.3795E-03     107.962E-03    -15.5770E+06    -17.9594E+06     9.49824E+06    -24.1759E+06    -31.0745E-03     48.9039E-03    -17.8294E-03     127.677E-03    -31.2460E-03     48.9291E-03    -17.7333E-03     127.266E-03
            1237     13.2542E-03     108.080E-03    -15.1402E+06    -33.6360E+06     4.76790E+06    -28.3007E+06    -37.4238E-03     56.0502E-03    -18.6264E-03     137.746E-03    -37.6639E-03     56.1040E-03    -18.5318E-03     137.193E-03
            1238     14.1222E-03     108.204E-03    -18.2169E+06    -38.0267E+06    -6.84024E+06    -38.0598E+06    -47.3441E-03     67.0436E-03    -19.6995E-03     163.193E-03    -47.9169E-03     67.4377E-03    -19.6522E-03     162.281E-03
            1239     14.9806E-03     108.375E-03    -17.0610E+06    -49.0628E+06    -9.99437E+06    -40.7592E+06    -59.1761E-03     80.2905E-03    -21.1143E-03     220.999E-03    -60.9257E-03     81.8352E-03    -21.0684E-03     219.592E-03
            1240     15.8387E-03     108.615E-03    -11.3968E+06    -17.6053E+06    -19.1808E+06    -28.4991E+06    -69.6583E-03     92.2005E-03    -22.5422E-03     303.177E-03    -76.2986E-03     98.7940E-03    -22.5961E-03     301.845E-03
            1241     16.6909E-03     108.954E-03    -4.66753E+06     103.209E+06     52.9129E+06    -7.64150E+06    -69.7294E-03     93.8777E-03    -24.1483E-03     345.199E-03    -83.6999E-03     108.045E-03    -24.0266E-03     349.295E-03
            1242     886.575E-06     108.356E-03    -89.3501E+06    -48.8079E+06    -88.5011E+06    -5.11536E+06    -14.9933E-03     30.0213E-03    -15.0281E-03     5.17413E-03    -15.2409E-03     30.0353E-03    -15.2703E-03     5.10783E-03
            1243     1.77279E-03     108.363E-03    -87.8677E+06    -45.5632E+06    -84.9087E+06    -8.75377E+06    -15.0327E-03     30.0546E-03    -15.0219E-03     9.63074E-03    -15.2829E-03     30.0774E-03    -15.2530E-03     9.51726E-03
            1244     2.65941E-03     108.373E-03    -84.2292E+06    -41.5648E+06    -79.9057E+06    -12.1244E+06    -15.0564E-03     30.0925E-03    -15.0362E-03     14.4830E-03    -15.3015E-03     30.1228E-03    -15.2533E-03     14.3258E-03
            1245     3.54579E-03     108.388E-03    -77.6343E+06    -36.0938E+06    -73.0568E+06    -13.8492E+06    -15.1026E-03     30.1524E-03    -15.0498E-03     19.6796E-03    -15.3327E-03     30.1906E-03    -15.2502E-03     19.5000E-03
            1246     4.43242E-03     108.408E-03    -67.3014E+06    -33.2680E+06    -62.8034E+06    -14.0483E+06    -15.2121E-03     30.2916E-03    -15.0795E-03     25.3698E-03    -15.4096E-03     30.3142E-03    -15.2477E-03     25.1876E-03
            1247     5.31887E-03     108.434E-03    -52.6197E+06    -29.5832E+06    -49.8990E+06    -12.8092E+06    -15.4489E-03     30.5729E-03    -15.1240E-03     31.7802E-03    -15.5971E-03     30.5740E-03    -15.2543E-03     31.6141E-03
            1248     6.20549E-03     108.466E-03    -35.2768E+06    -20.6554E+06    -35.3365E+06    -9.40843E+06    -15.9132E-03     31.1023E-03    -15.1891E-03     39.1297E-03    -16.0088E-03     31.1018E-03    -15.2847E-03     39.0074E-03
            1249     7.09138E-03     108.504E-03    -19.9923E+06    -13.4754E+06    -16.6206E+06    -4.97600E+06    -16.7099E-03     32.0349E-03    -15.3250E-03     47.5637E-03    -16.7669E-03     32.0213E-03    -15.3596E-03     47.4982E-03
            1250     7.97656E-03     108.551E-03    -10.5859E+06    -6.55166E+06     1.20569E+06    -2.82185E+06    -17.7508E-03     33.2736E-03    -15.5228E-03     57.2071E-03    -17.7975E-03     33.2559E-03    -15.4919E-03     57.1682E-03
            1251     8.86092E-03     108.606E-03    -8.46025E+06    -2.63692E+06     10.3735E+06    -4.86343E+06    -18.9838E-03     34.7326E-03    -15.7488E-03     67.9762E-03    -19.0407E-03     34.7200E-03    -15.6808E-03     67.9085E-03
            1252     9.74473E-03     108.672E-03    -9.80105E+06    -2.24749E+06     14.2169E+06    -8.98638E+06    -20.5892E-03     36.6054E-03    -16.0162E-03     80.3647E-03    -20.6633E-03     36.5956E-03    -15.9277E-03     80.2387E-03
            1253     10.6274E-03     108.750E-03    -9.58771E+06    -889.452E+03     18.1873E+06    -12.9781E+06    -22.8442E-03     39.1969E-03    -16.3528E-03     95.1609E-03    -22.9352E-03     39.1980E-03    -16.2466E-03     94.9729E-03
            1254     11.5079E-03     108.843E-03    -9.55992E+06    -8.63525E+06     19.2189E+06    -18.8204E+06    -25.9868E-03     42.7707E-03    -16.7840E-03     112.605E-03    -26.0918E-03     42.7556E-03    -16.6615E-03     112.320E-03
            1255     12.3870E-03     108.953E-03    -9.15654E+06    -15.3189E+06     17.4698E+06    -23.3289E+06    -30.4246E-03     47.7623E-03    -17.3377E-03     129.559E-03    -30.5636E-03     47.7640E-03    -17.2148E-03     129.173E-03
            1256     13.2619E-03     109.077E-03    -8.11211E+06    -24.9402E+06     15.2495E+06    -25.5076E+06    -37.3581E-03     55.4843E-03    -18.1262E-03     143.355E-03    -37.5738E-03     55.5391E-03    -18.0020E-03     142.853E-03
            1257     14.1287E-03     109.214E-03    -10.6991E+06    -22.5876E+06     7.96425E+06    -31.1215E+06    -47.4022E-03     66.6051E-03    -19.2030E-03     171.898E-03    -47.9488E-03     67.0115E-03    -19.1149E-03     171.096E-03
            1258     14.9912E-03     109.392E-03    -16.7572E+06    -44.3271E+06    -71.0107E+03    -39.1707E+06    -60.4958E-03     81.1322E-03    -20.6364E-03     228.498E-03    -62.1588E-03     82.5799E-03    -20.5482E-03     227.072E-03
            1259     15.8452E-03     109.639E-03    -17.3729E+06    -38.7636E+06    -16.1987E+06    -35.8746E+06    -72.5077E-03     94.6653E-03    -22.1576E-03     306.239E-03    -78.4063E-03     100.412E-03    -22.1572E-03     304.502E-03
            1260     16.6993E-03     109.983E-03    -10.7778E+06     76.0062E+06     50.1798E+06    -15.6133E+06    -73.4893E-03     97.3689E-03    -23.8795E-03     346.031E-03    -86.5214E-03     110.487E-03    -23.7232E-03     349.020E-03
            1261     886.407E-06     109.333E-03    -64.0433E+06    -39.0146E+06    -62.9762E+06    -4.81375E+06    -15.0755E-03     30.1296E-03    -15.0542E-03     4.80742E-03    -15.2478E-03     30.1188E-03    -15.2196E-03     4.74480E-03
            1262     1.77311E-03     109.340E-03    -62.5713E+06    -35.9917E+06    -59.5477E+06    -9.17559E+06    -15.1571E-03     30.2487E-03    -15.0916E-03     8.89573E-03    -15.3315E-03     30.2459E-03    -15.2464E-03     8.77639E-03
            1263     2.65935E-03     109.350E-03    -60.7260E+06    -32.9702E+06    -54.0004E+06    -13.4255E+06    -15.2731E-03     30.4218E-03    -15.1487E-03     13.3543E-03    -15.4509E-03     30.4236E-03    -15.2829E-03     13.1796E-03
            1264     3.54576E-03     109.366E-03    -59.1514E+06    -30.0628E+06    -49.2984E+06    -16.7487E+06    -15.3815E-03     30.5873E-03    -15.2057E-03     18.0920E-03    -15.5626E-03     30.5946E-03    -15.3229E-03     17.8739E-03
            1265     4.43192E-03     109.385E-03    -57.9137E+06    -28.2852E+06    -46.7490E+06    -19.5510E+06    -15.4672E-03     30.7163E-03    -15.2491E-03     23.2444E-03    -15.6486E-03     30.7273E-03    -15.3579E-03     22.9897E-03
            1266     5.31836E-03     109.411E-03    -55.8186E+06    -25.9925E+06    -45.1284E+06    -22.6782E+06    -15.5733E-03     30.8523E-03    -15.2790E-03     28.9975E-03    -15.7502E-03     30.8696E-03    -15.3860E-03     28.7022E-03
            1267     6.20458E-03     109.443E-03    -50.3087E+06    -22.0239E+06    -41.3201E+06    -23.4440E+06    -15.7975E-03     31.1105E-03    -15.3130E-03     35.6549E-03    -15.9584E-03     31.1344E-03    -15.4147E-03     35.3497E-03
            1268     7.09100E-03     109.482E-03    -38.9493E+06    -17.5184E+06    -30.1556E+06    -20.2063E+06    -16.2710E-03     31.6612E-03    -15.3903E-03     43.6266E-03    -16.3980E-03     31.6752E-03    -15.4592E-03     43.3631E-03
            1269     7.97683E-03     109.530E-03    -23.1160E+06    -9.18033E+06    -14.6148E+06    -14.9647E+06    -17.0782E-03     32.5897E-03    -15.5115E-03     53.0665E-03    -17.1610E-03     32.6002E-03    -15.5377E-03     52.8704E-03
            1270     8.86205E-03     109.587E-03    -8.53586E+06    -3.23658E+06     3.52607E+06    -9.07828E+06    -18.3292E-03     34.0340E-03    -15.7048E-03     64.0366E-03    -18.3752E-03     34.0280E-03    -15.6701E-03     63.9152E-03
            1271     9.74585E-03     109.654E-03    -798.138E+03     2.10466E+06     19.6804E+06    -7.25150E+06    -20.0608E-03     36.0319E-03    -15.9711E-03     76.8179E-03    -20.1022E-03     36.0210E-03    -15.8746E-03     76.7165E-03
            1272     10.6286E-03     109.734E-03     509.962E+03     4.17530E+06     26.8035E+06    -9.93950E+06    -22.2509E-03     38.5390E-03    -16.2881E-03     91.9478E-03    -22.3065E-03     38.5335E-03    -16.1608E-03     91.8041E-03
            1273     11.5105E-03     109.829E-03    -1.24459E+06    -347.507E+03     29.7845E+06    -13.0366E+06    -25.1713E-03     41.8605E-03    -16.6892E-03     109.788E-03    -25.2507E-03     41.8480E-03    -16.5380E-03     109.588E-03
            1274     12.3895E-03     109.942E-03    -4.14763E+06    -5.51764E+06     28.8099E+06    -19.9906E+06    -29.7427E-03     46.9526E-03    -17.2100E-03     128.873E-03    -29.8675E-03     46.9599E-03    -17.0519E-03     128.547E-03
            1275     13.2644E-03     110.073E-03    -3.97718E+06    -21.8322E+06     24.0586E+06    -24.8302E+06    -36.3517E-03     54.2956E-03    -17.9439E-03     146.342E-03    -36.5313E-03     54.3142E-03    -17.7861E-03     145.877E-03
            1276     14.1354E-03     110.219E-03    -2.29877E+06    -14.2466E+06     20.3174E+06    -24.6735E+06    -46.3383E-03     65.2869E-03    -18.9486E-03     176.879E-03    -46.8002E-03     65.6322E-03    -18.8231E-03     176.205E-03
            1277     14.9976E-03     110.408E-03    -2.96939E+06    -29.8621E+06     15.1405E+06    -29.8778E+06    -61.1225E-03     81.4620E-03    -20.3395E-03     234.132E-03    -62.6099E-03     82.7904E-03    -20.2162E-03     232.824E-03
            1278     15.8503E-03     110.669E-03    -7.98530E+06    -48.1361E+06    -8.31185E+06    -30.9628E+06    -73.8891E-03     95.7829E-03    -21.8938E-03     305.290E-03    -78.8295E-03     100.549E-03    -21.8539E-03     303.431E-03
            1279     16.7053E-03     111.001E-03    -8.49941E+06     50.7537E+06     45.9024E+06    -18.5456E+06    -76.0400E-03     99.7069E-03    -23.6668E-03     345.088E-03    -87.9682E-03     111.652E-03    -23.4986E-03     346.888E-03
            1280     886.262E-06     110.311E-03    -38.6199E+06    -29.1735E+06     -38.027E+06    -4.90643E+06    -15.6831E-03     31.3054E-03    -15.6223E-03     4.22731E-03    -15.7788E-03     31.2708E-03    -15.7142E-03     4.16317E-03
            1281     1.77210E-03     110.317E-03    -37.7799E+06    -26.5455E+06    -34.2069E+06     -8.7195E+06    -15.8125E-03     31.5099E-03    -15.6973E-03     7.82133E-03    -15.9135E-03     31.4817E-03    -15.7751E-03     7.70724E-03
            1282     2.65814E-03     110.328E-03    -37.0938E+06    -24.3808E+06    -30.0666E+06    -11.9349E+06    -16.0177E-03     31.8035E-03    -15.7858E-03     11.7124E-03    -16.1246E-03     31.7793E-03    -15.8470E-03     11.5560E-03
            1283     3.54374E-03     110.343E-03    -36.3441E+06    -22.4936E+06    -26.6365E+06    -14.8871E+06    -16.2542E-03     32.1410E-03    -15.8868E-03     15.7981E-03    -16.3654E-03     32.1205E-03    -15.9347E-03     15.6026E-03
            1284     4.42940E-03     110.364E-03    -34.7993E+06    -20.4717E+06    -23.1296E+06    -18.2350E+06    -16.4908E-03     32.4849E-03    -15.9941E-03     20.2114E-03    -16.6027E-03     32.4675E-03    -16.0296E-03     19.9717E-03
            1285     5.31463E-03     110.389E-03    -33.6607E+06    -18.5449E+06    -19.0262E+06    -21.4579E+06    -16.6971E-03     32.8010E-03    -16.1039E-03     25.1373E-03    -16.8125E-03     32.7862E-03    -16.1234E-03     24.8550E-03
            1286     6.19999E-03     110.421E-03    -34.0607E+06    -17.4232E+06    -16.2360E+06    -24.5172E+06    -16.8497E-03     33.0517E-03    -16.2020E-03     30.8746E-03    -16.9734E-03     33.0395E-03    -16.2085E-03     30.5522E-03
            1287     7.08511E-03     110.461E-03    -34.0170E+06    -16.4356E+06    -15.8176E+06    -26.8713E+06    -16.9561E-03     33.2284E-03    -16.2723E-03     37.7672E-03    -17.0821E-03     33.2210E-03    -16.2782E-03     37.4142E-03
            1288     7.97074E-03     110.508E-03    -30.6093E+06    -11.8909E+06    -13.9871E+06    -26.3367E+06    -17.2063E-03     33.5343E-03    -16.3280E-03     46.1208E-03    -17.3249E-03     33.5424E-03    -16.3364E-03     45.7749E-03
            1289     8.85608E-03     110.566E-03    -21.2629E+06    -8.76140E+06    -4.53690E+06    -22.2312E+06    -17.9202E-03     34.3479E-03    -16.4277E-03     56.4251E-03    -18.0108E-03     34.3449E-03    -16.4068E-03     56.1322E-03
            1290     9.74094E-03     110.635E-03    -7.70197E+06    -626.071E+03     10.9734E+06    -15.4801E+06    -19.3032E-03     35.8952E-03    -16.5919E-03     69.2011E-03    -19.3616E-03     35.8922E-03    -16.5250E-03     68.9943E-03
            1291     10.6241E-03     110.717E-03     2.38201E+06     5.17086E+06     26.3974E+06    -10.3866E+06    -21.4944E-03     38.3410E-03    -16.8466E-03     84.7323E-03    -21.5372E-03     38.3342E-03    -16.7256E-03     84.5869E-03
            1292     11.5052E-03     110.814E-03     8.44418E+06     4.80255E+06     38.2159E+06    -10.8359E+06    -24.5065E-03     41.7126E-03    -17.2062E-03     103.133E-03    -24.5464E-03     41.6889E-03    -17.0343E-03     102.970E-03
            1293     12.3852E-03     110.930E-03     10.3849E+06     3.21097E+06     41.0524E+06    -13.2209E+06    -28.6806E-03     46.3433E-03    -17.6627E-03     123.944E-03    -28.7396E-03     46.3317E-03    -17.4772E-03     123.725E-03
            1294     13.2620E-03     111.067E-03     5.50462E+06    -14.4034E+06     34.3157E+06    -17.9788E+06    -34.7855E-03     53.0837E-03    -18.2983E-03     143.699E-03    -34.8988E-03     53.0664E-03    -18.1138E-03     143.358E-03
            1295     14.1327E-03     111.220E-03     744.557E+03    -13.2083E+06     28.7865E+06    -21.1282E+06    -45.1560E-03     64.3660E-03    -19.2100E-03     177.281E-03    -45.5246E-03     64.6079E-03    -19.0480E-03     176.708E-03
            1296     14.9957E-03     111.424E-03    -1.59114E+06    -15.6925E+06     29.0124E+06    -25.3039E+06    -60.2263E-03     80.7519E-03    -20.5256E-03     235.514E-03    -61.5006E-03     81.8819E-03    -20.3554E-03     234.352E-03
            1297     15.8530E-03     111.692E-03    -631.694E+03    -50.2309E+06     1.60609E+06    -27.9910E+06    -72.8178E-03     94.8197E-03    -22.0019E-03     301.090E-03    -76.7520E-03     98.5692E-03    -21.9201E-03     299.235E-03
            1298     16.7015E-03     112.027E-03     2.96196E+06     26.9026E+06     43.2286E+06    -14.3059E+06    -76.0886E-03     99.7569E-03    -23.6683E-03     346.440E-03    -86.6568E-03     110.306E-03    -23.4955E-03     347.213E-03
            1299     884.952E-06     111.290E-03    -16.3740E+06    -19.7010E+06    -15.3148E+06    -5.08967E+06    -17.0256E-03     33.9962E-03    -16.9706E-03     3.44422E-03    -17.0569E-03     33.9436E-03    -16.9948E-03     3.37725E-03
            1300     1.77010E-03     111.297E-03    -15.7782E+06    -18.4939E+06    -12.8454E+06    -7.52770E+06    -17.2145E-03     34.2688E-03    -17.0543E-03     6.36886E-03    -17.2483E-03     34.2179E-03    -17.0689E-03     6.26926E-03
            1301     2.65468E-03     111.308E-03    -15.0037E+06    -17.1350E+06    -9.47622E+06    -10.2657E+06    -17.5219E-03     34.6961E-03    -17.1743E-03     9.47425E-03    -17.5589E-03     34.6463E-03    -17.1751E-03     9.33794E-03
            1302     3.53924E-03     111.324E-03    -13.7200E+06    -15.0173E+06    -5.39160E+06    -13.2789E+06    -17.9071E-03     35.2364E-03    -17.3294E-03     12.7088E-03    -17.9471E-03     35.1897E-03    -17.3146E-03     12.5320E-03
            1303     4.42313E-03     111.344E-03    -13.2900E+06    -13.4241E+06    -1.53181E+06    -15.9695E+06    -18.3135E-03     35.8222E-03    -17.5087E-03     16.1875E-03    -18.3598E-03     35.7777E-03    -17.4776E-03     15.9742E-03
            1304     5.30696E-03     111.370E-03    -13.7344E+06    -12.0704E+06     1.05525E+06    -18.0526E+06    -18.6814E-03     36.3748E-03    -17.6935E-03     20.1096E-03    -18.7363E-03     36.3347E-03    -17.6508E-03     19.8677E-03
            1305     6.19024E-03     111.402E-03    -13.9978E+06    -10.6993E+06     3.73118E+06    -20.2654E+06    -18.9611E-03     36.8356E-03    -17.8745E-03     24.6784E-03    -19.0241E-03     36.7997E-03    -17.8201E-03     24.4063E-03
            1306     7.07368E-03     111.442E-03    -14.7692E+06    -10.1057E+06     6.58063E+06    -23.0829E+06    -19.0940E-03     37.1339E-03    -18.0399E-03     30.1293E-03    -19.1668E-03     37.0987E-03    -17.9709E-03     29.8197E-03
            1307     7.95682E-03     111.489E-03    -16.6259E+06    -9.89558E+06     8.16797E+06    -24.9417E+06    -19.0859E-03     37.2565E-03    -18.1706E-03     36.8634E-03    -19.1715E-03     37.2237E-03    -18.0913E-03     36.5293E-03
            1308     8.84047E-03     111.546E-03    -18.7799E+06    -8.95003E+06     7.68555E+06    -25.8020E+06    -19.1159E-03     37.3751E-03    -18.2592E-03     45.4171E-03    -19.2137E-03     37.3515E-03    -18.1806E-03     45.0722E-03
            1309     9.72421E-03     111.615E-03    -17.5413E+06    -5.88781E+06     9.23070E+06    -24.4378E+06    -19.5338E-03     37.8716E-03    -18.3378E-03     56.5444E-03    -19.6326E-03     37.8599E-03    -18.2577E-03     56.2179E-03
            1310     10.6082E-03     111.698E-03    -9.64924E+06     105.011E+03     21.3952E+06    -18.6267E+06    -20.8370E-03     39.3213E-03    -18.4843E-03     71.1753E-03    -20.9237E-03     39.3118E-03    -18.3635E-03     70.9237E-03
            1311     11.4904E-03     111.798E-03    -894.113E+03     6.91371E+06     36.8127E+06    -15.4083E+06    -23.3536E-03     42.0800E-03    -18.7263E-03     89.7163E-03    -23.4330E-03     42.0740E-03    -18.5510E-03     89.5025E-03
            1312     12.3695E-03     111.917E-03     2.27948E+06     698.180E+03     41.9532E+06    -11.0637E+06    -27.1699E-03     46.2424E-03    -19.0725E-03     111.400E-03    -27.2448E-03     46.2064E-03    -18.8671E-03     111.229E-03
            1313     13.2468E-03     112.058E-03    -463.781E+03    -5.18649E+06     41.9301E+06    -8.64807E+06    -33.0562E-03     52.6507E-03    -19.5944E-03     133.343E-03    -33.1784E-03     52.6315E-03    -19.3766E-03     133.160E-03
            1314     14.1193E-03     112.220E-03    -5.01630E+06    -8.23900E+06     39.1487E+06    -16.0275E+06    -43.4416E-03     63.8485E-03    -20.4070E-03     169.114E-03    -43.7533E-03     64.0003E-03    -20.1920E-03     168.678E-03
            1315     14.9845E-03     112.433E-03    -6.55503E+06    -3.36820E+06     44.2164E+06    -22.7838E+06    -57.5627E-03     79.1703E-03    -21.6077E-03     226.885E-03    -58.5481E-03     79.9935E-03    -21.3722E-03     225.919E-03
            1316     15.8387E-03     112.713E-03    -12.0727E+06    -46.0752E+06     10.6193E+06    -28.2270E+06    -68.3560E-03     91.2637E-03    -22.9077E-03     286.282E-03    -71.1968E-03     93.8673E-03    -22.7703E-03     284.655E-03
            1317     16.7028E-03     113.041E-03    -19.2657E+06    -1.59426E+06     20.2971E+06    -24.6645E+06    -67.1881E-03     91.3305E-03    -24.1424E-03     336.436E-03    -75.3134E-03     99.3238E-03    -24.0106E-03     336.658E-03
            1318     883.222E-06     112.273E-03     4.23300E+06    -11.2620E+06     5.55336E+06    -3.57703E+06    -19.3687E-03     38.6687E-03    -19.2999E-03     2.46569E-03    -19.3397E-03     38.5980E-03    -19.2620E-03     2.41765E-03
            1319     1.76600E-03     112.280E-03     4.00441E+06    -11.7864E+06     6.00685E+06    -6.46727E+06    -19.6291E-03     39.0350E-03    -19.4059E-03     4.51653E-03    -19.6012E-03     38.9614E-03    -19.3646E-03     4.42948E-03
            1320     2.64879E-03     112.292E-03     4.35484E+06    -10.4401E+06     8.71580E+06    -8.99869E+06    -20.0265E-03     39.5915E-03    -19.5650E-03     6.67602E-03    -20.0031E-03     39.5204E-03    -19.5126E-03     6.55433E-03
            1321     3.53083E-03     112.307E-03     4.24841E+06    -8.91285E+06     12.3513E+06    -11.1711E+06    -20.5216E-03     40.2947E-03    -19.7731E-03     8.91798E-03    -20.5066E-03     40.2265E-03    -19.7046E-03     8.76599E-03
            1322     4.41269E-03     112.329E-03     3.94482E+06    -8.03649E+06     15.4167E+06    -12.6534E+06    -21.0833E-03     41.0986E-03    -20.0153E-03     11.3327E-03    -21.0761E-03     41.0313E-03    -19.9323E-03     11.1591E-03
            1323     5.29369E-03     112.355E-03     3.75532E+06    -6.78933E+06     17.9941E+06    -14.3841E+06    -21.6560E-03     41.9361E-03    -20.2801E-03     14.0539E-03    -21.6561E-03     41.8722E-03    -20.1857E-03     13.8552E-03
            1324     6.17448E-03     112.388E-03     3.01110E+06    -5.49096E+06     20.9236E+06    -16.0297E+06    -22.1602E-03     42.7197E-03    -20.5595E-03     17.2373E-03    -22.1710E-03     42.6600E-03    -20.4513E-03     17.0145E-03
            1325     7.05449E-03     112.427E-03     889.445E+03    -5.11751E+06     23.5789E+06    -16.8136E+06    -22.5443E-03     43.3829E-03    -20.8386E-03     21.0629E-03    -22.5714E-03     43.3253E-03    -20.7146E-03     20.8274E-03
            1326     7.93455E-03     112.475E-03    -2.03320E+06    -5.08700E+06     24.9410E+06    -18.1391E+06    -22.7475E-03     43.8435E-03    -21.0960E-03     25.8502E-03    -22.7926E-03     43.7895E-03    -20.9610E-03     25.5954E-03
            1327     8.81432E-03     112.531E-03    -4.23635E+06    -4.94448E+06     26.2909E+06    -19.7655E+06    -22.7623E-03     44.0848E-03    -21.3225E-03     31.9811E-03    -22.8220E-03     44.0339E-03    -21.1778E-03     31.7039E-03
            1328     9.69450E-03     112.599E-03    -6.94063E+06    -5.07579E+06     28.0056E+06    -20.8284E+06    -22.7060E-03     44.2240E-03    -21.5180E-03     40.0552E-03    -22.7829E-03     44.1750E-03    -21.3605E-03     39.7640E-03
            1329     10.5746E-03     112.681E-03    -10.1261E+06    -3.54916E+06     30.2782E+06    -20.5929E+06    -22.7411E-03     44.4270E-03    -21.6859E-03     51.1652E-03    -22.8402E-03     44.3876E-03    -21.5147E-03     50.8787E-03
            1330     11.4555E-03     112.782E-03    -12.3277E+06     3.89672E+06     35.6273E+06    -15.9238E+06    -23.4854E-03     45.3419E-03    -21.8565E-03     66.4734E-03    -23.6146E-03     45.3360E-03    -21.6661E-03     66.2496E-03
            1331     12.3362E-03     112.903E-03    -10.6528E+06    -4.29327E+06     43.1884E+06    -10.7613E+06    -25.5507E-03     47.6531E-03    -22.1024E-03     86.3314E-03    -25.6730E-03     47.5962E-03    -21.8648E-03     86.1736E-03
            1332     13.2128E-03     113.047E-03    -2.95885E+06    -5.46741E+06     51.5418E+06    -7.45145E+06    -30.9395E-03     53.4301E-03    -22.4906E-03     110.689E-03    -31.0524E-03     53.3636E-03    -22.2207E-03     110.552E-03
            1333     14.0844E-03     113.216E-03     2.63944E+06     3.95951E+06     53.4561E+06    -9.24194E+06    -40.8550E-03     64.0030E-03    -23.1480E-03     147.167E-03    -41.0533E-03     64.0701E-03    -22.8903E-03     146.904E-03
            1334     14.9465E-03     113.438E-03    -592.787E+03     2.36442E+06     52.5143E+06    -12.6713E+06    -53.4200E-03     77.6025E-03    -24.1825E-03     201.706E-03    -54.0250E-03     78.0612E-03    -23.9225E-03     201.079E-03
            1335     15.8103E-03     113.719E-03    -13.1867E+06    -28.0570E+06     31.1124E+06    -15.5150E+06    -60.8114E-03     86.1385E-03    -25.3270E-03     254.139E-03    -62.4798E-03     87.5709E-03    -25.1117E-03     253.046E-03
            1336     16.6600E-03     114.047E-03    -11.9817E+06    -8.69524E+06     17.5171E+06    -25.6203E+06    -41.3800E-03     67.0871E-03    -25.7071E-03     302.590E-03    -45.6001E-03     71.1935E-03    -25.5896E-03     302.786E-03
            1337     880.026E-06     113.261E-03     21.8394E+06    -5.41045E+06     22.6222E+06    -1.84401E+06    -22.9813E-03     45.7618E-03    -22.7805E-03     1.39419E-03    -22.8978E-03     45.6697E-03    -22.6912E-03     1.36804E-03
            1338     1.76003E-03     113.269E-03     21.0256E+06    -5.43985E+06     23.6626E+06    -4.64929E+06    -23.2672E-03     46.2475E-03    -22.9803E-03     2.33596E-03    -23.1894E-03     46.1549E-03    -22.8846E-03     2.27142E-03
            1339     2.63932E-03     113.280E-03     19.9614E+06    -5.35786E+06     24.5563E+06    -6.70303E+06    -23.6998E-03     46.8756E-03    -23.1758E-03     3.39650E-03    -23.6290E-03     46.7838E-03    -23.0742E-03     3.30303E-03
            1340     3.51846E-03     113.298E-03     18.8787E+06    -4.47998E+06     26.2004E+06    -7.85742E+06    -24.2798E-03     47.6989E-03    -23.4191E-03     4.52675E-03    -24.2183E-03     47.6109E-03    -23.3090E-03     4.41565E-03
            1341     4.39663E-03     113.319E-03     17.9232E+06    -3.92153E+06     28.9461E+06    -9.25914E+06    -25.0015E-03     48.7213E-03    -23.7198E-03     5.76041E-03    -24.9500E-03     48.6338E-03    -23.5954E-03     5.62812E-03
            1342     5.27435E-03     113.347E-03     16.8638E+06    -2.73244E+06     32.1341E+06    -10.3209E+06    -25.8051E-03     49.8756E-03    -24.0705E-03     7.15970E-03    -25.7658E-03     49.7915E-03    -23.9304E-03     7.01025E-03
            1343     6.15090E-03     113.380E-03     15.0459E+06    -2.48285E+06     34.4430E+06    -10.5939E+06    -26.6287E-03     51.0874E-03    -24.4587E-03     8.79962E-03    -26.6030E-03     51.0044E-03    -24.3047E-03     8.64283E-03
            1344     7.02704E-03     113.420E-03     13.4432E+06    -2.33613E+06     36.8810E+06    -10.7811E+06    -27.4393E-03     52.3162E-03    -24.8768E-03     10.8217E-03    -27.4264E-03     52.2333E-03    -24.7085E-03     10.6584E-03
            1345     7.90202E-03     113.468E-03     12.0461E+06    -1.33305E+06     40.3959E+06    -11.2043E+06    -28.2380E-03     53.5605E-03    -25.3225E-03     13.3362E-03    -28.2399E-03     53.4804E-03    -25.1360E-03     13.1630E-03
            1346     8.77641E-03     113.525E-03     9.04747E+06    -1.27271E+06     43.2218E+06    -12.0191E+06    -28.9259E-03     54.7123E-03    -25.7864E-03     16.5143E-03    -28.9487E-03     54.6338E-03    -25.5816E-03     16.3259E-03
            1347     9.64981E-03     113.592E-03     5.41817E+06    -2.22267E+06     44.8384E+06    -12.3097E+06    -29.3514E-03     55.6033E-03    -26.2519E-03     20.7829E-03    -29.3953E-03     55.5240E-03    -26.0324E-03     20.5869E-03
            1348     10.5231E-03     113.673E-03     2.02448E+06    -2.19183E+06     46.5373E+06    -12.2353E+06    -29.3634E-03     56.0655E-03    -26.7020E-03     26.6478E-03    -29.4288E-03     55.9896E-03    -26.4691E-03     26.4504E-03
            1349     11.3964E-03     113.770E-03     476.831E+03    -1.52549E+06     46.3881E+06    -10.0111E+06    -28.5758E-03     55.6654E-03    -27.0897E-03     35.5656E-03    -28.6510E-03     55.5962E-03    -26.8562E-03     35.3988E-03
            1350     12.2695E-03     113.890E-03     3.28107E+06    -5.58637E+06     52.5882E+06    -8.48142E+06    -28.0485E-03     55.4985E-03    -27.4500E-03     48.9915E-03    -28.1138E-03     55.3963E-03    -27.1837E-03     48.8488E-03
            1351     13.1464E-03     114.032E-03     6.86503E+06    -5.53604E+06     62.9372E+06    -9.89136E+06    -30.1880E-03     58.0446E-03    -27.8565E-03     70.2916E-03    -30.2543E-03     57.9279E-03    -27.5438E-03     70.1296E-03
            1352     14.0149E-03     114.214E-03     11.0057E+06     6.33835E+06     61.8561E+06    -6.71714E+06    -36.5027E-03     64.8791E-03    -28.3764E-03     104.769E-03    -36.5943E-03     64.8505E-03    -28.0923E-03     104.612E-03
            1353     14.8809E-03     114.432E-03     10.7752E+06     2.41619E+06     62.7081E+06     569.370E+03    -47.1779E-03     76.4177E-03    -29.2398E-03     156.100E-03    -47.4359E-03     76.5399E-03    -28.9454E-03     155.863E-03
            1354     15.7300E-03     114.723E-03     18.0984E+06    -8.30508E+06     66.2603E+06    -3.89902E+06    -46.5813E-03     76.6851E-03    -30.1038E-03     200.644E-03    -47.1698E-03     77.1179E-03    -29.7867E-03     200.168E-03
            1355     16.6083E-03     115.026E-03     23.4791E+06     682.787E+03     43.4095E+06    -12.0870E+06    -10.6824E-03     40.3030E-03    -29.6206E-03     211.626E-03    -11.7111E-03     41.2894E-03    -29.4386E-03     211.681E-03
            1356     875.965E-06     114.258E-03     33.6102E+06    -2.02242E+06     33.8963E+06    -1.28824E+06    -27.8449E-03     55.7500E-03    -27.9051E-03    -150.769E-06    -27.7244E-03     55.6408E-03    -27.7815E-03    -169.486E-06
            1357     1.75128E-03     114.265E-03     32.9826E+06    -1.28042E+06     35.4679E+06    -2.09607E+06    -28.1986E-03     56.1713E-03    -27.9727E-03    -239.073E-06    -28.0847E-03     56.0644E-03    -27.8413E-03    -270.070E-06
            1358     2.62653E-03     114.279E-03     31.6729E+06    -1.93241E+06     37.0364E+06    -3.22488E+06    -28.6884E-03     56.8638E-03    -28.1754E-03    -327.117E-06    -28.5824E-03     56.7532E-03    -28.0333E-03    -374.769E-06
            1359     3.50095E-03     114.296E-03     30.2489E+06    -1.80871E+06     38.1599E+06    -4.07782E+06    -29.3799E-03     57.8309E-03    -28.4510E-03    -388.349E-06    -29.2829E-03     57.7214E-03    -28.3014E-03    -449.315E-06
            1360     4.37484E-03     114.319E-03     28.5141E+06    -771.019E+03     40.2710E+06    -4.77879E+06    -30.2835E-03     59.0935E-03    -28.8100E-03    -458.829E-06    -30.2000E-03     58.9887E-03    -28.6489E-03    -531.453E-06
            1361     5.24744E-03     114.348E-03     26.2831E+06    -908.647E+03     42.7180E+06    -4.95936E+06    -31.3916E-03     60.6466E-03    -29.2550E-03    -556.636E-06    -31.3229E-03     60.5408E-03    -29.0782E-03    -634.611E-06
            1362     6.11919E-03     114.383E-03     24.5476E+06    -825.709E+03     45.7746E+06    -4.89675E+06    -32.7073E-03     62.4931E-03    -29.7858E-03    -691.890E-06    -32.6522E-03     62.3858E-03    -29.5914E-03    -772.633E-06
            1363     6.98914E-03     114.423E-03     22.9491E+06    -584.989E+03     49.4308E+06    -5.08715E+06    -34.2318E-03     64.6389E-03    -30.4070E-03    -865.456E-06    -34.1910E-03     64.5297E-03    -30.1923E-03    -953.002E-06
            1364     7.85781E-03     114.473E-03     21.1875E+06    -89.9786E+03     53.6964E+06    -4.83453E+06    -35.9160E-03     67.0380E-03    -31.1221E-03    -1.05060E-03    -35.8916E-03     66.9275E-03    -30.8842E-03    -1.14009E-03
            1365     8.72418E-03     114.530E-03     19.9176E+06     234.727E+03     57.4221E+06    -4.03036E+06    -37.7220E-03     69.6483E-03    -31.9264E-03    -1.22611E-03    -37.7109E-03     69.5357E-03    -31.6685E-03    -1.31121E-03
            1366     9.58871E-03     114.599E-03     18.4925E+06    -41.3907E+03     59.4972E+06    -4.04860E+06    -39.4280E-03     72.2388E-03    -32.8108E-03    -1.40219E-03    -39.4280E-03     72.1234E-03    -32.5401E-03    -1.49412E-03
            1367     10.4508E-03     114.679E-03     16.7176E+06    -1.01912E+06     61.3297E+06    -3.75101E+06    -40.3058E-03     74.0521E-03    -33.7463E-03    -1.21262E-03    -40.3174E-03     73.9314E-03    -33.4624E-03    -1.30685E-03
            1368     11.3109E-03     114.776E-03     15.7876E+06    -2.01654E+06     60.5474E+06    -3.85425E+06    -40.1356E-03     74.7982E-03    -34.6626E-03    -38.3109E-06    -40.1517E-03     74.6737E-03    -34.3799E-03    -138.199E-06
            1369     12.1739E-03     114.887E-03     13.9412E+06    -3.21270E+06     61.7859E+06    -4.56382E+06    -39.2588E-03     74.8210E-03    -35.5622E-03     3.66024E-03    -39.2868E-03     74.6902E-03    -35.2689E-03     3.54873E-03
            1370     13.0306E-03     115.031E-03     11.9161E+06    -1.85964E+06     67.4022E+06    -5.87779E+06    -37.8585E-03     74.3187E-03    -36.4602E-03     12.6291E-03    -37.9098E-03     74.1879E-03    -36.1377E-03     12.5011E-03
            1371     13.8957E-03     115.199E-03     9.30157E+06    -2.60425E+06     61.0909E+06    -4.76751E+06    -38.5267E-03     75.9025E-03    -37.3758E-03     31.4103E-03    -38.5882E-03     75.7822E-03    -37.0800E-03     31.2929E-03
            1372     14.7519E-03     115.428E-03     13.9276E+06    -4.17889E+06     65.7352E+06     343.186E+03    -38.1177E-03     76.5410E-03    -38.4234E-03     64.9862E-03    -38.1938E-03     76.4356E-03    -38.1088E-03     64.9009E-03
            1373     15.6124E-03     115.707E-03     19.2859E+06     5.07128E+06     77.1707E+06    -5.31639E+06    -20.8907E-03     59.8574E-03    -38.9667E-03     91.4177E-03    -21.0092E-03     59.8298E-03    -38.6162E-03     91.2531E-03
            1374     16.4895E-03     115.975E-03     10.2392E+06     4.75840E+06     41.5408E+06    -4.27273E+06     9.78178E-03     28.2140E-03    -37.9958E-03     76.8235E-03     9.69444E-03     28.2287E-03    -37.8098E-03     76.7447E-03
            1375     16.6447E-03     57.8230E-03    -5.69790E+06     186.199E+06     98.6454E+06     163.963E+03    -44.0655E-03     71.2757E-03    -27.2102E-03     346.444E-03    -60.4502E-03     88.0151E-03    -26.9787E-03     355.125E-03
            1376     15.7693E-03     57.4552E-03    -9.94873E+06     130.727E+06     31.9702E+06     258.373E+03    -44.0835E-03     71.0776E-03    -26.9941E-03     305.986E-03    -53.2956E-03     80.6257E-03    -27.0094E-03     307.252E-03
            1377     14.8912E-03     57.2250E-03    -11.2070E+06     54.0359E+06    -22.8923E+06     806.593E+03    -34.5138E-03     61.3626E-03    -26.8488E-03     176.321E-03    -36.2090E-03     63.2763E-03    -27.0254E-03     176.044E-03
            1378     14.0162E-03     57.1181E-03    -9.84696E+06     966.908E+03    -27.1596E+06     609.990E+03    -29.0161E-03     55.9242E-03    -26.9081E-03     93.6322E-03    -29.3958E-03     56.3512E-03    -27.0311E-03     93.4043E-03
            1379     13.1394E-03     57.0467E-03    -8.73780E+06    -23.5343E+06    -11.3045E+06     327.533E+03    -28.3292E-03     55.3548E-03    -27.0256E-03     76.7366E-03    -28.4945E-03     55.4383E-03    -27.0353E-03     76.5637E-03
            1380     12.2643E-03     56.9715E-03    -9.34823E+06    -39.1234E+06    -4.84152E+06     408.157E+03    -28.4036E-03     55.4914E-03    -27.0878E-03     76.9112E-03    -28.5069E-03     55.4366E-03    -27.0417E-03     76.7707E-03
            1381     11.3875E-03     56.9010E-03    -9.83873E+06    -60.8831E+06    -6.82185E+06     588.385E+03    -28.3027E-03     55.4179E-03    -27.1152E-03     71.0111E-03    -28.3360E-03     55.2199E-03    -27.0467E-03     70.9002E-03
            1382     10.5119E-03     56.8361E-03    -10.1616E+06    -76.8886E+06    -6.05180E+06     519.468E+03    -28.1836E-03     55.3272E-03    -27.1436E-03     64.5684E-03    -28.1678E-03     55.0199E-03    -27.0476E-03     64.4829E-03
            1383     9.63578E-03     56.7779E-03    -10.4847E+06    -83.1624E+06    -752.909E+03     636.321E+03    -27.9606E-03     55.1415E-03    -27.1810E-03     59.2153E-03    -27.9277E-03     54.7784E-03    -27.0489E-03     59.1513E-03
            1384     8.75976E-03     56.7240E-03    -11.2496E+06    -88.2873E+06    -118.939E+03     690.443E+03    -27.7568E-03     54.9572E-03    -27.2004E-03     53.7614E-03    -27.7095E-03     54.5568E-03    -27.0567E-03     53.7141E-03
            1385     7.88356E-03     56.6758E-03    -12.5137E+06    -92.9169E+06    -952.884E+03     409.335E+03    -27.7099E-03     54.9218E-03    -27.2118E-03     48.2690E-03    -27.6531E-03     54.4935E-03    -27.0637E-03     48.2301E-03
            1386     7.00786E-03     56.6323E-03    -13.7167E+06    -94.0449E+06    -1.25984E+06     636.667E+03    -27.5897E-03     54.8060E-03    -27.2163E-03     42.6620E-03    -27.5313E-03     54.3687E-03    -27.0663E-03     42.6358E-03
            1387     6.13167E-03     56.5948E-03    -15.2279E+06    -95.4762E+06    -4.30595E+06     916.878E+03    -27.4767E-03     54.6844E-03    -27.2077E-03     37.1141E-03    -27.4156E-03     54.2428E-03    -27.0687E-03     37.0992E-03
            1388     5.25583E-03     56.5617E-03    -16.7541E+06    -97.3016E+06    -8.04105E+06     1.01553E+06    -27.3971E-03     54.5926E-03    -27.1955E-03     31.5988E-03    -27.3330E-03     54.1469E-03    -27.0703E-03     31.5913E-03
            1389     4.37977E-03     56.5346E-03    -18.2325E+06    -98.8604E+06    -12.0254E+06     754.531E+03    -27.3037E-03     54.4857E-03    -27.1820E-03     26.1999E-03    -27.2370E-03     54.0383E-03    -27.0724E-03     26.1939E-03
            1390     3.50387E-03     56.5119E-03    -19.5265E+06    -100.519E+06    -15.3141E+06     330.498E+03    -27.2471E-03     54.4206E-03    -27.1735E-03     20.8887E-03    -27.1785E-03     53.9703E-03    -27.0760E-03     20.8814E-03
            1391     2.62781E-03     56.4948E-03    -20.4998E+06    -101.856E+06    -17.6032E+06     233.113E+03    -27.2100E-03     54.3780E-03    -27.1680E-03     15.6461E-03    -27.1402E-03     53.9249E-03    -27.0786E-03     15.6408E-03
            1392     1.75197E-03     56.4822E-03    -21.1924E+06    -102.879E+06    -19.8301E+06     262.359E+03    -27.1868E-03     54.3453E-03    -27.1586E-03     10.5225E-03    -27.1152E-03     53.8909E-03    -27.0778E-03     10.5205E-03
            1393     875.930E-06     56.4748E-03    -21.7660E+06    -103.758E+06    -21.1632E+06     213.014E+03    -27.1661E-03     54.3107E-03    -27.1446E-03     5.68612E-03    -27.0939E-03     53.8544E-03    -27.0684E-03     5.68608E-03
            1394     16.6447E-03     56.8199E-03    -6.09986E+06     185.666E+06     97.9418E+06     79.3671E+03    -44.1687E-03     71.3772E-03    -27.2084E-03     346.531E-03    -60.5665E-03     88.1284E-03    -26.9791E-03     355.218E-03
            1395     15.7678E-03     56.4553E-03    -10.2921E+06     130.565E+06     32.0853E+06     950.962E+03    -44.2063E-03     71.1978E-03    -26.9915E-03     306.324E-03    -53.4240E-03     80.7494E-03    -27.0054E-03     307.598E-03
            1396     14.8925E-03     56.2243E-03    -11.0252E+06     54.6516E+06    -20.5762E+06     414.298E+03    -34.6083E-03     61.4589E-03    -26.8506E-03     176.357E-03    -36.3065E-03     63.3717E-03    -27.0168E-03     176.072E-03
            1397     14.0159E-03     56.1167E-03    -9.77961E+06     1.43951E+06    -26.1296E+06    -56.2794E+03    -28.9842E-03     55.8856E-03    -26.9014E-03     93.4285E-03    -29.3657E-03     56.3133E-03    -27.0200E-03     93.1922E-03
            1398     13.1409E-03     56.0464E-03    -9.30400E+06    -24.1998E+06    -11.9727E+06     590.414E+03    -28.1915E-03     55.2094E-03    -27.0179E-03     76.9683E-03    -28.3573E-03     55.2910E-03    -27.0292E-03     76.8000E-03
            1399     12.2631E-03     55.9710E-03    -9.16617E+06    -39.0805E+06    -4.78463E+06     614.142E+03    -28.4004E-03     55.4872E-03    -27.0868E-03     77.1716E-03    -28.5033E-03     55.4327E-03    -27.0408E-03     77.0338E-03
            1400     11.3883E-03     55.8995E-03    -9.42206E+06    -60.5828E+06    -6.62563E+06     547.711E+03    -28.4123E-03     55.5227E-03    -27.1104E-03     71.0341E-03    -28.4442E-03     55.3253E-03    -27.0420E-03     70.9223E-03
            1401     10.5118E-03     55.8361E-03    -9.56411E+06    -76.8392E+06    -5.69807E+06     583.526E+03    -28.0838E-03     55.2232E-03    -27.1394E-03     64.5891E-03    -28.0655E-03     54.9147E-03    -27.0426E-03     64.5049E-03
            1402     9.63575E-03     55.7766E-03    -10.0936E+06    -83.3310E+06    -888.792E+03     521.350E+03    -27.8617E-03     55.0454E-03    -27.1837E-03     59.1553E-03    -27.8261E-03     54.6808E-03    -27.0527E-03     59.0903E-03
            1403     8.75961E-03     55.7238E-03    -11.3354E+06    -87.8532E+06     167.032E+03     604.390E+03    -27.8283E-03     55.0346E-03    -27.2063E-03     53.7163E-03    -27.7825E-03     54.6362E-03    -27.0617E-03     53.6675E-03
            1404     7.88384E-03     55.6745E-03    -12.6899E+06    -92.5952E+06    -1.26447E+06     510.559E+03    -27.7047E-03     54.9166E-03    -27.2119E-03     48.2031E-03    -27.6488E-03     54.4906E-03    -27.0655E-03     48.1656E-03
            1405     7.00760E-03     55.6320E-03    -14.1753E+06    -94.6028E+06    -1.92620E+06     492.595E+03    -27.5991E-03     54.8150E-03    -27.2159E-03     42.6516E-03    -27.5412E-03     54.3766E-03    -27.0678E-03     42.6236E-03
            1406     6.13180E-03     55.5935E-03    -15.5582E+06    -95.5145E+06    -4.28413E+06     809.278E+03    -27.5135E-03     54.7199E-03    -27.2064E-03     37.0712E-03    -27.4540E-03     54.2785E-03    -27.0668E-03     37.0548E-03
            1407     5.25580E-03     55.5613E-03    -16.9168E+06    -97.1232E+06    -8.06272E+06     913.975E+03    -27.3799E-03     54.5713E-03    -27.1914E-03     31.5650E-03    -27.3168E-03     54.1267E-03    -27.0664E-03     31.5562E-03
            1408     4.37984E-03     55.5335E-03    -18.1378E+06    -98.2667E+06    -11.7158E+06     818.438E+03    -27.2988E-03     54.4786E-03    -27.1797E-03     26.1984E-03    -27.2331E-03     54.0335E-03    -27.0695E-03     26.1934E-03
            1409     3.50381E-03     55.5115E-03    -19.3030E+06    -100.014E+06    -15.3855E+06     510.263E+03    -27.2480E-03     54.4169E-03    -27.1689E-03     20.8734E-03    -27.1790E-03     53.9689E-03    -27.0728E-03     20.8683E-03
            1410     2.62792E-03     55.4938E-03    -20.3909E+06    -101.707E+06    -17.8562E+06     199.417E+03    -27.2081E-03     54.3706E-03    -27.1625E-03     15.6417E-03    -27.1377E-03     53.9185E-03    -27.0747E-03     15.6360E-03
            1411     1.75188E-03     55.4817E-03    -21.1414E+06    -102.764E+06    -19.8463E+06     147.303E+03    -27.1816E-03     54.3361E-03    -27.1544E-03     10.5298E-03    -27.1100E-03     53.8821E-03    -27.0740E-03     10.5263E-03
            1412     876.001E-06     55.4738E-03    -21.4005E+06    -103.446E+06    -21.2786E+06     95.7540E+03    -27.1672E-03     54.3038E-03    -27.1366E-03     5.67150E-03    -27.0935E-03     53.8486E-03    -27.0620E-03     5.66994E-03
            1413     16.6449E-03     55.8209E-03    -6.10755E+06     185.701E+06      98.887E+06     85.4079E+03    -44.0642E-03     71.2753E-03    -27.2110E-03     346.686E-03    -60.4603E-03     88.0222E-03    -26.9770E-03     355.381E-03
            1414     15.7682E-03     55.4534E-03    -9.90283E+06     130.492E+06     32.4012E+06     91.4056E+03    -44.2992E-03     71.2904E-03    -26.9912E-03     306.229E-03    -53.5383E-03     80.8637E-03    -27.0041E-03     307.503E-03
            1415     14.8922E-03     55.2233E-03    -10.0337E+06     54.4503E+06    -21.7510E+06     553.543E+03    -34.5717E-03     61.4113E-03    -26.8396E-03     176.207E-03    -36.2630E-03     63.3234E-03    -27.0127E-03     175.923E-03
            1416     14.0167E-03     55.1162E-03    -9.60329E+06     1.27476E+06    -26.5081E+06     787.819E+03    -28.7904E-03     55.6929E-03    -26.9025E-03     93.8023E-03    -29.1676E-03     56.1174E-03    -27.0229E-03     93.5799E-03
            1417     13.1389E-03     55.0460E-03    -9.41022E+06    -24.3688E+06    -12.1101E+06     497.445E+03    -28.3408E-03     55.3636E-03    -27.0228E-03     77.0892E-03    -28.5076E-03     55.4456E-03    -27.0344E-03     76.9184E-03
            1418     12.2646E-03     54.9698E-03    -9.31461E+06    -38.8665E+06    -5.14265E+06     406.025E+03    -28.5018E-03     55.5836E-03    -27.0817E-03     77.1766E-03    -28.6049E-03     55.5305E-03    -27.0376E-03     77.0359E-03
            1419     11.3874E-03     54.8990E-03    -9.34353E+06    -60.7483E+06    -7.03593E+06     581.925E+03    -28.2947E-03     55.4006E-03    -27.1058E-03     70.9065E-03    -28.3251E-03     55.2024E-03    -27.0394E-03     70.7959E-03
            1420     10.5121E-03     54.8348E-03    -9.31721E+06    -76.8409E+06    -5.67376E+06     676.692E+03    -28.0644E-03     55.2060E-03    -27.1416E-03     64.4828E-03    -28.0448E-03     54.8970E-03    -27.0451E-03     64.3998E-03
            1421     9.63566E-03     54.7769E-03    -10.3227E+06    -83.2119E+06    -1.15457E+06     638.979E+03    -27.9275E-03     55.1105E-03    -27.1830E-03     59.2684E-03    -27.8930E-03     54.7473E-03    -27.0532E-03     59.2047E-03
            1422     8.75980E-03     54.7220E-03    -11.2328E+06    -88.1231E+06     92.5367E+03     491.445E+03    -27.8248E-03     55.0287E-03    -27.2039E-03     53.7362E-03    -27.7779E-03     54.6289E-03    -27.0594E-03     53.6861E-03
            1423     7.88366E-03     54.6746E-03    -12.3824E+06    -92.1321E+06    -160.602E+03     645.569E+03    -27.7213E-03     54.9343E-03    -27.2130E-03     48.1785E-03    -27.6661E-03     54.5085E-03    -27.0622E-03     48.1427E-03
            1424     7.00775E-03     54.6305E-03    -13.9978E+06    -94.5629E+06    -2.08524E+06     569.365E+03    -27.6185E-03     54.8273E-03    -27.2088E-03     42.6133E-03    -27.5595E-03     54.3890E-03    -27.0618E-03     42.5863E-03
            1425     6.13183E-03     54.5932E-03    -15.5145E+06    -95.7561E+06    -4.99561E+06     601.532E+03    -27.4763E-03     54.6741E-03    -27.1978E-03     36.9879E-03    -27.4152E-03     54.2325E-03    -27.0614E-03     36.9689E-03
            1426     5.25581E-03     54.5603E-03    -16.8851E+06    -96.8647E+06    -8.03176E+06     715.735E+03    -27.3725E-03     54.5609E-03    -27.1884E-03     31.5766E-03    -27.3096E-03     54.1175E-03    -27.0636E-03     31.5653E-03
            1427     4.37982E-03     54.5331E-03    -18.1002E+06    -98.0010E+06    -11.4251E+06     637.225E+03    -27.3078E-03     54.4849E-03    -27.1771E-03     26.1927E-03    -27.2426E-03     54.0407E-03    -27.0658E-03     26.1853E-03
            1428     3.50389E-03     54.5104E-03    -19.1630E+06    -99.5698E+06    -14.9054E+06     614.246E+03    -27.2441E-03     54.4093E-03    -27.1652E-03     20.8611E-03    -27.1757E-03     53.9626E-03    -27.0675E-03     20.8574E-03
            1429     2.62785E-03     54.4934E-03    -20.1484E+06    -101.313E+06    -17.7964E+06     396.199E+03    -27.2000E-03     54.3570E-03    -27.1569E-03     15.6460E-03    -27.1290E-03     53.9064E-03    -27.0698E-03     15.6429E-03
            1430     1.75196E-03     54.4807E-03    -20.9734E+06    -102.613E+06    -19.9724E+06     130.501E+03    -27.1704E-03     54.3220E-03    -27.1516E-03     10.5168E-03    -27.0980E-03     53.8687E-03    -27.0723E-03     10.5132E-03
            1431     875.924E-06     54.4734E-03    -21.4900E+06    -103.240E+06    -21.1143E+06     96.5239E+03    -27.1592E-03     54.3050E-03    -27.1459E-03     5.67250E-03    -27.0864E-03     53.8508E-03    -27.0706E-03     5.67094E-03
            1432     16.6448E-03     54.8209E-03    -5.58390E+06     185.890E+06     98.8236E+06     386.387E+03    -44.3947E-03     71.5993E-03    -27.2046E-03     346.536E-03    -60.7952E-03     88.3533E-03    -26.9719E-03     355.205E-03
            1433     15.7685E-03     54.4518E-03    -9.78470E+06     130.321E+06     31.9591E+06     285.439E+03    -44.2059E-03     71.1837E-03    -26.9778E-03     306.327E-03    -53.4433E-03     80.7564E-03    -26.9928E-03     307.581E-03
            1434     14.8926E-03     54.2229E-03    -11.1256E+06     53.7585E+06    -22.7811E+06     536.017E+03    -34.2686E-03     61.1057E-03    -26.8370E-03     175.917E-03    -35.9542E-03     63.0086E-03    -27.0128E-03     175.643E-03
            1435     14.0150E-03     54.1159E-03    -9.54345E+06     1.15873E+06    -26.4831E+06     533.897E+03    -28.9833E-03     55.8878E-03    -26.9045E-03     93.5410E-03    -29.3604E-03     56.3119E-03    -27.0248E-03     93.3131E-03
            1436     13.1408E-03     54.0445E-03    -8.54005E+06    -23.6151E+06    -11.1107E+06     317.752E+03    -28.4797E-03     55.4951E-03    -27.0154E-03     76.6559E-03    -28.6449E-03     55.5784E-03    -27.0244E-03     76.4813E-03
            1437     12.2634E-03     53.9694E-03    -8.81584E+06    -39.1361E+06    -4.81933E+06     507.855E+03    -28.3897E-03     55.4604E-03    -27.0707E-03     76.8738E-03    -28.4896E-03     55.4040E-03    -27.0252E-03     76.7352E-03
            1438     11.3885E-03     53.8979E-03    -9.27033E+06    -60.9894E+06    -6.58368E+06     572.418E+03    -28.1204E-03     55.2262E-03    -27.1058E-03     70.9205E-03    -28.1503E-03     55.0258E-03    -27.0369E-03     70.8106E-03
            1439     10.5114E-03     53.8349E-03    -9.80522E+06    -76.6771E+06    -5.87992E+06     700.037E+03    -28.0582E-03     55.2039E-03    -27.1457E-03     64.5559E-03    -28.0409E-03     54.8966E-03    -27.0497E-03     64.4734E-03
            1440     9.63591E-03     53.7751E-03    -10.3773E+06    -83.0118E+06    -1.08669E+06     586.784E+03    -28.0006E-03     55.1856E-03    -27.1850E-03     59.3376E-03    -27.9668E-03     54.8235E-03    -27.0550E-03     59.2730E-03
            1441     8.75970E-03     53.7223E-03    -11.4641E+06    -88.1082E+06    -137.035E+03     618.284E+03    -27.8626E-03     55.0623E-03    -27.1997E-03     53.7503E-03    -27.8165E-03     54.6632E-03    -27.0561E-03     53.7018E-03
            1442     7.88373E-03     53.6729E-03    -12.4583E+06    -92.2981E+06    -451.686E+03     614.872E+03    -27.7607E-03     54.9645E-03    -27.2038E-03     48.1519E-03    -27.7052E-03     54.5384E-03    -27.0541E-03     48.1157E-03
            1443     7.00798E-03     53.6303E-03    -13.8539E+06    -94.1743E+06    -1.86049E+06     717.880E+03    -27.5795E-03     54.7796E-03    -27.2002E-03     42.5497E-03    -27.5207E-03     54.3427E-03    -27.0528E-03     42.5246E-03
            1444     6.13178E-03     53.5921E-03    -15.4704E+06    -95.7298E+06    -5.38939E+06     562.887E+03    -27.4346E-03     54.6259E-03    -27.1913E-03     37.0420E-03    -27.3727E-03     54.1849E-03    -27.0570E-03     37.0228E-03
            1445     5.25582E-03     53.5598E-03    -16.7468E+06    -96.7306E+06    -8.10709E+06     474.250E+03    -27.3855E-03     54.5702E-03    -27.1848E-03     31.5770E-03    -27.3220E-03     54.1274E-03    -27.0608E-03     31.5626E-03
            1446     4.37988E-03     53.5320E-03    -17.9975E+06    -97.8419E+06    -11.2730E+06     512.130E+03    -27.3058E-03     54.4789E-03    -27.1730E-03     26.1757E-03    -27.2406E-03     54.0351E-03    -27.0614E-03     26.1668E-03
            1447     3.50386E-03     53.5100E-03    -19.1675E+06    -99.3849E+06    -14.6735E+06     504.520E+03    -27.2417E-03     54.4027E-03    -27.1610E-03     20.8581E-03    -27.1739E-03     53.9566E-03    -27.0625E-03     20.8531E-03
            1448     2.62793E-03     53.4924E-03    -20.0801E+06    -100.885E+06    -17.4113E+06     482.197E+03    -27.1951E-03     54.3475E-03    -27.1523E-03     15.6329E-03    -27.1250E-03     53.8984E-03    -27.0640E-03     15.6309E-03
            1449     1.75190E-03     53.4802E-03    -20.8272E+06    -102.266E+06    -19.7156E+06     304.845E+03    -27.1630E-03     54.3095E-03    -27.1465E-03     10.5054E-03    -27.0907E-03     53.8573E-03    -27.0666E-03     10.5040E-03
            1450     875.983E-06     53.4723E-03    -21.3515E+06    -103.073E+06    -21.1107E+06     72.8436E+03    -27.1344E-03     54.2945E-03    -27.1601E-03     5.68593E-03    -27.0612E-03     53.8409E-03    -27.0852E-03     5.68405E-03
            1451     16.6449E-03     53.8179E-03    -5.89489E+06     185.348E+06     98.2876E+06     231.925E+03    -44.4440E-03     71.6362E-03    -27.1922E-03     346.608E-03    -60.8678E-03     88.4120E-03    -26.9609E-03     355.266E-03
            1452     15.7693E-03     53.4525E-03    -10.1198E+06     130.210E+06     32.4347E+06     598.069E+03    -44.0621E-03     71.0302E-03    -26.9681E-03     305.641E-03    -53.2607E-03     80.5611E-03    -26.9801E-03     306.900E-03
            1453     14.8914E-03     53.2220E-03    -10.8052E+06     54.1690E+06    -20.7575E+06    -76.7526E+03    -34.3067E-03     61.1394E-03    -26.8327E-03     175.962E-03    -35.9914E-03     63.0382E-03    -26.9993E-03     175.681E-03
            1454     14.0173E-03     53.1149E-03    -9.52745E+06     1.06742E+06    -26.1156E+06    -197.986E+03    -29.1041E-03     55.9913E-03    -26.8872E-03     93.4801E-03    -29.4838E-03     56.4168E-03    -27.0056E-03     93.2413E-03
            1455     13.1397E-03     53.0436E-03    -8.58274E+06    -23.9367E+06    -11.4830E+06     568.679E+03    -28.2756E-03     55.2722E-03    -26.9967E-03     76.7152E-03    -28.4383E-03     55.3528E-03    -27.0069E-03     76.5461E-03
            1456     12.2651E-03     52.9688E-03    -8.61826E+06    -39.0145E+06    -4.70286E+06     765.054E+03    -28.1808E-03     55.2483E-03    -27.0675E-03     77.1224E-03    -28.2797E-03     55.1917E-03    -27.0219E-03     76.9886E-03
            1457     11.3871E-03     52.8978E-03    -8.95212E+06    -61.0401E+06    -6.51689E+06     772.573E+03    -28.1713E-03     55.2800E-03    -27.1087E-03     71.1223E-03    -28.1995E-03     55.0786E-03    -27.0398E-03     71.0151E-03
            1458     10.5121E-03     52.8336E-03    -9.39892E+06    -76.6632E+06    -5.51262E+06     621.552E+03    -28.1067E-03     55.2531E-03    -27.1464E-03     64.5510E-03    -28.0880E-03     54.9448E-03    -27.0491E-03     64.4672E-03
            1459     9.63550E-03     52.7749E-03    -10.1146E+06    -82.5866E+06    -821.685E+03     669.495E+03    -28.0060E-03     55.1883E-03    -27.1823E-03     59.2455E-03    -27.9718E-03     54.8274E-03    -27.0520E-03     59.1820E-03
            1460     8.75981E-03     52.7208E-03    -11.2854E+06    -87.8212E+06       131.6E+03     720.463E+03    -27.9134E-03     55.1074E-03    -27.1940E-03     53.6850E-03    -27.8673E-03     54.7091E-03    -27.0496E-03     53.6377E-03
            1461     7.88403E-03     52.6726E-03    -12.6915E+06    -92.5734E+06    -1.29487E+06     718.384E+03    -27.7057E-03     54.8993E-03    -27.1936E-03     48.1696E-03    -27.6497E-03     54.4734E-03    -27.0475E-03     48.1350E-03
            1462     7.00775E-03     52.6293E-03    -13.8867E+06    -94.2929E+06    -2.24357E+06     672.588E+03    -27.5428E-03     54.7396E-03    -27.1968E-03     42.6015E-03    -27.4834E-03     54.3026E-03    -27.0512E-03     42.5762E-03
            1463     6.13185E-03     52.5918E-03    -15.1843E+06    -95.2058E+06    -5.01166E+06     600.892E+03    -27.4791E-03     54.6684E-03    -27.1894E-03     37.0669E-03    -27.4170E-03     54.2291E-03    -27.0543E-03     37.0481E-03
            1464     5.25586E-03     52.5587E-03    -16.6836E+06    -96.6996E+06    -8.40755E+06     366.960E+03    -27.3773E-03     54.5547E-03    -27.1774E-03     31.5491E-03    -27.3131E-03     54.1124E-03    -27.0550E-03     31.5333E-03
            1465     4.37986E-03     52.5317E-03    -17.9966E+06    -97.7550E+06    -11.2214E+06     392.442E+03    -27.2970E-03     54.4650E-03    -27.1680E-03     26.1601E-03    -27.2320E-03     54.0216E-03    -27.0562E-03     26.1496E-03
            1466     3.50391E-03     52.5090E-03    -19.1371E+06    -99.2249E+06    -14.5407E+06     404.819E+03    -27.2388E-03     54.3949E-03    -27.1561E-03     20.8459E-03    -27.1713E-03     53.9494E-03    -27.0572E-03     20.8395E-03
            1467     2.62791E-03     52.4920E-03    -20.1180E+06    -100.632E+06    -17.2540E+06     381.908E+03    -27.1920E-03     54.3386E-03    -27.1465E-03     15.6294E-03    -27.1226E-03     53.8905E-03    -27.0577E-03     15.6261E-03
            1468     1.75197E-03     52.4792E-03    -20.7935E+06    -101.903E+06    -19.5005E+06     309.396E+03    -27.1565E-03     54.2962E-03    -27.1396E-03     10.4997E-03    -27.0849E-03     53.8455E-03    -27.0592E-03     10.4984E-03
            1469     875.962E-06     52.4720E-03    -21.1902E+06    -102.756E+06    -20.9230E+06     184.833E+03    -27.1280E-03     54.2793E-03    -27.1513E-03     5.69517E-03    -27.0547E-03     53.8268E-03    -27.0762E-03     5.69472E-03
            1470     16.6454E-03     52.8162E-03    -6.13899E+06     185.064E+06     98.8992E+06    -29.6361E+03    -44.3078E-03     71.4915E-03    -27.1837E-03     346.925E-03    -60.7308E-03     88.2628E-03    -26.9487E-03     355.586E-03
            1471     15.7686E-03     52.4518E-03    -9.19184E+06     130.898E+06     33.5061E+06    -215.601E+03    -44.0679E-03     71.0302E-03    -26.9623E-03     305.443E-03    -53.2595E-03     80.5568E-03    -26.9713E-03     306.712E-03
            1472     14.8936E-03     52.2218E-03    -9.62429E+06     54.4436E+06    -21.2430E+06     147.196E+03    -34.4450E-03     61.2593E-03    -26.8144E-03     176.438E-03    -36.1288E-03     63.1639E-03    -26.9856E-03     176.156E-03
            1473     14.0156E-03     52.1134E-03    -9.18878E+06     443.752E+03    -26.6606E+06     673.449E+03    -28.7630E-03     55.6420E-03    -26.8790E-03     93.9922E-03    -29.1367E-03     56.0620E-03    -26.9997E-03     93.7689E-03
            1474     13.1412E-03     52.0435E-03    -9.19599E+06    -24.4686E+06    -12.0808E+06     635.159E+03    -28.0588E-03     55.0682E-03    -27.0095E-03     77.2003E-03    -28.2225E-03     55.1475E-03    -27.0211E-03     77.0340E-03
            1475     12.2627E-03     51.9684E-03    -9.19156E+06    -38.7126E+06    -5.10224E+06     615.215E+03    -28.3622E-03     55.4452E-03    -27.0830E-03     77.5284E-03    -28.4649E-03     55.3926E-03    -27.0390E-03     77.3914E-03
            1476     11.3885E-03     51.8966E-03    -9.49762E+06    -61.0222E+06    -7.11978E+06     620.879E+03    -28.3763E-03     55.4866E-03    -27.1103E-03     71.0638E-03    -28.4067E-03     55.2872E-03    -27.0436E-03     70.9536E-03
            1477     10.5116E-03     51.8332E-03    -9.68614E+06    -76.7059E+06    -5.73599E+06     754.492E+03    -28.1830E-03     55.3211E-03    -27.1381E-03     64.5121E-03    -28.1655E-03     55.0135E-03    -27.0415E-03     64.4296E-03
            1478     9.63610E-03     51.7739E-03    -10.0101E+06    -82.3472E+06    -817.700E+03     918.611E+03    -27.9967E-03     55.1672E-03    -27.1705E-03     59.2082E-03    -27.9622E-03     54.8072E-03    -27.0407E-03     59.1483E-03
            1479     8.75992E-03     51.7202E-03    -10.8937E+06    -88.0080E+06    -47.8298E+03     694.979E+03    -27.8013E-03     54.9881E-03    -27.1868E-03     53.7520E-03    -27.7525E-03     54.5884E-03    -27.0436E-03     53.7049E-03
            1480     7.88376E-03     51.6717E-03    -12.0995E+06    -92.3407E+06    -617.712E+03     696.808E+03    -27.6818E-03     54.8786E-03    -27.1968E-03     48.1505E-03    -27.6240E-03     54.4519E-03    -27.0485E-03     48.1157E-03
            1481     7.00781E-03     51.6288E-03    -13.5605E+06    -94.0459E+06    -2.10894E+06     631.557E+03    -27.6024E-03     54.7978E-03    -27.1954E-03     42.6086E-03    -27.5419E-03     54.3614E-03    -27.0499E-03     42.5826E-03
            1482     6.13188E-03     51.5905E-03    -14.9980E+06    -95.0858E+06    -4.97347E+06     539.650E+03    -27.4945E-03     54.6770E-03    -27.1825E-03     36.9757E-03    -27.4318E-03     54.2379E-03    -27.0477E-03     36.9561E-03
            1483     5.25592E-03     51.5584E-03    -16.4170E+06    -96.3286E+06    -8.12664E+06     530.810E+03    -27.3679E-03     54.5375E-03    -27.1697E-03     31.5209E-03    -27.3033E-03     54.0962E-03    -27.0468E-03     31.5073E-03
            1484     4.37990E-03     51.5305E-03    -17.8732E+06    -97.7433E+06    -11.3845E+06     302.238E+03    -27.2865E-03     54.4457E-03    -27.1592E-03     26.1441E-03    -27.2206E-03     54.0024E-03    -27.0485E-03     26.1324E-03
            1485     3.50393E-03     51.5086E-03    -19.0452E+06    -99.0838E+06    -14.4693E+06     319.715E+03    -27.2284E-03     54.3775E-03    -27.1491E-03     20.8285E-03    -27.1608E-03     53.9325E-03    -27.0502E-03     20.8210E-03
            1486     2.62793E-03     51.4909E-03    -20.0059E+06    -100.449E+06    -17.2545E+06     290.438E+03    -27.1849E-03     54.3245E-03    -27.1396E-03     15.6210E-03    -27.1152E-03     53.8773E-03    -27.0513E-03     15.6165E-03
            1487     1.75196E-03     51.4788E-03    -20.7416E+06    -101.641E+06    -19.5027E+06     239.939E+03    -27.1526E-03     54.2846E-03    -27.1320E-03     10.4872E-03    -27.0811E-03     53.8352E-03    -27.0521E-03     10.4850E-03
            1488     875.958E-06     51.4710E-03    -21.1417E+06    -102.425E+06    -20.8246E+06     117.992E+03    -27.1367E-03     54.2628E-03    -27.1262E-03     5.72136E-03    -27.0638E-03     53.8118E-03    -27.0511E-03     5.72003E-03
            1489     16.6457E-03     51.8183E-03    -6.02808E+06     184.694E+06     97.7515E+06    -98.1890E+03    -44.3469E-03     71.5255E-03    -27.1785E-03     346.831E-03    -60.7401E-03     88.2694E-03    -26.9489E-03     355.513E-03
            1490     15.7689E-03     51.4492E-03    -9.22867E+06     130.484E+06     32.2487E+06    -256.524E+03    -44.1151E-03     71.0736E-03    -26.9585E-03     305.873E-03    -53.3160E-03     80.6115E-03    -26.9731E-03     307.138E-03
            1491     14.8919E-03     51.2218E-03    -10.1035E+06     54.2636E+06    -21.7832E+06     361.186E+03    -34.2163E-03     61.0384E-03    -26.8222E-03     176.311E-03    -35.9000E-03     62.9421E-03    -26.9951E-03     176.035E-03
            1492     14.0171E-03     51.1126E-03    -9.87294E+06     97.5945E+03    -27.3381E+06     942.956E+03    -28.6110E-03     55.5098E-03    -26.8988E-03     94.4187E-03    -28.9850E-03     55.9284E-03    -27.0213E-03     94.2008E-03
            1493     13.1382E-03     51.0439E-03    -9.16577E+06    -24.0183E+06    -11.8274E+06     571.981E+03    -28.3459E-03     55.3742E-03    -27.0283E-03     76.9177E-03    -28.5121E-03     55.4569E-03    -27.0394E-03     76.7476E-03
            1494     12.2646E-03     50.9662E-03    -9.56283E+06    -38.7783E+06    -5.11516E+06     507.846E+03    -28.5133E-03     55.5997E-03    -27.0863E-03     77.0080E-03    -28.6171E-03     55.5467E-03    -27.0418E-03     76.8688E-03
            1495     11.3873E-03     50.8966E-03    -9.83634E+06    -60.9220E+06    -7.18090E+06     556.087E+03    -28.3437E-03     55.4517E-03    -27.1080E-03     70.9794E-03    -28.3758E-03     55.2534E-03    -27.0413E-03     70.8684E-03
            1496     10.5122E-03     50.8316E-03    -9.89317E+06    -76.5319E+06    -6.06446E+06     649.288E+03    -28.2054E-03     55.3396E-03    -27.1342E-03     64.6501E-03    -28.1885E-03     55.0335E-03    -27.0392E-03     64.5665E-03
            1497     9.63593E-03     50.7736E-03    -10.2534E+06    -82.7352E+06    -1.12119E+06     756.048E+03    -27.9778E-03     55.1456E-03    -27.1677E-03     59.3542E-03    -27.9435E-03     54.7844E-03    -27.0385E-03     59.2923E-03
            1498     8.75982E-03     50.7193E-03    -10.9363E+06    -87.7927E+06    -71.9737E+03     737.878E+03    -27.8044E-03     54.9894E-03    -27.1850E-03     53.7792E-03    -27.7560E-03     54.5908E-03    -27.0422E-03     53.7327E-03
            1499     7.88380E-03     50.6713E-03    -12.1945E+06    -92.1284E+06    -774.384E+03     572.941E+03    -27.7350E-03     54.9259E-03    -27.1909E-03     48.0904E-03    -27.6778E-03     54.5006E-03    -27.0436E-03     48.0539E-03
            1500     7.00797E-03     50.6276E-03    -13.5424E+06    -93.7511E+06    -1.83658E+06     623.955E+03    -27.6215E-03     54.8075E-03    -27.1860E-03     42.4942E-03    -27.5618E-03     54.3722E-03    -27.0396E-03     42.4679E-03
            1501     6.13196E-03     50.5903E-03    -15.0224E+06    -94.9428E+06    -4.86815E+06     553.620E+03    -27.4561E-03     54.6285E-03    -27.1723E-03     36.9394E-03    -27.3939E-03     54.1900E-03    -27.0372E-03     36.9201E-03
            1502     5.25593E-03     50.5573E-03    -16.4216E+06    -96.1584E+06    -7.90626E+06     479.344E+03    -27.3634E-03     54.5250E-03    -27.1615E-03     31.5015E-03    -27.2994E-03     54.0842E-03    -27.0378E-03     31.4872E-03
            1503     4.37998E-03     50.5302E-03    -17.7172E+06    -97.4327E+06    -11.1908E+06     421.261E+03    -27.2774E-03     54.4274E-03    -27.1499E-03     26.1324E-03    -27.2115E-03     53.9851E-03    -27.0389E-03     26.1224E-03
            1504     3.50392E-03     50.5075E-03    -19.0011E+06    -99.0416E+06    -14.6204E+06     237.347E+03    -27.2182E-03     54.3570E-03    -27.1388E-03     20.8222E-03    -27.1502E-03     53.9123E-03    -27.0407E-03     20.8138E-03
            1505     2.62799E-03     50.4905E-03    -19.9443E+06    -100.286E+06    -17.1952E+06     235.341E+03    -27.1756E-03     54.3058E-03    -27.1303E-03     15.6016E-03    -27.1059E-03     53.8592E-03    -27.0419E-03     15.5964E-03
            1506     1.75195E-03     50.4778E-03    -20.6519E+06    -101.439E+06    -19.4692E+06     186.240E+03    -27.1485E-03     54.2691E-03    -27.1206E-03     10.4738E-03    -27.0769E-03     53.8205E-03    -27.0409E-03     10.4710E-03
            1507     876.034E-06     50.4706E-03    -21.0361E+06    -102.146E+06    -20.7675E+06     67.9925E+03    -27.1319E-03     54.2367E-03    -27.1048E-03     5.69025E-03    -27.0590E-03     53.7868E-03    -27.0301E-03     5.68831E-03
            1508     16.6449E-03     50.8159E-03    -5.36341E+06     184.999E+06     97.5145E+06    -8.54255E+03    -44.2476E-03     71.4267E-03    -27.1790E-03     346.247E-03    -60.6330E-03     88.1670E-03    -26.9519E-03     354.943E-03
            1509     15.7687E-03     50.4496E-03    -9.76967E+06     129.253E+06     30.3486E+06     99.3203E+03    -43.7250E-03     70.6900E-03    -26.9650E-03     305.986E-03    -52.9039E-03     80.2050E-03    -26.9865E-03     307.268E-03
            1510     14.8930E-03     50.2201E-03    -10.8624E+06     53.5756E+06    -22.4118E+06     582.934E+03    -34.1589E-03     61.0086E-03    -26.8496E-03     176.631E-03    -35.8442E-03     62.9105E-03    -27.0236E-03     176.364E-03
            1511     14.0141E-03     50.1143E-03    -10.5928E+06     908.038E+03    -27.2205E+06     401.594E+03    -29.1998E-03     56.1133E-03    -26.9134E-03     94.1287E-03    -29.5834E-03     56.5414E-03    -27.0355E-03     93.8968E-03
            1512     13.1414E-03     50.0401E-03    -9.95336E+06    -24.1081E+06    -12.5268E+06     372.286E+03    -28.5399E-03     55.5539E-03    -27.0141E-03     76.6363E-03    -28.7085E-03     55.6380E-03    -27.0273E-03     76.4626E-03
            1513     12.2637E-03     49.9679E-03    -9.16763E+06    -38.9291E+06    -5.18733E+06     603.219E+03    -28.3968E-03     55.4663E-03    -27.0695E-03     76.8054E-03    -28.4975E-03     55.4113E-03    -27.0257E-03     76.6685E-03
            1514     11.3882E-03     49.8942E-03    -9.08466E+06    -60.4826E+06    -6.75788E+06     571.030E+03    -28.1951E-03     55.2965E-03    -27.1014E-03     71.1028E-03    -28.2243E-03     55.0983E-03    -27.0343E-03     70.9931E-03
            1515     10.5117E-03     49.8321E-03    -9.49718E+06    -76.7557E+06    -5.99638E+06     422.859E+03    -28.1096E-03     55.2468E-03    -27.1372E-03     64.5597E-03    -28.0903E-03     54.9386E-03    -27.0421E-03     64.4737E-03
            1516     9.63570E-03     49.7719E-03    -10.3483E+06    -82.9504E+06    -1.10522E+06     466.928E+03    -28.0317E-03     55.2046E-03    -27.1729E-03     59.3136E-03    -27.9977E-03     54.8426E-03    -27.0431E-03     59.2476E-03
            1517     8.75998E-03     49.7192E-03    -11.3979E+06    -87.4205E+06     29.0082E+03     714.435E+03    -27.9444E-03     55.1248E-03    -27.1804E-03     53.6541E-03    -27.8993E-03     54.7287E-03    -27.0369E-03     53.6067E-03
            1518     7.88403E-03     49.6698E-03    -12.3230E+06    -91.8468E+06    -948.988E+03     637.446E+03    -27.7493E-03     54.9246E-03    -27.1753E-03     48.0632E-03    -27.6929E-03     54.5011E-03    -27.0290E-03     48.0276E-03
            1519     7.00804E-03     49.6274E-03    -13.6289E+06    -93.8137E+06    -2.11972E+06     490.127E+03    -27.5567E-03     54.7284E-03    -27.1717E-03     42.4574E-03    -27.4968E-03     54.2932E-03    -27.0265E-03     42.4297E-03
            1520     6.13198E-03     49.5891E-03    -14.9830E+06    -94.6860E+06    -4.77445E+06     553.291E+03    -27.4461E-03     54.6086E-03    -27.1625E-03     36.9515E-03    -27.3842E-03     54.1712E-03    -27.0274E-03     36.9322E-03
            1521     5.25603E-03     49.5570E-03    -16.3866E+06    -96.0216E+06    -8.02665E+06     417.034E+03    -27.3521E-03     54.5030E-03    -27.1509E-03     31.4835E-03    -27.2879E-03     54.0630E-03    -27.0280E-03     31.4685E-03
            1522     4.37996E-03     49.5292E-03    -17.7027E+06    -97.2491E+06    -11.0641E+06     358.480E+03    -27.2767E-03     54.4163E-03    -27.1396E-03     26.1106E-03    -27.2112E-03     53.9748E-03    -27.0282E-03     26.0997E-03
            1523     3.50404E-03     49.5072E-03    -18.8445E+06    -98.8054E+06    -14.4377E+06     318.039E+03    -27.2131E-03     54.3395E-03    -27.1264E-03     20.7982E-03    -27.1449E-03     53.8955E-03    -27.0280E-03     20.7908E-03
            1524     2.62795E-03     49.4896E-03    -19.9174E+06    -100.193E+06    -17.2192E+06     170.309E+03    -27.1636E-03     54.2795E-03    -27.1159E-03     15.5810E-03    -27.0939E-03     53.8333E-03    -27.0278E-03     15.5750E-03
            1525     1.75205E-03     49.4775E-03    -20.6245E+06    -101.236E+06    -19.3735E+06     122.182E+03    -27.1361E-03     54.2416E-03    -27.1055E-03     10.4712E-03    -27.0648E-03     53.7939E-03    -27.0257E-03     10.4675E-03
            1526     875.960E-06     49.4696E-03    -21.0980E+06    -102.002E+06    -20.7597E+06      61.326E+03    -27.1098E-03     54.2041E-03    -27.0942E-03     5.65359E-03    -27.0375E-03     53.7549E-03    -27.0195E-03     5.65160E-03
            1527     16.6456E-03     49.8130E-03    -5.35487E+06     184.995E+06     98.0688E+06    -135.536E+03    -43.7970E-03     70.9869E-03    -27.1899E-03     346.832E-03    -60.2255E-03     87.7688E-03    -26.9601E-03     355.561E-03
            1528     15.7691E-03     49.4512E-03    -9.88332E+06     129.190E+06     30.8235E+06     664.036E+03    -43.6167E-03     70.6062E-03    -26.9895E-03     305.683E-03    -52.7778E-03     80.1015E-03    -27.0084E-03     307.010E-03
            1529     14.8893E-03     49.2193E-03    -11.9263E+06     53.6166E+06    -23.3220E+06     617.129E+03    -34.7675E-03     61.6203E-03    -26.8527E-03     176.624E-03    -36.4675E-03     63.5359E-03    -27.0298E-03     176.343E-03
            1530     14.0180E-03     49.1111E-03    -10.1727E+06     1.59813E+06    -27.2061E+06     240.120E+03    -29.3843E-03     56.2778E-03    -26.8935E-03     93.1948E-03    -29.7671E-03     56.7090E-03    -27.0171E-03     92.9577E-03
            1531     13.1391E-03     49.0414E-03    -9.11136E+06    -24.4938E+06    -12.3941E+06     535.587E+03    -28.2400E-03     55.2374E-03    -26.9975E-03     76.6656E-03    -28.4019E-03     55.3161E-03    -27.0107E-03     76.4971E-03
            1532     12.2645E-03     48.9653E-03    -9.53581E+06    -38.9538E+06    -5.60809E+06     374.367E+03    -28.3154E-03     55.3797E-03    -27.0643E-03     77.0788E-03    -28.4176E-03     55.3260E-03    -27.0220E-03     76.9393E-03
            1533     11.3879E-03     48.8953E-03    -9.55745E+06    -60.5483E+06    -7.19688E+06     416.483E+03    -28.2741E-03     55.3703E-03    -27.0962E-03     71.1928E-03    -28.3049E-03     55.1731E-03    -27.0306E-03     71.0809E-03
            1534     10.5119E-03     48.8302E-03    -9.71776E+06    -76.6298E+06    -6.03293E+06     484.837E+03    -28.1354E-03     55.2641E-03    -27.1287E-03     64.4991E-03    -28.1173E-03     54.9570E-03    -27.0337E-03     64.4138E-03
            1535     9.63601E-03     48.7721E-03    -10.3412E+06    -82.6416E+06    -1.16068E+06     469.371E+03    -28.0785E-03     55.2376E-03    -27.1591E-03     59.0683E-03    -28.0448E-03     54.8772E-03    -27.0301E-03     59.0021E-03
            1536     8.75991E-03     48.7173E-03    -11.3158E+06    -87.6791E+06    -108.309E+03     477.524E+03    -27.8961E-03     55.0615E-03    -27.1653E-03     53.5284E-03    -27.8499E-03     54.6641E-03    -27.0223E-03     53.4782E-03
            1537     7.88423E-03     48.6699E-03    -12.3959E+06    -91.7526E+06    -834.575E+03     612.259E+03    -27.6998E-03     54.8646E-03    -27.1648E-03     48.0308E-03    -27.6439E-03     54.4415E-03    -27.0180E-03     47.9951E-03
            1538     7.00800E-03     48.6262E-03    -13.6104E+06    -93.6992E+06    -2.17332E+06     482.300E+03    -27.5494E-03     54.7117E-03    -27.1623E-03     42.5083E-03    -27.4894E-03     54.2771E-03    -27.0175E-03     42.4807E-03
            1539     6.13211E-03     48.5888E-03    -14.9620E+06    -94.6556E+06    -4.95034E+06     402.889E+03    -27.4477E-03     54.5994E-03    -27.1517E-03     36.9270E-03    -27.3854E-03     54.1624E-03    -27.0175E-03     36.9058E-03
            1540     5.25601E-03     48.5560E-03    -16.2719E+06    -95.7483E+06    -7.87627E+06     420.683E+03    -27.3505E-03     54.4901E-03    -27.1396E-03     31.4629E-03    -27.2863E-03     54.0511E-03    -27.0165E-03     31.4480E-03
            1541     4.38011E-03     48.5288E-03    -17.6310E+06    -97.1480E+06    -11.0899E+06     309.031E+03    -27.2712E-03     54.3973E-03    -27.1261E-03     26.0879E-03    -27.2054E-03     53.9562E-03    -27.0151E-03     26.0765E-03
            1542     3.50401E-03     48.5063E-03    -18.8282E+06    -98.6585E+06    -14.3132E+06     279.095E+03    -27.2041E-03     54.3162E-03    -27.1121E-03     20.7776E-03    -27.1362E-03     53.8727E-03    -27.0133E-03     20.7697E-03
            1543     2.62811E-03     48.4892E-03    -19.7754E+06    -99.9642E+06    -17.1105E+06     236.967E+03    -27.1490E-03     54.2493E-03    -27.1003E-03     15.5765E-03    -27.0791E-03     53.8039E-03    -27.0122E-03     15.5715E-03
            1544     1.75197E-03     48.4766E-03    -20.6063E+06    -101.131E+06    -19.4313E+06     111.965E+03    -27.1118E-03     54.2040E-03    -27.0922E-03     10.4733E-03    -27.0404E-03     53.7568E-03    -27.0128E-03     10.4695E-03
            1545     876.088E-06     48.4692E-03    -21.0394E+06    -101.845E+06    -20.8051E+06     97.8953E+03    -27.0893E-03     54.1836E-03    -27.0943E-03     5.63990E-03    -27.0168E-03     53.7352E-03    -27.0201E-03     5.63840E-03
            1546     16.6446E-03     48.8129E-03    -6.29823E+06     183.679E+06     96.4212E+06     294.766E+03    -43.6436E-03     70.8410E-03    -27.1974E-03     346.965E-03    -60.0186E-03     87.5661E-03    -26.9725E-03     355.687E-03
            1547     15.7662E-03     48.4501E-03    -11.6466E+06     128.759E+06     31.4739E+06     158.611E+03    -44.5579E-03     71.5465E-03    -26.9887E-03     305.152E-03    -53.7602E-03     81.0734E-03    -27.0011E-03     306.407E-03
            1548     14.8951E-03     48.2177E-03    -11.2788E+06     54.6402E+06    -21.0087E+06     150.325E+03    -34.8648E-03     61.6836E-03    -26.8188E-03     175.432E-03    -36.5637E-03     63.5974E-03    -26.9867E-03     175.132E-03
            1549     14.0150E-03     48.1106E-03    -9.66357E+06     1.42930E+06    -27.5540E+06     950.092E+03    -28.6156E-03     55.4784E-03    -26.8628E-03     93.3030E-03    -28.9856E-03     55.8991E-03    -26.9887E-03     93.0853E-03
            1550     13.1416E-03     48.0407E-03    -9.42116E+06    -23.6729E+06    -12.2559E+06     411.878E+03    -28.1453E-03     55.1414E-03    -26.9961E-03     76.7299E-03    -28.3104E-03     55.2245E-03    -27.0094E-03     76.5601E-03
            1551     12.2634E-03     47.9653E-03    -9.63932E+06    -39.0580E+06    -5.72655E+06     378.929E+03    -28.3687E-03     55.4328E-03    -27.0641E-03     77.2167E-03    -28.4711E-03     55.3789E-03    -27.0221E-03     77.0771E-03
            1552     11.3881E-03     47.8935E-03    -10.0759E+06    -61.0508E+06    -7.52155E+06     311.439E+03    -28.3988E-03     55.4877E-03    -27.0890E-03     70.9174E-03    -28.4313E-03     55.2895E-03    -27.0235E-03     70.8031E-03
            1553     10.5122E-03     47.8303E-03    -10.0522E+06    -76.2017E+06    -6.04543E+06     427.889E+03    -28.2525E-03     55.3626E-03    -27.1102E-03     64.5406E-03    -28.2369E-03     55.0584E-03    -27.0153E-03     64.4540E-03
            1554     9.63624E-03     47.7704E-03    -10.5719E+06    -82.7897E+06    -1.42334E+06     469.026E+03    -28.0160E-03     55.1521E-03    -27.1361E-03     59.0886E-03    -27.9826E-03     54.7914E-03    -27.0079E-03     59.0230E-03
            1555     8.76045E-03     47.7175E-03    -11.4314E+06    -87.7720E+06    -400.244E+03     401.604E+03    -27.7809E-03     54.9298E-03    -27.1489E-03     53.5483E-03    -27.7344E-03     54.5323E-03    -27.0070E-03     53.4977E-03
            1556     7.88390E-03     47.6685E-03    -12.4003E+06    -91.7106E+06    -962.051E+03     413.446E+03    -27.6617E-03     54.8172E-03    -27.1555E-03     47.9997E-03    -27.6057E-03     54.3944E-03    -27.0093E-03     47.9616E-03
            1557     7.00824E-03     47.6260E-03    -13.6494E+06    -93.4702E+06    -2.05373E+06     433.272E+03    -27.5694E-03     54.7230E-03    -27.1536E-03     42.4612E-03    -27.5102E-03     54.2894E-03    -27.0085E-03     42.4329E-03
            1558     6.13206E-03     47.5878E-03    -15.0537E+06    -94.5498E+06    -4.98082E+06     300.519E+03    -27.4467E-03     54.5865E-03    -27.1398E-03     36.9018E-03    -27.3849E-03     54.1501E-03    -27.0058E-03     36.8793E-03
            1559     5.25620E-03     47.5556E-03    -16.3740E+06    -95.7235E+06    -7.91674E+06     292.284E+03    -27.3472E-03     54.4732E-03    -27.1259E-03     31.4380E-03    -27.2836E-03     54.0345E-03    -27.0030E-03     31.4215E-03
            1560     4.38007E-03     47.5279E-03    -17.6479E+06    -96.9350E+06    -11.0214E+06     328.574E+03    -27.2581E-03     54.3695E-03    -27.1114E-03     26.0627E-03    -27.1928E-03     53.9294E-03    -27.0004E-03     26.0516E-03
            1561     3.50416E-03     47.5059E-03    -18.8647E+06    -98.5563E+06    -14.4559E+06     232.752E+03    -27.1874E-03     54.2839E-03    -27.0965E-03     20.7589E-03    -27.1196E-03     53.8412E-03    -26.9985E-03     20.7504E-03
            1562     2.62801E-03     47.4884E-03    -19.8732E+06    -99.8315E+06    -17.1278E+06     208.526E+03    -27.1336E-03     54.2192E-03    -27.0856E-03     15.5589E-03    -27.0643E-03     53.7746E-03    -26.9977E-03     15.5535E-03
            1563     1.75212E-03     47.4762E-03    -20.5221E+06    -100.938E+06    -19.4164E+06     163.306E+03    -27.0932E-03     54.1718E-03    -27.0786E-03     10.4585E-03    -27.0217E-03     53.7255E-03    -26.9996E-03     10.4553E-03
            1564     875.908E-06     47.4684E-03    -20.9529E+06    -101.670E+06    -20.6579E+06     68.8518E+03    -27.0717E-03     54.1602E-03    -27.0885E-03     5.65025E-03    -26.9992E-03     53.7124E-03    -27.0140E-03     5.64838E-03
            1565     16.6446E-03     47.8202E-03    -6.25406E+06     183.787E+06     97.0818E+06     896.878E+03    -44.4817E-03     71.6704E-03    -27.1888E-03     346.396E-03    -60.8150E-03     88.3524E-03    -26.9608E-03     355.065E-03
            1566     15.7703E-03     47.4424E-03    -9.55567E+06     129.178E+06     31.1330E+06     286.451E+03    -44.8862E-03     71.8320E-03    -26.9458E-03     306.154E-03    -54.1125E-03     81.3928E-03    -26.9636E-03     307.343E-03
            1567     14.8926E-03     47.2202E-03    -10.4183E+06     54.6174E+06    -22.5817E+06     417.683E+03    -34.3958E-03     61.1759E-03    -26.7802E-03     174.999E-03    -36.0685E-03     63.0711E-03    -26.9572E-03     174.713E-03
            1568     14.0178E-03     47.1097E-03    -10.4399E+06     1.55752E+06    -27.2344E+06     484.268E+03    -28.4670E-03     55.3193E-03    -26.8523E-03     93.8967E-03    -28.8408E-03     55.7406E-03    -26.9756E-03     93.6754E-03
            1569     13.1387E-03     47.0405E-03    -9.40209E+06    -23.5214E+06    -11.5001E+06     15.4822E+03    -28.1974E-03     55.1865E-03    -26.9892E-03     76.6091E-03    -28.3648E-03     55.2704E-03    -26.9989E-03     76.4333E-03
            1570     12.2648E-03     46.9639E-03    -9.37837E+06    -38.8565E+06    -5.02095E+06     344.813E+03    -28.4423E-03     55.4928E-03    -27.0504E-03     76.8766E-03    -28.5443E-03     55.4381E-03    -27.0056E-03     76.7362E-03
            1571     11.3881E-03     46.8934E-03    -9.67555E+06    -60.8266E+06    -7.01573E+06     343.588E+03    -28.3218E-03     55.3947E-03    -27.0729E-03     71.0440E-03    -28.3533E-03     55.1963E-03    -27.0057E-03     70.9306E-03
            1572     10.5124E-03     46.8286E-03    -9.94954E+06    -76.8024E+06    -6.11135E+06     282.407E+03    -28.2231E-03     55.3191E-03    -27.0960E-03     64.5199E-03    -28.2058E-03     55.0115E-03    -27.0008E-03     64.4317E-03
            1573     9.63641E-03     46.7705E-03    -10.2100E+06    -82.9926E+06    -1.11930E+06      275.84E+03    -27.9422E-03     55.0687E-03    -27.1266E-03     59.1502E-03    -27.9070E-03     54.7059E-03    -26.9970E-03     59.0825E-03
            1574     8.75999E-03     46.7163E-03    -10.9839E+06    -87.2195E+06     160.208E+03     390.639E+03    -27.7959E-03     54.9372E-03    -27.1413E-03     53.5965E-03    -27.7488E-03     54.5410E-03    -26.9981E-03     53.5459E-03
            1575     7.88450E-03     46.6684E-03    -12.3549E+06    -91.6275E+06    -837.622E+03     333.020E+03    -27.6836E-03     54.8276E-03    -27.1440E-03     48.0199E-03    -27.6276E-03     54.4049E-03    -26.9974E-03     47.9807E-03
            1576     7.00809E-03     46.6248E-03    -13.6388E+06    -93.4466E+06    -2.20200E+06     293.280E+03    -27.5547E-03     54.6938E-03    -27.1391E-03     42.4153E-03    -27.4951E-03     54.2605E-03    -26.9948E-03     42.3853E-03
            1577     6.13232E-03     46.5875E-03    -14.9635E+06    -94.3809E+06    -4.98530E+06     307.870E+03    -27.4433E-03     54.5681E-03    -27.1248E-03     36.8570E-03    -27.3813E-03     54.1324E-03    -26.9912E-03     36.8347E-03
            1578     5.25613E-03     46.5546E-03    -16.4159E+06    -95.7050E+06    -8.10537E+06     219.392E+03    -27.3357E-03     54.4449E-03    -27.1092E-03     31.4002E-03    -27.2719E-03     54.0067E-03    -26.9872E-03     31.3828E-03
            1579     4.38027E-03     46.5275E-03    -17.7103E+06    -96.8858E+06    -11.0642E+06     227.089E+03    -27.2426E-03     54.3375E-03    -27.0948E-03     26.0245E-03    -27.1776E-03     53.8977E-03    -26.9840E-03     26.0121E-03
            1580     3.50409E-03     46.5051E-03    -18.8554E+06    -98.3738E+06    -14.3831E+06     240.660E+03    -27.1712E-03     54.2511E-03    -27.0799E-03     20.7281E-03    -27.1037E-03     53.8091E-03    -26.9818E-03     20.7198E-03
            1581     2.62821E-03     46.4880E-03    -19.8561E+06    -99.7129E+06    -17.1275E+06     149.206E+03    -27.1187E-03     54.1869E-03    -27.0681E-03     15.5299E-03    -27.0495E-03     53.7428E-03    -26.9804E-03     15.5237E-03
            1582     1.75199E-03     46.4755E-03    -20.6180E+06    -100.784E+06    -19.2811E+06     90.8395E+03    -27.0828E-03     54.1415E-03    -27.0587E-03     10.4330E-03    -27.0123E-03     53.6959E-03    -26.9791E-03     10.4290E-03
            1583     876.168E-06     46.4680E-03    -20.9573E+06    -101.551E+06    -20.7104E+06     48.9868E+03    -27.0457E-03     54.1129E-03    -27.0673E-03     5.64798E-03    -26.9733E-03     53.6658E-03    -26.9932E-03     5.64587E-03
            1584     16.6461E-03     46.8122E-03    -5.63044E+06     184.359E+06     97.8340E+06     450.721E+03    -44.9232E-03     72.0842E-03    -27.1609E-03     346.152E-03    -61.2796E-03     88.7913E-03    -26.9309E-03     354.755E-03
            1585     15.7688E-03     46.4472E-03    -9.04121E+06     129.625E+06     32.1080E+06     1.48308E+06    -43.9677E-03     70.8978E-03    -26.9301E-03     306.524E-03    -53.1543E-03     80.4194E-03    -26.9444E-03     307.766E-03
            1586     14.8930E-03     46.2147E-03    -11.3476E+06     54.2524E+06    -21.5143E+06     581.807E+03    -34.0439E-03     60.8516E-03    -26.8077E-03     175.721E-03    -35.7146E-03     62.7370E-03    -26.9775E-03     175.456E-03
            1587     14.0162E-03     46.1129E-03    -9.77567E+06     2.05023E+06    -26.0752E+06    -608.870E+03    -29.2137E-03     56.0816E-03    -26.8679E-03     94.2078E-03    -29.5970E-03     56.5132E-03    -26.9871E-03     93.9630E-03
            1588     13.1419E-03     46.0373E-03    -8.52867E+06    -23.9512E+06    -11.4813E+06     404.586E+03    -28.3833E-03     55.3542E-03    -26.9709E-03     77.0764E-03    -28.5458E-03     55.4347E-03    -26.9812E-03     76.9050E-03
            1589     12.2644E-03     45.9651E-03    -8.74562E+06    -38.7937E+06    -4.80136E+06     388.037E+03    -28.3556E-03     55.3848E-03    -27.0292E-03     76.8607E-03    -28.4544E-03     55.3287E-03    -26.9842E-03     76.7217E-03
            1590     11.3884E-03     45.8915E-03    -8.84979E+06    -60.6564E+06    -6.61686E+06     362.489E+03    -28.2526E-03     55.3097E-03    -27.0571E-03     71.3240E-03    -28.2804E-03     55.1100E-03    -26.9894E-03     71.2117E-03
            1591     10.5124E-03     45.8287E-03    -9.22884E+06    -76.9317E+06    -5.56532E+06     308.987E+03    -28.0964E-03     55.1855E-03    -27.0891E-03     64.4545E-03    -28.0757E-03     54.8751E-03    -26.9920E-03     64.3675E-03
            1592     9.63620E-03     45.7692E-03    -9.66713E+06    -82.6594E+06    -709.416E+03     238.811E+03    -27.9676E-03     55.0898E-03    -27.1221E-03     59.1182E-03    -27.9307E-03     54.7272E-03    -26.9918E-03     59.0500E-03
            1593     8.76059E-03     45.7161E-03    -10.8608E+06    -87.3531E+06     157.828E+03     349.300E+03    -27.8399E-03     54.9719E-03    -27.1321E-03     53.5619E-03    -27.7919E-03     54.5749E-03    -26.9889E-03     53.5107E-03
            1594     7.88408E-03     45.6672E-03    -12.1719E+06    -91.5906E+06    -852.414E+03     364.497E+03    -27.7073E-03     54.8369E-03    -27.1296E-03     47.9682E-03    -27.6504E-03     54.4141E-03    -26.9834E-03     47.9295E-03
            1595     7.00853E-03     45.6246E-03    -13.5760E+06    -93.2893E+06    -2.22552E+06     295.284E+03    -27.5573E-03     54.6785E-03    -27.1212E-03     42.3742E-03    -27.4976E-03     54.2459E-03    -26.9774E-03     42.3443E-03
            1596     6.13221E-03     45.5864E-03    -15.0202E+06    -94.4361E+06    -5.28643E+06     244.317E+03    -27.4291E-03     54.5334E-03    -27.1043E-03     36.7992E-03    -27.3669E-03     54.0979E-03    -26.9721E-03     36.7762E-03
            1597     5.25642E-03     45.5543E-03    -16.3001E+06    -95.5384E+06    -8.07693E+06     257.800E+03    -27.3179E-03     54.4070E-03    -27.0892E-03     31.3341E-03    -27.2538E-03     53.9694E-03    -26.9674E-03     31.3173E-03
            1598     4.38018E-03     45.5267E-03    -17.7054E+06    -96.8892E+06    -11.1867E+06     184.905E+03    -27.2222E-03     54.2964E-03    -27.0742E-03     25.9792E-03    -27.1570E-03     53.8568E-03    -26.9639E-03     25.9663E-03
            1599     3.50433E-03     45.5047E-03    -18.8891E+06    -98.3183E+06    -14.3326E+06     171.762E+03    -27.1522E-03     54.2120E-03    -27.0598E-03     20.6945E-03    -27.0850E-03     53.7703E-03    -26.9615E-03     20.6854E-03
            1600     2.62807E-03     45.4872E-03    -19.8537E+06    -99.5257E+06    -17.0019E+06     139.709E+03    -27.1009E-03     54.1482E-03    -27.0472E-03     15.5108E-03    -27.0322E-03     53.7049E-03    -26.9592E-03     15.5045E-03
            1601     1.75224E-03     45.4751E-03    -20.5839E+06    -100.718E+06    -19.3585E+06     25.5394E+03    -27.0677E-03     54.1018E-03    -27.0340E-03     10.4214E-03    -26.9970E-03     53.6565E-03    -26.9549E-03     10.4165E-03
            1602     875.931E-06     45.4674E-03    -21.1207E+06    -101.515E+06    -20.7513E+06     92.7571E+03    -27.0388E-03     54.0593E-03    -27.0205E-03     5.61946E-03    -26.9673E-03     53.6126E-03    -26.9464E-03     5.61793E-03
            1603     16.6459E-03     45.8121E-03    -6.45175E+06     183.475E+06     97.6422E+06    -75.8288E+03    -44.3805E-03     71.5350E-03    -27.1545E-03     347.030E-03    -60.7789E-03     88.2787E-03    -26.9230E-03     355.643E-03
            1604     15.7705E-03     45.4460E-03    -10.0541E+06     128.905E+06     32.2486E+06     629.722E+03    -43.7466E-03     70.6897E-03    -26.9431E-03     305.830E-03    -52.9349E-03     80.2065E-03    -26.9542E-03     307.107E-03
            1605     14.8911E-03     45.2176E-03    -9.01888E+06     54.8605E+06    -19.5939E+06     544.244E+03    -34.1420E-03     60.9652E-03    -26.8232E-03     176.004E-03    -35.8086E-03     62.8513E-03    -26.9876E-03     175.735E-03
            1606     14.0163E-03     45.1075E-03    -8.55825E+06     1.81800E+06    -25.5428E+06     321.447E+03    -29.1884E-03     56.0667E-03    -26.8783E-03     93.6338E-03    -29.5651E-03     56.4936E-03    -26.9963E-03     93.4005E-03
            1607     13.1401E-03     45.0393E-03    -9.04759E+06    -24.5928E+06    -12.6638E+06     612.333E+03    -28.4888E-03     55.4621E-03    -26.9733E-03     77.1121E-03    -28.6507E-03     55.5413E-03    -26.9879E-03     76.9432E-03
            1608     12.2645E-03     44.9625E-03    -8.83801E+06    -38.5482E+06    -5.17123E+06     457.773E+03    -28.4622E-03     55.4898E-03    -27.0276E-03     77.4351E-03    -28.5622E-03     55.4366E-03    -26.9848E-03     77.2962E-03
            1609     11.3889E-03     44.8922E-03    -9.00666E+06    -60.5541E+06    -7.24973E+06     477.132E+03    -28.3428E-03     55.3906E-03    -27.0478E-03     71.2874E-03    -28.3706E-03     55.1925E-03    -26.9832E-03     71.1763E-03
            1610     10.5123E-03     44.8272E-03    -9.13444E+06    -76.6685E+06    -5.80209E+06     404.604E+03    -28.0774E-03     55.1554E-03    -27.0779E-03     64.5179E-03    -28.0561E-03     54.8463E-03    -26.9825E-03     64.4324E-03
            1611     9.63660E-03     44.7691E-03    -10.0220E+06    -82.4731E+06    -1.02142E+06     414.281E+03    -28.0133E-03     55.1223E-03    -27.1091E-03     59.0340E-03    -27.9779E-03     54.7616E-03    -26.9801E-03     58.9680E-03
            1612     8.76019E-03     44.7148E-03    -10.8312E+06    -87.5475E+06    -143.018E+03     222.974E+03    -27.8713E-03     54.9850E-03    -27.1137E-03     53.4345E-03    -27.8225E-03     54.5874E-03    -26.9718E-03     53.3815E-03
            1613     7.88477E-03     44.6670E-03    -11.9973E+06    -91.4905E+06    -755.859E+03     400.505E+03    -27.6961E-03     54.8055E-03    -27.1094E-03     47.8530E-03    -27.6386E-03     54.3828E-03    -26.9631E-03     47.8148E-03
            1614     7.00831E-03     44.6235E-03    -13.4421E+06    -93.1702E+06    -2.24053E+06     445.597E+03    -27.5557E-03     54.6542E-03    -27.0985E-03     42.2869E-03    -27.4954E-03     54.2220E-03    -26.9551E-03     42.2590E-03
            1615     6.13265E-03     44.5862E-03    -14.9678E+06    -94.2387E+06    -5.22475E+06     283.481E+03    -27.4118E-03     54.4918E-03    -27.0800E-03     36.7203E-03    -27.3496E-03     54.0571E-03    -26.9478E-03     36.6978E-03
            1616     5.25632E-03     44.5534E-03    -16.4347E+06    -95.5921E+06    -8.34795E+06     214.873E+03    -27.2876E-03     54.3512E-03    -27.0636E-03     31.2861E-03    -27.2237E-03     53.9138E-03    -26.9429E-03     31.2688E-03
            1617     4.38051E-03     44.5264E-03    -17.6643E+06    -96.7512E+06    -11.1689E+06     233.564E+03    -27.2001E-03     54.2497E-03    -27.0496E-03     25.9353E-03    -27.1349E-03     53.8107E-03    -26.9396E-03     25.9231E-03
            1618     3.50420E-03     44.5040E-03    -18.9135E+06    -98.2267E+06    -14.4439E+06     125.258E+03    -27.1305E-03     54.1645E-03    -27.0340E-03     20.6568E-03    -27.0634E-03     53.7235E-03    -26.9364E-03     20.6472E-03
            1619     2.62837E-03     44.4869E-03    -19.8212E+06    -99.4793E+06    -17.1640E+06     33.6987E+03    -27.0765E-03     54.0969E-03    -27.0205E-03     15.4753E-03    -27.0074E-03     53.6541E-03    -26.9333E-03     15.4677E-03
            1620     1.75203E-03     44.4744E-03    -20.5470E+06    -100.681E+06    -19.4656E+06     163.221E+03    -27.0419E-03     54.0492E-03    -27.0072E-03     10.3964E-03    -26.9709E-03     53.6042E-03    -26.9288E-03     10.3933E-03
            1621     876.267E-06     44.4670E-03     -21.027E+06    -101.379E+06    -20.7810E+06     36.5307E+03    -27.0119E-03     54.0067E-03    -26.9949E-03     5.59492E-03    -26.9400E-03     53.5606E-03    -26.9213E-03     5.59266E-03
            1622     16.6452E-03     44.8100E-03    -5.82898E+06     183.890E+06     98.0370E+06     273.212E+03    -44.2091E-03     71.3807E-03    -27.1716E-03     347.030E-03    -60.6195E-03     88.1389E-03    -26.9396E-03     355.708E-03
            1623     15.7671E-03     44.4453E-03    -8.91763E+06     129.618E+06     32.0483E+06    -548.759E+03    -44.0866E-03     71.0351E-03    -26.9485E-03     304.976E-03    -53.2481E-03     80.5322E-03    -26.9633E-03     306.239E-03
            1624     14.8945E-03     44.2163E-03    -9.67784E+06     53.8997E+06    -22.8881E+06     502.481E+03    -34.5213E-03     61.3148E-03    -26.7935E-03     176.064E-03    -36.1934E-03     63.2103E-03    -26.9721E-03     175.782E-03
            1625     14.0166E-03     44.1083E-03    -9.04116E+06     786.909E+03    -27.4321E+06     1.31837E+06    -28.7904E-03     55.6459E-03    -26.8555E-03     93.5941E-03    -29.1608E-03     56.0665E-03    -26.9807E-03     93.3780E-03
            1626     13.1405E-03     44.0374E-03    -8.50333E+06    -23.9379E+06    -11.8535E+06     635.943E+03    -28.2683E-03     55.2476E-03    -26.9793E-03     76.5556E-03    -28.4287E-03     55.3272E-03    -26.9915E-03     76.3882E-03
            1627     12.2644E-03     43.9625E-03    -8.96764E+06    -38.6875E+06    -5.19407E+06     602.554E+03    -28.5945E-03     55.6281E-03    -27.0336E-03     77.2798E-03    -28.6951E-03     55.5746E-03    -26.9905E-03     77.1417E-03
            1628     11.3882E-03     43.8905E-03    -9.50986E+06    -60.3611E+06    -7.16688E+06     476.154E+03    -28.4480E-03     55.4928E-03    -27.0449E-03     70.9701E-03    -28.4789E-03     55.2965E-03    -26.9794E-03     70.8581E-03
            1629     10.5129E-03     43.8274E-03    -9.80436E+06    -76.5007E+06    -6.53285E+06     413.031E+03    -28.2056E-03     55.2659E-03    -27.0602E-03     64.4145E-03    -28.1870E-03     54.9598E-03    -26.9677E-03     64.3286E-03
            1630     9.63640E-03     43.7677E-03    -10.2704E+06    -82.7009E+06    -1.38411E+06     321.890E+03    -28.0091E-03     55.0952E-03    -27.0861E-03     58.9857E-03    -27.9741E-03     54.7341E-03    -26.9582E-03     58.9187E-03
            1631     8.76107E-03     43.7146E-03    -11.2575E+06    -87.3776E+06    -382.420E+03     286.735E+03    -27.8666E-03     54.9555E-03    -27.0889E-03     53.3314E-03    -27.8197E-03     54.5596E-03    -26.9478E-03     53.2794E-03
            1632     7.88444E-03     43.6660E-03    -12.2374E+06    -91.6047E+06    -1.34236E+06     219.850E+03    -27.7007E-03     54.7806E-03    -27.0799E-03     47.7756E-03    -27.6433E-03     54.3585E-03    -26.9361E-03     47.7352E-03
            1633     7.00891E-03     43.6232E-03    -13.3909E+06    -93.0228E+06    -2.37050E+06     499.422E+03    -27.5199E-03     54.5888E-03    -27.0689E-03     42.1951E-03    -27.4593E-03     54.1574E-03    -26.9265E-03     42.1680E-03
            1634     6.13251E-03     43.5854E-03    -14.8344E+06    -94.0249E+06    -5.17589E+06     510.776E+03    -27.3783E-03     54.4301E-03    -27.0518E-03     36.6536E-03    -27.3158E-03     53.9961E-03    -26.9198E-03     36.6342E-03
            1635     5.25674E-03     43.5532E-03    -16.3836E+06    -95.3859E+06    -8.31793E+06     304.254E+03    -27.2688E-03     54.3037E-03    -27.0349E-03     31.2339E-03    -27.2050E-03     53.8672E-03    -26.9144E-03     31.2178E-03
            1636     4.38036E-03     43.5257E-03    -17.7320E+06    -96.6732E+06    -11.4362E+06     123.363E+03    -27.1773E-03     54.1954E-03    -27.0180E-03     25.8799E-03    -27.1121E-03     53.7572E-03    -26.9093E-03     25.8664E-03
            1637     3.50457E-03     43.5037E-03    -18.6776E+06    -98.0727E+06    -14.6058E+06     85.9229E+03    -27.1043E-03     54.1053E-03    -27.0010E-03     20.6013E-03    -27.0360E-03     53.6649E-03    -26.9047E-03     20.5911E-03
            1638     2.62819E-03     43.4863E-03    -19.7712E+06    -99.5744E+06    -17.4471E+06     194.639E+03    -27.0479E-03     54.0341E-03    -26.9861E-03     15.4377E-03    -26.9780E-03     53.5911E-03    -26.9003E-03     15.4323E-03
            1639     1.75239E-03     43.4741E-03    -20.5811E+06    -100.536E+06    -19.3922E+06     169.253E+03    -27.0003E-03     53.9766E-03    -26.9763E-03     10.3611E-03    -26.9297E-03     53.5323E-03    -26.8976E-03     10.3581E-03
            1640     875.924E-06     43.4665E-03    -20.9162E+06    -101.142E+06    -20.6809E+06     59.3841E+03    -26.9712E-03     53.9492E-03    -26.9780E-03     5.57515E-03    -26.8993E-03     53.5040E-03    -26.9044E-03     5.57320E-03
            1641     16.6456E-03     43.8105E-03    -5.79108E+06     183.616E+06     96.7689E+06    -43.5025E+03    -44.4120E-03     71.5786E-03    -27.1666E-03     346.225E-03    -60.8039E-03     88.3212E-03    -26.9406E-03     354.899E-03
            1642     15.7708E-03     43.4447E-03    -9.42677E+06     129.622E+06     31.7717E+06     217.107E+03    -44.1624E-03     71.0996E-03    -26.9372E-03     304.754E-03    -53.2927E-03     80.5645E-03    -26.9526E-03     306.008E-03
            1643     14.8915E-03     43.2150E-03    -10.8555E+06     53.3018E+06    -21.7865E+06     338.747E+03    -34.4384E-03     61.2282E-03    -26.7899E-03     175.914E-03    -36.1172E-03     63.1209E-03    -26.9603E-03     175.632E-03
            1644     14.0172E-03     43.1078E-03    -9.77495E+06     472.265E+03    -27.3808E+06     693.778E+03    -28.9024E-03     55.7459E-03    -26.8435E-03     93.7579E-03    -29.2754E-03     56.1653E-03    -26.9669E-03     93.5337E-03
            1645     13.1404E-03     43.0373E-03    -8.69121E+06    -23.3530E+06    -11.6033E+06     842.438E+03    -28.3237E-03     55.2834E-03    -26.9597E-03     76.6945E-03    -28.4864E-03     55.3660E-03    -26.9713E-03     76.5291E-03
            1646     12.2645E-03     42.9610E-03    -8.78835E+06    -38.5253E+06    -5.12979E+06     731.208E+03    -28.4665E-03     55.4806E-03    -27.0141E-03     76.9089E-03    -28.5657E-03     55.4267E-03    -26.9711E-03     76.7735E-03
            1647     11.3890E-03     42.8901E-03    -9.14237E+06    -60.3120E+06    -6.90387E+06     575.511E+03    -28.4189E-03     55.4489E-03    -27.0299E-03     70.8043E-03    -28.4482E-03     55.2516E-03    -26.9638E-03     70.6939E-03
            1648     10.5126E-03     42.8261E-03    -9.59664E+06    -75.9470E+06    -5.95610E+06     482.248E+03    -28.2872E-03     55.3295E-03    -27.0422E-03     64.2460E-03    -28.2693E-03     55.0251E-03    -26.9480E-03     64.1605E-03
            1649     9.63728E-03     42.7675E-03    -10.3560E+06    -82.8240E+06    -1.82818E+06     406.956E+03    -28.0347E-03     55.0922E-03    -27.0575E-03     58.9374E-03    -27.9991E-03     54.7311E-03    -26.9315E-03     58.8716E-03
            1650     8.76050E-03     42.7136E-03    -11.3650E+06    -87.3393E+06    -397.259E+03     363.133E+03    -27.8372E-03     54.8970E-03    -27.0597E-03     53.2529E-03    -27.7908E-03     54.5013E-03    -26.9186E-03     53.2021E-03
            1651     7.88529E-03     42.6656E-03    -12.5593E+06    -91.3533E+06    -1.53473E+06     223.106E+03    -27.6759E-03     54.7251E-03    -27.0492E-03     47.6800E-03    -27.6202E-03     54.3050E-03    -26.9062E-03     47.6398E-03
            1652     7.00876E-03     42.6226E-03    -13.6641E+06    -93.3592E+06    -3.06488E+06     209.604E+03    -27.4915E-03     54.5273E-03    -27.0358E-03     42.1479E-03    -27.4307E-03     54.0955E-03    -26.8959E-03     42.1173E-03
            1653     6.13300E-03     42.5850E-03    -14.7183E+06    -93.9802E+06    -5.37201E+06     612.606E+03    -27.3588E-03     54.3778E-03    -27.0190E-03     36.6162E-03    -27.2954E-03     53.9441E-03    -26.8882E-03     36.5983E-03
            1654     5.25662E-03     42.5526E-03    -16.1237E+06    -94.8685E+06    -7.88655E+06     494.227E+03    -27.2606E-03     54.2618E-03    -27.0011E-03     31.1444E-03    -27.1969E-03     53.8268E-03    -26.8796E-03     31.1309E-03
            1655     4.38085E-03     42.5254E-03    -17.5497E+06    -96.3802E+06    -11.4097E+06     109.622E+03    -27.1509E-03     54.1300E-03    -26.9791E-03     25.7987E-03    -27.0852E-03     53.6930E-03    -26.8710E-03     25.7850E-03
            1656     3.50441E-03     42.5032E-03    -18.9080E+06    -98.3293E+06    -14.9796E+06     195.601E+03    -27.0723E-03     54.0313E-03    -26.9590E-03     20.5386E-03    -27.0042E-03     53.5904E-03    -26.8639E-03     20.5299E-03
            1657     2.62860E-03     42.4860E-03    -19.8261E+06    -99.3244E+06    -17.1969E+06     284.834E+03    -27.0088E-03     53.9529E-03    -26.9442E-03     15.3672E-03    -26.9399E-03     53.5109E-03    -26.8574E-03     15.3630E-03
            1658     1.75213E-03     42.4737E-03    -20.4685E+06    -100.384E+06    -19.4378E+06     81.9089E+03    -26.9568E-03     53.8885E-03    -26.9317E-03     10.3062E-03    -26.8858E-03     53.4449E-03    -26.8537E-03     10.3021E-03
            1659     876.323E-06     42.4663E-03    -20.8355E+06    -100.961E+06    -20.5705E+06     74.2773E+03    -26.9370E-03     53.8613E-03    -26.9242E-03     5.55715E-03    -26.8651E-03     53.4167E-03    -26.8505E-03     5.55543E-03
            1660     16.6453E-03     42.8074E-03    -6.12614E+06     182.918E+06     96.2878E+06    -33.1555E+03    -44.2971E-03     71.4418E-03    -27.1447E-03     346.036E-03    -60.6471E-03     88.1402E-03    -26.9196E-03     354.680E-03
            1661     15.7681E-03     42.4441E-03    -9.59700E+06     128.725E+06     30.4897E+06     156.437E+03    -43.9418E-03     70.8619E-03    -26.9201E-03     304.915E-03    -53.0635E-03     80.3180E-03    -26.9403E-03     306.176E-03
            1662     14.8947E-03     42.2145E-03    -10.0774E+06     54.3261E+06    -21.3679E+06     319.816E+03    -34.3702E-03     61.1561E-03    -26.7859E-03     176.038E-03    -36.0469E-03     63.0518E-03    -26.9569E-03     175.759E-03
            1663     14.0164E-03     42.1074E-03    -10.1631E+06     824.085E+03    -27.0457E+06     363.670E+03    -29.0612E-03     55.9002E-03    -26.8390E-03     93.8525E-03    -29.4382E-03     56.3225E-03    -26.9607E-03     93.6224E-03
            1664     13.1415E-03     42.0357E-03    -9.62154E+06    -24.1932E+06    -12.4990E+06     603.042E+03    -28.5149E-03     55.4545E-03    -26.9396E-03     76.8839E-03    -28.6802E-03     55.5360E-03    -26.9531E-03     76.7143E-03
            1665     12.2654E-03     41.9613E-03    -9.05777E+06    -38.1629E+06    -5.19932E+06     559.895E+03    -28.5025E-03     55.4890E-03    -26.9865E-03     77.0222E-03    -28.6035E-03     55.4374E-03    -26.9440E-03     76.8846E-03
            1666     11.3885E-03     41.8888E-03    -8.82647E+06    -60.1292E+06    -7.05978E+06     633.830E+03    -28.3709E-03     55.3709E-03    -27.0000E-03     70.8071E-03    -28.3979E-03     55.1736E-03    -26.9353E-03     70.6983E-03
            1667     10.5133E-03     41.8256E-03    -9.04836E+06    -75.9454E+06    -5.50710E+06     677.341E+03    -28.2532E-03     55.2694E-03    -27.0161E-03     64.0332E-03    -28.2329E-03     54.9633E-03    -26.9204E-03     63.9506E-03
            1668     9.63685E-03     41.7666E-03    -9.59416E+06    -81.9492E+06    -1.14222E+06     707.985E+03    -28.0547E-03     55.0833E-03    -27.0286E-03     58.7253E-03    -28.0175E-03     54.7244E-03    -26.9016E-03     58.6634E-03
            1669     8.76176E-03     41.7132E-03    -10.8403E+06    -87.4585E+06    -623.904E+03     514.207E+03    -27.8086E-03     54.8341E-03    -27.0254E-03     53.1975E-03    -27.7589E-03     54.4371E-03    -26.8860E-03     53.1491E-03
            1670     7.88487E-03     41.6649E-03    -12.1858E+06    -91.3456E+06    -848.044E+03     455.840E+03    -27.6298E-03     54.6499E-03    -27.0202E-03     47.6047E-03    -27.5730E-03     54.2281E-03    -26.8743E-03     47.5679E-03
            1671     7.00932E-03     41.6221E-03    -13.7463E+06    -93.4623E+06    -3.17227E+06     297.671E+03    -27.5010E-03     54.5025E-03    -27.0014E-03     42.0321E-03    -27.4403E-03     54.0704E-03    -26.8619E-03     42.0027E-03
            1672     6.13292E-03     41.5846E-03    -15.1489E+06    -94.1418E+06    -5.89541E+06     185.113E+03    -27.3708E-03     54.3470E-03    -26.9762E-03     36.4957E-03    -27.3085E-03     53.9139E-03    -26.8472E-03     36.4724E-03
            1673     5.25717E-03     41.5521E-03    -15.9142E+06    -94.5181E+06    -7.89013E+06     318.986E+03    -27.2314E-03     54.1850E-03    -26.9536E-03     31.0064E-03    -27.1670E-03     53.7515E-03    -26.8329E-03     30.9907E-03
            1674     4.38072E-03     41.5251E-03    -17.2758E+06    -96.3874E+06    -11.2910E+06     547.337E+03    -27.1254E-03     54.0538E-03    -26.9285E-03     25.6603E-03    -27.0585E-03     53.6162E-03    -26.8201E-03     25.6523E-03
            1675     3.50490E-03     41.5028E-03    -18.7403E+06    -98.0372E+06    -14.6595E+06     417.592E+03    -27.0330E-03     53.9372E-03    -26.9042E-03     20.4293E-03    -26.9649E-03     53.4971E-03    -26.8082E-03     20.4236E-03
            1676     2.62845E-03     41.4857E-03    -19.7667E+06    -99.1655E+06    -17.2478E+06     92.1972E+03    -26.9577E-03     53.8419E-03    -26.8843E-03     15.2722E-03    -26.8886E-03     53.4007E-03    -26.7980E-03     15.2655E-03
            1677     1.75257E-03     41.4735E-03    -20.3682E+06    -100.159E+06    -19.2730E+06     120.508E+03    -26.9113E-03     53.7773E-03    -26.8660E-03     10.2412E-03    -26.8403E-03     53.3344E-03    -26.7876E-03     10.2376E-03
            1678     876.050E-06     41.4659E-03    -20.8355E+06    -100.909E+06    -20.6354E+06     52.1625E+03    -26.8711E-03     53.7181E-03    -26.8470E-03     5.49431E-03    -26.7991E-03     53.2739E-03    -26.7737E-03     5.49236E-03
            1679     16.6472E-03     41.8099E-03    -5.62780E+06     183.195E+06     96.7117E+06     379.946E+03    -44.1280E-03     71.2650E-03    -27.1370E-03     346.097E-03    -60.4426E-03     87.9295E-03    -26.9109E-03     354.750E-03
            1680     15.7705E-03     41.4428E-03    -9.83376E+06     128.213E+06     29.7447E+06     371.998E+03    -43.8284E-03     70.7484E-03    -26.9201E-03     305.589E-03    -52.9633E-03     80.2174E-03    -26.9430E-03     306.883E-03
            1681     14.8913E-03     41.2142E-03    -11.2271E+06     53.9999E+06    -23.0960E+06     58.9744E+03    -34.6618E-03     61.4418E-03    -26.7800E-03     176.089E-03    -36.3428E-03     63.3416E-03    -26.9575E-03     175.798E-03
            1682     14.0175E-03     41.1059E-03    -10.0152E+06     1.78445E+06    -27.3391E+06     361.877E+03    -29.1598E-03     55.9846E-03    -26.8249E-03     93.6746E-03    -29.5363E-03     56.4112E-03    -26.9496E-03     93.4432E-03
            1683     13.1406E-03     41.0355E-03    -9.17274E+06    -24.2795E+06    -12.6776E+06     453.273E+03    -28.5382E-03     55.4603E-03    -26.9220E-03     76.8091E-03    -28.7004E-03     55.5405E-03    -26.9369E-03     76.6380E-03
            1684     12.2649E-03     40.9596E-03    -9.14179E+06    -38.1823E+06    -5.35828E+06     441.467E+03    -28.6544E-03     55.6161E-03    -26.9616E-03     76.7381E-03    -28.7554E-03     55.5646E-03    -26.9198E-03     76.5982E-03
            1685     11.3901E-03     40.8888E-03    -9.50458E+06    -60.2318E+06    -7.50293E+06     616.667E+03    -28.3826E-03     55.3487E-03    -26.9661E-03     70.7681E-03    -28.4120E-03     55.1523E-03    -26.9025E-03     70.6594E-03
            1686     10.5132E-03     40.8245E-03    -9.59229E+06    -76.3264E+06    -6.38028E+06     634.445E+03    -28.1891E-03     55.1690E-03    -26.9799E-03     64.1033E-03    -28.1693E-03     54.8626E-03    -26.8872E-03     64.0209E-03
            1687     9.63802E-03     40.7661E-03    -9.79324E+06    -81.9674E+06    -1.26922E+06     719.186E+03    -28.0377E-03     55.0331E-03    -26.9955E-03     58.6207E-03    -28.0010E-03     54.6744E-03    -26.8688E-03     58.5592E-03
            1688     8.76101E-03     40.7126E-03    -10.4831E+06    -86.9379E+06    -613.373E+03     745.214E+03    -27.8234E-03     54.8112E-03    -26.9878E-03     53.0211E-03    -27.7725E-03     54.4162E-03    -26.8496E-03     52.9758E-03
            1689     7.88584E-03     40.6645E-03    -12.0033E+06    -91.4018E+06    -1.80073E+06     750.362E+03    -27.6460E-03     54.6186E-03    -26.9727E-03     47.4222E-03    -27.5867E-03     54.1975E-03    -26.8317E-03     47.3892E-03
            1690     7.00924E-03     40.6217E-03    -13.6572E+06    -92.9306E+06    -2.82264E+06     621.637E+03    -27.5135E-03     54.4657E-03    -26.9521E-03     41.8206E-03    -27.4536E-03     54.0356E-03    -26.8117E-03     41.7954E-03
            1691     6.13365E-03     40.5840E-03    -15.1228E+06    -93.6370E+06    -5.50109E+06    -30.9789E+03    -27.3472E-03     54.2674E-03    -26.9202E-03     36.2818E-03    -27.2861E-03     53.8362E-03    -26.7900E-03     36.2557E-03
            1692     5.25718E-03     40.5520E-03    -16.6488E+06    -95.2254E+06    -8.82694E+06     45.3957E+03    -27.1978E-03     54.0861E-03    -26.8883E-03     30.8624E-03    -27.1347E-03     53.6514E-03    -26.7702E-03     30.8433E-03
            1693     4.38135E-03     40.5246E-03    -17.6054E+06    -96.3578E+06    -11.3904E+06     557.697E+03    -27.0835E-03     53.9434E-03    -26.8599E-03     25.5088E-03    -27.0182E-03     53.5065E-03    -26.7516E-03     25.5011E-03
            1694     3.50490E-03     40.5027E-03    -18.5065E+06    -97.5172E+06    -14.1549E+06     466.968E+03    -26.9725E-03     53.8048E-03    -26.8323E-03     20.2964E-03    -26.9048E-03     53.3662E-03    -26.7348E-03     20.2913E-03
            1695     2.62893E-03     40.4855E-03    -19.5396E+06    -98.9356E+06    -17.1871E+06     257.700E+03    -26.8901E-03     53.6972E-03    -26.8071E-03     15.1894E-03    -26.8203E-03     53.2567E-03    -26.7213E-03     15.1849E-03
            1696     1.75242E-03     40.4734E-03    -20.4638E+06    -100.090E+06    -19.3155E+06     126.219E+03    -26.8348E-03     53.6215E-03    -26.7867E-03     10.1927E-03    -26.7644E-03     53.1791E-03    -26.7085E-03     10.1893E-03
            1697     876.478E-06     40.4658E-03    -20.8661E+06    -100.735E+06    -20.5612E+06     152.512E+03    -26.7831E-03     53.5576E-03    -26.7745E-03     5.44560E-03    -26.7117E-03     53.1142E-03    -26.7010E-03     5.44499E-03
            1698     16.6450E-03     40.8064E-03    -6.08202E+06     182.647E+06     96.3136E+06     175.872E+03    -44.1665E-03     71.3212E-03    -27.1547E-03     345.992E-03    -60.4851E-03     87.9872E-03    -26.9291E-03     354.635E-03
            1699     15.7675E-03     40.4440E-03    -10.1076E+06     128.304E+06     30.4863E+06     502.732E+03    -44.4364E-03     71.3602E-03    -26.9238E-03     305.408E-03    -53.5933E-03     80.8483E-03    -26.9428E-03     306.640E-03
            1700     14.8945E-03     40.2113E-03    -10.3214E+06     54.1860E+06    -22.0472E+06     377.427E+03    -34.7625E-03     61.5229E-03    -26.7604E-03     175.129E-03    -36.4325E-03     63.4125E-03    -26.9342E-03     174.835E-03
            1701     14.0172E-03     40.1065E-03    -9.41671E+06     1.53624E+06    -27.2666E+06     224.698E+03    -29.0971E-03     55.8933E-03    -26.7962E-03     93.2216E-03    -29.4683E-03     56.3156E-03    -26.9211E-03     92.9895E-03
            1702     13.1418E-03     40.0337E-03    -9.19092E+06    -23.8711E+06    -12.6365E+06     577.857E+03    -28.5711E-03     55.4621E-03    -26.8911E-03     76.6701E-03    -28.7342E-03     55.5445E-03    -26.9063E-03     76.5001E-03
            1703     12.2662E-03     39.9593E-03    -9.39495E+06    -38.5535E+06    -5.67150E+06     571.592E+03    -28.5474E-03     55.4777E-03    -26.9303E-03     76.4506E-03    -28.6475E-03     55.4241E-03    -26.8892E-03     76.3135E-03
            1704     11.3892E-03     39.8878E-03    -9.41872E+06    -59.9245E+06    -7.55527E+06     595.158E+03    -28.3840E-03     55.3198E-03    -26.9358E-03     70.7841E-03    -28.4131E-03     55.1247E-03    -26.8731E-03     70.6753E-03
            1705     10.5142E-03     39.8241E-03    -9.66535E+06    -76.4361E+06    -6.91018E+06     502.617E+03    -28.2414E-03     55.1847E-03    -26.9432E-03     64.0641E-03    -28.2208E-03     54.8784E-03    -26.8529E-03     63.9802E-03
            1706     9.63730E-03     39.7653E-03    -10.2329E+06    -82.5345E+06    -1.77092E+06     506.299E+03    -28.0486E-03     55.0024E-03    -26.9538E-03     58.3867E-03    -28.0124E-03     54.6421E-03    -26.8282E-03     58.3226E-03
            1707     8.76255E-03     39.7120E-03    -11.1448E+06    -86.6420E+06    -490.927E+03     846.276E+03    -27.8628E-03     54.8036E-03    -26.9407E-03     52.7664E-03    -27.8158E-03     54.4108E-03    -26.8014E-03     52.7223E-03
            1708     7.88563E-03     39.6642E-03    -12.0850E+06    -91.1044E+06    -1.88174E+06     886.626E+03    -27.6971E-03     54.6095E-03    -26.9124E-03     47.2342E-03    -27.6386E-03     54.1900E-03    -26.7721E-03     47.2030E-03
            1709     7.01027E-03     39.6210E-03    -13.0548E+06    -92.2698E+06    -2.51383E+06     556.419E+03    -27.4858E-03     54.3689E-03    -26.8831E-03     41.6196E-03    -27.4242E-03     53.9407E-03    -26.7429E-03     41.5938E-03
            1710     6.13370E-03     39.5840E-03    -14.6209E+06    -93.3394E+06    -5.02619E+06     494.146E+03    -27.3065E-03     54.1538E-03    -26.8473E-03     36.0824E-03    -27.2439E-03     53.7226E-03    -26.7159E-03     36.0633E-03
            1711     5.25790E-03     39.5515E-03    -16.4644E+06    -95.3124E+06    -9.08588E+06     358.314E+03    -27.1595E-03     53.9660E-03    -26.8066E-03     30.6648E-03    -27.0949E-03     53.5310E-03    -26.6899E-03     30.6498E-03
            1712     4.38145E-03     39.5247E-03    -17.9200E+06    -96.3865E+06    -11.8251E+06     102.331E+03    -27.0085E-03     53.7815E-03    -26.7730E-03     25.3658E-03    -26.9440E-03     53.3455E-03    -26.6664E-03     25.3524E-03
            1713     3.50544E-03     39.5025E-03    -18.7756E+06     -97.416E+06    -14.2187E+06     265.863E+03    -26.8953E-03     53.6393E-03    -26.7440E-03     20.1760E-03    -26.8290E-03     53.2017E-03    -26.6466E-03     20.1685E-03
            1714     2.62893E-03     39.4857E-03    -19.5922E+06    -98.6618E+06    -16.8234E+06     369.743E+03    -26.8029E-03     53.5206E-03    -26.7177E-03     15.0940E-03    -26.7343E-03     53.0810E-03    -26.6304E-03     15.0910E-03
            1715     1.75283E-03     39.4733E-03    -20.3127E+06    -99.8618E+06    -19.2303E+06     241.544E+03    -26.7357E-03     53.4328E-03    -26.6971E-03     10.1167E-03    -26.6649E-03     52.9912E-03    -26.6190E-03     10.1148E-03
            1716     876.181E-06     39.4661E-03    -20.8534E+06    -100.555E+06    -20.5244E+06     47.0897E+03    -26.7018E-03     53.3829E-03    -26.6811E-03     5.37691E-03    -26.6306E-03     52.9403E-03    -26.6077E-03     5.37496E-03
            1717     16.6453E-03     39.8091E-03    -5.72628E+06     182.727E+06     96.6833E+06     18.2604E+03    -44.5349E-03     71.6817E-03    -27.1468E-03     345.127E-03    -60.8147E-03     88.3095E-03    -26.9200E-03     353.698E-03
            1718     15.7711E-03     39.4396E-03    -9.50708E+06     128.628E+06     31.0641E+06     183.029E+03    -44.4128E-03     71.3123E-03    -26.8994E-03     304.534E-03    -53.5387E-03     80.7709E-03    -26.9168E-03     305.731E-03
            1719     14.8936E-03     39.2127E-03    -10.3819E+06     53.8006E+06    -22.4078E+06     931.458E+03    -34.4841E-03     61.2224E-03    -26.7383E-03     175.995E-03    -36.1521E-03     63.1095E-03    -26.9133E-03     175.724E-03
            1720     14.0180E-03     39.1047E-03    -9.79627E+06     1.34372E+06    -27.8378E+06     1.02893E+06    -29.3408E-03     56.1160E-03    -26.7753E-03     94.0577E-03    -29.7175E-03     56.5435E-03    -26.9022E-03     93.8329E-03
            1721     13.1422E-03     39.0332E-03    -9.36416E+06    -24.1333E+06    -13.0333E+06     492.594E+03    -28.5969E-03     55.4594E-03    -26.8626E-03     76.7720E-03    -28.7592E-03     55.5407E-03    -26.8792E-03     76.6010E-03
            1722     12.2655E-03     38.9586E-03    -8.89829E+06    -38.4928E+06    -5.79165E+06     478.307E+03    -28.5749E-03     55.4733E-03    -26.8984E-03     76.5635E-03    -28.6723E-03     55.4193E-03    -26.8587E-03     76.4253E-03
            1723     11.3906E-03     38.8872E-03    -9.05599E+06    -59.7240E+06    -7.37573E+06     595.149E+03    -28.5292E-03     55.4252E-03    -26.8960E-03     70.3931E-03    -28.5570E-03     55.2302E-03    -26.8331E-03     70.2836E-03
            1724     10.5139E-03     38.8234E-03    -9.45717E+06    -76.1339E+06    -6.47084E+06     629.552E+03    -28.2703E-03     55.1635E-03    -26.8932E-03     63.6221E-03    -28.2495E-03     54.8576E-03    -26.8014E-03     63.5398E-03
            1725     9.63913E-03     38.7646E-03    -10.2821E+06    -82.4438E+06    -1.90729E+06     672.053E+03    -28.0303E-03     54.9257E-03    -26.8955E-03     58.1172E-03    -27.9940E-03     54.5658E-03    -26.7706E-03     58.0556E-03
            1726     8.76184E-03     38.7118E-03    -11.2580E+06    -86.9777E+06    -757.684E+03     762.541E+03    -27.8843E-03     54.7600E-03    -26.8757E-03     52.5988E-03    -27.8368E-03     54.3660E-03    -26.7371E-03     52.5538E-03
            1727     7.88701E-03     38.6633E-03    -12.1150E+06    -90.7382E+06    -1.29165E+06     589.718E+03    -27.7028E-03     54.5440E-03    -26.8412E-03     46.9766E-03    -27.6456E-03     54.1254E-03    -26.6985E-03     46.9417E-03
            1728     7.01030E-03     38.6213E-03    -13.3235E+06    -92.2261E+06    -2.43921E+06     520.200E+03    -27.4667E-03     54.2675E-03    -26.8009E-03     41.3934E-03    -27.4065E-03     53.8397E-03    -26.6600E-03     41.3673E-03
            1729     6.13461E-03     38.5834E-03    -14.6567E+06    -93.4272E+06    -5.26075E+06     764.943E+03    -27.2723E-03     54.0270E-03    -26.7547E-03     35.8414E-03    -27.2094E-03     53.5956E-03    -26.6242E-03     35.8259E-03
            1730     5.25820E-03     38.5518E-03    -15.9170E+06    -94.7066E+06    -8.50269E+06     700.997E+03    -27.0801E-03     53.7901E-03    -26.7100E-03     30.4356E-03    -27.0145E-03     53.3564E-03    -26.5921E-03     30.4253E-03
            1731     4.38212E-03     38.5245E-03    -17.3490E+06    -96.1066E+06    -11.7403E+06     316.984E+03    -26.9254E-03     53.5961E-03    -26.6707E-03     25.1897E-03    -26.8585E-03     53.1605E-03    -26.5649E-03     25.1791E-03
            1732     3.50560E-03     38.5028E-03    -18.7736E+06    -97.5760E+06    -14.6868E+06     115.333E+03    -26.8017E-03     53.4387E-03    -26.6370E-03     20.0184E-03    -26.7344E-03     53.0010E-03    -26.5418E-03     20.0091E-03
            1733     2.62942E-03     38.4856E-03    -19.6689E+06     -98.558E+06    -16.9585E+06     190.558E+03    -26.7012E-03     53.3107E-03    -26.6095E-03     14.9708E-03    -26.6329E-03     52.8719E-03    -26.5229E-03     14.9656E-03
            1734     1.75280E-03     38.4738E-03    -20.3133E+06    -99.5585E+06    -19.0474E+06     248.139E+03    -26.6298E-03     53.2173E-03    -26.5875E-03     10.0288E-03    -26.5598E-03     52.7770E-03    -26.5089E-03     10.0271E-03
            1735     876.624E-06     38.4661E-03    -20.6825E+06    -100.295E+06    -20.5338E+06     116.594E+03    -26.5825E-03     53.1598E-03    -26.5772E-03     5.34291E-03    -26.5109E-03     52.7182E-03    -26.5045E-03     5.34187E-03
            1736     16.6466E-03     38.8029E-03    -5.56553E+06     182.753E+06     96.8085E+06     7.60931E+03    -44.6136E-03     71.7374E-03    -27.1237E-03     345.999E-03    -60.9630E-03     88.4350E-03    -26.8966E-03     354.565E-03
            1737     15.7702E-03     38.4418E-03    -9.58202E+06     128.023E+06     30.1875E+06     762.793E+03    -43.9848E-03     70.8699E-03    -26.8851E-03     305.084E-03    -53.1139E-03     80.3319E-03    -26.9059E-03     306.362E-03
            1738     14.8927E-03     38.2114E-03    -11.2512E+06     53.5743E+06     -23.751E+06     1.05146E+06    -34.8952E-03     61.6194E-03    -26.7242E-03     176.114E-03    -36.5724E-03     63.5157E-03    -26.9043E-03     175.832E-03
            1739     14.0177E-03     38.1026E-03    -9.68340E+06     1.42745E+06    -27.6940E+06     716.686E+03    -29.4646E-03     56.2138E-03    -26.7492E-03     92.8487E-03    -29.8387E-03     56.6390E-03    -26.8757E-03     92.6172E-03
            1740     13.1420E-03     38.0333E-03    -8.07527E+06    -23.8690E+06    -12.0903E+06     556.487E+03    -28.5476E-03     55.3795E-03    -26.8319E-03     76.0250E-03    -28.7032E-03     55.4568E-03    -26.8460E-03     75.8556E-03
            1741     12.2668E-03     37.9570E-03    -9.08214E+06    -38.0421E+06    -5.57807E+06     414.759E+03    -28.7357E-03     55.5939E-03    -26.8582E-03     76.3630E-03    -28.8353E-03     55.5424E-03    -26.8177E-03     76.2229E-03
            1742     11.3905E-03     37.8867E-03    -9.55549E+06    -59.9613E+06    -7.56374E+06     665.213E+03    -28.6524E-03     55.4927E-03    -26.8404E-03     70.1641E-03    -28.6819E-03     55.2974E-03    -26.7774E-03     70.0550E-03
            1743     10.5157E-03     37.8225E-03    -9.49338E+06    -75.9142E+06    -6.54237E+06     866.486E+03    -28.2893E-03     55.1149E-03    -26.8256E-03     63.3740E-03    -28.2686E-03     54.8100E-03    -26.7345E-03     63.2949E-03
            1744     9.63841E-03     37.7648E-03    -10.0604E+06    -82.2361E+06    -2.03239E+06     761.902E+03    -28.0349E-03     54.8544E-03    -26.8195E-03     57.9421E-03    -27.9973E-03     54.4951E-03    -26.6959E-03     57.8821E-03
            1745     8.76389E-03     37.7106E-03    -10.7581E+06    -86.9264E+06    -696.338E+03     529.113E+03    -27.8917E-03     54.6836E-03    -26.7920E-03     52.3284E-03    -27.8416E-03     54.2888E-03    -26.6538E-03     52.2806E-03
            1746     7.88687E-03     37.6636E-03    -11.9625E+06    -90.4718E+06    -954.911E+03     527.865E+03    -27.6709E-03     54.4213E-03    -26.7504E-03     46.6155E-03    -27.6137E-03     54.0032E-03    -26.6066E-03     46.5800E-03
            1747     7.01148E-03     37.6204E-03    -13.4389E+06    -92.2183E+06    -2.28644E+06     656.625E+03    -27.4366E-03     54.1377E-03    -26.7012E-03     41.0711E-03    -27.3771E-03     53.7098E-03    -26.5594E-03     41.0469E-03
            1748     6.13506E-03     37.5838E-03    -14.9003E+06    -93.4355E+06    -5.43344E+06     643.414E+03    -27.1899E-03     53.8363E-03    -26.6464E-03     35.5938E-03    -27.1278E-03     53.4054E-03    -26.5165E-03     35.5770E-03
            1749     5.25895E-03     37.5515E-03    -16.0862E+06    -94.4359E+06    -8.24876E+06     628.275E+03    -26.9935E-03     53.5921E-03    -26.5986E-03     30.2449E-03    -26.9294E-03     53.1596E-03    -26.4796E-03     30.2339E-03
            1750     4.38247E-03     37.5250E-03    -17.2535E+06    -95.6700E+06    -11.3190E+06     614.811E+03    -26.8350E-03     53.3888E-03    -26.5539E-03     24.9973E-03    -26.7688E-03     52.9546E-03    -26.4467E-03     24.9908E-03
            1751     3.50622E-03     37.5029E-03    -18.4730E+06    -97.3217E+06    -14.7076E+06     384.441E+03    -26.6934E-03     53.2063E-03    -26.5129E-03     19.8542E-03    -26.6249E-03     52.7694E-03    -26.4186E-03     19.8485E-03
            1752     2.62957E-03     37.4863E-03    -19.6200E+06    -98.5364E+06    -17.2439E+06     177.037E+03    -26.5864E-03     53.0671E-03    -26.4807E-03     14.8453E-03    -26.5175E-03     52.6287E-03    -26.3956E-03     14.8401E-03
            1753     1.75323E-03     37.4740E-03    -20.3534E+06    -99.4232E+06    -19.2034E+06     135.309E+03    -26.5010E-03     52.9577E-03    -26.4567E-03     9.92643E-03    -26.4312E-03     52.5183E-03    -26.3790E-03     9.92335E-03
            1754     876.432E-06     37.4670E-03    -20.7244E+06    -99.9902E+06    -20.3339E+06     131.920E+03    -26.4356E-03     52.8986E-03    -26.4629E-03     5.32974E-03    -26.3649E-03     52.4583E-03    -26.3896E-03     5.32891E-03
            1755     16.6471E-03     37.8042E-03    -5.98053E+06     182.055E+06     96.0732E+06     204.276E+03    -44.3855E-03     71.5230E-03    -27.1375E-03     346.158E-03    -60.7332E-03     88.2171E-03    -26.9124E-03     354.763E-03
            1756     15.7681E-03     37.4410E-03    -10.6962E+06     128.266E+06     31.8898E+06     654.779E+03    -44.9018E-03     71.7937E-03    -26.8918E-03     304.701E-03    -54.0459E-03     81.2627E-03    -26.9029E-03     305.918E-03
            1757     14.8955E-03     37.2083E-03    -10.3706E+06     53.4977E+06    -20.6681E+06     584.072E+03    -35.3762E-03     62.0666E-03    -26.6904E-03     174.747E-03    -37.0457E-03     63.9491E-03    -26.8562E-03     174.436E-03
            1758     14.0196E-03     37.1035E-03    -8.57474E+06     345.848E+03    -27.3029E+06     667.270E+03    -29.1409E-03     55.8329E-03    -26.6920E-03     92.4713E-03    -29.5023E-03     56.2442E-03    -26.8166E-03     92.2441E-03
            1759     13.1433E-03     37.0313E-03    -8.68405E+06    -23.2640E+06    -12.3322E+06     726.809E+03    -28.6133E-03     55.3883E-03    -26.7751E-03     76.0069E-03    -28.7727E-03     55.4701E-03    -26.7904E-03     75.8396E-03
            1760     12.2670E-03     36.9574E-03    -8.31234E+06    -37.6153E+06    -4.98144E+06     808.971E+03    -28.7638E-03     55.5599E-03    -26.7961E-03     76.1295E-03    -28.8602E-03     55.5077E-03    -26.7544E-03     75.9949E-03
            1761     11.3918E-03     36.8847E-03    -8.94119E+06    -60.3320E+06    -7.25949E+06     790.451E+03    -28.5802E-03     55.3548E-03    -26.7746E-03     69.8345E-03    -28.6060E-03     55.1557E-03    -26.7105E-03     69.7277E-03
            1762     10.5153E-03     36.8229E-03    -9.46711E+06    -75.8873E+06    -6.56717E+06     805.391E+03    -28.3647E-03     55.1163E-03    -26.7516E-03     62.9907E-03    -28.3435E-03     54.8111E-03    -26.6607E-03     62.9109E-03
            1763     9.64076E-03     36.7635E-03    -9.90007E+06    -81.7824E+06    -1.74803E+06     699.321E+03    -28.1277E-03     54.8587E-03    -26.7310E-03     57.7463E-03    -28.0902E-03     54.5008E-03    -26.6068E-03     57.6855E-03
            1764     8.76354E-03     36.7111E-03    -11.0285E+06    -86.7156E+06    -800.489E+03     641.444E+03    -27.8741E-03     54.5633E-03    -26.6893E-03     52.0324E-03    -27.8252E-03     54.1698E-03    -26.5515E-03     51.9866E-03
            1765     7.88858E-03     36.6626E-03    -12.0259E+06    -90.5617E+06    -1.25682E+06     662.361E+03    -27.6181E-03     54.2566E-03    -26.6385E-03     46.3288E-03    -27.5604E-03     53.8384E-03    -26.4960E-03     46.2955E-03
            1766     7.01198E-03     36.6210E-03    -13.3361E+06    -92.2083E+06    -2.53290E+06     719.472E+03    -27.3420E-03     53.9259E-03    -26.5840E-03     40.8008E-03    -27.2815E-03     53.4981E-03    -26.4436E-03     40.7780E-03
            1767     6.13592E-03     36.5835E-03    -14.6070E+06    -93.2004E+06    -5.43242E+06     672.126E+03    -27.1109E-03     53.6359E-03    -26.5250E-03     35.3460E-03    -27.0476E-03     53.2056E-03    -26.3958E-03     35.3300E-03
            1768     5.25949E-03     36.5522E-03    -15.9909E+06    -94.3585E+06    -8.41041E+06     598.207E+03    -26.9100E-03     53.3797E-03    -26.4697E-03     29.9953E-03    -26.8452E-03     52.9476E-03    -26.3517E-03     29.9841E-03
            1769     4.38320E-03     36.5251E-03    -17.2710E+06    -95.4652E+06    -11.2419E+06     601.431E+03    -26.7211E-03     53.1409E-03    -26.4198E-03     24.7794E-03    -26.6554E-03     52.7076E-03    -26.3125E-03     24.7729E-03
            1770     3.50655E-03     36.5038E-03    -18.3755E+06    -96.9159E+06    -14.3410E+06     574.674E+03    -26.5738E-03     52.9485E-03    -26.3747E-03     19.6795E-03    -26.5059E-03     52.5129E-03    -26.2792E-03     19.6764E-03
            1771     2.63011E-03     36.4867E-03    -19.3513E+06    -98.2024E+06    -16.9932E+06     401.925E+03    -26.4556E-03     52.7921E-03    -26.3365E-03     14.7098E-03    -26.3861E-03     52.3546E-03    -26.2510E-03     14.7076E-03
            1772     1.75333E-03     36.4750E-03    -20.1867E+06    -99.2783E+06    -19.1618E+06     163.681E+03    -26.3625E-03     52.6692E-03    -26.3067E-03     9.81006E-03    -26.2921E-03     52.2302E-03    -26.2293E-03     9.80744E-03
            1773     876.810E-06     36.4675E-03    -20.6220E+06    -99.8215E+06    -20.4670E+06     43.7286E+03    -26.3007E-03     52.5927E-03    -26.2919E-03     5.28029E-03    -26.2295E-03     52.1533E-03    -26.2196E-03     5.27837E-03
            1774     16.6431E-03     36.8049E-03    -5.69727E+06     181.935E+06     97.3598E+06     450.898E+03    -45.0093E-03     72.1364E-03    -27.1270E-03     344.826E-03    -61.2716E-03     88.7419E-03    -26.8958E-03     353.341E-03
            1775     15.7718E-03     36.4354E-03    -9.10670E+06     127.762E+06     31.3485E+06     131.653E+03    -45.1710E-03     72.0101E-03    -26.8390E-03     303.821E-03    -54.2476E-03     81.4169E-03    -26.8543E-03     304.944E-03
            1776     14.8956E-03     36.2095E-03    -9.72919E+06     53.2712E+06    -22.9305E+06     403.103E+03    -34.9455E-03     61.5755E-03    -26.6300E-03     174.901E-03    -36.5978E-03     63.4489E-03    -26.8078E-03     174.605E-03
            1777     14.0189E-03     36.1017E-03    -9.75446E+06     873.437E+03    -27.7410E+06     799.309E+03    -29.3974E-03     56.0419E-03    -26.6445E-03     92.8456E-03    -29.7674E-03     56.4608E-03    -26.7703E-03     92.6180E-03
            1778     13.1436E-03     36.0315E-03    -8.86195E+06    -22.7988E+06    -12.1713E+06     811.739E+03    -28.7613E-03     55.4746E-03    -26.7132E-03     75.9980E-03    -28.9225E-03     55.5587E-03    -26.7282E-03     75.8310E-03
            1779     12.2686E-03     35.9554E-03    -8.97872E+06    -38.5156E+06    -5.58207E+06     872.233E+03    -28.7995E-03     55.5214E-03    -26.7219E-03     75.9417E-03    -28.8965E-03     55.4660E-03    -26.6809E-03     75.8083E-03
            1780     11.3923E-03     35.8854E-03    -8.93748E+06    -60.4110E+06    -7.31243E+06     918.130E+03    -28.5472E-03     55.2419E-03    -26.6947E-03     69.5927E-03    -28.5721E-03     55.0418E-03    -26.6307E-03     69.4883E-03
            1781     10.5172E-03     35.8212E-03    -9.10707E+06    -75.5484E+06    -6.26471E+06     823.337E+03    -28.3924E-03     55.0576E-03    -26.6653E-03     62.8467E-03    -28.3698E-03     54.7527E-03    -26.5739E-03     62.7677E-03
            1782     9.64039E-03     35.7639E-03    -9.74007E+06    -81.3660E+06    -1.57793E+06     824.547E+03    -28.2148E-03     54.8451E-03    -26.6303E-03     57.3809E-03    -28.1772E-03     54.4886E-03    -26.5061E-03     57.3217E-03
            1783     8.76577E-03     35.7101E-03    -10.7993E+06    -86.4727E+06    -884.052E+03     870.997E+03    -27.8400E-03     54.4140E-03    -26.5740E-03     51.7248E-03    -27.7899E-03     54.0212E-03    -26.4374E-03     51.6824E-03
            1784     7.88885E-03     35.6633E-03    -12.1222E+06    -90.9041E+06    -1.94783E+06     773.235E+03    -27.5306E-03     54.0457E-03    -26.5150E-03     46.0823E-03    -27.4717E-03     53.6266E-03    -26.3754E-03     46.0511E-03
            1785     7.01306E-03     35.6207E-03    -13.1799E+06    -92.1520E+06    -2.80068E+06     718.628E+03    -27.2882E-03     53.7429E-03    -26.4546E-03     40.5001E-03    -27.2264E-03     53.3153E-03    -26.3159E-03     40.4776E-03
            1786     6.13666E-03     35.5843E-03    -14.5881E+06    -93.0327E+06    -5.50069E+06     773.714E+03    -27.0438E-03     53.4300E-03    -26.3862E-03     35.0124E-03    -26.9804E-03     53.0006E-03    -26.2577E-03     34.9979E-03
            1787     5.26038E-03     35.5523E-03    -15.9135E+06    -94.1670E+06    -8.52598E+06     715.170E+03    -26.7985E-03     53.1201E-03    -26.3217E-03     29.6890E-03    -26.7333E-03     52.6889E-03    -26.2047E-03     29.6796E-03
            1788     4.38375E-03     35.5262E-03    -17.2066E+06    -95.3023E+06    -11.3248E+06     633.231E+03    -26.5937E-03     52.8595E-03    -26.2658E-03     24.5272E-03    -26.5278E-03     52.4270E-03    -26.1593E-03     24.5213E-03
            1789     3.50722E-03     35.5043E-03    -18.3312E+06    -96.6337E+06    -14.2270E+06     562.033E+03    -26.4299E-03     52.6464E-03    -26.2165E-03     19.4661E-03    -26.3623E-03     52.2119E-03    -26.1209E-03     19.4630E-03
            1790     2.63042E-03     35.4880E-03    -19.2652E+06    -97.8114E+06    -16.7817E+06     505.334E+03    -26.2981E-03     52.4736E-03    -26.1755E-03     14.5478E-03    -26.2291E-03     52.0376E-03    -26.0897E-03     14.5471E-03
            1791     1.75374E-03     35.4758E-03    -19.9657E+06    -98.9129E+06    -18.9293E+06     337.549E+03    -26.2055E-03     52.3484E-03    -26.1429E-03     9.71069E-03    -26.1348E-03     51.9106E-03    -26.0652E-03     9.71040E-03
            1792     876.812E-06     35.4689E-03    -20.5666E+06    -99.6179E+06    -20.2946E+06     210.017E+03    -26.1549E-03     52.2607E-03    -26.1059E-03     5.24175E-03    -26.0839E-03     51.8221E-03    -26.0331E-03     5.24205E-03
            1793     16.6499E-03     35.7991E-03    -5.36687E+06     181.467E+06     96.3801E+06     250.170E+03    -45.5442E-03     72.6169E-03    -27.0728E-03     345.617E-03    -61.8657E-03     89.2841E-03    -26.8462E-03     354.072E-03
            1794     15.7720E-03     35.4384E-03    -8.51738E+06     127.432E+06     30.2306E+06     668.135E+03    -44.5643E-03     71.3500E-03    -26.7857E-03     303.980E-03    -53.6111E-03     80.7312E-03    -26.8069E-03     305.175E-03
            1795     14.8943E-03     35.2065E-03    -10.6706E+06     54.0296E+06    -23.3446E+06     629.752E+03    -34.9449E-03     61.5415E-03    -26.5966E-03     174.970E-03    -36.6028E-03     63.4210E-03    -26.7762E-03     174.680E-03
            1796     14.0210E-03     35.1012E-03    -9.97024E+06     1.97077E+06    -27.7951E+06     411.361E+03    -29.6735E-03     56.2741E-03    -26.6005E-03     92.2479E-03    -30.0451E-03     56.6978E-03    -26.7279E-03     92.0124E-03
            1797     13.1451E-03     35.0301E-03    -9.01058E+06    -23.5709E+06    -13.0377E+06     944.395E+03    -28.8954E-03     55.5457E-03    -26.6503E-03     75.9832E-03    -29.0545E-03     55.6269E-03    -26.6683E-03     75.8173E-03
            1798     12.2688E-03     34.9553E-03    -9.06743E+06    -38.7901E+06    -5.98305E+06     900.029E+03    -28.8269E-03     55.4775E-03    -26.6506E-03     75.9002E-03    -28.9231E-03     55.4212E-03    -26.6111E-03     75.7673E-03
            1799     11.3938E-03     34.8841E-03    -8.98818E+06    -60.0518E+06    -7.37496E+06     798.330E+03    -28.6926E-03     55.3043E-03    -26.6118E-03     69.5442E-03    -28.7177E-03     55.1058E-03    -26.5486E-03     69.4384E-03
            1800     10.5172E-03     34.8215E-03    -9.10859E+06    -75.3388E+06    -6.43536E+06     960.357E+03    -28.4967E-03     55.0612E-03    -26.5644E-03     62.6322E-03    -28.4740E-03     54.7573E-03    -26.4742E-03     62.5550E-03
            1801     9.64275E-03     34.7624E-03    -9.63929E+06    -81.5358E+06    -1.89111E+06     988.457E+03    -28.1750E-03     54.6915E-03    -26.5166E-03     56.9768E-03    -28.1356E-03     54.3340E-03    -26.3938E-03     56.9204E-03
            1802     8.76578E-03     34.7109E-03    -10.4501E+06    -86.3645E+06    -1.00650E+06     955.542E+03    -27.8359E-03     54.2862E-03    -26.4504E-03     51.3290E-03    -27.7837E-03     53.8933E-03    -26.3150E-03     51.2881E-03
            1803     7.89039E-03     34.6628E-03    -11.5937E+06    -90.4587E+06    -1.74027E+06     850.159E+03    -27.5141E-03     53.8930E-03    -26.3789E-03     45.6772E-03    -27.4532E-03     53.4749E-03    -26.2396E-03     45.6474E-03
            1804     7.01394E-03     34.6216E-03    -13.1403E+06    -92.0884E+06    -2.89061E+06     870.298E+03    -27.2339E-03     53.5386E-03    -26.3047E-03     40.0714E-03    -27.1717E-03     53.1112E-03    -26.1666E-03     40.0512E-03
            1805     6.13776E-03     34.5844E-03    -14.5015E+06    -92.9007E+06    -5.58742E+06     857.250E+03    -26.9396E-03     53.1647E-03    -26.2251E-03     34.6029E-03    -26.8757E-03     52.7357E-03    -26.0973E-03     34.5898E-03
            1806     5.26117E-03     34.5536E-03    -15.8601E+06    -93.9135E+06    -8.50991E+06     833.585E+03    -26.6680E-03     52.8207E-03    -26.1528E-03     29.3493E-03    -26.6029E-03     52.3906E-03    -26.0362E-03     29.3417E-03
            1807     4.38460E-03     34.5268E-03    -17.1198E+06    -95.0171E+06    -11.4012E+06     720.261E+03    -26.4488E-03     52.5381E-03    -26.0893E-03     24.2357E-03    -26.3827E-03     52.1069E-03    -25.9837E-03     24.2312E-03
            1808     3.50779E-03     34.5059E-03    -18.2704E+06    -96.3916E+06    -14.3590E+06     610.260E+03    -26.2631E-03     52.2974E-03    -26.0342E-03     19.2247E-03    -26.1954E-03     51.8642E-03    -25.9398E-03     19.2225E-03
            1809     2.63097E-03     34.4890E-03    -19.2029E+06    -97.5241E+06    -16.7969E+06     507.153E+03    -26.1159E-03     52.1071E-03    -25.9912E-03     14.3548E-03    -26.0469E-03     51.6724E-03    -25.9059E-03     14.3543E-03
            1810     1.75397E-03     34.4775E-03    -19.8973E+06    -98.5043E+06    -18.8107E+06     437.410E+03    -26.0173E-03     51.9767E-03    -25.9594E-03     9.58062E-03    -25.9470E-03     51.5406E-03    -25.8818E-03     9.58174E-03
            1811     877.032E-06     34.4701E-03    -20.2967E+06    -99.1184E+06    -20.0208E+06     269.217E+03    -25.9694E-03     51.8960E-03    -25.9266E-03     5.12872E-03    -25.8982E-03     51.4590E-03    -25.8536E-03     5.12986E-03
            1812     16.6456E-03     34.7977E-03    -5.80653E+06     180.890E+06     95.6670E+06    -234.210E+03    -45.3749E-03     72.4261E-03    -27.0512E-03     345.187E-03    -61.6344E-03     89.0298E-03    -26.8268E-03     353.587E-03
            1813     15.7707E-03     34.4359E-03    -9.94107E+06     126.711E+06     30.3496E+06     735.337E+03    -44.9421E-03     71.7028E-03    -26.7608E-03     303.578E-03    -54.0225E-03     81.1098E-03    -26.7783E-03     304.766E-03
            1814     14.8980E-03     34.2062E-03    -9.75669E+06     53.9725E+06    -21.7410E+06     1.26997E+06    -35.2524E-03     61.8010E-03    -26.5486E-03     173.988E-03    -36.9002E-03     63.6688E-03    -26.7215E-03     173.692E-03
            1815     14.0201E-03     34.0997E-03    -9.16063E+06     1.78258E+06    -27.7998E+06     1.07274E+06    -29.3802E-03     55.9189E-03    -26.5387E-03     92.1859E-03    -29.7416E-03     56.3347E-03    -26.6670E-03     91.9634E-03
            1816     13.1451E-03     34.0292E-03    -9.43628E+06    -23.6446E+06    -13.7142E+06     699.382E+03    -28.9784E-03     55.5674E-03    -26.5890E-03     75.6764E-03    -29.1378E-03     55.6492E-03    -26.6096E-03     75.5071E-03
            1817     12.2703E-03     33.9545E-03    -8.90979E+06    -38.3664E+06    -6.27863E+06     644.847E+03    -29.0322E-03     55.6062E-03    -26.5740E-03     75.5216E-03    -29.1272E-03     55.5516E-03    -26.5369E-03     75.3848E-03
            1818     11.3938E-03     33.8838E-03    -8.91339E+06    -59.7111E+06    -7.60741E+06     792.815E+03    -28.8762E-03     55.3901E-03    -26.5139E-03     69.0577E-03    -28.9009E-03     55.1932E-03    -26.4524E-03     68.9512E-03
            1819     10.5198E-03     33.8201E-03    -9.18171E+06    -75.4886E+06    -6.71518E+06     976.955E+03    -28.5281E-03     54.9771E-03    -26.4491E-03     62.1213E-03    -28.5044E-03     54.6724E-03    -26.3599E-03     62.0448E-03
            1820     9.64266E-03     33.7633E-03    -9.76629E+06    -81.6775E+06    -2.05454E+06     998.029E+03    -28.1567E-03     54.5464E-03    -26.3896E-03     56.5697E-03    -28.1171E-03     54.1881E-03    -26.2673E-03     56.5141E-03
            1821     8.76781E-03     33.7100E-03    -10.5359E+06    -86.2086E+06    -857.553E+03     992.330E+03    -27.8519E-03     54.1623E-03    -26.3104E-03     50.7746E-03    -27.8004E-03     53.7698E-03    -26.1744E-03     50.7345E-03
            1822     7.89134E-03     33.6640E-03    -11.6471E+06    -90.0954E+06    -1.81442E+06     1.11782E+06    -27.5198E-03     53.7388E-03    -26.2190E-03     45.1830E-03    -27.4594E-03     53.3225E-03    -26.0806E-03     45.1569E-03
            1823     7.01532E-03     33.6215E-03    -12.9583E+06    -91.9379E+06    -3.15604E+06     1.03965E+06    -27.1351E-03     53.2638E-03    -26.1287E-03     39.6119E-03    -27.0716E-03     52.8371E-03    -25.9924E-03     39.5944E-03
            1824     6.13881E-03     33.5859E-03    -14.3707E+06    -92.6805E+06    -5.64308E+06     1.03969E+06    -26.8007E-03     52.8420E-03    -26.0413E-03     34.1771E-03    -26.7363E-03     52.4139E-03    -25.9143E-03     34.1668E-03
            1825     5.26224E-03     33.5543E-03    -15.7505E+06    -93.6295E+06    -8.44635E+06     923.804E+03    -26.5278E-03     52.4889E-03    -25.9610E-03     28.9814E-03    -26.4626E-03     52.0598E-03    -25.8446E-03     28.9753E-03
            1826     4.38544E-03     33.5286E-03    -16.9966E+06    -94.7004E+06    -11.3609E+06     827.647E+03    -26.2796E-03     52.1686E-03    -25.8891E-03     23.9045E-03    -26.2132E-03     51.7387E-03    -25.7839E-03     23.9018E-03
            1827     3.50853E-03     33.5070E-03    -18.1130E+06    -96.0751E+06    -14.3632E+06     697.579E+03    -26.0782E-03     51.9056E-03    -25.8274E-03     18.9543E-03    -26.0101E-03     51.4737E-03    -25.7336E-03     18.9535E-03
            1828     2.63151E-03     33.4911E-03    -19.0585E+06    -97.1903E+06    -16.7126E+06     578.443E+03    -25.9204E-03     51.6991E-03    -25.7787E-03     14.1343E-03    -25.8513E-03     51.2658E-03    -25.6937E-03     14.1348E-03
            1829     1.75438E-03     33.4790E-03    -19.7624E+06    -98.0902E+06    -18.6720E+06     424.633E+03    -25.8075E-03     51.5495E-03    -25.7420E-03     9.43213E-03    -25.7374E-03     51.1151E-03    -25.6644E-03     9.43318E-03
            1830     877.228E-06     33.4723E-03    -20.1299E+06    -98.5900E+06    -19.8765E+06     242.808E+03    -25.7265E-03     51.4563E-03    -25.7298E-03     5.03277E-03    -25.6555E-03     51.0215E-03    -25.6571E-03     5.03363E-03
            1831     16.6495E-03     33.8021E-03    -6.01521E+06     180.364E+06     95.4877E+06     604.672E+03    -45.8449E-03     72.8992E-03    -27.0542E-03     344.662E-03    -62.0565E-03     89.4528E-03    -26.8296E-03     353.033E-03
            1832     15.7731E-03     33.4309E-03    -10.0829E+06     126.052E+06     29.9204E+06     402.342E+03    -45.5768E-03     72.3102E-03    -26.7333E-03     303.554E-03    -54.6383E-03     81.6965E-03    -26.7519E-03     304.641E-03
            1833     14.8971E-03     33.2063E-03    -10.9112E+06     53.6339E+06    -24.0577E+06     767.794E+03    -35.4162E-03     61.9051E-03    -26.4889E-03     173.849E-03    -37.0587E-03     63.7690E-03    -26.6712E-03     173.548E-03
            1834     14.0227E-03     33.0991E-03    -9.58169E+06     1.82692E+06    -28.8689E+06     1.21875E+06    -29.7141E-03     56.1777E-03    -26.4636E-03     91.9814E-03    -30.0769E-03     56.5966E-03    -26.5967E-03     91.7568E-03
            1835     13.1467E-03     33.0281E-03    -8.18301E+06    -22.3776E+06    -12.1884E+06     464.506E+03    -28.9565E-03     55.4637E-03    -26.5072E-03     75.0616E-03    -29.1121E-03     55.5461E-03    -26.5238E-03     74.8898E-03
            1836     12.2706E-03     32.9538E-03    -8.87944E+06    -38.2650E+06    -6.28680E+06     614.611E+03    -29.2382E-03     55.7117E-03    -26.4735E-03     75.0178E-03    -29.3327E-03     55.6571E-03    -26.4366E-03     74.8797E-03
            1837     11.3968E-03     32.8824E-03    -9.04132E+06    -60.2051E+06    -7.75147E+06     747.941E+03    -28.9519E-03     55.3457E-03    -26.3939E-03     68.4901E-03    -28.9756E-03     55.1462E-03    -26.3322E-03     68.3831E-03
            1838     10.5196E-03     32.8207E-03    -9.25060E+06     -75.252E+06    -6.55753E+06     983.979E+03    -28.5168E-03     54.8320E-03    -26.3152E-03     61.5558E-03    -28.4933E-03     54.5276E-03    -26.2255E-03     61.4802E-03
            1839     9.64534E-03     32.7621E-03    -9.69923E+06    -81.4572E+06    -2.03062E+06     1.01053E+06    -28.1872E-03     54.4273E-03    -26.2400E-03     55.9630E-03    -28.1472E-03     54.0695E-03    -26.1180E-03     55.9080E-03
            1840     8.76859E-03     32.7111E-03    -10.7911E+06    -86.2839E+06    -1.16342E+06     1.13280E+06    -27.8347E-03     53.9776E-03    -26.1429E-03     50.2639E-03    -27.7835E-03     53.5852E-03    -26.0080E-03     50.2262E-03
            1841     7.89299E-03     32.6635E-03    -11.7667E+06    -90.0628E+06    -1.99937E+06     1.24215E+06    -27.4453E-03     53.4821E-03    -26.0368E-03     44.5921E-03    -27.3849E-03     53.0661E-03    -25.8992E-03     44.5682E-03
            1842     7.01665E-03     32.6232E-03    -12.9155E+06    -91.7078E+06    -3.30819E+06     1.24327E+06    -27.0222E-03     52.9560E-03    -25.9338E-03     39.1008E-03    -26.9584E-03     52.5303E-03    -25.7986E-03     39.0865E-03
            1843     6.14007E-03     32.5865E-03    -14.2256E+06    -92.4467E+06    -5.83454E+06     1.15188E+06    -26.6724E-03     52.5066E-03    -25.8342E-03     33.7478E-03    -26.6071E-03     52.0796E-03    -25.7087E-03     33.7395E-03
            1844     5.26337E-03     32.5563E-03    -15.4661E+06    -93.2676E+06    -8.38321E+06     1.08911E+06    -26.3667E-03     52.1104E-03    -25.7437E-03     28.5405E-03    -26.3005E-03     51.6825E-03    -25.6279E-03     28.5370E-03
            1845     4.38643E-03     32.5299E-03    -16.7811E+06    -94.3864E+06    -11.2236E+06     950.820E+03    -26.0942E-03     51.7568E-03    -25.6626E-03     23.5286E-03    -26.0274E-03     51.3279E-03    -25.5575E-03     23.5277E-03
            1846     3.50938E-03     32.5094E-03    -17.9453E+06    -95.7001E+06    -14.2014E+06     842.765E+03    -25.8717E-03     51.4642E-03    -25.5925E-03     18.6394E-03    -25.8035E-03     51.0337E-03    -25.4987E-03     18.6406E-03
            1847     2.63211E-03     32.4928E-03    -18.9114E+06    -96.7215E+06    -16.5491E+06     642.982E+03    -25.6974E-03     51.2336E-03    -25.5363E-03     13.8952E-03    -25.6284E-03     50.8021E-03    -25.4513E-03     13.8967E-03
            1848     1.75487E-03     32.4816E-03    -19.5681E+06    -97.6244E+06    -18.4806E+06     402.808E+03    -25.5665E-03     51.0605E-03    -25.4940E-03     9.27463E-03    -25.4964E-03     50.6279E-03    -25.4165E-03     9.27551E-03
            1849     877.386E-06     32.4743E-03    -19.9660E+06    -98.1454E+06    -19.7286E+06     218.685E+03    -25.4673E-03     50.9561E-03    -25.4887E-03     4.94049E-03    -25.3963E-03     50.5231E-03    -25.4161E-03     4.94108E-03
            1850     16.6438E-03     32.7895E-03    -5.66292E+06     180.373E+06     95.3236E+06     534.371E+03    -45.9332E-03     72.9693E-03    -27.0361E-03     343.915E-03    -62.1198E-03     89.4997E-03    -26.8128E-03     352.226E-03
            1851     15.7731E-03     32.4334E-03    -9.88386E+06     126.349E+06     30.4292E+06     622.702E+03    -45.4144E-03     72.1237E-03    -26.7093E-03     302.338E-03    -54.4013E-03     81.4357E-03    -26.7260E-03     303.449E-03
            1852     14.8970E-03     32.2024E-03    -11.4630E+06     54.0403E+06    -22.7602E+06     422.617E+03    -35.8380E-03     62.2925E-03    -26.4546E-03     173.525E-03    -37.4832E-03     64.1550E-03    -26.6301E-03     173.210E-03
            1853     14.0232E-03     32.0978E-03    -10.1283E+06     2.00022E+06    -28.7778E+06     63.5882E+03    -30.2116E-03     56.6027E-03    -26.3911E-03     91.1143E-03    -30.5783E-03     57.0240E-03    -26.5232E-03     90.8695E-03
            1854     13.1477E-03     32.0282E-03    -8.45942E+06    -22.6097E+06    -12.9309E+06     765.282E+03    -29.1990E-03     55.5988E-03    -26.3998E-03     75.1718E-03    -29.3536E-03     55.6807E-03    -26.4194E-03     75.0036E-03
            1855     12.2733E-03     31.9516E-03    -8.42118E+06    -38.0018E+06    -6.17995E+06     909.942E+03    -29.2111E-03     55.5651E-03    -26.3540E-03     74.9227E-03    -29.3029E-03     55.5099E-03    -26.3175E-03     74.7896E-03
            1856     11.3966E-03     31.8829E-03    -9.08801E+06    -60.4712E+06    -8.27587E+06     945.123E+03    -29.0656E-03     55.3249E-03    -26.2594E-03     68.0302E-03    -29.0876E-03     55.1240E-03    -26.1999E-03     67.9261E-03
            1857     10.5229E-03     31.8193E-03    -9.21860E+06    -75.1763E+06    -6.78386E+06     1.07332E+06    -28.6450E-03     54.8040E-03    -26.1590E-03     60.9326E-03    -28.6207E-03     54.4997E-03    -26.0705E-03     60.8582E-03
            1858     9.64588E-03     31.7633E-03    -9.70840E+06    -81.3313E+06    -2.38065E+06     1.20174E+06    -28.1829E-03     54.2449E-03    -26.0620E-03     55.3935E-03    -28.1419E-03     53.8876E-03    -25.9419E-03     55.3418E-03
            1859     8.77086E-03     31.7104E-03    -10.4711E+06    -86.1598E+06    -1.25474E+06     1.17340E+06    -27.7751E-03     53.7249E-03    -25.9498E-03     49.6079E-03    -27.7218E-03     53.3322E-03    -25.8160E-03     49.5715E-03
            1860     7.89452E-03     31.6652E-03    -11.6992E+06    -90.1621E+06    -2.13632E+06     1.30311E+06    -27.3066E-03     53.1390E-03    -25.8324E-03     43.9563E-03    -27.2452E-03     52.7222E-03    -25.6954E-03     43.9340E-03
            1861     7.01804E-03     31.6237E-03    -12.9317E+06    -91.4516E+06    -3.37650E+06     1.37329E+06    -26.9114E-03     52.6290E-03    -25.7176E-03     38.5514E-03    -26.8477E-03     52.2045E-03    -25.5831E-03     38.5394E-03
            1862     6.14157E-03     31.5886E-03    -14.1633E+06    -92.1042E+06    -5.85114E+06     1.22980E+06    -26.5424E-03     52.1453E-03    -25.6029E-03     33.2013E-03    -26.4772E-03     51.7197E-03    -25.4780E-03     33.1944E-03
            1863     5.26462E-03     31.5577E-03    -15.4705E+06    -93.0113E+06    -8.51864E+06     1.19040E+06    -26.1856E-03     51.6838E-03    -25.4982E-03     28.0627E-03    -26.1195E-03     51.2573E-03    -25.3835E-03     28.0609E-03
            1864     4.38760E-03     31.5326E-03    -16.7038E+06    -93.9600E+06    -11.0912E+06     1.14935E+06    -25.8883E-03     51.2948E-03    -25.4066E-03     23.1048E-03    -25.8218E-03     50.8677E-03    -25.3016E-03     23.1068E-03
            1865     3.51025E-03     31.5115E-03    -17.8575E+06    -95.2081E+06    -13.9304E+06     908.787E+03    -25.6374E-03     50.9644E-03    -25.3270E-03     18.2907E-03    -25.5698E-03     50.5358E-03    -25.2327E-03     18.2930E-03
            1866     2.63293E-03     31.4958E-03    -18.6811E+06    -96.1791E+06    -16.3279E+06     626.203E+03    -25.4366E-03     50.6999E-03    -25.2634E-03     13.6318E-03    -25.3675E-03     50.2705E-03    -25.1785E-03     13.6333E-03
            1867     1.75524E-03     31.4841E-03    -19.3419E+06    -97.1606E+06    -18.3191E+06     409.375E+03    -25.2933E-03     50.5110E-03    -25.2177E-03     9.08800E-03    -25.2228E-03     50.0801E-03    -25.1404E-03     9.08910E-03
            1868     877.741E-06     31.4775E-03    -19.7241E+06    -97.6756E+06    -19.4646E+06     225.979E+03    -25.2046E-03     50.4023E-03    -25.1977E-03     4.87037E-03    -25.1335E-03     49.9709E-03    -25.1248E-03     4.87110E-03
            1869     16.6529E-03     31.7935E-03    -5.88598E+06     180.003E+06     96.1419E+06     481.438E+03    -46.0923E-03     73.1041E-03    -27.0118E-03     343.993E-03    -62.2144E-03     89.5656E-03    -26.7836E-03     352.208E-03
            1870     15.7721E-03     31.4297E-03    -9.36647E+06     126.784E+06     31.7392E+06     1.20252E+06    -45.8319E-03     72.5006E-03    -26.6687E-03     301.884E-03    -54.8168E-03     81.8102E-03    -26.6803E-03     302.986E-03
            1871     14.9001E-03     31.2008E-03    -9.12878E+06     54.1698E+06    -21.0402E+06     568.380E+03    -36.1303E-03     62.5166E-03    -26.3863E-03     172.103E-03    -37.7561E-03     64.3634E-03    -26.5568E-03     171.775E-03
            1872     14.0237E-03     31.0969E-03    -8.32781E+06     2.04320E+06    -27.3063E+06     461.489E+03    -30.1007E-03     56.4089E-03    -26.3082E-03     90.3254E-03    -30.4544E-03     56.8194E-03    -26.4356E-03     90.0883E-03
            1873     13.1499E-03     31.0258E-03    -8.93719E+06    -23.0873E+06    -13.5186E+06     981.615E+03    -29.5348E-03     55.8302E-03    -26.2954E-03     74.7269E-03    -29.6901E-03     55.9110E-03    -26.3165E-03     74.5595E-03
            1874     12.2735E-03     30.9527E-03    -8.89019E+06    -38.0373E+06    -6.73860E+06     990.499E+03    -29.4366E-03     55.6569E-03    -26.2204E-03     74.4455E-03    -29.5291E-03     55.6025E-03    -26.1860E-03     74.3129E-03
            1875     11.3997E-03     30.8804E-03     -9.1154E+06    -60.2816E+06    -8.70465E+06     1.12603E+06    -29.1021E-03     55.2059E-03    -26.1038E-03     67.3347E-03    -29.1226E-03     55.0053E-03    -26.0467E-03     67.2339E-03
            1876     10.5232E-03     30.8204E-03    -9.15521E+06    -75.6355E+06    -7.15400E+06     1.22156E+06    -28.7229E-03     54.7080E-03    -25.9851E-03     60.2392E-03    -28.6964E-03     54.4012E-03    -25.8979E-03     60.1671E-03
            1877     9.64886E-03     30.7625E-03    -9.62245E+06    -80.9237E+06    -2.31178E+06     1.39475E+06    -28.2270E-03     54.0931E-03    -25.8661E-03     54.7555E-03    -28.1857E-03     53.7371E-03    -25.7463E-03     54.7067E-03
            1878     8.77240E-03     30.7120E-03    -10.7525E+06    -86.2615E+06    -1.71344E+06     1.36838E+06    -27.6602E-03     53.3952E-03    -25.7350E-03     48.9685E-03    -27.6070E-03     53.0025E-03    -25.6029E-03     48.9356E-03
            1879     7.89623E-03     30.6657E-03    -11.5159E+06    -90.0535E+06    -2.27279E+06     1.30929E+06    -27.2203E-03     52.8242E-03    -25.6039E-03     43.3324E-03    -27.1576E-03     52.4075E-03    -25.4680E-03     43.3108E-03
            1880     7.01993E-03     30.6257E-03    -12.6020E+06    -91.1257E+06    -3.45444E+06     1.41564E+06    -26.7936E-03     52.2651E-03    -25.4715E-03     37.8801E-03    -26.7283E-03     51.8416E-03    -25.3384E-03     37.8692E-03
            1881     6.14304E-03     30.5901E-03    -14.0227E+06    -91.8707E+06    -6.02580E+06     1.50099E+06    -26.3651E-03     51.7065E-03    -25.3414E-03     32.5764E-03    -26.2990E-03     51.2820E-03    -25.2180E-03     32.5736E-03
            1882     5.26614E-03     30.5605E-03    -15.4763E+06    -92.6048E+06    -8.51612E+06     1.39550E+06    -25.9893E-03     51.2130E-03    -25.2237E-03     27.5229E-03    -25.9237E-03     50.7884E-03    -25.1096E-03     27.5242E-03
            1883     4.38878E-03     30.5348E-03    -16.6882E+06    -93.4640E+06    -10.9905E+06     1.10935E+06    -25.6545E-03     50.7738E-03    -25.1193E-03     22.6345E-03    -25.5887E-03     50.3488E-03    -25.0145E-03     22.6364E-03
            1884     3.51141E-03     30.5148E-03    -17.5624E+06    -94.6153E+06    -13.7502E+06     881.375E+03    -25.3711E-03     50.4004E-03    -25.0292E-03     17.9018E-03    -25.3031E-03     49.9740E-03    -24.9353E-03     17.9041E-03
            1885     2.63359E-03     30.4987E-03    -18.4858E+06    -95.7068E+06    -16.1875E+06     665.974E+03    -25.1471E-03     50.1056E-03    -24.9585E-03     13.3347E-03    -25.0780E-03     49.6781E-03    -24.8739E-03     13.3370E-03
            1886     1.75594E-03     30.4877E-03    -19.1919E+06    -96.6532E+06    -18.1304E+06     430.009E+03    -24.9896E-03     49.8982E-03    -24.9086E-03     8.88983E-03    -24.9194E-03     49.4693E-03    -24.8313E-03     8.89134E-03
            1887     877.859E-06     30.4807E-03    -19.5783E+06    -97.2167E+06    -19.3319E+06     162.521E+03    -24.9013E-03     49.7800E-03    -24.8787E-03     4.77674E-03    -24.8303E-03     49.3504E-03    -24.8060E-03     4.77671E-03
            1888     16.6433E-03     30.7901E-03    -5.94424E+06     179.617E+06     96.3631E+06     455.514E+03    -47.0807E-03     74.0773E-03    -26.9966E-03     343.023E-03    -63.1420E-03     90.4757E-03    -26.7666E-03     351.116E-03
            1889     15.7754E-03     30.4245E-03    -8.85217E+06     126.339E+06     31.1591E+06     78.6141E+03    -46.6047E-03     73.1995E-03    -26.5948E-03     300.835E-03    -55.5700E-03     82.4914E-03    -26.6094E-03     301.807E-03
            1890     14.9000E-03     30.2004E-03    -9.23004E+06     54.1390E+06    -23.3941E+06     765.007E+03    -35.9424E-03     62.2194E-03    -26.2770E-03     170.808E-03    -37.5385E-03     64.0427E-03    -26.4591E-03     170.488E-03
            1891     14.0263E-03     30.0947E-03    -9.48300E+06     2.07952E+06    -29.0452E+06     1.35673E+06    -30.2067E-03     56.4017E-03    -26.1951E-03     90.1945E-03    -30.5618E-03     56.8148E-03    -26.3296E-03     89.9688E-03
            1892     13.1499E-03     30.0259E-03    -8.97624E+06    -22.8867E+06    -13.8940E+06     968.447E+03    -29.7520E-03     55.9200E-03    -26.1681E-03     74.0049E-03    -29.9071E-03     56.0024E-03    -26.1914E-03     73.8353E-03
            1893     12.2771E-03     29.9498E-03    -8.69108E+06    -37.9484E+06    -7.00023E+06     1.13327E+06    -29.6675E-03     55.7339E-03    -26.0664E-03     73.6477E-03    -29.7580E-03     55.6791E-03    -26.0338E-03     73.5161E-03
            1894     11.4007E-03     29.8819E-03    -8.81049E+06    -60.3345E+06    -8.56831E+06     1.27995E+06    -29.1578E-03     55.0854E-03    -25.9276E-03     66.7632E-03    -29.1759E-03     54.8829E-03    -25.8702E-03     66.6652E-03
            1895     10.5263E-03     29.8188E-03    -9.39261E+06    -75.7576E+06    -7.46304E+06     1.37727E+06    -28.6938E-03     54.4839E-03    -25.7901E-03     59.5484E-03    -28.6667E-03     54.1762E-03    -25.7040E-03     59.4795E-03
            1896     9.65015E-03     29.7637E-03    -9.82829E+06    -81.0943E+06    -2.68995E+06     1.53652E+06    -28.1939E-03     53.8478E-03    -25.6539E-03     53.9714E-03    -28.1522E-03     53.4912E-03    -25.5355E-03     53.9253E-03
            1897     8.77452E-03     29.7125E-03    -10.3794E+06    -85.8473E+06    -1.58603E+06     1.51805E+06    -27.6594E-03     53.1616E-03    -25.5021E-03     48.2173E-03    -27.6046E-03     52.7698E-03    -25.3705E-03     48.1870E-03
            1898     7.89839E-03     29.6676E-03    -11.6991E+06    -89.8127E+06    -2.46994E+06     1.42049E+06    -27.1467E-03     52.4935E-03    -25.3469E-03     42.5694E-03    -27.0845E-03     52.0782E-03    -25.2120E-03     42.5499E-03
            1899     7.02173E-03     29.6273E-03    -12.9831E+06    -91.1459E+06    -3.75759E+06     1.47451E+06    -26.6359E-03     51.8311E-03    -25.1951E-03     37.1480E-03    -26.5718E-03     51.4082E-03    -25.0629E-03     37.1385E-03
            1900     6.14497E-03     29.5929E-03    -14.0642E+06    -91.6314E+06    -6.19024E+06     1.63698E+06    -26.1712E-03     51.2199E-03    -25.0486E-03     31.9179E-03    -26.1053E-03     50.7966E-03    -24.9263E-03     31.9175E-03
            1901     5.26765E-03     29.5629E-03    -15.1085E+06    -91.9888E+06    -8.29072E+06     1.50890E+06    -25.7599E-03     50.6767E-03    -24.9168E-03     26.9051E-03    -25.6936E-03     50.2542E-03    -24.8029E-03     26.9083E-03
            1902     4.39030E-03     29.5384E-03    -16.2466E+06    -92.8176E+06    -10.9332E+06     1.14561E+06    -25.3853E-03     50.1840E-03    -24.7987E-03     22.1036E-03    -25.3183E-03     49.7615E-03    -24.6952E-03     22.1064E-03
            1903     3.51243E-03     29.5180E-03    -17.4373E+06    -94.2029E+06    -13.8790E+06     914.488E+03    -25.0724E-03     49.7710E-03    -24.6986E-03     17.4762E-03    -25.0041E-03     49.3467E-03    -24.6061E-03     17.4793E-03
            1904     2.63465E-03     29.5028E-03    -18.3013E+06    -95.1428E+06    -16.0300E+06     742.912E+03    -24.8278E-03     49.4493E-03    -24.6214E-03     13.0133E-03    -24.7588E-03     49.0240E-03    -24.5371E-03     13.0168E-03
            1905     1.75636E-03     29.4915E-03    -18.9819E+06    -96.1173E+06    -18.0177E+06     476.850E+03    -24.6577E-03     49.2225E-03    -24.5648E-03     8.67915E-03    -24.5874E-03     48.7958E-03    -24.4880E-03     8.68141E-03
            1906     878.358E-06     29.4850E-03    -19.4464E+06    -96.7175E+06    -19.2728E+06     273.270E+03    -24.5534E-03     49.0862E-03    -24.5328E-03     4.66772E-03    -24.4826E-03     48.6589E-03    -24.4608E-03     4.66921E-03
            1907     16.6531E-03     29.7851E-03    -4.87013E+06     180.168E+06     95.7958E+06     76.8514E+03    -47.8172E-03     74.7659E-03    -26.9487E-03     341.648E-03    -63.8283E-03     91.1215E-03    -26.7239E-03     349.595E-03
            1908     15.7762E-03     29.4236E-03    -8.87254E+06     126.068E+06     30.0104E+06     627.374E+03    -46.5057E-03     73.0224E-03    -26.5167E-03     299.775E-03    -55.4229E-03     82.2686E-03    -26.5366E-03     300.751E-03
            1909     14.9026E-03     29.1976E-03    -11.5345E+06     53.5584E+06    -24.4603E+06     1.27117E+06    -36.2580E-03     62.4449E-03    -26.1869E-03     170.564E-03    -37.8541E-03     64.2611E-03    -26.3701E-03     170.250E-03
            1910     14.0266E-03     29.0948E-03    -10.0460E+06     2.67201E+06    -29.4986E+06     983.641E+03    -30.7974E-03     56.8655E-03    -26.0682E-03     89.4247E-03    -31.1565E-03     57.2840E-03    -26.2050E-03     89.1878E-03
            1911     13.1541E-03     29.0227E-03    -8.64385E+06    -23.0710E+06    -14.2293E+06     1.08620E+06    -29.7786E-03     55.7900E-03    -26.0114E-03     73.3259E-03    -29.9280E-03     55.8681E-03    -26.0365E-03     73.1595E-03
            1912     12.2774E-03     28.9507E-03    -8.77904E+06    -38.1903E+06    -7.37291E+06     1.35714E+06    -29.6388E-03     55.5368E-03    -25.8980E-03     73.1784E-03    -29.7273E-03     55.4799E-03    -25.8667E-03     73.0512E-03
            1913     11.4037E-03     28.8797E-03    -9.00387E+06    -60.0954E+06    -8.93300E+06     1.54881E+06    -29.3372E-03     55.0753E-03    -25.7382E-03     66.0921E-03    -29.3551E-03     54.8739E-03    -25.6826E-03     65.9977E-03
            1914     10.5280E-03     28.8203E-03    -9.03393E+06    -75.4636E+06    -7.66475E+06     1.51431E+06    -28.7267E-03     54.3013E-03    -25.5746E-03     58.8133E-03    -28.6969E-03     53.9938E-03    -25.4904E-03     58.7472E-03
            1915     9.65264E-03     28.7635E-03    -9.53473E+06    -81.2406E+06    -2.79582E+06     1.54479E+06    -28.1858E-03     53.6029E-03    -25.4171E-03     53.0749E-03    -28.1415E-03     53.2444E-03    -25.2994E-03     53.0298E-03
            1916     8.77689E-03     28.7141E-03    -10.5185E+06    -85.5651E+06    -1.69254E+06     1.71948E+06    -27.6470E-03     52.8871E-03    -25.2402E-03     47.2492E-03    -27.5927E-03     52.4967E-03    -25.1093E-03     47.2221E-03
            1917     7.90054E-03     28.6690E-03    -11.6763E+06    -89.5139E+06    -2.60609E+06     1.72241E+06    -27.0300E-03     52.0904E-03    -25.0604E-03     41.7251E-03    -26.9676E-03     51.6763E-03    -24.9267E-03     41.7104E-03
            1918     7.02399E-03     28.6300E-03    -13.0114E+06    -90.9779E+06    -3.92405E+06     1.68712E+06    -26.4642E-03     51.3533E-03    -24.8890E-03     36.3492E-03    -26.4000E-03     50.9312E-03    -24.7579E-03     36.3432E-03
            1919     6.14683E-03     28.5955E-03    -14.2479E+06    -91.2184E+06    -6.26616E+06     1.44463E+06    -25.9620E-03     50.6864E-03    -24.7244E-03     31.1957E-03    -25.8972E-03     50.2654E-03    -24.6028E-03     31.1934E-03
            1920     5.26959E-03     28.5666E-03    -15.1276E+06    -91.5036E+06    -8.41460E+06     1.28510E+06    -25.4912E-03     50.0673E-03    -24.5761E-03     26.2550E-03    -25.4253E-03     49.6473E-03    -24.4635E-03     26.2559E-03
            1921     4.39172E-03     28.5420E-03    -16.1028E+06    -92.3513E+06    -10.9246E+06     1.32255E+06    -25.0835E-03     49.5295E-03    -24.4460E-03     21.5338E-03    -25.0163E-03     49.1090E-03    -24.3434E-03     21.5393E-03
            1922     3.51386E-03     28.5225E-03    -17.1256E+06    -93.5857E+06    -13.7604E+06     1.08631E+06    -24.7439E-03     49.0795E-03    -24.3356E-03     17.0035E-03    -24.6750E-03     48.6576E-03    -24.2439E-03     17.0091E-03
            1923     2.63544E-03     28.5071E-03    -18.0489E+06    -94.6333E+06    -16.0971E+06     808.416E+03    -24.4771E-03     48.7265E-03    -24.2494E-03     12.6581E-03    -24.4074E-03     48.3035E-03    -24.1665E-03     12.6627E-03
            1924     1.75722E-03     28.4964E-03    -18.6973E+06    -95.5193E+06    -17.9414E+06     643.531E+03    -24.2888E-03     48.4765E-03    -24.1877E-03     8.44297E-03    -24.2181E-03     48.0523E-03    -24.1118E-03     8.44753E-03
            1925     878.485E-06     28.4896E-03    -19.1547E+06    -96.0219E+06    -18.9640E+06     399.253E+03    -24.1742E-03     48.3296E-03    -24.1553E-03     4.55789E-03    -24.1034E-03     47.9048E-03    -24.0831E-03     4.56110E-03
            1926     16.6470E-03     28.7795E-03    -5.88222E+06     178.799E+06     94.5382E+06     39.5924E+03    -47.9851E-03     74.8888E-03    -26.9037E-03     341.506E-03    -63.9267E-03     91.1700E-03    -26.6817E-03     349.362E-03
            1927     15.7764E-03     28.4195E-03    -10.4911E+06     125.006E+06     29.9920E+06     1.22810E+06    -46.7957E-03     73.2549E-03    -26.4592E-03     298.332E-03    -55.6448E-03     82.4236E-03    -26.4753E-03     299.305E-03
            1928     14.9018E-03     28.1963E-03    -10.7184E+06     54.2692E+06    -23.0060E+06     1.11593E+06    -36.9145E-03     63.0058E-03    -26.0913E-03     169.331E-03    -38.5001E-03     64.8127E-03    -26.2695E-03     169.002E-03
            1929     14.0308E-03     28.0904E-03    -9.45421E+06     2.90373E+06    -29.8823E+06     1.24452E+06    -31.0134E-03     56.9405E-03    -25.9271E-03     88.5103E-03    -31.3625E-03     57.3530E-03    -26.0670E-03     88.2759E-03
            1930     13.1545E-03     28.0242E-03    -8.69293E+06    -23.0756E+06    -14.7735E+06     1.32946E+06    -29.9071E-03     55.7558E-03    -25.8488E-03     72.9404E-03    -30.0539E-03     55.8328E-03    -25.8766E-03     72.7777E-03
            1931     12.2809E-03     27.9481E-03    -8.55438E+06    -38.0523E+06    -7.69275E+06     1.37922E+06    -29.8287E-03     55.5407E-03    -25.7119E-03     72.6317E-03    -29.9147E-03     55.4835E-03    -25.6828E-03     72.5048E-03
            1932     11.4054E-03     27.8805E-03    -8.64194E+06    -59.9878E+06    -9.11745E+06     1.58841E+06    -29.4191E-03     54.9452E-03    -25.5261E-03     65.0086E-03    -29.4335E-03     54.7424E-03    -25.4722E-03     64.9156E-03
            1933     10.5307E-03     27.8195E-03    -8.93097E+06    -75.3110E+06    -7.74074E+06     1.64945E+06    -28.8496E-03     54.1840E-03    -25.3344E-03     57.7174E-03    -28.8185E-03     53.8763E-03    -25.2509E-03     57.6536E-03
            1934     9.65537E-03     27.7651E-03    -9.63295E+06    -81.2616E+06    -3.21805E+06     1.75104E+06    -28.1978E-03     53.3430E-03    -25.1452E-03     52.0600E-03    -28.1526E-03     52.9844E-03    -25.0295E-03     52.0185E-03
            1935     8.77928E-03     27.7151E-03    -10.3762E+06    -85.6002E+06    -1.92239E+06     1.90014E+06    -27.5168E-03     52.4624E-03    -24.9455E-03     46.2719E-03    -27.4607E-03     52.0711E-03    -24.8160E-03     46.2482E-03
            1936     7.90317E-03     27.6716E-03    -11.5467E+06    -89.0926E+06    -2.68122E+06     2.03115E+06    -26.9001E-03     51.6452E-03    -24.7452E-03     40.7486E-03    -26.8370E-03     51.2327E-03    -24.6126E-03     40.7387E-03
            1937     7.02623E-03     27.6326E-03    -12.6541E+06    -90.5232E+06    -4.13089E+06     1.76873E+06    -26.2898E-03     50.8401E-03    -24.5503E-03     35.4772E-03    -26.2237E-03     50.4197E-03    -24.4213E-03     35.4731E-03
            1938     6.14918E-03     27.5992E-03    -13.6919E+06    -90.6054E+06    -6.30343E+06     1.52244E+06    -25.7084E-03     50.0752E-03    -24.3667E-03     30.3689E-03    -25.6414E-03     49.6562E-03    -24.2470E-03     30.3683E-03
            1939     5.27139E-03     27.5704E-03    -15.0622E+06    -91.2263E+06    -8.67478E+06     1.32074E+06    -25.1942E-03     49.3977E-03    -24.2034E-03     25.5461E-03    -25.1279E-03     48.9791E-03    -24.0927E-03     25.5481E-03
            1940     4.39355E-03     27.5467E-03    -16.1329E+06    -92.0028E+06    -11.1120E+06     1.19627E+06    -24.7578E-03     48.8180E-03    -24.0602E-03     20.9182E-03    -24.6909E-03     48.3994E-03    -23.9589E-03     20.9225E-03
            1941     3.51510E-03     27.5272E-03    -16.9383E+06    -93.0348E+06    -13.7303E+06     1.20139E+06    -24.3869E-03     48.3251E-03    -23.9381E-03     16.4886E-03    -24.3179E-03     47.9055E-03    -23.8473E-03     16.4960E-03
            1942     2.63671E-03     27.5125E-03    -17.7910E+06    -94.0209E+06    -16.0269E+06     1.07566E+06    -24.0922E-03     47.9347E-03    -23.8425E-03     12.2679E-03    -24.0221E-03     47.5142E-03    -23.7605E-03     12.2762E-03
            1943     1.75775E-03     27.5017E-03    -18.4996E+06    -94.8104E+06    -17.7082E+06     764.565E+03    -23.8842E-03     47.6595E-03    -23.7754E-03     8.18257E-03    -23.8138E-03     47.2382E-03    -23.6996E-03     8.18887E-03
            1944     879.050E-06     27.4955E-03    -18.7855E+06    -95.1584E+06    -18.6459E+06     453.216E+03    -23.7545E-03     47.5001E-03    -23.7456E-03     4.42422E-03    -23.6835E-03     47.0787E-03    -23.6736E-03     4.42821E-03
            1945     16.6526E-03     27.7749E-03    -5.66017E+06     178.639E+06     94.8906E+06     678.362E+03    -48.5623E-03     75.4305E-03    -26.8682E-03     339.460E-03    -64.3396E-03     91.5467E-03    -26.6445E-03     347.181E-03
            1946     15.7780E-03     27.4174E-03    -10.2154E+06     124.897E+06     30.2614E+06     282.345E+03    -47.4479E-03     73.8223E-03    -26.3744E-03     296.389E-03    -56.1892E-03     82.8830E-03    -26.3894E-03     297.274E-03
            1947     14.9072E-03     27.1918E-03    -10.3355E+06     53.9268E+06    -23.7576E+06     1.13486E+06    -37.1170E-03     63.0799E-03    -25.9629E-03     168.197E-03    -38.6823E-03     64.8689E-03    -26.1449E-03     167.858E-03
            1948     14.0303E-03     27.0908E-03    -9.60537E+06     2.86371E+06    -30.4850E+06     1.69214E+06    -31.0511E-03     56.8320E-03    -25.7809E-03     87.5149E-03    -31.3939E-03     57.2393E-03    -25.9236E-03     87.2876E-03
            1949     13.1576E-03     27.0212E-03    -9.31196E+06    -22.5036E+06    -15.2493E+06     1.24275E+06    -30.3247E-03     56.0000E-03    -25.6753E-03     72.0731E-03    -30.4741E-03     56.0807E-03    -25.7055E-03     71.9068E-03
            1950     12.2828E-03     26.9484E-03    -8.88634E+06    -38.1636E+06    -8.41663E+06     1.21914E+06    -30.1608E-03     55.6572E-03    -25.4964E-03     71.6518E-03    -30.2458E-03     55.5996E-03    -25.4702E-03     71.5221E-03
            1951     11.4086E-03     26.8795E-03    -9.05389E+06    -59.9985E+06    -9.63815E+06     1.55495E+06    -29.5289E-03     54.8044E-03    -25.2755E-03     63.8337E-03    -29.5430E-03     54.6014E-03    -25.2236E-03     63.7411E-03
            1952     10.5337E-03     26.8204E-03    -9.12661E+06    -75.3331E+06    -8.22894E+06     1.87964E+06    -28.8399E-03     53.8957E-03    -25.0558E-03     56.5595E-03    -28.8077E-03     53.5875E-03    -24.9744E-03     56.5001E-03
            1953     9.65809E-03     26.7659E-03    -9.32623E+06    -81.2640E+06    -3.30089E+06     1.89455E+06    -28.1179E-03     52.9619E-03    -24.8440E-03     50.9282E-03    -28.0701E-03     52.6021E-03    -24.7291E-03     50.8897E-03
            1954     8.78240E-03     26.7174E-03    -10.2134E+06    -85.6295E+06    -2.23403E+06     2.03583E+06    -27.4028E-03     52.0233E-03    -24.6205E-03     45.2350E-03    -27.3447E-03     51.6315E-03    -24.4927E-03     45.2144E-03
            1955     7.90568E-03     26.6740E-03    -10.9809E+06    -88.8443E+06    -2.59814E+06     2.16734E+06    -26.7386E-03     51.1367E-03    -24.3981E-03     39.7265E-03    -26.6727E-03     50.7240E-03    -24.2664E-03     39.7193E-03
            1956     7.02901E-03     26.6362E-03    -12.1910E+06    -89.7424E+06    -3.85611E+06     2.06258E+06    -26.0686E-03     50.2506E-03    -24.1820E-03     34.4854E-03    -26.0015E-03     49.8328E-03    -24.0534E-03     34.4858E-03
            1957     6.15142E-03     26.6032E-03    -13.6170E+06    -90.1894E+06    -6.43762E+06     1.72081E+06    -25.4286E-03     49.4072E-03    -23.9786E-03     29.5024E-03    -25.3614E-03     48.9901E-03    -23.8602E-03     29.5052E-03
            1958     5.27367E-03     26.5753E-03    -14.6164E+06    -90.6625E+06    -8.79427E+06     1.51433E+06    -24.8749E-03     48.6731E-03    -23.7982E-03     24.7716E-03    -24.8068E-03     48.2567E-03    -23.6895E-03     24.7767E-03
            1959     4.39525E-03     26.5518E-03    -15.7849E+06    -91.6671E+06    -11.5308E+06     1.34521E+06    -24.3980E-03     48.0379E-03    -23.6399E-03     20.2572E-03    -24.3291E-03     47.6210E-03    -23.5417E-03     20.2640E-03
            1960     3.51678E-03     26.5331E-03    -16.9418E+06    -92.6358E+06    -13.8636E+06     1.31194E+06    -24.0018E-03     47.5090E-03    -23.5072E-03     15.9444E-03    -23.9331E-03     47.0915E-03    -23.4176E-03     15.9536E-03
            1961     2.63769E-03     26.5184E-03    -17.7266E+06    -93.2741E+06    -15.6225E+06     1.17605E+06    -23.6771E-03     47.0794E-03    -23.4023E-03     11.8421E-03    -23.6083E-03     46.6619E-03    -23.3195E-03     11.8520E-03
            1962     1.75874E-03     26.5082E-03    -18.2077E+06    -93.9175E+06    -17.2797E+06     798.771E+03    -23.4484E-03     46.7742E-03    -23.3257E-03     7.90815E-03    -23.3785E-03     46.3563E-03    -23.2496E-03     7.91507E-03
            1963     879.271E-06     26.5017E-03    -18.5586E+06    -94.3078E+06    -18.2883E+06     422.060E+03    -23.2955E-03     46.5912E-03    -23.2957E-03     4.27269E-03    -23.2251E-03     46.1732E-03    -23.2235E-03     4.27637E-03
            1964     16.6496E-03     26.7702E-03    -5.53164E+06     178.406E+06     94.7229E+06     1.06455E+06    -49.6012E-03     76.4347E-03    -26.8335E-03     338.740E-03    -65.2930E-03     92.4655E-03    -26.6105E-03     346.320E-03
            1965     15.7801E-03     26.4108E-03    -8.96117E+06     125.520E+06     30.6846E+06     1.25868E+06    -48.2168E-03     74.5029E-03    -26.2861E-03     295.424E-03    -56.8894E-03     83.5003E-03    -26.3017E-03     296.244E-03
            1966     14.9055E-03     26.1907E-03    -10.6084E+06     53.8481E+06    -23.5488E+06     1.09542E+06    -37.5594E-03     63.3906E-03    -25.8312E-03     166.362E-03    -39.1060E-03     65.1590E-03    -26.0116E-03     166.014E-03
            1967     14.0347E-03     26.0876E-03    -9.77865E+06     3.14053E+06    -30.1570E+06     1.40503E+06    -31.4662E-03     57.0741E-03    -25.6078E-03     85.9478E-03    -31.8036E-03     57.4753E-03    -25.7490E-03     85.7145E-03
            1968     13.1597E-03     26.0208E-03    -8.73732E+06    -22.2156E+06    -15.0286E+06     1.37668E+06    -30.5770E-03     56.0404E-03    -25.4634E-03     71.0366E-03    -30.7215E-03     56.1186E-03    -25.4936E-03     70.8717E-03
            1969     12.2862E-03     25.9465E-03    -9.06272E+06    -38.1614E+06    -8.61140E+06     1.35142E+06    -30.3826E-03     55.6315E-03    -25.2489E-03     70.4280E-03    -30.4663E-03     55.5725E-03    -25.2235E-03     70.3003E-03
            1970     11.4119E-03     25.8799E-03    -9.13649E+06    -60.1467E+06    -9.81636E+06     1.64711E+06    -29.6093E-03     54.6039E-03    -24.9946E-03     62.5933E-03    -29.6216E-03     54.3987E-03    -24.9432E-03     62.5031E-03
            1971     10.5368E-03     25.8208E-03    -9.03646E+06    -75.4324E+06    -8.28468E+06     1.89316E+06    -28.7457E-03     53.4953E-03    -24.7496E-03     55.4640E-03    -28.7114E-03     53.1852E-03    -24.6685E-03     55.4066E-03
            1972     9.66149E-03     25.7676E-03    -9.39473E+06    -81.2103E+06    -3.58230E+06     1.98534E+06    -28.0223E-03     52.5370E-03    -24.5147E-03     49.8171E-03    -27.9734E-03     52.1769E-03    -24.4013E-03     49.7814E-03
            1973     8.78518E-03     25.7197E-03    -10.0013E+06    -85.4521E+06    -2.34774E+06     2.10978E+06    -27.3032E-03     51.5688E-03    -24.2656E-03     44.0850E-03    -27.2434E-03     51.1770E-03    -24.1389E-03     44.0665E-03
            1974     7.90897E-03     25.6773E-03    -10.8785E+06    -88.8176E+06    -3.30614E+06     2.23831E+06    -26.5328E-03     50.5487E-03    -24.0159E-03     38.6106E-03    -26.4649E-03     50.1364E-03    -23.8878E-03     38.6055E-03
            1975     7.03162E-03     25.6402E-03    -11.8859E+06    -89.2237E+06    -4.11239E+06     2.39753E+06    -25.7965E-03     49.5777E-03    -23.7812E-03     33.4458E-03    -25.7278E-03     49.1619E-03    -23.6551E-03     33.4515E-03
            1976     6.15410E-03     25.6081E-03    -13.0797E+06    -89.2873E+06    -6.24817E+06     2.08550E+06    -25.1349E-03     48.6952E-03    -23.5603E-03     28.5512E-03    -25.0663E-03     48.2814E-03    -23.4431E-03     28.5594E-03
            1977     5.27586E-03     25.5806E-03    -14.5480E+06    -90.2922E+06    -9.16497E+06     1.75850E+06    -24.5264E-03     47.8871E-03    -23.3607E-03     23.9322E-03    -24.4577E-03     47.4729E-03    -23.2545E-03     23.9412E-03
            1978     4.39735E-03     25.5580E-03    -15.7671E+06    -91.1488E+06    -11.5071E+06     1.78707E+06    -24.0069E-03     47.1964E-03    -23.1895E-03     19.5480E-03    -23.9386E-03     46.7819E-03    -23.0920E-03     19.5610E-03
            1979     3.51825E-03     25.5395E-03    -16.7911E+06    -91.9482E+06    -13.5845E+06     1.45524E+06    -23.5786E-03     46.6239E-03    -23.0453E-03     15.3551E-03    -23.5105E-03     46.2092E-03    -22.9556E-03     15.3666E-03
            1980     2.63913E-03     25.5256E-03    -17.5229E+06    -92.4599E+06    -15.3872E+06     1.01561E+06    -23.2355E-03     46.1641E-03    -22.9286E-03     11.3958E-03    -23.1673E-03     45.7500E-03    -22.8460E-03     11.4039E-03
            1981     1.75941E-03     25.5153E-03    -18.0225E+06     -93.098E+06    -17.0710E+06     746.619E+03    -22.9824E-03     45.8232E-03    -22.8409E-03     7.60887E-03    -22.9130E-03     45.4088E-03    -22.7651E-03     7.61532E-03
            1982     879.879E-06     25.5094E-03    -18.2670E+06    -93.4694E+06    -18.1774E+06     411.825E+03    -22.8090E-03     45.6106E-03    -22.8016E-03     4.09676E-03    -22.7386E-03     45.1962E-03    -22.7305E-03     4.10041E-03
            1983     16.6521E-03     25.7604E-03    -5.84528E+06     177.586E+06     94.4705E+06     735.859E+03    -50.4228E-03     77.2173E-03    -26.7946E-03     336.762E-03    -65.9602E-03     93.0905E-03    -26.5712E-03     344.114E-03
            1984     15.7803E-03     25.4076E-03    -9.65575E+06     124.476E+06     30.3837E+06     1.02024E+06    -49.0852E-03     75.2658E-03    -26.1806E-03     291.905E-03    -57.6268E-03     84.1269E-03    -26.1952E-03     292.609E-03
            1985     14.9113E-03     25.1855E-03    -10.1306E+06     54.3191E+06    -23.2526E+06     1.72857E+06    -38.1756E-03     63.8314E-03    -25.6558E-03     163.224E-03    -39.6860E-03     65.5662E-03    -25.8361E-03     162.867E-03
            1986     14.0365E-03     25.0870E-03    -9.51716E+06     4.34483E+06    -30.0812E+06     1.52968E+06    -31.7033E-03     57.0866E-03    -25.3833E-03     84.1697E-03    -32.0314E-03     57.4836E-03    -25.5262E-03     83.9381E-03
            1987     13.1635E-03     25.0186E-03    -9.15497E+06    -22.0495E+06    -15.6550E+06     1.30579E+06    -30.6691E-03     55.8774E-03    -25.2084E-03     70.1004E-03    -30.8120E-03     55.9550E-03    -25.2414E-03     69.9357E-03
            1988     12.2896E-03     24.9461E-03    -8.68515E+06    -38.4397E+06    -9.02630E+06     1.49606E+06    -30.3619E-03     55.3335E-03    -24.9716E-03     69.3786E-03    -30.4399E-03     55.2705E-03    -24.9484E-03     69.2551E-03
            1989     11.4151E-03     24.8797E-03    -8.45931E+06    -60.4119E+06    -9.85802E+06     1.77873E+06    -29.6125E-03     54.3081E-03    -24.6956E-03     61.4168E-03    -29.6190E-03     54.0987E-03    -24.6450E-03     61.3301E-03
            1990     10.5405E-03     24.8223E-03    -8.75606E+06    -75.5011E+06    -8.45101E+06     2.01202E+06    -28.7755E-03     53.1969E-03    -24.4213E-03     54.2720E-03    -28.7382E-03     52.8849E-03    -24.3414E-03     54.2173E-03
            1991     9.66458E-03     24.7695E-03    -9.10425E+06    -80.9439E+06    -3.69381E+06     2.11247E+06    -27.9679E-03     52.1228E-03    -24.1549E-03     48.5842E-03    -27.9167E-03     51.7626E-03    -24.0428E-03     48.5516E-03
            1992     8.78896E-03     24.7225E-03    -9.86993E+06    -85.3494E+06    -2.37140E+06     2.24306E+06    -27.1276E-03     51.0071E-03    -23.8795E-03     42.7738E-03    -27.0664E-03     50.6148E-03    -23.7533E-03     42.7584E-03
            1993     7.91197E-03     24.6812E-03    -10.8559E+06    -88.6547E+06    -3.63911E+06     2.38233E+06    -26.2868E-03     49.8928E-03    -23.6060E-03     37.4300E-03    -26.2179E-03     49.4812E-03    -23.4799E-03     37.4281E-03
            1994     7.03478E-03     24.6449E-03    -11.6554E+06    -88.9117E+06    -4.74549E+06     2.34946E+06    -25.5195E-03     48.8680E-03    -23.3485E-03     32.3568E-03    -25.4487E-03     48.4540E-03    -23.2264E-03     32.3630E-03
            1995     6.15681E-03     24.6135E-03    -12.6869E+06    -88.7199E+06    -6.30974E+06     2.59579E+06    -24.7990E-03     47.9093E-03    -23.1102E-03     27.5189E-03    -24.7289E-03     47.4975E-03    -22.9948E-03     27.5345E-03
            1996     5.27840E-03     24.5870E-03    -14.1907E+06    -89.5719E+06    -8.86731E+06     2.55791E+06    -24.1509E-03     47.0457E-03    -22.8948E-03     23.0231E-03    -24.0818E-03     46.6339E-03    -22.7886E-03     23.0430E-03
            1997     4.39939E-03     24.5648E-03    -15.6004E+06    -90.3534E+06    -11.2566E+06     1.97674E+06    -23.5863E-03     46.2943E-03    -22.7080E-03     18.7872E-03    -23.5185E-03     45.8831E-03    -22.6107E-03     18.8032E-03
            1998     3.52014E-03     24.5471E-03    -16.3997E+06    -90.9700E+06    -13.3704E+06     1.47254E+06    -23.1201E-03     45.6714E-03    -22.5512E-03     14.7447E-03    -23.0518E-03     45.2606E-03    -22.4624E-03     14.7569E-03
            1999     2.64027E-03     24.5333E-03    -17.1798E+06    -91.7047E+06    -15.4410E+06     1.07879E+06    -22.7598E-03     45.1834E-03    -22.4237E-03     10.9233E-03    -22.6908E-03     44.7727E-03    -22.3430E-03     10.9325E-03
            2000     1.76050E-03     24.5237E-03    -17.8466E+06    -92.3275E+06    -17.0521E+06     743.525E+03    -22.4837E-03     44.8117E-03    -22.3280E-03     7.27678E-03    -22.4146E-03     44.4009E-03    -22.2535E-03     7.28340E-03
            2001     880.179E-06     24.5176E-03    -18.2226E+06    -92.6142E+06    -17.9778E+06     454.054E+03    -22.3011E-03     44.5781E-03    -22.2770E-03     3.94699E-03    -22.2319E-03     44.1676E-03    -22.2062E-03     3.95129E-03
            2002     16.6523E-03     24.7551E-03    -5.83002E+06     176.973E+06     94.4666E+06     872.998E+03    -51.7865E-03     78.4984E-03    -26.7119E-03     334.516E-03    -67.1190E-03     94.1646E-03    -26.4877E-03     341.606E-03
            2003     15.7845E-03     24.3989E-03    -9.03726E+06     124.604E+06     31.5648E+06     1.57205E+06    -49.7244E-03     75.7552E-03    -26.0309E-03     289.383E-03    -58.1322E-03     84.4819E-03    -26.0406E-03     290.004E-03
            2004     14.9125E-03     24.1831E-03    -10.7041E+06     54.7872E+06    -23.3480E+06     2.03437E+06    -38.4523E-03     63.9057E-03    -25.4534E-03     161.050E-03    -39.9247E-03     65.6024E-03    -25.6341E-03     160.691E-03
            2005     14.0412E-03     24.0845E-03    -9.91194E+06     5.26870E+06    -30.7289E+06     1.79183E+06    -32.0460E-03     57.1844E-03    -25.1384E-03     83.0946E-03    -32.3706E-03     57.5817E-03    -25.2853E-03     82.8656E-03
            2006     13.1672E-03     24.0178E-03    -8.66971E+06    -21.8495E+06    -15.9502E+06     1.32833E+06    -30.7946E-03     55.7258E-03    -24.9312E-03     69.0849E-03    -30.9312E-03     55.8003E-03    -24.9667E-03     68.9222E-03
            2007     12.2930E-03     23.9454E-03    -8.50722E+06    -39.2083E+06    -9.94819E+06     1.43814E+06    -30.2706E-03     54.9409E-03    -24.6703E-03     68.3013E-03    -30.3419E-03     54.8717E-03    -24.6509E-03     68.1801E-03
            2008     11.4188E-03     23.8801E-03    -8.36920E+06    -60.8560E+06    -10.4662E+06     1.76582E+06    -29.6270E-03     53.9996E-03    -24.3726E-03     60.0747E-03    -29.6294E-03     53.7866E-03    -24.3245E-03     59.9897E-03
            2009     10.5438E-03     23.8236E-03    -8.36563E+06     -75.024E+06    -8.29039E+06     2.18985E+06    -28.8462E-03     52.9129E-03    -24.0667E-03     52.8310E-03    -28.8064E-03     52.6011E-03    -23.9872E-03     52.7798E-03
            2010     9.66891E-03     23.7717E-03    -8.88692E+06    -80.7361E+06    -3.69140E+06     2.37943E+06    -27.8665E-03     51.6328E-03    -23.7663E-03     47.1896E-03    -27.8135E-03     51.2723E-03    -23.6548E-03     47.1621E-03
            2011     8.79230E-03     23.7261E-03    -9.76688E+06    -85.3056E+06    -2.57149E+06     2.51103E+06    -26.8875E-03     50.3533E-03    -23.4658E-03     41.5139E-03    -26.8247E-03     49.9605E-03    -23.3408E-03     41.5037E-03
            2012     7.91557E-03     23.6856E-03    -10.7357E+06    -88.2096E+06    -3.59314E+06     2.56001E+06    -26.0385E-03     49.2099E-03    -23.1714E-03     36.2112E-03    -25.9691E-03     48.7997E-03    -23.0459E-03     36.2129E-03
            2013     7.03797E-03     23.6503E-03    -11.9805E+06    -88.6613E+06    -5.02714E+06     2.63230E+06    -25.2033E-03     48.0948E-03    -22.8915E-03     31.2246E-03    -25.1337E-03     47.6825E-03    -22.7707E-03     31.2357E-03
            2014     6.15978E-03     23.6199E-03    -13.1641E+06    -88.6873E+06    -6.84500E+06     2.84511E+06    -24.4355E-03     47.0689E-03    -22.6334E-03     26.5016E-03    -24.3667E-03     46.6584E-03    -22.5199E-03     26.5214E-03
            2015     5.28099E-03     23.5940E-03    -13.9441E+06    -88.5313E+06    -8.37071E+06     2.85549E+06    -23.7451E-03     46.1484E-03    -22.4033E-03     22.1100E-03    -23.6767E-03     45.7405E-03    -22.2966E-03     22.1345E-03
            2016     4.40172E-03     23.5727E-03    -14.8097E+06    -89.0568E+06    -10.8273E+06     2.28607E+06    -23.1398E-03     45.3400E-03    -22.2002E-03     18.0089E-03    -23.0705E-03     44.9333E-03    -22.1037E-03     18.0296E-03
            2017     3.52184E-03     23.5554E-03    -16.0228E+06    -90.1333E+06    -13.4930E+06     1.72001E+06    -22.6429E-03     44.6724E-03    -22.0295E-03     14.1153E-03    -22.5736E-03     44.2654E-03    -21.9430E-03     14.1312E-03
            2018     2.64186E-03     23.5423E-03    -16.9381E+06    -90.7847E+06    -15.2366E+06     1.33996E+06    -22.2415E-03     44.1374E-03    -21.8958E-03     10.4308E-03    -22.1729E-03     43.7305E-03    -21.8158E-03     10.4437E-03
            2019     1.76127E-03     23.5328E-03    -17.5844E+06    -91.4565E+06    -16.8582E+06     867.584E+03    -21.9489E-03     43.7483E-03    -21.7994E-03     6.95762E-03    -21.8800E-03     43.3412E-03    -21.7256E-03     6.96606E-03
            2020     880.785E-06     23.5274E-03    -17.9563E+06    -91.7196E+06    -17.8043E+06     433.284E+03    -21.7707E-03     43.5236E-03    -21.7529E-03     3.80613E-03    -21.7017E-03     43.1170E-03    -21.6829E-03     3.81026E-03
            2021     16.6556E-03     23.7453E-03    -6.02975E+06     175.891E+06     93.8791E+06     1.01755E+06    -53.2551E-03     79.8733E-03    -26.6183E-03     332.384E-03    -68.3803E-03     95.3294E-03    -26.3952E-03     339.183E-03
            2022     15.7862E-03     23.3926E-03    -9.36601E+06     124.096E+06     32.8072E+06     1.72672E+06    -50.3518E-03     76.2219E-03    -25.8701E-03     286.146E-03    -58.6144E-03     84.7968E-03    -25.8724E-03     286.663E-03
            2023     14.9164E-03     23.1794E-03    -10.2285E+06     56.0640E+06    -21.0588E+06     1.77379E+06    -38.6228E-03     63.8674E-03    -25.2446E-03     157.768E-03    -40.0450E-03     65.5135E-03    -25.4164E-03     157.406E-03
            2024     14.0434E-03     23.0817E-03    -9.20308E+06     6.33402E+06    -30.2856E+06     1.49422E+06    -32.2160E-03     57.1015E-03    -24.8856E-03     81.2009E-03    -32.5291E-03     57.4924E-03    -25.0329E-03     80.9691E-03
            2025     13.1709E-03     23.0171E-03    -8.21556E+06    -22.2426E+06    -16.3648E+06     1.62882E+06    -30.8910E-03     55.5386E-03    -24.6477E-03     67.9834E-03    -31.0203E-03     55.6073E-03    -24.6853E-03     67.8261E-03
            2026     12.2972E-03     22.9452E-03    -8.21021E+06    -39.4893E+06    -10.1657E+06     1.57314E+06    -30.4694E-03     54.8245E-03    -24.3551E-03     67.4329E-03    -30.5367E-03     54.7519E-03    -24.3367E-03     67.3142E-03
            2027     11.4227E-03     22.8811E-03    -8.38871E+06    -60.8015E+06    -10.6527E+06     1.89360E+06    -29.7078E-03     53.7279E-03    -24.0201E-03     58.7002E-03    -29.7077E-03     53.5131E-03    -23.9731E-03     58.6187E-03
            2028     10.5484E-03     22.8247E-03    -8.33524E+06    -75.2880E+06    -8.63465E+06     2.45166E+06    -28.7003E-03     52.3847E-03    -23.6844E-03     51.4084E-03    -28.6576E-03     52.0702E-03    -23.6063E-03     51.3631E-03
            2029     9.67244E-03     22.7750E-03    -8.67994E+06    -80.6783E+06    -3.94576E+06     2.70979E+06    -27.6948E-03     51.0553E-03    -23.3605E-03     45.8640E-03    -27.6391E-03     50.6939E-03    -23.2507E-03     45.8428E-03
            2030     8.79628E-03     22.7300E-03    -9.53707E+06    -84.8974E+06    -2.59250E+06     2.82588E+06    -26.7155E-03     49.7501E-03    -23.0346E-03     40.2206E-03    -26.6512E-03     49.3581E-03    -22.9106E-03     40.2161E-03
            2031     7.91916E-03     22.6908E-03    -10.6846E+06    -88.0471E+06    -3.92330E+06     3.02802E+06    -25.7488E-03     48.4634E-03    -22.7146E-03     34.9550E-03    -25.6782E-03     48.0537E-03    -22.5910E-03     34.9642E-03
            2032     7.04131E-03     22.6565E-03    -11.9829E+06    -88.2660E+06    -5.49116E+06     3.19359E+06    -24.8627E-03     47.2765E-03    -22.4138E-03     30.0768E-03    -24.7926E-03     46.8664E-03    -22.2959E-03     30.0963E-03
            2033     6.16284E-03     22.6270E-03    -13.0814E+06    -88.0834E+06    -7.22626E+06     2.89027E+06    -24.0532E-03     46.1904E-03    -22.1372E-03     25.4568E-03    -23.9840E-03     45.7831E-03    -22.0267E-03     25.4783E-03
            2034     5.28370E-03     22.6022E-03    -13.8467E+06    -87.7868E+06    -8.67246E+06     2.55750E+06    -23.3209E-03     45.2111E-03    -21.8903E-03     21.1849E-03    -23.2524E-03     44.8071E-03    -21.7863E-03     21.2064E-03
            2035     4.40397E-03     22.5814E-03    -14.6358E+06    -88.0827E+06    -10.5969E+06     2.56580E+06    -22.6802E-03     44.3541E-03    -21.6739E-03     17.1897E-03    -22.6116E-03     43.9515E-03    -21.5779E-03     17.2146E-03
            2036     3.52387E-03     22.5650E-03    -15.5537E+06    -88.9549E+06    -12.9431E+06     2.22373E+06    -22.1334E-03     43.6258E-03    -21.4924E-03     13.4581E-03    -22.0641E-03     43.2231E-03    -21.4056E-03     13.4809E-03
            2037     2.64315E-03     22.5521E-03    -16.4697E+06    -89.6935E+06    -14.8323E+06     1.55594E+06    -21.7035E-03     43.0563E-03    -21.3529E-03     9.93608E-03    -21.6347E-03     42.6536E-03    -21.2731E-03     9.95215E-03
            2038     1.76235E-03     22.5434E-03    -17.0996E+06    -90.3281E+06    -16.4183E+06     1.05449E+06    -21.4075E-03     42.6616E-03    -21.2542E-03     6.62480E-03    -21.3384E-03     42.2587E-03    -21.1805E-03     6.63587E-03
            2039     881.131E-06     22.5375E-03    -17.5208E+06    -90.6427E+06    -17.4022E+06     541.716E+03    -21.2182E-03     42.4304E-03    -21.2122E-03     3.60978E-03    -21.1492E-03     42.0279E-03    -21.1424E-03     3.61543E-03
            2040     16.6552E-03     22.7335E-03    -6.13991E+06     175.025E+06     94.2464E+06     1.11478E+06    -54.7096E-03     81.2238E-03    -26.5142E-03     328.489E-03    -69.5307E-03     96.3712E-03    -26.2878E-03     334.936E-03
            2041     15.7900E-03     22.3849E-03    -9.08407E+06     123.468E+06     33.4245E+06     1.65244E+06    -50.9138E-03     76.5928E-03    -25.6790E-03     281.367E-03    -58.9331E-03     84.9214E-03    -25.6777E-03     281.782E-03
            2042     14.9203E-03     22.1755E-03    -9.59133E+06     56.5751E+06    -20.4674E+06     1.36009E+06    -38.7142E-03     63.7137E-03    -24.9995E-03     154.818E-03    -40.0848E-03     65.3106E-03    -25.1699E-03     154.448E-03
            2043     14.0487E-03     22.0802E-03    -8.38535E+06     7.31750E+06    -29.8249E+06     1.76172E+06    -32.1330E-03     56.7477E-03    -24.6148E-03     79.4976E-03    -32.4321E-03     57.1296E-03    -24.7623E-03     79.2738E-03
            2044     13.1744E-03     22.0162E-03    -7.96447E+06    -22.5396E+06    -16.9125E+06     1.87569E+06    -30.9760E-03     55.3291E-03    -24.3531E-03     66.8912E-03    -31.0990E-03     55.3928E-03    -24.3934E-03     66.7392E-03
            2045     12.3007E-03     21.9451E-03    -7.67790E+06    -39.0844E+06    -10.2226E+06     1.85475E+06    -30.6851E-03     54.7126E-03    -24.0275E-03     66.3735E-03    -30.7478E-03     54.6390E-03    -24.0108E-03     66.2596E-03
            2046     11.4274E-03     21.8814E-03    -7.83913E+06    -60.8204E+06    -10.7462E+06     2.36118E+06    -29.7101E-03     53.3675E-03    -23.6574E-03     57.4542E-03    -29.7045E-03     53.1493E-03    -23.6115E-03     57.3815E-03
            2047     10.5521E-03     21.8278E-03    -8.17573E+06    -75.8968E+06    -9.16493E+06     2.69774E+06    -28.5796E-03     51.8730E-03    -23.2934E-03     50.1589E-03    -28.5326E-03     51.5541E-03    -23.2173E-03     50.1195E-03
            2048     9.67652E-03     21.7780E-03    -8.28799E+06    -80.4490E+06    -4.14790E+06     3.03009E+06    -27.5643E-03     50.5073E-03    -22.9430E-03     44.4777E-03    -27.5054E-03     50.1454E-03    -22.8350E-03     44.4626E-03
            2049     8.80022E-03     21.7348E-03    -9.24014E+06    -84.7524E+06    -2.55234E+06     3.36542E+06    -26.5028E-03     49.0941E-03    -22.5913E-03     38.7847E-03    -26.4363E-03     48.7014E-03    -22.4678E-03     38.7888E-03
            2050     7.92283E-03     21.6967E-03    -10.5039E+06    -87.7848E+06    -4.35111E+06     3.57483E+06    -25.4655E-03     47.7102E-03    -22.2448E-03     33.6952E-03    -25.3931E-03     47.3015E-03    -22.1240E-03     33.7131E-03
            2051     7.04483E-03     21.6634E-03    -11.3735E+06    -87.6443E+06    -6.17151E+06     3.45247E+06    -24.5204E-03     46.4405E-03    -21.9201E-03     28.8740E-03    -24.4466E-03     46.0332E-03    -21.8074E-03     28.8981E-03
            2052     6.16594E-03     21.6351E-03    -12.2380E+06    -87.0479E+06    -7.51867E+06     3.17442E+06    -23.6566E-03     45.2825E-03    -21.6259E-03     24.3696E-03    -23.5840E-03     44.8792E-03    -21.5195E-03     24.3957E-03
            2053     5.28649E-03     21.6110E-03    -13.4873E+06    -87.0657E+06    -9.00412E+06     2.84631E+06    -22.8908E-03     44.2533E-03    -21.3625E-03     20.2000E-03    -22.8209E-03     43.8526E-03    -21.2617E-03     20.2261E-03
            2054     4.40643E-03     21.5913E-03    -14.5440E+06    -87.3714E+06    -10.6978E+06     2.57092E+06    -22.1976E-03     43.3301E-03    -21.1325E-03     16.3336E-03    -22.1293E-03     42.9310E-03    -21.0382E-03     16.3591E-03
            2055     3.52573E-03     21.5753E-03    -15.1420E+06    -87.7459E+06    -12.5430E+06     2.33026E+06    -21.6070E-03     42.5493E-03    -20.9423E-03     12.7608E-03    -21.5379E-03     42.1513E-03    -20.8558E-03     12.7855E-03
            2056     2.64471E-03     21.5633E-03    -15.7990E+06    -88.3801E+06    -14.4117E+06     1.89127E+06    -21.1702E-03     41.9645E-03    -20.7943E-03     9.42017E-03    -21.1005E-03     41.5667E-03    -20.7153E-03     9.44091E-03
            2057     1.76327E-03     21.5545E-03    -16.5253E+06    -89.0613E+06    -15.9356E+06     1.29378E+06    -20.8731E-03     41.5553E-03    -20.6821E-03     6.24987E-03    -20.8037E-03     41.1572E-03    -20.6087E-03     6.26425E-03
            2058     881.761E-06     21.5495E-03    -16.8770E+06    -89.3561E+06    -16.8280E+06     756.910E+03    -20.6594E-03     41.2677E-03    -20.6083E-03     3.36383E-03    -20.5899E-03     40.8699E-03    -20.5384E-03     3.37239E-03
            2059     16.6602E-03     21.7197E-03    -6.01390E+06     173.969E+06     94.8627E+06     491.406E+03    -56.1828E-03     82.5714E-03    -26.3887E-03     324.178E-03    -70.6400E-03     97.3501E-03    -26.1579E-03     330.241E-03
            2060     15.7938E-03     21.3782E-03    -7.33947E+06     123.195E+06     34.5672E+06     1.58419E+06    -50.9617E-03     76.4414E-03    -25.4797E-03     276.901E-03    -58.7212E-03     84.5122E-03    -25.4749E-03     277.258E-03
            2061     14.9237E-03     21.1712E-03    -8.51863E+06     56.8123E+06    -21.3777E+06     2.25371E+06    -38.5681E-03     63.3315E-03    -24.7634E-03     152.533E-03    -39.8779E-03     64.8748E-03    -24.9403E-03     152.180E-03
            2062     14.0512E-03     21.0789E-03    -9.11091E+06     7.22295E+06    -31.3558E+06     2.28263E+06    -32.4018E-03     56.7562E-03    -24.3544E-03     78.5444E-03    -32.6940E-03     57.1327E-03    -24.5084E-03     78.3285E-03
            2063     13.1787E-03     21.0155E-03    -7.99353E+06    -21.6859E+06    -17.3762E+06     1.95707E+06    -31.3416E-03     55.3976E-03    -24.0560E-03     66.2668E-03    -31.4620E-03     55.4630E-03    -24.0998E-03     66.1159E-03
            2064     12.3057E-03     20.9447E-03    -7.55700E+06    -39.2625E+06    -10.9906E+06     2.06526E+06    -30.7384E-03     54.4314E-03    -23.6931E-03     65.3741E-03    -30.7958E-03     54.3546E-03    -23.6801E-03     65.2655E-03
            2065     11.4308E-03     20.8831E-03    -7.53688E+06    -61.5656E+06    -11.2590E+06     2.67193E+06    -29.7062E-03     53.0012E-03    -23.2950E-03     55.9561E-03    -29.6944E-03     52.7768E-03    -23.2511E-03     55.8902E-03
            2066     10.5564E-03     20.8300E-03    -7.43091E+06    -75.3533E+06    -8.93652E+06     3.03242E+06    -28.5974E-03     51.4960E-03    -22.8985E-03     48.5981E-03    -28.5459E-03     51.1766E-03    -22.8232E-03     48.5650E-03
            2067     9.68093E-03     20.7821E-03    -8.24960E+06    -80.6194E+06    -4.74601E+06     3.42097E+06    -27.3902E-03     49.9048E-03    -22.5146E-03     43.0017E-03    -27.3285E-03     49.5415E-03    -22.4095E-03     42.9940E-03
            2068     8.80402E-03     20.7402E-03    -9.05689E+06    -84.8968E+06    -2.98233E+06     3.93788E+06    -26.2485E-03     48.3883E-03    -22.1398E-03     37.4072E-03    -26.1793E-03     47.9943E-03    -22.0185E-03     37.4208E-03
            2069     7.92670E-03     20.7032E-03    -10.0072E+06    -87.0092E+06    -4.35230E+06     4.05165E+06    -25.2117E-03     46.9809E-03    -21.7692E-03     32.3327E-03    -25.1373E-03     46.5747E-03    -21.6503E-03     32.3582E-03
            2070     7.04827E-03     20.6714E-03    -11.0008E+06    -86.8027E+06    -6.48322E+06     3.67936E+06    -24.1847E-03     45.6032E-03    -21.4185E-03     27.6068E-03    -24.1094E-03     45.1995E-03    -21.3091E-03     27.6351E-03
            2071     6.16919E-03     20.6439E-03    -11.9311E+06    -86.3441E+06    -7.86735E+06     3.59471E+06    -23.2650E-03     44.3680E-03    -21.1030E-03     23.2089E-03    -23.1911E-03     43.9680E-03    -20.9998E-03     23.2415E-03
            2072     5.28932E-03     20.6210E-03    -12.7844E+06    -85.9935E+06    -9.13245E+06     3.36861E+06    -22.4329E-03     43.2552E-03    -20.8222E-03     19.1422E-03    -22.3607E-03     42.8588E-03    -20.7247E-03     19.1758E-03
            2073     4.40881E-03     20.6020E-03    -13.7463E+06    -86.3103E+06    -10.9280E+06     2.81702E+06    -21.7034E-03     42.2815E-03    -20.5782E-03     15.4270E-03    -21.6322E-03     41.8868E-03    -20.4877E-03     15.4564E-03
            2074     3.52776E-03     20.5871E-03    -14.6637E+06    -86.7483E+06    -12.7132E+06     2.41796E+06    -21.1052E-03     41.4796E-03    -20.3743E-03     12.0046E-03    -21.0349E-03     41.0861E-03    -20.2908E-03     12.0309E-03
            2075     2.64618E-03     20.5752E-03    -15.3009E+06    -87.0560E+06    -14.0303E+06     2.09887E+06    -20.6336E-03     40.8459E-03    -20.2123E-03     8.83642E-03    -20.5639E-03     40.4535E-03    -20.1340E-03     8.86018E-03
            2076     1.76437E-03     20.5672E-03    -15.7455E+06    -87.5837E+06    -15.2145E+06     1.54859E+06    -20.2964E-03     40.3852E-03    -20.0889E-03     5.85371E-03    -20.2262E-03     39.9923E-03    -20.0151E-03     5.87159E-03
            2077     882.275E-06     20.5619E-03    -16.1971E+06    -87.8991E+06    -15.9544E+06     865.075E+03    -20.0789E-03     40.0726E-03    -19.9937E-03     3.12411E-03    -20.0094E-03     39.6798E-03    -19.9225E-03     3.13420E-03
            2078     16.6608E-03     20.7058E-03    -5.56897E+06     172.817E+06     94.0303E+06    -375.240E+03    -56.9499E-03     83.2646E-03    -26.3147E-03     321.598E-03    -71.1066E-03     97.7427E-03    -26.0871E-03     327.410E-03
            2079     15.7961E-03     20.3688E-03    -8.43259E+06     121.361E+06      34.429E+06     1.77573E+06    -51.6569E-03     77.0100E-03    -25.3531E-03     272.896E-03    -59.1878E-03     84.8422E-03    -25.3447E-03     273.169E-03
            2080     14.9267E-03     20.1692E-03    -9.90278E+06     56.5871E+06    -20.7530E+06     3.02337E+06    -39.1488E-03     63.7259E-03    -24.5772E-03     149.548E-03    -40.4124E-03     65.2157E-03    -24.7486E-03     149.197E-03
            2081     14.0548E-03     20.0760E-03    -8.69779E+06     8.72562E+06    -31.4386E+06     2.53285E+06    -32.7738E-03     56.8837E-03    -24.1098E-03     76.8331E-03    -33.0537E-03     57.2548E-03    -24.2671E-03     76.6213E-03
            2082     13.1824E-03     20.0148E-03    -7.84139E+06    -21.2301E+06    -18.3643E+06     1.95489E+06    -31.6156E-03     55.3843E-03    -23.7686E-03     65.3274E-03    -31.7301E-03     55.4488E-03    -23.8183E-03     65.1779E-03
            2083     12.3087E-03     19.9449E-03    -7.72344E+06    -39.9381E+06    -12.1833E+06     2.25885E+06    -31.0174E-03     54.3824E-03    -23.3650E-03     64.2003E-03    -31.0701E-03     54.3014E-03    -23.3568E-03     64.0955E-03
            2084     11.4357E-03     19.8846E-03    -7.81701E+06    -61.7153E+06    -12.1579E+06     2.99052E+06    -29.8109E-03     52.7365E-03    -22.9257E-03     54.3661E-03    -29.7961E-03     52.5103E-03    -22.8857E-03     54.3067E-03
            2085     10.5608E-03     19.8329E-03    -7.73988E+06    -75.6334E+06    -10.0950E+06     3.51359E+06    -28.4884E-03     50.9833E-03    -22.4950E-03     47.0717E-03    -28.4343E-03     50.6626E-03    -22.4246E-03     47.0477E-03
            2086     9.68475E-03     19.7869E-03    -7.97752E+06    -80.6976E+06    -5.44090E+06     3.98497E+06    -27.2358E-03     49.3210E-03    -22.0851E-03     41.4867E-03    -27.1703E-03     48.9564E-03    -21.9838E-03     41.4886E-03
            2087     8.80818E-03     19.7460E-03    -8.84752E+06    -84.7082E+06    -3.80159E+06     4.31055E+06    -26.0635E-03     47.7446E-03    -21.6811E-03     35.9359E-03    -25.9914E-03     47.3515E-03    -21.5645E-03     35.9561E-03
            2088     7.93039E-03     19.7107E-03    -9.60372E+06    -86.3479E+06    -4.67231E+06     4.40559E+06    -24.9382E-03     46.2228E-03    -21.2846E-03     30.8438E-03    -24.8616E-03     45.8192E-03    -21.1688E-03     30.8754E-03
            2089     7.05193E-03     19.6799E-03    -10.5471E+06    -85.7978E+06    -6.51791E+06     4.31191E+06    -23.8740E-03     44.7825E-03    -20.9085E-03     26.2154E-03    -23.7973E-03     44.3827E-03    -20.8014E-03     26.2531E-03
            2090     6.17246E-03     19.6538E-03    -11.4721E+06    -85.5187E+06    -8.28377E+06     3.87073E+06    -22.8685E-03     43.4359E-03    -20.5673E-03     21.9360E-03    -22.7926E-03     43.0396E-03    -20.4681E-03     21.9732E-03
            2091     5.29227E-03     19.6318E-03    -12.1426E+06    -85.0107E+06    -9.47973E+06     3.61913E+06    -21.9670E-03     42.2351E-03    -20.2681E-03     18.0058E-03    -21.8923E-03     41.8430E-03    -20.1746E-03     18.0435E-03
            2092     4.41129E-03     19.6140E-03    -12.9263E+06    -85.0969E+06    -10.8985E+06     3.43646E+06    -21.2141E-03     41.2234E-03    -20.0093E-03     14.4380E-03    -21.1405E-03     40.8334E-03    -19.9217E-03     14.4760E-03
            2093     3.52980E-03     19.5994E-03    -13.8921E+06    -85.4651E+06    -12.4195E+06     2.90067E+06    -20.5918E-03     40.3812E-03    -19.7893E-03     11.1967E-03    -20.5199E-03     39.9925E-03    -19.7074E-03     11.2297E-03
            2094     2.64788E-03     19.5887E-03    -14.5750E+06    -85.6348E+06    -13.5356E+06     2.23214E+06    -20.0788E-03     39.6898E-03    -19.6110E-03     8.22464E-03    -20.0081E-03     39.3026E-03    -19.5334E-03     8.25044E-03
            2095     1.76545E-03     19.5807E-03    -14.9807E+06    -85.9440E+06    -14.5013E+06     1.61171E+06    -19.6840E-03     39.1653E-03    -19.4813E-03     5.43263E-03    -19.6134E-03     38.7785E-03    -19.4075E-03     5.45155E-03
            2096     882.748E-06     19.5763E-03    -15.1676E+06    -86.0814E+06    -15.1523E+06     946.564E+03    -19.4624E-03     38.8601E-03    -19.3977E-03     2.88226E-03    -19.3915E-03     38.4737E-03    -19.3266E-03     2.89351E-03
            2097     16.6590E-03     19.6857E-03    -5.58985E+06     171.101E+06     93.0063E+06    -192.519E+03    -57.1619E-03     83.4311E-03    -26.2691E-03     317.105E-03    -70.9137E-03     97.5009E-03    -26.0441E-03     322.680E-03
            2098     15.7961E-03     19.3600E-03    -10.4194E+06     117.882E+06     33.2558E+06     1.44265E+06    -52.2175E-03     77.4709E-03    -25.2533E-03     265.366E-03    -59.3712E-03     84.9099E-03    -25.2429E-03     265.536E-03
            2099     14.9291E-03     19.1626E-03    -10.4656E+06     57.3809E+06    -20.6768E+06     2.52326E+06    -39.9850E-03     64.3816E-03    -24.3966E-03     145.354E-03    -41.1949E-03     65.8182E-03    -24.5680E-03     144.980E-03
            2100     14.0590E-03     19.0753E-03    -9.16264E+06     10.2592E+06    -32.7149E+06     2.35476E+06    -33.2860E-03     57.1427E-03    -23.8568E-03     74.6898E-03    -33.5564E-03     57.5121E-03    -24.0219E-03     74.4751E-03
            2101     13.1855E-03     19.0134E-03    -8.03681E+06    -21.2082E+06    -19.8381E+06     2.23001E+06    -31.8164E-03     55.2892E-03    -23.4728E-03     64.0612E-03    -31.9253E-03     55.3518E-03    -23.5296E-03     63.9172E-03
            2102     12.3136E-03     18.9450E-03    -7.88456E+06    -40.3622E+06    -13.7675E+06     2.64625E+06    -31.2390E-03     54.2695E-03    -23.0305E-03     62.5302E-03    -31.2857E-03     54.1850E-03    -23.0294E-03     62.4326E-03
            2103     11.4395E-03     18.8862E-03    -7.78696E+06    -61.9705E+06    -13.0961E+06     3.34055E+06    -29.8396E-03     52.3954E-03    -22.5558E-03     52.5498E-03    -29.8200E-03     52.1662E-03    -22.5201E-03     52.4978E-03
            2104     10.5647E-03     18.8367E-03    -7.73773E+06    -75.8047E+06    -10.9979E+06     3.89352E+06    -28.4055E-03     50.4993E-03    -22.0938E-03     45.3914E-03    -28.3477E-03     50.1769E-03    -22.0277E-03     45.3750E-03
            2105     9.68908E-03     18.7917E-03    -8.05725E+06    -80.6863E+06    -6.46784E+06     4.33598E+06    -27.1603E-03     48.8114E-03    -21.6511E-03     39.7858E-03    -27.0922E-03     48.4471E-03    -21.5548E-03     39.7943E-03
            2106     8.81218E-03     18.7527E-03    -8.55954E+06    -84.3610E+06    -4.60634E+06     4.67181E+06    -25.8982E-03     47.1116E-03    -21.2134E-03     34.2392E-03    -25.8230E-03     46.7199E-03    -21.1017E-03     34.2659E-03
            2107     7.93440E-03     18.7186E-03    -9.42457E+06    -85.8249E+06    -5.39097E+06     4.82960E+06    -24.6763E-03     45.4632E-03    -20.7869E-03     29.2421E-03    -24.5978E-03     45.0622E-03    -20.6757E-03     29.2807E-03
            2108     7.05553E-03     18.6894E-03    -10.1195E+06    -84.8607E+06    -6.89580E+06     4.74276E+06    -23.5360E-03     43.9209E-03    -20.3849E-03     24.7033E-03    -23.4576E-03     43.5253E-03    -20.2817E-03     24.7478E-03
            2109     6.17588E-03     18.6645E-03    -10.8410E+06    -84.3151E+06    -8.45290E+06     4.40019E+06    -22.4666E-03     42.4871E-03    -20.0205E-03     20.5457E-03    -22.3887E-03     42.0959E-03    -19.9248E-03     20.5908E-03
            2110     5.29519E-03     18.6438E-03    -11.7963E+06    -84.1330E+06    -9.82502E+06     4.04363E+06    -21.5220E-03     41.2213E-03    -19.6994E-03     16.8029E-03    -21.4461E-03     40.8334E-03    -19.6094E-03     16.8469E-03
            2111     4.41394E-03     18.6267E-03    -12.5192E+06    -83.9172E+06    -10.8628E+06     3.83164E+06    -20.7211E-03     40.1422E-03    -19.4211E-03     13.3897E-03    -20.6471E-03     39.7573E-03    -19.3356E-03     13.4334E-03
            2112     3.53194E-03     18.6133E-03    -13.0057E+06    -83.7427E+06    -11.7348E+06     3.34876E+06    -20.0265E-03     39.2144E-03    -19.1878E-03     10.3203E-03    -19.9536E-03     38.8320E-03    -19.1062E-03     10.3595E-03
            2113     2.64941E-03     18.6028E-03    -13.5734E+06    -83.9352E+06    -12.8183E+06     2.53324E+06    -19.4778E-03     38.4811E-03    -19.0033E-03     7.59129E-03    -19.4056E-03     38.0999E-03    -18.9260E-03     7.62129E-03
            2114     1.76655E-03     18.5959E-03    -14.0904E+06    -84.2526E+06    -13.8866E+06     1.71222E+06    -19.1025E-03     37.9654E-03    -18.8629E-03     5.00136E-03    -19.0308E-03     37.5848E-03    -18.7897E-03     5.02177E-03
            2115     883.364E-06     18.5912E-03    -14.3338E+06    -84.0934E+06    -14.2116E+06     941.897E+03    -18.8364E-03     37.6064E-03    -18.7700E-03     2.59609E-03    -18.7656E-03     37.2274E-03    -18.6984E-03     2.60737E-03
            2116     16.6634E-03     18.6694E-03    -4.38595E+06     170.549E+06     92.8397E+06     857.977E+03    -58.5954E-03     84.7764E-03    -26.1810E-03     313.105E-03    -71.9225E-03     98.4245E-03    -25.9578E-03     318.294E-03
            2117     15.8003E-03     18.3495E-03    -9.20090E+06     117.155E+06     34.5323E+06     1.08712E+06    -52.4027E-03     77.4979E-03    -25.0952E-03     257.586E-03    -59.1519E-03     84.5306E-03    -25.0790E-03     257.629E-03
            2118     14.9322E-03     18.1576E-03    -10.2387E+06     57.0445E+06    -20.0174E+06     2.11061E+06    -39.8075E-03     64.0022E-03    -24.1947E-03     140.566E-03    -40.9472E-03     65.3663E-03    -24.3626E-03     140.193E-03
            2119     14.0614E-03     18.0721E-03    -9.52366E+06     10.3025E+06    -34.0670E+06     2.51575E+06    -33.6997E-03     57.3109E-03    -23.6112E-03     72.6489E-03    -33.9586E-03     57.6714E-03    -23.7826E-03     72.4372E-03
            2120     13.1908E-03     18.0134E-03    -8.85406E+06    -20.5112E+06    -21.3376E+06     2.60040E+06    -32.3718E-03     55.5464E-03    -23.1746E-03     62.8744E-03    -32.4800E-03     55.6123E-03    -23.2387E-03     62.7339E-03
            2121     12.3169E-03     17.9445E-03    -8.34205E+06    -40.8786E+06    -15.4185E+06     3.14009E+06    -31.2960E-03     53.9841E-03    -22.6882E-03     61.0277E-03    -31.3372E-03     53.8955E-03    -22.6939E-03     60.9403E-03
            2122     11.4440E-03     17.8888E-03    -8.22719E+06    -62.5639E+06    -14.1911E+06     3.59799E+06    -29.8803E-03     52.0636E-03    -22.1832E-03     50.4077E-03    -29.8572E-03     51.8303E-03    -22.1515E-03     50.3619E-03
            2123     10.5692E-03     17.8403E-03    -8.16265E+06    -75.6269E+06    -11.9705E+06     4.07272E+06    -28.4333E-03     50.1164E-03    -21.6831E-03     43.4461E-03    -28.3745E-03     49.7949E-03    -21.6215E-03     43.4343E-03
            2124     9.69325E-03     17.7974E-03    -8.09030E+06    -80.7265E+06    -7.38998E+06     4.41692E+06    -27.0683E-03     48.2712E-03    -21.2030E-03     37.8716E-03    -26.9976E-03     47.9067E-03    -21.1111E-03     37.8833E-03
            2125     8.81641E-03     17.7597E-03    -8.38699E+06    -84.1869E+06    -5.36441E+06     5.00365E+06    -25.7135E-03     46.4453E-03    -20.7317E-03     32.3315E-03    -25.6356E-03     46.0543E-03    -20.6243E-03     32.3643E-03
            2126     7.93839E-03     17.7275E-03    -8.93277E+06    -85.2012E+06    -5.87872E+06     5.29815E+06    -24.4083E-03     44.6830E-03    -20.2747E-03     27.4879E-03    -24.3269E-03     44.2845E-03    -20.1676E-03     27.5341E-03
            2127     7.05938E-03     17.6996E-03    -9.74676E+06    -83.9203E+06    -7.14488E+06     5.17428E+06    -23.1779E-03     43.0247E-03    -19.8468E-03     23.0497E-03    -23.0981E-03     42.6331E-03    -19.7467E-03     23.1010E-03
            2128     6.17922E-03     17.6762E-03    -10.5808E+06    -83.2397E+06    -8.40929E+06     4.98895E+06    -22.0540E-03     41.5139E-03    -19.4599E-03     19.0310E-03    -21.9761E-03     41.1274E-03    -19.3659E-03     19.0846E-03
            2129     5.29838E-03     17.6566E-03    -11.3450E+06    -82.8482E+06    -9.74338E+06     4.66468E+06    -21.0678E-03     40.1831E-03    -19.1153E-03     15.5015E-03    -20.9914E-03     39.8006E-03    -19.0274E-03     15.5542E-03
            2130     4.41655E-03     17.6407E-03    -11.9336E+06    -82.5531E+06    -10.9249E+06     4.04420E+06    -20.1941E-03     39.0105E-03    -18.8164E-03     12.2834E-03    -20.1189E-03     38.6315E-03    -18.7340E-03     12.3304E-03
            2131     3.53417E-03     17.6280E-03    -12.2139E+06    -82.0200E+06    -11.3827E+06     3.45260E+06    -19.4416E-03     38.0138E-03    -18.5722E-03     9.41504E-03    -19.3676E-03     37.6383E-03    -18.4925E-03     9.45599E-03
            2132     2.65108E-03     17.6187E-03    -12.5187E+06    -82.0534E+06    -12.0510E+06     2.87786E+06    -18.8685E-03     37.2516E-03    -18.3831E-03     6.91073E-03    -18.7948E-03     36.8771E-03    -18.3062E-03     6.94545E-03
            2133     1.76759E-03     17.6116E-03    -12.9477E+06    -82.2472E+06    -12.8213E+06     2.00933E+06    -18.4781E-03     36.7209E-03    -18.2428E-03     4.54677E-03    -18.4051E-03     36.3471E-03    -18.1689E-03     4.57119E-03
            2134     883.983E-06     17.6079E-03    -13.2667E+06    -82.0465E+06    -13.1511E+06     882.448E+03    -18.2381E-03     36.3678E-03    -18.1297E-03     2.33299E-03    -18.1664E-03     35.9960E-03    -18.0573E-03     2.34360E-03
            2135     16.6626E-03     17.6493E-03    -5.00532E+06     169.466E+06     91.4548E+06     657.964E+03    -59.9769E-03     86.0786E-03    -26.1018E-03     309.387E-03    -72.8554E-03     99.2761E-03    -25.8830E-03     314.168E-03
            2136     15.8029E-03     17.3367E-03    -9.45313E+06     117.141E+06     30.5350E+06     1.66458E+06    -53.0478E-03     77.9714E-03    -24.9236E-03     251.648E-03    -59.4748E-03     84.6926E-03    -24.9271E-03     251.587E-03
            2137     14.9362E-03     17.1548E-03    -10.4530E+06     56.7563E+06    -23.3151E+06     2.46714E+06    -40.2217E-03     64.1864E-03    -23.9647E-03     135.888E-03    -41.2863E-03     65.4833E-03    -24.1485E-03     135.514E-03
            2138     14.0648E-03     17.0687E-03    -9.87680E+06     10.5161E+06    -34.5400E+06     3.11159E+06    -33.8940E-03     57.2442E-03    -23.3503E-03     70.3523E-03    -34.1378E-03     57.5906E-03    -23.5239E-03     70.1528E-03
            2139     13.1932E-03     17.0116E-03    -9.30886E+06    -20.1682E+06    -22.2544E+06     3.18320E+06    -32.6583E-03     55.5320E-03    -22.8737E-03     60.6168E-03    -32.7616E-03     55.5952E-03    -22.9422E-03     60.4856E-03
            2140     12.3220E-03     16.9457E-03    -9.18212E+06    -41.1499E+06    -16.7096E+06     3.52119E+06    -31.5373E-03     53.8800E-03    -22.3426E-03     59.0559E-03    -31.5763E-03     53.7888E-03    -22.3532E-03     58.9758E-03
            2141     11.4479E-03     16.8906E-03    -8.91819E+06    -62.6096E+06    -15.2806E+06     3.86436E+06    -29.9583E-03     51.7538E-03    -21.7956E-03     48.1715E-03    -29.9333E-03     51.5194E-03    -21.7683E-03     48.1324E-03
            2142     10.5736E-03     16.8450E-03    -8.74720E+06    -75.4382E+06    -12.7425E+06     4.01270E+06    -28.4813E-03     49.7365E-03    -21.2552E-03     41.3045E-03    -28.4225E-03     49.4158E-03    -21.1968E-03     41.2943E-03
            2143     9.69783E-03     16.8031E-03    -8.57909E+06    -80.8547E+06    -8.30317E+06     4.40860E+06    -26.9912E-03     47.7247E-03    -20.7336E-03     35.7029E-03    -26.9199E-03     47.3601E-03    -20.6454E-03     35.7167E-03
            2144     8.82084E-03     16.7678E-03    -8.55708E+06    -84.3804E+06    -6.17521E+06     5.05960E+06    -25.5094E-03     45.7359E-03    -20.2265E-03     30.1901E-03    -25.4297E-03     45.3443E-03    -20.1226E-03     30.2256E-03
            2145     7.94259E-03     16.7368E-03    -8.94356E+06    -84.6625E+06    -6.62576E+06     5.59574E+06    -24.1165E-03     43.8535E-03    -19.7370E-03     25.4591E-03    -24.0341E-03     43.4580E-03    -19.6344E-03     25.5108E-03
            2146     7.06324E-03     16.7109E-03    -9.41922E+06    -82.9776E+06    -7.31906E+06     5.69296E+06    -22.7988E-03     42.0820E-03    -19.2832E-03     21.1429E-03    -22.7180E-03     41.6945E-03    -19.1858E-03     21.2021E-03
            2147     6.18292E-03     16.6887E-03    -10.1042E+06    -82.0364E+06    -8.32197E+06     5.45293E+06    -21.6069E-03     40.4803E-03    -18.8734E-03     17.3686E-03    -21.5282E-03     40.0986E-03    -18.7814E-03     17.4292E-03
            2148     5.30146E-03     16.6706E-03    -10.6226E+06    -81.3834E+06    -9.57083E+06     5.02044E+06    -20.5441E-03     39.0542E-03    -18.5101E-03     14.0538E-03    -20.4664E-03     38.6776E-03    -18.4245E-03     14.1118E-03
            2149     4.41936E-03     16.6557E-03    -10.9394E+06    -80.8129E+06    -10.5720E+06     4.35555E+06    -19.6002E-03     37.8016E-03    -18.2014E-03     11.0986E-03    -19.5230E-03     37.4293E-03    -18.1212E-03     11.1502E-03
            2150     3.53627E-03     16.6443E-03    -11.3793E+06    -80.4399E+06    -11.1958E+06     3.67328E+06    -18.8564E-03     36.8062E-03    -17.9498E-03     8.52421E-03    -18.7807E-03     36.4370E-03    -17.8726E-03     8.56841E-03
            2151     2.65278E-03     16.6352E-03    -11.7293E+06    -80.1342E+06    -11.5355E+06     3.11306E+06    -18.2744E-03     36.0251E-03    -17.7507E-03     6.21800E-03    -18.2003E-03     35.6583E-03    -17.6752E-03     6.25602E-03
            2152     1.76881E-03     16.6292E-03    -11.7403E+06    -79.8068E+06    -11.6672E+06     2.19568E+06    -17.8143E-03     35.4288E-03    -17.6145E-03     4.07478E-03    -17.7404E-03     35.0637E-03    -17.5401E-03     4.10178E-03
            2153     884.293E-06     16.6253E-03    -12.0655E+06    -79.8464E+06    -12.1148E+06     1.11016E+06    -17.6093E-03     35.1287E-03    -17.5194E-03     2.09341E-03    -17.5363E-03     34.7646E-03    -17.4467E-03     2.10705E-03
            2154     16.6658E-03     16.6319E-03    -5.21037E+06     168.112E+06     89.4500E+06     730.297E+03    -60.9835E-03     87.0268E-03    -26.0434E-03     304.088E-03    -73.3341E-03     99.6969E-03    -25.8323E-03     308.513E-03
            2155     15.8028E-03     16.3219E-03    -9.44163E+06     116.383E+06     26.1659E+06     2.28412E+06    -53.6980E-03     78.4731E-03    -24.7751E-03     243.653E-03    -59.7178E-03     84.7972E-03    -24.7993E-03     243.498E-03
            2156     14.9387E-03     16.1488E-03    -10.5437E+06     56.9112E+06    -25.9748E+06     3.53068E+06    -41.1588E-03     64.8980E-03    -23.7392E-03     129.745E-03    -42.1379E-03     66.1173E-03    -23.9363E-03     129.372E-03
            2157     14.0701E-03     16.0666E-03    -10.6055E+06     10.8315E+06    -35.0102E+06     3.81141E+06    -34.3105E-03     57.3773E-03    -23.0668E-03     67.7901E-03    -34.5436E-03     57.7129E-03    -23.2422E-03     67.6014E-03
            2158     13.1984E-03     16.0108E-03    -10.0021E+06    -20.2831E+06    -23.5964E+06     3.78103E+06    -32.6701E-03     55.2196E-03    -22.5496E-03     59.0939E-03    -32.7687E-03     55.2793E-03    -22.6236E-03     58.9746E-03
            2159     12.3256E-03     15.9455E-03    -9.52821E+06    -40.6882E+06    -17.4087E+06     3.89214E+06    -31.8729E-03     53.8539E-03    -21.9810E-03     56.6585E-03    -31.9092E-03     53.7625E-03    -21.9952E-03     56.5849E-03
            2160     11.4531E-03     15.8939E-03    -9.36621E+06    -62.0285E+06    -15.6925E+06     3.97464E+06    -30.1446E-03     51.5276E-03    -21.3831E-03     45.5764E-03    -30.1183E-03     51.2936E-03    -21.3580E-03     45.5419E-03
            2161     10.5783E-03     15.8489E-03    -8.98976E+06    -75.2453E+06    -13.2110E+06     3.98309E+06    -28.5443E-03     49.3377E-03    -20.7934E-03     38.7017E-03    -28.4839E-03     49.0167E-03    -20.7374E-03     38.6937E-03
            2162     9.70269E-03     15.8100E-03    -8.91243E+06    -81.0100E+06     -8.7449E+06     4.45034E+06    -26.9025E-03     47.1301E-03    -20.2276E-03     32.9722E-03    -26.8302E-03     46.7641E-03    -20.1409E-03     32.9890E-03
            2163     8.82549E-03     15.7761E-03    -9.36219E+06    -84.5958E+06    -7.23970E+06     5.07518E+06    -25.2794E-03     44.9589E-03    -19.6794E-03     27.7371E-03    -25.2008E-03     44.5678E-03    -19.5794E-03     27.7750E-03
            2164     7.94721E-03     15.7474E-03    -9.43066E+06    -84.3440E+06    -7.59466E+06     5.52813E+06    -23.7842E-03     42.9404E-03    -19.1562E-03     23.1012E-03    -23.7026E-03     42.5480E-03    -19.0582E-03     23.1536E-03
            2165     7.06756E-03     15.7228E-03    -9.51429E+06    -82.2048E+06    -7.85710E+06     5.83147E+06    -22.3539E-03     41.0306E-03    -18.6767E-03     19.0306E-03    -22.2735E-03     40.6474E-03    -18.5830E-03     19.0930E-03
            2166     6.18667E-03     15.7026E-03    -9.59242E+06    -80.6328E+06    -8.14539E+06     5.67487E+06    -21.0783E-03     39.3278E-03    -18.2495E-03     15.5169E-03    -20.9990E-03     38.9519E-03    -18.1594E-03     15.5813E-03
            2167     5.30496E-03     15.6855E-03    -9.77217E+06    -79.7909E+06    -9.32806E+06     5.14160E+06    -19.9180E-03     37.7947E-03    -17.8767E-03     12.4583E-03    -19.8385E-03     37.4243E-03    -17.7935E-03     12.5186E-03
            2168     4.42201E-03     15.6722E-03    -9.99073E+06    -79.2044E+06    -10.2926E+06     4.69030E+06    -18.9617E-03     36.5285E-03    -17.5668E-03     9.84035E-03    -18.8824E-03     36.1624E-03    -17.4890E-03     9.89674E-03
            2169     3.53854E-03     15.6613E-03    -10.2750E+06    -78.6038E+06    -10.7882E+06     4.19727E+06    -18.2284E-03     35.5430E-03    -17.3145E-03     7.55583E-03    -18.1505E-03     35.1807E-03    -17.2396E-03     7.60715E-03
            2170     2.65446E-03     15.6534E-03    -10.4931E+06    -78.0121E+06    -11.0458E+06     3.32127E+06    -17.6376E-03     34.7526E-03    -17.1150E-03     5.47835E-03    -17.5611E-03     34.3939E-03    -17.0419E-03     5.51931E-03
            2171     1.76983E-03     15.6477E-03    -10.5822E+06    -77.5242E+06    -10.9533E+06     2.42636E+06    -17.1992E-03     34.1737E-03    -16.9745E-03     3.60305E-03    -17.1238E-03     33.8174E-03    -16.9016E-03     3.63319E-03
            2172     885.120E-06     15.6443E-03    -10.7169E+06    -77.1934E+06    -10.9090E+06     1.52460E+06    -16.9443E-03     33.8414E-03    -16.8971E-03     1.91467E-03    -16.8701E-03     33.4868E-03    -16.8242E-03     1.93375E-03
            2173     16.6637E-03     15.6054E-03    -4.18114E+06     166.922E+06     89.4570E+06     1.09372E+06    -62.6873E-03     88.6644E-03    -25.9771E-03     298.262E-03    -74.5016E-03     100.797E-03    -25.7658E-03     302.266E-03
            2174     15.8085E-03     15.3113E-03    -8.68336E+06     115.643E+06     28.3819E+06     3.44724E+06    -54.5960E-03     79.2059E-03    -24.6099E-03     233.971E-03    -60.1689E-03     85.0770E-03    -24.6231E-03     233.684E-03
            2175     14.9423E-03     15.1396E-03    -10.7523E+06     56.5566E+06    -23.2436E+06     4.73547E+06    -40.7282E-03     64.2466E-03    -23.5183E-03     123.023E-03    -41.6310E-03     65.3798E-03    -23.7010E-03     122.679E-03
            2176     14.0734E-03     15.0653E-03    -11.0221E+06     11.3823E+06    -35.0816E+06     4.71467E+06    -34.3977E-03     57.2094E-03    -22.8117E-03     66.0188E-03    -34.6187E-03     57.5334E-03    -22.9876E-03     65.8477E-03
            2177     13.2016E-03     15.0096E-03    -10.5262E+06    -19.6029E+06    -24.8638E+06     4.40908E+06    -33.6182E-03     55.8519E-03    -22.2337E-03     58.5363E-03    -33.7165E-03     55.9154E-03    -22.3143E-03     58.4217E-03
            2178     12.3310E-03     14.9457E-03    -10.0415E+06    -39.9965E+06    -17.9859E+06     4.24195E+06    -32.4844E-03     54.0724E-03    -21.5880E-03     53.6231E-03    -32.5177E-03     53.9804E-03    -21.6054E-03     53.5558E-03
            2179     11.4578E-03     14.8967E-03    -9.48605E+06    -61.2169E+06    -15.9178E+06     4.25117E+06    -30.4471E-03     51.3678E-03    -20.9207E-03     42.3513E-03    -30.4182E-03     51.1342E-03    -20.8978E-03     42.3236E-03
            2180     10.5839E-03     14.8538E-03    -9.28982E+06    -75.1007E+06    -13.7208E+06     4.19066E+06    -28.5875E-03     48.8605E-03    -20.2731E-03     35.5982E-03    -28.5255E-03     48.5389E-03    -20.2193E-03     35.5959E-03
            2181     9.70816E-03     14.8172E-03    -9.40966E+06    -81.4929E+06    -9.24145E+06     4.69770E+06    -26.7571E-03     46.4183E-03    -19.6612E-03     29.8982E-03    -26.6841E-03     46.0495E-03    -19.5756E-03     29.9210E-03
            2182     8.83094E-03     14.7855E-03    -9.68976E+06    -84.3637E+06    -7.47908E+06     5.26878E+06    -24.9990E-03     44.0723E-03    -19.0733E-03     24.8784E-03    -24.9209E-03     43.6821E-03    -18.9743E-03     24.9208E-03
            2183     7.95220E-03     14.7585E-03    -10.0367E+06    -83.9146E+06    -8.45188E+06     5.34456E+06    -23.3299E-03     41.8468E-03    -18.5169E-03     20.4834E-03    -23.2499E-03     41.4578E-03    -18.4229E-03     20.5352E-03
            2184     7.07214E-03     14.7362E-03    -9.85334E+06    -81.6007E+06    -8.56162E+06     5.40666E+06    -21.8200E-03     39.8364E-03    -18.0163E-03     16.7378E-03    -21.7407E-03     39.4572E-03    -17.9265E-03     16.7960E-03
            2185     6.19095E-03     14.7172E-03    -9.47221E+06    -79.4897E+06    -8.22751E+06     5.45250E+06    -20.4340E-03     38.0127E-03    -17.5787E-03     13.5082E-03    -20.3554E-03     37.6421E-03    -17.4908E-03     13.5707E-03
            2186     5.30835E-03     14.7022E-03    -9.35448E+06    -78.3309E+06    -8.89117E+06     5.22465E+06    -19.2535E-03     36.4563E-03    -17.2028E-03     10.7320E-03    -19.1745E-03     36.0918E-03    -17.1201E-03     10.7941E-03
            2187     4.42503E-03     14.6896E-03    -9.46112E+06    -77.6631E+06    -9.89734E+06     4.88988E+06    -18.2965E-03     35.1852E-03    -16.8887E-03     8.41765E-03    -18.2173E-03     34.8254E-03    -16.8119E-03     8.47712E-03
            2188     3.54090E-03     14.6800E-03    -9.27293E+06    -76.6864E+06    -10.1644E+06     4.33989E+06    -17.5252E-03     34.1625E-03    -16.6373E-03     6.40794E-03    -17.4458E-03     33.8074E-03    -16.5634E-03     6.46147E-03
            2189     2.65610E-03     14.6726E-03    -8.97105E+06    -75.7698E+06    -10.1006E+06     3.64378E+06    -16.9389E-03     33.3851E-03    -16.4462E-03     4.60209E-03    -16.8594E-03     33.0340E-03    -16.3738E-03     4.64746E-03
            2190     1.77106E-03     14.6675E-03    -8.95040E+06    -75.0500E+06    -9.74821E+06     2.80239E+06    -16.5326E-03     32.8461E-03    -16.3135E-03     3.04979E-03    -16.4545E-03     32.4980E-03    -16.2405E-03     3.08495E-03
            2191     885.502E-06     14.6644E-03    -8.69774E+06    -74.1011E+06    -9.08443E+06     1.75897E+06    -16.2934E-03     32.5272E-03    -16.2338E-03     1.69747E-03    -16.2163E-03     32.1825E-03    -16.1592E-03     1.71967E-03
            2192     16.6679E-03     14.5818E-03    -4.67152E+06     164.652E+06     89.8540E+06     961.599E+03    -64.1288E-03     89.9849E-03    -25.8561E-03     290.111E-03    -75.1957E-03     101.360E-03    -25.6388E-03     293.594E-03
            2193     15.8101E-03     14.2925E-03    -8.56486E+06     112.998E+06     32.7444E+06     3.76939E+06    -54.0683E-03     78.5122E-03    -24.4439E-03     225.444E-03    -59.2664E-03     83.9868E-03    -24.4316E-03     225.128E-03
            2194     14.9478E-03     14.1367E-03    -9.33871E+06     55.7359E+06    -17.2625E+06     6.07688E+06    -40.3427E-03     63.6843E-03    -23.3416E-03     117.310E-03    -41.1633E-03     64.7203E-03    -23.4952E-03     116.994E-03
            2195     14.0745E-03     14.0633E-03    -9.87430E+06     14.0384E+06    -31.7626E+06     6.51251E+06    -35.3618E-03     57.9338E-03    -22.5720E-03     64.7147E-03    -35.5719E-03     58.2508E-03    -22.7369E-03     64.5657E-03
            2196     13.2063E-03     14.0053E-03    -10.5023E+06    -17.8295E+06    -24.7039E+06     4.89349E+06    -35.1317E-03     57.0089E-03    -21.8772E-03     54.8202E-03    -35.2271E-03     57.0756E-03    -21.9596E-03     54.7049E-03
            2197     12.3362E-03     13.9466E-03    -9.57269E+06    -39.9833E+06    -17.9205E+06     4.50825E+06    -33.0808E-03     54.2066E-03    -21.1258E-03     49.0851E-03    -33.1044E-03     54.1064E-03    -21.1435E-03     49.0244E-03
            2198     11.4643E-03     13.8990E-03    -9.15392E+06    -60.4603E+06    -15.3380E+06     4.73285E+06    -30.6082E-03     50.9970E-03    -20.3888E-03     38.6154E-03    -30.5756E-03     50.7619E-03    -20.3645E-03     38.5974E-03
            2199     10.5902E-03     13.8596E-03    -9.43113E+06    -74.7469E+06    -13.4998E+06     4.67015E+06    -28.5476E-03     48.2332E-03    -19.6856E-03     32.1190E-03    -28.4845E-03     47.9106E-03    -19.6310E-03     32.1263E-03
            2200     9.71425E-03     13.8249E-03    -9.75448E+06    -81.8369E+06    -9.17573E+06     5.02658E+06    -26.5682E-03     45.5944E-03    -19.0263E-03     26.6349E-03    -26.4949E-03     45.2227E-03    -18.9393E-03     26.6645E-03
            2201     8.83700E-03     13.7957E-03    -10.1088E+06    -84.0293E+06    -7.19163E+06     5.45659E+06    -24.6165E-03     43.0157E-03    -18.3992E-03     21.7522E-03    -24.5403E-03     42.6263E-03    -18.2987E-03     21.7992E-03
            2202     7.95782E-03     13.7712E-03    -10.3712E+06    -82.8441E+06    -8.39755E+06     5.22046E+06    -22.8002E-03     40.6123E-03    -17.8121E-03     17.7019E-03    -22.7229E-03     40.2285E-03    -17.7189E-03     17.7539E-03
            2203     7.07732E-03     13.7503E-03    -10.2684E+06    -80.9729E+06    -9.06045E+06     4.79806E+06    -21.1774E-03     38.4689E-03    -17.2915E-03     14.2029E-03    -21.1000E-03     38.0938E-03    -17.2045E-03     14.2545E-03
            2204     6.19529E-03     13.7337E-03    -10.0115E+06    -78.7652E+06    -8.49530E+06     4.88691E+06    -19.7592E-03     36.6019E-03    -16.8428E-03     11.2530E-03    -19.6837E-03     36.2359E-03    -16.7565E-03     11.3091E-03
            2205     5.31231E-03     13.7196E-03    -9.69061E+06    -77.1575E+06    -8.44408E+06     4.95972E+06    -18.5678E-03     35.0252E-03    -16.4574E-03     8.76562E-03    -18.4927E-03     34.6663E-03    -16.3737E-03     8.82491E-03
            2206     4.42837E-03     13.7087E-03    -9.22334E+06    -75.9876E+06    -8.97601E+06     4.56907E+06    -17.5625E-03     33.6970E-03    -16.1345E-03     6.76577E-03    -17.4857E-03     33.3437E-03    -16.0558E-03     6.82154E-03
            2207     3.54351E-03     13.6998E-03    -8.72559E+06    -74.9406E+06    -9.19960E+06     4.06505E+06    -16.7589E-03     32.6384E-03    -15.8795E-03     5.11307E-03    -16.6807E-03     32.2898E-03    -15.8042E-03     5.16339E-03
            2208     2.65823E-03     13.6933E-03    -8.15043E+06    -73.7153E+06    -8.62864E+06     3.48728E+06    -16.1682E-03     31.8600E-03    -15.6918E-03     3.61658E-03    -16.0897E-03     31.5158E-03    -15.6162E-03     3.66019E-03
            2209     1.77224E-03     13.6887E-03    -7.31006E+06    -72.3102E+06    -7.60771E+06     2.56913E+06    -15.7676E-03     31.3323E-03    -15.5647E-03     2.37895E-03    -15.6884E-03     30.9924E-03    -15.4873E-03     2.41126E-03
            2210     886.264E-06     13.6858E-03    -6.35489E+06    -71.0009E+06    -6.59485E+06     1.42234E+06    -15.5311E-03     31.0342E-03    -15.5031E-03     1.32678E-03    -15.4503E-03     30.6980E-03    -15.4239E-03     1.34470E-03
            2211     16.6737E-03     13.5672E-03    -5.65402E+06     161.765E+06     88.4828E+06     776.246E+03    -66.1430E-03     91.9233E-03    -25.7802E-03     284.028E-03    -76.6155E-03     102.695E-03    -25.5642E-03     287.021E-03
            2212     15.8129E-03     13.2726E-03    -7.77073E+06     108.512E+06     34.5874E+06     3.39801E+06    -53.9009E-03     78.2028E-03    -24.3019E-03     215.638E-03    -58.6679E-03     83.2285E-03    -24.2751E-03     215.182E-03
            2213     14.9460E-03     13.1349E-03    -9.59671E+06     55.0028E+06    -10.9717E+06     6.75666E+06    -41.3978E-03     64.5470E-03    -23.1491E-03     110.176E-03    -42.1359E-03     65.4784E-03    -23.2698E-03     109.871E-03
            2214     14.0809E-03     13.0561E-03    -10.1339E+06     17.6761E+06    -26.7302E+06     6.96446E+06    -37.7896E-03     60.0152E-03    -22.2256E-03     60.6264E-03    -38.0050E-03     60.3352E-03    -22.3702E-03     60.4650E-03
            2215     13.2134E-03     13.0027E-03    -8.85815E+06    -15.6178E+06    -23.1844E+06     5.23445E+06    -35.5302E-03     56.9181E-03    -21.3879E-03     49.5789E-03    -35.6109E-03     56.9793E-03    -21.4683E-03     49.4725E-03
            2216     12.3437E-03     12.9461E-03    -8.87461E+06    -40.3022E+06    -17.5133E+06     5.23823E+06    -33.0828E-03     53.6615E-03    -20.5787E-03     44.7712E-03    -33.0960E-03     53.5511E-03    -20.5950E-03     44.7260E-03
            2217     11.4712E-03     12.9029E-03    -9.04094E+06    -59.6998E+06    -14.4562E+06     5.39932E+06    -30.6859E-03     50.4775E-03    -19.7916E-03     34.9705E-03    -30.6512E-03     50.2408E-03    -19.7642E-03     34.9653E-03
            2218     10.5970E-03     12.8653E-03    -9.44980E+06    -74.2924E+06    -12.7070E+06     5.35257E+06    -28.4972E-03     47.5296E-03    -19.0323E-03     28.5402E-03    -28.4335E-03     47.2056E-03    -18.9745E-03     28.5596E-03
            2219     9.72149E-03     12.8337E-03    -9.81621E+06    -81.7114E+06    -8.24523E+06     5.57479E+06    -26.2692E-03     44.5952E-03    -18.3261E-03     23.1246E-03    -26.1961E-03     44.2213E-03    -18.2346E-03     23.1641E-03
            2220     8.84341E-03     12.8071E-03    -10.5035E+06    -83.1831E+06    -6.46150E+06     5.54389E+06    -24.1530E-03     41.8140E-03    -17.6610E-03     18.5833E-03    -24.0801E-03     41.4273E-03    -17.5575E-03     18.6337E-03
            2221     7.96411E-03     12.7847E-03    -10.8873E+06    -81.4959E+06    -7.68276E+06     5.00061E+06    -22.2436E-03     39.2874E-03    -17.0437E-03     14.7941E-03    -22.1713E-03     38.9094E-03    -16.9482E-03     14.8447E-03
            2222     7.08288E-03     12.7664E-03    -11.0455E+06    -80.0114E+06    -8.73973E+06     4.43468E+06    -20.5327E-03     37.0301E-03    -16.4974E-03     11.5907E-03    -20.4607E-03     36.6602E-03    -16.4090E-03     11.6387E-03
            2223     6.20050E-03     12.7511E-03    -10.8805E+06    -78.1270E+06    -8.55397E+06     4.14296E+06    -19.0656E-03     35.0917E-03    -16.0261E-03     8.92077E-03    -18.9951E-03     34.7300E-03    -15.9398E-03     8.96802E-03
            2224     5.31688E-03     12.7389E-03    -10.3187E+06    -76.1167E+06    -7.99504E+06     3.97093E+06    -17.7888E-03     33.4152E-03    -15.6264E-03     6.80965E-03    -17.7189E-03     33.0616E-03    -15.5410E-03     6.85666E-03
            2225     4.43210E-03     12.7291E-03    -9.65753E+06    -74.6107E+06    -7.88758E+06     3.72119E+06    -16.7515E-03     32.0472E-03    -15.2957E-03     5.18336E-03    -16.6804E-03     31.6998E-03    -15.2130E-03     5.22849E-03
            2226     3.54670E-03     12.7214E-03    -8.92983E+06    -73.3250E+06    -7.63123E+06     3.23902E+06    -15.9299E-03     30.9640E-03    -15.0341E-03     3.85852E-03    -15.8573E-03     30.6215E-03    -14.9530E-03     3.89837E-03
            2227     2.66039E-03     12.7155E-03    -7.99662E+06    -71.7107E+06    -7.04190E+06     2.40303E+06    -15.3203E-03     30.1589E-03    -14.8386E-03     2.73034E-03    -15.2462E-03     29.8222E-03    -14.7582E-03     2.76008E-03
            2228     1.77400E-03     12.7114E-03    -7.00206E+06    -70.0771E+06    -6.41697E+06     1.50513E+06    -14.9244E-03     29.6233E-03    -14.6989E-03     1.79443E-03    -14.8486E-03     29.2924E-03    -14.6192E-03     1.81307E-03
            2229     886.997E-06     12.7089E-03    -6.06888E+06    -68.8613E+06    -5.94874E+06     784.798E+03    -14.6812E-03     29.2801E-03    -14.5989E-03     975.021E-06    -14.6031E-03     28.9533E-03    -14.5200E-03     984.752E-06
            2230     16.6634E-03     12.5162E-03    -5.15863E+06     159.024E+06     86.7127E+06     429.773E+03    -67.1658E-03     92.9419E-03    -25.7761E-03     276.348E-03    -77.1925E-03     103.264E-03    -25.5657E-03     278.930E-03
            2231     15.8183E-03     12.2700E-03    -11.1192E+06     105.814E+06     31.4757E+06     4.24825E+06    -56.3769E-03     80.5211E-03    -24.1442E-03     201.115E-03    -60.5773E-03     84.9681E-03    -24.1241E-03     200.487E-03
            2232     14.9531E-03     12.1212E-03    -13.1484E+06     55.3525E+06    -10.8219E+06     6.33971E+06    -43.9760E-03     66.7778E-03    -22.8018E-03     104.770E-03    -44.6860E-03     67.6695E-03    -22.9171E-03     104.431E-03
            2233     14.0900E-03     12.0505E-03    -9.32010E+06     19.3629E+06    -24.2485E+06     5.81843E+06    -38.7187E-03     60.4598E-03    -21.7411E-03     55.4638E-03    -38.9190E-03     60.7664E-03    -21.8769E-03     55.2887E-03
            2234     13.2213E-03     12.0002E-03    -8.10776E+06    -15.3702E+06    -22.6817E+06     6.30667E+06    -35.3108E-03     56.1444E-03    -20.8335E-03     46.3401E-03    -35.3780E-03     56.1942E-03    -20.9129E-03     46.2589E-03
            2235     12.3504E-03     11.9475E-03    -8.73387E+06    -39.5605E+06    -16.8024E+06     6.35619E+06    -33.0884E-03     53.0770E-03    -19.9886E-03     41.4263E-03    -33.0969E-03     52.9630E-03    -20.0026E-03     41.4020E-03
            2236     11.4785E-03     11.9063E-03    -9.38311E+06    -58.6157E+06    -13.5331E+06     6.27010E+06    -30.8630E-03     50.0080E-03    -19.1449E-03     31.2679E-03    -30.8292E-03     49.7722E-03    -19.1140E-03     31.2782E-03
            2237     10.6051E-03     11.8721E-03    -9.89725E+06    -73.7440E+06    -11.6864E+06     6.13225E+06    -28.3551E-03     46.6822E-03    -18.3271E-03     24.6942E-03    -28.2936E-03     46.3579E-03    -18.2643E-03     24.7269E-03
            2238     9.72855E-03     11.8436E-03    -10.4239E+06    -81.2718E+06    -7.68095E+06     6.00272E+06    -25.8617E-03     43.4372E-03    -17.5754E-03     19.7770E-03    -25.7918E-03     43.0641E-03    -17.4809E-03     19.8249E-03
            2239     8.85074E-03     11.8196E-03    -10.9767E+06    -81.9033E+06    -5.57528E+06     5.59365E+06    -23.6569E-03     40.5337E-03    -16.8767E-03     15.5081E-03    -23.5887E-03     40.1520E-03    -16.7699E-03     15.5610E-03
            2240     7.97058E-03     11.7999E-03    -11.5553E+06    -79.9677E+06    -6.44559E+06     4.84775E+06    -21.6225E-03     37.8552E-03    -16.2326E-03     12.0617E-03    -21.5570E-03     37.4836E-03    -16.1322E-03     12.1116E-03
            2241     7.08911E-03     11.7836E-03    -11.9287E+06    -78.6370E+06    -7.42053E+06     4.01512E+06    -19.8450E-03     35.5091E-03    -15.6641E-03     9.30091E-03    -19.7810E-03     35.1452E-03    -15.5699E-03     9.34427E-03
            2242     6.20604E-03     11.7703E-03    -11.8030E+06    -77.1075E+06    -7.85266E+06     3.15777E+06    -18.2654E-03     33.4400E-03    -15.1746E-03     7.07913E-03    -18.2019E-03     33.0837E-03    -15.0850E-03     7.11413E-03
            2243     5.32156E-03     11.7598E-03    -11.2886E+06    -75.3216E+06    -7.50962E+06     2.66905E+06    -16.9625E-03     31.7278E-03    -14.7652E-03     5.36512E-03    -16.8993E-03     31.3788E-03    -14.6772E-03     5.39554E-03
            2244     4.43620E-03     11.7512E-03    -10.7047E+06    -73.5145E+06    -6.80780E+06     2.39215E+06    -15.9179E-03     30.3460E-03    -14.4281E-03     4.03070E-03    -15.8552E-03     30.0040E-03    -14.3401E-03     4.05874E-03
            2245     3.54983E-03     11.7446E-03    -10.0185E+06    -71.8433E+06    -6.71456E+06     1.72256E+06    -15.0768E-03     29.2320E-03    -14.1552E-03     2.95305E-03    -15.0131E-03     28.8971E-03    -14.0700E-03     2.97332E-03
            2246     2.66304E-03     11.7395E-03    -9.33940E+06    -70.2028E+06    -7.35757E+06     953.572E+03    -14.4519E-03     28.3950E-03    -13.9431E-03     2.11981E-03    -14.3862E-03     28.0682E-03    -13.8645E-03     2.13080E-03
            2247     1.77546E-03     11.7359E-03    -8.82783E+06    -68.8454E+06    -7.97747E+06     434.197E+03    -14.0251E-03     27.8145E-03    -13.7894E-03     1.38096E-03    -13.9579E-03     27.4947E-03    -13.7167E-03     1.38574E-03
            2248     887.925E-06     11.7337E-03    -8.67180E+06    -68.0381E+06    -8.23286E+06     216.589E+03    -13.8134E-03     27.4493E-03    -13.6358E-03     779.796E-06    -13.7462E-03     27.1336E-03    -13.5658E-03     782.174E-06
            2249     16.6731E-03     11.4842E-03    -5.11341E+06     157.037E+06     87.6925E+06     1.27933E+06    -67.9112E-03     93.5368E-03    -25.6256E-03     265.175E-03    -77.2032E-03     103.115E-03    -25.4075E-03     267.310E-03
            2250     15.8152E-03     11.2483E-03    -11.9681E+06     104.732E+06     35.4326E+06     4.23482E+06    -57.2327E-03     81.1309E-03    -23.8981E-03     186.451E-03    -60.8892E-03     85.0148E-03    -23.8555E-03     185.819E-03
            2251     14.9624E-03     11.1099E-03    -13.6197E+06     54.4248E+06    -8.41403E+06     5.56484E+06    -45.5980E-03     68.0126E-03    -22.4146E-03     98.2411E-03    -46.2731E-03     68.8579E-03    -22.5159E-03     97.8650E-03
            2252     14.0953E-03     11.0457E-03    -10.6731E+06     17.4800E+06    -25.9983E+06     6.57283E+06    -38.4560E-03     59.7149E-03    -21.2589E-03     52.6120E-03    -38.6366E-03     59.9953E-03    -21.3987E-03     52.4649E-03
            2253     13.2277E-03     10.9980E-03    -9.65594E+06    -14.6304E+06    -23.7859E+06     7.24299E+06    -36.0707E-03     56.3687E-03    -20.2981E-03     43.2790E-03    -36.1382E-03     56.4194E-03    -20.3818E-03     43.2121E-03
            2254     12.3584E-03     10.9492E-03    -9.80537E+06    -38.4114E+06    -16.6435E+06     7.40784E+06    -33.6233E-03     52.9931E-03    -19.3698E-03     37.5106E-03    -33.6335E-03     52.8807E-03    -19.3831E-03     37.5037E-03
            2255     11.4869E-03     10.9095E-03    -10.4361E+06    -57.6638E+06    -13.0306E+06     7.17864E+06    -30.7517E-03     49.2116E-03    -18.4599E-03     27.3979E-03    -30.7218E-03     48.9780E-03    -18.4263E-03     27.4247E-03
            2256     10.6127E-03     10.8804E-03    -10.7602E+06    -72.5505E+06    -10.5986E+06     6.62422E+06    -28.0289E-03     45.6301E-03    -17.6012E-03     21.1049E-03    -27.9729E-03     45.3094E-03    -17.5334E-03     21.1476E-03
            2257     9.73642E-03     10.8542E-03    -11.2792E+06    -80.3061E+06    -6.76557E+06     6.19324E+06    -25.3983E-03     42.2134E-03    -16.8151E-03     16.6508E-03    -25.3343E-03     41.8440E-03    -16.7161E-03     16.7034E-03
            2258     8.85774E-03     10.8335E-03    -11.7787E+06    -80.4963E+06    -4.42935E+06     5.44197E+06    -22.9688E-03     39.0644E-03    -16.0956E-03     12.9057E-03    -22.9077E-03     38.6887E-03    -15.9839E-03     12.9583E-03
            2259     7.97734E-03     10.8163E-03    -12.1919E+06    -78.2529E+06    -4.72796E+06     4.53468E+06    -20.8700E-03     36.3143E-03    -15.4443E-03     10.0585E-03    -20.8124E-03     35.9494E-03    -15.3368E-03     10.1053E-03
            2260     7.09498E-03     10.8023E-03    -12.4056E+06    -76.9426E+06    -5.68307E+06     3.32321E+06    -18.9886E-03     33.8642E-03    -14.8756E-03     7.77104E-03    -18.9319E-03     33.5069E-03    -14.7745E-03     7.80600E-03
            2261     6.21103E-03     10.7912E-03    -12.5092E+06    -75.7256E+06    -6.36067E+06     2.13970E+06    -17.4164E-03     31.8090E-03    -14.3926E-03     6.00830E-03    -17.3605E-03     31.4584E-03    -14.2965E-03     6.03036E-03
            2262     5.32598E-03     10.7821E-03    -12.5220E+06    -74.5636E+06    -6.58415E+06     1.36604E+06    -16.1574E-03     30.1444E-03    -13.9870E-03     4.65441E-03    -16.1027E-03     29.7997E-03    -13.8937E-03     4.66803E-03
            2263     4.43979E-03     10.7750E-03    -12.1856E+06    -72.6867E+06    -6.60599E+06     777.762E+03    -15.1191E-03     28.7679E-03    -13.6488E-03     3.55044E-03    -15.0653E-03     28.4320E-03    -13.5588E-03     3.55758E-03
            2264     3.55289E-03     10.7694E-03    -11.9395E+06    -70.8182E+06    -7.75390E+06     244.814E+03    -14.3009E-03     27.6701E-03    -13.3693E-03     2.68831E-03    -14.2468E-03     27.3447E-03    -13.2880E-03     2.68939E-03
            2265     2.66513E-03     10.7652E-03    -11.8828E+06    -69.5609E+06    -9.60736E+06    -124.843E+03    -13.6828E-03     26.8288E-03    -13.1460E-03     1.95198E-03    -13.6275E-03     26.5122E-03    -13.0759E-03     1.94893E-03
            2266     1.77719E-03     10.7621E-03    -11.8302E+06    -68.5916E+06    -10.9542E+06    -233.825E+03    -13.2269E-03     26.2101E-03    -12.9832E-03     1.28200E-03    -13.1708E-03     25.9002E-03    -12.9214E-03     1.27808E-03
            2267     888.564E-06     10.7604E-03    -11.8893E+06    -68.0227E+06    -11.5860E+06    -151.453E+03    -12.9710E-03     25.8316E-03    -12.8605E-03     716.919E-06    -12.9150E-03     25.5255E-03    -12.8026E-03     714.492E-06
            2268     16.6788E-03     10.4694E-03    -6.62863E+06     154.591E+06     88.9688E+06     1.93227E+06    -71.5059E-03     96.9261E-03    -25.4201E-03     255.891E-03    -80.0050E-03     105.695E-03    -25.1898E-03     257.438E-03
            2269     15.8278E-03     10.2203E-03    -8.82253E+06     102.414E+06     40.5403E+06     4.45234E+06    -57.7723E-03     81.3312E-03    -23.5590E-03     177.815E-03    -61.0366E-03     84.8117E-03    -23.4920E-03     177.075E-03
            2270     14.9659E-03     10.1030E-03    -9.28117E+06     53.9078E+06    -3.28429E+06     6.31329E+06    -45.0741E-03     67.1017E-03    -22.0276E-03     88.2368E-03    -45.6546E-03     67.8510E-03    -22.1087E-03     87.8911E-03
            2271     14.1010E-03     10.0389E-03    -12.4085E+06     16.9776E+06    -24.7732E+06     7.03655E+06    -38.9491E-03     59.7665E-03    -20.8174E-03     48.5384E-03    -39.1238E-03     60.0296E-03    -20.9479E-03     48.4034E-03
            2272     13.2348E-03     9.99561E-03    -12.4235E+06    -14.0305E+06    -23.7896E+06     7.47864E+06    -37.0760E-03     56.8402E-03    -19.7642E-03     39.5417E-03    -37.1524E-03     56.8920E-03    -19.8447E-03     39.4774E-03
            2273     12.3668E-03     9.94875E-03    -12.1971E+06    -37.7372E+06    -16.2658E+06     7.84894E+06    -34.1152E-03     52.8557E-03    -18.7405E-03     32.8588E-03    -34.1337E-03     52.7446E-03    -18.7494E-03     32.8603E-03
            2274     11.4949E-03     9.91631E-03    -11.8309E+06    -56.3528E+06    -11.7139E+06     7.40937E+06    -30.3210E-03     48.0992E-03    -17.7782E-03     23.7676E-03    -30.2986E-03     47.8690E-03    -17.7379E-03     23.8028E-03
            2275     10.6202E-03     9.88786E-03    -11.6242E+06    -71.0602E+06     -8.5459E+06     6.68514E+06    -27.4008E-03     44.3065E-03    -16.9056E-03     18.0331E-03    -27.3528E-03     43.9899E-03    -16.8285E-03     18.0800E-03
            2276     9.74378E-03     9.86700E-03    -12.0965E+06    -78.7541E+06    -4.33621E+06     6.01005E+06    -24.6198E-03     40.7386E-03    -16.1188E-03     14.1383E-03    -24.5648E-03     40.3739E-03    -16.0088E-03     14.1907E-03
            2277     8.86423E-03     9.84864E-03    -12.5031E+06    -78.8102E+06    -2.47892E+06     4.97970E+06    -22.0730E-03     37.4812E-03    -15.4082E-03     11.3275E-03    -22.0205E-03     37.1118E-03    -15.2882E-03     11.3755E-03
            2278     7.98284E-03     9.83435E-03    -12.6099E+06    -76.5254E+06    -2.85832E+06     3.64924E+06    -19.8973E-03     34.6792E-03    -14.7819E-03     8.91853E-03    -19.8470E-03     34.3208E-03    -14.6670E-03     8.95468E-03
            2279     7.09964E-03     9.82275E-03    -12.6898E+06    -75.1668E+06    -3.83022E+06     2.43081E+06    -18.0512E-03     32.2993E-03    -14.2481E-03     7.19974E-03    -18.0011E-03     31.9485E-03    -14.1399E-03     7.22355E-03
            2280     6.21503E-03     9.81354E-03    -13.0219E+06    -74.3401E+06    -4.76418E+06     1.26302E+06    -16.5884E-03     30.3881E-03    -13.7997E-03     5.86906E-03    -16.5395E-03     30.0429E-03    -13.6968E-03     5.87989E-03
            2281     5.32914E-03     9.80602E-03    -13.3388E+06    -73.5771E+06    -5.90130E+06     233.749E+03    -15.3963E-03     28.8190E-03    -13.4227E-03     4.79154E-03    -15.3481E-03     28.4794E-03    -13.3262E-03     4.79053E-03
            2282     4.44239E-03     9.80020E-03    -13.6598E+06    -72.1413E+06    -7.60801E+06    -565.363E+03    -14.4405E-03     27.5480E-03    -13.1075E-03     3.87603E-03    -14.3935E-03     27.2184E-03    -13.0211E-03     3.86576E-03
            2283     3.55471E-03     9.79563E-03    -13.8528E+06    -70.5970E+06    -9.73308E+06    -860.541E+03    -13.7043E-03     26.5520E-03    -12.8478E-03     3.09775E-03    -13.6572E-03     26.2334E-03    -12.7740E-03     3.08447E-03
            2284     2.66673E-03     9.79210E-03    -14.0499E+06    -69.6684E+06    -11.7879E+06    -825.383E+03    -13.1343E-03     25.7762E-03    -12.6419E-03     2.33992E-03    -13.0866E-03     25.4654E-03    -12.5794E-03     2.32775E-03
            2285     1.77794E-03     9.78980E-03    -14.2607E+06    -68.9697E+06    -13.2787E+06    -625.810E+03    -12.7187E-03     25.2096E-03    -12.4909E-03     1.61013E-03    -12.6708E-03     24.9047E-03    -12.4366E-03     1.60109E-03
            2286     889.185E-06     9.78817E-03    -14.3935E+06    -68.4811E+06    -14.0257E+06    -324.775E+03    -12.4620E-03     24.8544E-03    -12.3924E-03     883.678E-06    -12.4143E-03     24.5532E-03    -12.3423E-03     878.985E-06
            2287     16.6755E-03     9.42091E-03    -5.65514E+06     151.807E+06     88.0059E+06     2.11378E+06    -74.2346E-03     99.5425E-03    -25.3079E-03     244.935E-03    -82.0212E-03     107.594E-03    -25.0798E-03     245.962E-03
            2288     15.8309E-03     9.20588E-03    -9.18015E+06     99.6803E+06     37.5108E+06     4.56112E+06    -59.7208E-03     82.9873E-03    -23.2665E-03     165.857E-03    -62.5631E-03     86.0446E-03    -23.2102E-03     164.941E-03
            2289     14.9731E-03     9.08815E-03    -10.0911E+06     53.3153E+06    -3.33998E+06     7.10082E+06    -45.4757E-03     67.1123E-03    -21.6366E-03     81.5289E-03    -45.9899E-03     67.7904E-03    -21.7160E-03     81.2155E-03
            2290     14.1094E-03     9.03757E-03    -11.1182E+06     18.7221E+06    -20.9733E+06     8.12859E+06    -40.2086E-03     60.5616E-03    -20.3530E-03     44.5229E-03    -40.3712E-03     60.8125E-03    -20.4689E-03     44.4038E-03
            2291     13.2419E-03     8.98867E-03    -12.5824E+06    -13.7665E+06    -21.5830E+06     8.36703E+06    -37.3026E-03     56.5141E-03    -19.2115E-03     35.8051E-03    -37.3746E-03     56.5556E-03    -19.2813E-03     35.7605E-03
            2292     12.3746E-03     8.95181E-03    -12.7548E+06    -36.8013E+06    -13.4273E+06     7.75599E+06    -33.7474E-03     51.8989E-03    -18.1515E-03     28.0675E-03    -33.7688E-03     51.7838E-03    -18.1468E-03     28.0748E-03
            2293     11.5023E-03     8.92160E-03    -12.9948E+06     -54.191E+06    -8.40569E+06     7.08214E+06    -29.7466E-03     46.9232E-03    -17.1766E-03     20.7076E-03    -29.7355E-03     46.6983E-03    -17.1212E-03     20.7436E-03
            2294     10.6277E-03     8.89871E-03    -12.9726E+06    -69.9805E+06    -5.72234E+06     6.20708E+06    -26.2898E-03     42.6106E-03    -16.3208E-03     15.9861E-03    -26.2530E-03     42.2960E-03    -16.2291E-03     16.0310E-03
            2295     9.74888E-03     8.88038E-03    -12.6478E+06    -77.0881E+06    -1.25380E+06     5.17158E+06    -23.4817E-03     39.0612E-03    -15.5796E-03     12.8394E-03    -23.4359E-03     38.7007E-03    -15.4557E-03     12.8833E-03
            2296     8.86902E-03     8.86567E-03    -12.7259E+06    -76.6639E+06     87.0775E+03     3.91221E+06    -20.9889E-03     35.9092E-03    -14.9203E-03     10.5797E-03    -20.9442E-03     35.5471E-03    -14.7903E-03     10.6151E-03
            2297     7.98654E-03     8.85391E-03    -12.8615E+06    -74.7878E+06    -900.791E+03     2.47390E+06    -18.7812E-03     33.1399E-03    -14.3587E-03     8.88096E-03    -18.7375E-03     32.7877E-03    -14.2361E-03     8.90273E-03
            2298     7.10239E-03     8.84466E-03    -13.0765E+06    -73.7016E+06    -2.02596E+06     1.21790E+06    -17.1214E-03     31.0199E-03    -13.8984E-03     7.70717E-03    -17.0781E-03     30.6744E-03    -13.7827E-03     7.71563E-03
            2299     6.21689E-03     8.83700E-03    -13.1879E+06    -73.0935E+06    -3.32256E+06     221.450E+03    -15.8005E-03     29.3204E-03    -13.5199E-03     6.69405E-03    -15.7564E-03     28.9796E-03    -13.4114E-03     6.69162E-03
            2300     5.33048E-03     8.83107E-03    -13.6287E+06    -72.6399E+06    -5.49627E+06    -686.977E+03    -14.7775E-03     27.9856E-03    -13.2081E-03     5.84708E-03    -14.7329E-03     27.6506E-03    -13.1104E-03     5.83427E-03
            2301     4.44306E-03     8.82631E-03    -14.1597E+06    -71.7579E+06    -8.37852E+06    -1.38417E+06    -14.0038E-03     26.9540E-03    -12.9502E-03     4.95018E-03    -13.9587E-03     26.6282E-03    -12.8675E-03     4.92938E-03
            2302     3.55530E-03     8.82257E-03    -14.7053E+06    -71.0087E+06    -11.0184E+06    -1.55682E+06    -13.3948E-03     26.1393E-03    -12.7445E-03     4.10925E-03    -13.3495E-03     25.8217E-03    -12.6753E-03     4.08702E-03
            2303     2.66669E-03     8.81989E-03    -15.1050E+06    -70.3973E+06    -12.9679E+06    -1.35425E+06    -12.9434E-03     25.5332E-03    -12.5898E-03     3.17632E-03    -12.8982E-03     25.2220E-03    -12.5307E-03     3.15736E-03
            2304     1.77814E-03     8.81783E-03    -15.2542E+06    -69.7813E+06    -14.1474E+06    -1.00631E+06    -12.6373E-03     25.1193E-03    -12.4820E-03     2.23631E-03    -12.5920E-03     24.8131E-03    -12.4294E-03     2.22239E-03
            2305     888.994E-06     8.81683E-03    -15.2546E+06    -69.3839E+06    -14.8431E+06    -634.231E+03    -12.4589E-03     24.8729E-03    -12.4141E-03     1.24159E-03    -12.4129E-03     24.5697E-03    -12.3656E-03     1.23291E-03
            2306     16.6793E-03     8.37592E-03    -4.79081E+06     149.416E+06     88.2684E+06     2.83525E+06    -75.3909E-03     100.576E-03    -25.1853E-03     234.803E-03    -82.6111E-03     108.055E-03    -24.9537E-03     235.405E-03
            2307     15.8352E-03     8.18156E-03    -9.13962E+06     96.5444E+06     38.6272E+06     5.20872E+06    -60.2593E-03     83.3088E-03    -23.0495E-03     147.523E-03    -62.5911E-03     85.8415E-03    -22.9831E-03     146.581E-03
            2308     14.9767E-03     8.07958E-03    -12.5916E+06     50.7365E+06    -775.386E+03     7.82723E+06    -47.1331E-03     68.4407E-03    -21.3076E-03     74.6930E-03    -47.6044E-03     69.0505E-03    -21.3668E-03     74.3910E-03
            2309     14.1145E-03     8.02694E-03    -13.6569E+06     18.8846E+06    -18.7939E+06     9.33832E+06    -41.3953E-03     61.2945E-03    -19.8992E-03     39.8858E-03    -41.5594E-03     61.5323E-03    -20.0007E-03     39.7868E-03
            2310     13.2515E-03     7.98850E-03    -13.5427E+06    -11.7542E+06    -19.2282E+06     9.34876E+06    -36.8392E-03     55.5350E-03    -18.6958E-03     31.8500E-03    -36.9139E-03     55.5762E-03    -18.7552E-03     31.8295E-03
            2311     12.3802E-03     7.95289E-03    -14.4669E+06    -34.8520E+06    -10.6770E+06     8.19394E+06    -32.5269E-03     50.1851E-03    -17.6582E-03     24.7839E-03    -32.5590E-03     50.0734E-03    -17.6401E-03     24.8075E-03
            2312     11.5085E-03     7.92969E-03    -14.6266E+06    -51.6516E+06    -4.71944E+06     6.32827E+06    -28.5040E-03     45.2433E-03    -16.7393E-03     18.1886E-03    -28.5079E-03     45.0260E-03    -16.6668E-03     18.2208E-03
            2313     10.6311E-03     7.91059E-03    -14.1577E+06    -67.8347E+06    -1.42933E+06     4.70306E+06    -24.9444E-03     40.8990E-03    -15.9546E-03     15.1078E-03    -24.9220E-03     40.5898E-03    -15.8429E-03     15.1372E-03
            2314     9.75263E-03     7.89588E-03    -13.8261E+06    -75.6040E+06     1.15071E+06     3.49568E+06    -22.1167E-03     37.4087E-03    -15.2921E-03     12.6369E-03    -22.0822E-03     37.0536E-03    -15.1567E-03     12.6614E-03
            2315     8.87087E-03     7.88372E-03    -13.2380E+06    -74.6428E+06     2.35725E+06     2.17913E+06    -19.6107E-03     34.3480E-03    -14.7373E-03     11.0062E-03    -19.5747E-03     33.9933E-03    -14.5981E-03     11.0207E-03
            2316     7.98733E-03     7.87539E-03    -13.0834E+06    -73.1149E+06     1.08755E+06     868.459E+03    -17.7397E-03     32.0262E-03    -14.2865E-03     10.1491E-03    -17.7024E-03     31.6798E-03    -14.1561E-03     10.1508E-03
            2317     7.10226E-03     7.86706E-03    -12.9528E+06    -72.4584E+06    -619.120E+03    -285.841E+03    -16.2965E-03     30.2264E-03    -13.9299E-03     9.17342E-03    -16.2564E-03     29.8850E-03    -13.8092E-03     9.16297E-03
            2318     6.21626E-03     7.86174E-03    -13.0305E+06    -72.2519E+06    -2.30436E+06    -1.10789E+06    -15.2210E-03     28.8749E-03    -13.6540E-03     8.41222E-03    -15.1788E-03     28.5367E-03    -13.5418E-03     8.39299E-03
            2319     5.32906E-03     7.85631E-03    -13.3451E+06    -72.1693E+06    -4.90621E+06    -1.72722E+06    -14.4702E-03     27.9058E-03    -13.4356E-03     7.45706E-03    -14.4256E-03     27.5719E-03    -13.3362E-03     7.43110E-03
            2320     4.44180E-03     7.85272E-03    -13.6848E+06    -71.8283E+06    -7.95617E+06    -2.03832E+06    -13.9009E-03     27.1647E-03    -13.2638E-03     6.48553E-03    -13.8539E-03     26.8372E-03    -13.1796E-03     6.45652E-03
            2321     3.55361E-03     7.84953E-03    -14.1909E+06    -71.7015E+06    -10.6092E+06    -2.05819E+06    -13.5135E-03     26.6482E-03    -13.1346E-03     5.38797E-03    -13.4654E-03     26.3258E-03    -13.0631E-03     5.35945E-03
            2322     2.66565E-03     7.84727E-03    -14.3878E+06    -71.2852E+06    -12.2770E+06    -1.88180E+06    -13.2286E-03     26.2721E-03    -13.0435E-03     4.19144E-03    -13.1795E-03     25.9544E-03    -12.9806E-03     4.16581E-03
            2323     1.77695E-03     7.84572E-03    -14.4640E+06    -70.9906E+06    -13.3919E+06    -1.51628E+06    -13.0582E-03     26.0433E-03    -12.9851E-03     2.91693E-03    -13.0082E-03     25.7287E-03    -12.9282E-03     2.89653E-03
            2324     888.673E-06     7.84448E-03    -14.5566E+06    -70.9326E+06    -14.1147E+06    -890.204E+03    -12.9703E-03     25.9213E-03    -12.9510E-03     1.61995E-03    -12.9197E-03     25.6082E-03    -12.8976E-03     1.60803E-03
            2325     16.6829E-03     7.32712E-03    -5.71299E+06     146.429E+06     88.4673E+06     3.36280E+06    -77.2461E-03     102.329E-03    -25.0833E-03     227.745E-03    -83.9797E-03     109.308E-03    -24.8450E-03     227.928E-03
            2326     15.8378E-03     7.16155E-03    -9.92125E+06     93.2414E+06     42.0193E+06     6.79312E+06    -61.8915E-03     84.7284E-03    -22.8370E-03     131.285E-03    -63.8095E-03     86.8229E-03    -22.7477E-03     130.324E-03
            2327     14.9830E-03     7.06353E-03    -12.7452E+06     49.1529E+06     4.96298E+06     9.07761E+06    -48.4634E-03     69.4331E-03    -20.9697E-03     64.3328E-03    -48.8842E-03     69.9703E-03    -20.9976E-03     64.0465E-03
            2328     14.1234E-03     7.02018E-03    -15.0854E+06     18.1606E+06    -15.1124E+06     10.4409E+06    -40.5269E-03     60.0298E-03    -19.5028E-03     34.7499E-03    -40.6863E-03     60.2445E-03    -19.5829E-03     34.6860E-03
            2329     13.2548E-03     6.98654E-03    -17.3292E+06    -10.0551E+06    -16.8337E+06     10.9003E+06    -35.8068E-03     54.1297E-03    -18.3229E-03     28.4889E-03    -35.9000E-03     54.1750E-03    -18.3674E-03     28.5011E-03
            2330     12.3860E-03     6.95813E-03    -18.2151E+06    -30.3242E+06    -6.30360E+06     7.88973E+06    -30.8044E-03     48.1624E-03    -17.3580E-03     22.1907E-03    -30.8637E-03     48.0682E-03    -17.3192E-03     22.2213E-03
            2331     11.5101E-03     6.93825E-03    -17.2910E+06    -48.2397E+06     100.568E+03     3.98310E+06    -26.5405E-03     43.0954E-03    -16.5550E-03     17.1105E-03    -26.5682E-03     42.8905E-03    -16.4595E-03     17.1193E-03
            2332     10.6331E-03     6.92518E-03    -16.1953E+06    -66.0666E+06     3.11094E+06     2.07484E+06    -23.3248E-03     39.2238E-03    -15.8991E-03     15.1431E-03    -23.3211E-03     38.9193E-03    -15.7642E-03     15.1421E-03
            2333     9.75204E-03     6.91138E-03    -14.9207E+06    -74.0050E+06     4.64733E+06     809.822E+03    -20.3965E-03     35.7700E-03    -15.3735E-03     13.8288E-03    -20.3746E-03     35.4191E-03    -15.2213E-03     13.8214E-03
            2334     8.86907E-03     6.90534E-03    -14.1230E+06    -73.1879E+06     4.04502E+06    -364.405E+03    -18.4136E-03     33.3734E-03    -14.9597E-03     12.9883E-03    -18.3866E-03     33.0248E-03    -14.8129E-03     12.9715E-03
            2335     7.98434E-03     6.89549E-03    -13.2782E+06    -71.9959E+06     2.33981E+06    -1.46054E+06    -16.9299E-03     31.5701E-03    -14.6402E-03     12.1328E-03    -16.8970E-03     31.2277E-03    -14.5049E-03     12.1054E-03
            2336     7.09910E-03     6.89172E-03    -12.6951E+06    -71.6783E+06     313.617E+03    -2.19190E+06    -15.8233E-03     30.2279E-03    -14.4046E-03     11.3240E-03    -15.7844E-03     29.8887E-03    -14.2807E-03     11.2897E-03
            2337     6.21209E-03     6.88513E-03    -12.6815E+06    -71.9170E+06    -1.78582E+06    -2.74840E+06    -15.1162E-03     29.3508E-03    -14.2346E-03     10.4059E-03    -15.0735E-03     29.0130E-03    -14.1209E-03     10.3660E-03
            2338     5.32576E-03     6.88204E-03    -12.4230E+06    -72.2900E+06    -4.41863E+06    -3.11955E+06    -14.6014E-03     28.7113E-03    -14.1100E-03     9.20355E-03    -14.5527E-03     28.3748E-03    -14.0092E-03     9.16005E-03
            2339     4.43789E-03     6.87805E-03    -12.3288E+06    -72.5335E+06    -6.75217E+06    -3.04908E+06    -14.3000E-03     28.3232E-03    -14.0232E-03     7.94663E-03    -14.2470E-03     27.9885E-03    -13.9339E-03     7.90490E-03
            2340     3.55085E-03     6.87562E-03    -12.1156E+06    -72.5108E+06    -8.53284E+06    -2.87310E+06    -14.0977E-03     28.0618E-03    -13.9640E-03     6.47201E-03    -14.0410E-03     27.7293E-03    -13.8840E-03     6.43324E-03
            2341     2.66283E-03     6.87352E-03    -12.1606E+06    -72.5262E+06    -10.1098E+06    -2.49661E+06    -13.9883E-03     27.9128E-03    -13.9245E-03     5.01156E-03    -13.9295E-03     27.5825E-03    -13.8522E-03     4.97818E-03
            2342     1.77558E-03     6.87186E-03    -12.3542E+06    -72.6848E+06    -11.3773E+06    -1.87233E+06    -13.9268E-03     27.8242E-03    -13.8974E-03     3.43032E-03    -13.8667E-03     27.4951E-03    -13.8310E-03     3.40545E-03
            2343     887.524E-06     6.87128E-03    -12.4407E+06    -72.8985E+06    -12.2377E+06    -1.09311E+06    -13.8836E-03     27.7686E-03    -13.8850E-03     1.89892E-03    -13.8223E-03     27.4399E-03    -13.8225E-03     1.88444E-03
            2344     16.6804E-03     6.28718E-03    -6.80804E+06     142.687E+06     89.1055E+06     4.42984E+06    -80.1436E-03     105.116E-03    -24.9727E-03     214.021E-03    -86.1811E-03     111.380E-03    -24.7242E-03     213.752E-03
            2345     15.8408E-03     6.12602E-03    -11.5581E+06     90.2175E+06     46.9213E+06     6.75122E+06    -62.7858E-03     85.3822E-03    -22.5964E-03     112.480E-03    -64.3313E-03     87.0737E-03    -22.4758E-03     111.516E-03
            2346     14.9926E-03     6.05190E-03    -15.2022E+06     45.7688E+06     9.99430E+06     10.9320E+06    -47.1505E-03     67.8459E-03    -20.6953E-03     54.4846E-03    -47.5257E-03     68.3023E-03    -20.6897E-03     54.2649E-03
            2347     14.1246E-03     6.01615E-03    -19.6210E+06     17.5958E+06    -11.9688E+06     14.8848E+06    -38.8590E-03     58.1384E-03    -19.2794E-03     33.2082E-03    -39.0326E-03     58.3400E-03    -19.3363E-03     33.2289E-03
            2348     13.2591E-03     5.98520E-03    -22.6318E+06    -3.59947E+06    -12.0611E+06     11.5773E+06    -33.9338E-03     52.1295E-03    -18.1957E-03     26.0311E-03    -34.0629E-03     52.2010E-03    -18.2179E-03     26.0685E-03
            2349     12.3862E-03     5.96481E-03    -21.2399E+06    -23.7767E+06    -707.606E+03     4.98478E+06    -28.4114E-03     45.7795E-03    -17.3682E-03     21.0371E-03    -28.4999E-03     45.7108E-03    -17.3064E-03     21.0422E-03
            2350     11.5094E-03     5.95130E-03    -19.6417E+06    -45.1317E+06     4.82829E+06     538.049E+03    -24.3300E-03     41.0665E-03    -16.7365E-03     18.7435E-03    -24.3799E-03     40.8727E-03    -16.6184E-03     18.7147E-03
            2351     10.6295E-03     5.93773E-03    -17.7673E+06    -64.4724E+06     7.49767E+06    -1.70521E+06    -21.3613E-03     37.6252E-03    -16.2640E-03     16.9774E-03    -21.3735E-03     37.3240E-03    -16.1072E-03     16.9322E-03
            2352     9.74689E-03     5.93329E-03    -16.1591E+06    -73.1633E+06     7.30619E+06    -2.93042E+06    -19.1357E-03     35.0401E-03    -15.9044E-03     16.3958E-03    -19.1248E-03     34.6910E-03    -15.7384E-03     16.3427E-03
            2353     8.86261E-03     5.92232E-03    -14.8552E+06    -72.4572E+06     4.65005E+06    -3.72542E+06    -17.7023E-03     33.3298E-03    -15.6274E-03     15.5271E-03    -17.6807E-03     32.9848E-03    -15.4776E-03     15.4685E-03
            2354     7.97853E-03     5.91996E-03    -13.5858E+06    -71.7298E+06     2.70236E+06    -4.26275E+06    -16.6771E-03     32.1089E-03    -15.4318E-03     14.4384E-03    -16.6465E-03     31.7677E-03    -15.2946E-03     14.3760E-03
            2355     7.09164E-03     5.91253E-03    -12.8525E+06    -71.8127E+06     498.795E+03    -4.63038E+06    -16.0338E-03     31.3287E-03    -15.2949E-03     13.4246E-03    -15.9957E-03     30.9885E-03    -15.1696E-03     13.3595E-03
            2356     6.20673E-03     5.90983E-03    -11.9355E+06    -72.2111E+06    -2.02420E+06    -4.84450E+06    -15.5915E-03     30.7900E-03    -15.1986E-03     11.9560E-03    -15.5442E-03     30.4498E-03    -15.0867E-03     11.8897E-03
            2357     5.31914E-03     5.90509E-03    -11.3833E+06    -73.0892E+06    -4.69720E+06    -4.76328E+06    -15.3236E-03     30.4583E-03    -15.1347E-03     10.4930E-03    -15.2682E-03     30.1165E-03    -15.0357E-03     10.4287E-03
            2358     4.43355E-03     5.90246E-03    -10.9230E+06    -73.7034E+06    -6.72837E+06    -4.45919E+06    -15.1832E-03     30.2779E-03    -15.0947E-03     8.81129E-03    -15.1215E-03     29.9352E-03    -15.0056E-03     8.75173E-03
            2359     3.54622E-03     5.89969E-03    -10.5820E+06    -74.0401E+06    -7.91698E+06    -3.82177E+06    -15.1084E-03     30.1794E-03    -15.0710E-03     7.12106E-03    -15.0427E-03     29.8361E-03    -14.9879E-03     7.07029E-03
            2360     2.66019E-03     5.89766E-03    -10.5905E+06    -74.3235E+06    -9.03826E+06    -2.97005E+06    -15.0753E-03     30.1295E-03    -15.0543E-03     5.36414E-03    -15.0075E-03     29.7864E-03    -14.9763E-03     5.32482E-03
            2361     1.77300E-03     5.89640E-03    -10.8258E+06    -74.7283E+06    -10.0751E+06    -2.02696E+06    -15.0560E-03     30.0960E-03    -15.0400E-03     3.66548E-03    -14.9873E-03     29.7527E-03    -14.9663E-03     3.63871E-03
            2362     886.918E-06     5.89502E-03    -10.8743E+06    -75.0932E+06    -10.8729E+06    -1.21915E+06    -15.0134E-03     30.0634E-03    -15.0500E-03     1.95800E-03    -14.9431E-03     29.7195E-03    -14.9797E-03     1.94194E-03
            2363     16.6902E-03     5.23579E-03    -8.03537E+06     139.079E+06     89.9253E+06     4.95569E+06    -82.9374E-03     107.771E-03    -24.8334E-03     198.651E-03    -88.1372E-03     113.180E-03    -24.5738E-03     197.715E-03
            2364     15.8519E-03     5.09797E-03    -11.7187E+06     86.0731E+06     48.5490E+06     10.1729E+06    -59.4808E-03     81.9124E-03    -22.4316E-03     98.1196E-03    -60.7178E-03     83.2759E-03    -22.2967E-03     97.3490E-03
            2365     14.9877E-03     5.04386E-03    -20.1334E+06     39.9686E+06     13.3699E+06     16.2350E+06    -44.7865E-03     65.4631E-03    -20.6766E-03     47.9660E-03    -45.1244E-03     65.8337E-03    -20.6385E-03     47.8831E-03
            2366     14.1264E-03     5.01023E-03    -25.1398E+06     20.8068E+06    -2.46039E+06     16.1120E+06    -36.8110E-03     56.2140E-03    -19.4030E-03     31.8648E-03    -37.0185E-03     56.4140E-03    -19.4090E-03     31.9270E-03
            2367     13.2564E-03     4.98724E-03    -22.9610E+06     7.15430E+06    -3.38541E+06     9.15295E+06    -30.5734E-03     49.0504E-03    -18.4770E-03     26.5971E-03    -30.7254E-03     49.1566E-03    -18.4710E-03     26.6271E-03
            2368     12.3805E-03     4.97580E-03    -21.7511E+06    -17.2403E+06     3.75953E+06     1.61352E+06    -26.0518E-03     43.9023E-03    -17.8505E-03     23.5830E-03    -26.1568E-03     43.8583E-03    -17.7752E-03     23.5554E-03
            2369     11.5021E-03     4.96205E-03    -20.8955E+06    -42.1723E+06     8.37894E+06    -3.47190E+06    -22.4432E-03     39.8583E-03    -17.4151E-03     21.6586E-03    -22.5073E-03     39.6744E-03    -17.2817E-03     21.5847E-03
            2370     10.6197E-03     4.95755E-03    -19.3056E+06    -63.3607E+06     9.68797E+06    -6.29869E+06    -20.1780E-03     37.2953E-03    -17.1173E-03     20.4447E-03    -20.2021E-03     36.9979E-03    -16.9490E-03     20.3444E-03
            2371     9.73697E-03     4.94821E-03    -17.8491E+06    -72.8999E+06     7.08320E+06    -7.35065E+06    -18.9827E-03     35.8623E-03    -16.8795E-03     19.0602E-03    -18.9799E-03     35.5167E-03    -16.7125E-03     18.9523E-03
            2372     8.85373E-03     4.94520E-03    -15.4761E+06    -72.7471E+06     3.66149E+06    -7.78513E+06    -17.8139E-03     34.5087E-03    -16.6948E-03     17.7900E-03    -17.7933E-03     34.1641E-03    -16.5485E-03     17.6806E-03
            2373     7.96740E-03     4.93817E-03    -13.6136E+06    -72.5292E+06     1.47027E+06    -7.77845E+06    -17.3288E-03     33.9007E-03    -16.5719E-03     16.2556E-03    -17.2952E-03     33.5570E-03    -16.4397E-03     16.1488E-03
            2374     7.08439E-03     4.93523E-03    -11.9178E+06    -72.7263E+06    -904.471E+03    -7.45999E+06    -16.9820E-03     33.4569E-03    -16.4749E-03     14.4673E-03    -16.9357E-03     33.1126E-03    -16.3567E-03     14.3665E-03
            2375     6.19742E-03     4.93028E-03    -11.0278E+06    -73.6137E+06    -3.57663E+06    -6.88357E+06    -16.6987E-03     33.0999E-03    -16.4013E-03     12.7423E-03    -16.6425E-03     32.7535E-03    -16.2964E-03     12.6502E-03
            2376     5.31373E-03     4.92731E-03    -10.6008E+06    -74.5961E+06    -6.00411E+06    -6.15280E+06    -16.5587E-03     32.9043E-03    -16.3456E-03     10.8038E-03    -16.4952E-03     32.5556E-03    -16.2521E-03     10.7221E-03
            2377     4.42703E-03     4.92406E-03    -10.4622E+06    -75.5425E+06    -8.08820E+06    -5.38808E+06    -16.4191E-03     32.7227E-03    -16.3036E-03     8.96219E-03    -16.3505E-03     32.3720E-03    -16.2193E-03     8.89094E-03
            2378     3.54251E-03     4.92149E-03    -10.6072E+06    -76.3001E+06    -9.40203E+06    -4.34977E+06    -16.3634E-03     32.6369E-03    -16.2736E-03     7.07371E-03    -16.2923E-03     32.2845E-03    -16.1946E-03     7.01633E-03
            2379     2.65629E-03     4.91975E-03    -10.7344E+06    -76.5874E+06    -9.89807E+06    -3.18475E+06    -16.3052E-03     32.5549E-03    -16.2498E-03     5.29230E-03    -16.2336E-03     32.2019E-03    -16.1726E-03     5.25034E-03
            2380     1.77145E-03     4.91793E-03    -10.8600E+06    -76.9531E+06    -10.4374E+06    -2.12962E+06    -16.2471E-03     32.4811E-03    -16.2340E-03     3.54599E-03    -16.1748E-03     32.1272E-03    -16.1589E-03     3.51797E-03
            2381     885.229E-06     4.91760E-03    -11.1221E+06    -77.4183E+06    -11.0442E+06    -1.12987E+06    -16.2258E-03     32.4562E-03    -16.2304E-03     1.93693E-03    -16.1531E-03     32.1013E-03    -16.1572E-03     1.92207E-03
            2382     16.6916E-03     4.18635E-03    -6.10626E+06     131.493E+06     85.8393E+06     8.02249E+06    -82.0236E-03     107.043E-03    -25.0198E-03     187.640E-03    -86.3854E-03     111.607E-03    -24.7724E-03     186.560E-03
            2383     15.8402E-03     4.07766E-03    -13.4491E+06     78.6805E+06     49.2696E+06     17.1700E+06    -58.7888E-03     81.4700E-03    -22.6812E-03     87.2081E-03    -59.7410E-03     82.5137E-03    -22.5295E-03     86.6644E-03
            2384     14.9881E-03     4.03142E-03    -20.1448E+06     40.7905E+06     26.2851E+06     19.0228E+06    -42.2712E-03     63.3381E-03    -21.0669E-03     41.7309E-03    -42.5732E-03     63.6390E-03    -20.9654E-03     41.7481E-03
            2385     14.1204E-03     4.00814E-03    -19.1663E+06     28.8213E+06     14.9414E+06     13.3930E+06    -32.2661E-03     52.2952E-03    -20.0292E-03     33.4220E-03    -32.4677E-03     52.4887E-03    -19.9684E-03     33.4887E-03
            2386     13.2438E-03     3.99688E-03    -19.5186E+06     16.1145E+06     5.10331E+06     6.82166E+06    -27.8901E-03     47.2206E-03    -19.3305E-03     30.8464E-03    -28.0444E-03     47.3482E-03    -19.3001E-03     30.8681E-03
            2387     12.3674E-03     3.98149E-03    -20.0220E+06    -10.0719E+06     7.30563E+06    -1.20070E+06    -24.5278E-03     43.4150E-03    -18.8871E-03     26.1961E-03    -24.6365E-03     43.3960E-03    -18.8070E-03     26.1415E-03
            2388     11.4875E-03     3.97981E-03    -19.3134E+06    -39.3611E+06     9.75333E+06    -7.34255E+06    -21.9218E-03     40.5210E-03    -18.5992E-03     24.7786E-03    -21.9824E-03     40.3451E-03    -18.4654E-03     24.6604E-03
            2389     10.6055E-03     3.97052E-03    -19.0176E+06    -62.4880E+06     7.94863E+06    -10.4092E+06    -20.7498E-03     39.1322E-03    -18.3824E-03     23.1344E-03    -20.7703E-03     38.8401E-03    -18.2245E-03     22.9839E-03
            2390     9.72401E-03     3.96658E-03    -16.5399E+06    -72.8714E+06     4.68824E+06    -12.1603E+06    -19.7722E-03     37.9653E-03    -18.1931E-03     20.6191E-03    -19.7587E-03     37.6207E-03    -18.0401E-03     20.4512E-03
            2391     8.83974E-03     3.96205E-03    -14.3275E+06    -74.2178E+06     36.8035E+03    -12.2475E+06    -19.2896E-03     37.3115E-03    -18.0220E-03     18.8191E-03    -19.2554E-03     36.9627E-03    -17.8934E-03     18.6534E-03
            2392     7.95843E-03     3.95694E-03    -12.1365E+06    -74.5076E+06    -2.60355E+06    -11.3861E+06    -18.8137E-03     36.6964E-03    -17.8827E-03     16.5450E-03    -18.7637E-03     36.3461E-03    -17.7701E-03     16.3926E-03
            2393     7.07279E-03     3.95337E-03    -10.6541E+06    -75.2432E+06    -4.80404E+06    -9.82025E+06    -18.5130E-03     36.2795E-03    -17.7665E-03     14.2930E-03    -18.4509E-03     35.9262E-03    -17.6660E-03     14.1625E-03
            2394     6.19107E-03     3.94928E-03    -10.0708E+06    -76.0233E+06    -6.40585E+06    -8.13540E+06    -18.2854E-03     35.9493E-03    -17.6639E-03     12.2394E-03    -18.2167E-03     35.5934E-03    -17.5711E-03     12.1317E-03
            2395     5.30541E-03     3.94632E-03    -10.0731E+06    -76.9336E+06    -8.10095E+06    -6.75025E+06    -18.0219E-03     35.5945E-03    -17.5726E-03     10.1929E-03    -17.9493E-03     35.2363E-03    -17.4869E-03     10.1038E-03
            2396     4.42279E-03     3.94315E-03    -10.5705E+06    -77.9802E+06    -9.64363E+06    -5.37418E+06    -17.8443E-03     35.3377E-03    -17.4934E-03     8.30890E-03    -17.7703E-03     34.9772E-03    -17.4132E-03     8.23814E-03
            2397     3.53751E-03     3.94116E-03    -10.9688E+06    -78.6899E+06    -10.8309E+06    -4.21088E+06    -17.6466E-03     35.0728E-03    -17.4262E-03     6.48307E-03    -17.5717E-03     34.7109E-03    -17.3503E-03     6.42772E-03
            2398     2.65397E-03     3.93885E-03    -11.2367E+06    -79.0168E+06    -11.2093E+06    -3.14663E+06    -17.5036E-03     34.8803E-03    -17.3767E-03     4.78651E-03    -17.4291E-03     34.5178E-03    -17.3019E-03     4.74520E-03
            2399     1.76878E-03     3.93805E-03    -11.4957E+06    -79.2693E+06    -11.3903E+06    -2.04347E+06    -17.3977E-03     34.7391E-03    -17.3414E-03     3.18401E-03    -17.3238E-03     34.3759E-03    -17.2667E-03     3.15720E-03
            2400     884.874E-06     3.93664E-03    -11.8199E+06    -79.5806E+06    -11.7142E+06    -957.012E+03    -17.3132E-03     34.6527E-03    -17.3395E-03     1.75196E-03    -17.2399E-03     34.2890E-03    -17.2655E-03     1.73940E-03
            2401     16.6665E-03     3.13434E-03    -4.44299E+06     119.484E+06     78.2801E+06     13.4025E+06    -80.6884E-03     106.157E-03    -25.4687E-03     163.384E-03    -83.8881E-03     109.543E-03    -25.2441E-03     162.288E-03
            2402     15.8369E-03     3.04620E-03    -14.3569E+06     73.1800E+06     55.1375E+06     17.2119E+06    -55.1974E-03     78.4996E-03    -23.3022E-03     65.6129E-03    -55.8448E-03     79.1991E-03    -23.1118E-03     65.2513E-03
            2403     14.9770E-03     3.02427E-03    -11.9752E+06     49.0520E+06     44.6997E+06     15.9215E+06    -36.0288E-03     58.0412E-03    -22.0124E-03     37.5669E-03    -36.2842E-03     58.3008E-03    -21.8426E-03     37.6243E-03
            2404     14.0988E-03     3.01848E-03    -12.5704E+06     36.1076E+06     29.1784E+06     11.6045E+06    -29.6307E-03     50.9055E-03    -21.2748E-03     40.0632E-03    -29.8210E-03     51.0947E-03    -21.1630E-03     40.1374E-03
            2405     13.2253E-03     2.99513E-03    -12.9229E+06     24.7800E+06     12.3197E+06     4.37311E+06    -27.5025E-03     48.2148E-03    -20.7124E-03     32.4647E-03    -27.6393E-03     48.3584E-03    -20.6680E-03     32.4686E-03
            2406     12.3491E-03     2.99693E-03    -11.5529E+06    -2.42196E+06     4.87604E+06    -3.70696E+06    -24.4811E-03     44.8095E-03    -20.3284E-03     27.6237E-03    -24.5508E-03     44.8155E-03    -20.2838E-03     27.5466E-03
            2407     11.4673E-03     2.98847E-03    -12.1827E+06    -36.7088E+06     2.92031E+06    -9.23247E+06    -23.5704E-03     43.6470E-03    -20.0766E-03     25.9376E-03    -23.5876E-03     43.4818E-03    -19.9911E-03     25.7989E-03
            2408     10.5901E-03     2.98414E-03    -11.3954E+06    -59.7144E+06     15.8672E+03    -13.1101E+06    -22.5546E-03     42.3924E-03    -19.8378E-03     22.7249E-03    -22.5281E-03     42.1132E-03    -19.7346E-03     22.5428E-03
            2409     9.70747E-03     2.98120E-03    -11.1501E+06    -73.9366E+06    -4.52753E+06    -15.5747E+06    -21.9227E-03     41.5330E-03    -19.6103E-03     20.1837E-03    -21.8666E-03     41.1876E-03    -19.5096E-03     19.9739E-03
            2410     8.82856E-03     2.97494E-03    -9.97233E+06    -76.9451E+06    -7.71331E+06    -14.9642E+06    -21.4754E-03     40.8590E-03    -19.3837E-03     17.3880E-03    -21.4036E-03     40.5009E-03    -19.2962E-03     17.1886E-03
            2411     7.94555E-03     2.97331E-03    -9.43141E+06    -77.9702E+06    -9.27822E+06    -12.9329E+06    -20.8784E-03     40.0546E-03    -19.1762E-03     15.0189E-03    -20.7998E-03     39.6924E-03    -19.0958E-03     14.8477E-03
            2412     7.06564E-03     2.96781E-03    -9.64021E+06    -79.0692E+06    -10.3760E+06    -10.6664E+06    -20.4049E-03     39.3947E-03    -18.9898E-03     12.7109E-03    -20.3239E-03     39.0287E-03    -18.9130E-03     12.5702E-03
            2413     6.18186E-03     2.96597E-03    -9.57050E+06    -79.4062E+06    -10.5163E+06    -8.36611E+06    -19.9453E-03     38.7671E-03    -18.8217E-03     10.4942E-03    -19.8631E-03     38.3993E-03    -18.7453E-03     10.3842E-03
            2414     5.30101E-03     2.96208E-03    -10.0651E+06    -79.9267E+06    -10.6957E+06    -6.26671E+06    -19.5306E-03     38.2022E-03    -18.6716E-03     8.69137E-03    -19.4497E-03     37.8328E-03    -18.5946E-03     8.60897E-03
            2415     4.41686E-03     2.96042E-03    -10.7166E+06    -80.4454E+06    -11.3756E+06    -4.77021E+06    -19.1514E-03     37.6896E-03    -18.5382E-03     6.92613E-03    -19.0720E-03     37.3194E-03    -18.4629E-03     6.86350E-03
            2416     3.53482E-03     2.95770E-03    -11.3196E+06    -80.9534E+06    -12.0338E+06    -3.66589E+06    -18.8287E-03     37.2550E-03    -18.4263E-03     5.40520E-03    -18.7505E-03     36.8841E-03    -18.3527E-03     5.35713E-03
            2417     2.65065E-03     2.95679E-03    -11.7421E+06    -81.2281E+06    -12.3197E+06    -2.67581E+06    -18.5618E-03     36.9020E-03    -18.3402E-03     3.94581E-03    -18.4850E-03     36.5307E-03    -18.2669E-03     3.91077E-03
            2418     1.76774E-03     2.95500E-03    -12.1745E+06    -81.4125E+06    -12.3485E+06    -1.69795E+06    -18.3909E-03     36.6674E-03    -18.2765E-03     2.63185E-03    -18.3159E-03     36.2959E-03    -18.2025E-03     2.60962E-03
            2419     883.550E-06     2.95489E-03    -12.3120E+06    -81.4901E+06    -12.4064E+06    -909.547E+03    -18.2551E-03     36.4975E-03    -18.2424E-03     1.38160E-03    -18.1804E-03     36.1259E-03    -18.1684E-03     1.36968E-03
            2420     16.6835E-03     2.09324E-03    -4.66814E+06     111.053E+06     78.5788E+06     12.9304E+06    -84.3322E-03     110.638E-03    -26.3063E-03     135.550E-03    -86.3930E-03     112.861E-03    -26.0676E-03     133.951E-03
            2421     15.8236E-03     2.01734E-03    -2.82083E+06     75.5207E+06     65.4036E+06     14.8118E+06    -43.5515E-03     67.9253E-03    -24.3738E-03     52.5527E-03    -43.9629E-03     68.4090E-03    -24.1522E-03     52.4180E-03
            2422     14.9469E-03     2.04221E-03    -4.48047E+06     53.6902E+06     52.2389E+06     12.5839E+06    -32.4255E-03     55.9677E-03    -23.5422E-03     40.7896E-03    -32.6354E-03     56.2013E-03    -23.3524E-03     40.8642E-03
            2423     14.0746E-03     2.00457E-03    -3.66594E+06     43.3957E+06     36.1423E+06     6.00307E+06    -31.7621E-03     54.6876E-03    -22.9256E-03     41.2653E-03    -31.9170E-03     54.8790E-03    -22.8025E-03     41.2830E-03
            2424     13.2049E-03     2.00738E-03    -322.423E+03     31.3636E+06     12.5706E+06     108.108E+03    -28.6499E-03     50.9753E-03    -22.3254E-03     29.2910E-03    -28.7246E-03     51.1239E-03    -22.3076E-03     29.2570E-03
            2425     12.3232E-03     2.00065E-03     80.9221E+03     3.05339E+06    -4.01444E+06    -3.29292E+06    -27.2077E-03     49.0844E-03    -21.8767E-03     25.6186E-03    -27.2110E-03     49.1099E-03    -21.9014E-03     25.5547E-03
            2426     11.4521E-03     1.99580E-03    -926.647E+03    -31.9618E+06    -10.0545E+06    -8.38281E+06    -26.2593E-03     47.7863E-03    -21.5270E-03     21.9005E-03    -26.2060E-03     47.6451E-03    -21.5296E-03     21.7778E-03
            2427     10.5710E-03     1.99494E-03    -2.16311E+06    -57.4751E+06    -16.4625E+06    -12.7205E+06    -25.3201E-03     46.5038E-03    -21.1837E-03     18.8647E-03    -25.2254E-03     46.2448E-03    -21.1795E-03     18.6913E-03
            2428     9.69588E-03     1.98843E-03    -3.52147E+06    -74.6834E+06    -20.2533E+06    -14.6404E+06    -24.6339E-03     45.4891E-03    -20.8553E-03     16.1915E-03    -24.5149E-03     45.1510E-03    -20.8431E-03     15.9961E-03
            2429     8.81567E-03     1.98807E-03    -4.87758E+06    -81.1391E+06    -20.0976E+06    -13.9176E+06    -23.7376E-03     44.2830E-03    -20.5454E-03     13.5549E-03    -23.6158E-03     43.9140E-03    -20.5212E-03     13.3709E-03
            2430     7.93785E-03     1.98283E-03    -6.30578E+06    -82.0918E+06    -18.1283E+06    -11.3465E+06    -22.9791E-03     43.2361E-03    -20.2570E-03     11.4585E-03    -22.8657E-03     42.8613E-03    -20.2195E-03     11.3091E-03
            2431     7.05669E-03     1.98186E-03    -7.70099E+06    -82.8356E+06    -16.6548E+06    -9.14137E+06    -22.1631E-03     42.1515E-03    -19.9884E-03     9.51967E-03    -22.0576E-03     41.7728E-03    -19.9404E-03     9.39961E-03
            2432     6.17742E-03     1.97806E-03    -9.15655E+06    -83.2377E+06    -15.4314E+06    -6.97393E+06    -21.4409E-03     41.1881E-03    -19.7472E-03     7.84259E-03    -21.3438E-03     40.8076E-03    -19.6903E-03     7.75116E-03
            2433     5.29492E-03     1.97697E-03    -10.0822E+06    -82.8568E+06    -13.7317E+06    -5.05143E+06    -20.8005E-03     40.3357E-03    -19.5352E-03     6.32294E-03    -20.7109E-03     39.9560E-03    -19.4691E-03     6.25676E-03
            2434     4.41435E-03     1.97431E-03    -10.7469E+06    -82.6888E+06    -13.1801E+06    -3.68042E+06    -20.2174E-03     39.5678E-03    -19.3504E-03     5.05800E-03    -20.1322E-03     39.1891E-03    -19.2808E-03     5.00980E-03
            2435     3.53120E-03     1.97352E-03    -11.5110E+06    -82.8243E+06    -13.0349E+06    -2.64979E+06    -19.7626E-03     38.9609E-03    -19.1983E-03     3.86910E-03    -19.6812E-03     38.5824E-03    -19.1267E-03     3.83442E-03
            2436     2.64934E-03     1.97175E-03    -12.2892E+06    -83.0069E+06    -13.0348E+06    -1.89361E+06    -19.4106E-03     38.4862E-03    -19.0755E-03     2.83351E-03    -19.3328E-03     38.1078E-03    -19.0025E-03     2.80873E-03
            2437     1.76596E-03     1.97145E-03    -12.6730E+06    -83.0509E+06    -13.0241E+06    -1.26318E+06    -19.1332E-03     38.1180E-03    -18.9848E-03     1.86018E-03    -19.0573E-03     37.7400E-03    -18.9111E-03     1.84367E-03
            2438     883.304E-06     1.97039E-03    -12.7844E+06    -83.0511E+06    -13.0908E+06    -726.518E+03    -18.9714E-03     37.8985E-03    -18.9271E-03     990.619E-06    -18.8958E-03     37.5208E-03    -18.8536E-03     981.118E-06
            2439     16.6460E-03     1.02384E-03     1.42269E+06     101.210E+06     82.6564E+06     7.71833E+06    -81.1690E-03     109.500E-03    -28.3315E-03     103.176E-03    -82.2500E-03     110.722E-03    -28.0670E-03     101.917E-03
            2440     15.7891E-03     1.04530E-03     5.77360E+06     76.9265E+06     73.4994E+06     14.2516E+06    -46.7991E-03     73.2125E-03    -26.4134E-03     54.5005E-03    -47.0585E-03     73.5505E-03    -26.1659E-03     54.5566E-03
            2441     14.9146E-03     1.01514E-03     5.21692E+06     62.3374E+06     57.7398E+06     7.29104E+06    -40.3980E-03     65.7249E-03    -25.3269E-03     39.7532E-03    -40.5593E-03     65.9572E-03    -25.1361E-03     39.8057E-03
            2442     14.0560E-03     1.01029E-03     8.32911E+06     49.4245E+06     32.6539E+06    -287.615E+03    -35.6853E-03     60.0982E-03    -24.4129E-03     27.5021E-03    -35.7705E-03     60.2942E-03    -24.3334E-03     27.4652E-03
            2443     13.1756E-03     1.00427E-03     8.93581E+06     32.7102E+06     4.72624E+06    -726.277E+03    -31.6857E-03     55.3614E-03    -23.6757E-03     18.9990E-03    -31.6983E-03     55.5078E-03    -23.7125E-03     18.9731E-03
            2444     12.3128E-03     1.00128E-03     8.66268E+06     6.17365E+06    -13.1211E+06    -1.86989E+06    -30.4785E-03     53.5788E-03    -23.1002E-03     15.5259E-03    -30.4271E-03     53.6177E-03    -23.1873E-03     15.4891E-03
            2445     11.4328E-03     1.00137E-03     8.66662E+06    -27.5166E+06    -23.4008E+06    -4.76280E+06    -28.9838E-03     51.5854E-03    -22.6016E-03     12.8966E-03    -28.8676E-03     51.4700E-03    -22.6912E-03     12.8280E-03
            2446     10.5625E-03     996.792E-06     5.65164E+06    -55.9455E+06    -31.9660E+06    -7.81961E+06    -27.9546E-03     50.0892E-03    -22.1346E-03     10.9006E-03    -27.7995E-03     49.8481E-03    -22.2215E-03     10.7945E-03
            2447     9.68459E-03     997.114E-06     3.13659E+06    -75.2362E+06    -34.4733E+06    -8.87513E+06    -26.6977E-03     48.4036E-03    -21.7059E-03     8.94715E-03    -26.5232E-03     48.0731E-03    -21.7737E-03     8.82929E-03
            2448     8.80922E-03     993.490E-06    -667.514E+03    -84.5494E+06    -32.0677E+06    -8.39338E+06    -25.5678E-03     46.8872E-03    -21.3194E-03     7.51100E-03    -25.4023E-03     46.5121E-03    -21.3561E-03     7.40042E-03
            2449     7.93068E-03     993.262E-06    -3.67505E+06    -85.5807E+06    -26.8344E+06    -6.97177E+06    -24.4504E-03     45.4147E-03    -20.9643E-03     6.17961E-03    -24.3059E-03     45.0312E-03    -20.9690E-03     6.08808E-03
            2450     7.05287E-03     990.778E-06    -6.14092E+06    -85.9415E+06    -22.6064E+06    -5.13056E+06    -23.3977E-03     44.0366E-03    -20.6389E-03     5.13863E-03    -23.2711E-03     43.6486E-03    -20.6184E-03     5.07140E-03
            2451     6.17230E-03     990.197E-06    -8.26862E+06    -85.7771E+06    -19.2523E+06    -3.90624E+06    -22.4751E-03     42.8212E-03    -20.3461E-03     4.18461E-03    -22.3642E-03     42.4322E-03    -20.3060E-03     4.13350E-03
            2452     5.29307E-03     988.452E-06    -9.78196E+06    -85.0510E+06    -16.4377E+06    -3.01454E+06    -21.6391E-03     41.7281E-03    -20.0890E-03     3.37317E-03    -21.5409E-03     41.3409E-03    -20.0337E-03     3.33378E-03
            2453     4.41099E-03     988.018E-06    -10.9354E+06    -84.4604E+06    -14.6352E+06    -2.04286E+06    -20.9481E-03     40.8159E-03    -19.8679E-03     2.65075E-03    -20.8591E-03     40.4307E-03    -19.8027E-03     2.62407E-03
            2454     3.53020E-03     986.773E-06    -11.8312E+06    -84.1121E+06    -13.6645E+06    -1.35262E+06    -20.3720E-03     40.0555E-03    -19.6835E-03     2.03299E-03    -20.2894E-03     39.6719E-03    -19.6127E-03     2.01530E-03
            2455     2.64755E-03     986.484E-06    -12.5372E+06    -83.9974E+06    -13.3327E+06    -961.389E+03    -19.9302E-03     39.4670E-03    -19.5368E-03     1.46712E-03    -19.8518E-03     39.0845E-03    -19.4635E-03     1.45456E-03
            2456     1.76562E-03     985.751E-06    -13.0677E+06    -84.0648E+06    -13.3920E+06    -701.431E+03    -19.6056E-03     39.0347E-03    -19.4291E-03     970.539E-06    -19.5296E-03     38.6527E-03    -19.3552E-03     961.380E-06
            2457     882.633E-06     985.804E-06    -13.4847E+06    -84.1468E+06    -13.4663E+06    -413.277E+03    -19.4295E-03     38.7718E-03    -19.3423E-03     515.570E-06    -19.3553E-03     38.3902E-03    -19.2681E-03     510.195E-06


