********************************************************************************
Field Output Report, written Sat Jul 27 20:02:53 2024

Source 1
---------

   ODB: D:/Project_1740/abaqus/results//zeides_2a_16_red_150_cal_0_vel_30_fric_050.odb
   Step: Step-1
   Frame: Increment   3970038: Step Time =   0.5233

Loc 1 : Nodal values from source 1

Output sorted by column "Nodal Label".

Field Output reported at nodes for region: DIE_2A_16_D0_36-1.Region_1
   Computation algorithm: EXTRAPOLATE_COMPUTE_AVERAGE
   Averaged at nodes
   Averaging regions: ODB_REGIONS

      Node Label     COORD.COOR1     COORD.COOR2
                          @Loc 1          @Loc 1
-------------------------------------------------
               1     20.1975E-03     252.783E-03


Field Output reported at nodes for region: DIE_2A_16_D0_36-1.Region_2
   Computation algorithm: EXTRAPOLATE_COMPUTE_AVERAGE
   Averaged at nodes
   Averaging regions: ODB_REGIONS

      Node Label     COORD.COOR1     COORD.COOR2
                          @Loc 1          @Loc 1
-------------------------------------------------
               1     20.1975E-03     252.783E-03


Field Output reported at nodes for part: WIRE-1
   Computation algorithm: EXTRAPOLATE_COMPUTE_AVERAGE
   Averaged at nodes
   Averaging regions: ODB_REGIONS

      Node Label     COORD.COOR1     COORD.COOR2           S.S11           S.S22           S.S33           S.S12         PE.PE11         PE.PE22         PE.PE33         PE.PE12         LE.LE11         LE.LE22         LE.LE33         LE.LE12
                          @Loc 1          @Loc 1          @Loc 1          @Loc 1          @Loc 1          @Loc 1          @Loc 1          @Loc 1          @Loc 1          @Loc 1          @Loc 1          @Loc 1          @Loc 1          @Loc 1
-------------------------------------------------------------------------------------------------------------------------------------------------------------------------------------------------------------------------------------------------
               1    -45.3298E-09     56.3072E-03    -19.6798E+06    -69.4079E+06    -19.5561E+06    -27.5387E+03    -14.8080E-03     29.6527E-03    -14.8447E-03     1.92686E-03    -14.7774E-03     29.3626E-03    -14.8133E-03     1.92624E-03
               2     17.7371E-03     57.0841E-03    -1.73432E+06     156.262E+06     68.3167E+06     46.2417E+03    -14.3491E-03     29.1813E-03    -14.8323E-03     64.8329E-03    -15.2060E-03     30.3887E-03    -14.7147E-03     65.6222E-03
               3     17.5769E-03     113.851E-03     6.56170E+06    -15.3707E+06     13.8618E+06     7.92268E+06     10.7392E-03     9.58603E-03    -20.3252E-03     1.40008E-03     10.7616E-03     9.46698E-03    -20.2431E-03     1.50229E-03
               4    -1.04354E-06     112.855E-03     10.7915E+06     2.38775E+06     10.7527E+06    -643.924E+03    -16.9978E-03     34.4956E-03    -17.4978E-03    -247.627E-06    -16.9632E-03     34.4761E-03    -17.4632E-03    -255.985E-06
               5     95.6922E-09    -360.822E-18    -11.8106E+06    -47.7807E+06    -11.8110E+06     153.467E+03    -13.0802E-03     26.1368E-03    -13.0566E-03     60.2234E-06    -13.0527E-03     25.9322E-03    -13.0293E-03     62.2351E-06
               6     17.6799E-03    -360.822E-18     11.1924E+06     106.720E+06     70.1975E+06     4.81216E+06    -25.9141E-03     43.0763E-03    -17.1622E-03     20.7045E-03    -26.1446E-03     43.5213E-03    -16.9822E-03     20.6934E-03
               7     886.793E-06     56.3089E-03    -19.2908E+06    -68.8536E+06    -18.6333E+06    -62.5890E+03    -14.8167E-03     29.6546E-03    -14.8378E-03     3.30252E-03    -14.7863E-03     29.3653E-03    -14.8032E-03     3.30125E-03
               8     1.77356E-03     56.3133E-03    -18.3167E+06    -67.1906E+06    -15.9537E+06    -72.1954E+03    -14.8249E-03     29.6607E-03    -14.8358E-03     6.16611E-03    -14.7960E-03     29.3746E-03    -14.7916E-03     6.16431E-03
               9     2.66038E-03     56.3203E-03    -16.9278E+06    -65.1378E+06    -11.9177E+06    -67.2593E+03    -14.8263E-03     29.6739E-03    -14.8477E-03     9.19779E-03    -14.7994E-03     29.3902E-03    -14.7882E-03     9.19560E-03
              10     3.54715E-03     56.3304E-03    -15.1375E+06    -63.0894E+06    -7.36206E+06    -70.1234E+03    -14.8325E-03     29.6933E-03    -14.8608E-03     12.3399E-03    -14.8064E-03     29.4108E-03    -14.7842E-03     12.3371E-03
              11     4.43401E-03     56.3433E-03    -13.1148E+06    -61.1198E+06    -2.93155E+06    -121.961E+03    -14.8489E-03     29.7217E-03    -14.8728E-03     15.6072E-03    -14.8221E-03     29.4398E-03    -14.7798E-03     15.6032E-03
              12     5.32076E-03     56.3594E-03    -11.0631E+06    -59.3737E+06     827.645E+03    -29.9541E+03    -14.8750E-03     29.7571E-03    -14.8820E-03     19.0320E-03    -14.8463E-03     29.4758E-03    -14.7758E-03     19.0286E-03
              13     6.20766E-03     56.3786E-03    -9.08521E+06    -57.8454E+06     3.73038E+06     77.5438E+03    -14.9153E-03     29.8032E-03    -14.8879E-03     22.6424E-03    -14.8834E-03     29.5230E-03    -14.7722E-03     22.6396E-03
              14     7.09439E-03     56.4014E-03    -7.32209E+06    -56.2351E+06     5.57324E+06    -77.9689E+03    -14.9647E-03     29.8541E-03    -14.8894E-03     26.4722E-03    -14.9296E-03     29.5772E-03    -14.7694E-03     26.4663E-03
              15     7.98133E-03     56.4278E-03    -5.82734E+06    -54.6007E+06     6.81644E+06    -64.3013E+03    -15.0189E-03     29.9072E-03    -14.8883E-03     30.5060E-03    -14.9814E-03     29.6354E-03    -14.7666E-03     30.4989E-03
              16     8.86803E-03     56.4581E-03    -4.57968E+06    -51.7412E+06     7.14003E+06     31.1510E+03    -15.0858E-03     29.9669E-03    -14.8812E-03     34.7216E-03    -15.0480E-03     29.7086E-03    -14.7638E-03     34.7138E-03
              17     9.75501E-03     56.4922E-03    -3.10115E+06    -49.1521E+06     7.76042E+06     261.580E+03    -15.1580E-03     30.0334E-03    -14.8754E-03     39.0670E-03    -15.1197E-03     29.7871E-03    -14.7608E-03     39.0597E-03
              18     10.6417E-03     56.5306E-03    -1.92102E+06    -49.1302E+06     6.09540E+06     395.713E+03    -15.2791E-03     30.1424E-03    -14.8633E-03     43.4517E-03    -15.2360E-03     29.9004E-03    -14.7588E-03     43.4425E-03
              19     11.5287E-03     56.5729E-03    -1.61519E+06    -41.5868E+06     4.58362E+06    -246.186E+03    -15.3661E-03     30.2090E-03    -14.8429E-03     48.4067E-03    -15.3361E-03     30.0124E-03    -14.7574E-03     48.3846E-03
              20     12.4153E-03     56.6205E-03    -2.01218E+06    -32.6573E+06     4.26203E+06    -825.215E+03    -15.5298E-03     30.3566E-03    -14.8268E-03     55.6321E-03    -15.5255E-03     30.2169E-03    -14.7552E-03     55.5964E-03
              21     13.3024E-03     56.6764E-03    -2.48458E+06    -28.8949E+06    -4.53169E+06    -704.943E+03    -15.7317E-03     30.5091E-03    -14.7774E-03     61.5011E-03    -15.7415E-03     30.4207E-03    -14.7546E-03     61.4598E-03
              22     14.1889E-03     56.7344E-03    -2.48765E+06    -8.50738E+06    -5.39411E+06    -290.518E+03    -15.7107E-03     30.4511E-03    -14.7405E-03     66.4072E-03    -15.7778E-03     30.4948E-03    -14.7515E-03     66.3691E-03
              23     15.0765E-03     56.7995E-03    -2.28203E+06     26.4212E+06    -7.95918E+06    -38.2785E+03    -16.2853E-03     30.9553E-03    -14.6700E-03     84.1196E-03    -16.5119E-03     31.2906E-03    -14.7448E-03     84.1020E-03
              24     15.9627E-03     56.8911E-03    -2.66420E+06     73.6856E+06    -20.4378E+06    -28.8745E+03    -17.6454E-03     32.1792E-03    -14.5338E-03     119.383E-03    -18.4576E-03     33.3028E-03    -14.7390E-03     119.605E-03
              25     16.8502E-03     57.0221E-03    -2.48226E+06     129.958E+06     22.2135E+06     7.76145E+03    -16.3592E-03     31.0110E-03    -14.6518E-03     102.635E-03    -17.4331E-03     32.4730E-03    -14.7256E-03     103.253E-03
              26     17.7376E-03     58.0596E-03    -1.20122E+06     156.936E+06     69.3297E+06     51.6468E+03    -14.1103E-03     28.9523E-03    -14.8420E-03     65.1564E-03    -14.9691E-03     30.1629E-03    -14.7211E-03     65.9513E-03
              27     17.7370E-03     59.0362E-03    -1.39300E+06     156.680E+06     68.8477E+06    -229.802E+03    -14.2436E-03     29.0730E-03    -14.8294E-03     65.3264E-03    -15.1023E-03     30.2833E-03    -14.7103E-03     66.1124E-03
              28     17.7382E-03     60.0122E-03    -3.66591E+06     154.323E+06     66.9955E+06    -1.69413E+06    -14.9160E-03     29.7228E-03    -14.8069E-03     64.4417E-03    -15.7775E-03     30.9249E-03    -14.6903E-03     65.1986E-03
              29     17.7365E-03     60.9887E-03    -2.02126E+06     155.902E+06     68.7952E+06     213.892E+03    -15.0012E-03     29.8197E-03    -14.8185E-03     64.6678E-03    -15.8621E-03     31.0274E-03    -14.6977E-03     65.4514E-03
              30     17.7381E-03     61.9700E-03     171.262E+03     158.067E+06     69.6178E+06     1.11580E+06    -13.9673E-03     28.8073E-03    -14.8400E-03     68.4550E-03    -14.8442E-03     30.0441E-03    -14.7214E-03     69.2764E-03
              31     17.7371E-03     62.9433E-03    -1.49704E+06     156.549E+06     68.1358E+06    -144.889E+03    -14.0239E-03     28.8574E-03    -14.8335E-03     68.2333E-03    -14.9036E-03     30.0900E-03    -14.7177E-03     69.0359E-03
              32     17.7377E-03     63.9179E-03    -2.16488E+06     156.477E+06     68.4275E+06     550.590E+03    -14.6757E-03     29.4997E-03    -14.8240E-03     65.4366E-03    -15.5413E-03     30.7147E-03    -14.7056E-03     66.2292E-03
              33     17.7370E-03     64.8966E-03    -1.91253E+06     157.134E+06     67.9642E+06     215.729E+03    -14.5204E-03     29.3354E-03    -14.8150E-03     66.2535E-03    -15.3908E-03     30.5597E-03    -14.7002E-03     67.0469E-03
              34     17.7384E-03     65.8725E-03    -3.84695E+06     155.278E+06     66.7807E+06    -1.63542E+06    -15.0040E-03     29.8070E-03    -14.8030E-03     66.8448E-03    -15.8874E-03     31.0343E-03    -14.6887E-03     67.6180E-03
              35     17.7363E-03     66.8501E-03    -2.18359E+06     156.695E+06     68.5848E+06     506.589E+03    -14.6533E-03     29.4817E-03    -14.8284E-03     65.6133E-03    -15.5231E-03     30.7012E-03    -14.7095E-03     66.4131E-03
              36     17.7383E-03     67.8266E-03     1.67093E+06     160.099E+06     69.9743E+06     1.36186E+06    -13.0300E-03     27.8841E-03    -14.8541E-03     66.6113E-03    -13.8869E-03     29.1125E-03    -14.7388E-03     67.4393E-03
              37     17.7373E-03     68.7994E-03    -200.323E+03     158.201E+06     68.9772E+06    -994.954E+03    -13.9534E-03     28.7765E-03    -14.8231E-03     66.1170E-03    -14.8138E-03     29.9978E-03    -14.7073E-03     66.8976E-03
              38     17.7378E-03     69.7766E-03    -2.73194E+06     156.494E+06     67.6753E+06    -74.3887E+03    -15.7692E-03     30.5571E-03    -14.7879E-03     65.5950E-03    -16.6386E-03     31.7762E-03    -14.6725E-03     66.3574E-03
              39     17.7370E-03     70.7585E-03    -3.10088E+06     156.977E+06     67.3732E+06     899.351E+03    -15.0429E-03     29.8531E-03    -14.8102E-03     67.5465E-03    -15.9281E-03     31.0892E-03    -14.6964E-03     68.3444E-03
              40     17.7378E-03     71.7326E-03    -2.08903E+06     158.020E+06     67.5047E+06     8.33956E+03    -13.8861E-03     28.7184E-03    -14.8323E-03     66.9937E-03    -14.7641E-03     29.9543E-03    -14.7209E-03     67.8021E-03
              41     17.7373E-03     72.7053E-03    -1.83755E+06     158.313E+06     67.3486E+06    -343.743E+03    -14.5699E-03     29.3821E-03    -14.8122E-03     65.6446E-03    -15.4366E-03     30.6091E-03    -14.7024E-03     66.4321E-03
              42     17.7375E-03     73.6876E-03    -1.55893E+06     158.551E+06     67.6872E+06     710.679E+03    -14.6009E-03     29.4173E-03    -14.8164E-03     66.4761E-03    -15.4716E-03     30.6490E-03    -14.7056E-03     67.2747E-03
              43     17.7373E-03     74.6608E-03    -1.27247E+06     158.894E+06     67.5768E+06     207.950E+03    -13.9138E-03     28.7420E-03    -14.8282E-03     67.2433E-03    -14.7891E-03     29.9808E-03    -14.7188E-03     68.0512E-03
              44     17.7378E-03     75.6369E-03    -2.83232E+06     157.420E+06     65.8430E+06    -737.520E+03    -14.7539E-03     29.5555E-03    -14.8016E-03     66.1944E-03    -15.6279E-03     30.7873E-03    -14.6965E-03     66.9778E-03
              45     17.7370E-03     76.6147E-03    -1.95832E+06     158.826E+06     66.6245E+06     640.098E+03    -14.8380E-03     29.6425E-03    -14.8044E-03     66.5030E-03    -15.7124E-03     30.8805E-03    -14.6988E-03     67.3012E-03
              46     17.7378E-03     77.5932E-03    -461.388E+03     160.797E+06     67.6661E+06     1.14893E+06    -14.0209E-03     28.8470E-03    -14.8261E-03     67.9629E-03    -14.8991E-03     30.0982E-03    -14.7202E-03     68.7808E-03
              47     17.7371E-03     78.5659E-03    -1.61401E+06     160.122E+06     66.3539E+06    -4.11794E+03    -14.2225E-03     29.0398E-03    -14.8173E-03     66.2693E-03    -15.0928E-03     30.2804E-03    -14.7153E-03     67.0650E-03
              48     17.7377E-03     79.5429E-03    -1.73922E+06     160.170E+06     64.9788E+06     66.6951E+03    -14.5267E-03     29.3239E-03    -14.7972E-03     65.1660E-03    -15.3882E-03     30.5594E-03    -14.7021E-03     65.9540E-03
              49     17.7375E-03     80.5202E-03    -2.62010E+06     160.494E+06     65.5471E+06     65.2518E+03    -15.0518E-03     29.8433E-03    -14.7915E-03     66.3293E-03    -15.9275E-03     31.0894E-03    -14.6927E-03     67.1111E-03
              50     17.7370E-03     81.4982E-03    -1.84008E+06     161.415E+06     64.9878E+06     541.698E+03    -14.5341E-03     29.3349E-03    -14.8009E-03     65.1894E-03    -15.3980E-03     30.5769E-03    -14.7073E-03     65.9796E-03
              51     17.7381E-03     82.4717E-03    -748.759E+03     162.807E+06     64.3058E+06     86.5459E+03    -13.8048E-03     28.6074E-03    -14.8026E-03     65.6817E-03    -14.6671E-03     29.8585E-03    -14.7161E-03     66.4877E-03
              52     17.7371E-03     83.4506E-03    -1.68903E+06     162.386E+06     63.8799E+06    -22.0123E+03    -14.4638E-03     29.2510E-03    -14.7872E-03     66.5250E-03    -15.3361E-03     30.5085E-03    -14.7008E-03     67.3199E-03
              53     17.7379E-03     84.4261E-03    -2.15248E+06     162.041E+06     63.0885E+06     126.306E+03    -14.6886E-03     29.4688E-03    -14.7802E-03     66.4373E-03    -15.5611E-03     30.7259E-03    -14.6966E-03     67.2254E-03
              54     17.7372E-03     85.4029E-03    -1.52525E+06     162.551E+06     62.5243E+06     66.9294E+03    -14.5105E-03     29.2872E-03    -14.7767E-03     65.5919E-03    -15.3727E-03     30.5398E-03    -14.6976E-03     66.3795E-03
              55     17.7380E-03     86.3788E-03    -796.427E+03     163.067E+06     61.7727E+06     84.4181E+03    -14.1395E-03     28.9120E-03    -14.7726E-03     64.4989E-03    -14.9894E-03     30.1589E-03    -14.6990E-03     65.2855E-03
              56     17.7377E-03     87.3539E-03    -948.035E+03     162.839E+06     60.7512E+06    -554.507E+03    -14.3241E-03     29.0787E-03    -14.7546E-03     64.3715E-03    -15.1737E-03     30.3268E-03    -14.6856E-03     65.1480E-03
              57     17.7381E-03     88.3318E-03    -1.48095E+06     162.035E+06     58.1108E+06    -366.342E+03    -14.8964E-03     29.6161E-03    -14.7197E-03     65.3497E-03    -15.7513E-03     30.8725E-03    -14.6620E-03     66.1227E-03
              58     17.7382E-03     89.3098E-03    -2.47982E+06     161.452E+06     57.9805E+06    -35.1899E+03    -15.1978E-03     29.9106E-03    -14.7128E-03     67.2684E-03    -16.0720E-03     31.1810E-03    -14.6534E-03     68.0520E-03
              59     17.7378E-03     90.2883E-03    -2.25335E+06     161.134E+06     55.9342E+06     346.579E+03    -14.4969E-03     29.2092E-03    -14.7123E-03     66.7922E-03    -15.3627E-03     30.4768E-03    -14.6630E-03     67.5893E-03
              60     17.7391E-03     91.2602E-03    -172.751E+03     161.688E+06     54.3974E+06    -269.679E+03    -13.9705E-03     28.6590E-03    -14.6885E-03     65.6117E-03    -14.8134E-03     29.9175E-03    -14.6507E-03     66.4060E-03
              61     17.7386E-03     92.2385E-03    -1.63491E+06     160.119E+06     53.3250E+06    -758.009E+03    -15.1006E-03     29.7473E-03    -14.6468E-03     65.8240E-03    -15.9501E-03     31.0048E-03    -14.6099E-03     66.5927E-03
              62     17.7391E-03     93.2167E-03    -1.93364E+06     158.511E+06     51.7069E+06    -105.495E+03    -15.3006E-03     29.9239E-03    -14.6233E-03     65.6998E-03    -16.1479E-03     31.1771E-03    -14.5918E-03     66.4681E-03
              63     17.7395E-03     94.1917E-03    -837.176E+03     157.913E+06     49.3795E+06    -831.362E+03    -14.9686E-03     29.5553E-03    -14.5867E-03     65.3635E-03    -15.8027E-03     30.8038E-03    -14.5676E-03     66.1293E-03
              64     17.7404E-03     95.1693E-03    -2.22823E+06     154.633E+06     46.4609E+06    -1.93616E+06    -16.0644E-03     30.5878E-03    -14.5234E-03     65.3653E-03    -16.8998E-03     31.8295E-03    -14.5121E-03     66.1033E-03
              65     17.7401E-03     96.1485E-03    -2.83322E+06     153.073E+06     45.7671E+06    -875.010E+03    -16.8900E-03     31.3788E-03    -14.4888E-03     65.9331E-03    -17.7334E-03     32.6228E-03    -14.4778E-03     66.6744E-03
              66     17.7408E-03     97.1284E-03     453.502E+03     151.902E+06     42.1226E+06    -213.869E+03    -16.2330E-03     30.6906E-03    -14.4576E-03     66.8287E-03    -17.0569E-03     31.9332E-03    -14.4679E-03     67.5867E-03
              67     17.7416E-03     98.1039E-03     -722.87E+03     147.362E+06     37.4161E+06    -2.04011E+06    -16.4963E-03     30.8988E-03    -14.4025E-03     66.0032E-03    -17.3075E-03     32.1221E-03    -14.4281E-03     66.7293E-03
              68     17.7415E-03     99.0817E-03    -756.161E+03     141.585E+06     32.6283E+06    -2.68428E+06    -18.1114E-03     32.4309E-03    -14.3194E-03     64.0387E-03    -18.8978E-03     33.6225E-03    -14.3605E-03     64.7180E-03
              69     17.7426E-03     100.063E-03    -1.87667E+06     133.575E+06     24.6963E+06    -4.24999E+06    -19.4077E-03     33.6381E-03    -14.2304E-03     64.2874E-03    -20.1826E-03     34.8089E-03    -14.2979E-03     64.9211E-03
              70     17.7426E-03     101.045E-03    -1.73310E+06     120.667E+06     15.7653E+06    -7.04804E+06    -20.8777E-03     35.0174E-03    -14.1397E-03     65.5272E-03    -21.6342E-03     36.1504E-03    -14.2333E-03     66.0996E-03
              71     17.7435E-03     102.028E-03    -2.05920E+06     101.867E+06     7.69156E+06    -9.17612E+06    -22.3734E-03     36.4360E-03    -14.0626E-03     65.5392E-03    -23.0986E-03     37.4932E-03    -14.1688E-03     66.0525E-03
              72     17.7436E-03     103.011E-03     2.39355E+06     82.2432E+06    -3.02537E+06    -7.99618E+06    -24.5057E-03     38.4537E-03    -13.9480E-03     66.0345E-03    -25.1769E-03     39.4341E-03    -14.0858E-03     66.5240E-03
              73     17.7447E-03     103.999E-03    -1.12000E+06     65.5863E+06    -13.8469E+06    -7.15089E+06    -27.7243E-03     41.5429E-03    -13.8185E-03     67.6158E-03    -28.3932E-03     42.4810E-03    -13.9812E-03     68.0579E-03
              74     17.7441E-03     104.992E-03     2.84027E+06     52.3922E+06    -8.93220E+06    -6.57864E+06    -30.9098E-03     44.6709E-03    -13.7611E-03     72.8348E-03    -31.5959E-03     45.5795E-03    -13.8859E-03     73.2343E-03
              75     17.7455E-03     105.988E-03     2.25127E+06     39.2411E+06     16.2120E+06    -6.15095E+06    -32.3636E-03     46.1743E-03    -13.8107E-03     79.6823E-03    -33.1143E-03     47.0258E-03    -13.7898E-03     80.0524E-03
              76     17.7478E-03     106.982E-03    -1.08503E+06     23.9186E+06     35.7493E+06    -7.90022E+06    -32.1501E-03     45.9454E-03    -13.7953E-03     87.7891E-03    -32.9658E-03     46.7389E-03    -13.6496E-03     88.1090E-03
              77     17.7524E-03     107.978E-03    -9.72282E+06    -6.68685E+06     30.8831E+06    -18.0995E+06    -32.4513E-03     46.0803E-03    -13.6290E-03     96.7374E-03    -33.3054E-03     46.7872E-03    -13.4508E-03     96.8699E-03
              78     17.7548E-03     108.974E-03     619.966E+03    -57.8083E+06     38.6840E+06    -25.5732E+06    -33.6400E-03     47.2003E-03    -13.5603E-03     105.718E-03    -34.4206E-03     47.6667E-03    -13.2839E-03     105.669E-03
              79     17.7559E-03     109.974E-03     22.6923E+06    -78.8192E+06     7.03766E+06     4.02533E+06    -35.7368E-03     49.1682E-03    -13.4314E-03     117.961E-03    -36.3629E-03     49.5765E-03    -13.3149E-03     118.174E-03
              80     17.7470E-03     110.980E-03    -20.2868E+06    -43.8638E+06    -38.6954E+06     25.9672E+06    -29.2886E-03     42.9690E-03    -13.6805E-03     127.163E-03    -29.9365E-03     43.5042E-03    -13.7809E-03     127.593E-03
              81     17.7434E-03     111.957E-03    -16.5397E+06    -9.90287E+06    -17.5429E+06     6.97347E+06    -6.47397E-03     21.3249E-03    -14.8509E-03     116.705E-03    -6.78257E-03     21.5958E-03    -14.9003E-03     116.864E-03
              82     17.7215E-03     112.889E-03     11.8763E+06    -9.45092E+06     7.47253E+06     396.385E+03     9.63802E-03     8.33797E-03    -17.9760E-03     52.5043E-03     9.67237E-03     8.28176E-03    -17.9421E-03     52.5251E-03
              83     16.6934E-03     113.717E-03    -937.283E+03     12.6279E+06     28.2530E+06     2.75014E+06     8.10281E-03     12.8215E-03    -20.9243E-03     10.9128E-03     8.03441E-03     12.8407E-03    -20.8000E-03     10.9482E-03
              84     15.7895E-03     113.609E-03    -19.1903E+06    -1.70717E+06     28.1053E+06     3.30881E+06    -6.06403E-03     27.8266E-03    -21.7626E-03     19.2978E-03    -6.20010E-03     27.8052E-03    -21.5917E-03     19.3365E-03
              85     14.9195E-03     113.483E-03    -31.8379E+06     4.02528E+06     18.5712E+06    -1.24791E+06    -16.9488E-03     38.8662E-03    -21.9174E-03     14.2697E-03    -17.1474E-03     38.9014E-03    -21.7842E-03     14.2467E-03
              86     14.0476E-03     113.378E-03    -28.5967E+06    -1.44519E+06     10.8536E+06    -10.1943E+06    -17.7047E-03     39.5266E-03    -21.8220E-03     7.92666E-03    -17.8661E-03     39.5416E-03    -21.7241E-03     7.78904E-03
              87     13.1730E-03     113.298E-03    -23.7933E+06    -7.21628E+06     13.0479E+06    -4.34062E+06    -21.5321E-03     43.2348E-03    -21.7027E-03     3.78896E-03    -21.6626E-03     43.2122E-03    -21.5925E-03     3.72569E-03
              88     12.3012E-03     113.224E-03    -23.5364E+06     5.68764E+06     21.1423E+06    -3.43607E+06    -25.4177E-03     46.7786E-03    -21.3609E-03     1.11867E-03    -25.5769E-03     46.8086E-03    -21.2293E-03     1.06569E-03
              89     11.4313E-03     113.161E-03    -19.6655E+06    -3.40942E+06     23.1034E+06    -7.00408E+06    -26.9301E-03     47.7357E-03    -20.8056E-03    -228.782E-06    -27.0593E-03     47.7118E-03    -20.6566E-03    -327.975E-06
              90     10.5614E-03     113.104E-03    -13.3880E+06    -321.111E+03     26.9962E+06    -6.16349E+06    -26.1808E-03     46.3464E-03    -20.1656E-03    -624.752E-06    -26.2884E-03     46.3234E-03    -20.0108E-03    -711.961E-06
              91     9.68917E-03     113.058E-03    -8.45850E+06    -2.19101E+06     28.7459E+06    -4.92376E+06    -24.4293E-03     43.9978E-03    -19.5685E-03    -488.911E-06    -24.5117E-03     43.9561E-03    -19.4093E-03    -558.434E-06
              92     8.81405E-03     113.018E-03    -4.47088E+06     697.406E+03     30.9194E+06    -4.67479E+06    -22.7537E-03     41.8109E-03    -19.0572E-03    -227.409E-06    -22.8230E-03     41.7750E-03    -18.8971E-03    -292.265E-06
              93     7.93697E-03     112.985E-03    -874.672E+03    -2.06181E+06     28.7028E+06    -3.95322E+06    -21.3754E-03     39.9937E-03    -18.6183E-03    -6.88208E-06    -21.4194E-03     39.9422E-03    -18.4705E-03    -61.3546E-06
              94     7.05813E-03     112.955E-03     2.00756E+06     643.118E+03     26.8063E+06    -3.36680E+06    -20.2001E-03     38.4518E-03    -18.2517E-03     170.523E-06    -20.2306E-03     38.4125E-03    -18.1215E-03     124.429E-06
              95     6.17805E-03     112.931E-03     4.46049E+06    -1.53473E+06     23.1809E+06    -2.88699E+06    -19.2586E-03     37.2152E-03    -17.9566E-03     258.246E-06    -19.2683E-03     37.1668E-03    -17.8449E-03     218.942E-06
              96     5.29681E-03     112.910E-03     6.34628E+06     249.944E+03     20.3526E+06    -2.18382E+06    -18.5465E-03     36.2711E-03    -17.7246E-03     275.417E-06    -18.5452E-03     36.2331E-03    -17.6324E-03     245.649E-06
              97     4.41492E-03     112.894E-03     7.67293E+06    -909.599E+03     17.5240E+06    -1.83138E+06    -18.0352E-03     35.5867E-03    -17.5514E-03     234.373E-06    -18.0214E-03     35.5451E-03    -17.4736E-03     209.510E-06
              98     3.53232E-03     112.880E-03     8.82148E+06     162.956E+03     15.1166E+06    -1.54520E+06    -17.6788E-03     35.1008E-03    -17.4220E-03     165.627E-06    -17.6573E-03     35.0664E-03    -17.3594E-03     144.754E-06
              99     2.64957E-03     112.871E-03      9.7235E+06    -924.405E+03     12.8613E+06    -1.13853E+06    -17.4462E-03     34.7808E-03    -17.3346E-03     77.5746E-06    -17.4154E-03     34.7430E-03    -17.2830E-03     62.2047E-06
             100     1.76626E-03     112.862E-03     10.3013E+06     113.195E+03     11.8835E+06    -834.139E+03    -17.3118E-03     34.5944E-03    -17.2826E-03    -19.7949E-06    -17.2781E-03     34.5624E-03    -17.2383E-03    -31.0001E-06
             101     883.254E-06     112.859E-03     10.6812E+06     -816.63E+03     10.4926E+06    -874.072E+03    -17.1343E-03     34.5156E-03    -17.3813E-03    -158.036E-06    -17.0953E-03     34.4804E-03    -17.3431E-03    -169.503E-06
             102     604.103E-09     111.876E-03     9.15291E+06    -1.82063E+06     8.43875E+06    -783.933E+03    -15.7602E-03     31.6524E-03    -15.8921E-03     288.430E-06    -15.7243E-03     31.6175E-03    -15.8606E-03     278.200E-06
             103    -401.719E-09     110.898E-03     6.47081E+06    -4.26835E+06     7.05588E+06    -416.181E+03    -13.5187E-03     26.9137E-03    -13.3949E-03     893.218E-06    -13.4905E-03     26.8726E-03    -13.3629E-03     887.640E-06
             104     426.639E-09     109.927E-03     1.57230E+06    -8.32180E+06     2.46527E+06    -2.21710E+06    -11.8523E-03     23.6796E-03    -11.8273E-03     1.15369E-03    -11.8359E-03     23.6322E-03    -11.8052E-03     1.12486E-03
             105    -396.698E-09     108.956E-03    -6.30481E+06    -16.0450E+06    -6.80212E+06    -2.39295E+06    -10.7650E-03     21.5077E-03    -10.7427E-03     1.45375E-03    -10.7633E-03     21.4465E-03    -10.7443E-03     1.42270E-03
             106     399.914E-09     107.990E-03    -18.9328E+06    -23.2948E+06    -18.4056E+06    -2.17771E+06    -10.1230E-03     20.2400E-03    -10.1170E-03     1.68047E-03    -10.1571E-03     20.1777E-03    -10.1478E-03     1.65224E-03
             107    -387.716E-09     107.021E-03    -33.9534E+06    -30.5545E+06    -34.3849E+06    -2.06716E+06    -9.84371E-03     19.6849E-03    -9.84117E-03     1.87182E-03    -9.91927E-03     19.6313E-03    -9.91956E-03     1.84506E-03
             108     373.449E-09     106.055E-03    -51.9557E+06    -37.1256E+06    -51.3602E+06    -2.05529E+06    -9.84485E-03     19.6901E-03    -9.84525E-03     2.01585E-03    -9.97629E-03     19.6544E-03    -9.97288E-03     1.98927E-03
             109    -354.887E-09     105.087E-03    -65.7141E+06    -44.2581E+06    -66.1992E+06    -2.16331E+06    -10.0615E-03     20.1262E-03    -10.0647E-03     2.11246E-03    -10.2299E-03     20.0963E-03    -10.2363E-03     2.08451E-03
             110     322.990E-09     104.120E-03    -65.1102E+06    -49.3346E+06    -65.2059E+06    -1.05858E+06    -10.4640E-03     20.9316E-03    -10.4677E-03     2.15941E-03    -10.6234E-03     20.8740E-03    -10.6277E-03     2.14573E-03
             111    -300.850E-09     103.151E-03    -49.9103E+06    -50.9268E+06    -50.5889E+06     236.151E+03    -10.9860E-03     21.9737E-03    -10.9877E-03     2.16642E-03    -11.0883E-03     21.8648E-03    -11.0944E-03     2.16944E-03
             112     265.868E-09     102.182E-03    -36.1573E+06    -47.6964E+06    -36.2605E+06     1.65002E+06    -11.5306E-03     23.0706E-03    -11.5400E-03     2.16300E-03    -11.5896E-03     22.9371E-03    -11.5997E-03     2.18424E-03
             113    -250.832E-09     101.210E-03    -25.7054E+06    -41.8462E+06    -25.8856E+06     1.95319E+06    -12.0653E-03     24.1363E-03    -12.0710E-03     2.15094E-03    -12.0956E-03     24.0019E-03    -12.1024E-03     2.17608E-03
             114     221.608E-09     100.239E-03    -19.1074E+06    -34.8469E+06    -19.0554E+06     2.22640E+06    -12.5590E-03     25.1156E-03    -12.5565E-03     2.14147E-03    -12.5764E-03     24.9967E-03    -12.5736E-03     2.17011E-03
             115    -189.454E-09     99.2660E-03    -15.0775E+06    -28.7051E+06    -14.7945E+06     1.55627E+06    -12.9930E-03     25.9888E-03    -12.9958E-03     2.11760E-03    -13.0053E-03     25.8886E-03    -13.0063E-03     2.13757E-03
             116     153.662E-09     98.2925E-03    -12.1292E+06    -24.1366E+06    -12.1626E+06     1.21207E+06    -13.3710E-03     26.7458E-03    -13.3748E-03     2.09544E-03    -13.3790E-03     26.6603E-03    -13.3830E-03     2.11094E-03
             117    -126.992E-09     97.3182E-03    -11.0970E+06    -21.4707E+06    -10.6670E+06     435.921E+03    -13.6880E-03     27.3833E-03    -13.6953E-03     2.08202E-03    -13.6968E-03     27.3075E-03    -13.7014E-03     2.08749E-03
             118     90.2225E-09     96.3435E-03    -10.1720E+06    -20.6883E+06    -10.3435E+06     12.8590E+03    -13.9528E-03     27.9105E-03    -13.9577E-03     2.06084E-03    -13.9587E-03     27.8369E-03    -13.9647E-03     2.06082E-03
             119    -66.0706E-09     95.3681E-03    -10.9073E+06    -21.3282E+06    -10.5498E+06    -379.748E+03    -14.1709E-03     28.3365E-03    -14.1657E-03     2.04725E-03    -14.1792E-03     28.2611E-03    -14.1717E-03     2.04214E-03
             120     53.3280E-09     94.3925E-03    -11.2603E+06    -23.0121E+06    -11.4750E+06    -594.486E+03    -14.3374E-03     28.6696E-03    -14.3322E-03     2.03552E-03    -14.3437E-03     28.5876E-03    -14.3399E-03     2.02762E-03
             121    -35.7872E-09     93.4165E-03    -12.7239E+06    -25.1876E+06    -12.4699E+06    -746.998E+03    -14.4657E-03     28.9282E-03    -14.4625E-03     2.02294E-03    -14.4747E-03     28.8388E-03    -14.4699E-03     2.01306E-03
             122     24.9956E-09     92.4405E-03    -13.6252E+06    -27.6729E+06    -13.8754E+06    -753.620E+03    -14.5601E-03     29.1230E-03    -14.5629E-03     2.01447E-03    -14.5680E-03     29.0246E-03    -14.5724E-03     2.00449E-03
             123    -23.8640E-09     91.4641E-03    -15.2804E+06    -30.1454E+06    -15.0583E+06    -779.273E+03    -14.6335E-03     29.2701E-03    -14.6366E-03     2.01130E-03    -14.6443E-03     29.1634E-03    -14.6460E-03     2.00099E-03
             124     17.9180E-09     90.4878E-03    -16.2635E+06    -32.7933E+06    -16.4687E+06    -786.434E+03    -14.6918E-03     29.3775E-03    -14.6858E-03     2.00966E-03    -14.7016E-03     29.2611E-03    -14.6970E-03     1.99925E-03
             125    -5.48613E-09     89.5112E-03    -17.9150E+06    -35.2396E+06    -17.7481E+06    -706.727E+03    -14.7295E-03     29.4532E-03    -14.7237E-03     2.01084E-03    -14.7422E-03     29.3288E-03    -14.7354E-03     2.00145E-03
             126     3.30841E-09     88.5349E-03    -18.9271E+06    -37.7790E+06    -19.0375E+06    -798.436E+03    -14.7511E-03     29.5061E-03    -14.7550E-03     2.00462E-03    -14.7633E-03     29.3723E-03    -14.7680E-03     1.99405E-03
             127    -11.1520E-09     87.5581E-03    -20.1917E+06    -40.3113E+06    -20.1062E+06    -741.174E+03    -14.7712E-03     29.5484E-03    -14.7773E-03     2.00256E-03    -14.7845E-03     29.4054E-03    -14.7901E-03     1.99273E-03
             128     7.37387E-09     86.5817E-03    -20.9207E+06    -42.8414E+06    -20.9901E+06    -782.100E+03    -14.7874E-03     29.5831E-03    -14.7958E-03     1.99762E-03    -14.7994E-03     29.4297E-03    -14.8083E-03     1.98725E-03
             129    -21.0741E-09     85.6048E-03    -21.7867E+06    -45.2636E+06    -21.7786E+06    -699.793E+03    -14.8002E-03     29.6092E-03    -14.8089E-03     2.00357E-03    -14.8120E-03     29.4461E-03    -14.8206E-03     1.99426E-03
             130     17.6191E-09     84.6285E-03    -22.5175E+06    -47.5928E+06    -22.5341E+06    -709.373E+03    -14.8134E-03     29.6257E-03    -14.8123E-03     2.00241E-03    -14.8243E-03     29.4531E-03    -14.8233E-03     1.99298E-03
             131    -14.1757E-09     83.6516E-03    -23.0952E+06    -49.8940E+06    -23.0761E+06    -674.257E+03    -14.8211E-03     29.6369E-03    -14.8158E-03     2.00660E-03    -14.8308E-03     29.4544E-03    -14.8253E-03     1.99762E-03
             132     18.5810E-09     82.6753E-03    -23.4551E+06    -52.0868E+06    -23.5049E+06    -634.094E+03    -14.8182E-03     29.6448E-03    -14.8265E-03     2.00131E-03    -14.8259E-03     29.4525E-03    -14.8345E-03     1.99286E-03
             133    -40.0734E-09     81.6984E-03    -23.6647E+06    -54.0842E+06    -23.6501E+06    -583.640E+03    -14.8208E-03     29.6514E-03    -14.8307E-03     1.99753E-03    -14.8264E-03     29.4497E-03    -14.8362E-03     1.98972E-03
             134     42.4258E-09     80.7220E-03    -23.5777E+06    -55.9549E+06    -23.6157E+06    -583.853E+03    -14.8253E-03     29.6562E-03    -14.8309E-03     1.99755E-03    -14.8278E-03     29.4449E-03    -14.8337E-03     1.98974E-03
             135    -56.9665E-09     79.7452E-03    -23.5498E+06    -57.7443E+06    -23.5466E+06    -494.997E+03    -14.8247E-03     29.6580E-03    -14.8332E-03     1.99404E-03    -14.8246E-03     29.4376E-03    -14.8331E-03     1.98737E-03
             136     54.6892E-09     78.7688E-03    -23.3941E+06    -59.2639E+06    -23.4417E+06    -453.529E+03    -14.8281E-03     29.6641E-03    -14.8359E-03     1.99046E-03    -14.8252E-03     29.4357E-03    -14.8333E-03     1.98433E-03
             137    -68.5994E-09     77.7920E-03    -23.2938E+06    -60.6629E+06    -23.2833E+06    -383.783E+03    -14.8349E-03     29.6706E-03    -14.8357E-03     1.99536E-03    -14.8296E-03     29.4348E-03    -14.8303E-03     1.99013E-03
             138     79.4862E-09     76.8156E-03    -23.0960E+06    -62.0114E+06    -23.0718E+06    -412.495E+03    -14.8402E-03     29.6765E-03    -14.8363E-03     2.01383E-03    -14.8323E-03     29.4334E-03    -14.8282E-03     2.00823E-03
             139    -84.9327E-09     75.8388E-03    -22.6904E+06    -63.1921E+06    -22.7916E+06    -286.725E+03    -14.8399E-03     29.6808E-03    -14.8408E-03     2.01936E-03    -14.8287E-03     29.4308E-03    -14.8303E-03     2.01538E-03
             140     85.7316E-09     74.8623E-03    -22.5736E+06    -64.1107E+06    -22.4950E+06    -253.691E+03    -14.8443E-03     29.6855E-03    -14.8412E-03     2.02396E-03    -14.8316E-03     29.4304E-03    -14.8280E-03     2.02040E-03
             141    -81.8842E-09     73.8856E-03    -22.2572E+06    -64.9334E+06    -22.3421E+06    -236.794E+03    -14.8453E-03     29.6927E-03    -14.8474E-03     2.03131E-03    -14.8301E-03     29.4327E-03    -14.8327E-03     2.02797E-03
             142     71.5445E-09     72.9091E-03    -22.0414E+06    -65.5897E+06    -22.0017E+06    -184.495E+03    -14.8409E-03     29.6926E-03    -14.8517E-03     2.01826E-03    -14.8241E-03     29.4286E-03    -14.8346E-03     2.01560E-03
             143    -81.6880E-09     71.9324E-03    -21.7837E+06    -66.2807E+06    -21.8227E+06    -172.239E+03    -14.8466E-03     29.6928E-03    -14.8462E-03     1.99291E-03    -14.8278E-03     29.4247E-03    -14.8276E-03     1.99042E-03
             144     90.2622E-09     70.9560E-03    -21.4405E+06    -66.8048E+06    -21.3946E+06    -169.602E+03    -14.8634E-03     29.7061E-03    -14.8427E-03     1.97751E-03    -14.8427E-03     29.4343E-03    -14.8217E-03     1.97505E-03
             145    -63.3486E-09     69.9793E-03    -21.1108E+06    -67.3414E+06    -21.1744E+06    -162.297E+03    -14.8574E-03     29.7086E-03    -14.8512E-03     1.98256E-03    -14.8346E-03     29.4333E-03    -14.8288E-03     1.98020E-03
             146     44.8593E-09     69.0027E-03    -20.9585E+06    -67.6618E+06    -20.9294E+06    -70.6815E+03    -14.8485E-03     29.7123E-03    -14.8638E-03     1.97566E-03    -14.8248E-03     29.4348E-03    -14.8400E-03     1.97448E-03
             147    -55.0626E-09     68.0261E-03    -20.7257E+06    -67.9917E+06    -20.7425E+06    -95.9083E+03    -14.8532E-03     29.7219E-03    -14.8687E-03     1.97861E-03    -14.8282E-03     29.4421E-03    -14.8437E-03     1.97711E-03
             148     35.9222E-09     67.0495E-03    -20.5169E+06    -68.2566E+06    -20.5170E+06    -76.1057E+03    -14.8569E-03     29.7249E-03    -14.8679E-03     1.99311E-03    -14.8308E-03     29.4431E-03    -14.8418E-03     1.99185E-03
             149    -38.0413E-09     66.0729E-03    -20.3599E+06    -68.5072E+06    -20.3910E+06    -64.6402E+03    -14.8633E-03     29.7230E-03    -14.8597E-03     2.00135E-03    -14.8362E-03     29.4396E-03    -14.8328E-03     2.00024E-03
             150     44.3032E-09     65.0962E-03    -20.2110E+06    -68.6134E+06    -20.2007E+06    -3.65964E+03    -14.8657E-03     29.7212E-03    -14.8555E-03     2.00430E-03    -14.8380E-03     29.4368E-03    -14.8277E-03     2.00398E-03
             151    -34.1248E-09     64.1197E-03    -20.0684E+06    -68.7640E+06    -20.0430E+06    -57.8468E+03    -14.8537E-03     29.7180E-03    -14.8643E-03     2.00878E-03    -14.8253E-03     29.4324E-03    -14.8357E-03     2.00776E-03
             152     3.57987E-09     63.1430E-03    -19.8519E+06    -68.8816E+06    -19.8818E+06    -29.8607E+03    -14.8485E-03     29.7156E-03    -14.8672E-03     2.00712E-03    -14.8190E-03     29.4289E-03    -14.8379E-03     2.00646E-03
             153    -8.33867E-09     62.1665E-03    -19.8773E+06    -69.0695E+06    -19.8375E+06    -54.5043E+03    -14.8599E-03     29.7132E-03    -14.8533E-03     2.00584E-03    -14.8304E-03     29.4255E-03    -14.8235E-03     2.00486E-03
             154     23.4729E-09     61.1898E-03    -19.7468E+06    -69.2506E+06    -19.7735E+06    -43.1020E+03    -14.8630E-03     29.7063E-03    -14.8432E-03     2.00939E-03    -14.8327E-03     29.4174E-03    -14.8131E-03     2.00856E-03
             155    -5.66667E-09     60.2133E-03    -19.7705E+06    -69.3517E+06    -19.7595E+06    -16.3788E+03    -14.8589E-03     29.6994E-03    -14.8405E-03     2.00631E-03    -14.8286E-03     29.4100E-03    -14.8100E-03     2.00583E-03
             156     18.9650E-09     59.2367E-03    -19.6489E+06    -69.3116E+06    -19.6805E+06     50.3137E+03    -14.8504E-03     29.6897E-03    -14.8393E-03     2.00136E-03    -14.8196E-03     29.4002E-03    -14.8087E-03     2.00174E-03
             157    -14.8398E-09     58.2602E-03    -19.6717E+06    -69.3295E+06    -19.5823E+06    -57.1889E+03    -14.8355E-03     29.6737E-03    -14.8383E-03     1.97873E-03    -14.8049E-03     29.3841E-03    -14.8071E-03     1.97772E-03
             158     5.01014E-09     57.2836E-03    -19.4880E+06    -69.4031E+06    -19.6206E+06    -15.4786E+03    -14.8160E-03     29.6585E-03    -14.8425E-03     1.94934E-03    -14.7844E-03     29.3682E-03    -14.8117E-03     1.94888E-03
             159     20.3468E-09     55.3305E-03    -19.5503E+06    -69.5784E+06    -19.6358E+06    -100.015E+03    -14.8258E-03     29.6517E-03    -14.8259E-03     1.95342E-03    -14.7942E-03     29.3607E-03    -14.7948E-03     1.95186E-03
             160     1.80566E-09     54.3541E-03    -19.6280E+06    -69.6747E+06    -19.6322E+06     60.5578E+03    -14.8271E-03     29.6362E-03    -14.8092E-03     2.00050E-03    -14.7957E-03     29.3449E-03    -14.7778E-03     2.00100E-03
             161     5.99837E-09     53.3774E-03    -19.5974E+06    -69.5987E+06    -19.5502E+06     6.74290E+03    -14.8068E-03     29.6182E-03    -14.8114E-03     2.02036E-03    -14.7755E-03     29.3270E-03    -14.7799E-03     2.02017E-03
             162    -23.3768E-09     52.4011E-03    -19.5789E+06    -69.6198E+06    -19.6557E+06     21.9411E+03    -14.7873E-03     29.6053E-03    -14.8180E-03     1.99249E-03    -14.7557E-03     29.3142E-03    -14.7870E-03     1.99250E-03
             163    -16.4474E-09     51.4245E-03    -19.7098E+06    -69.6020E+06    -19.6127E+06     12.8063E+03    -14.7887E-03     29.5944E-03    -14.8057E-03     1.96779E-03    -14.7579E-03     29.3035E-03    -14.7743E-03     1.96768E-03
             164     25.4003E-09     50.4481E-03    -19.5747E+06    -69.6057E+06    -19.6590E+06    -43.4593E+03    -14.7872E-03     29.5756E-03    -14.7884E-03     1.97628E-03    -14.7557E-03     29.2845E-03    -14.7573E-03     1.97545E-03
             165    -39.0452E-09     49.4716E-03    -19.6515E+06    -69.6487E+06    -19.6111E+06        -231.032    -14.7618E-03     29.5469E-03    -14.7851E-03     1.98490E-03    -14.7307E-03     29.2557E-03    -14.7537E-03     1.98462E-03
             166     10.0851E-09     48.4952E-03    -19.5937E+06    -69.6230E+06    -19.6662E+06     5.33180E+03    -14.7422E-03     29.5104E-03    -14.7682E-03     1.99231E-03    -14.7107E-03     29.2193E-03    -14.7372E-03     1.99210E-03
             167    -29.9327E-09     47.5188E-03    -19.6403E+06    -69.6043E+06    -19.5829E+06     31.8873E+03    -14.7431E-03     29.4662E-03    -14.7231E-03     2.00004E-03    -14.7120E-03     29.1751E-03    -14.6916E-03     2.00017E-03
             168     84.1007E-09     46.5425E-03    -19.5383E+06    -69.7275E+06    -19.5273E+06    -64.2839E+03    -14.7349E-03     29.4168E-03    -14.6820E-03     2.00348E-03    -14.7031E-03     29.1249E-03    -14.6502E-03     2.00236E-03
             169    -46.2007E-09     45.5663E-03    -19.5139E+06    -69.8083E+06    -19.5370E+06     26.2158E+03    -14.6959E-03     29.3592E-03    -14.6634E-03     1.97644E-03    -14.6639E-03     29.0669E-03    -14.6315E-03     1.97650E-03
             170     63.9113E-09     44.5901E-03    -19.5291E+06    -69.8074E+06    -19.4515E+06    -83.4425E+03    -14.6470E-03     29.2991E-03    -14.6521E-03     1.94139E-03    -14.6153E-03     29.0067E-03    -14.6198E-03     1.94005E-03
             171    -91.4475E-09     43.6139E-03    -19.4456E+06    -69.9371E+06    -19.6015E+06     38.8142E+03    -14.6001E-03     29.2262E-03    -14.6262E-03     1.89605E-03    -14.5675E-03     28.9332E-03    -14.5946E-03     1.89629E-03
             172     69.2293E-09     42.6379E-03    -19.5237E+06    -69.8692E+06    -19.3532E+06    -1.65428E+03    -14.5730E-03     29.1428E-03    -14.5698E-03     1.87666E-03    -14.5413E-03     28.8499E-03    -14.5369E-03     1.87638E-03
             173    -40.8383E-09     41.6619E-03    -19.3875E+06    -70.0059E+06    -19.5367E+06    -98.0612E+03    -14.5265E-03     29.0421E-03    -14.5156E-03     1.86375E-03    -14.4936E-03     28.7485E-03    -14.4836E-03     1.86223E-03
             174     28.5414E-09     40.6860E-03    -19.6364E+06    -70.0726E+06    -19.5357E+06     10.0785E+03    -14.4589E-03     28.9312E-03    -14.4723E-03     1.82810E-03    -14.4271E-03     28.6377E-03    -14.4399E-03     1.82799E-03
             175    -40.3549E-09     39.7103E-03    -19.4037E+06    -70.1132E+06    -19.4760E+06    -51.6334E+03    -14.3811E-03     28.7979E-03    -14.4168E-03     1.81572E-03    -14.3482E-03     28.5038E-03    -14.3844E-03     1.81481E-03
             176    -13.4311E-09     38.7346E-03    -19.3968E+06    -70.1100E+06    -19.4002E+06     68.9040E+03    -14.3086E-03     28.6394E-03    -14.3308E-03     1.80653E-03    -14.2758E-03     28.3452E-03    -14.2980E-03     1.80718E-03
             177     26.2752E-09     37.7592E-03    -19.3232E+06    -70.0038E+06    -19.3116E+06    -1.04187E+03    -14.2470E-03     28.4638E-03    -14.2167E-03     1.80803E-03    -14.2141E-03     28.1698E-03    -14.1838E-03     1.80778E-03
             178     13.2472E-09     36.7839E-03    -19.2713E+06    -69.9777E+06    -19.2857E+06     42.8052E+03    -14.1226E-03     28.2483E-03    -14.1257E-03     1.81053E-03    -14.0895E-03     27.9544E-03    -14.0928E-03     1.81084E-03
             179    -60.0473E-09     35.8089E-03    -19.2192E+06    -69.9890E+06    -19.1760E+06    -26.2162E+03    -13.9735E-03     28.0046E-03    -14.0311E-03     1.75431E-03    -13.9403E-03     27.7103E-03    -13.9976E-03     1.75373E-03
             180     3.66132E-09     34.8341E-03    -19.0181E+06    -69.9168E+06    -19.1590E+06     54.5273E+03    -13.8560E-03     27.7393E-03    -13.8833E-03     1.70322E-03    -13.8219E-03     27.4451E-03    -13.8502E-03     1.70370E-03
             181     1.25168E-09     33.8596E-03    -19.0978E+06    -69.6930E+06    -19.0083E+06     25.7873E+03    -13.7159E-03     27.4417E-03    -13.7259E-03     1.68335E-03    -13.6828E-03     27.1486E-03    -13.6922E-03     1.68346E-03
             182    -24.1331E-09     32.8854E-03    -18.7849E+06    -69.5918E+06    -18.8993E+06     38.4344E+03    -13.5407E-03     27.1060E-03    -13.5653E-03     1.65944E-03    -13.5063E-03     26.8127E-03    -13.5316E-03     1.65971E-03
             183     880.287E-12     31.9115E-03    -18.5635E+06    -69.3501E+06    -18.5230E+06     134.745E+03    -13.3491E-03     26.7273E-03    -13.3782E-03     1.63546E-03    -13.3145E-03     26.4344E-03    -13.3434E-03     1.63699E-03
             184    -30.0631E-09     30.9381E-03    -18.1585E+06    -69.0195E+06    -18.2229E+06     118.410E+03    -13.1440E-03     26.3118E-03    -13.1678E-03     1.60019E-03    -13.1083E-03     26.0195E-03    -13.1325E-03     1.60151E-03
             185     14.9658E-09     29.9650E-03    -17.9228E+06    -68.6467E+06    -17.8889E+06     105.523E+03    -12.9262E-03     25.8560E-03    -12.9298E-03     1.53660E-03    -12.8904E-03     25.5647E-03    -12.8937E-03     1.53776E-03
             186    -6.80597E-09     28.9925E-03    -17.5189E+06    -68.2750E+06    -17.6482E+06     161.114E+03    -12.6722E-03     25.3548E-03    -12.6826E-03     1.43314E-03    -12.6352E-03     25.0645E-03    -12.6464E-03     1.43504E-03
             187    -22.2404E-09     28.0204E-03    -17.1425E+06    -67.5514E+06    -17.1032E+06     228.327E+03    -12.3965E-03     24.8408E-03    -12.4444E-03     1.34664E-03    -12.3594E-03     24.5528E-03    -12.4071E-03     1.34941E-03
             188    -34.2209E-09     27.0489E-03    -16.4640E+06    -66.7072E+06    -16.5931E+06     264.690E+03    -12.1268E-03     24.2902E-03    -12.1634E-03     1.30989E-03    -12.0884E-03     24.0046E-03    -12.1257E-03     1.31314E-03
             189     23.4891E-09     26.0777E-03    -15.8206E+06    -65.6459E+06    -15.8074E+06     376.647E+03    -11.8269E-03     23.6716E-03    -11.8447E-03     1.29024E-03    -11.7879E-03     23.3893E-03    -11.8056E-03     1.29494E-03
             190    -44.9534E-09     25.1076E-03    -14.9945E+06    -64.5341E+06    -15.1055E+06     352.542E+03    -11.4898E-03     23.0209E-03    -11.5312E-03     1.22244E-03    -11.4493E-03     22.7420E-03    -11.4914E-03     1.22684E-03
             191    -9.16547E-09     24.1376E-03    -14.2492E+06    -63.1724E+06    -14.3355E+06     450.441E+03    -11.1577E-03     22.3570E-03    -11.1993E-03     1.15227E-03    -11.1166E-03     22.0827E-03    -11.1587E-03     1.15794E-03
             192    -12.1863E-09     23.1688E-03    -13.4066E+06    -61.7017E+06    -13.4047E+06     448.957E+03    -10.8561E-03     21.6995E-03    -10.8434E-03     1.07035E-03    -10.8142E-03     21.4299E-03    -10.8016E-03     1.07601E-03
             193     55.5588E-09     22.2001E-03    -12.1194E+06    -59.8248E+06    -12.2515E+06     654.285E+03    -10.5355E-03     21.0506E-03    -10.5150E-03     986.011E-06    -10.4916E-03     20.7868E-03    -10.4720E-03     994.334E-06
             194    -64.3932E-09     21.2325E-03    -10.6368E+06    -57.6265E+06    -10.5549E+06     662.470E+03    -10.2039E-03     20.4237E-03    -10.2198E-03     942.143E-06    -10.1582E-03     20.1664E-03    -10.1736E-03     950.580E-06
             195     45.4487E-09     20.2649E-03    -8.61029E+06    -55.2647E+06    -8.83585E+06     772.053E+03    -9.91116E-03     19.8442E-03    -9.93303E-03     911.299E-06    -9.86126E-03     19.5932E-03    -9.88459E-03     921.158E-06
             196    -68.4420E-09     19.2985E-03    -6.32672E+06    -52.4277E+06    -6.27871E+06     924.989E+03    -9.64444E-03     19.3198E-03    -9.67538E-03     833.355E-06    -9.59094E-03     19.0760E-03    -9.62158E-03     845.199E-06
             197     36.5065E-09     18.3320E-03    -2.99389E+06    -49.4985E+06    -3.11135E+06     892.677E+03    -9.40510E-03     18.8397E-03    -9.43457E-03     796.448E-06    -9.34378E-03     18.6011E-03    -9.37402E-03     807.882E-06
             198    -58.7639E-09     17.3663E-03    -490.098E+03    -46.7849E+06    -401.033E+03     780.554E+03    -9.15444E-03     18.3532E-03    -9.19878E-03     773.392E-06    -9.08846E-03     18.1206E-03    -9.13224E-03     783.381E-06
             199     2.66820E-09     16.4009E-03     115.715E+03    -44.9495E+06     181.845E+03     406.821E+03    -8.93158E-03     17.8677E-03    -8.93612E-03     683.132E-06    -8.86608E-03     17.6426E-03    -8.87021E-03     688.308E-06
             200     45.8849E-09     15.4361E-03    -1.16253E+06    -43.9686E+06    -1.12521E+06     195.982E+03    -8.70759E-03     17.3412E-03    -8.63357E-03     586.282E-06    -8.64801E-03     17.1247E-03    -8.57376E-03     588.745E-06
             201     37.9532E-09     14.4717E-03    -3.33417E+06    -43.3999E+06    -3.23773E+06     85.8542E+03    -8.39504E-03     16.6835E-03    -8.28842E-03     435.598E-06    -8.34408E-03     16.4761E-03    -8.23685E-03     436.651E-06
             202     69.6019E-09     13.5082E-03    -5.41558E+06    -43.0206E+06    -5.49125E+06     116.252E+03    -7.94339E-03     15.8376E-03    -7.89425E-03     276.960E-06    -7.90012E-03     15.6384E-03    -7.85147E-03     278.421E-06
             203    -90.2820E-09     12.5453E-03    -7.80457E+06    -42.8698E+06    -7.72810E+06     47.6273E+03    -7.40387E-03     14.7607E-03    -7.35678E-03     154.779E-06    -7.36952E-03     14.5689E-03    -7.32195E-03     155.356E-06
             204     196.142E-09     11.5838E-03    -10.6505E+06    -42.9166E+06    -10.5610E+06    -93.1337E+03    -6.83226E-03     13.4943E-03    -6.66201E-03     76.9434E-06    -6.80797E-03     13.3105E-03    -6.63714E-03     75.6997E-06
             205     3.61730E-09     10.6235E-03    -13.6789E+06    -43.2725E+06    -13.3917E+06    -131.874E+03    -6.22949E-03     12.3046E-03    -6.07515E-03     50.6385E-06    -6.21571E-03     12.1276E-03    -6.05953E-03     48.8880E-06
             206     76.0810E-09     9.66426E-03    -15.3859E+06    -43.7791E+06    -15.1934E+06    -159.180E+03    -5.88074E-03     11.6728E-03    -5.79203E-03     157.547E-06    -5.87214E-03     11.4983E-03    -5.78221E-03     155.440E-06
             207     5.17658E-09     8.70515E-03    -15.2977E+06    -44.2481E+06    -15.0862E+06    -144.393E+03    -6.01405E-03     11.9600E-03    -5.94597E-03     373.994E-06    -6.00449E-03     11.7829E-03    -5.93506E-03     372.079E-06
             208     37.8130E-09     7.74539E-03    -13.3126E+06    -44.6806E+06    -13.1879E+06    -193.405E+03    -6.59914E-03     13.1709E-03    -6.57177E-03     571.455E-06    -6.58179E-03     12.9860E-03    -6.55362E-03     568.912E-06
             209    -30.3149E-09     6.78379E-03    -10.4917E+06    -45.4921E+06    -10.4031E+06    -232.691E+03    -7.52037E-03     15.0211E-03    -7.50077E-03     733.502E-06    -7.49179E-03     14.8240E-03    -7.47161E-03     730.456E-06
             210     58.9874E-09     5.82046E-03    -6.90126E+06    -46.2705E+06    -6.84942E+06    -348.443E+03    -8.60714E-03     17.2081E-03    -8.60095E-03     806.531E-06    -8.56464E-03     16.9967E-03    -8.55809E-03     801.990E-06
             211    -75.7744E-09     4.85480E-03    -2.99423E+06    -47.1655E+06    -3.21682E+06    -321.356E+03    -9.73800E-03     19.4968E-03    -9.75883E-03     792.724E-06    -9.67993E-03     19.2700E-03    -9.70218E-03     788.532E-06
             212     53.0756E-09     3.88694E-03     470.085E+03    -47.9369E+06     339.746E+03    -69.1173E+03    -10.8261E-03     21.6753E-03    -10.8493E-03     760.228E-06    -10.7547E-03     21.4345E-03    -10.7788E-03     759.296E-06
             213    -73.1071E-09     2.91713E-03    -703.706E+03    -47.9043E+06    -827.308E+03     126.191E+03    -11.7539E-03     23.5263E-03    -11.7724E-03     636.994E-06    -11.6867E-03     23.2890E-03    -11.7061E-03     638.584E-06
             214     58.7402E-09     1.94572E-03    -6.23473E+06    -47.8093E+06    -6.26984E+06     81.8439E+03    -12.4596E-03     24.9361E-03    -12.4765E-03     471.784E-06    -12.4123E-03     24.7153E-03    -12.4295E-03     472.807E-06
             215    -74.8321E-09     973.161E-06    -10.3627E+06    -47.8601E+06    -10.2723E+06     8.63847E+03    -12.9184E-03     25.8345E-03    -12.9162E-03     236.163E-06    -12.8858E-03     25.6252E-03    -12.8831E-03     236.279E-06
             216     888.268E-06    -360.822E-18    -11.8092E+06    -49.3860E+06    -11.6556E+06     73.1423E+03    -13.1044E-03     26.1793E-03    -13.0749E-03     186.127E-06    -13.0749E-03     25.9664E-03    -13.0445E-03     187.079E-06
             217     1.77647E-03    -360.822E-18    -11.7390E+06    -51.5675E+06    -12.2012E+06    -169.306E+03    -13.1706E-03     26.2765E-03    -13.1059E-03     387.437E-06    -13.1368E-03     26.0533E-03    -13.0751E-03     385.231E-06
             218     2.66464E-03    -360.822E-18    -11.6109E+06    -53.7430E+06    -13.2632E+06    -299.706E+03    -13.2829E-03     26.4237E-03    -13.1409E-03     571.923E-06    -13.2438E-03     26.1911E-03    -13.1124E-03     568.021E-06
             219     3.55263E-03    -360.822E-18    -11.5623E+06    -55.1818E+06    -15.0941E+06    -493.172E+03    -13.4371E-03     26.6214E-03    -13.1844E-03     789.446E-06    -13.3930E-03     26.3842E-03    -13.1631E-03     783.037E-06
             220     4.44049E-03    -360.822E-18    -11.4025E+06    -55.9477E+06    -17.8381E+06    -819.241E+03    -13.6323E-03     26.8680E-03    -13.2358E-03     998.290E-06    -13.5823E-03     26.6307E-03    -13.2273E-03     987.649E-06
             221     5.32822E-03    -360.822E-18    -11.0067E+06    -58.7458E+06    -20.3939E+06    -1.14711E+06    -13.8763E-03     27.1809E-03    -13.3046E-03     1.24974E-03    -13.8166E-03     26.9327E-03    -13.3054E-03     1.23485E-03
             222     6.21551E-03    -360.822E-18    -10.1760E+06    -61.6895E+06    -23.6005E+06    -1.65858E+06    -14.1547E-03     27.5378E-03    -13.3831E-03     1.50325E-03    -14.0819E-03     27.2784E-03    -13.3969E-03     1.48173E-03
             223     7.10291E-03    -360.822E-18    -9.08690E+06    -63.0684E+06    -28.1444E+06    -1.84418E+06    -14.4842E-03     27.9499E-03    -13.4657E-03     1.82698E-03    -14.3974E-03     27.6886E-03    -13.5018E-03     1.80305E-03
             224     7.98942E-03    -360.822E-18    -7.58936E+06    -64.4031E+06    -32.4635E+06    -2.63397E+06    -14.8461E-03     28.4083E-03    -13.5623E-03     2.12051E-03    -14.7436E-03     28.1444E-03    -13.6202E-03     2.08633E-03
             225     8.87639E-03    -360.822E-18    -5.65932E+06    -64.5230E+06    -36.9043E+06    -2.76286E+06    -15.2617E-03     28.9311E-03    -13.6694E-03     2.53052E-03    -15.1430E-03     28.6702E-03    -13.7521E-03     2.49461E-03
             226     9.76192E-03    -360.822E-18    -3.47310E+06    -62.2876E+06    -42.1213E+06    -3.27690E+06    -15.7484E-03     29.5327E-03    -13.7844E-03     2.98780E-03    -15.6144E-03     29.2874E-03    -13.8996E-03     2.94519E-03
             227     10.6482E-03    -360.822E-18    -386.798E+03    -57.5201E+06    -46.6233E+06    -4.27351E+06    -16.3699E-03     30.2880E-03    -13.9181E-03     3.47890E-03    -16.2209E-03     30.0686E-03    -14.0672E-03     3.42335E-03
             228     11.5327E-03    -360.822E-18     4.33895E+06    -49.4268E+06    -47.4937E+06    -5.30428E+06    -16.9453E-03     31.0274E-03    -14.0821E-03     3.97619E-03    -16.7831E-03     30.8429E-03    -14.2542E-03     3.90725E-03
             229     12.4173E-03    -360.822E-18     9.20001E+06    -32.5114E+06    -43.8030E+06    -4.40964E+06    -17.9363E-03     32.2206E-03    -14.2843E-03     5.95663E-03    -17.7798E-03     32.1083E-03    -14.4695E-03     5.89855E-03
             230     13.2994E-03    -360.822E-18     13.4649E+06    -1.38006E+06    -28.8027E+06    -3.64126E+06    -19.1165E-03     33.6849E-03    -14.5684E-03     5.84379E-03    -19.0055E-03     33.7004E-03    -14.7299E-03     5.79561E-03
             231     14.1846E-03    -360.822E-18     15.5526E+06     36.7437E+06    -10.2115E+06     178.951E+03    -20.9774E-03     35.9061E-03    -14.9287E-03     9.03232E-03    -20.9385E-03     36.0822E-03    -15.0556E-03     9.03246E-03
             232     15.0571E-03    -360.822E-18     9.47606E+06     63.0677E+06     13.4660E+06     712.205E+03    -24.1135E-03     39.5691E-03    -15.4556E-03     12.3521E-03    -24.1776E-03     39.8518E-03    -15.4935E-03     12.3566E-03
             233     15.9410E-03    -360.822E-18     767.004E+03     73.9895E+06     37.6860E+06     1.52549E+06    -27.5440E-03     43.6940E-03    -16.1500E-03     15.3258E-03    -27.7045E-03     44.0103E-03    -16.0699E-03     15.3312E-03
             234     16.8033E-03    -360.822E-18     4.55060E+06     92.2807E+06     57.2763E+06     5.93607E+06    -27.6107E-03     44.4436E-03    -16.8329E-03     20.4202E-03    -27.8221E-03     44.8317E-03    -16.6870E-03     20.4487E-03
             235     17.7056E-03     983.829E-06     4.70571E+06     109.125E+06     63.9345E+06     4.70930E+06    -28.1249E-03     44.5291E-03    -16.4043E-03     26.5869E-03    -28.4069E-03     45.0313E-03    -16.2497E-03     26.5662E-03
             236     17.7267E-03     1.99608E-03    -3.67965E+06     115.080E+06     63.3423E+06     3.73145E+06    -35.9504E-03     51.1179E-03    -15.1675E-03     38.2987E-03    -36.3336E-03     51.7159E-03    -15.0123E-03     38.2058E-03
             237     17.7311E-03     3.00722E-03    -3.58309E+06     122.845E+06     67.5853E+06     4.58967E+06    -39.6010E-03     54.1398E-03    -14.5388E-03     42.5330E-03    -40.0498E-03     54.8172E-03    -14.3738E-03     42.4235E-03
             238     17.7393E-03     4.00704E-03    -3.33156E+06     128.610E+06     70.8457E+06     2.34545E+06    -37.8168E-03     52.1592E-03    -14.3424E-03     45.2331E-03    -38.3303E-03     52.9125E-03    -14.1698E-03     45.1280E-03
             239     17.7357E-03     5.00744E-03    -2.80610E+06     132.454E+06     72.3564E+06     1.88880E+06    -38.5269E-03     52.7886E-03    -14.2616E-03     47.8954E-03    -39.0800E-03     53.5934E-03    -14.0878E-03     47.8008E-03
             240     17.7392E-03     6.01465E-03     834.190E+03     137.530E+06     69.4035E+06     1.91009E+06    -36.6001E-03     50.8841E-03    -14.2839E-03     50.7078E-03    -37.1690E-03     51.7434E-03    -14.1375E-03     50.6663E-03
             241     17.7359E-03     7.00565E-03    -80.7777E+03     138.741E+06     67.6882E+06    -848.941E+03    -35.3912E-03     49.7393E-03    -14.3481E-03     52.6752E-03    -35.9885E-03     50.6324E-03    -14.2107E-03     52.6397E-03
             242     17.7361E-03     8.00577E-03    -1.52595E+06     137.268E+06     59.8759E+06    -560.481E+03    -35.7034E-03     50.0542E-03    -14.3508E-03     52.4257E-03    -36.3040E-03     50.9634E-03    -14.2482E-03     52.4150E-03
             243     17.7359E-03     9.00281E-03    -3.75123E+06     136.581E+06     57.4224E+06     85.4756E+03    -35.2197E-03     49.6175E-03    -14.3978E-03     55.9040E-03    -35.8529E-03     50.5561E-03    -14.3033E-03     55.9364E-03
             244     17.7333E-03     10.0027E-03    -4.33642E+06     137.104E+06     57.2408E+06     1.07070E+06    -35.0330E-03     49.4941E-03    -14.4611E-03     56.3815E-03    -35.6889E-03     50.4551E-03    -14.3674E-03     56.4585E-03
             245     17.7345E-03     10.9932E-03    -1.75347E+06     139.075E+06     53.3633E+06     974.331E+03    -33.5587E-03     48.0388E-03    -14.4801E-03     56.9679E-03    -34.2157E-03     49.0286E-03    -14.4124E-03     57.0906E-03
             246     17.7341E-03     11.9945E-03    -1.82869E+06     140.814E+06     55.2321E+06     929.190E+03    -32.6783E-03     47.1906E-03    -14.5123E-03     60.4485E-03    -33.3760E-03     48.2219E-03    -14.4376E-03     60.6118E-03
             247     17.7336E-03     12.9866E-03    -2.95955E+06     142.276E+06     59.2320E+06     1.30003E+06    -32.0635E-03     46.6389E-03    -14.5754E-03     60.3361E-03    -32.7953E-03     47.6932E-03    -14.4813E-03     60.5460E-03
             248     17.7330E-03     13.9772E-03    -3.15142E+06     143.250E+06     59.9412E+06     1.75829E+06    -30.4920E-03     45.1201E-03    -14.6281E-03     57.6714E-03    -31.2255E-03     46.1770E-03    -14.5316E-03     57.9372E-03
             249     17.7338E-03     14.9699E-03    -2.50912E+06     143.854E+06     58.6074E+06     585.917E+03    -28.8786E-03     43.5156E-03    -14.6370E-03     57.8008E-03    -29.6173E-03     44.5861E-03    -14.5489E-03     58.0972E-03
             250     17.7344E-03     15.9579E-03    -535.735E+03     146.222E+06     61.2486E+06    -666.298E+03    -28.2940E-03     42.9170E-03    -14.6230E-03     58.7685E-03    -29.0424E-03     44.0051E-03    -14.5280E-03     59.0794E-03
             251     17.7349E-03     16.9516E-03     283.103E+03     147.901E+06     63.7974E+06    -598.306E+03    -27.7496E-03     42.3725E-03    -14.6230E-03     61.5923E-03    -28.5238E-03     43.4881E-03    -14.5188E-03     61.9403E-03
             252     17.7350E-03     17.9420E-03    -2.04022E+06     146.864E+06     64.3404E+06    -30.1408E+03    -26.2866E-03     40.9469E-03    -14.6603E-03     63.7711E-03    -27.0921E-03     42.0799E-03    -14.5486E-03     64.1808E-03
             253     17.7349E-03     18.9272E-03    -1.86462E+06     147.413E+06     64.4323E+06     947.009E+03    -24.3584E-03     39.0561E-03    -14.6978E-03     62.7689E-03    -25.1590E-03     40.1865E-03    -14.5867E-03     63.2389E-03
             254     17.7357E-03     19.9120E-03    -704.148E+03     148.623E+06     63.6819E+06     591.540E+03    -23.0255E-03     37.7296E-03    -14.7041E-03     63.2134E-03    -23.8239E-03     38.8685E-03    -14.6002E-03     63.7160E-03
             255     17.7356E-03     20.8986E-03    -1.40985E+06     148.819E+06     64.8678E+06     359.929E+03    -22.5373E-03     37.2516E-03    -14.7143E-03     64.8674E-03    -23.3565E-03     38.4061E-03    -14.6037E-03     65.3950E-03
             256     17.7357E-03     21.8824E-03    -1.76280E+06     148.966E+06     64.6879E+06     431.151E+03    -21.6219E-03     36.3514E-03    -14.7295E-03     64.1512E-03    -22.4415E-03     37.5059E-03    -14.6195E-03     64.7060E-03
             257     17.7362E-03     22.8625E-03    -1.83470E+06     149.214E+06     64.9866E+06     109.207E+03    -20.7519E-03     35.4934E-03    -14.7416E-03     62.2160E-03    -21.5608E-03     36.6370E-03    -14.6303E-03     62.7895E-03
             258     17.7358E-03     23.8463E-03    -1.44934E+06     150.114E+06     65.6945E+06     178.441E+03    -19.9251E-03     34.6754E-03    -14.7502E-03     61.7499E-03    -20.7322E-03     35.8197E-03    -14.6373E-03     62.3476E-03
             259     17.7369E-03     24.8270E-03    -3.02188E+06     149.497E+06     64.0756E+06    -1.16560E+06    -19.1015E-03     33.8510E-03    -14.7495E-03     61.3352E-03    -19.9145E-03     34.9981E-03    -14.6415E-03     61.9426E-03
             260     17.7362E-03     25.8062E-03    -1.78820E+06     151.858E+06     66.4663E+06    -106.899E+03    -18.9565E-03     33.7131E-03    -14.7566E-03     62.2938E-03    -19.7792E-03     34.8759E-03    -14.6418E-03     62.9316E-03
             261     17.7369E-03     26.7932E-03     575.820E+03     154.568E+06     67.5875E+06     1.26971E+06    -17.9563E-03     32.7278E-03    -14.7715E-03     66.4363E-03    -18.7989E-03     33.9252E-03    -14.6585E-03     67.1228E-03
             262     17.7371E-03     27.7699E-03    -2.52839E+06     152.547E+06     66.0909E+06    -890.981E+03    -17.4952E-03     32.2738E-03    -14.7786E-03     67.3337E-03    -18.3611E-03     33.4805E-03    -14.6657E-03     68.0202E-03
             263     17.7363E-03     28.7482E-03    -2.23637E+06     153.182E+06     66.5383E+06     130.458E+03    -17.5558E-03     32.3349E-03    -14.7791E-03     65.4044E-03    -18.4108E-03     33.5327E-03    -14.6652E-03     66.1056E-03
             264     17.7375E-03     29.7301E-03    -932.896E+03     154.824E+06     68.0527E+06     1.05434E+06    -16.6523E-03     31.4544E-03    -14.8021E-03     66.7975E-03    -17.5115E-03     32.6626E-03    -14.6850E-03     67.5304E-03
             265     17.7362E-03     30.7071E-03    -1.34287E+06     154.662E+06     67.6325E+06     422.586E+03    -15.9115E-03     30.7252E-03    -14.8138E-03     66.3709E-03    -16.7692E-03     31.9311E-03    -14.6979E-03     67.1105E-03
             266     17.7380E-03     31.6824E-03    -2.09161E+06     154.091E+06     66.3124E+06    -714.069E+03    -15.9655E-03     30.7608E-03    -14.7953E-03     64.8511E-03    -16.8158E-03     31.9584E-03    -14.6841E-03     65.5797E-03
             267     17.7365E-03     32.6629E-03    -2.23342E+06     154.880E+06     68.7846E+06     90.8176E+03    -16.3027E-03     31.1097E-03    -14.8070E-03     65.6786E-03    -17.1675E-03     32.3170E-03    -14.6844E-03     66.4218E-03
             268     17.7371E-03     33.6427E-03    -404.089E+03     156.406E+06     68.5610E+06     1.18058E+06    -15.1268E-03     29.9491E-03    -14.8223E-03     66.9573E-03    -15.9893E-03     31.1666E-03    -14.7057E-03     67.7307E-03
             269     17.7381E-03     34.6152E-03    -3.08585E+06     154.183E+06     66.5820E+06    -1.97075E+06    -15.4884E-03     30.2856E-03    -14.7972E-03     66.1637E-03    -16.3565E-03     31.4970E-03    -14.6834E-03     66.9019E-03
             270     17.7363E-03     35.5958E-03    -2.85072E+06     154.837E+06     68.2728E+06      315.44E+03    -16.2956E-03     31.0948E-03    -14.7992E-03     65.6656E-03    -17.1659E-03     32.3067E-03    -14.6783E-03     66.4217E-03
             271     17.7377E-03     36.5766E-03     138.994E+03     157.707E+06     69.5135E+06     1.74411E+06    -14.6608E-03     29.4979E-03    -14.8370E-03     68.6174E-03    -15.5379E-03     30.7338E-03    -14.7184E-03     69.4224E-03
             272     17.7370E-03     37.5488E-03    -1.20508E+06     156.573E+06     68.6560E+06    -145.945E+03    -14.4959E-03     29.3310E-03    -14.8351E-03     67.6411E-03    -15.3701E-03     30.5577E-03    -14.7171E-03     68.4244E-03
             273     17.7374E-03     38.5259E-03    -1.82779E+06     156.067E+06     68.4260E+06     123.466E+03    -15.1820E-03     30.0010E-03    -14.8190E-03     65.6209E-03    -16.0446E-03     31.2127E-03    -14.7005E-03     66.3908E-03
             274     17.7371E-03     39.5046E-03    -1.99028E+06     155.914E+06     67.6444E+06    -13.0442E+03    -14.9360E-03     29.7547E-03    -14.8187E-03     66.1764E-03    -15.8023E-03     30.9713E-03    -14.7037E-03     66.9517E-03
             275     17.7375E-03     40.4797E-03    -2.23061E+06     155.865E+06     68.5177E+06     130.331E+03    -14.9874E-03     29.8138E-03    -14.8264E-03     65.8778E-03    -15.8545E-03     31.0276E-03    -14.7066E-03     66.6554E-03
             276     17.7367E-03     41.4580E-03    -1.84087E+06     156.230E+06     68.5780E+06     349.967E+03    -14.8650E-03     29.6947E-03    -14.8297E-03     65.7568E-03    -15.7298E-03     30.9087E-03    -14.7107E-03     66.5389E-03
             277     17.7378E-03     42.4342E-03    -1.60783E+06     156.471E+06     68.3600E+06     26.4469E+03    -14.4637E-03     29.2980E-03    -14.8343E-03     65.9182E-03    -15.3279E-03     30.5138E-03    -14.7171E-03     66.7060E-03
             278     17.7367E-03     43.4105E-03    -1.56707E+06     156.521E+06     68.3009E+06     -24.174E+03    -14.3569E-03     29.1927E-03    -14.8358E-03     65.3301E-03    -15.2161E-03     30.4039E-03    -14.7190E-03     66.1160E-03
             279     17.7379E-03     44.3864E-03    -1.46884E+06     156.571E+06     68.6540E+06     88.5011E+03    -14.5307E-03     29.3623E-03    -14.8316E-03     65.5013E-03    -15.3909E-03     30.5740E-03    -14.7132E-03     66.2846E-03
             280     17.7367E-03     45.3644E-03    -1.36083E+06     156.658E+06     68.7836E+06    -200.909E+03    -14.6690E-03     29.4967E-03    -14.8277E-03     65.3259E-03    -15.5284E-03     30.7080E-03    -14.7090E-03     66.1030E-03
             281     17.7379E-03     46.3394E-03    -1.62904E+06     156.493E+06     68.9523E+06    -140.575E+03    -14.7655E-03     29.5934E-03    -14.8279E-03     64.8054E-03    -15.6227E-03     30.8004E-03    -14.7077E-03     65.5789E-03
             282     17.7366E-03     47.3175E-03    -1.79261E+06     156.427E+06     69.0245E+06     41.5739E+03    -14.7390E-03     29.5645E-03    -14.8255E-03     65.0982E-03    -15.5987E-03     30.7730E-03    -14.7046E-03     65.8755E-03
             283     17.7383E-03     48.2944E-03    -2.87411E+06     155.478E+06     67.5935E+06    -1.10009E+06    -14.7492E-03     29.5648E-03    -14.8156E-03     65.7265E-03    -15.6186E-03     30.7800E-03    -14.6989E-03     66.4991E-03
             284     17.7366E-03     49.2706E-03    -2.40616E+06     155.984E+06     68.8664E+06    -34.1935E+03    -15.0343E-03     29.8564E-03    -14.8221E-03     66.0296E-03    -15.9064E-03     31.0740E-03    -14.7004E-03     66.8144E-03
             285     17.7377E-03     50.2504E-03    -699.550E+03     157.427E+06     69.1873E+06     1.12940E+06    -14.1869E-03     29.0286E-03    -14.8417E-03     66.8643E-03    -15.0551E-03     30.2526E-03    -14.7230E-03     67.6728E-03
             286     17.7372E-03     51.2232E-03    -983.116E+03     157.274E+06     68.9650E+06    -85.5380E+03    -13.8555E-03     28.6988E-03    -14.8433E-03     66.6870E-03    -14.7241E-03     29.9223E-03    -14.7251E-03     67.4880E-03
             287     17.7375E-03     52.1998E-03    -1.69223E+06     156.545E+06     68.7311E+06    -268.942E+03    -14.6442E-03     29.4680E-03    -14.8238E-03     65.0830E-03    -15.5046E-03     30.6788E-03    -14.7047E-03     65.8621E-03
             288     17.7373E-03     53.1768E-03    -1.84387E+06     156.311E+06     68.3948E+06    -64.5016E+03    -14.8119E-03     29.6296E-03    -14.8177E-03     65.6307E-03    -15.6760E-03     30.8437E-03    -14.6997E-03     66.4100E-03
             289     17.7375E-03     54.1550E-03    -1.87699E+06     156.410E+06     68.6246E+06     203.595E+03    -14.7025E-03     29.5274E-03    -14.8249E-03     66.9306E-03    -15.5773E-03     30.7518E-03    -14.7059E-03     67.7240E-03
             290     17.7372E-03     55.1314E-03    -2.16814E+06     156.103E+06     68.3724E+06     106.493E+03    -14.5793E-03     29.4086E-03    -14.8293E-03     66.5813E-03    -15.4523E-03     30.6298E-03    -14.7106E-03     67.3743E-03
             291     17.7375E-03     56.1062E-03    -1.94877E+06     156.145E+06     68.6103E+06     103.249E+03    -14.5900E-03     29.4190E-03    -14.8290E-03     65.1476E-03    -15.4512E-03     30.6286E-03    -14.7095E-03     65.9341E-03
             292     886.773E-06     57.2855E-03    -19.2493E+06    -68.7296E+06    -18.6364E+06    -56.0291E+03    -14.8260E-03     29.6656E-03    -14.8396E-03     3.31303E-03    -14.7956E-03     29.3770E-03    -14.8052E-03     3.31185E-03
             293     1.77357E-03     57.2898E-03    -18.3860E+06    -67.1538E+06    -15.9514E+06    -81.6207E+03    -14.8339E-03     29.6762E-03    -14.8423E-03     6.16637E-03    -14.8054E-03     29.3903E-03    -14.7980E-03     6.16445E-03
             294     2.66033E-03     57.2969E-03    -16.9336E+06    -65.1318E+06    -12.0048E+06    -45.9468E+03    -14.8320E-03     29.6862E-03    -14.8542E-03     9.19978E-03    -14.8050E-03     29.4026E-03    -14.7952E-03     9.19787E-03
             295     3.54716E-03     57.3069E-03    -15.1238E+06    -62.9981E+06    -7.36572E+06    -91.6940E+03    -14.8383E-03     29.7055E-03    -14.8672E-03     12.3434E-03    -14.8122E-03     29.4234E-03    -14.7908E-03     12.3404E-03
             296     4.43392E-03     57.3199E-03    -13.1450E+06    -61.0665E+06    -2.90244E+06    -117.919E+03    -14.8535E-03     29.7328E-03    -14.8793E-03     15.6127E-03    -14.8269E-03     29.4512E-03    -14.7862E-03     15.6087E-03
             297     5.32080E-03     57.3359E-03    -11.1159E+06    -59.4937E+06     776.813E+03    -96.4848E+03    -14.8788E-03     29.7668E-03    -14.8880E-03     19.0366E-03    -14.8500E-03     29.4851E-03    -14.7818E-03     19.0323E-03
             298     6.20755E-03     57.3552E-03    -9.13493E+06    -57.9059E+06     3.43523E+06    -32.4342E+03    -14.9167E-03     29.8088E-03    -14.8921E-03     22.6554E-03    -14.8846E-03     29.5287E-03    -14.7777E-03     22.6511E-03
             299     7.09445E-03     57.3779E-03    -7.37000E+06    -55.9351E+06     5.52126E+06    -88.5485E+03    -14.9655E-03     29.8592E-03    -14.8937E-03     26.4802E-03    -14.9310E-03     29.5840E-03    -14.7743E-03     26.4741E-03
             300     7.98117E-03     57.4044E-03    -5.85677E+06    -54.9244E+06     6.81993E+06    -46.4429E+03    -15.0224E-03     29.9159E-03    -14.8935E-03     30.5041E-03    -14.9846E-03     29.6426E-03    -14.7713E-03     30.4972E-03
             301     8.86813E-03     57.4346E-03    -4.53260E+06    -51.5758E+06     7.23077E+06     21.1526E+03    -15.0852E-03     29.9708E-03    -14.8856E-03     34.7305E-03    -15.0476E-03     29.7131E-03    -14.7681E-03     34.7226E-03
             302     9.75482E-03     57.4688E-03    -3.39856E+06    -49.3024E+06     7.65811E+06    -209.296E+03    -15.1804E-03     30.0608E-03    -14.8804E-03     39.0825E-03    -15.1432E-03     29.8143E-03    -14.7657E-03     39.0691E-03
             303     10.6418E-03     57.5071E-03    -2.12001E+06    -49.4276E+06     5.90905E+06    -22.8653E+03    -15.2962E-03     30.1654E-03    -14.8693E-03     43.4874E-03    -15.2534E-03     29.9225E-03    -14.7650E-03     43.4728E-03
             304     11.5284E-03     57.5497E-03    -1.09664E+06    -41.0288E+06     5.15956E+06     157.218E+03    -15.3709E-03     30.2216E-03    -14.8508E-03     48.4102E-03    -15.3400E-03     30.0262E-03    -14.7639E-03     48.3933E-03
             305     12.4155E-03     57.5970E-03    -982.869E+03    -32.3013E+06     5.22904E+06     104.409E+03    -15.5102E-03     30.3451E-03    -14.8350E-03     55.6946E-03    -15.5027E-03     30.2043E-03    -14.7605E-03     55.6709E-03
             306     13.3022E-03     57.6530E-03    -1.79258E+06    -29.0018E+06    -3.80580E+06     74.5405E+03    -15.6826E-03     30.4653E-03    -14.7827E-03     61.4002E-03    -15.6897E-03     30.3741E-03    -14.7571E-03     61.3692E-03
             307     14.1893E-03     57.7111E-03    -2.98055E+06    -8.29279E+06    -5.27834E+06    -50.3965E+03    -15.7674E-03     30.5115E-03    -14.7441E-03     66.2772E-03    -15.8373E-03     30.5568E-03    -14.7542E-03     66.2420E-03
             308     15.0754E-03     57.7760E-03    -3.33720E+06     26.7807E+06    -8.11482E+06    -802.667E+03    -16.3886E-03     31.0660E-03    -14.6774E-03     84.4349E-03    -16.6219E-03     31.4061E-03    -14.7520E-03     84.4072E-03
             309     15.9631E-03     57.8678E-03    -2.90926E+06     72.7491E+06    -20.6434E+06    -670.887E+03    -17.6917E-03     32.2370E-03    -14.5453E-03     119.409E-03    -18.5021E-03     33.3552E-03    -14.7498E-03     119.623E-03
             310     16.8492E-03     57.9989E-03    -1.92113E+06     129.648E+06     22.6740E+06     120.125E+03    -16.2571E-03     30.9200E-03    -14.6629E-03     102.565E-03    -17.3270E-03     32.3776E-03    -14.7347E-03     103.187E-03
             311     886.783E-06     58.2620E-03    -19.3296E+06    -68.6641E+06    -18.6646E+06    -21.7520E+03    -14.8383E-03     29.6790E-03    -14.8407E-03     3.32689E-03    -14.8084E-03     29.3908E-03    -14.8064E-03     3.32615E-03
             312     1.77353E-03     58.2664E-03    -18.4444E+06    -67.0932E+06    -16.0401E+06    -26.3217E+03    -14.8390E-03     29.6876E-03    -14.8485E-03     6.16713E-03    -14.8108E-03     29.4022E-03    -14.8047E-03     6.16592E-03
             313     2.66034E-03     58.2734E-03    -17.0453E+06    -65.0942E+06    -12.1250E+06    -90.1111E+03    -14.8381E-03     29.6981E-03    -14.8600E-03     9.20447E-03    -14.8115E-03     29.4151E-03    -14.8015E-03     9.20198E-03
             314     3.54710E-03     58.2835E-03    -15.2513E+06    -62.9472E+06    -7.46787E+06    -74.2721E+03    -14.8431E-03     29.7162E-03    -14.8731E-03     12.3506E-03    -14.8176E-03     29.4347E-03    -14.7970E-03     12.3478E-03
             315     4.43395E-03     58.2964E-03    -13.2765E+06    -61.0104E+06    -2.96996E+06    -93.8227E+03    -14.8566E-03     29.7416E-03    -14.8850E-03     15.6189E-03    -14.8307E-03     29.4606E-03    -14.7921E-03     15.6152E-03
             316     5.32071E-03     58.3125E-03    -11.2175E+06    -59.4273E+06     637.865E+03    -175.832E+03    -14.8817E-03     29.7746E-03    -14.8929E-03     19.0454E-03    -14.8533E-03     29.4936E-03    -14.7873E-03     19.0400E-03
             317     6.20758E-03     58.3317E-03    -9.23130E+06    -57.9929E+06     3.24736E+06    -174.833E+03    -14.9174E-03     29.8139E-03    -14.8965E-03     22.6647E-03    -14.8854E-03     29.5338E-03    -14.7828E-03     22.6586E-03
             318     7.09433E-03     58.3545E-03    -7.53453E+06    -55.9191E+06     5.25984E+06    -31.2570E+03    -14.9635E-03     29.8605E-03    -14.8970E-03     26.4915E-03    -14.9295E-03     29.5859E-03    -14.7787E-03     26.4862E-03
             319     7.98125E-03     58.3809E-03    -6.04481E+06    -54.8957E+06     6.81788E+06    -86.0121E+03    -15.0252E-03     29.9229E-03    -14.8977E-03     30.5094E-03    -14.9884E-03     29.6499E-03    -14.7752E-03     30.5020E-03
             320     8.86796E-03     58.4111E-03    -4.67481E+06    -51.7009E+06     7.07248E+06    -60.5028E+03    -15.0893E-03     29.9785E-03    -14.8892E-03     34.7366E-03    -15.0520E-03     29.7205E-03    -14.7721E-03     34.7277E-03
             321     9.75494E-03     58.4454E-03    -3.62335E+06    -48.8597E+06     7.69687E+06    -115.387E+03    -15.1715E-03     30.0552E-03    -14.8838E-03     39.1363E-03    -15.1361E-03     29.8112E-03    -14.7692E-03     39.1241E-03
             322     10.6416E-03     58.4838E-03    -2.83882E+06    -49.7282E+06     5.34663E+06    -496.978E+03    -15.2863E-03     30.1567E-03    -14.8704E-03     43.5758E-03    -15.2459E-03     29.9141E-03    -14.7674E-03     43.5551E-03
             323     11.5286E-03     58.5261E-03    -1.75432E+06    -41.2200E+06     4.44068E+06    -325.486E+03    -15.3877E-03     30.2386E-03    -14.8509E-03     48.4565E-03    -15.3588E-03     30.0443E-03    -14.7664E-03     48.4333E-03
             324     12.4153E-03     58.5736E-03    -1.17876E+06    -32.6753E+06     5.13011E+06     749.865E+03    -15.5037E-03     30.3419E-03    -14.8381E-03     55.6459E-03    -15.4965E-03     30.1996E-03    -14.7634E-03     55.6305E-03
             325     13.3022E-03     58.6296E-03    -1.33892E+06    -29.1727E+06    -3.94066E+06     909.770E+03    -15.6643E-03     30.4475E-03    -14.7832E-03     61.5649E-03    -15.6685E-03     30.3549E-03    -14.7587E-03     61.5448E-03
             326     14.1888E-03     58.6876E-03    -1.15288E+06    -7.19746E+06    -4.50260E+06     183.897E+03    -15.7373E-03     30.4804E-03    -14.7432E-03     66.4074E-03    -15.8008E-03     30.5274E-03    -14.7536E-03     66.3754E-03
             327     15.0766E-03     58.7527E-03    -1.92997E+06     27.6816E+06    -7.09399E+06    -216.616E+03    -16.2944E-03     30.9683E-03    -14.6739E-03     84.8836E-03    -16.5242E-03     31.3100E-03    -14.7467E-03     84.8642E-03
             328     15.9622E-03     58.8449E-03    -4.17401E+06     72.5120E+06    -20.6172E+06    -990.138E+03    -17.6119E-03     32.1483E-03    -14.5364E-03     120.003E-03    -18.4302E-03     33.2690E-03    -14.7385E-03     120.216E-03
             329     16.8503E-03     58.9749E-03    -3.42524E+06     128.727E+06     22.0434E+06    -850.784E+03    -16.3018E-03     30.9527E-03    -14.6509E-03     102.710E-03    -17.3782E-03     32.4100E-03    -14.7224E-03     103.319E-03
             330     886.755E-06     59.2386E-03    -19.3726E+06    -68.6594E+06    -18.7630E+06     18.3104E+03    -14.8471E-03     29.6913E-03    -14.8443E-03     3.33762E-03    -14.8172E-03     29.4034E-03    -14.8104E-03     3.33739E-03
             331     1.77355E-03     59.2429E-03    -18.4487E+06    -67.0204E+06    -16.0957E+06    -30.1239E+03    -14.8428E-03     29.6969E-03    -14.8540E-03     6.16845E-03    -14.8146E-03     29.4119E-03    -14.8106E-03     6.16720E-03
             332     2.66030E-03     59.2500E-03    -17.0465E+06    -65.0249E+06    -12.0891E+06    -51.8908E+03    -14.8431E-03     29.7086E-03    -14.8654E-03     9.20925E-03    -14.8167E-03     29.4258E-03    -14.8069E-03     9.20726E-03
             333     3.54712E-03     59.2600E-03    -15.3031E+06    -62.9722E+06    -7.50849E+06    -51.9553E+03    -14.8473E-03     29.7255E-03    -14.8782E-03     12.3553E-03    -14.8219E-03     29.4440E-03    -14.8022E-03     12.3528E-03
             334     4.43388E-03     59.2730E-03    -13.3275E+06    -60.9158E+06    -3.09783E+06    -60.6094E+03    -14.8593E-03     29.7485E-03    -14.8892E-03     15.6267E-03    -14.8336E-03     29.4682E-03    -14.7970E-03     15.6235E-03
             335     5.32073E-03     59.2890E-03    -11.3723E+06    -59.2405E+06     598.577E+03    -185.497E+03    -14.8836E-03     29.7808E-03    -14.8972E-03     19.0538E-03    -14.8562E-03     29.5010E-03    -14.7918E-03     19.0483E-03
             336     6.20750E-03     59.3083E-03    -9.46774E+06    -57.9888E+06     3.24646E+06    -284.042E+03    -14.9186E-03     29.8197E-03    -14.9011E-03     22.6707E-03    -14.8877E-03     29.5399E-03    -14.7870E-03     22.6631E-03
             337     7.09438E-03     59.3311E-03    -7.57292E+06    -56.1682E+06     5.12306E+06    -148.885E+03    -14.9626E-03     29.8631E-03    -14.9005E-03     26.5002E-03    -14.9282E-03     29.5876E-03    -14.7824E-03     26.4934E-03
             338     7.98113E-03     59.3575E-03    -5.94054E+06    -54.6520E+06     6.82935E+06    -79.4740E+03    -15.0229E-03     29.9233E-03    -14.9004E-03     30.5219E-03    -14.9860E-03     29.6514E-03    -14.7783E-03     30.5146E-03
             339     8.86806E-03     59.3877E-03    -4.54804E+06    -51.7756E+06     7.22224E+06    -208.806E+03    -15.0918E-03     29.9845E-03    -14.8926E-03     34.7528E-03    -15.0540E-03     29.7257E-03    -14.7748E-03     34.7420E-03
             340     9.75474E-03     59.4220E-03    -3.33256E+06    -48.9195E+06     7.72008E+06    -47.2581E+03    -15.1477E-03     30.0327E-03    -14.8850E-03     39.1379E-03    -15.1108E-03     29.7879E-03    -14.7707E-03     39.1266E-03
             341     10.6418E-03     59.4603E-03    -2.56181E+06    -48.8448E+06     5.75516E+06    -355.977E+03    -15.2480E-03     30.1174E-03    -14.8694E-03     43.5953E-03    -15.2080E-03     29.8783E-03    -14.7661E-03     43.5765E-03
             342     11.5284E-03     59.5028E-03    -2.61885E+06    -41.8672E+06     3.89452E+06    -319.681E+03    -15.3903E-03     30.2380E-03    -14.8477E-03     48.5902E-03    -15.3639E-03     30.0424E-03    -14.7637E-03     48.5671E-03
             343     12.4153E-03     59.5503E-03    -2.15081E+06    -34.0925E+06     4.16344E+06     159.590E+03    -15.5286E-03     30.3639E-03    -14.8353E-03     55.6328E-03    -15.5229E-03     30.2175E-03    -14.7619E-03     55.6097E-03
             344     13.3024E-03     59.6057E-03    -590.496E+03    -28.7722E+06    -4.19973E+06     233.175E+03    -15.6222E-03     30.4006E-03    -14.7784E-03     61.5515E-03    -15.6228E-03     30.3091E-03    -14.7568E-03     61.5228E-03
             345     14.1894E-03     59.6647E-03     277.113E+03    -6.13620E+06    -3.81983E+06    -160.949E+03    -15.7251E-03     30.4644E-03    -14.7393E-03     66.4196E-03    -15.7842E-03     30.5137E-03    -14.7499E-03     66.3832E-03
             346     15.0756E-03     59.7285E-03     554.514E+03     26.8873E+06    -6.26569E+06     366.529E+03    -16.0437E-03     30.7083E-03    -14.6645E-03     84.5096E-03    -16.2596E-03     31.0398E-03    -14.7357E-03     84.4995E-03
             347     15.9644E-03     59.8218E-03    -450.671E+03     73.5884E+06    -19.5758E+06     1.08767E+06    -17.2966E-03     31.8041E-03    -14.5074E-03     120.254E-03    -18.0961E-03     32.9199E-03    -14.7114E-03     120.496E-03
             348     16.8500E-03     59.9517E-03    -2.64637E+06     129.756E+06     22.2451E+06    -491.902E+03    -16.6147E-03     31.2358E-03    -14.6211E-03     102.799E-03    -17.6863E-03     32.6941E-03    -14.6942E-03     103.408E-03
             349     886.772E-06     60.2151E-03    -19.4074E+06    -68.6325E+06    -18.8041E+06    -21.1911E+03    -14.8535E-03     29.7006E-03    -14.8471E-03     3.34175E-03    -14.8237E-03     29.4129E-03    -14.8135E-03     3.34101E-03
             350     1.77351E-03     60.2195E-03    -18.4843E+06    -66.9424E+06    -16.1079E+06    -56.6759E+03    -14.8468E-03     29.7054E-03    -14.8586E-03     6.17260E-03    -14.8189E-03     29.4210E-03    -14.8153E-03     6.17100E-03
             351     2.66032E-03     60.2266E-03    -17.0385E+06    -65.0253E+06    -12.1323E+06    -50.9425E+03    -14.8464E-03     29.7160E-03    -14.8696E-03     9.21308E-03    -14.8199E-03     29.4334E-03    -14.8113E-03     9.21110E-03
             352     3.54707E-03     60.2366E-03    -15.1996E+06    -62.9280E+06    -7.49371E+06    -51.4882E+03    -14.8509E-03     29.7330E-03    -14.8821E-03     12.3592E-03    -14.8250E-03     29.4515E-03    -14.8063E-03     12.3567E-03
             353     4.43390E-03     60.2495E-03    -13.1877E+06    -60.9005E+06    -2.97027E+06    -64.3775E+03    -14.8630E-03     29.7565E-03    -14.8935E-03     15.6309E-03    -14.8369E-03     29.4759E-03    -14.8009E-03     15.6277E-03
             354     5.32067E-03     60.2656E-03    -11.1616E+06    -59.0259E+06     853.101E+03    -108.396E+03    -14.8861E-03     29.7876E-03    -14.9015E-03     19.0584E-03    -14.8583E-03     29.5082E-03    -14.7955E-03     19.0540E-03
             355     6.20753E-03     60.2849E-03    -9.31298E+06    -57.8321E+06     3.52643E+06    -273.814E+03    -14.9219E-03     29.8275E-03    -14.9055E-03     22.6722E-03    -14.8909E-03     29.5479E-03    -14.7905E-03     22.6648E-03
             356     7.09429E-03     60.3077E-03    -7.60904E+06    -56.2964E+06     5.19579E+06    -345.860E+03    -14.9629E-03     29.8673E-03    -14.9044E-03     26.5007E-03    -14.9287E-03     29.5911E-03    -14.7858E-03     26.4914E-03
             357     7.98119E-03     60.3341E-03    -5.91309E+06    -54.6594E+06     6.70142E+06    -238.211E+03    -15.0181E-03     29.9205E-03    -14.9024E-03     30.5335E-03    -14.9808E-03     29.6487E-03    -14.7810E-03     30.5242E-03
             358     8.86794E-03     60.3643E-03    -4.54612E+06    -51.6066E+06     7.36355E+06    -227.992E+03    -15.0824E-03     29.9772E-03    -14.8948E-03     34.7509E-03    -15.0450E-03     29.7191E-03    -14.7766E-03     34.7398E-03
             359     9.75492E-03     60.3986E-03    -3.26017E+06    -48.9584E+06     7.90484E+06    -369.337E+03    -15.1540E-03     30.0414E-03    -14.8873E-03     39.1058E-03    -15.1170E-03     29.7960E-03    -14.7721E-03     39.0903E-03
             360     10.6416E-03     60.4368E-03    -2.35450E+06    -48.8167E+06     5.91923E+06    -1.80024E+03    -15.2488E-03     30.1204E-03    -14.8716E-03     43.5267E-03    -15.2081E-03     29.8809E-03    -14.7678E-03     43.5124E-03
             361     11.5287E-03     60.4794E-03    -2.26133E+06    -42.0415E+06     4.52671E+06     311.754E+03    -15.3173E-03     30.1669E-03    -14.8496E-03     48.4737E-03    -15.2898E-03     29.9690E-03    -14.7627E-03     48.4589E-03
             362     12.4155E-03     60.5269E-03    -1.96070E+06    -33.8851E+06     4.20364E+06    -567.092E+03    -15.5576E-03     30.3899E-03    -14.8323E-03     55.6413E-03    -15.5514E-03     30.2443E-03    -14.7593E-03     55.6087E-03
             363     13.3019E-03     60.5824E-03    -1.34320E+06    -28.5667E+06    -4.50292E+06    -999.733E+03    -15.7190E-03     30.4987E-03    -14.7797E-03     61.3205E-03    -15.7235E-03     30.4101E-03    -14.7588E-03     61.2754E-03
             364     14.1891E-03     60.6406E-03    -1.40083E+06    -6.86244E+06    -4.56305E+06    -432.323E+03    -15.6636E-03     30.4065E-03    -14.7429E-03     66.3127E-03    -15.7289E-03     30.4557E-03    -14.7537E-03     66.2729E-03
             365     15.0765E-03     60.7062E-03    -1.81171E+06     26.3262E+06    -7.29167E+06    -255.792E+03    -16.2542E-03     30.9274E-03    -14.6732E-03     83.7051E-03    -16.4796E-03     31.2610E-03    -14.7452E-03     83.6851E-03
             366     15.9630E-03     60.7956E-03    -1.34135E+06     73.0200E+06    -19.9848E+06     519.698E+03    -17.2690E-03     31.7950E-03    -14.5260E-03     118.576E-03    -18.0662E-03     32.9046E-03    -14.7298E-03     118.811E-03
             367     16.8521E-03     60.9304E-03    -1.41774E+06     130.222E+06     22.9456E+06     788.473E+03    -16.3507E-03     30.9865E-03    -14.6358E-03     102.239E-03    -17.4137E-03     32.4402E-03    -14.7079E-03     102.868E-03
             368     886.747E-06     61.1917E-03    -19.4592E+06    -68.5516E+06     -18.848E+06    -64.9406E+03    -14.8574E-03     29.7077E-03    -14.8503E-03     3.34402E-03    -14.8280E-03     29.4205E-03    -14.8169E-03     3.34272E-03
             369     1.77353E-03     61.1960E-03    -18.5308E+06    -66.8706E+06    -16.1688E+06    -79.0989E+03    -14.8501E-03     29.7122E-03    -14.8620E-03     6.17370E-03    -14.8225E-03     29.4282E-03    -14.8190E-03     6.17182E-03
             370     2.66028E-03     61.2032E-03    -17.0715E+06    -64.9744E+06    -12.1775E+06    -121.600E+03    -14.8493E-03     29.7223E-03    -14.8730E-03     9.21506E-03    -14.8229E-03     29.4400E-03    -14.8149E-03     9.21217E-03
             371     3.54709E-03     61.2131E-03    -15.2050E+06    -62.8968E+06    -7.46720E+06    -134.026E+03    -14.8539E-03     29.7396E-03    -14.8857E-03     12.3623E-03    -14.8282E-03     29.4583E-03    -14.8098E-03     12.3587E-03
             372     4.43385E-03     61.2261E-03    -13.0875E+06    -60.8488E+06    -2.84227E+06    -146.291E+03    -14.8665E-03     29.7638E-03    -14.8973E-03     15.6333E-03    -14.8401E-03     29.4832E-03    -14.8043E-03     15.6290E-03
             373     5.32069E-03     61.2422E-03    -10.9885E+06    -59.0069E+06     907.466E+03    -120.906E+03    -14.8882E-03     29.7929E-03    -14.9048E-03     19.0611E-03    -14.8596E-03     29.5133E-03    -14.7987E-03     19.0565E-03
             374     6.20747E-03     61.2615E-03    -9.16619E+06    -57.6426E+06     3.64974E+06    -90.7724E+03    -14.9230E-03     29.8316E-03    -14.9086E-03     22.6745E-03    -14.8917E-03     29.5525E-03    -14.7935E-03     22.6695E-03
             375     7.09433E-03     61.2842E-03    -7.64452E+06    -56.1102E+06     5.42805E+06    -281.437E+03    -14.9668E-03     29.8751E-03    -14.9082E-03     26.4956E-03    -14.9333E-03     29.5995E-03    -14.7886E-03     26.4870E-03
             376     7.98110E-03     61.3107E-03    -6.22923E+06    -54.7377E+06     6.55525E+06    -399.133E+03    -15.0161E-03     29.9211E-03    -14.9050E-03     30.5274E-03    -14.9800E-03     29.6496E-03    -14.7838E-03     30.5160E-03
             377     8.86802E-03     61.3409E-03    -4.81761E+06    -51.5167E+06     7.09370E+06    -309.620E+03    -15.0800E-03     29.9761E-03    -14.8962E-03     34.7378E-03    -15.0437E-03     29.7193E-03    -14.7790E-03     34.7257E-03
             378     9.75475E-03     61.3751E-03    -3.82296E+06    -48.8511E+06     7.67079E+06    -357.602E+03    -15.1630E-03     30.0525E-03    -14.8895E-03     39.0891E-03    -15.1286E-03     29.8089E-03    -14.7748E-03     39.0738E-03
             379     10.6417E-03     61.4135E-03    -2.96473E+06    -49.7286E+06     5.35184E+06    -49.4373E+03    -15.2746E-03     30.1496E-03    -14.8750E-03     43.5372E-03    -15.2348E-03     29.9072E-03    -14.7718E-03     43.5223E-03
             380     11.5283E-03     61.4559E-03    -1.80456E+06    -41.9666E+06     4.44336E+06     253.876E+03    -15.3665E-03     30.2216E-03    -14.8550E-03     48.3731E-03    -15.3368E-03     30.0235E-03    -14.7693E-03     48.3574E-03
             381     12.4154E-03     61.5033E-03    -834.090E+03    -31.9343E+06     4.93469E+06    -459.702E+03    -15.4949E-03     30.3322E-03    -14.8373E-03     55.5621E-03    -15.4868E-03     30.1935E-03    -14.7651E-03     55.5311E-03
             382     13.3024E-03     61.5595E-03    -1.82584E+06    -28.9654E+06    -4.77185E+06    -871.252E+03    -15.7106E-03     30.4932E-03    -14.7826E-03     61.3498E-03    -15.7165E-03     30.4037E-03    -14.7619E-03     61.3064E-03
             383     14.1887E-03     61.6169E-03    -2.97562E+06    -8.51206E+06    -5.82975E+06    -222.271E+03    -15.7989E-03     30.5469E-03    -14.7480E-03     66.3008E-03    -15.8679E-03     30.5920E-03    -14.7605E-03     66.2633E-03
             384     15.0759E-03     61.6822E-03    -2.94390E+06     27.2317E+06    -7.68996E+06    -327.051E+03    -16.5546E-03     31.2446E-03    -14.6900E-03     84.3205E-03    -16.7886E-03     31.5872E-03    -14.7637E-03     84.2982E-03
             385     15.9613E-03     61.7745E-03    -4.12827E+06     72.1755E+06    -21.1270E+06    -614.839E+03    -17.6409E-03     32.2027E-03    -14.5618E-03     118.551E-03    -18.4528E-03     33.3175E-03    -14.7661E-03     118.768E-03
             386     16.8479E-03     61.9020E-03    -2.46605E+06     129.314E+06     22.0556E+06     389.776E+03    -15.9564E-03     30.6257E-03    -14.6693E-03     103.487E-03    -17.0348E-03     32.0904E-03    -14.7429E-03     104.121E-03
             387     886.767E-06     62.1683E-03    -19.5213E+06    -68.3996E+06    -18.8905E+06    -80.1954E+03    -14.8567E-03     29.7136E-03    -14.8568E-03     3.34333E-03    -14.8278E-03     29.4273E-03    -14.8238E-03     3.34183E-03
             388     1.77350E-03     62.1727E-03    -18.5713E+06    -66.7855E+06    -16.2085E+06    -135.765E+03    -14.8525E-03     29.7175E-03    -14.8650E-03     6.17611E-03    -14.8251E-03     29.4341E-03    -14.8222E-03     6.17349E-03
             389     2.66030E-03     62.1798E-03    -17.1141E+06    -64.8641E+06    -12.1270E+06    -163.936E+03    -14.8526E-03     29.7289E-03    -14.8763E-03     9.21721E-03    -14.8267E-03     29.4471E-03    -14.8180E-03     9.21378E-03
             390     3.54705E-03     62.1898E-03    -15.3035E+06    -62.8613E+06    -7.47690E+06    -186.122E+03    -14.8565E-03     29.7455E-03    -14.8890E-03     12.3642E-03    -14.8314E-03     29.4646E-03    -14.8130E-03     12.3600E-03
             391     4.43387E-03     62.2027E-03    -13.3304E+06    -60.7609E+06    -3.08823E+06    -205.291E+03    -14.8671E-03     29.7665E-03    -14.8994E-03     15.6362E-03    -14.8417E-03     29.4870E-03    -14.8074E-03     15.6312E-03
             392     5.32064E-03     62.2188E-03    -11.2840E+06    -59.0537E+06     658.069E+03    -191.922E+03    -14.8891E-03     29.7960E-03    -14.9069E-03     19.0626E-03    -14.8617E-03     29.5169E-03    -14.8016E-03     19.0571E-03
             393     6.20749E-03     62.2381E-03    -9.25369E+06    -57.7033E+06     3.51113E+06    -76.4529E+03    -14.9234E-03     29.8341E-03    -14.9107E-03     22.6743E-03    -14.8922E-03     29.5551E-03    -14.7961E-03     22.6694E-03
             394     7.09427E-03     62.2609E-03    -7.51036E+06    -55.8092E+06     5.56292E+06    -79.2427E+03    -14.9707E-03     29.8815E-03    -14.9108E-03     26.4951E-03    -14.9371E-03     29.6070E-03    -14.7912E-03     26.4891E-03
             395     7.98112E-03     62.2872E-03    -6.14056E+06    -54.5566E+06     6.72064E+06    -298.903E+03    -15.0250E-03     29.9335E-03    -14.9084E-03     30.5113E-03    -14.9890E-03     29.6625E-03    -14.7868E-03     30.5011E-03
             396     8.86790E-03     62.3175E-03    -5.00064E+06    -51.6851E+06     6.78115E+06    -323.461E+03    -15.0802E-03     29.9785E-03    -14.8983E-03     34.7396E-03    -15.0441E-03     29.7215E-03    -14.7822E-03     34.7273E-03
             397     9.75482E-03     62.3517E-03    -4.06273E+06    -48.8724E+06     7.37179E+06    -41.8587E+03    -15.1649E-03     30.0563E-03    -14.8914E-03     39.1090E-03    -15.1313E-03     29.8134E-03    -14.7778E-03     39.0977E-03
             398     10.6415E-03     62.3900E-03    -3.22642E+06    -49.8147E+06     5.05373E+06    -326.835E+03    -15.2899E-03     30.1674E-03    -14.8775E-03     43.5410E-03    -15.2509E-03     29.9254E-03    -14.7753E-03     43.5225E-03
             399     11.5286E-03     62.4326E-03    -2.05051E+06    -41.4242E+06     3.94492E+06    -860.001E+03    -15.3966E-03     30.2536E-03    -14.8570E-03     48.5101E-03    -15.3682E-03     30.0594E-03    -14.7742E-03     48.4800E-03
             400     12.4149E-03     62.4800E-03    -815.121E+03    -31.7688E+06     4.98404E+06    -305.896E+03    -15.5149E-03     30.3585E-03    -14.8435E-03     55.6344E-03    -15.5070E-03     30.2205E-03    -14.7714E-03     55.6054E-03
             401     13.3021E-03     62.5355E-03    -1.21914E+06    -29.5440E+06    -4.52633E+06     319.283E+03    -15.6478E-03     30.4360E-03    -14.7882E-03     61.3071E-03    -15.6499E-03     30.3420E-03    -14.7662E-03     61.2794E-03
             402     14.1893E-03     62.5942E-03    -1.71078E+06    -8.24212E+06    -5.36710E+06    -308.902E+03    -15.8547E-03     30.6061E-03    -14.7515E-03     66.4233E-03    -15.9186E-03     30.6503E-03    -14.7639E-03     66.3845E-03
             403     15.0754E-03     62.6588E-03    -1.47506E+06     26.8426E+06    -7.63173E+06    -95.6618E+03    -16.2767E-03     30.9610E-03    -14.6844E-03     84.9016E-03    -16.5013E-03     31.2979E-03    -14.7593E-03     84.8845E-03
             404     15.9637E-03     62.7515E-03    -2.53712E+06     72.7350E+06    -20.7633E+06     279.786E+03    -17.5497E-03     32.0931E-03    -14.5434E-03     119.375E-03    -18.3560E-03     33.2088E-03    -14.7490E-03     119.602E-03
             405     16.8506E-03     62.8797E-03    -2.47877E+06     129.737E+06     22.0886E+06    -175.039E+03    -16.2893E-03     30.9459E-03    -14.6566E-03     103.721E-03    -17.3709E-03     32.4152E-03    -14.7307E-03     104.343E-03
             406     886.737E-06     63.1449E-03    -19.5729E+06    -68.2328E+06    -18.9313E+06    -75.7744E+03    -14.8520E-03     29.7167E-03    -14.8647E-03     3.34546E-03    -14.8235E-03     29.4314E-03    -14.8320E-03     3.34403E-03
             407     1.77353E-03     63.1492E-03    -18.6829E+06    -66.6529E+06    -16.2113E+06    -132.803E+03    -14.8551E-03     29.7223E-03    -14.8672E-03     6.17849E-03    -14.8285E-03     29.4397E-03    -14.8245E-03     6.17591E-03
             408     2.66026E-03     63.1564E-03    -17.2759E+06    -64.7909E+06    -12.2697E+06    -158.334E+03    -14.8550E-03     29.7333E-03    -14.8783E-03     9.21951E-03    -14.8298E-03     29.4523E-03    -14.8207E-03     9.21615E-03
             409     3.54707E-03     63.1663E-03    -15.4458E+06    -62.7250E+06    -7.64666E+06    -218.191E+03    -14.8583E-03     29.7491E-03    -14.8908E-03     12.3665E-03    -14.8338E-03     29.4693E-03    -14.8157E-03     12.3618E-03
             410     4.43383E-03     63.1793E-03    -13.3691E+06    -60.7522E+06    -3.10865E+06    -227.025E+03    -14.8694E-03     29.7713E-03    -14.9019E-03     15.6370E-03    -14.8441E-03     29.4920E-03    -14.8100E-03     15.6317E-03
             411     5.32066E-03     63.1954E-03    -11.3656E+06    -59.0269E+06     607.797E+03    -180.722E+03    -14.8910E-03     29.8003E-03    -14.9093E-03     19.0625E-03    -14.8639E-03     29.5215E-03    -14.8042E-03     19.0571E-03
             412     6.20743E-03     63.2147E-03    -9.46340E+06    -57.7595E+06     3.23049E+06    -218.134E+03    -14.9259E-03     29.8382E-03    -14.9123E-03     22.6761E-03    -14.8953E-03     29.5596E-03    -14.7987E-03     22.6694E-03
             413     7.09429E-03     63.2374E-03    -7.56657E+06    -55.7592E+06     5.21896E+06    -168.710E+03    -14.9687E-03     29.8802E-03    -14.9115E-03     26.5014E-03    -14.9350E-03     29.6066E-03    -14.7935E-03     26.4944E-03
             414     7.98107E-03     63.2639E-03    -5.97077E+06    -54.3821E+06     6.74729E+06    -116.349E+03    -15.0286E-03     29.9388E-03    -14.9102E-03     30.5202E-03    -14.9921E-03     29.6684E-03    -14.7889E-03     30.5124E-03
             415     8.86792E-03     63.2940E-03    -4.79965E+06    -51.6841E+06     6.92724E+06    -196.165E+03    -15.0873E-03     29.9884E-03    -14.9011E-03     34.7331E-03    -15.0504E-03     29.7309E-03    -14.7845E-03     34.7224E-03
             416     9.75475E-03     63.3283E-03    -3.54787E+06    -49.1257E+06     7.41789E+06    -115.976E+03    -15.1672E-03     30.0609E-03    -14.8937E-03     39.1422E-03    -15.1307E-03     29.8158E-03    -14.7802E-03     39.1299E-03
             417     10.6416E-03     63.3667E-03    -2.44882E+06    -48.7290E+06     5.69031E+06    -446.303E+03    -15.2890E-03     30.1690E-03    -14.8800E-03     43.5945E-03    -15.2486E-03     29.9304E-03    -14.7773E-03     43.5745E-03
             418     11.5282E-03     63.4091E-03    -2.35613E+06    -40.9931E+06     4.15760E+06    -994.757E+03    -15.3550E-03     30.2132E-03    -14.8582E-03     48.4962E-03    -15.3290E-03     30.0212E-03    -14.7745E-03     48.4644E-03
             419     12.4157E-03     63.4566E-03    -2.47241E+06    -33.4745E+06     4.01750E+06    -552.952E+03    -15.5196E-03     30.3623E-03    -14.8427E-03     55.6671E-03    -15.5161E-03     30.2195E-03    -14.7705E-03     55.6350E-03
             420     13.3019E-03     63.5124E-03    -1.30818E+06    -29.1340E+06    -4.43462E+06     65.3985E+03    -15.7159E-03     30.5055E-03    -14.7897E-03     61.4674E-03    -15.7195E-03     30.4140E-03    -14.7677E-03     61.4362E-03
             421     14.1886E-03     63.5702E-03    -1.38151E+06    -7.66871E+06    -5.02492E+06     40.4332E+03    -15.6885E-03     30.4386E-03    -14.7501E-03     66.6230E-03    -15.7521E-03     30.4847E-03    -14.7621E-03     66.5893E-03
             422     15.0763E-03     63.6362E-03    -2.52685E+06     26.2144E+06    -7.79409E+06    -271.159E+03    -16.0571E-03     30.7308E-03    -14.6737E-03     84.3519E-03    -16.2832E-03     31.0636E-03    -14.7470E-03     84.3328E-03
             423     15.9630E-03     63.7260E-03    -2.22348E+06     72.7975E+06    -20.2907E+06    -327.699E+03    -17.3955E-03     31.9197E-03    -14.5242E-03     119.053E-03    -18.1995E-03     33.0332E-03    -14.7280E-03     119.274E-03
             424     16.8498E-03     63.8585E-03    -2.00400E+06     129.831E+06     22.5461E+06     189.363E+03    -16.4890E-03     31.1288E-03    -14.6398E-03     102.646E-03    -17.5610E-03     32.5892E-03    -14.7124E-03     103.265E-03
             425     886.771E-06     64.1215E-03    -19.7240E+06    -68.1227E+06    -19.0310E+06    -38.8550E+03    -14.8554E-03     29.7196E-03    -14.8641E-03     3.34686E-03    -14.8277E-03     29.4352E-03    -14.8319E-03     3.34590E-03
             426     1.77349E-03     64.1259E-03    -18.8078E+06    -66.5369E+06    -16.3177E+06    -68.1193E+03    -14.8564E-03     29.7250E-03    -14.8687E-03     6.17960E-03    -14.8303E-03     29.4433E-03    -14.8265E-03     6.17786E-03
             427     2.66029E-03     64.1330E-03    -17.3631E+06    -64.6564E+06    -12.3820E+06    -160.091E+03    -14.8564E-03     29.7360E-03    -14.8796E-03     9.22091E-03    -14.8317E-03     29.4560E-03    -14.8226E-03     9.21753E-03
             428     3.54703E-03     64.1430E-03    -15.5599E+06    -62.5833E+06    -7.72155E+06    -231.034E+03    -14.8601E-03     29.7525E-03    -14.8924E-03     12.3684E-03    -14.8363E-03     29.4737E-03    -14.8177E-03     12.3636E-03
             429     4.43385E-03     64.1559E-03    -13.5570E+06    -60.6900E+06    -3.22816E+06    -287.959E+03    -14.8711E-03     29.7747E-03    -14.9036E-03     15.6386E-03    -14.8467E-03     29.4961E-03    -14.8121E-03     15.6325E-03
             430     5.32061E-03     64.1720E-03    -11.4449E+06    -59.1230E+06     391.243E+03    -205.213E+03    -14.8928E-03     29.8033E-03    -14.9106E-03     19.0658E-03    -14.8656E-03     29.5245E-03    -14.8063E-03     19.0601E-03
             431     6.20746E-03     64.1913E-03    -9.49897E+06    -57.4967E+06     3.05895E+06    -260.383E+03    -14.9257E-03     29.8387E-03    -14.9130E-03     22.6831E-03    -14.8954E-03     29.5618E-03    -14.8006E-03     22.6759E-03
             432     7.09423E-03     64.2140E-03    -7.74972E+06    -55.8390E+06     4.90723E+06    -398.400E+03    -14.9669E-03     29.8788E-03    -14.9119E-03     26.5079E-03    -14.9335E-03     29.6054E-03    -14.7951E-03     26.4978E-03
             433     7.98110E-03     64.2404E-03    -6.05488E+06    -54.5205E+06     6.53219E+06    -212.612E+03    -15.0209E-03     29.9313E-03    -14.9103E-03     30.5318E-03    -14.9843E-03     29.6606E-03    -14.7898E-03     30.5228E-03
             434     8.86790E-03     64.2707E-03    -4.52199E+06    -51.3717E+06     7.17570E+06    -232.893E+03    -15.1009E-03     30.0034E-03    -14.9025E-03     34.7472E-03    -15.0635E-03     29.7467E-03    -14.7855E-03     34.7361E-03
             435     9.75473E-03     64.3048E-03    -3.18181E+06    -49.1085E+06     7.63584E+06    -558.580E+03    -15.1604E-03     30.0558E-03    -14.8954E-03     39.1460E-03    -15.1224E-03     29.8100E-03    -14.7814E-03     39.1281E-03
             436     10.6416E-03     64.3433E-03    -2.24165E+06    -48.4538E+06     5.85631E+06    -346.755E+03    -15.2469E-03     30.1260E-03    -14.8791E-03     43.6533E-03    -15.2060E-03     29.8882E-03    -14.7763E-03     43.6346E-03
             437     11.5286E-03     64.3857E-03    -1.96352E+06    -40.9719E+06     4.62895E+06    -134.527E+03    -15.3946E-03     30.2531E-03    -14.8586E-03     48.5215E-03    -15.3673E-03     30.0600E-03    -14.7732E-03     48.5008E-03
             438     12.4148E-03     64.4331E-03    -1.66300E+06    -33.5051E+06     4.29408E+06    -675.156E+03    -15.4974E-03     30.3397E-03    -14.8423E-03     55.5626E-03    -15.4901E-03     30.1951E-03    -14.7698E-03     55.5290E-03
             439     13.3025E-03     64.4889E-03    -1.64602E+06    -29.3285E+06    -4.51494E+06    -703.515E+03    -15.6080E-03     30.3932E-03    -14.7852E-03     61.5174E-03    -15.6127E-03     30.3011E-03    -14.7628E-03     61.4765E-03
             440     14.1891E-03     64.5472E-03    -1.68083E+06    -8.54737E+06    -5.05853E+06     423.606E+03    -15.6133E-03     30.3547E-03    -14.7414E-03     66.5518E-03    -15.6765E-03     30.3963E-03    -14.7519E-03     66.5233E-03
             441     15.0761E-03     64.6115E-03    -2.26042E+06     27.4526E+06    -7.31319E+06     501.644E+03    -16.1625E-03     30.8273E-03    -14.6648E-03     84.5131E-03    -16.3909E-03     31.1664E-03    -14.7379E-03     84.5035E-03
             442     15.9630E-03     64.7039E-03    -4.25926E+06     72.9652E+06    -20.9204E+06    -751.196E+03    -17.5134E-03     32.0344E-03    -14.5210E-03     119.329E-03    -18.3254E-03     33.1510E-03    -14.7252E-03     119.543E-03
             443     16.8508E-03     64.8334E-03    -3.66967E+06     128.632E+06     21.1804E+06    -551.341E+03    -16.3802E-03     31.0149E-03    -14.6347E-03     102.977E-03    -17.4562E-03     32.4731E-03    -14.7100E-03     103.590E-03
             444     886.726E-06     65.0981E-03    -19.8718E+06    -68.0414E+06    -19.2424E+06    -46.5772E+03    -14.8619E-03     29.7221E-03    -14.8602E-03     3.34654E-03    -14.8347E-03     29.4386E-03    -14.8289E-03     3.34548E-03
             445     1.77352E-03     65.1025E-03    -18.8686E+06    -66.4475E+06    -16.4457E+06    -83.1643E+03    -14.8568E-03     29.7266E-03    -14.8697E-03     6.18185E-03    -14.8311E-03     29.4456E-03    -14.8282E-03     6.17991E-03
             446     2.66025E-03     65.1096E-03    -17.4186E+06    -64.4768E+06    -12.3776E+06    -145.029E+03    -14.8570E-03     29.7379E-03    -14.8809E-03     9.22274E-03    -14.8328E-03     29.4589E-03    -14.8241E-03     9.21956E-03
             447     3.54706E-03     65.1196E-03    -15.6119E+06    -62.4638E+06    -7.79146E+06    -225.312E+03    -14.8607E-03     29.7540E-03    -14.8933E-03     12.3701E-03    -14.8372E-03     29.4759E-03    -14.8190E-03     12.3654E-03
             448     4.43381E-03     65.1325E-03    -13.6177E+06    -60.5474E+06    -3.39380E+06    -278.054E+03    -14.8716E-03     29.7755E-03    -14.9039E-03     15.6420E-03    -14.8475E-03     29.4980E-03    -14.8133E-03     15.6360E-03
             449     5.32064E-03     65.1486E-03    -11.5156E+06    -59.0805E+06     213.927E+03    -420.569E+03    -14.8928E-03     29.8037E-03    -14.9108E-03     19.0712E-03    -14.8658E-03     29.5254E-03    -14.8074E-03     19.0627E-03
             450     6.20742E-03     65.1679E-03    -9.40042E+06    -57.3855E+06     2.98082E+06    -395.276E+03    -14.9234E-03     29.8366E-03    -14.9131E-03     22.6901E-03    -14.8927E-03     29.5601E-03    -14.8014E-03     22.6812E-03
             451     7.09428E-03     65.1906E-03    -7.66800E+06    -55.6974E+06     5.04541E+06    -392.134E+03    -14.9664E-03     29.8792E-03    -14.9127E-03     26.5105E-03    -14.9331E-03     29.6062E-03    -14.7956E-03     26.5005E-03
             452     7.98106E-03     65.2170E-03    -6.14164E+06    -54.6314E+06     6.43961E+06    -487.752E+03    -15.0220E-03     29.9326E-03    -14.9106E-03     30.5333E-03    -14.9854E-03     29.6616E-03    -14.7903E-03     30.5208E-03
             453     8.86793E-03     65.2472E-03    -4.65615E+06    -51.2862E+06     7.00059E+06    -442.137E+03    -15.0874E-03     29.9889E-03    -14.9015E-03     34.7817E-03    -15.0505E-03     29.7331E-03    -14.7854E-03     34.7678E-03
             454     9.75471E-03     65.2815E-03    -3.58435E+06    -48.6780E+06     7.64429E+06    -614.112E+03    -15.1577E-03     30.0522E-03    -14.8946E-03     39.1203E-03    -15.1223E-03     29.8091E-03    -14.7806E-03     39.1017E-03
             455     10.6417E-03     65.3196E-03    -2.77243E+06    -48.9484E+06     5.48972E+06    -594.264E+03    -15.2564E-03     30.1349E-03    -14.8785E-03     43.6188E-03    -15.2170E-03     29.8960E-03    -14.7761E-03     43.5970E-03
             456     11.5283E-03     65.3625E-03    -1.29238E+06    -40.8904E+06     4.94088E+06    -344.267E+03    -15.3441E-03     30.2014E-03    -14.8573E-03     48.5466E-03    -15.3140E-03     30.0072E-03    -14.7714E-03     48.5233E-03
             457     12.4156E-03     65.4099E-03    -1.08623E+06    -32.9841E+06     4.88712E+06    -76.0994E+03    -15.4821E-03     30.3215E-03    -14.8395E-03     55.5815E-03    -15.4736E-03     30.1779E-03    -14.7656E-03     55.5555E-03
             458     13.3019E-03     65.4650E-03    -1.75238E+06    -30.2758E+06    -4.58852E+06    -75.5162E+03    -15.5507E-03     30.3307E-03    -14.7800E-03     61.4666E-03    -15.5542E-03     30.2338E-03    -14.7565E-03     61.4340E-03
             459     14.1894E-03     65.5237E-03    -1.23218E+06    -8.38689E+06    -4.77910E+06    -549.134E+03    -15.6715E-03     30.4075E-03    -14.7360E-03     66.3522E-03    -15.7330E-03     30.4488E-03    -14.7460E-03     66.3110E-03
             460     15.0764E-03     65.5881E-03    -127.451E+03     27.1051E+06    -6.81137E+06     335.724E+03    -16.1408E-03     30.8015E-03    -14.6607E-03     84.1366E-03    -16.3582E-03     31.1344E-03    -14.7339E-03     84.1251E-03
             461     15.9636E-03     65.6804E-03    -446.808E+03     73.7262E+06    -19.4100E+06     1.26779E+06    -17.2723E-03     31.7825E-03    -14.5101E-03     119.492E-03    -18.0641E-03     32.8907E-03    -14.7134E-03     119.733E-03
             462     16.8497E-03     65.8101E-03    -2.68021E+06     129.585E+06     21.9086E+06    -283.707E+03    -16.5523E-03     31.1724E-03    -14.6201E-03     103.680E-03    -17.6263E-03     32.6333E-03    -14.6946E-03     104.296E-03
             463     886.774E-06     66.0747E-03    -20.0302E+06    -67.8820E+06    -19.4180E+06    -96.3514E+03    -14.8608E-03     29.7234E-03    -14.8626E-03     3.34351E-03    -14.8344E-03     29.4413E-03    -14.8322E-03     3.34180E-03
             464     1.77348E-03     66.0791E-03    -19.0949E+06    -66.3508E+06    -16.6773E+06    -148.577E+03    -14.8568E-03     29.7269E-03    -14.8701E-03     6.18228E-03    -14.8320E-03     29.4471E-03    -14.8296E-03     6.17950E-03
             465     2.66028E-03     66.0862E-03    -17.6084E+06    -64.3706E+06    -12.6462E+06    -152.565E+03    -14.8552E-03     29.7358E-03    -14.8806E-03     9.22532E-03    -14.8317E-03     29.4580E-03    -14.8250E-03     9.22203E-03
             466     3.54702E-03     66.0962E-03    -15.7734E+06    -62.2526E+06    -8.02477E+06    -253.406E+03    -14.8590E-03     29.7514E-03    -14.8925E-03     12.3733E-03    -14.8362E-03     29.4750E-03    -14.8194E-03     12.3682E-03
             467     4.43385E-03     66.1091E-03    -13.6851E+06    -60.4364E+06    -3.56015E+06    -358.999E+03    -14.8705E-03     29.7736E-03    -14.9032E-03     15.6462E-03    -14.8466E-03     29.4969E-03    -14.8135E-03     15.6392E-03
             468     5.32061E-03     66.1252E-03    -11.6289E+06    -58.7082E+06     214.745E+03    -517.367E+03    -14.8908E-03     29.8012E-03    -14.9104E-03     19.0751E-03    -14.8649E-03     29.5250E-03    -14.8073E-03     19.0654E-03
             469     6.20746E-03     66.1445E-03    -9.68436E+06    -57.4578E+06     2.85974E+06    -648.929E+03    -14.9219E-03     29.8348E-03    -14.9129E-03     22.6919E-03    -14.8923E-03     29.5585E-03    -14.8012E-03     22.6797E-03
             470     7.09424E-03     66.1672E-03    -7.74045E+06    -55.6268E+06     4.90198E+06    -498.260E+03    -14.9651E-03     29.8769E-03    -14.9118E-03     26.5154E-03    -14.9320E-03     29.6047E-03    -14.7954E-03     26.5041E-03
             471     7.98110E-03     66.1936E-03    -6.10414E+06    -54.3952E+06     6.53148E+06    -583.134E+03    -15.0248E-03     29.9354E-03    -14.9106E-03     30.5395E-03    -14.9886E-03     29.6654E-03    -14.7902E-03     30.5257E-03
             472     8.86787E-03     66.2238E-03    -4.79941E+06    -51.4191E+06     6.90817E+06    -608.599E+03    -15.0720E-03     29.9728E-03    -14.9008E-03     34.7637E-03    -15.0355E-03     29.7167E-03    -14.7847E-03     34.7477E-03
             473     9.75484E-03     66.2580E-03    -3.70337E+06    -48.4055E+06     7.52220E+06    -443.854E+03    -15.1777E-03     30.0711E-03    -14.8934E-03     39.1288E-03    -15.1431E-03     29.8297E-03    -14.7802E-03     39.1124E-03
             474     10.6415E-03     66.2964E-03    -2.97419E+06    -48.6652E+06     5.38409E+06    -729.380E+03    -15.2913E-03     30.1712E-03    -14.8799E-03     43.5776E-03    -15.2532E-03     29.9341E-03    -14.7781E-03     43.5539E-03
             475     11.5285E-03     66.3389E-03    -2.81906E+06    -41.5032E+06     3.98877E+06    -633.418E+03    -15.2380E-03     30.0935E-03    -14.8554E-03     48.4215E-03    -15.2131E-03     29.8997E-03    -14.7712E-03     48.3947E-03
             476     12.4153E-03     66.3861E-03    -2.05031E+06    -33.2198E+06     4.50438E+06    -129.642E+03    -15.4087E-03     30.2417E-03    -14.8330E-03     55.6077E-03    -15.4041E-03     30.0988E-03    -14.7593E-03     55.5812E-03
             477     13.3026E-03     66.4420E-03    -1.20095E+06    -29.9217E+06    -4.84044E+06    -276.025E+03    -15.7450E-03     30.5205E-03    -14.7756E-03     61.2265E-03    -15.7461E-03     30.4252E-03    -14.7546E-03     61.1907E-03
             478     14.1892E-03     66.4995E-03    -1.77501E+06    -7.81399E+06    -5.27816E+06    -656.472E+03    -15.8118E-03     30.5544E-03    -14.7426E-03     66.2447E-03    -15.8766E-03     30.6005E-03    -14.7551E-03     66.2015E-03
             479     15.0756E-03     66.5657E-03    -2.30483E+06     25.7115E+06    -7.70422E+06    -1.06035E+06    -16.1892E-03     30.8663E-03    -14.6770E-03     83.5076E-03    -16.4138E-03     31.1963E-03    -14.7495E-03     83.4774E-03
             480     15.9634E-03     66.6546E-03    -1.07850E+06      72.113E+06    -20.1929E+06     224.393E+03    -17.3785E-03     31.9104E-03    -14.5319E-03     118.144E-03    -18.1697E-03     33.0123E-03    -14.7359E-03     118.368E-03
             481     16.8526E-03     66.7880E-03    -1.04635E+06     130.811E+06     23.1039E+06     1.15729E+06    -16.4091E-03     31.0550E-03    -14.6459E-03     102.560E-03    -17.4741E-03     32.5136E-03    -14.7185E-03     103.192E-03
             482     886.718E-06     67.0513E-03    -20.2054E+06    -67.6698E+06    -19.5776E+06    -122.136E+03    -14.8569E-03     29.7236E-03    -14.8667E-03     3.34116E-03    -14.8314E-03     29.4430E-03    -14.8372E-03     3.33912E-03
             483     1.77352E-03     67.0557E-03    -19.2607E+06    -66.1934E+06    -16.8908E+06    -193.099E+03    -14.8554E-03     29.7251E-03    -14.8697E-03     6.18434E-03    -14.8313E-03     29.4466E-03    -14.8303E-03     6.18099E-03
             484     2.66024E-03     67.0628E-03    -17.7612E+06    -64.2479E+06    -12.9118E+06    -273.418E+03    -14.8534E-03     29.7329E-03    -14.8794E-03     9.22692E-03    -14.8305E-03     29.4563E-03    -14.8251E-03     9.22208E-03
             485     3.54706E-03     67.0728E-03    -15.8583E+06    -62.0437E+06    -8.19492E+06    -329.230E+03    -14.8562E-03     29.7473E-03    -14.8911E-03     12.3761E-03    -14.8340E-03     29.4723E-03    -14.8191E-03     12.3701E-03
             486     4.43381E-03     67.0857E-03    -13.8153E+06    -60.1938E+06    -3.59987E+06    -474.091E+03    -14.8680E-03     29.7702E-03    -14.9021E-03     15.6474E-03    -14.8451E-03     29.4949E-03    -14.8128E-03     15.6389E-03
             487     5.32066E-03     67.1018E-03    -11.6939E+06    -58.4547E+06     233.265E+03    -585.937E+03    -14.8894E-03     29.7989E-03    -14.9095E-03     19.0754E-03    -14.8643E-03     29.5240E-03    -14.8066E-03     19.0648E-03
             488     6.20742E-03     67.1211E-03    -9.73970E+06    -57.2155E+06     2.98616E+06    -707.686E+03    -14.9227E-03     29.8354E-03    -14.9127E-03     22.6867E-03    -14.8939E-03     29.5602E-03    -14.8007E-03     22.6737E-03
             489     7.09428E-03     67.1438E-03    -7.95922E+06    -55.7145E+06     4.71125E+06    -807.184E+03    -14.9646E-03     29.8755E-03    -14.9109E-03     26.5173E-03    -14.9322E-03     29.6034E-03    -14.7950E-03     26.5020E-03
             490     7.98107E-03     67.1702E-03    -6.24489E+06    -54.1989E+06     6.30487E+06    -687.586E+03    -15.0189E-03     29.9276E-03    -14.9088E-03     30.5417E-03    -14.9833E-03     29.6592E-03    -14.7896E-03     30.5266E-03
             491     8.86795E-03     67.2004E-03    -4.81728E+06    -51.3880E+06     6.82539E+06    -696.266E+03    -15.0910E-03     29.9915E-03    -14.9005E-03     34.7367E-03    -15.0545E-03     29.7357E-03    -14.7849E-03     34.7196E-03
             492     9.75471E-03     67.2346E-03    -3.44692E+06    -48.4832E+06     7.41552E+06    -635.752E+03    -15.1817E-03     30.0754E-03    -14.8937E-03     39.1890E-03    -15.1456E-03     29.8334E-03    -14.7813E-03     39.1701E-03
             493     10.6416E-03     67.2732E-03    -2.62352E+06    -48.6147E+06     5.37052E+06    -293.137E+03    -15.2452E-03     30.1236E-03    -14.8784E-03     43.5582E-03    -15.2053E-03     29.8862E-03    -14.7773E-03     43.5402E-03
             494     11.5283E-03     67.3152E-03    -2.51966E+06    -41.7388E+06     3.84314E+06    -208.691E+03    -15.2965E-03     30.1506E-03    -14.8541E-03     48.3105E-03    -15.2697E-03     29.9555E-03    -14.7707E-03     48.2890E-03
             495     12.4156E-03     67.3625E-03    -1.82379E+06    -33.2393E+06     4.00251E+06    -704.579E+03    -15.4989E-03     30.3340E-03    -14.8350E-03     55.5417E-03    -15.4924E-03     30.1913E-03    -14.7642E-03     55.5077E-03
             496     13.3021E-03     67.4187E-03    -1.76001E+06    -29.0609E+06    -5.07362E+06    -796.483E+03    -15.7810E-03     30.5639E-03    -14.7829E-03     61.2341E-03    -15.7860E-03     30.4742E-03    -14.7636E-03     61.1915E-03
             497     14.1885E-03     67.4767E-03    -2.25153E+06    -8.50826E+06    -5.84073E+06    -127.396E+03    -15.7377E-03     30.4866E-03    -14.7489E-03     66.2622E-03    -15.8026E-03     30.5303E-03    -14.7625E-03     66.2262E-03
             498     15.0762E-03     67.5414E-03    -3.14968E+06     26.5283E+06    -8.26235E+06    -384.502E+03    -16.4845E-03     31.1710E-03    -14.6865E-03     84.2489E-03    -16.7165E-03     31.5100E-03    -14.7617E-03     84.2259E-03
             499     15.9617E-03     67.6327E-03    -5.66564E+06     70.7741E+06    -22.4032E+06    -1.15993E+06    -18.0876E-03     32.6555E-03    -14.5679E-03     118.672E-03    -18.9087E-03     33.7726E-03    -14.7743E-03     118.873E-03
             500     16.8458E-03     67.7627E-03    -2.73413E+06     128.819E+06     21.4175E+06     36.4689E+03    -15.9058E-03     30.5918E-03    -14.6860E-03     102.800E-03    -16.9820E-03     32.0535E-03    -14.7618E-03     103.423E-03
             501     886.776E-06     68.0279E-03    -20.3941E+06    -67.3926E+06    -19.7990E+06    -152.818E+03    -14.8539E-03     29.7200E-03    -14.8662E-03     3.33572E-03    -14.8295E-03     29.4414E-03    -14.8379E-03     3.33329E-03
             502     1.77348E-03     68.0323E-03    -19.4286E+06    -65.9389E+06    -17.1030E+06    -291.432E+03    -14.8539E-03     29.7218E-03    -14.8679E-03     6.18600E-03    -14.8307E-03     29.4451E-03    -14.8296E-03     6.18138E-03
             503     2.66029E-03     68.0394E-03    -17.9107E+06    -64.0041E+06    -13.0666E+06    -420.082E+03    -14.8527E-03     29.7307E-03    -14.8780E-03     9.22696E-03    -14.8306E-03     29.4557E-03    -14.8246E-03     9.22022E-03
             504     3.54702E-03     68.0494E-03    -16.0110E+06    -61.9044E+06    -8.33462E+06    -483.564E+03    -14.8543E-03     29.7442E-03    -14.8899E-03     12.3751E-03    -14.8329E-03     29.4703E-03    -14.8186E-03     12.3671E-03
             505     4.43386E-03     68.0623E-03    -13.9010E+06    -59.8914E+06    -3.66018E+06    -536.622E+03    -14.8661E-03     29.7670E-03    -14.9009E-03     15.6459E-03    -14.8440E-03     29.4935E-03    -14.8122E-03     15.6366E-03
             506     5.32061E-03     68.0784E-03    -11.8195E+06    -58.2121E+06     136.730E+03    -708.084E+03    -14.8881E-03     29.7963E-03    -14.9082E-03     19.0715E-03    -14.8638E-03     29.5229E-03    -14.8059E-03     19.0593E-03
             507     6.20747E-03     68.0977E-03    -9.81598E+06    -57.0191E+06     2.84749E+06    -760.198E+03    -14.9222E-03     29.8335E-03    -14.9112E-03     22.6853E-03    -14.8940E-03     29.5597E-03    -14.8001E-03     22.6716E-03
             508     7.09424E-03     68.1204E-03    -8.12198E+06    -55.4817E+06     4.67717E+06    -840.279E+03    -14.9650E-03     29.8752E-03    -14.9102E-03     26.5110E-03    -14.9337E-03     29.6045E-03    -14.7946E-03     26.4952E-03
             509     7.98111E-03     68.1468E-03    -6.63966E+06    -54.2780E+06     5.86949E+06    -903.603E+03    -15.0168E-03     29.9238E-03    -14.9070E-03     30.5348E-03    -14.9824E-03     29.6561E-03    -14.7893E-03     30.5169E-03
             510     8.86790E-03     68.1770E-03    -5.13488E+06    -51.1411E+06     6.40199E+06    -874.473E+03    -15.1041E-03     30.0029E-03    -14.8988E-03     34.7791E-03    -15.0689E-03     29.7494E-03    -14.7852E-03     34.7597E-03
             511     9.75472E-03     68.2112E-03    -3.97012E+06    -48.7793E+06     6.89172E+06    -879.263E+03    -15.1464E-03     30.0382E-03    -14.8917E-03     39.1741E-03    -15.1117E-03     29.7962E-03    -14.7808E-03     39.1521E-03
             512     10.6416E-03     68.2496E-03    -2.69510E+06    -49.1047E+06     5.08412E+06    -468.680E+03    -15.1967E-03     30.0706E-03    -14.8739E-03     43.5168E-03    -15.1559E-03     29.8312E-03    -14.7734E-03     43.4966E-03
             513     11.5287E-03     68.2918E-03    -1.53469E+06    -41.3921E+06     4.25007E+06    -349.756E+03    -15.4326E-03     30.2861E-03    -14.8535E-03     48.4335E-03    -15.4021E-03     30.0909E-03    -14.7700E-03     48.4100E-03
             514     12.4149E-03     68.3394E-03    -1.35075E+06    -32.8917E+06     4.37572E+06    -351.472E+03    -15.6156E-03     30.4594E-03    -14.8438E-03     55.5855E-03    -15.6079E-03     30.3174E-03    -14.7723E-03     55.5558E-03
             515     13.3020E-03     68.3951E-03    -1.42869E+06    -29.2548E+06    -4.66687E+06    -297.272E+03    -15.5786E-03     30.3679E-03    -14.7894E-03     61.4833E-03    -15.5820E-03     30.2760E-03    -14.7682E-03     61.4479E-03
             516     14.1894E-03     68.4534E-03    -1.52182E+06    -8.51393E+06    -5.65080E+06    -473.417E+03    -15.6948E-03     30.4397E-03    -14.7449E-03     66.3149E-03    -15.7561E-03     30.4818E-03    -14.7586E-03     66.2745E-03
             517     15.0759E-03     68.5174E-03    -1.49499E+06     26.4196E+06    -8.12527E+06     170.937E+03    -16.3803E-03     31.0558E-03    -14.6755E-03     84.9515E-03    -16.6043E-03     31.3919E-03    -14.7523E-03     84.9366E-03
             518     15.9627E-03     68.6117E-03    -1.81042E+06     71.5773E+06    -20.9570E+06     524.018E+03    -17.6272E-03     32.1668E-03    -14.5396E-03     120.324E-03    -18.4342E-03     33.2822E-03    -14.7455E-03     120.559E-03
             519     16.8514E-03     68.7393E-03    -1.26696E+06     129.085E+06     22.2068E+06    -384.138E+03    -16.1534E-03     30.8031E-03    -14.6497E-03     103.241E-03    -17.2244E-03     32.2635E-03    -14.7240E-03     103.860E-03
             520     886.716E-06     69.0045E-03    -20.6404E+06    -67.0367E+06    -19.9954E+06    -177.513E+03    -14.8517E-03     29.7139E-03    -14.8623E-03     3.33405E-03    -14.8287E-03     29.4377E-03    -14.8351E-03     3.33130E-03
             521     1.77353E-03     69.0089E-03    -19.6835E+06    -65.5482E+06    -17.2895E+06    -385.807E+03    -14.8532E-03     29.7187E-03    -14.8656E-03     6.18581E-03    -14.8315E-03     29.4447E-03    -14.8284E-03     6.17997E-03
             522     2.66024E-03     69.0160E-03    -18.2008E+06    -63.7135E+06    -13.2657E+06    -535.065E+03    -14.8513E-03     29.7277E-03    -14.8764E-03     9.22547E-03    -14.8308E-03     29.4549E-03    -14.8240E-03     9.21725E-03
             523     3.54707E-03     69.0260E-03    -16.3138E+06    -61.6821E+06    -8.56383E+06    -625.592E+03    -14.8544E-03     29.7430E-03    -14.8887E-03     12.3730E-03    -14.8344E-03     29.4710E-03    -14.8184E-03     12.3631E-03
             524     4.43381E-03     69.0389E-03    -14.1879E+06    -59.6893E+06    -4.03554E+06    -695.433E+03    -14.8638E-03     29.7628E-03    -14.8990E-03     15.6443E-03    -14.8428E-03     29.4913E-03    -14.8121E-03     15.6329E-03
             525     5.32067E-03     69.0550E-03    -12.0699E+06    -57.8855E+06    -197.667E+03    -755.843E+03    -14.8847E-03     29.7907E-03    -14.9060E-03     19.0693E-03    -14.8616E-03     29.5198E-03    -14.8056E-03     19.0565E-03
             526     6.20742E-03     69.0742E-03    -10.1249E+06    -56.8650E+06     2.52587E+06    -892.982E+03    -14.9207E-03     29.8300E-03    -14.9094E-03     22.6846E-03    -14.8937E-03     29.5579E-03    -14.7996E-03     22.6692E-03
             527     7.09429E-03     69.0970E-03    -8.27689E+06    -55.3193E+06     4.41536E+06    -875.129E+03    -14.9639E-03     29.8724E-03    -14.9084E-03     26.5054E-03    -14.9333E-03     29.6031E-03    -14.7941E-03     26.4892E-03
             528     7.98106E-03     69.1234E-03    -6.70454E+06    -54.0221E+06     5.81445E+06    -962.701E+03    -15.0236E-03     29.9300E-03    -14.9064E-03     30.5349E-03    -14.9899E-03     29.6638E-03    -14.7892E-03     30.5162E-03
             529     8.86794E-03     69.1536E-03    -5.47120E+06    -51.1844E+06     6.04112E+06    -1.03274E+06    -15.0769E-03     29.9736E-03    -14.8966E-03     34.8080E-03    -15.0428E-03     29.7208E-03    -14.7843E-03     34.7866E-03
             530     9.75473E-03     69.1879E-03    -4.48072E+06    -48.6738E+06     6.55686E+06    -853.143E+03    -15.1258E-03     30.0136E-03    -14.8878E-03     39.1117E-03    -15.0933E-03     29.7734E-03    -14.7779E-03     39.0901E-03
             531     10.6417E-03     69.2259E-03    -3.59839E+06    -49.3807E+06     4.45515E+06    -1.08388E+06    -15.2581E-03     30.1299E-03    -14.8718E-03     43.4843E-03    -15.2207E-03     29.8914E-03    -14.7727E-03     43.4561E-03
             532     11.5284E-03     69.2686E-03    -2.59310E+06    -41.5135E+06     3.71468E+06    -932.611E+03    -15.3726E-03     30.2249E-03    -14.8523E-03     48.5855E-03    -15.3464E-03     30.0313E-03    -14.7698E-03     48.5546E-03
             533     12.4154E-03     69.3163E-03    -1.69077E+06    -32.7560E+06     4.28981E+06    -507.596E+03    -15.4992E-03     30.3363E-03    -14.8371E-03     55.7445E-03    -15.4931E-03     30.1955E-03    -14.7657E-03     55.7129E-03
             534     13.3021E-03     69.3712E-03    -526.006E+03    -29.5647E+06    -4.84093E+06    -537.685E+03    -15.6231E-03     30.4019E-03    -14.7787E-03     61.4319E-03    -15.6212E-03     30.3072E-03    -14.7593E-03     61.3932E-03
             535     14.1891E-03     69.4296E-03    -412.257E+03    -8.18815E+06    -5.20293E+06    -469.447E+03    -15.7026E-03     30.4405E-03    -14.7379E-03     66.5394E-03    -15.7600E-03     30.4825E-03    -14.7515E-03     66.4990E-03
             536     15.0757E-03     69.4951E-03    -1.41582E+06     25.1536E+06    -8.08923E+06    -42.4830E+03    -16.0384E-03     30.6996E-03    -14.6612E-03     84.6830E-03    -16.2581E-03     31.0271E-03    -14.7361E-03     84.6673E-03
             537     15.9643E-03     69.5857E-03    -1.80449E+06     72.0018E+06    -20.7000E+06     158.234E+03    -16.8577E-03     31.3540E-03    -14.4963E-03     119.243E-03    -17.6534E-03     32.4590E-03    -14.7016E-03     119.481E-03
             538     16.8508E-03     69.7171E-03    -2.29220E+06     130.399E+06     22.2354E+06    -20.7188E+03    -16.5886E-03     31.1894E-03    -14.6008E-03     102.503E-03    -17.6576E-03     32.6488E-03    -14.6754E-03     103.118E-03
             539     886.790E-06     69.9812E-03    -20.7749E+06    -66.6348E+06    -20.1791E+06    -223.212E+03    -14.8552E-03     29.7102E-03    -14.8550E-03     3.33594E-03    -14.8332E-03     29.4365E-03    -14.8292E-03     3.33260E-03
             540     1.77347E-03     69.9855E-03    -19.8475E+06    -65.0882E+06    -17.3749E+06    -402.716E+03    -14.8515E-03     29.7156E-03    -14.8641E-03     6.18346E-03    -14.8313E-03     29.4442E-03    -14.8278E-03     6.17740E-03
             541     2.66030E-03     69.9926E-03    -18.3782E+06    -63.3508E+06    -13.3496E+06    -597.191E+03    -14.8512E-03     29.7267E-03    -14.8755E-03     9.22412E-03    -14.8320E-03     29.4561E-03    -14.8237E-03     9.21510E-03
             542     3.54702E-03     70.0026E-03    -16.4817E+06    -61.3496E+06    -8.77576E+06    -766.689E+03    -14.8540E-03     29.7414E-03    -14.8874E-03     12.3719E-03    -14.8350E-03     29.4716E-03    -14.8184E-03     12.3602E-03
             543     4.43386E-03     70.0155E-03    -14.3248E+06    -59.4034E+06    -4.28422E+06    -918.210E+03    -14.8627E-03     29.7604E-03    -14.8977E-03     15.6420E-03    -14.8425E-03     29.4908E-03    -14.8122E-03     15.6278E-03
             544     5.32061E-03     70.0315E-03    -12.0983E+06    -57.7370E+06    -464.914E+03    -941.541E+03    -14.8838E-03     29.7883E-03    -14.9045E-03     19.0690E-03    -14.8607E-03     29.5186E-03    -14.8056E-03     19.0538E-03
             545     6.20748E-03     70.0509E-03    -10.0729E+06    -56.5577E+06     2.41554E+06    -946.876E+03    -14.9191E-03     29.8272E-03    -14.9081E-03     22.6808E-03    -14.8921E-03     29.5567E-03    -14.7994E-03     22.6648E-03
             546     7.09424E-03     70.0736E-03    -8.28010E+06    -55.1799E+06     4.28799E+06    -1.10937E+06    -14.9641E-03     29.8715E-03    -14.9074E-03     26.5017E-03    -14.9335E-03     29.6031E-03    -14.7939E-03     26.4825E-03
             547     7.98113E-03     70.1000E-03    -6.53049E+06    -53.7804E+06     5.77982E+06    -1.11375E+06    -15.0194E-03     29.9245E-03    -14.9051E-03     30.5464E-03    -14.9851E-03     29.6594E-03    -14.7888E-03     30.5258E-03
             548     8.86787E-03     70.1302E-03    -5.17071E+06    -51.2291E+06     6.15885E+06    -1.01063E+06    -15.0563E-03     29.9515E-03    -14.8952E-03     34.7560E-03    -15.0208E-03     29.6979E-03    -14.7826E-03     34.7349E-03
             549     9.75490E-03     70.1643E-03    -3.93966E+06    -48.6939E+06     6.70856E+06    -958.605E+03    -15.1349E-03     30.0205E-03    -14.8856E-03     39.1037E-03    -15.0999E-03     29.7791E-03    -14.7757E-03     39.0807E-03
             550     10.6416E-03     70.2027E-03    -3.13942E+06    -48.9357E+06     4.57781E+06    -1.03091E+06    -15.2868E-03     30.1571E-03    -14.8703E-03     43.6160E-03    -15.2479E-03     29.9200E-03    -14.7719E-03     43.5885E-03
             551     11.5284E-03     70.2451E-03    -2.67371E+06    -41.4011E+06     3.38444E+06    -1.24009E+06    -15.2841E-03     30.1317E-03    -14.8476E-03     48.5199E-03    -15.2578E-03     29.9391E-03    -14.7668E-03     48.4852E-03
             552     12.4156E-03     70.2924E-03    -1.45555E+06    -32.8904E+06     3.83975E+06    -1.61041E+06    -15.3862E-03     30.2111E-03    -14.8249E-03     55.6283E-03    -15.3779E-03     30.0698E-03    -14.7559E-03     55.5828E-03
             553     13.3025E-03     70.3483E-03    -1.29116E+06    -29.7197E+06    -5.47662E+06    -1.10383E+06    -15.6997E-03     30.4662E-03    -14.7665E-03     61.4092E-03    -15.7005E-03     30.3728E-03    -14.7489E-03     61.3630E-03
             554     14.1890E-03     70.4060E-03    -1.71111E+06    -9.16024E+06    -6.00103E+06    -142.947E+03    -15.6619E-03     30.3910E-03    -14.7290E-03     66.4038E-03    -15.7231E-03     30.4310E-03    -14.7433E-03     66.3679E-03
             555     15.0770E-03     70.4711E-03    -1.83186E+06     25.4987E+06    -7.84851E+06    -50.0120E+03    -16.0384E-03     30.6930E-03    -14.6546E-03     84.2199E-03    -16.2605E-03     31.0218E-03    -14.7281E-03     84.2041E-03
             556     15.9627E-03     70.5624E-03    -2.65877E+06     72.2740E+06    -21.1555E+06    -462.320E+03    -17.3626E-03     31.8661E-03    -14.5035E-03     118.206E-03    -18.1572E-03     32.9692E-03    -14.7102E-03     118.422E-03
             557     16.8521E-03     70.6913E-03    -3.13142E+06     129.565E+06     21.0413E+06     42.7720E+03    -16.5925E-03     31.2139E-03    -14.6213E-03     102.818E-03    -17.6651E-03     32.6742E-03    -14.6995E-03     103.434E-03
             558     886.705E-06     70.9577E-03    -21.1127E+06    -66.1691E+06    -20.4605E+06    -264.675E+03    -14.8564E-03     29.7062E-03    -14.8498E-03     3.33510E-03    -14.8364E-03     29.4357E-03    -14.8255E-03     3.33123E-03
             559     1.77354E-03     70.9621E-03    -20.1334E+06    -64.6499E+06    -17.7034E+06    -427.127E+03    -14.8494E-03     29.7113E-03    -14.8619E-03     6.18532E-03    -14.8308E-03     29.4430E-03    -14.8275E-03     6.17895E-03
             560     2.66024E-03     70.9692E-03    -18.6338E+06    -62.8634E+06    -13.6598E+06    -656.831E+03    -14.8498E-03     29.7231E-03    -14.8733E-03     9.22568E-03    -14.8322E-03     29.4558E-03    -14.8234E-03     9.21589E-03
             561     3.54707E-03     70.9792E-03    -16.7487E+06    -60.8979E+06    -9.04269E+06    -912.683E+03    -14.8520E-03     29.7376E-03    -14.8856E-03     12.3722E-03    -14.8347E-03     29.4708E-03    -14.8182E-03     12.3587E-03
             562     4.43381E-03     70.9921E-03    -14.6704E+06    -59.0128E+06    -4.57711E+06    -1.10415E+06    -14.8624E-03     29.7584E-03    -14.8960E-03     15.6420E-03    -14.8440E-03     29.4917E-03    -14.8121E-03     15.6254E-03
             563     5.32066E-03     71.0082E-03    -12.5216E+06    -57.5357E+06    -857.625E+03    -1.22666E+06    -14.8834E-03     29.7865E-03    -14.9030E-03     19.0695E-03    -14.8621E-03     29.5190E-03    -14.8058E-03     19.0507E-03
             564     6.20742E-03     71.0274E-03    -10.3504E+06    -56.4023E+06     1.96273E+06    -1.20998E+06    -14.9153E-03     29.8214E-03    -14.9061E-03     22.6806E-03    -14.8893E-03     29.5527E-03    -14.7995E-03     22.6611E-03
             565     7.09430E-03     71.0502E-03    -8.39172E+06    -54.7245E+06     4.10122E+06    -1.30761E+06    -14.9609E-03     29.8666E-03    -14.9057E-03     26.5082E-03    -14.9312E-03     29.6009E-03    -14.7936E-03     26.4864E-03
             566     7.98105E-03     71.0765E-03    -6.76087E+06    -53.8166E+06     5.48199E+06    -1.41857E+06    -15.0064E-03     29.9095E-03    -14.9030E-03     30.5336E-03    -14.9728E-03     29.6449E-03    -14.7878E-03     30.5091E-03
             567     8.86801E-03     71.1067E-03    -5.05241E+06    -50.9995E+06     6.02819E+06    -1.35388E+06    -15.0606E-03     29.9533E-03    -14.8927E-03     34.7250E-03    -15.0246E-03     29.7009E-03    -14.7813E-03     34.6994E-03
             568     9.75471E-03     71.1409E-03    -3.49154E+06    -48.7391E+06     6.62237E+06    -1.39219E+06    -15.1372E-03     30.0208E-03    -14.8835E-03     39.1312E-03    -15.0998E-03     29.7787E-03    -14.7747E-03     39.1026E-03
             569     10.6418E-03     71.1793E-03    -2.06599E+06    -48.9166E+06     5.04666E+06    -1.12567E+06    -15.2240E-03     30.0914E-03    -14.8674E-03     43.6170E-03    -15.1803E-03     29.8521E-03    -14.7682E-03     43.5884E-03
             570     11.5286E-03     71.2217E-03    -1.39591E+06    -40.6819E+06     4.20281E+06    -1.19811E+06    -15.3484E-03     30.1935E-03    -14.8451E-03     48.4002E-03    -15.3180E-03     30.0015E-03    -14.7631E-03     48.3659E-03
             571     12.4153E-03     71.2688E-03    -1.67238E+06    -32.5699E+06     4.21645E+06    -1.51732E+06    -15.4852E-03     30.3144E-03    -14.8292E-03     55.4375E-03    -15.4791E-03     30.1746E-03    -14.7585E-03     55.3930E-03
             572     13.3024E-03     71.3247E-03    -2.13963E+06    -30.7890E+06    -5.35580E+06    -1.05579E+06    -15.5684E-03     30.3404E-03    -14.7720E-03     61.1962E-03    -15.5718E-03     30.2424E-03    -14.7510E-03     61.1510E-03
             573     14.1895E-03     71.3828E-03    -2.43425E+06    -10.0737E+06    -6.41166E+06    -525.202E+03    -15.6906E-03     30.4194E-03    -14.7287E-03     66.0427E-03    -15.7530E-03     30.4559E-03    -14.7427E-03     66.0018E-03
             574     15.0756E-03     71.4470E-03    -1.86556E+06     26.2447E+06    -7.95063E+06    -387.703E+03    -16.1878E-03     30.8461E-03    -14.6583E-03     83.9333E-03    -16.4099E-03     31.1778E-03    -14.7334E-03     83.9122E-03
             575     15.9642E-03     71.5392E-03    -2.34270E+06     71.6226E+06    -21.5515E+06    -25.2022E+03    -17.8584E-03     32.3818E-03    -14.5234E-03     118.987E-03    -18.6562E-03     33.4881E-03    -14.7316E-03     119.199E-03
             576     16.8471E-03     71.6690E-03    -2.70705E+06     129.092E+06     20.6146E+06     186.017E+03    -16.5072E-03     31.1552E-03    -14.6480E-03     103.352E-03    -17.5814E-03     32.6183E-03    -14.7282E-03     103.970E-03
             577     886.800E-06     71.9344E-03    -21.4528E+06    -65.6460E+06    -20.8183E+06    -274.420E+03    -14.8494E-03     29.6993E-03    -14.8499E-03     3.34262E-03    -14.8313E-03     29.4324E-03    -14.8277E-03     3.33862E-03
             578     1.77347E-03     71.9387E-03    -20.4903E+06    -64.1656E+06    -18.1096E+06    -509.836E+03    -14.8489E-03     29.7077E-03    -14.8588E-03     6.18639E-03    -14.8321E-03     29.4429E-03    -14.8266E-03     6.17894E-03
             579     2.66030E-03     71.9458E-03    -18.9711E+06    -62.2923E+06    -14.0811E+06    -763.602E+03    -14.8459E-03     29.7162E-03    -14.8703E-03     9.22698E-03    -14.8302E-03     29.4528E-03    -14.8229E-03     9.21581E-03
             580     3.54702E-03     71.9557E-03    -17.0761E+06    -60.3476E+06    -9.33061E+06    -1.03963E+06    -14.8501E-03     29.7332E-03    -14.8831E-03     12.3729E-03    -14.8347E-03     29.4700E-03    -14.8175E-03     12.3577E-03
             581     4.43386E-03     71.9687E-03    -14.9570E+06    -58.5821E+06    -4.80220E+06    -1.24844E+06    -14.8619E-03     29.7561E-03    -14.8943E-03     15.6440E-03    -14.8453E-03     29.4924E-03    -14.8116E-03     15.6255E-03
             582     5.32061E-03     71.9847E-03    -12.8599E+06    -57.1687E+06    -1.12625E+06    -1.39007E+06    -14.8816E-03     29.7830E-03    -14.9014E-03     19.0701E-03    -14.8621E-03     29.5182E-03    -14.8055E-03     19.0491E-03
             583     6.20748E-03     72.0040E-03    -10.8195E+06    -56.0925E+06     1.52289E+06    -1.60549E+06    -14.9127E-03     29.8166E-03    -14.9039E-03     22.6849E-03    -14.8888E-03     29.5507E-03    -14.7993E-03     22.6603E-03
             584     7.09424E-03     72.0267E-03    -8.83590E+06    -54.4939E+06     3.55653E+06    -1.62548E+06    -14.9525E-03     29.8551E-03    -14.9026E-03     26.5132E-03    -14.9245E-03     29.5920E-03    -14.7930E-03     26.4873E-03
             585     7.98115E-03     72.0532E-03    -7.03606E+06    -53.4689E+06     5.25278E+06    -1.69520E+06    -15.0028E-03     29.9035E-03    -14.9007E-03     30.5126E-03    -14.9707E-03     29.6414E-03    -14.7867E-03     30.4845E-03
             586     8.86789E-03     72.0832E-03    -5.52675E+06    -50.8483E+06     5.60180E+06    -1.90589E+06    -15.0665E-03     29.9568E-03    -14.8904E-03     34.7259E-03    -15.0325E-03     29.7065E-03    -14.7806E-03     34.6932E-03
             587     9.75490E-03     72.1175E-03    -4.09933E+06    -48.3959E+06     6.27960E+06    -1.92499E+06    -15.1397E-03     30.0220E-03    -14.8823E-03     39.0999E-03    -15.1053E-03     29.7830E-03    -14.7748E-03     39.0644E-03
             588     10.6416E-03     72.1557E-03    -3.11122E+06    -49.2841E+06     4.41641E+06    -1.75971E+06    -15.2360E-03     30.1033E-03    -14.8674E-03     43.5000E-03    -15.1961E-03     29.8647E-03    -14.7693E-03     43.4632E-03
             589     11.5286E-03     72.1982E-03    -1.82197E+06    -40.7786E+06     3.80378E+06    -1.45860E+06    -15.3534E-03     30.1992E-03    -14.8458E-03     48.3969E-03    -15.3244E-03     30.0079E-03    -14.7650E-03     48.3592E-03
             590     12.4153E-03     72.2457E-03    -1.30725E+06    -32.5700E+06     4.38419E+06    -788.878E+03    -15.5262E-03     30.3591E-03    -14.8329E-03     55.4786E-03    -15.5186E-03     30.2185E-03    -14.7619E-03     55.4434E-03
             591     13.3020E-03     72.3009E-03    -1.58210E+06    -31.0559E+06    -5.37095E+06    -505.887E+03    -15.6194E-03     30.3968E-03    -14.7775E-03     61.2325E-03    -15.6197E-03     30.2968E-03    -14.7570E-03     61.1942E-03
             592     14.1891E-03     72.3591E-03    -1.62872E+06    -9.63523E+06    -6.34629E+06    -957.349E+03    -15.6646E-03     30.3979E-03    -14.7333E-03     66.2382E-03    -15.7235E-03     30.4352E-03    -14.7487E-03     66.1917E-03
             593     15.0765E-03     72.4243E-03    -1.94002E+06     25.3398E+06    -8.62768E+06    -750.956E+03    -16.3413E-03     31.0065E-03    -14.6652E-03     84.0017E-03    -16.5619E-03     31.3352E-03    -14.7422E-03     83.9741E-03
             594     15.9622E-03     72.5146E-03    -2.50383E+06     70.9161E+06    -21.6913E+06     89.2408E+03    -17.5202E-03     32.0466E-03    -14.5263E-03     119.670E-03    -18.3242E-03     33.1563E-03    -14.7340E-03     119.895E-03
             595     16.8521E-03     72.6484E-03    -2.47074E+06     129.391E+06     20.9591E+06     81.9883E+03    -16.3284E-03     30.9639E-03    -14.6355E-03     103.432E-03    -17.4031E-03     32.4284E-03    -14.7148E-03     104.054E-03
             596     886.711E-06     72.9109E-03    -21.6826E+06    -65.0344E+06    -21.0735E+06    -329.629E+03    -14.8443E-03     29.6960E-03    -14.8516E-03     3.35214E-03    -14.8279E-03     29.4329E-03    -14.8313E-03     3.34742E-03
             597     1.77354E-03     72.9153E-03    -20.6778E+06    -63.5643E+06    -18.3063E+06    -608.201E+03    -14.8456E-03     29.7026E-03    -14.8570E-03     6.18302E-03    -14.8304E-03     29.4413E-03    -14.8263E-03     6.17431E-03
             598     2.66024E-03     72.9224E-03    -19.1608E+06    -61.6733E+06    -14.2622E+06    -904.672E+03    -14.8435E-03     29.7116E-03    -14.8681E-03     9.22698E-03    -14.8294E-03     29.4519E-03    -14.8222E-03     9.21399E-03
             599     3.54708E-03     72.9324E-03    -17.2299E+06    -59.7264E+06    -9.54602E+06    -1.19203E+06    -14.8477E-03     29.7283E-03    -14.8806E-03     12.3746E-03    -14.8337E-03     29.4688E-03    -14.8168E-03     12.3574E-03
             600     4.43381E-03     72.9453E-03    -15.0731E+06    -58.0774E+06    -4.94667E+06    -1.44723E+06    -14.8594E-03     29.7516E-03    -14.8922E-03     15.6449E-03    -14.8439E-03     29.4907E-03    -14.8108E-03     15.6238E-03
             601     5.32067E-03     72.9613E-03    -12.7891E+06    -56.7247E+06    -1.16851E+06    -1.63778E+06    -14.8801E-03     29.7796E-03    -14.8996E-03     19.0697E-03    -14.8608E-03     29.5170E-03    -14.8046E-03     19.0455E-03
             602     6.20743E-03     72.9806E-03    -10.7220E+06    -55.5891E+06     1.54811E+06    -1.80002E+06    -14.9131E-03     29.8154E-03    -14.9023E-03     22.6854E-03    -14.8895E-03     29.5519E-03    -14.7984E-03     22.6583E-03
             603     7.09431E-03     73.0034E-03    -8.85407E+06    -54.1816E+06     3.41001E+06    -2.03214E+06    -14.9506E-03     29.8513E-03    -14.9007E-03     26.5033E-03    -14.9230E-03     29.5900E-03    -14.7923E-03     26.4722E-03
             604     7.98108E-03     73.0297E-03    -7.06345E+06    -53.1911E+06     4.96918E+06    -2.05421E+06    -15.0068E-03     29.9052E-03    -14.8984E-03     30.5087E-03    -14.9748E-03     29.6449E-03    -14.7862E-03     30.4760E-03
             605     8.86801E-03     73.0599E-03    -5.65520E+06    -50.4674E+06     5.58129E+06    -2.05654E+06    -15.0794E-03     29.9698E-03    -14.8904E-03     34.7134E-03    -15.0466E-03     29.7215E-03    -14.7811E-03     34.6788E-03
             606     9.75471E-03     73.0940E-03    -4.74642E+06    -48.3200E+06     5.86382E+06    -2.06763E+06    -15.1602E-03     30.0433E-03    -14.8831E-03     39.0736E-03    -15.1285E-03     29.8063E-03    -14.7769E-03     39.0363E-03
             607     10.6417E-03     73.1324E-03    -3.86969E+06    -48.7443E+06     3.75885E+06    -2.24568E+06    -15.2686E-03     30.1374E-03    -14.8688E-03     43.5241E-03    -15.2324E-03     29.9035E-03    -14.7737E-03     43.4809E-03
             608     11.5283E-03     73.1747E-03    -2.92946E+06    -41.9741E+06     2.17359E+06    -2.05412E+06    -15.2944E-03     30.1388E-03    -14.8444E-03     48.4256E-03    -15.2667E-03     29.9454E-03    -14.7684E-03     48.3804E-03
             609     12.4155E-03     73.2222E-03    -1.92664E+06    -33.8088E+06     3.23563E+06    -886.570E+03    -15.4485E-03     30.2766E-03    -14.8281E-03     55.5470E-03    -15.4404E-03     30.1322E-03    -14.7601E-03     55.5108E-03
             610     13.3025E-03     73.2776E-03    -1.77688E+06    -29.9950E+06    -5.61248E+06    -526.585E+03    -15.7272E-03     30.5014E-03    -14.7741E-03     61.2122E-03    -15.7298E-03     30.4074E-03    -14.7561E-03     61.1733E-03
             611     14.1890E-03     73.3356E-03    -2.00008E+06    -9.19110E+06    -6.81169E+06    -1.06591E+06    -15.7647E-03     30.5015E-03    -14.7368E-03     66.1444E-03    -15.8256E-03     30.5424E-03    -14.7546E-03     66.0961E-03
             612     15.0759E-03     73.4003E-03    -2.28332E+06     24.9492E+06    -8.91064E+06    -1.19570E+06    -16.3162E-03     30.9889E-03    -14.6727E-03     84.1867E-03    -16.5390E-03     31.3180E-03    -14.7501E-03     84.1541E-03
             613     15.9632E-03     73.4927E-03    -2.48339E+06     70.1346E+06    -21.4012E+06    -657.013E+03    -17.4122E-03     31.9466E-03    -14.5343E-03     118.708E-03    -18.2091E-03     33.0456E-03    -14.7394E-03     118.925E-03
             614     16.8497E-03     73.6206E-03    -1.84789E+06     129.112E+06     21.8456E+06     261.027E+03    -16.2532E-03     30.8964E-03    -14.6432E-03     102.699E-03    -17.3202E-03     32.3518E-03    -14.7185E-03     103.323E-03
             615     886.788E-06     73.8876E-03    -21.9549E+06    -64.3125E+06    -21.3413E+06    -389.443E+03    -14.8438E-03     29.6927E-03    -14.8488E-03     3.36074E-03    -14.8294E-03     29.4339E-03    -14.8305E-03     3.35525E-03
             616     1.77347E-03     73.8918E-03    -20.9819E+06    -62.8315E+06    -18.5899E+06    -735.822E+03    -14.8413E-03     29.6960E-03    -14.8548E-03     6.18520E-03    -14.8282E-03     29.4393E-03    -14.8262E-03     6.17485E-03
             617     2.66031E-03     73.8990E-03    -19.4180E+06    -60.9825E+06    -14.5295E+06    -1.05641E+06    -14.8410E-03     29.7064E-03    -14.8655E-03     9.22839E-03    -14.8287E-03     29.4509E-03    -14.8215E-03     9.21344E-03
             618     3.54702E-03     73.9089E-03    -17.5155E+06    -59.0546E+06    -9.82565E+06    -1.35638E+06    -14.8440E-03     29.7219E-03    -14.8779E-03     12.3765E-03    -14.8320E-03     29.4665E-03    -14.8160E-03     12.3572E-03
             619     4.43387E-03     73.9219E-03    -15.3706E+06    -57.4084E+06    -5.26006E+06    -1.68078E+06    -14.8548E-03     29.7438E-03    -14.8890E-03     15.6456E-03    -14.8413E-03     29.4871E-03    -14.8098E-03     15.6215E-03
             620     5.32062E-03     73.9379E-03    -13.1724E+06    -56.1810E+06    -1.49523E+06    -1.98260E+06    -14.8785E-03     29.7751E-03    -14.8966E-03     19.0703E-03    -14.8615E-03     29.5162E-03    -14.8035E-03     19.0416E-03
             621     6.20749E-03     73.9572E-03    -10.9069E+06    -55.1048E+06     1.26680E+06    -2.17048E+06    -14.9114E-03     29.8111E-03    -14.8996E-03     22.6826E-03    -14.8891E-03     29.5507E-03    -14.7976E-03     22.6508E-03
             622     7.09425E-03     73.9799E-03    -8.92992E+06    -53.6628E+06     3.20546E+06    -2.30091E+06    -14.9532E-03     29.8517E-03    -14.8985E-03     26.4944E-03    -14.9265E-03     29.5935E-03    -14.7917E-03     26.4599E-03
             623     7.98116E-03     74.0063E-03    -7.29829E+06    -52.9930E+06     4.57187E+06    -2.41166E+06    -15.0140E-03     29.9106E-03    -14.8966E-03     30.5151E-03    -14.9829E-03     29.6522E-03    -14.7863E-03     30.4777E-03
             624     8.86788E-03     74.0364E-03    -5.70129E+06    -50.3450E+06     5.08456E+06    -2.28226E+06    -15.0870E-03     29.9756E-03    -14.8886E-03     34.7285E-03    -15.0539E-03     29.7288E-03    -14.7820E-03     34.6909E-03
             625     9.75483E-03     74.0706E-03    -4.23689E+06    -48.0184E+06     5.78437E+06    -2.21131E+06    -15.1651E-03     30.0479E-03    -14.8828E-03     39.1112E-03    -15.1312E-03     29.8118E-03    -14.7781E-03     39.0720E-03
             626     10.6415E-03     74.1089E-03    -3.45470E+06    -48.3088E+06     3.72733E+06    -2.23057E+06    -15.2426E-03     30.1100E-03    -14.8675E-03     43.5803E-03    -15.2048E-03     29.8777E-03    -14.7738E-03     43.5374E-03
             627     11.5285E-03     74.1514E-03    -3.55156E+06    -42.5504E+06     1.68762E+06    -2.05205E+06    -15.3326E-03     30.1767E-03    -14.8441E-03     48.3635E-03    -15.3066E-03     29.9821E-03    -14.7688E-03     48.3182E-03
             628     12.4154E-03     74.1983E-03    -2.73458E+06    -34.6844E+06     2.24901E+06    -1.80976E+06    -15.4894E-03     30.3184E-03    -14.8291E-03     55.4576E-03    -15.4826E-03     30.1723E-03    -14.7636E-03     55.4093E-03
             629     13.3021E-03     74.2546E-03    -1.32263E+06    -29.5895E+06    -5.56577E+06    -1.66812E+06    -15.6937E-03     30.4706E-03    -14.7768E-03     61.1824E-03    -15.6946E-03     30.3778E-03    -14.7598E-03     61.1289E-03
             630     14.1890E-03     74.3120E-03    -932.949E+03    -9.60634E+06    -6.51208E+06    -1.04517E+06    -15.8047E-03     30.5454E-03    -14.7407E-03     66.1788E-03    -15.8603E-03     30.5825E-03    -14.7580E-03     66.1307E-03
             631     15.0757E-03     74.3773E-03    -1.55286E+06     24.9114E+06    -9.05705E+06    -494.360E+03    -16.2492E-03     30.9220E-03    -14.6728E-03     84.4527E-03    -16.4675E-03     31.2495E-03    -14.7519E-03     84.4301E-03
             632     15.9628E-03     74.4683E-03    -3.45574E+06     69.9701E+06    -22.5570E+06    -653.929E+03    -17.6799E-03     32.2160E-03    -14.5362E-03     119.074E-03    -18.4810E-03     33.3187E-03    -14.7454E-03     119.285E-03
             633     16.8493E-03     74.5993E-03    -3.03123E+06     128.324E+06     20.3469E+06    -277.217E+03    -16.2943E-03     30.9459E-03    -14.6515E-03     103.241E-03    -17.3690E-03     32.4064E-03    -14.7315E-03     103.858E-03
             634     886.716E-06     74.8641E-03    -22.1918E+06    -63.4895E+06    -21.5526E+06    -441.798E+03    -14.8423E-03     29.6863E-03    -14.8440E-03     3.35725E-03    -14.8300E-03     29.4323E-03    -14.8275E-03     3.35108E-03
             635     1.77354E-03     74.8685E-03    -21.1976E+06    -61.9459E+06    -18.8283E+06    -840.438E+03    -14.8391E-03     29.6907E-03    -14.8516E-03     6.18670E-03    -14.8280E-03     29.4390E-03    -14.8252E-03     6.17499E-03
             636     2.66025E-03     74.8755E-03    -19.6856E+06    -60.2143E+06    -14.7949E+06    -1.22911E+06    -14.8379E-03     29.7004E-03    -14.8626E-03     9.22945E-03    -14.8277E-03     29.4495E-03    -14.8207E-03     9.21227E-03
             637     3.54709E-03     74.8856E-03    -17.7110E+06    -58.3100E+06    -10.0678E+06    -1.54726E+06    -14.8403E-03     29.7152E-03    -14.8749E-03     12.3762E-03    -14.8300E-03     29.4642E-03    -14.8150E-03     12.3544E-03
             638     4.43382E-03     74.8985E-03    -15.6002E+06    -56.6695E+06    -5.52358E+06    -1.85294E+06    -14.8525E-03     29.7384E-03    -14.8859E-03     15.6450E-03    -14.8408E-03     29.4862E-03    -14.8087E-03     15.6187E-03
             639     5.32069E-03     74.9145E-03    -13.4803E+06    -55.4304E+06    -1.82604E+06    -2.20349E+06    -14.8763E-03     29.7697E-03    -14.8934E-03     19.0711E-03    -14.8614E-03     29.5155E-03    -14.8026E-03     19.0396E-03
             640     6.20743E-03     74.9338E-03    -11.4979E+06    -54.4642E+06     724.508E+03    -2.58171E+06    -14.9085E-03     29.8046E-03    -14.8961E-03     22.6795E-03    -14.8893E-03     29.5491E-03    -14.7968E-03     22.6424E-03
             641     7.09433E-03     74.9565E-03    -9.51480E+06    -53.3288E+06     2.59720E+06    -2.69451E+06    -14.9551E-03     29.8506E-03    -14.8954E-03     26.4987E-03    -14.9309E-03     29.5957E-03    -14.7913E-03     26.4591E-03
             642     7.98107E-03     74.9828E-03    -7.66699E+06    -52.5418E+06     4.12356E+06    -2.74559E+06    -15.0144E-03     29.9087E-03    -14.8943E-03     30.5229E-03    -14.9851E-03     29.6537E-03    -14.7864E-03     30.4813E-03
             643     8.86799E-03     75.0130E-03    -6.00308E+06    -50.2121E+06     4.48416E+06    -2.93143E+06    -15.0770E-03     29.9626E-03    -14.8856E-03     34.7555E-03    -15.0447E-03     29.7177E-03    -14.7816E-03     34.7096E-03
             644     9.75471E-03     75.0472E-03    -4.34168E+06    -47.9022E+06     5.35798E+06    -2.83610E+06    -15.1558E-03     30.0353E-03    -14.8795E-03     39.1278E-03    -15.1220E-03     29.8005E-03    -14.7770E-03     39.0806E-03
             645     10.6417E-03     75.0855E-03    -3.15170E+06    -48.6197E+06     3.75807E+06    -2.22604E+06    -15.2486E-03     30.1151E-03    -14.8664E-03     43.4881E-03    -15.2090E-03     29.8807E-03    -14.7726E-03     43.4452E-03
             646     11.5285E-03     75.1277E-03    -2.42253E+06    -41.7193E+06     2.52595E+06    -1.98007E+06    -15.3662E-03     30.2119E-03    -14.8457E-03     48.4114E-03    -15.3370E-03     30.0186E-03    -14.7690E-03     48.3670E-03
             647     12.4151E-03     75.1754E-03    -1.56536E+06    -33.9070E+06     2.48642E+06    -2.86344E+06    -15.5261E-03     30.3558E-03    -14.8297E-03     55.5923E-03    -15.5150E-03     30.2116E-03    -14.7658E-03     55.5303E-03
             648     13.3023E-03     75.2305E-03    -946.558E+03    -31.0446E+06    -6.29408E+06    -2.60992E+06    -15.6322E-03     30.4076E-03    -14.7755E-03     61.4587E-03    -15.6279E-03     30.3081E-03    -14.7606E-03     61.3933E-03
             649     14.1890E-03     75.2892E-03    -866.312E+03    -10.4625E+06    -6.73475E+06    -1.23346E+06    -15.7388E-03     30.4756E-03    -14.7368E-03     66.3448E-03    -15.7924E-03     30.5085E-03    -14.7540E-03     66.2945E-03
             650     15.0763E-03     75.3531E-03    -645.455E+03     24.0291E+06    -8.97344E+06    -145.446E+03    -16.2092E-03     30.8752E-03    -14.6661E-03     84.2824E-03    -16.4209E-03     31.1960E-03    -14.7448E-03     84.2638E-03
             651     15.9631E-03     75.4458E-03    -1.22027E+06     70.4600E+06    -22.2391E+06     388.495E+03    -17.3522E-03     31.8676E-03    -14.5154E-03     119.804E-03    -18.1430E-03     32.9687E-03    -14.7270E-03     120.036E-03
             652     16.8503E-03     75.5754E-03    -2.41473E+06     128.915E+06     19.7104E+06    -224.505E+03    -16.4337E-03     31.0548E-03    -14.6211E-03     103.512E-03    -17.5036E-03     32.5166E-03    -14.7059E-03     104.132E-03
             653     886.788E-06     75.8408E-03    -22.3924E+06    -62.5172E+06    -21.8236E+06    -513.774E+03    -14.8383E-03     29.6807E-03    -14.8424E-03     3.35479E-03    -14.8280E-03     29.4323E-03    -14.8284E-03     3.34770E-03
             654     1.77348E-03     75.8450E-03    -21.4313E+06    -60.9914E+06    -19.0730E+06    -944.133E+03    -14.8355E-03     29.6841E-03    -14.8486E-03     6.18630E-03    -14.8266E-03     29.4380E-03    -14.8245E-03     6.17325E-03
             655     2.66031E-03     75.8522E-03    -19.8817E+06    -59.2528E+06    -15.0079E+06    -1.40131E+06    -14.8346E-03     29.6941E-03    -14.8595E-03     9.22909E-03    -14.8265E-03     29.4486E-03    -14.8198E-03     9.20969E-03
             656     3.54703E-03     75.8621E-03    -17.9274E+06    -57.5085E+06    -10.3451E+06    -1.81146E+06    -14.8382E-03     29.7100E-03    -14.8718E-03     12.3753E-03    -14.8298E-03     29.4638E-03    -14.8141E-03     12.3501E-03
             657     4.43389E-03     75.8751E-03    -15.6784E+06    -55.9147E+06    -5.79203E+06    -2.09583E+06    -14.8513E-03     29.7342E-03    -14.8829E-03     15.6459E-03    -14.8407E-03     29.4862E-03    -14.8080E-03     15.6164E-03
             658     5.32062E-03     75.8911E-03    -13.4626E+06    -54.5787E+06    -2.02218E+06    -2.42042E+06    -14.8733E-03     29.7638E-03    -14.8904E-03     19.0693E-03    -14.8593E-03     29.5141E-03    -14.8019E-03     19.0350E-03
             659     6.20751E-03     75.9104E-03    -11.4277E+06    -53.6747E+06     724.384E+03    -2.75585E+06    -14.9097E-03     29.8038E-03    -14.8941E-03     22.6778E-03    -14.8912E-03     29.5521E-03    -14.7961E-03     22.6384E-03
             660     7.09424E-03     75.9330E-03    -9.61409E+06    -52.7822E+06     2.44380E+06    -3.11361E+06    -14.9557E-03     29.8493E-03    -14.8936E-03     26.5027E-03    -14.9325E-03     29.5976E-03    -14.7909E-03     26.4576E-03
             661     7.98116E-03     75.9595E-03    -7.77838E+06    -52.0833E+06     3.82584E+06    -3.29749E+06    -15.0095E-03     29.9014E-03    -14.8919E-03     30.5267E-03    -14.9810E-03     29.6493E-03    -14.7859E-03     30.4779E-03
             662     8.86790E-03     75.9895E-03    -6.24660E+06    -49.6467E+06     4.41115E+06    -3.37793E+06    -15.0715E-03     29.9555E-03    -14.8840E-03     34.7446E-03    -15.0411E-03     29.7139E-03    -14.7809E-03     34.6929E-03
             663     9.75488E-03     76.0238E-03    -5.11963E+06    -47.9606E+06     4.79942E+06    -3.40426E+06    -15.1584E-03     30.0358E-03    -14.8773E-03     39.1263E-03    -15.1276E-03     29.8026E-03    -14.7764E-03     39.0717E-03
             664     10.6415E-03     76.0620E-03    -3.27886E+06    -49.1651E+06     3.02427E+06    -3.13171E+06    -15.2671E-03     30.1313E-03    -14.8642E-03     43.4858E-03    -15.2262E-03     29.8954E-03    -14.7730E-03     43.4312E-03
             665     11.5284E-03     76.1044E-03    -1.55031E+06    -41.3709E+06     2.47079E+06    -2.80830E+06    -15.2985E-03     30.1406E-03    -14.8420E-03     48.4570E-03    -15.2653E-03     29.9478E-03    -14.7674E-03     48.4021E-03
             666     12.4157E-03     76.1517E-03    -1.25284E+06    -33.0444E+06     2.89644E+06    -2.67545E+06    -15.4656E-03     30.2893E-03    -14.8237E-03     55.6727E-03    -15.4548E-03     30.1483E-03    -14.7595E-03     55.6133E-03
             667     13.3022E-03     76.2073E-03    -2.24958E+06    -32.2640E+06    -7.17583E+06    -2.53157E+06    -15.7115E-03     30.4810E-03    -14.7694E-03     61.3378E-03    -15.7110E-03     30.3787E-03    -14.7553E-03     61.2731E-03
             668     14.1894E-03     76.2651E-03    -2.59628E+06    -11.3086E+06    -7.82936E+06    -1.94029E+06    -15.6675E-03     30.3986E-03    -14.7310E-03     66.2284E-03    -15.7268E-03     30.4312E-03    -14.7500E-03     66.1692E-03
             669     15.0756E-03     76.3307E-03    -1.78625E+06     23.7927E+06    -9.38732E+06    -1.48057E+06    -16.1870E-03     30.8470E-03    -14.6601E-03     84.1901E-03    -16.4050E-03     31.1704E-03    -14.7389E-03     84.1544E-03
             670     15.9636E-03     76.4204E-03    -1.32948E+06     68.9194E+06    -21.7843E+06    -348.557E+03    -17.3917E-03     31.9090E-03    -14.5173E-03     118.629E-03    -18.1751E-03     32.9955E-03    -14.7243E-03     118.846E-03
             671     16.8518E-03     76.5527E-03    -1.59932E+06     128.956E+06     21.0045E+06     702.078E+03    -16.4064E-03     31.0341E-03    -14.6277E-03     102.609E-03    -17.4667E-03     32.4856E-03    -14.7073E-03     103.235E-03
             672     886.717E-06     76.8173E-03    -22.7289E+06    -61.4283E+06    -22.1079E+06    -597.772E+03    -14.8364E-03     29.6753E-03    -14.8389E-03     3.35237E-03    -14.8290E-03     29.4332E-03    -14.8274E-03     3.34419E-03
             673     1.77354E-03     76.8217E-03    -21.7259E+06    -59.8903E+06    -19.3974E+06    -1.07769E+06    -14.8314E-03     29.6769E-03    -14.8455E-03     6.18693E-03    -14.8251E-03     29.4372E-03    -14.8242E-03     6.17216E-03
             674     2.66025E-03     76.8287E-03    -20.1929E+06    -58.1737E+06    -15.3766E+06    -1.59168E+06    -14.8313E-03     29.6872E-03    -14.8559E-03     9.22826E-03    -14.8258E-03     29.4481E-03    -14.8192E-03     9.20640E-03
             675     3.54709E-03     76.8388E-03    -18.2380E+06    -56.5175E+06    -10.6715E+06    -2.06393E+06    -14.8369E-03     29.7057E-03    -14.8687E-03     12.3755E-03    -14.8310E-03     29.4653E-03    -14.8137E-03     12.3470E-03
             676     4.43382E-03     76.8516E-03    -16.0070E+06    -55.0457E+06    -6.19018E+06    -2.52018E+06    -14.8484E-03     29.7282E-03    -14.8798E-03     15.6458E-03    -14.8401E-03     29.4856E-03    -14.8078E-03     15.6109E-03
             677     5.32070E-03     76.8677E-03    -13.6284E+06    -53.7766E+06    -2.31925E+06    -2.80814E+06    -14.8714E-03     29.7592E-03    -14.8877E-03     19.0680E-03    -14.8590E-03     29.5142E-03    -14.8016E-03     19.0287E-03
             678     6.20743E-03     76.8869E-03    -11.4098E+06    -52.8940E+06     569.519E+03    -3.06922E+06    -14.9084E-03     29.8003E-03    -14.8919E-03     22.6791E-03    -14.8908E-03     29.5528E-03    -14.7958E-03     22.6356E-03
             679     7.09433E-03     76.9097E-03    -9.43286E+06    -51.8830E+06     2.50235E+06    -3.42002E+06    -14.9534E-03     29.8453E-03    -14.8920E-03     26.4991E-03    -14.9307E-03     29.5977E-03    -14.7906E-03     26.4501E-03
             680     7.98108E-03     76.9359E-03    -7.84557E+06    -51.5411E+06     3.67479E+06    -3.71171E+06    -15.0084E-03     29.8984E-03    -14.8900E-03     30.5210E-03    -14.9809E-03     29.6494E-03    -14.7855E-03     30.4669E-03
             681     8.86800E-03     76.9662E-03    -6.37104E+06    -49.2218E+06     4.06453E+06    -3.70413E+06    -15.0768E-03     29.9585E-03    -14.8817E-03     34.7453E-03    -15.0472E-03     29.7197E-03    -14.7808E-03     34.6894E-03
             682     9.75470E-03     77.0003E-03    -4.97438E+06     -47.549E+06     4.67004E+06    -3.73352E+06    -15.1463E-03     30.0218E-03    -14.8755E-03     39.1406E-03    -15.1151E-03     29.7906E-03    -14.7760E-03     39.0818E-03
             683     10.6417E-03     77.0388E-03    -4.05574E+06    -49.1713E+06     2.24755E+06    -4.12413E+06    -15.2176E-03     30.0763E-03    -14.8586E-03     43.5320E-03    -15.1794E-03     29.8426E-03    -14.7702E-03     43.4647E-03
             684     11.5286E-03     77.0807E-03    -2.92615E+06    -41.6797E+06     1.35202E+06    -3.86009E+06    -15.3222E-03     30.1577E-03    -14.8355E-03     48.4295E-03    -15.2938E-03     29.9670E-03    -14.7641E-03     48.3609E-03
             685     12.4153E-03     77.1282E-03    -2.15267E+06    -34.0614E+06     1.99866E+06    -2.52471E+06    -15.5035E-03     30.3250E-03    -14.8215E-03     55.5099E-03    -15.4944E-03     30.1815E-03    -14.7590E-03     55.4524E-03
             686     13.3025E-03     77.1840E-03    -2.04357E+06    -31.9949E+06    -7.38443E+06    -1.92674E+06    -15.6175E-03     30.3833E-03    -14.7658E-03     61.2725E-03    -15.6157E-03     30.2820E-03    -14.7533E-03     61.2160E-03
             687     14.1885E-03     77.2421E-03    -2.01245E+06    -10.7171E+06    -7.85011E+06    -2.40732E+06    -15.7014E-03     30.4268E-03    -14.7253E-03     66.2705E-03    -15.7588E-03     30.4617E-03    -14.7461E-03     66.2052E-03
             688     15.0772E-03     77.3057E-03    -2.64160E+06     23.2958E+06    -10.6073E+06    -2.09993E+06    -16.4384E-03     31.0989E-03    -14.6605E-03     84.1484E-03    -16.6581E-03     31.4227E-03    -14.7434E-03     84.1036E-03
             689     15.9623E-03     77.3994E-03    -3.98136E+06     66.7409E+06    -23.9019E+06    -1.21952E+06    -17.7592E-03     32.2951E-03    -14.5360E-03     118.439E-03    -18.5561E-03     33.3842E-03    -14.7465E-03     118.639E-03
             690     16.8478E-03     77.5264E-03    -2.60724E+06     127.905E+06     20.3700E+06     129.454E+03    -16.2249E-03     30.8794E-03    -14.6545E-03     103.196E-03    -17.2982E-03     32.3384E-03    -14.7343E-03     103.817E-03
             691     886.784E-06     77.7940E-03    -22.9411E+06    -60.1665E+06    -22.3347E+06    -676.878E+03    -14.8326E-03     29.6698E-03    -14.8372E-03     3.34338E-03    -14.8277E-03     29.4346E-03    -14.8283E-03     3.33419E-03
             692     1.77348E-03     77.7982E-03    -21.9469E+06    -58.6664E+06    -19.6645E+06    -1.22259E+06    -14.8290E-03     29.6716E-03    -14.8426E-03     6.18639E-03    -14.8252E-03     29.4387E-03    -14.8240E-03     6.16975E-03
             693     2.66031E-03     77.8054E-03    -20.4138E+06    -56.9434E+06    -15.6443E+06    -1.79433E+06    -14.8295E-03     29.6827E-03    -14.8532E-03     9.22813E-03    -14.8265E-03     29.4504E-03    -14.8192E-03     9.20366E-03
             694     3.54703E-03     77.8153E-03    -18.4516E+06    -55.3950E+06    -10.9320E+06    -2.33390E+06    -14.8344E-03     29.7006E-03    -14.8662E-03     12.3756E-03    -14.8308E-03     29.4665E-03    -14.8138E-03     12.3437E-03
             695     4.43389E-03     77.8283E-03    -16.2862E+06    -53.9003E+06    -6.37431E+06    -2.84748E+06    -14.8470E-03     29.7248E-03    -14.8779E-03     15.6440E-03    -14.8415E-03     29.4887E-03    -14.8080E-03     15.6048E-03
             696     5.32062E-03     77.8442E-03    -14.0635E+06    -52.9499E+06    -2.74875E+06    -3.30157E+06    -14.8694E-03     29.7548E-03    -14.8854E-03     19.0686E-03    -14.8597E-03     29.5152E-03    -14.8020E-03     19.0229E-03
             697     6.20751E-03     77.8636E-03    -11.7877E+06    -52.0322E+06         636.676    -3.59506E+06    -14.9030E-03     29.7915E-03    -14.8885E-03     22.6816E-03    -14.8877E-03     29.5496E-03    -14.7960E-03     22.6313E-03
             698     7.09426E-03     77.8862E-03    -9.73655E+06    -51.0934E+06     2.06977E+06    -3.84346E+06    -14.9495E-03     29.8384E-03    -14.8889E-03     26.4980E-03    -14.9288E-03     29.5958E-03    -14.7904E-03     26.4435E-03
             699     7.98116E-03     77.9127E-03    -7.91053E+06    -50.8350E+06     3.51268E+06    -4.02434E+06    -15.0076E-03     29.8956E-03    -14.8880E-03     30.5156E-03    -14.9812E-03     29.6505E-03    -14.7853E-03     30.4575E-03
             700     8.86790E-03     77.9426E-03    -6.33206E+06    -48.8518E+06     3.73416E+06    -4.18835E+06    -15.0695E-03     29.9484E-03    -14.8789E-03     34.7624E-03    -15.0397E-03     29.7119E-03    -14.7802E-03     34.7003E-03
             701     9.75487E-03     77.9770E-03    -4.97641E+06    -47.1625E+06     4.35068E+06    -4.12923E+06    -15.1143E-03     29.9854E-03    -14.8711E-03     39.1213E-03    -15.0832E-03     29.7566E-03    -14.7738E-03     39.0574E-03
             702     10.6416E-03     78.0150E-03    -4.05093E+06    -48.1443E+06     2.35988E+06    -4.33047E+06    -15.2001E-03     30.0538E-03    -14.8537E-03     43.4798E-03    -15.1636E-03     29.8251E-03    -14.7662E-03     43.4098E-03
             703     11.5286E-03     78.0575E-03    -3.59776E+06    -42.0350E+06     642.831E+03    -4.29480E+06    -15.3869E-03     30.2185E-03    -14.8315E-03     48.5154E-03    -15.3603E-03     30.0280E-03    -14.7622E-03     48.4411E-03
             704     12.4153E-03     78.1049E-03    -2.76075E+06    -35.7139E+06     696.943E+03    -3.55097E+06    -15.5215E-03     30.3410E-03    -14.8194E-03     55.5728E-03    -15.5112E-03     30.1920E-03    -14.7602E-03     55.5021E-03
             705     13.3019E-03     78.1603E-03    -884.093E+03    -31.8182E+06    -7.36448E+06    -2.79059E+06    -15.5222E-03     30.2847E-03    -14.7624E-03     61.1566E-03    -15.5145E-03     30.1822E-03    -14.7518E-03     61.0893E-03
             706     14.1905E-03     78.2180E-03    -617.717E+03    -10.3292E+06    -7.61329E+06    -2.43790E+06    -15.8534E-03     30.5770E-03    -14.7236E-03     66.4608E-03    -15.9051E-03     30.6119E-03    -14.7458E-03     66.3945E-03
             707     15.0745E-03     78.2841E-03    -1.54053E+06     22.0562E+06    -10.5000E+06    -1.98080E+06    -16.4586E-03     31.1239E-03    -14.6653E-03     84.3489E-03    -16.6697E-03     31.4383E-03    -14.7475E-03     84.3055E-03
             708     15.9631E-03     78.3743E-03    -1.93571E+06     66.2023E+06    -24.4351E+06    -680.739E+03    -17.5872E-03     32.1158E-03    -14.5286E-03     119.259E-03    -18.3753E-03     33.2029E-03    -14.7440E-03     119.473E-03
             709     16.8513E-03     78.5058E-03    -2.01140E+06     127.625E+06     18.7135E+06     49.6104E+03    -16.3409E-03     30.9797E-03    -14.6387E-03     103.240E-03    -17.4083E-03     32.4387E-03    -14.7273E-03     103.862E-03
             710     886.722E-06     78.7705E-03    -23.0833E+06    -58.7384E+06    -22.4912E+06    -749.585E+03    -14.8287E-03     29.6647E-03    -14.8361E-03     3.34105E-03    -14.8263E-03     29.4372E-03    -14.8299E-03     3.33092E-03
             711     1.77354E-03     78.7749E-03    -22.1106E+06    -57.2772E+06    -19.8163E+06    -1.38500E+06    -14.8280E-03     29.6685E-03    -14.8405E-03     6.18646E-03    -14.8269E-03     29.4430E-03    -14.8244E-03     6.16772E-03
             712     2.66025E-03     78.7819E-03    -20.5695E+06    -55.6040E+06    -15.8074E+06    -1.99754E+06    -14.8274E-03     29.6787E-03    -14.8513E-03     9.22859E-03    -14.8269E-03     29.4536E-03    -14.8199E-03     9.20149E-03
             713     3.54709E-03     78.7920E-03    -18.6301E+06    -54.0871E+06    -11.0976E+06    -2.60656E+06    -14.8322E-03     29.6966E-03    -14.8644E-03     12.3755E-03    -14.8311E-03     29.4695E-03    -14.8144E-03     12.3400E-03
             714     4.43382E-03     78.8048E-03    -16.4444E+06    -52.7309E+06    -6.61078E+06    -3.11992E+06    -14.8446E-03     29.7204E-03    -14.8757E-03     15.6452E-03    -14.8413E-03     29.4906E-03    -14.8085E-03     15.6026E-03
             715     5.32068E-03     78.8209E-03    -14.2471E+06    -51.7407E+06    -2.93239E+06    -3.65039E+06    -14.8672E-03     29.7506E-03    -14.8834E-03     19.0692E-03    -14.8600E-03     29.5176E-03    -14.8024E-03     19.0190E-03
             716     6.20744E-03     78.8400E-03    -12.1488E+06    -51.1375E+06    -407.217E+03    -4.13916E+06    -14.8995E-03     29.7855E-03    -14.8860E-03     22.6828E-03    -14.8866E-03     29.5492E-03    -14.7963E-03     22.6255E-03
             717     7.09433E-03     78.8629E-03    -10.0815E+06    -50.2758E+06     1.53562E+06    -4.38623E+06    -14.9433E-03     29.8289E-03    -14.8856E-03     26.5036E-03    -14.9248E-03     29.5917E-03    -14.7904E-03     26.4422E-03
             718     7.98108E-03     78.8891E-03    -8.14653E+06    -50.1380E+06     3.15334E+06    -4.61872E+06    -15.0028E-03     29.8879E-03    -14.8851E-03     30.5222E-03    -14.9780E-03     29.6471E-03    -14.7849E-03     30.4564E-03
             719     8.86800E-03     78.9194E-03    -6.42984E+06    -48.3380E+06     3.58436E+06    -4.75350E+06    -15.0522E-03     29.9284E-03    -14.8763E-03     34.7437E-03    -15.0234E-03     29.6948E-03    -14.7789E-03     34.6743E-03
             720     9.75478E-03     78.9533E-03    -4.94844E+06    -46.8213E+06     4.08651E+06    -4.69164E+06    -15.0970E-03     29.9637E-03    -14.8667E-03     39.0618E-03    -15.0659E-03     29.7369E-03    -14.7712E-03     38.9907E-03
             721     10.6418E-03     78.9917E-03    -3.80445E+06    -47.4731E+06     2.13634E+06    -4.55132E+06    -15.2509E-03     30.1010E-03    -14.8501E-03     43.5191E-03    -15.2138E-03     29.8757E-03    -14.7651E-03     43.4462E-03
             722     11.5285E-03     79.0339E-03    -3.23397E+06    -41.9530E+06     780.049E+03    -4.47574E+06    -15.3192E-03     30.1492E-03    -14.8300E-03     48.5293E-03    -15.2911E-03     29.9583E-03    -14.7605E-03     48.4529E-03
             723     12.4154E-03     79.0818E-03    -2.30786E+06    -35.7150E+06     837.701E+03    -4.57165E+06    -15.4215E-03     30.2334E-03    -14.8118E-03     55.5928E-03    -15.4089E-03     30.0833E-03    -14.7525E-03     55.5091E-03
             724     13.3029E-03     79.1363E-03    -1.74479E+06    -32.1340E+06    -8.05933E+06    -4.33681E+06    -15.7857E-03     30.5443E-03    -14.7585E-03     61.2461E-03    -15.7815E-03     30.4431E-03    -14.7497E-03     61.1580E-03
             725     14.1879E-03     79.1950E-03    -1.27356E+06    -11.8543E+06    -8.20992E+06    -2.97525E+06    -15.7318E-03     30.4582E-03    -14.7265E-03     66.6310E-03    -15.7833E-03     30.4870E-03    -14.7485E-03     66.5582E-03
             726     15.0774E-03     79.2606E-03    -1.31564E+06     21.0292E+06    -10.6173E+06    -1.50945E+06    -16.0924E-03     30.7461E-03    -14.6538E-03     84.5313E-03    -16.3002E-03     31.0548E-03    -14.7354E-03     84.4955E-03
             727     15.9631E-03     79.3507E-03    -3.01193E+06     65.3812E+06    -24.2675E+06    -918.780E+03    -17.5788E-03     32.0884E-03    -14.5096E-03     119.373E-03    -18.3688E-03     33.1702E-03    -14.7214E-03     119.582E-03
             728     16.8491E-03     79.4820E-03    -2.82828E+06     127.301E+06     18.5122E+06    -353.537E+03    -16.4861E-03     31.1077E-03    -14.6216E-03     102.784E-03    -17.5499E-03     32.5597E-03    -14.7095E-03     103.394E-03
             729     886.782E-06     79.7472E-03    -23.1813E+06    -57.1559E+06    -22.5864E+06    -839.686E+03    -14.8269E-03     29.6604E-03    -14.8336E-03     3.34184E-03    -14.8272E-03     29.4411E-03    -14.8300E-03     3.33054E-03
             730     1.77349E-03     79.7514E-03    -22.1957E+06    -55.7216E+06    -19.8861E+06    -1.52165E+06    -14.8269E-03     29.6656E-03    -14.8387E-03     6.18655E-03    -14.8284E-03     29.4481E-03    -14.8251E-03     6.16605E-03
             731     2.66030E-03     79.7586E-03    -20.6704E+06    -54.1383E+06    -15.8680E+06    -2.20779E+06    -14.8255E-03     29.6754E-03    -14.8499E-03     9.22906E-03    -14.8275E-03     29.4579E-03    -14.8208E-03     9.19925E-03
             732     3.54703E-03     79.7685E-03    -18.7238E+06    -52.6496E+06    -11.2408E+06    -2.84841E+06    -14.8295E-03     29.6919E-03    -14.8624E-03     12.3771E-03    -14.8308E-03     29.4724E-03    -14.8151E-03     12.3385E-03
             733     4.43387E-03     79.7815E-03    -16.5118E+06    -51.4018E+06    -6.79366E+06    -3.49718E+06    -14.8415E-03     29.7149E-03    -14.8734E-03     15.6471E-03    -14.8401E-03     29.4921E-03    -14.8089E-03     15.5996E-03
             734     5.32063E-03     79.7974E-03    -14.2072E+06    -50.4883E+06    -3.03600E+06    -4.01028E+06    -14.8641E-03     29.7452E-03    -14.8811E-03     19.0714E-03    -14.8583E-03     29.5186E-03    -14.8025E-03     19.0166E-03
             735     6.20749E-03     79.8168E-03    -12.0942E+06    -49.9386E+06    -350.165E+03    -4.50450E+06    -14.8975E-03     29.7820E-03    -14.8845E-03     22.6824E-03    -14.8862E-03     29.5515E-03    -14.7963E-03     22.6204E-03
             736     7.09426E-03     79.8393E-03    -10.1894E+06    -49.3656E+06     1.33390E+06    -4.95250E+06    -14.9366E-03     29.8197E-03    -14.8830E-03     26.5061E-03    -14.9197E-03     29.5875E-03    -14.7900E-03     26.4373E-03
             737     7.98117E-03     79.8659E-03    -8.33897E+06    -49.2562E+06     2.80816E+06    -5.25287E+06    -14.9920E-03     29.8734E-03    -14.8813E-03     30.5349E-03    -14.9690E-03     29.6377E-03    -14.7838E-03     30.4609E-03
             738     8.86793E-03     79.8957E-03    -6.67641E+06    -47.6868E+06     3.26832E+06    -5.42798E+06    -15.0415E-03     29.9138E-03    -14.8722E-03     34.7169E-03    -15.0145E-03     29.6842E-03    -14.7771E-03     34.6388E-03
             739     9.75491E-03     79.9301E-03    -5.00909E+06    -46.4664E+06     3.80338E+06    -5.53834E+06    -15.1270E-03     29.9911E-03    -14.8641E-03     39.0464E-03    -15.0963E-03     29.7666E-03    -14.7704E-03     38.9643E-03
             740     10.6417E-03     79.9679E-03    -3.55651E+06    -47.4922E+06     2.08869E+06    -5.12878E+06    -15.2469E-03     30.0968E-03    -14.8499E-03     43.5779E-03    -15.2084E-03     29.8711E-03    -14.7655E-03     43.4976E-03
             741     11.5285E-03     80.0110E-03    -2.56569E+06    -41.7122E+06     1.05565E+06    -4.81600E+06    -15.2764E-03     30.1051E-03    -14.8286E-03     48.3433E-03    -15.2456E-03     29.9140E-03    -14.7591E-03     48.2625E-03
             742     12.4158E-03     80.0571E-03    -1.77137E+06    -34.7185E+06     1.03818E+06    -5.14122E+06    -15.4217E-03     30.2297E-03    -14.8079E-03     55.4545E-03    -15.4081E-03     30.0834E-03    -14.7498E-03     55.3635E-03
             743     13.3020E-03     80.1141E-03    -2.08734E+06    -32.7584E+06    -8.67753E+06    -4.89226E+06    -15.7103E-03     30.4619E-03    -14.7516E-03     61.6027E-03    -15.7061E-03     30.3592E-03    -14.7445E-03     61.5076E-03
             744     14.1899E-03     80.1714E-03    -2.48830E+06    -13.5946E+06    -9.48896E+06    -3.72028E+06    -15.7049E-03     30.4210E-03    -14.7162E-03     66.3916E-03    -15.7578E-03     30.4444E-03    -14.7403E-03     66.3092E-03
             745     15.0757E-03     80.2356E-03    -1.72187E+06     19.8578E+06    -11.5437E+06    -2.18107E+06    -16.0502E-03     30.6924E-03    -14.6422E-03     84.2643E-03    -16.2574E-03     30.9975E-03    -14.7262E-03     84.2207E-03
             746     15.9637E-03     80.3287E-03    -841.784E+03     64.2977E+06    -23.6592E+06    -748.916E+03    -17.4077E-03     31.9041E-03    -14.4964E-03     119.439E-03    -18.1859E-03     32.9762E-03    -14.7067E-03     119.650E-03
             747     16.8515E-03     80.4579E-03    -1.55486E+06     126.926E+06     19.5705E+06     14.8131E+03    -16.6708E-03     31.2820E-03    -14.6112E-03     103.191E-03    -17.7322E-03     32.7318E-03    -14.6952E-03     103.801E-03
             748     886.725E-06     80.7237E-03    -23.2703E+06    -55.4128E+06    -22.6856E+06    -926.605E+03    -14.8254E-03     29.6569E-03    -14.8315E-03     3.34383E-03    -14.8285E-03     29.4465E-03    -14.8308E-03     3.33140E-03
             749     1.77353E-03     80.7281E-03    -22.3034E+06    -54.0409E+06    -19.9953E+06    -1.65307E+06    -14.8240E-03     29.6608E-03    -14.8367E-03     6.18600E-03    -14.8283E-03     29.4520E-03    -14.8260E-03     6.16380E-03
             750     2.66026E-03     80.7351E-03    -20.7695E+06    -52.5015E+06    -15.9898E+06    -2.40599E+06    -14.8227E-03     29.6702E-03    -14.8476E-03     9.23045E-03    -14.8274E-03     29.4612E-03    -14.8213E-03     9.19808E-03
             751     3.54707E-03     80.7452E-03    -18.7989E+06    -51.0855E+06    -11.3509E+06    -3.14528E+06    -14.8261E-03     29.6860E-03    -14.8599E-03     12.3794E-03    -14.8298E-03     29.4746E-03    -14.8154E-03     12.3370E-03
             752     4.43383E-03     80.7580E-03    -16.6222E+06    -49.8602E+06    -6.88771E+06    -3.83252E+06    -14.8376E-03     29.7084E-03    -14.8708E-03     15.6500E-03    -14.8389E-03     29.4937E-03    -14.8089E-03     15.5981E-03
             753     5.32067E-03     80.7741E-03    -14.3798E+06    -49.1511E+06    -3.21918E+06    -4.49009E+06    -14.8588E-03     29.7370E-03    -14.8782E-03     19.0747E-03    -14.8555E-03     29.5175E-03    -14.8022E-03     19.0137E-03
             754     6.20746E-03     80.7932E-03    -12.1264E+06    -48.7081E+06    -505.425E+03    -4.94618E+06    -14.8901E-03     29.7711E-03    -14.8811E-03     22.6865E-03    -14.8805E-03     29.5471E-03    -14.7954E-03     22.6188E-03
             755     7.09432E-03     80.8161E-03    -10.1195E+06    -48.1550E+06     1.36788E+06    -5.40032E+06    -14.9332E-03     29.8133E-03    -14.8801E-03     26.5081E-03    -14.9178E-03     29.5870E-03    -14.7887E-03     26.4336E-03
             756     7.98112E-03     80.8422E-03    -8.41424E+06    -48.3153E+06     2.63761E+06    -5.78862E+06    -14.9752E-03     29.8524E-03    -14.8772E-03     30.5303E-03    -14.9537E-03     29.6218E-03    -14.7817E-03     30.4494E-03
             757     8.86804E-03     80.8726E-03    -6.76361E+06    -46.7865E+06     3.09548E+06    -6.07500E+06    -15.0467E-03     29.9146E-03    -14.8679E-03     34.7180E-03    -15.0211E-03     29.6899E-03    -14.7748E-03     34.6316E-03
             758     9.75483E-03     80.9063E-03    -5.41668E+06    -45.8975E+06     3.45539E+06    -6.24639E+06    -15.1498E-03     30.0111E-03    -14.8614E-03     39.1042E-03    -15.1214E-03     29.7906E-03    -14.7697E-03     39.0130E-03
             759     10.6416E-03     80.9450E-03    -4.22787E+06    -47.8823E+06     1.29071E+06    -5.91023E+06    -15.2084E-03     30.0549E-03    -14.8464E-03     43.5539E-03    -15.1716E-03     29.8293E-03    -14.7644E-03     43.4636E-03
             760     11.5288E-03     80.9867E-03    -2.83343E+06    -41.2809E+06     614.536E+03    -5.66332E+06    -15.3130E-03     30.1381E-03    -14.8251E-03     48.3775E-03    -15.2835E-03     29.9503E-03    -14.7581E-03     48.2858E-03
             761     12.4151E-03     81.0346E-03    -2.00098E+06    -34.0659E+06     909.006E+03    -5.46137E+06    -15.4890E-03     30.2985E-03    -14.8094E-03     55.4926E-03    -15.4774E-03     30.1562E-03    -14.7526E-03     55.3973E-03
             762     13.3028E-03     81.0894E-03    -1.57102E+06    -33.6004E+06    -8.67873E+06    -5.07987E+06    -15.5610E-03     30.3134E-03    -14.7524E-03     61.3617E-03    -15.5525E-03     30.2052E-03    -14.7447E-03     61.2646E-03
             763     14.1892E-03     81.1485E-03    -1.73793E+06    -14.1954E+06    -9.60739E+06    -4.48484E+06    -15.7450E-03     30.4574E-03    -14.7123E-03     66.0846E-03    -15.7931E-03     30.4767E-03    -14.7373E-03     65.9923E-03
             764     15.0764E-03     81.2125E-03    -1.72067E+06     18.6396E+06    -12.0174E+06    -3.40545E+06    -16.2676E-03     30.9144E-03    -14.6468E-03     83.8664E-03    -16.4717E-03     31.2134E-03    -14.7314E-03     83.8057E-03
             765     15.9636E-03     81.3037E-03    -2.38401E+06     61.9199E+06    -25.6387E+06    -1.42570E+06    -17.5516E-03     32.0604E-03    -14.5087E-03     118.817E-03    -18.3308E-03     33.1252E-03    -14.7233E-03     119.020E-03
             766     16.8504E-03     81.4351E-03    -2.68035E+06     126.225E+06     17.5948E+06     227.960E+03    -16.5203E-03     31.1422E-03    -14.6219E-03     102.257E-03    -17.5801E-03     32.5895E-03    -14.7130E-03     102.873E-03
             767     886.773E-06     81.7004E-03    -23.3177E+06    -53.5416E+06    -22.6976E+06    -978.162E+03    -14.8218E-03     29.6521E-03    -14.8303E-03     3.34395E-03    -14.8279E-03     29.4512E-03    -14.8323E-03     3.33086E-03
             768     1.77349E-03     81.7046E-03    -22.3513E+06    -52.2118E+06    -20.0566E+06    -1.78425E+06    -14.8207E-03     29.6548E-03    -14.8341E-03     6.18686E-03    -14.8277E-03     29.4553E-03    -14.8262E-03     6.16297E-03
             769     2.66029E-03     81.7118E-03    -20.8170E+06    -50.6914E+06    -16.0648E+06    -2.62605E+06    -14.8186E-03     29.6630E-03    -14.8445E-03     9.23103E-03    -14.8260E-03     29.4632E-03    -14.8211E-03     9.19581E-03
             770     3.54704E-03     81.7217E-03    -18.8558E+06    -49.3447E+06    -11.3587E+06    -3.44006E+06    -14.8217E-03     29.6787E-03    -14.8570E-03     12.3811E-03    -14.8282E-03     29.4761E-03    -14.8149E-03     12.3348E-03
             771     4.43386E-03     81.7347E-03    -16.6302E+06    -48.2342E+06    -6.86731E+06    -4.17908E+06    -14.8320E-03     29.6998E-03    -14.8677E-03     15.6530E-03    -14.8358E-03     29.4932E-03    -14.8080E-03     15.5967E-03
             772     5.32065E-03     81.7506E-03    -14.4008E+06    -47.5566E+06    -3.21757E+06    -4.86643E+06    -14.8509E-03     29.7253E-03    -14.8745E-03     19.0773E-03    -14.8500E-03     29.5139E-03    -14.8007E-03     19.0115E-03
             773     6.20749E-03     81.7700E-03    -12.2969E+06    -47.4160E+06    -686.771E+03    -5.49355E+06    -14.8823E-03     29.7588E-03    -14.8765E-03     22.6910E-03    -14.8752E-03     29.5417E-03    -14.7934E-03     22.6162E-03
             774     7.09432E-03     81.7925E-03    -10.2612E+06    -46.9290E+06     1.12500E+06    -5.90296E+06    -14.9226E-03     29.7973E-03    -14.8747E-03     26.5149E-03    -14.9093E-03     29.5777E-03    -14.7861E-03     26.4339E-03
             775     7.98117E-03     81.8190E-03    -8.43321E+06    -47.1672E+06     2.57824E+06    -6.28037E+06    -14.9739E-03     29.8464E-03    -14.8725E-03     30.5102E-03    -14.9541E-03     29.6217E-03    -14.7790E-03     30.4229E-03
             776     8.86804E-03     81.8487E-03    -6.92411E+06    -45.9126E+06     2.87115E+06    -6.60163E+06    -15.0421E-03     29.9052E-03    -14.8631E-03     34.7504E-03    -15.0183E-03     29.6855E-03    -14.7722E-03     34.6572E-03
             777     9.75485E-03     81.8833E-03    -5.53325E+06    -45.2146E+06     3.17504E+06    -6.68141E+06    -15.1239E-03     29.9794E-03    -14.8555E-03     39.1429E-03    -15.0967E-03     29.7628E-03    -14.7661E-03     39.0461E-03
             778     10.6418E-03     81.9209E-03    -4.42518E+06    -47.6917E+06     837.022E+03    -6.70082E+06    -15.2310E-03     30.0718E-03    -14.8407E-03     43.5183E-03    -15.1948E-03     29.8481E-03    -14.7610E-03     43.4178E-03
             779     11.5284E-03     81.9638E-03    -3.45161E+06    -40.7214E+06    -55.0064E+03    -6.55299E+06    -15.2966E-03     30.1157E-03    -14.8191E-03     48.4458E-03    -15.2700E-03     29.9325E-03    -14.7553E-03     48.3426E-03
             780     12.4159E-03     82.0106E-03    -2.28528E+06    -34.0061E+06     361.074E+03    -6.30615E+06    -15.4868E-03     30.2905E-03    -14.8037E-03     55.6148E-03    -15.4760E-03     30.1498E-03    -14.7493E-03     55.5086E-03
             781     13.3018E-03     82.0665E-03    -1.48173E+06    -34.0589E+06    -9.53416E+06    -5.60176E+06    -15.7199E-03     30.4702E-03    -14.7503E-03     61.4545E-03    -15.7093E-03     30.3611E-03    -14.7465E-03     61.3503E-03
             782     14.1893E-03     82.1242E-03    -1.58066E+06    -14.8530E+06    -10.1950E+06    -4.64748E+06    -15.7298E-03     30.4457E-03    -14.7159E-03     66.3287E-03    -15.7753E-03     30.4624E-03    -14.7431E-03     66.2346E-03
             783     15.0762E-03     82.1896E-03    -2.66336E+06     17.3436E+06    -12.8021E+06    -3.63603E+06    -16.5124E-03     31.1703E-03    -14.6579E-03     83.8645E-03    -16.7187E-03     31.4658E-03    -14.7432E-03     83.7985E-03
             784     15.9624E-03     82.2800E-03    -3.89719E+06     59.2830E+06    -26.7573E+06    -1.96652E+06    -17.8778E-03     32.4133E-03    -14.5355E-03     119.224E-03    -18.6622E-03     33.4719E-03    -14.7496E-03     119.417E-03
             785     16.8483E-03     82.4127E-03    -2.56341E+06     124.841E+06     16.8915E+06    -435.437E+03    -16.1147E-03     30.7562E-03    -14.6415E-03     103.099E-03    -17.1749E-03     32.2015E-03    -14.7343E-03     103.717E-03
             786     886.733E-06     82.6769E-03    -23.1286E+06    -51.5349E+06    -22.5463E+06    -1.04656E+06    -14.8189E-03     29.6454E-03    -14.8265E-03     3.34633E-03    -14.8271E-03     29.4540E-03    -14.8310E-03     3.33236E-03
             787     1.77353E-03     82.6814E-03    -22.1398E+06    -50.2141E+06    -19.8376E+06    -1.92599E+06    -14.8176E-03     29.6485E-03    -14.8309E-03     6.18677E-03    -14.8268E-03     29.4584E-03    -14.8252E-03     6.16104E-03
             788     2.66026E-03     82.6883E-03    -20.6172E+06    -48.7394E+06    -15.8438E+06    -2.82424E+06    -14.8145E-03     29.6558E-03    -14.8413E-03     9.23170E-03    -14.8241E-03     29.4651E-03    -14.8200E-03     9.19393E-03
             789     3.54707E-03     82.6984E-03    -18.6936E+06    -47.4447E+06    -11.2005E+06    -3.69923E+06    -14.8158E-03     29.6690E-03    -14.8532E-03     12.3832E-03    -14.8245E-03     29.4754E-03    -14.8133E-03     12.3336E-03
             790     4.43385E-03     82.7112E-03    -16.5382E+06    -46.4687E+06    -6.77319E+06    -4.51883E+06    -14.8235E-03     29.6868E-03    -14.8633E-03     15.6554E-03    -14.8295E-03     29.4888E-03    -14.8058E-03     15.5947E-03
             791     5.32068E-03     82.7273E-03    -14.3090E+06    -45.8872E+06    -3.13442E+06    -5.23355E+06    -14.8425E-03     29.7120E-03    -14.8695E-03     19.0799E-03    -14.8438E-03     29.5086E-03    -14.7978E-03     19.0093E-03
             792     6.20751E-03     82.7464E-03    -12.2027E+06    -45.8748E+06    -557.969E+03    -5.87146E+06    -14.8747E-03     29.7462E-03    -14.8715E-03     22.6946E-03    -14.8696E-03     29.5365E-03    -14.7901E-03     22.6150E-03
             793     7.09433E-03     82.7692E-03    -10.3206E+06    -45.6458E+06     1.03962E+06    -6.44879E+06    -14.9119E-03     29.7806E-03    -14.8687E-03     26.5104E-03    -14.9006E-03     29.5676E-03    -14.7824E-03     26.4223E-03
             794     7.98123E-03     82.7953E-03    -8.49334E+06    -45.9817E+06     2.35302E+06    -6.84006E+06    -14.9734E-03     29.8393E-03    -14.8659E-03     30.5309E-03    -14.9552E-03     29.6209E-03    -14.7751E-03     30.4365E-03
             795     8.86799E-03     82.8257E-03    -6.90159E+06    -44.9135E+06     2.76520E+06    -7.09976E+06    -15.0295E-03     29.8867E-03    -14.8572E-03     34.7508E-03    -15.0068E-03     29.6721E-03    -14.7682E-03     34.6512E-03
             796     9.75503E-03     82.8594E-03    -5.43961E+06    -44.4958E+06     3.11860E+06    -7.34036E+06    -15.0986E-03     29.9475E-03    -14.8489E-03     39.1465E-03    -15.0719E-03     29.7344E-03    -14.7609E-03     39.0412E-03
             797     10.6417E-03     82.8981E-03    -3.90735E+06    -46.9351E+06     987.364E+03    -7.47395E+06    -15.2194E-03     30.0527E-03    -14.8332E-03     43.5808E-03    -15.1819E-03     29.8318E-03    -14.7546E-03     43.4703E-03
             798     11.5288E-03     82.9398E-03    -2.86619E+06    -40.6010E+06    -339.596E+03    -7.31651E+06    -15.3215E-03     30.1325E-03    -14.8110E-03     48.4694E-03    -15.2918E-03     29.9495E-03    -14.7497E-03     48.3563E-03
             799     12.4153E-03     82.9875E-03    -2.28899E+06    -34.0995E+06    -15.5360E+03    -6.99436E+06    -15.5145E-03     30.3130E-03    -14.7985E-03     55.6041E-03    -15.5030E-03     30.1724E-03    -14.7458E-03     55.4890E-03
             800     13.3030E-03     83.0429E-03    -2.14135E+06    -34.0984E+06    -9.65608E+06    -6.27253E+06    -15.7228E-03     30.4715E-03    -14.7487E-03     61.3617E-03    -15.7152E-03     30.3633E-03    -14.7445E-03     61.2488E-03
             801     14.1891E-03     83.1012E-03    -2.06105E+06    -15.9053E+06    -10.6821E+06    -5.21346E+06    -15.7968E-03     30.5129E-03    -14.7161E-03     66.3399E-03    -15.8425E-03     30.5258E-03    -14.7435E-03     66.2380E-03
             802     15.0762E-03     83.1655E-03    -1.90515E+06     15.6842E+06    -13.2034E+06    -3.90667E+06    -16.4208E-03     31.0763E-03    -14.6555E-03     84.8374E-03    -16.6230E-03     31.3658E-03    -14.7415E-03     84.7692E-03
             803     15.9624E-03     83.2588E-03    -1.84272E+06     57.5791E+06    -26.3441E+06    -2.21299E+06    -17.5510E-03     32.0727E-03    -14.5217E-03     119.724E-03    -18.3207E-03     33.1166E-03    -14.7342E-03     119.917E-03
             804     16.8517E-03     83.3864E-03    -1.70438E+06     123.794E+06     17.2141E+06    -692.929E+03    -16.2714E-03     30.8948E-03    -14.6233E-03     103.149E-03    -17.3241E-03     32.3309E-03    -14.7143E-03     103.760E-03
             805     886.768E-06     83.6537E-03    -22.7440E+06    -49.3674E+06    -22.1350E+06    -1.12702E+06    -14.8183E-03     29.6374E-03    -14.8191E-03     3.34765E-03    -14.8284E-03     29.4557E-03    -14.8252E-03     3.33265E-03
             806     1.77350E-03     83.6578E-03    -21.7802E+06    -48.0868E+06    -19.4636E+06    -2.04981E+06    -14.8124E-03     29.6391E-03    -14.8267E-03     6.18650E-03    -14.8234E-03     29.4585E-03    -14.8227E-03     6.15918E-03
             807     2.66029E-03     83.6651E-03    -20.2699E+06    -46.6505E+06    -15.5127E+06    -3.00729E+06    -14.8083E-03     29.6448E-03    -14.8365E-03     9.23336E-03    -14.8197E-03     29.4636E-03    -14.8170E-03     9.19323E-03
             808     3.54707E-03     83.6749E-03    -18.3579E+06    -45.4355E+06    -10.9113E+06    -3.92042E+06    -14.8079E-03     29.6556E-03    -14.8478E-03     12.3855E-03    -14.8182E-03     29.4712E-03    -14.8098E-03     12.3331E-03
             809     4.43388E-03     83.6879E-03    -16.2347E+06    -44.5293E+06    -6.47333E+06    -4.79362E+06    -14.8150E-03     29.6724E-03    -14.8574E-03     15.6564E-03    -14.8227E-03     29.4832E-03    -14.8017E-03     15.5922E-03
             810     5.32071E-03     83.7037E-03    -14.0622E+06    -44.1414E+06    -2.88550E+06    -5.58628E+06    -14.8349E-03     29.6982E-03    -14.8633E-03     19.0842E-03    -14.8378E-03     29.5028E-03    -14.7933E-03     19.0090E-03
             811     6.20752E-03     83.7231E-03    -11.9542E+06    -44.2199E+06    -353.394E+03    -6.27026E+06    -14.8638E-03     29.7286E-03    -14.8648E-03     22.6950E-03    -14.8601E-03     29.5265E-03    -14.7851E-03     22.6102E-03
             812     7.09441E-03     83.7456E-03    -10.0023E+06    -44.1355E+06     1.28657E+06    -6.86455E+06    -14.9056E-03     29.7676E-03    -14.8620E-03     26.5163E-03    -14.8952E-03     29.5613E-03    -14.7771E-03     26.4228E-03
             813     7.98120E-03     83.7721E-03    -8.34805E+06    -44.7551E+06     2.38822E+06    -7.36669E+06    -14.9547E-03     29.8129E-03    -14.8581E-03     30.5489E-03    -14.9377E-03     29.6003E-03    -14.7692E-03     30.4477E-03
             814     8.86819E-03     83.8019E-03    -6.72676E+06    -43.7681E+06     2.74645E+06    -7.71812E+06    -15.0247E-03     29.8734E-03    -14.8487E-03     34.7727E-03    -15.0028E-03     29.6643E-03    -14.7617E-03     34.6651E-03
             815     9.75487E-03     83.8362E-03    -5.39605E+06    -43.4977E+06     3.06257E+06    -7.95479E+06    -15.0886E-03     29.9292E-03    -14.8406E-03     39.1523E-03    -15.0630E-03     29.7211E-03    -14.7544E-03     39.0391E-03
             816     10.6421E-03     83.8741E-03    -4.34856E+06    -45.9653E+06     786.627E+03    -8.31610E+06    -15.1818E-03     30.0056E-03    -14.8238E-03     43.5835E-03    -15.1476E-03     29.7904E-03    -14.7469E-03     43.4622E-03
             817     11.5288E-03     83.9167E-03    -3.40851E+06    -40.3793E+06      -562.9E+03    -8.22780E+06    -15.3718E-03     30.1756E-03    -14.8038E-03     48.5323E-03    -15.3449E-03     29.9949E-03    -14.7431E-03     48.4074E-03
             818     12.4158E-03     83.9638E-03    -2.88828E+06    -34.4402E+06    -241.638E+03    -7.35759E+06    -15.5780E-03     30.3748E-03    -14.7968E-03     55.6565E-03    -15.5688E-03     30.2337E-03    -14.7439E-03     55.5366E-03
             819     13.3017E-03     84.0196E-03    -2.10289E+06    -34.2152E+06    -9.29936E+06    -6.92539E+06    -15.6870E-03     30.4369E-03    -14.7499E-03     61.3726E-03    -15.6796E-03     30.3275E-03    -14.7437E-03     61.2513E-03
             820     14.1895E-03     84.0774E-03    -1.21762E+06    -16.8212E+06    -10.6065E+06    -6.44795E+06    -15.7132E-03     30.4251E-03    -14.7120E-03     66.4395E-03    -15.7534E-03     30.4321E-03    -14.7389E-03     66.3220E-03
             821     15.0760E-03     84.1427E-03    -713.186E+03     13.9628E+06    -13.4086E+06    -4.69850E+06    -16.1321E-03     30.7719E-03    -14.6398E-03     84.7525E-03    -16.3242E-03     31.0499E-03    -14.7261E-03     84.6761E-03
             822     15.9646E-03     84.2339E-03    -1.52714E+06     55.5292E+06    -26.8989E+06    -2.47989E+06    -17.5099E-03     32.0081E-03    -14.4982E-03     119.128E-03    -18.2712E-03     33.0391E-03    -14.7110E-03     119.316E-03
             823     16.8492E-03     84.3644E-03    -2.36338E+06     122.461E+06     16.1129E+06    -643.317E+03    -16.5835E-03     31.1906E-03    -14.6072E-03     102.684E-03    -17.6341E-03     32.6209E-03    -14.7007E-03     103.288E-03
             824     886.745E-06     84.6301E-03    -22.2082E+06    -47.0963E+06    -21.5843E+06    -1.16169E+06    -14.8108E-03     29.6252E-03    -14.8144E-03     3.34606E-03    -14.8223E-03     29.4533E-03    -14.8218E-03     3.33060E-03
             825     1.77353E-03     84.6346E-03    -21.2520E+06    -45.8208E+06    -18.9355E+06    -2.15280E+06    -14.8051E-03     29.6255E-03    -14.8204E-03     6.18672E-03    -14.8176E-03     29.4547E-03    -14.8178E-03     6.15807E-03
             826     2.66029E-03     84.6415E-03    -19.7489E+06    -44.4290E+06    -14.9929E+06    -3.18063E+06    -14.7998E-03     29.6295E-03    -14.8297E-03     9.23393E-03    -14.8126E-03     29.4579E-03    -14.8116E-03     9.19156E-03
             827     3.54710E-03     84.6516E-03    -17.8421E+06    -43.3322E+06    -10.3747E+06    -4.13953E+06    -14.7989E-03     29.6396E-03    -14.8407E-03     12.3844E-03    -14.8105E-03     29.4641E-03    -14.8039E-03     12.3292E-03
             828     4.43391E-03     84.6644E-03    -15.6889E+06    -42.4561E+06    -5.95141E+06    -5.06128E+06    -14.8072E-03     29.6572E-03    -14.8500E-03     15.6591E-03    -14.8160E-03     29.4768E-03    -14.7954E-03     15.5914E-03
             829     5.32072E-03     84.6805E-03    -13.5148E+06    -42.2840E+06    -2.40847E+06    -5.89084E+06    -14.8238E-03     29.6794E-03    -14.8556E-03     19.0857E-03    -14.8274E-03     29.4919E-03    -14.7867E-03     19.0067E-03
             830     6.20760E-03     84.6995E-03    -11.5157E+06    -42.4682E+06     9.64862E+03    -6.60138E+06    -14.8518E-03     29.7080E-03    -14.8562E-03     22.7010E-03    -14.8489E-03     29.5135E-03    -14.7779E-03     22.6120E-03
             831     7.09440E-03     84.7223E-03    -9.73051E+06    -42.5420E+06     1.56113E+06    -7.25435E+06    -14.8896E-03     29.7424E-03    -14.8528E-03     26.5303E-03    -14.8806E-03     29.5433E-03    -14.7692E-03     26.4319E-03
             832     7.98136E-03     84.7484E-03    -7.99788E+06    -43.2650E+06     2.74753E+06    -7.82474E+06    -14.9416E-03     29.7903E-03    -14.8487E-03     30.5550E-03    -14.9254E-03     29.5842E-03    -14.7607E-03     30.4479E-03
             833     8.86813E-03     84.7786E-03    -6.52376E+06    -42.6053E+06     2.92200E+06    -8.27484E+06    -15.0039E-03     29.8422E-03    -14.8383E-03     34.8040E-03    -14.9829E-03     29.6383E-03    -14.7524E-03     34.6893E-03
             834     9.75520E-03     84.8125E-03    -5.17178E+06    -42.3235E+06     3.27758E+06    -8.50382E+06    -15.0966E-03     29.9272E-03    -14.8306E-03     39.1599E-03    -15.0720E-03     29.7245E-03    -14.7454E-03     39.0397E-03
             835     10.6418E-03     84.8508E-03    -4.43274E+06    -44.8192E+06     896.971E+03    -8.68068E+06    -15.2483E-03     30.0660E-03    -14.8177E-03     43.5755E-03    -15.2164E-03     29.8566E-03    -14.7418E-03     43.4493E-03
             836     11.5289E-03     84.8930E-03    -3.92239E+06    -40.0028E+06    -859.091E+03    -8.76784E+06    -15.3134E-03     30.1118E-03    -14.7985E-03     48.5284E-03    -15.2890E-03     29.9341E-03    -14.7391E-03     48.3966E-03
             837     12.4154E-03     84.9408E-03    -2.61547E+06    -34.4938E+06    -614.006E+03    -8.67989E+06    -15.4390E-03     30.2227E-03    -14.7838E-03     55.8575E-03    -15.4276E-03     30.0814E-03    -14.7330E-03     55.7209E-03
             838     13.3031E-03     84.9959E-03    -1.45645E+06    -34.7078E+06    -10.1795E+06    -8.15906E+06    -15.7012E-03     30.4312E-03    -14.7300E-03     61.7659E-03    -15.6887E-03     30.3198E-03    -14.7284E-03     61.6288E-03
             839     14.1891E-03     85.0542E-03    -1.34453E+06    -17.2890E+06    -11.2884E+06    -7.05193E+06    -15.7910E-03     30.4883E-03    -14.6973E-03     66.5023E-03    -15.8305E-03     30.4944E-03    -14.7267E-03     66.3768E-03
             840     15.0769E-03     85.1184E-03    -1.43884E+06     11.9678E+06    -14.1050E+06    -5.57377E+06    -16.2661E-03     30.9017E-03    -14.6355E-03     84.3086E-03    -16.4570E-03     31.1708E-03    -14.7213E-03     84.2197E-03
             841     15.9624E-03     85.2108E-03    -1.83112E+06     52.1212E+06    -28.1182E+06    -2.81817E+06    -17.6366E-03     32.1371E-03    -14.5005E-03     119.197E-03    -18.3961E-03     33.1566E-03    -14.7140E-03     119.381E-03
             842     16.8515E-03     85.3409E-03    -1.95947E+06     121.195E+06     15.2734E+06    -430.028E+03    -16.5096E-03     31.1173E-03    -14.6077E-03     102.663E-03    -17.5562E-03     32.5429E-03    -14.7042E-03     103.271E-03
             843     886.772E-06     85.6069E-03    -21.4419E+06    -44.7450E+06    -20.8555E+06    -1.20303E+06    -14.7995E-03     29.6077E-03    -14.8082E-03     3.34599E-03    -14.8116E-03     29.4453E-03    -14.8165E-03     3.33000E-03
             844     1.77353E-03     85.6111E-03    -20.5155E+06    -43.4453E+06    -18.2160E+06    -2.22572E+06    -14.7957E-03     29.6069E-03    -14.8113E-03     6.18682E-03    -14.8089E-03     29.4460E-03    -14.8096E-03     6.15723E-03
             845     2.66032E-03     85.6183E-03    -19.0843E+06    -42.0869E+06    -14.2680E+06    -3.29756E+06    -14.7900E-03     29.6106E-03    -14.8206E-03     9.23262E-03    -14.8039E-03     29.4487E-03    -14.8032E-03     9.18875E-03
             846     3.54713E-03     85.6281E-03    -17.2121E+06    -41.0958E+06    -9.69932E+06    -4.34132E+06    -14.7893E-03     29.6208E-03    -14.8315E-03     12.3852E-03    -14.8020E-03     29.4547E-03    -14.7955E-03     12.3274E-03
             847     4.43393E-03     85.6411E-03    -15.1199E+06     -40.302E+06    -5.38080E+06    -5.30535E+06    -14.7938E-03     29.6339E-03    -14.8401E-03     15.6621E-03    -14.8036E-03     29.4626E-03    -14.7867E-03     15.5913E-03
             848     5.32080E-03     85.6569E-03    -12.9803E+06    -40.2849E+06    -1.87452E+06    -6.19151E+06    -14.8085E-03     29.6536E-03    -14.8451E-03     19.0902E-03    -14.8131E-03     29.4745E-03    -14.7772E-03     19.0073E-03
             849     6.20762E-03     85.6762E-03    -10.9507E+06    -40.7710E+06     571.028E+03    -6.86276E+06    -14.8353E-03     29.6807E-03    -14.8454E-03     22.7103E-03    -14.8329E-03     29.4930E-03    -14.7676E-03     22.6179E-03
             850     7.09455E-03     85.6987E-03    -9.14690E+06    -40.6944E+06     2.16399E+06    -7.54871E+06    -14.8719E-03     29.7131E-03    -14.8411E-03     26.5386E-03    -14.8635E-03     29.5215E-03    -14.7580E-03     26.4364E-03
             851     7.98136E-03     85.7251E-03    -7.56413E+06    -41.6954E+06     3.19042E+06    -8.26865E+06    -14.9288E-03     29.7653E-03    -14.8365E-03     30.5777E-03    -14.9134E-03     29.5658E-03    -14.7491E-03     30.4649E-03
             852     8.86835E-03     85.7549E-03    -6.10906E+06    -41.3037E+06     3.34762E+06    -8.69118E+06    -14.9901E-03     29.8164E-03    -14.8263E-03     34.8065E-03    -14.9696E-03     29.6178E-03    -14.7408E-03     34.6864E-03
             853     9.75513E-03     85.7892E-03    -4.87648E+06    -41.2386E+06     3.54396E+06    -8.99976E+06    -15.1008E-03     29.9196E-03    -14.8189E-03     39.2358E-03    -15.0766E-03     29.7215E-03    -14.7343E-03     39.1092E-03
             854     10.6421E-03     85.8273E-03    -3.64727E+06    -43.9141E+06     1.25591E+06    -9.08781E+06    -15.2436E-03     30.0501E-03    -14.8065E-03     43.7703E-03    -15.2095E-03     29.8436E-03    -14.7313E-03     43.6390E-03
             855     11.5286E-03     85.8698E-03    -2.62874E+06    -38.9333E+06    -297.611E+03    -9.28355E+06    -15.2684E-03     30.0542E-03    -14.7859E-03     48.6250E-03    -15.2399E-03     29.8791E-03    -14.7271E-03     48.4867E-03
             856     12.4163E-03     85.9165E-03    -1.69416E+06    -34.0435E+06    -316.276E+03    -9.59988E+06    -15.3667E-03     30.1344E-03    -14.7677E-03     55.8153E-03    -15.3517E-03     29.9934E-03    -14.7174E-03     55.6669E-03
             857     13.3027E-03     85.9729E-03    -2.09829E+06    -35.1103E+06    -10.4905E+06    -8.96615E+06    -15.6556E-03     30.3672E-03    -14.7115E-03     61.6703E-03    -15.6450E-03     30.2548E-03    -14.7100E-03     61.5230E-03
             858     14.1901E-03     86.0305E-03    -2.39481E+06    -18.2499E+06    -11.6656E+06    -7.79379E+06    -15.9001E-03     30.5832E-03    -14.6832E-03     66.4993E-03    -15.9429E-03     30.5866E-03    -14.7116E-03     66.3639E-03
             859     15.0758E-03     86.0956E-03    -2.25832E+06     10.1832E+06    -14.8902E+06    -6.15066E+06    -16.4583E-03     31.0882E-03    -14.6298E-03     84.4954E-03    -16.6505E-03     31.3516E-03    -14.7157E-03     84.3983E-03
             860     15.9641E-03     86.1867E-03    -3.35072E+06     48.5515E+06    -29.6218E+06    -3.57337E+06    -17.7974E-03     32.3015E-03    -14.5041E-03     119.608E-03    -18.5619E-03     33.3123E-03    -14.7177E-03     119.782E-03
             861     16.8491E-03     86.3181E-03    -2.31973E+06     119.121E+06     14.2483E+06    -1.02352E+06    -16.4027E-03     31.0133E-03    -14.6106E-03     102.397E-03    -17.4465E-03     32.4305E-03    -14.7087E-03     102.997E-03
             862     886.768E-06     86.5834E-03    -20.6531E+06    -42.3181E+06    -20.0812E+06    -1.24753E+06    -14.7871E-03     29.5823E-03    -14.7953E-03     3.34488E-03    -14.7999E-03     29.4299E-03    -14.8044E-03     3.32832E-03
             863     1.77356E-03     86.5878E-03    -19.7737E+06    -41.0235E+06    -17.4667E+06    -2.26694E+06    -14.7828E-03     29.5814E-03    -14.7985E-03     6.18767E-03    -14.7970E-03     29.4303E-03    -14.7977E-03     6.15756E-03
             864     2.66035E-03     86.5947E-03    -18.3288E+06    -39.6447E+06    -13.5218E+06    -3.36968E+06    -14.7777E-03     29.5855E-03    -14.8078E-03     9.23428E-03    -14.7924E-03     29.4337E-03    -14.7914E-03     9.18948E-03
             865     3.54716E-03     86.6048E-03    -16.4988E+06    -38.7195E+06    -8.93755E+06    -4.48087E+06    -14.7747E-03     29.5935E-03    -14.8188E-03     12.3893E-03    -14.7884E-03     29.4371E-03    -14.7835E-03     12.3297E-03
             866     4.43401E-03     86.6175E-03    -14.4349E+06    -38.0853E+06    -4.59599E+06    -5.48889E+06    -14.7759E-03     29.6031E-03    -14.8272E-03     15.6658E-03    -14.7867E-03     29.4407E-03    -14.7740E-03     15.5926E-03
             867     5.32084E-03     86.6336E-03    -12.3986E+06    -38.1997E+06    -1.13274E+06    -6.37433E+06    -14.7893E-03     29.6207E-03    -14.8314E-03     19.0978E-03    -14.7950E-03     29.4501E-03    -14.7637E-03     19.0125E-03
             868     6.20775E-03     86.6526E-03    -10.4407E+06    -38.9719E+06     1.19492E+06    -7.16825E+06    -14.8144E-03     29.6453E-03    -14.8309E-03     22.7179E-03    -14.8129E-03     29.4650E-03    -14.7533E-03     22.6216E-03
             869     7.09459E-03     86.6753E-03    -8.62293E+06    -38.8542E+06     2.65803E+06    -7.82684E+06    -14.8520E-03     29.6772E-03    -14.8252E-03     26.5606E-03    -14.8444E-03     29.4934E-03    -14.7431E-03     26.4548E-03
             870     7.98156E-03     86.7014E-03    -7.10300E+06    -39.9193E+06     3.70152E+06    -8.50742E+06    -14.9055E-03     29.7256E-03    -14.8202E-03     30.6051E-03    -14.8911E-03     29.5336E-03    -14.7335E-03     30.4893E-03
             871     8.86838E-03     86.7316E-03    -5.76388E+06    -39.9007E+06     3.65286E+06    -9.13147E+06    -14.9815E-03     29.7911E-03    -14.8096E-03     34.8616E-03    -14.9617E-03     29.5985E-03    -14.7251E-03     34.7359E-03
             872     9.75540E-03     86.7655E-03    -4.46120E+06    -40.0773E+06     3.78094E+06    -9.45819E+06    -15.0566E-03     29.8576E-03    -14.8011E-03     39.3517E-03    -15.0323E-03     29.6643E-03    -14.7176E-03     39.2193E-03
             873     10.6421E-03     86.8040E-03    -3.38860E+06    -43.1026E+06     1.61012E+06    -9.67290E+06    -15.1139E-03     29.8981E-03    -14.7842E-03     43.8556E-03    -15.0801E-03     29.6946E-03    -14.7087E-03     43.7170E-03
             874     11.5296E-03     86.8459E-03    -2.64481E+06    -37.8196E+06    -31.1430E+03    -9.99449E+06    -15.2933E-03     30.0537E-03    -14.7604E-03     48.7665E-03    -15.2669E-03     29.8838E-03    -14.7019E-03     48.6190E-03
             875     12.4157E-03     86.8934E-03    -1.98189E+06    -33.2449E+06    -41.8427E+03    -9.91118E+06    -15.5641E-03     30.3168E-03    -14.7527E-03     55.8370E-03    -15.5524E-03     30.1801E-03    -14.7018E-03     55.6842E-03
             876     13.3032E-03     86.9487E-03    -1.16897E+06    -35.2339E+06    -9.51254E+06    -9.42764E+06    -15.6515E-03     30.3588E-03    -14.7074E-03     61.6456E-03    -15.6374E-03     30.2432E-03    -14.7022E-03     61.4923E-03
             877     14.1896E-03     87.0076E-03    -1.26554E+06    -19.6917E+06    -11.4517E+06    -8.43089E+06    -15.7419E-03     30.4138E-03    -14.6719E-03     66.6809E-03    -15.7770E-03     30.4077E-03    -14.6988E-03     66.5378E-03
             878     15.0775E-03     87.0718E-03    -1.78781E+06     8.41697E+06    -14.9211E+06    -6.80418E+06    -16.5028E-03     31.1182E-03    -14.6153E-03     84.6196E-03    -16.6903E-03     31.3724E-03    -14.6995E-03     84.5137E-03
             879     15.9626E-03     87.1637E-03    -1.99340E+06     45.6863E+06    -29.6792E+06    -3.94939E+06    -17.8352E-03     32.3270E-03    -14.4917E-03     119.979E-03    -18.5907E-03     33.3236E-03    -14.7035E-03     120.150E-03
             880     16.8509E-03     87.2949E-03    -1.59837E+06     116.602E+06     13.0783E+06    -1.24686E+06    -16.4265E-03     31.0203E-03    -14.5938E-03     102.683E-03    -17.4631E-03     32.4272E-03    -14.6951E-03     103.282E-03
             881     886.792E-06     87.5601E-03    -19.8212E+06    -39.8372E+06    -19.1733E+06    -1.26128E+06    -14.7707E-03     29.5484E-03    -14.7777E-03     3.34650E-03    -14.7843E-03     29.4058E-03    -14.7870E-03     3.32976E-03
             882     1.77359E-03     87.5643E-03    -18.8673E+06    -38.5705E+06    -16.5567E+06    -2.30448E+06    -14.7669E-03     29.5488E-03    -14.7819E-03     6.18871E-03    -14.7814E-03     29.4074E-03    -14.7814E-03     6.15811E-03
             883     2.66039E-03     87.5714E-03    -17.4390E+06    -37.1250E+06    -12.6338E+06    -3.44124E+06    -14.7592E-03     29.5502E-03    -14.7909E-03     9.23831E-03    -14.7744E-03     29.4083E-03    -14.7750E-03     9.19260E-03
             884     3.54723E-03     87.5812E-03    -15.5958E+06    -36.2569E+06    -7.98308E+06    -4.57658E+06    -14.7537E-03     29.5553E-03    -14.8016E-03     12.3928E-03    -14.7678E-03     29.4085E-03    -14.7664E-03     12.3320E-03
             885     4.43406E-03     87.5942E-03    -13.5749E+06    -35.8296E+06    -3.58600E+06    -5.59312E+06    -14.7550E-03     29.5650E-03    -14.8099E-03     15.6723E-03    -14.7662E-03     29.4112E-03    -14.7562E-03     15.5978E-03
             886     5.32096E-03     87.6099E-03    -11.5466E+06    -36.1157E+06    -185.965E+03    -6.45676E+06    -14.7653E-03     29.5787E-03    -14.8134E-03     19.1065E-03    -14.7712E-03     29.4159E-03    -14.7452E-03     19.0202E-03
             887     6.20782E-03     87.6292E-03    -9.71612E+06    -36.9165E+06     1.99555E+06    -7.30878E+06    -14.7889E-03     29.6004E-03    -14.8115E-03     22.7352E-03    -14.7880E-03     29.4282E-03    -14.7339E-03     22.6371E-03
             888     7.09479E-03     87.6516E-03    -8.03112E+06    -37.0574E+06     3.24301E+06    -8.11377E+06    -14.8225E-03     29.6268E-03    -14.8043E-03     26.5930E-03    -14.8153E-03     29.4502E-03    -14.7227E-03     26.4835E-03
             889     7.98165E-03     87.6780E-03    -6.45626E+06    -38.1383E+06     4.31645E+06    -8.72233E+06    -14.8751E-03     29.6734E-03    -14.7983E-03     30.6501E-03    -14.8609E-03     29.4884E-03    -14.7120E-03     30.5315E-03
             890     8.86869E-03     87.7078E-03    -5.17512E+06    -38.2548E+06     4.45616E+06    -9.36454E+06    -14.9443E-03     29.7319E-03    -14.7876E-03     34.9448E-03    -14.9251E-03     29.5456E-03    -14.7024E-03     34.8161E-03
             891     9.75549E-03     87.7421E-03    -4.21897E+06    -38.8586E+06     4.40538E+06    -9.82070E+06    -14.9904E-03     29.7672E-03    -14.7768E-03     39.3758E-03    -14.9676E-03     29.5786E-03    -14.6923E-03     39.2388E-03
             892     10.6428E-03     87.7800E-03    -3.32841E+06    -41.8642E+06     2.06018E+06    -10.1683E+06    -15.0976E-03     29.8556E-03    -14.7580E-03     43.8205E-03    -15.0660E-03     29.6576E-03    -14.6822E-03     43.6755E-03
             893     11.5293E-03     87.8225E-03    -2.39501E+06    -36.6766E+06     422.795E+03    -10.6885E+06    -15.2717E-03     30.0065E-03    -14.7348E-03     48.8623E-03    -15.2464E-03     29.8412E-03    -14.6760E-03     48.7060E-03
             894     12.4168E-03     87.8700E-03    -1.64779E+06    -32.8310E+06     323.148E+03    -10.6539E+06    -15.5297E-03     30.2567E-03    -14.7270E-03     56.1371E-03    -15.5173E-03     30.1210E-03    -14.6754E-03     55.9748E-03
             895     13.3026E-03     87.9255E-03    -1.12318E+06    -35.5653E+06    -9.67701E+06    -10.0808E+06    -15.7412E-03     30.4246E-03    -14.6834E-03     61.9832E-03    -15.7266E-03     30.3078E-03    -14.6786E-03     61.8213E-03
             896     14.1904E-03     87.9833E-03    -703.359E+03    -20.1452E+06    -11.2554E+06    -9.13921E+06    -15.7828E-03     30.4368E-03    -14.6540E-03     66.9631E-03    -15.8149E-03     30.4276E-03    -14.6801E-03     66.8108E-03
             897     15.0765E-03     88.0490E-03    -884.940E+03     6.47405E+06    -14.5162E+06    -7.27623E+06    -16.4157E-03     31.0148E-03    -14.5991E-03     84.9480E-03    -16.5971E-03     31.2581E-03    -14.6797E-03     84.8367E-03
             898     15.9645E-03     88.1404E-03    -2.01577E+06     42.0510E+06    -29.3999E+06    -4.49265E+06    -17.6248E-03     32.0961E-03    -14.4712E-03     119.800E-03    -18.3697E-03     33.0684E-03    -14.6763E-03     119.967E-03
             899     16.8510E-03     88.2708E-03    -2.11795E+06     114.290E+06     12.1499E+06    -1.63101E+06    -16.5533E-03     31.1187E-03    -14.5654E-03     102.811E-03    -17.5852E-03     32.5135E-03    -14.6673E-03     103.404E-03
             900     886.806E-06     88.5365E-03    -18.6780E+06    -37.3239E+06    -18.1040E+06    -1.27426E+06    -14.7504E-03     29.5065E-03    -14.7560E-03     3.34868E-03    -14.7635E-03     29.3732E-03    -14.7654E-03     3.33178E-03
             901     1.77362E-03     88.5409E-03    -17.8056E+06    -36.0742E+06    -15.4826E+06    -2.33973E+06    -14.7444E-03     29.5050E-03    -14.7606E-03     6.19202E-03    -14.7588E-03     29.3730E-03    -14.7599E-03     6.16098E-03
             902     2.66046E-03     88.5479E-03    -16.3777E+06    -34.5609E+06    -11.5362E+06    -3.48270E+06    -14.7336E-03     29.5025E-03    -14.7688E-03     9.24168E-03    -14.7488E-03     29.3703E-03    -14.7527E-03     9.19544E-03
             903     3.54730E-03     88.5578E-03    -14.5959E+06    -33.7588E+06    -6.90057E+06    -4.62720E+06    -14.7267E-03     29.5054E-03    -14.7787E-03     12.3988E-03    -14.7410E-03     29.3681E-03    -14.7431E-03     12.3373E-03
             904     4.43419E-03     88.5706E-03    -12.5861E+06    -33.5677E+06    -2.54629E+06    -5.63671E+06    -14.7256E-03     29.5118E-03    -14.7861E-03     15.6824E-03    -14.7367E-03     29.3664E-03    -14.7320E-03     15.6074E-03
             905     5.32106E-03     88.5865E-03    -10.5720E+06    -33.9878E+06     811.905E+03    -6.53712E+06    -14.7338E-03     29.5224E-03    -14.7885E-03     19.1234E-03    -14.7394E-03     29.3674E-03    -14.7199E-03     19.0361E-03
             906     6.20803E-03     88.6055E-03    -8.65082E+06    -34.8217E+06     3.04857E+06    -7.38338E+06    -14.7551E-03     29.5408E-03    -14.7857E-03     22.7649E-03    -14.7534E-03     29.3760E-03    -14.7074E-03     22.6659E-03
             907     7.09491E-03     88.6282E-03    -7.03632E+06    -35.0542E+06     4.32448E+06    -8.22179E+06    -14.7844E-03     29.5619E-03    -14.7776E-03     26.6284E-03    -14.7767E-03     29.3923E-03    -14.6949E-03     26.5177E-03
             908     7.98197E-03     88.6542E-03    -5.66794E+06    -36.4898E+06     5.18780E+06    -8.91534E+06    -14.8342E-03     29.6040E-03    -14.7699E-03     30.7135E-03    -14.8197E-03     29.4248E-03    -14.6828E-03     30.5925E-03
             909     8.86883E-03     88.6844E-03    -4.59146E+06    -36.6445E+06     5.34865E+06    -9.32882E+06    -14.8876E-03     29.6452E-03    -14.7577E-03     35.0017E-03    -14.8690E-03     29.4648E-03    -14.6711E-03     34.8736E-03
             910     9.75601E-03     88.7182E-03    -3.59255E+06    -37.2856E+06     5.40216E+06    -9.97532E+06    -14.9689E-03     29.7154E-03    -14.7465E-03     39.3979E-03    -14.9466E-03     29.5323E-03    -14.6602E-03     39.2589E-03
             911     10.6428E-03     88.7565E-03    -2.66187E+06    -40.1926E+06     3.00475E+06    -10.6506E+06    -15.1235E-03     29.8535E-03    -14.7300E-03     43.9726E-03    -15.0924E-03     29.6615E-03    -14.6528E-03     43.8214E-03
             912     11.5299E-03     88.7989E-03    -1.85449E+06    -35.5954E+06     1.11647E+06    -11.1399E+06    -15.2046E-03     29.9117E-03    -14.7071E-03     49.0066E-03    -15.1791E-03     29.7500E-03    -14.6472E-03     48.8446E-03
             913     12.4165E-03     88.8462E-03    -1.22301E+06    -32.4316E+06     876.055E+03    -11.2684E+06    -15.3571E-03     30.0503E-03    -14.6932E-03     56.2421E-03    -15.3437E-03     29.9149E-03    -14.6400E-03     56.0724E-03
             914     13.3047E-03     88.9021E-03    -1.33318E+06    -35.3781E+06    -9.54946E+06    -10.8133E+06    -15.7707E-03     30.4165E-03    -14.6458E-03     62.1087E-03    -15.7575E-03     30.3007E-03    -14.6403E-03     61.9373E-03
             915     14.1901E-03     88.9602E-03    -1.53095E+06    -20.7902E+06    -11.4930E+06    -9.99939E+06    -15.9573E-03     30.5827E-03    -14.6254E-03     66.9818E-03    -15.9928E-03     30.5722E-03    -14.6505E-03     66.8179E-03
             916     15.0779E-03     89.0250E-03    -811.819E+03     4.66904E+06    -14.3476E+06    -8.13131E+06    -16.4037E-03     30.9830E-03    -14.5793E-03     85.0689E-03    -16.5827E-03     31.2173E-03    -14.6567E-03     84.9469E-03
             917     15.9639E-03     89.1172E-03    -585.903E+03     38.1182E+06    -28.7859E+06    -4.85521E+06    -17.6217E-03     32.0777E-03    -14.4560E-03     119.329E-03    -18.3499E-03     33.0226E-03    -14.6544E-03     119.486E-03
             918     16.8516E-03     89.2467E-03    -1.75390E+06     111.375E+06     12.5037E+06    -1.49287E+06    -16.7641E-03     31.3203E-03    -14.5562E-03     103.173E-03    -17.7934E-03     32.7024E-03    -14.6526E-03     103.765E-03
             919     886.831E-06     89.5132E-03    -17.5155E+06    -34.7910E+06    -16.8496E+06    -1.26936E+06    -14.7245E-03     29.4510E-03    -14.7265E-03     3.35419E-03    -14.7372E-03     29.3269E-03    -14.7349E-03     3.33736E-03
             920     1.77367E-03     89.5173E-03    -16.5818E+06    -33.5537E+06    -14.2779E+06    -2.34509E+06    -14.7132E-03     29.4453E-03    -14.7321E-03     6.19671E-03    -14.7268E-03     29.3224E-03    -14.7308E-03     6.16561E-03
             921     2.66052E-03     89.5245E-03    -15.2421E+06    -32.0241E+06    -10.3800E+06    -3.45803E+06    -14.7005E-03     29.4395E-03    -14.7390E-03     9.24855E-03    -14.7154E-03     29.3167E-03    -14.7223E-03     9.20265E-03
             922     3.54742E-03     89.5342E-03    -13.5034E+06    -31.2307E+06    -5.77185E+06    -4.59554E+06    -14.6901E-03     29.4377E-03    -14.7476E-03     12.4108E-03    -14.7043E-03     29.3098E-03    -14.7115E-03     12.3498E-03
             923     4.43430E-03     89.5471E-03    -11.5468E+06    -31.2722E+06    -1.43684E+06    -5.66121E+06    -14.6853E-03     29.4392E-03    -14.7539E-03     15.6995E-03    -14.6961E-03     29.3022E-03    -14.6990E-03     15.6241E-03
             924     5.32128E-03     89.5628E-03    -9.50994E+06    -31.7769E+06     1.92952E+06    -6.61504E+06    -14.6914E-03     29.4463E-03    -14.7549E-03     19.1522E-03    -14.6964E-03     29.2992E-03    -14.6854E-03     19.0639E-03
             925     6.20819E-03     89.5821E-03    -7.66196E+06    -32.7730E+06     4.10834E+06    -7.47140E+06    -14.7079E-03     29.4585E-03    -14.7506E-03     22.8040E-03    -14.7058E-03     29.3009E-03    -14.6714E-03     22.7039E-03
             926     7.09526E-03     89.6044E-03    -6.10323E+06    -33.0986E+06     5.40484E+06    -8.16534E+06    -14.7361E-03     29.4773E-03    -14.7412E-03     26.6831E-03    -14.7282E-03     29.3145E-03    -14.6573E-03     26.5731E-03
             927     7.98217E-03     89.6307E-03    -4.96344E+06    -34.7970E+06     6.21012E+06    -8.76869E+06    -14.7779E-03     29.5101E-03    -14.7322E-03     30.7805E-03    -14.7638E-03     29.3368E-03    -14.6435E-03     30.6614E-03
             928     8.86933E-03     89.6605E-03    -3.94552E+06    -35.1170E+06     6.16118E+06    -9.30370E+06    -14.8351E-03     29.5527E-03    -14.7177E-03     35.0761E-03    -14.8166E-03     29.3778E-03    -14.6302E-03     34.9484E-03
             929     9.75622E-03     89.6947E-03    -2.98136E+06    -35.2002E+06     6.33477E+06    -10.0751E+06    -14.9476E-03     29.6541E-03    -14.7065E-03     39.5615E-03    -14.9266E-03     29.4792E-03    -14.6195E-03     39.4213E-03
             930     10.6434E-03     89.7327E-03    -2.24310E+06    -38.7881E+06     3.91850E+06    -10.8097E+06    -15.0541E-03     29.7447E-03    -14.6906E-03     44.1507E-03    -15.0241E-03     29.5577E-03    -14.6115E-03     43.9977E-03
             931     11.5302E-03     89.7753E-03    -1.88790E+06    -34.5023E+06     1.72104E+06    -11.1608E+06    -15.1793E-03     29.8459E-03    -14.6666E-03     49.1828E-03    -15.1563E-03     29.6888E-03    -14.6052E-03     49.0207E-03
             932     12.4177E-03     89.8224E-03    -1.40608E+06    -30.8604E+06     1.64643E+06    -11.6863E+06    -15.4727E-03     30.1318E-03    -14.6591E-03     56.3294E-03    -15.4638E-03     30.0036E-03    -14.6041E-03     56.1541E-03
             933     13.3036E-03     89.8784E-03    -797.369E+03    -35.1303E+06    -8.47708E+06    -11.8600E+06    -15.7518E-03     30.3717E-03    -14.6199E-03     62.1626E-03    -15.7378E-03     30.2547E-03    -14.6102E-03     61.9779E-03
             934     14.1915E-03     89.9371E-03    -501.352E+03    -21.4922E+06    -10.4308E+06    -10.8516E+06    -15.9998E-03     30.6024E-03    -14.6025E-03     66.8894E-03    -16.0306E-03     30.5853E-03    -14.6228E-03     66.7144E-03
             935     15.0772E-03     90.0013E-03    -672.463E+03     2.34008E+06    -14.1097E+06    -9.01142E+06    -16.5996E-03     31.1645E-03    -14.5648E-03     84.7351E-03    -16.7741E-03     31.3857E-03    -14.6378E-03     84.6005E-03
             936     15.9649E-03     90.0939E-03    -1.66707E+06     33.3127E+06    -30.4636E+06    -5.53742E+06    -18.0113E-03     32.4666E-03    -14.4552E-03     118.990E-03    -18.7374E-03     33.3933E-03    -14.6534E-03     119.132E-03
             937     16.8513E-03     90.2228E-03    -2.27675E+06     108.492E+06     10.0883E+06    -1.35373E+06    -16.7425E-03     31.3015E-03    -14.5590E-03     102.752E-03    -17.7676E-03     32.6744E-03    -14.6626E-03     103.345E-03
             938     886.863E-06     90.4895E-03    -16.0874E+06    -32.2572E+06    -15.5653E+06    -1.26610E+06    -14.6855E-03     29.3735E-03    -14.6880E-03     3.35658E-03    -14.6966E-03     29.2581E-03    -14.6957E-03     3.33979E-03
             939     1.77374E-03     90.4939E-03    -15.3165E+06    -31.0748E+06    -13.0206E+06    -2.30487E+06    -14.6721E-03     29.3647E-03    -14.6926E-03     6.20473E-03    -14.6848E-03     29.2505E-03    -14.6905E-03     6.17416E-03
             940     2.66064E-03     90.5008E-03    -13.9804E+06    -29.5378E+06    -9.20407E+06    -3.38538E+06    -14.6561E-03     29.3540E-03    -14.6980E-03     9.26219E-03    -14.6699E-03     29.2401E-03    -14.6809E-03     9.21725E-03
             941     3.54755E-03     90.5107E-03    -12.3175E+06    -28.7325E+06    -4.58599E+06    -4.49346E+06    -14.6409E-03     29.3461E-03    -14.7051E-03     12.4293E-03    -14.6545E-03     29.2272E-03    -14.6685E-03     12.3696E-03
             942     4.43453E-03     90.5234E-03    -10.4078E+06    -28.8531E+06    -158.944E+03    -5.61154E+06    -14.6333E-03     29.3437E-03    -14.7105E-03     15.7280E-03    -14.6437E-03     29.2153E-03    -14.6543E-03     15.6533E-03
             943     5.32147E-03     90.5393E-03    -8.47459E+06    -29.5467E+06     3.13459E+06    -6.63592E+06    -14.6336E-03     29.3434E-03    -14.7098E-03     19.1922E-03    -14.6384E-03     29.2041E-03    -14.6390E-03     19.1037E-03
             944     6.20855E-03     90.5582E-03    -6.69063E+06    -30.7726E+06     5.25721E+06    -7.42874E+06    -14.6460E-03     29.3496E-03    -14.7035E-03     22.8576E-03    -14.6436E-03     29.1989E-03    -14.6229E-03     22.7582E-03
             945     7.09552E-03     90.5808E-03    -5.23054E+06    -31.3689E+06     6.42878E+06    -8.02772E+06    -14.6710E-03     29.3630E-03    -14.6920E-03     26.7602E-03    -14.6626E-03     29.2061E-03    -14.6068E-03     26.6521E-03
             946     7.98269E-03     90.6068E-03    -3.97007E+06    -33.0835E+06     7.33141E+06    -8.53087E+06    -14.7116E-03     29.3931E-03    -14.6815E-03     30.8648E-03    -14.6966E-03     29.2253E-03    -14.5911E-03     30.7489E-03
             947     8.86966E-03     90.6369E-03    -3.00020E+06    -33.4386E+06     7.34188E+06    -9.16158E+06    -14.7806E-03     29.4469E-03    -14.6663E-03     35.2077E-03    -14.7616E-03     29.2772E-03    -14.5767E-03     35.0819E-03
             948     9.75690E-03     90.6708E-03      -2.312E+06    -33.1490E+06     7.49344E+06    -9.88019E+06    -14.8689E-03     29.5224E-03    -14.6535E-03     39.7579E-03    -14.8492E-03     29.3550E-03    -14.5646E-03     39.6204E-03
             949     10.6438E-03     90.7092E-03    -1.92177E+06    -37.1867E+06     5.02255E+06    -10.6876E+06    -15.0029E-03     29.6404E-03    -14.6375E-03     44.2760E-03    -14.9752E-03     29.4593E-03    -14.5556E-03     44.1246E-03
             950     11.5312E-03     90.7511E-03    -1.16246E+06    -32.8287E+06     2.98291E+06    -11.3765E+06    -15.2128E-03     29.8296E-03    -14.6168E-03     49.4122E-03    -15.1905E-03     29.6780E-03    -14.5526E-03     49.2473E-03
             951     12.4175E-03     90.7993E-03    -764.310E+03    -29.2683E+06     2.74235E+06    -11.9369E+06    -15.5471E-03     30.1628E-03    -14.6157E-03     56.7501E-03    -15.5390E-03     30.0402E-03    -14.5585E-03     56.5715E-03
             952     13.3050E-03     90.8548E-03    -657.408E+03    -34.5636E+06    -7.71665E+06    -12.2050E+06    -15.8417E-03     30.4265E-03    -14.5848E-03     62.5858E-03    -15.8292E-03     30.3113E-03    -14.5723E-03     62.3965E-03
             953     14.1910E-03     90.9133E-03    -848.534E+03    -22.3829E+06    -10.1630E+06    -11.3600E+06    -16.0491E-03     30.6227E-03    -14.5736E-03     67.4895E-03    -16.0810E-03     30.6016E-03    -14.5907E-03     67.3079E-03
             954     15.0782E-03     90.9790E-03    -1.79075E+06     379.622E+03    -14.0702E+06    -9.39065E+06    -16.8684E-03     31.4161E-03    -14.5477E-03     85.0555E-03    -17.0465E-03     31.6300E-03    -14.6160E-03     84.9143E-03
             955     15.9640E-03     91.0695E-03    -2.83740E+06     28.3136E+06    -30.7452E+06    -5.93703E+06    -18.3263E-03     32.7830E-03    -14.4567E-03     119.808E-03    -19.0581E-03     33.6944E-03    -14.6473E-03     119.944E-03
             956     16.8494E-03     91.2022E-03    -1.87053E+06     104.428E+06     8.76996E+06    -1.99806E+06    -16.5305E-03     31.0827E-03    -14.5522E-03     103.048E-03    -17.5470E-03     32.4378E-03    -14.6571E-03     103.636E-03
             957     886.915E-06     91.4660E-03    -14.8630E+06    -29.7644E+06    -14.2251E+06    -1.26412E+06    -14.6289E-03     29.2652E-03    -14.6363E-03     3.36203E-03    -14.6395E-03     29.1586E-03    -14.6427E-03     3.34528E-03
             958     1.77384E-03     91.4702E-03    -13.9589E+06    -28.6442E+06    -11.7795E+06    -2.25908E+06    -14.6162E-03     29.2540E-03    -14.6378E-03     6.21800E-03    -14.6275E-03     29.1482E-03    -14.6349E-03     6.18804E-03
             959     2.66078E-03     91.4772E-03    -12.7093E+06    -27.1528E+06    -7.99642E+06    -3.29056E+06    -14.5965E-03     29.2385E-03    -14.6420E-03     9.28109E-03    -14.6092E-03     29.1329E-03    -14.6242E-03     9.23741E-03
             960     3.54778E-03     91.4870E-03    -11.0487E+06    -26.2645E+06    -3.35972E+06    -4.35958E+06    -14.5770E-03     29.2247E-03    -14.6476E-03     12.4573E-03    -14.5896E-03     29.1145E-03    -14.6103E-03     12.3993E-03
             961     4.43476E-03     91.4998E-03    -9.21086E+06    -26.4440E+06     1.12778E+06    -5.44794E+06    -14.5635E-03     29.2150E-03    -14.6515E-03     15.7689E-03    -14.5733E-03     29.0950E-03    -14.5942E-03     15.6964E-03
             962     5.32185E-03     91.5155E-03    -7.39229E+06    -27.2601E+06     4.50131E+06    -6.46664E+06    -14.5584E-03     29.2078E-03    -14.6494E-03     19.2461E-03    -14.5631E-03     29.0764E-03    -14.5766E-03     19.1599E-03
             963     6.20888E-03     91.5345E-03    -5.74048E+06    -28.9061E+06     6.49165E+06    -7.27797E+06    -14.5671E-03     29.2081E-03    -14.6411E-03     22.9320E-03    -14.5644E-03     29.0636E-03    -14.5584E-03     22.8346E-03
             964     7.09607E-03     91.5569E-03    -4.30709E+06    -29.7234E+06     7.51624E+06    -7.80060E+06    -14.5847E-03     29.2114E-03    -14.6267E-03     26.8549E-03    -14.5756E-03     29.0598E-03    -14.5398E-03     26.7498E-03
             965     7.98313E-03     91.5831E-03    -3.13406E+06    -31.4215E+06     8.33133E+06    -8.37223E+06    -14.6312E-03     29.2450E-03    -14.6138E-03     30.9981E-03    -14.6159E-03     29.0828E-03    -14.5220E-03     30.8845E-03
             966     8.87041E-03     91.6129E-03    -2.16148E+06    -31.7756E+06     8.55076E+06    -8.84948E+06    -14.7016E-03     29.2999E-03    -14.5983E-03     35.3867E-03    -14.6825E-03     29.1355E-03    -14.5063E-03     35.2651E-03
             967     9.75741E-03     91.6470E-03    -1.57212E+06    -31.4815E+06     8.68696E+06    -9.39971E+06    -14.7805E-03     29.3645E-03    -14.5840E-03     39.9307E-03    -14.7611E-03     29.2026E-03    -14.4927E-03     39.7996E-03
             968     10.6448E-03     91.6850E-03    -1.06422E+06    -34.9146E+06     6.75757E+06    -10.3254E+06    -14.9681E-03     29.5382E-03    -14.5701E-03     44.5767E-03    -14.9419E-03     29.3647E-03    -14.4841E-03     44.4302E-03
             969     11.5314E-03     91.7277E-03    -1.14444E+06    -31.0675E+06     4.06843E+06    -11.3771E+06    -15.2281E-03     29.7805E-03    -14.5524E-03     49.8558E-03    -15.2098E-03     29.6360E-03    -14.4853E-03     49.6910E-03
             970     12.4190E-03     91.7753E-03    -831.606E+03    -27.7757E+06     3.94218E+06    -12.0021E+06    -15.5239E-03     30.0804E-03    -14.5565E-03     57.1121E-03    -15.5200E-03     29.9635E-03    -14.4953E-03     56.9329E-03
             971     13.3053E-03     91.8316E-03    -790.245E+03    -33.8559E+06    -6.41433E+06    -12.1127E+06    -15.8930E-03     30.4249E-03    -14.5319E-03     62.9239E-03    -15.8842E-03     30.3117E-03    -14.5138E-03     62.7356E-03
             972     14.1923E-03     91.8901E-03    -1.39196E+06    -22.7165E+06    -9.45763E+06    -11.6685E+06    -16.1427E-03     30.6702E-03    -14.5275E-03     67.9036E-03    -16.1781E-03     30.6474E-03    -14.5398E-03     67.7178E-03
             973     15.0787E-03     91.9553E-03    -1.01270E+06    -1.78417E+06    -13.1542E+06    -10.1181E+06    -16.8902E-03     31.3984E-03    -14.5082E-03     85.9522E-03    -17.0649E-03     31.6013E-03    -14.5699E-03     85.8019E-03
             974     15.9646E-03     92.0483E-03    -952.245E+03     23.4572E+06    -29.7379E+06    -6.31626E+06    -18.0792E-03     32.4930E-03    -14.4138E-03     120.545E-03    -18.7982E-03     33.3781E-03    -14.5951E-03     120.683E-03
             975     16.8534E-03     92.1767E-03    -1.38898E+06     101.247E+06     9.15064E+06    -2.15580E+06    -16.8400E-03     31.3481E-03    -14.5081E-03     103.213E-03    -17.8515E-03     32.6876E-03    -14.6072E-03     103.796E-03
             976     886.971E-06     92.4422E-03    -13.4856E+06    -27.2689E+06    -13.0147E+06    -1.26033E+06    -14.5554E-03     29.1181E-03    -14.5626E-03     3.37103E-03    -14.5645E-03     29.0202E-03    -14.5686E-03     3.35435E-03
             977     1.77397E-03     92.4465E-03    -12.7588E+06    -26.3029E+06    -10.5886E+06    -2.23914E+06    -14.5404E-03     29.1040E-03    -14.5636E-03     6.23550E-03    -14.5507E-03     29.0064E-03    -14.5599E-03     6.20583E-03
             978     2.66099E-03     92.4534E-03    -11.4981E+06    -24.8929E+06    -6.88381E+06    -3.15875E+06    -14.5174E-03     29.0838E-03    -14.5664E-03     9.30711E-03    -14.5290E-03     28.9861E-03    -14.5481E-03     9.26517E-03
             979     3.54802E-03     92.4632E-03    -9.96862E+06    -23.8874E+06    -2.32291E+06    -4.16268E+06    -14.4922E-03     29.0622E-03    -14.5700E-03     12.4966E-03    -14.5043E-03     28.9609E-03    -14.5325E-03     12.4413E-03
             980     4.43514E-03     92.4758E-03    -8.19381E+06    -24.1247E+06     2.25714E+06    -5.19470E+06    -14.4713E-03     29.0436E-03    -14.5723E-03     15.8213E-03    -14.4810E-03     28.9321E-03    -14.5142E-03     15.7521E-03
             981     5.32223E-03     92.4916E-03    -6.44761E+06    -25.0905E+06     5.75517E+06    -6.11519E+06    -14.4614E-03     29.0300E-03    -14.5686E-03     19.3188E-03    -14.4663E-03     28.9063E-03    -14.4941E-03     19.2372E-03
             982     6.20946E-03     92.5105E-03    -4.90323E+06    -26.9699E+06     7.73738E+06    -6.94168E+06    -14.4644E-03     29.0226E-03    -14.5582E-03     23.0259E-03    -14.4621E-03     28.8847E-03    -14.4733E-03     22.9330E-03
             983     7.09660E-03     92.5329E-03    -3.55456E+06    -28.1927E+06     8.55799E+06    -7.55689E+06    -14.4793E-03     29.0203E-03    -14.5410E-03     26.9764E-03    -14.4702E-03     28.8737E-03    -14.4522E-03     26.8747E-03
             984     7.98395E-03     92.5589E-03    -2.41797E+06    -29.7266E+06     9.32662E+06    -8.04682E+06    -14.5216E-03     29.0468E-03    -14.5252E-03     31.1755E-03    -14.5065E-03     28.8905E-03    -14.4320E-03     31.0662E-03
             985     8.87107E-03     92.5889E-03    -1.63354E+06    -30.5003E+06     9.53884E+06    -8.45311E+06    -14.5892E-03     29.0973E-03    -14.5081E-03     35.6060E-03    -14.5706E-03     28.9370E-03    -14.4138E-03     35.4898E-03
             986     9.75851E-03     92.6228E-03    -1.01547E+06    -29.8836E+06     9.80407E+06    -8.83475E+06    -14.6998E-03     29.1930E-03    -14.4932E-03     40.2096E-03    -14.6814E-03     29.0365E-03    -14.3994E-03     40.0861E-03
             987     10.6455E-03     92.6612E-03    -855.838E+03    -32.9485E+06     8.14288E+06    -9.66616E+06    -14.9099E-03     29.3920E-03    -14.4822E-03     44.9768E-03    -14.8873E-03     29.2259E-03    -14.3924E-03     44.8391E-03
             988     11.5331E-03     92.7037E-03    -1.00235E+06    -28.3154E+06     6.12058E+06    -10.7318E+06    -15.1946E-03     29.6644E-03    -14.4698E-03     50.3047E-03    -15.1825E-03     29.5305E-03    -14.3967E-03     50.1485E-03
             989     12.4193E-03     92.7519E-03    -1.17451E+06    -26.4909E+06     5.24203E+06    -11.9092E+06    -15.5525E-03     30.0311E-03    -14.4786E-03     57.5749E-03    -15.5542E-03     29.9193E-03    -14.4123E-03     57.3969E-03
             990     13.3066E-03     92.8078E-03    -1.00158E+06    -33.4222E+06    -5.29550E+06    -12.2998E+06    -15.9252E-03     30.3863E-03    -14.4611E-03     63.4686E-03    -15.9198E-03     30.2740E-03    -14.4376E-03     63.2781E-03
             991     14.1929E-03     92.8669E-03    -587.823E+03    -21.5762E+06    -7.63351E+06    -12.2300E+06    -16.2172E-03     30.6820E-03    -14.4648E-03     68.3830E-03    -16.2535E-03     30.6618E-03    -14.4708E-03     68.1898E-03
             992     15.0794E-03     92.9323E-03    -563.300E+03    -4.50249E+06    -12.2557E+06    -11.0961E+06    -16.8249E-03     31.2755E-03    -14.4506E-03     86.1822E-03    -16.9946E-03     31.4628E-03    -14.5045E-03     86.0205E-03
             993     15.9672E-03     93.0243E-03    -1.49494E+06     18.2342E+06    -29.9720E+06    -7.11571E+06    -18.3081E-03     32.6726E-03    -14.3645E-03     119.743E-03    -19.0176E-03     33.5284E-03    -14.5386E-03     119.865E-03
             994     16.8521E-03     93.1538E-03    -2.17431E+06     97.7705E+06     7.83959E+06    -2.31287E+06    -17.3059E-03     31.7810E-03    -14.4751E-03     102.302E-03    -18.3113E-03     33.1030E-03    -14.5745E-03     102.872E-03
             995     887.073E-06     93.4184E-03    -12.3602E+06    -24.8474E+06    -11.7030E+06    -1.19653E+06    -14.4584E-03     28.9217E-03    -14.4633E-03     3.38376E-03    -14.4672E-03     28.8324E-03    -14.4679E-03     3.36792E-03
             996     1.77414E-03     93.4226E-03    -11.6058E+06    -24.0303E+06    -9.43411E+06    -2.11925E+06    -14.4400E-03     28.9050E-03    -14.4650E-03     6.25804E-03    -14.4495E-03     28.8154E-03    -14.4605E-03     6.22995E-03
             997     2.66124E-03     93.4295E-03    -10.5072E+06    -22.8377E+06    -5.92878E+06    -2.98233E+06    -14.4130E-03     28.8791E-03    -14.4661E-03     9.34306E-03    -14.4240E-03     28.7889E-03    -14.4474E-03     9.30344E-03
             998     3.54840E-03     93.4392E-03    -9.06728E+06    -21.6945E+06    -1.46514E+06    -3.81213E+06    -14.3811E-03     28.8484E-03    -14.4673E-03     12.5461E-03    -14.3931E-03     28.7554E-03    -14.4300E-03     12.4953E-03
             999     4.43556E-03     93.4519E-03    -7.52329E+06    -21.9306E+06     3.15731E+06    -4.76029E+06    -14.3541E-03     28.8219E-03    -14.4678E-03     15.8885E-03    -14.3649E-03     28.7190E-03    -14.4093E-03     15.8250E-03
            1000     5.32285E-03     93.4675E-03    -5.86526E+06    -23.0600E+06     6.72969E+06    -5.67177E+06    -14.3356E-03     28.7978E-03    -14.4622E-03     19.4097E-03    -14.3419E-03     28.6819E-03    -14.3866E-03     19.3340E-03
            1001     6.21007E-03     93.4864E-03    -4.34883E+06    -25.0809E+06     8.77013E+06    -6.43403E+06    -14.3324E-03     28.7817E-03    -14.4493E-03     23.1442E-03    -14.3316E-03     28.6509E-03    -14.3628E-03     23.0580E-03
            1002     7.09748E-03     93.5087E-03    -3.17046E+06    -26.5849E+06     9.55853E+06    -7.08582E+06    -14.3465E-03     28.7764E-03    -14.4299E-03     27.1366E-03    -14.3392E-03     28.6357E-03    -14.3389E-03     27.0411E-03
            1003     7.98474E-03     93.5347E-03    -2.23347E+06    -28.2080E+06     10.1001E+06    -7.61507E+06    -14.3791E-03     28.7897E-03    -14.4106E-03     31.3832E-03    -14.3663E-03     28.6395E-03    -14.3159E-03     31.2798E-03
            1004     8.87228E-03     93.5645E-03    -1.36855E+06    -29.3405E+06     10.4412E+06    -7.95310E+06    -14.4500E-03     28.8419E-03    -14.3919E-03     35.8669E-03    -14.4330E-03     28.6856E-03    -14.2951E-03     35.7574E-03
            1005     9.75949E-03     93.5986E-03    -793.757E+03    -28.4400E+06     10.8232E+06    -8.24497E+06    -14.6008E-03     28.9776E-03    -14.3767E-03     40.5794E-03    -14.5848E-03     28.8264E-03    -14.2802E-03     40.4638E-03
            1006     10.6471E-03     93.6369E-03    -530.816E+03    -30.7621E+06     9.70870E+06    -8.90024E+06    -14.8783E-03     29.2493E-03    -14.3710E-03     45.4393E-03    -14.8595E-03     29.0913E-03    -14.2771E-03     45.3117E-03
            1007     11.5337E-03     93.6799E-03    -284.174E+03    -25.9609E+06     8.11199E+06    -10.0285E+06    -15.0987E-03     29.4622E-03    -14.3635E-03     50.7681E-03    -15.0892E-03     29.3360E-03    -14.2849E-03     50.6213E-03
            1008     12.4214E-03     93.7281E-03    -298.576E+03    -24.4169E+06     7.21303E+06    -11.3471E+06    -15.4292E-03     29.8007E-03    -14.3715E-03     58.3011E-03    -15.4322E-03     29.6950E-03    -14.2996E-03     58.1309E-03
            1009     13.3077E-03     93.7843E-03    -446.563E+03    -32.3524E+06    -4.09344E+06    -12.4456E+06    -16.0226E-03     30.3794E-03    -14.3568E-03     64.4375E-03    -16.0180E-03     30.2702E-03    -14.3297E-03     64.2450E-03
            1010     14.1944E-03     93.8437E-03    -670.178E+03    -21.3480E+06    -6.80428E+06    -12.4187E+06    -16.4149E-03     30.7899E-03    -14.3751E-03     69.0432E-03    -16.4538E-03     30.7705E-03    -14.3772E-03     68.8472E-03
            1011     15.0811E-03     93.9090E-03    -1.83193E+06    -5.66426E+06    -10.9545E+06    -11.1156E+06    -17.2408E-03     31.6306E-03    -14.3898E-03     86.3450E-03    -17.4177E-03     31.8127E-03    -14.4337E-03     86.1804E-03
            1012     15.9661E-03     94.0014E-03    -3.03921E+06     12.5405E+06    -30.3505E+06    -7.73198E+06    -18.8654E-03     33.1974E-03    -14.3320E-03     120.387E-03    -19.5796E-03     34.0333E-03    -14.4975E-03     120.495E-03
            1013     16.8523E-03     94.1323E-03    -2.06730E+06     92.9884E+06     5.76900E+06    -3.00637E+06    -17.3581E-03     31.8046E-03    -14.4465E-03     102.809E-03    -18.3569E-03     33.1095E-03    -14.5495E-03     103.369E-03
            1014     887.160E-06     94.3943E-03    -11.2285E+06    -22.6832E+06    -10.6810E+06    -994.838E+03    -14.3294E-03     28.6631E-03    -14.3336E-03     3.40072E-03    -14.3372E-03     28.5814E-03    -14.3379E-03     3.38750E-03
            1015     1.77437E-03     94.3985E-03    -10.7207E+06    -21.9305E+06    -8.44405E+06    -1.83717E+06    -14.3083E-03     28.6435E-03    -14.3352E-03     6.28838E-03    -14.3179E-03     28.5617E-03    -14.3301E-03     6.26397E-03
            1016     2.66159E-03     94.4053E-03    -9.73205E+06    -20.9620E+06    -5.03203E+06    -2.62575E+06    -14.2775E-03     28.6129E-03    -14.3353E-03     9.38934E-03    -14.2886E-03     28.5296E-03    -14.3160E-03     9.35439E-03
            1017     3.54885E-03     94.4150E-03    -8.50254E+06    -19.8802E+06    -796.408E+03    -3.29893E+06    -14.2403E-03     28.5744E-03    -14.3341E-03     12.6096E-03    -14.2531E-03     28.4887E-03    -14.2970E-03     12.5655E-03
            1018     4.43619E-03     94.4276E-03    -7.08548E+06    -19.9165E+06     3.79188E+06    -4.05058E+06    -14.2051E-03     28.5373E-03    -14.3322E-03     15.9734E-03    -14.2176E-03     28.4429E-03    -14.2741E-03     15.9192E-03
            1019     5.32352E-03     94.4432E-03    -5.73377E+06    -21.1040E+06     7.47030E+06    -4.95224E+06    -14.1775E-03     28.5023E-03    -14.3249E-03     19.5196E-03    -14.1870E-03     28.3949E-03    -14.2486E-03     19.4532E-03
            1020     6.21101E-03     94.4619E-03    -4.39750E+06    -23.2935E+06     9.49925E+06    -5.79717E+06    -14.1662E-03     28.4755E-03    -14.3093E-03     23.2912E-03    -14.1692E-03     28.3526E-03    -14.2216E-03     23.2134E-03
            1021     7.09840E-03     94.4843E-03    -3.27923E+06    -25.1366E+06     10.3013E+06    -6.32821E+06    -14.1747E-03     28.4619E-03    -14.2872E-03     27.3295E-03    -14.1710E-03     28.3275E-03    -14.1945E-03     27.2440E-03
            1022     7.98604E-03     94.5101E-03    -2.50467E+06    -26.5750E+06     10.8278E+06    -6.89390E+06    -14.2109E-03     28.4760E-03    -14.2651E-03     31.6263E-03    -14.2028E-03     28.3333E-03    -14.1688E-03     31.5324E-03
            1023     8.87343E-03     94.5401E-03    -1.86402E+06    -28.1998E+06     11.0786E+06    -7.43124E+06    -14.2980E-03     28.5436E-03    -14.2456E-03     36.1806E-03    -14.2859E-03     28.3927E-03    -14.1467E-03     36.0782E-03
            1024     9.76114E-03     94.5740E-03    -1.08528E+06    -27.1837E+06     11.5461E+06    -7.70310E+06    -14.4830E-03     28.7144E-03    -14.2314E-03     41.0381E-03    -14.4713E-03     28.5688E-03    -14.1327E-03     40.9298E-03
            1025     10.6482E-03     94.6127E-03    -543.899E+03    -29.0063E+06     10.8851E+06    -8.15944E+06    -14.7427E-03     28.9707E-03    -14.2280E-03     46.0669E-03    -14.7281E-03     28.8196E-03    -14.1307E-03     45.9493E-03
            1026     11.5358E-03     94.6558E-03    -459.397E+03    -23.9312E+06     9.41314E+06    -9.28525E+06    -14.9853E-03     29.2071E-03    -14.2218E-03     51.3796E-03    -14.9813E-03     29.0892E-03    -14.1394E-03     51.2428E-03
            1027     12.4226E-03     94.7036E-03     194.254E+03    -21.2126E+06     9.55679E+06    -11.0707E+06    -15.4305E-03     29.6683E-03    -14.2378E-03     58.9128E-03    -15.4391E-03     29.5746E-03    -14.1596E-03     58.7463E-03
            1028     13.3102E-03     94.7611E-03    -114.031E+03    -30.8960E+06    -2.21389E+06    -12.1547E+06    -16.1121E-03     30.3470E-03    -14.2349E-03     64.9932E-03    -16.1107E-03     30.2420E-03    -14.2010E-03     64.8045E-03
            1029     14.1961E-03     94.8205E-03    -747.126E+03    -20.9404E+06    -5.04449E+06    -12.4921E+06    -16.6641E-03     30.9364E-03    -14.2724E-03     69.4524E-03    -16.7069E-03     30.9170E-03    -14.2662E-03     69.2547E-03
            1030     15.0817E-03     94.8863E-03    -62.4529E+03    -7.40810E+06    -8.75617E+06    -11.1100E+06    -17.5088E-03     31.8185E-03    -14.3097E-03     87.2435E-03    -17.6803E-03     31.9889E-03    -14.3427E-03     87.0778E-03
            1031     15.9681E-03     94.9795E-03    -588.954E+03     7.87660E+06    -28.6610E+06    -7.33739E+06    -18.8790E-03     33.1408E-03    -14.2618E-03     121.695E-03    -19.5791E-03     33.9499E-03    -14.4157E-03     121.810E-03
            1032     16.8543E-03     95.1089E-03    -1.86092E+06     89.1258E+06     5.44399E+06    -3.55741E+06    -17.8374E-03     32.2190E-03    -14.3816E-03     103.420E-03    -18.8309E-03     33.5065E-03    -14.4809E-03     103.969E-03
            1033     887.346E-06     95.3699E-03    -10.6097E+06    -21.0406E+06    -9.83886E+06    -647.043E+03    -14.1614E-03     28.3279E-03    -14.1666E-03     3.42080E-03    -14.1697E-03     28.2524E-03    -14.1699E-03     3.41210E-03
            1034     1.77465E-03     95.3741E-03    -10.1415E+06    -20.2037E+06    -7.70772E+06    -1.27072E+06    -14.1375E-03     28.3048E-03    -14.1673E-03     6.32621E-03    -14.1478E-03     28.2297E-03    -14.1618E-03     6.30916E-03
            1035     2.66204E-03     95.3809E-03    -9.46466E+06    -19.3545E+06    -4.39901E+06    -1.94922E+06    -14.1047E-03     28.2713E-03    -14.1667E-03     9.44724E-03    -14.1177E-03     28.1948E-03    -14.1469E-03     9.42110E-03
            1036     3.54946E-03     95.3905E-03    -8.42665E+06    -18.4412E+06    -367.586E+03    -2.51453E+06    -14.0633E-03     28.2272E-03    -14.1640E-03     12.6892E-03    -14.0784E-03     28.1480E-03    -14.1268E-03     12.6554E-03
            1037     4.43691E-03     95.4030E-03    -7.25051E+06    -18.2781E+06     4.00075E+06    -3.10252E+06    -14.0188E-03     28.1780E-03    -14.1592E-03     16.0753E-03    -14.0347E-03     28.0917E-03    -14.1022E-03     16.0335E-03
            1038     5.32450E-03     95.4185E-03    -6.03691E+06     -19.332E+06     7.88003E+06    -3.81990E+06    -13.9826E-03     28.1329E-03    -14.1503E-03     19.6510E-03    -13.9968E-03     28.0342E-03    -14.0741E-03     19.5994E-03
            1039     6.21203E-03     95.4373E-03    -5.06364E+06    -21.4724E+06     10.0762E+06    -4.72753E+06    -13.9631E-03     28.0963E-03    -14.1331E-03     23.4610E-03    -13.9729E-03     27.9825E-03    -14.0443E-03     23.3972E-03
            1040     7.09978E-03     95.4594E-03    -4.13605E+06    -23.8510E+06     10.7252E+06    -5.44459E+06    -13.9666E-03     28.0750E-03    -14.1084E-03     27.5473E-03    -13.9696E-03     27.9476E-03    -14.0142E-03     27.4734E-03
            1041     7.98737E-03     95.4853E-03    -3.35460E+06    -25.1020E+06     11.1711E+06    -5.87430E+06    -14.0089E-03     28.0920E-03    -14.0831E-03     31.9176E-03    -14.0076E-03     27.9573E-03    -13.9860E-03     31.8372E-03
            1042     8.87521E-03     95.5151E-03    -2.91268E+06    -26.7080E+06     11.5545E+06    -6.50474E+06    -14.1291E-03     28.1935E-03    -14.0644E-03     36.5819E-03    -14.1250E-03     28.0507E-03    -13.9637E-03     36.4918E-03
            1043     9.76266E-03     95.5493E-03    -2.49449E+06    -26.1249E+06     11.7216E+06    -7.15318E+06    -14.3074E-03     28.3582E-03    -14.0507E-03     41.5963E-03    -14.3043E-03     28.2194E-03    -13.9506E-03     41.4956E-03
            1044     10.6505E-03     95.5882E-03    -1.78819E+06    -27.8206E+06     11.3576E+06    -7.57587E+06    -14.5253E-03     28.5723E-03    -14.0470E-03     46.6346E-03    -14.5191E-03     28.4280E-03    -13.9473E-03     46.5252E-03
            1045     11.5378E-03     95.6311E-03    -1.14101E+06    -21.3167E+06     10.9274E+06    -8.67450E+06    -14.9676E-03     29.0149E-03    -14.0474E-03     52.0918E-03    -14.9729E-03     28.9089E-03    -13.9602E-03     51.9632E-03
            1046     12.4251E-03     95.6800E-03    -1.38320E+06    -18.2368E+06     10.8340E+06    -10.5585E+06    -15.6744E-03     29.7573E-03    -14.0830E-03     59.6472E-03    -15.6974E-03     29.6793E-03    -14.0004E-03     59.4871E-03
            1047     13.3110E-03     95.7371E-03    -1.39794E+06    -29.0325E+06    -561.608E+03    -11.9206E+06    -16.2702E-03     30.3769E-03    -14.1067E-03     65.6436E-03    -16.2810E-03     30.2813E-03    -14.0654E-03     65.4577E-03
            1048     14.1977E-03     95.7978E-03    -911.714E+03    -19.4205E+06    -3.22207E+06    -12.7871E+06    -16.7224E-03     30.8807E-03    -14.1583E-03     70.2425E-03    -16.7716E-03     30.8670E-03    -14.1449E-03     70.0409E-03
            1049     15.0840E-03     95.8636E-03    -504.435E+03    -9.26168E+06    -7.81974E+06    -12.4792E+06    -17.7046E-03     31.9148E-03    -14.2102E-03     87.4898E-03    -17.8781E-03     32.0764E-03    -14.2352E-03     87.3055E-03
            1050     15.9702E-03     95.9563E-03     165.443E+03     1.95093E+06    -27.3166E+06    -8.37429E+06    -19.2310E-03     33.4219E-03    -14.1909E-03     120.718E-03    -19.9177E-03     34.1953E-03    -14.3305E-03     120.812E-03
            1051     16.8559E-03     96.0871E-03    -1.16071E+06     84.7931E+06     6.06810E+06    -2.94948E+06    -18.4560E-03     32.7930E-03    -14.3370E-03     102.885E-03    -19.4407E-03     34.0570E-03    -14.4280E-03     103.430E-03
            1052     887.478E-06     96.3452E-03    -10.3035E+06    -20.2743E+06    -9.59166E+06    -83.8509E+03    -13.9455E-03     27.9017E-03    -13.9562E-03     3.44396E-03    -13.9537E-03     27.8292E-03    -13.9599E-03     3.44257E-03
            1053     1.77506E-03     96.3493E-03    -10.1834E+06    -19.2153E+06    -7.43333E+06    -328.699E+03    -13.9225E-03     27.8767E-03    -13.9543E-03     6.36969E-03    -13.9348E-03     27.8063E-03    -13.9488E-03     6.36486E-03
            1054     2.66259E-03     96.3561E-03    -9.72555E+06    -18.1479E+06    -4.14265E+06    -790.790E+03    -13.8871E-03     27.8404E-03    -13.9533E-03     9.51467E-03    -13.9035E-03     27.7699E-03    -13.9336E-03     9.50357E-03
            1055     3.55020E-03     96.3657E-03    -9.04182E+06    -17.3789E+06    -242.997E+03    -1.31396E+06    -13.8421E-03     27.7922E-03    -13.9501E-03     12.7813E-03    -13.8619E-03     27.7189E-03    -13.9130E-03     12.7631E-03
            1056     4.43789E-03     96.3781E-03    -8.10439E+06    -17.0743E+06     3.92286E+06    -1.78121E+06    -13.7920E-03     27.7354E-03    -13.9434E-03     16.1940E-03    -13.8138E-03     27.6564E-03    -13.8873E-03     16.1694E-03
            1057     5.32558E-03     96.3935E-03    -7.16126E+06    -17.9700E+06     7.77442E+06    -2.35652E+06    -13.7466E-03     27.6793E-03    -13.9327E-03     19.8010E-03    -13.7682E-03     27.5891E-03    -13.8574E-03     19.7685E-03
            1058     6.21346E-03     96.4121E-03    -6.30653E+06    -19.7452E+06     10.2682E+06    -3.12598E+06    -13.7206E-03     27.6350E-03    -13.9144E-03     23.6538E-03    -13.7393E-03     27.5314E-03    -13.8252E-03     23.6108E-03
            1059     7.10123E-03     96.4342E-03    -5.76667E+06    -22.3929E+06     10.9316E+06    -4.07114E+06    -13.7257E-03     27.6143E-03    -13.8887E-03     27.7946E-03    -13.7392E-03     27.4962E-03    -13.7932E-03     27.7387E-03
            1060     7.98926E-03     96.4600E-03    -5.14290E+06    -23.8767E+06     11.0697E+06    -4.84009E+06    -13.7747E-03     27.6360E-03    -13.8613E-03     32.2525E-03    -13.7838E-03     27.5100E-03    -13.7638E-03     32.1858E-03
            1061     8.87704E-03     96.4900E-03    -4.36404E+06    -25.2717E+06     11.7065E+06    -5.40214E+06    -13.9084E-03     27.7512E-03    -13.8428E-03     37.0601E-03    -13.9137E-03     27.6174E-03    -13.7413E-03     36.9846E-03
            1062     9.76501E-03     96.5242E-03    -3.96558E+06    -24.6217E+06     12.1392E+06    -6.11250E+06    -14.0908E-03     27.9216E-03    -13.8307E-03     42.1261E-03    -14.0977E-03     27.7917E-03    -13.7286E-03     42.0392E-03
            1063     10.6526E-03     96.5630E-03    -3.52033E+06    -26.2037E+06     11.7816E+06    -7.15693E+06    -14.4239E-03     28.2561E-03    -13.8322E-03     47.2448E-03    -14.4291E-03     28.1216E-03    -13.7302E-03     47.1411E-03
            1064     11.5403E-03     96.6065E-03    -3.01252E+06    -19.2233E+06     11.4711E+06    -8.19437E+06    -15.0065E-03     28.8528E-03    -13.8463E-03     53.0152E-03    -15.0250E-03     28.7590E-03    -13.7567E-03     52.8930E-03
            1065     12.4269E-03     96.6561E-03    -2.68127E+06    -15.1551E+06     12.2878E+06    -9.68633E+06    -15.7371E-03     29.6384E-03    -13.9012E-03     60.7119E-03    -15.7734E-03     29.5757E-03    -13.8139E-03     60.5631E-03
            1066     13.3138E-03     96.7139E-03    -2.26549E+06    -27.0312E+06     732.216E+03    -11.5686E+06    -16.4360E-03     30.3795E-03    -13.9435E-03     66.7759E-03    -16.4564E-03     30.2937E-03    -13.8974E-03     66.5943E-03
            1067     14.1997E-03     96.7742E-03    -2.44623E+06    -17.4393E+06    -2.43472E+06    -13.0416E+06    -17.0536E-03     31.0714E-03    -14.0178E-03     71.3309E-03    -17.1157E-03     31.0700E-03    -14.0011E-03     71.1251E-03
            1068     15.0855E-03     96.8413E-03    -2.48219E+06    -9.06355E+06    -6.75260E+06    -13.5623E+06    -18.4382E-03     32.5508E-03    -14.1125E-03     88.1819E-03    -18.6266E-03     32.7178E-03    -14.1295E-03     87.9795E-03
            1069     15.9696E-03     96.9347E-03    -3.29674E+06    -4.93292E+06    -28.2487E+06    -10.2326E+06    -20.2632E-03     34.4137E-03    -14.1505E-03     120.576E-03    -20.9644E-03     35.1676E-03    -14.2798E-03     120.633E-03
            1070     16.8544E-03     97.0642E-03    -2.01243E+06     78.7054E+06     2.89542E+06    -3.63069E+06    -18.6247E-03     32.9410E-03    -14.3163E-03     102.957E-03    -19.6086E-03     34.1887E-03    -14.4130E-03     103.488E-03
            1071     887.788E-06     97.3200E-03    -10.9429E+06    -20.8733E+06    -9.95287E+06     722.913E+03    -13.6807E-03     27.3737E-03    -13.6930E-03     3.47199E-03    -13.6907E-03     27.2997E-03    -13.6967E-03     3.48105E-03
            1072     1.77548E-03     97.3241E-03    -10.8561E+06    -19.2999E+06    -7.80085E+06     1.02366E+06    -13.6569E-03     27.3473E-03    -13.6904E-03     6.41906E-03    -13.6719E-03     27.2779E-03    -13.6857E-03     6.43176E-03
            1073     2.66331E-03     97.3309E-03    -10.7173E+06    -17.6820E+06    -4.45359E+06     905.939E+03    -13.6181E-03     27.3073E-03    -13.6893E-03     9.59165E-03    -13.6397E-03     27.2410E-03    -13.6704E-03     9.60255E-03
            1074     3.55114E-03     97.3403E-03    -10.3175E+06    -16.6962E+06    -448.158E+03     495.002E+03    -13.5710E-03     27.2574E-03    -13.6864E-03     12.8866E-03    -13.5979E-03     27.1897E-03    -13.6495E-03     12.8919E-03
            1075     4.43903E-03     97.3527E-03    -9.72785E+06    -16.3791E+06     3.60659E+06     37.7851E+03    -13.5188E-03     27.1981E-03    -13.6793E-03     16.3300E-03    -13.5492E-03     27.1254E-03    -13.6234E-03     16.3291E-03
            1076     5.32704E-03     97.3680E-03    -9.01768E+06    -17.0278E+06     7.33087E+06    -414.795E+03    -13.4698E-03     27.1373E-03    -13.6674E-03     19.9701E-03    -13.5014E-03     27.0551E-03    -13.5930E-03     19.9629E-03
            1077     6.21502E-03     97.3865E-03    -8.39889E+06    -18.3482E+06     9.95166E+06    -1.17449E+06    -13.4387E-03     27.0873E-03    -13.6486E-03     23.8698E-03    -13.4693E-03     26.9941E-03    -13.5600E-03     23.8524E-03
            1078     7.10323E-03     97.4085E-03    -7.79709E+06    -20.7759E+06     10.9815E+06    -2.20718E+06    -13.4501E-03     27.0739E-03    -13.6238E-03     28.0732E-03    -13.4761E-03     26.9666E-03    -13.5274E-03     28.0417E-03
            1079     7.99125E-03     97.4343E-03    -7.32189E+06    -22.1860E+06     11.1249E+06    -3.48576E+06    -13.5167E-03     27.1140E-03    -13.5973E-03     32.6294E-03    -13.5392E-03     26.9994E-03    -13.4988E-03     32.5805E-03
            1080     8.87951E-03     97.4642E-03    -6.57586E+06    -24.1174E+06     11.4608E+06    -4.57000E+06    -13.6460E-03     27.2252E-03    -13.5792E-03     37.5389E-03    -13.6635E-03     27.1005E-03    -13.4774E-03     37.4746E-03
            1081     9.76746E-03     97.4986E-03    -5.38493E+06    -23.0565E+06     12.4192E+06    -5.24526E+06    -13.8905E-03     27.4614E-03    -13.5710E-03     42.7023E-03    -13.9068E-03     27.3408E-03    -13.4676E-03     42.6272E-03
            1082     10.6555E-03     97.5376E-03    -4.60484E+06    -24.0017E+06     12.4152E+06    -6.43688E+06    -14.3880E-03     27.9719E-03    -13.5839E-03     48.1264E-03    -14.4026E-03     27.8489E-03    -13.4803E-03     48.0324E-03
            1083     11.5427E-03     97.5819E-03    -4.06668E+06    -16.7324E+06     12.5580E+06    -7.67197E+06    -14.9437E-03     28.5578E-03    -13.6141E-03     54.1093E-03    -14.9725E-03     28.4764E-03    -13.5212E-03     53.9944E-03
            1084     12.4300E-03     97.6320E-03    -3.21727E+06    -12.6569E+06     13.8548E+06    -9.16751E+06    -15.6302E-03     29.3100E-03    -13.6798E-03     62.0027E-03    -15.6749E-03     29.2582E-03    -13.5875E-03     61.8612E-03
            1085     13.3164E-03     97.6901E-03    -3.15518E+06    -25.0911E+06     1.73803E+06    -10.9416E+06    -16.6820E-03     30.4198E-03    -13.7378E-03     68.0518E-03    -16.7115E-03     30.3439E-03    -13.6881E-03     67.8780E-03
            1086     14.2024E-03     97.7517E-03    -3.41637E+06    -14.0618E+06    -520.471E+03    -12.8134E+06    -17.6847E-03     31.5374E-03    -13.8527E-03     72.5642E-03    -17.7613E-03     31.5535E-03    -13.8299E-03     72.3593E-03
            1087     15.0871E-03     97.8194E-03    -3.37639E+06    -8.49135E+06    -4.92492E+06    -13.9951E+06    -19.0657E-03     33.0608E-03    -13.9951E-03     89.8717E-03    -19.2659E-03     33.2332E-03    -14.0025E-03     89.6604E-03
            1088     15.9719E-03     97.9144E-03    -2.84939E+06    -10.6665E+06    -28.2942E+06    -10.9972E+06    -20.9592E-03     35.0288E-03    -14.0697E-03     122.381E-03    -21.6606E-03     35.7643E-03    -14.1915E-03     122.421E-03
            1089     16.8552E-03     98.0433E-03    -1.47010E+06     72.4814E+06     287.087E+03    -5.04282E+06    -19.1933E-03     33.4500E-03    -14.2567E-03     103.377E-03    -20.1677E-03     34.6757E-03    -14.3583E-03     103.879E-03
            1090     887.968E-06     98.2942E-03    -12.3185E+06    -23.1974E+06    -11.3887E+06     1.71960E+06    -13.3616E-03     26.7347E-03    -13.3730E-03     3.50048E-03    -13.3731E-03     26.6531E-03    -13.3785E-03     3.52244E-03
            1091     1.77610E-03     98.2983E-03    -12.4430E+06    -20.9162E+06    -9.07744E+06     2.71802E+06    -13.3345E-03     26.7051E-03    -13.3706E-03     6.47566E-03    -13.3533E-03     26.6317E-03    -13.3676E-03     6.51030E-03
            1092     2.66413E-03     98.3050E-03    -12.4455E+06    -18.2487E+06    -5.48065E+06     3.13956E+06    -13.2938E-03     26.6629E-03    -13.3692E-03     9.67642E-03    -13.3217E-03     26.5978E-03    -13.3521E-03     9.71625E-03
            1093     3.55227E-03     98.3144E-03    -12.3264E+06    -16.6642E+06    -1.20647E+06     2.93131E+06    -13.2461E-03     26.6135E-03    -13.3673E-03     13.0032E-03    -13.2820E-03     26.5499E-03    -13.3313E-03     13.0401E-03
            1094     4.44045E-03     98.3267E-03    -11.9578E+06    -16.0857E+06     3.04503E+06     2.47597E+06    -13.1963E-03     26.5581E-03    -13.3618E-03     16.4798E-03    -13.2375E-03     26.4909E-03    -13.3059E-03     16.5105E-03
            1095     5.32868E-03     98.3419E-03    -11.3860E+06    -16.5574E+06     6.77564E+06     1.92588E+06    -13.1526E-03     26.5038E-03    -13.3512E-03     20.1577E-03    -13.1958E-03     26.4282E-03    -13.2768E-03     20.1809E-03
            1096     6.21705E-03     98.3604E-03    -10.7363E+06    -17.2227E+06     9.64348E+06     1.17717E+06    -13.1254E-03     26.4595E-03    -13.3341E-03     24.1017E-03    -13.1688E-03     26.3757E-03    -13.2454E-03     24.1149E-03
            1097     7.10535E-03     98.3823E-03    -10.1811E+06    -19.0453E+06     10.8972E+06    -173.894E+03    -13.1437E-03     26.4552E-03    -13.3115E-03     28.3794E-03    -13.1839E-03     26.3601E-03    -13.2146E-03     28.3745E-03
            1098     7.99386E-03     98.4081E-03    -9.43866E+06    -20.1019E+06     11.2619E+06    -1.84822E+06    -13.2257E-03     26.5134E-03    -13.2877E-03     33.0396E-03    -13.2618E-03     26.4120E-03    -13.1886E-03     33.0122E-03
            1099     8.88209E-03     98.4381E-03    -8.63133E+06    -22.1648E+06     11.5874E+06    -3.61007E+06    -13.3855E-03     26.6592E-03    -13.2737E-03     38.0374E-03    -13.4161E-03     26.5469E-03    -13.1711E-03     37.9859E-03
            1100     9.77053E-03     98.4725E-03    -7.27382E+06    -21.7284E+06     12.1463E+06    -5.12571E+06    -13.7081E-03     26.9798E-03    -13.2717E-03     43.4406E-03    -13.7353E-03     26.8688E-03    -13.1690E-03     43.3674E-03
            1101     10.6584E-03     98.5121E-03    -5.32160E+06    -21.7392E+06     13.0232E+06    -6.22055E+06    -14.2286E-03     27.5243E-03    -13.2957E-03     49.1977E-03    -14.2507E-03     27.4125E-03    -13.1914E-03     49.1070E-03
            1102     11.5461E-03     98.5570E-03    -3.81877E+06    -14.7261E+06     13.8248E+06    -7.08729E+06    -14.8079E-03     28.1454E-03    -13.3375E-03     55.2216E-03    -14.8400E-03     28.0715E-03    -13.2414E-03     55.1149E-03
            1103     12.4333E-03     98.6069E-03    -3.07010E+06    -10.0610E+06     15.5364E+06    -8.59442E+06    -15.6860E-03     29.1053E-03    -13.4192E-03     63.3247E-03    -15.7362E-03     29.0638E-03    -13.3225E-03     63.1908E-03
            1104     13.3200E-03     98.6671E-03    -3.31775E+06    -22.5570E+06     3.71076E+06    -10.1295E+06    -16.9800E-03     30.4856E-03    -13.5055E-03     69.6956E-03    -17.0176E-03     30.4206E-03    -13.4494E-03     69.5318E-03
            1105     14.2049E-03     98.7293E-03    -3.94325E+06    -10.3873E+06     1.92492E+06    -12.1734E+06    -18.0864E-03     31.7417E-03    -13.6552E-03     74.2631E-03    -18.1763E-03     31.7751E-03    -13.6248E-03     74.0652E-03
            1106     15.0898E-03     98.7983E-03    -3.32630E+06    -6.72017E+06    -2.57916E+06    -14.6263E+06    -19.4841E-03     33.3159E-03    -13.8318E-03     91.5388E-03    -19.6936E-03     33.4973E-03    -13.8301E-03     91.3171E-03
            1107     15.9738E-03     98.8931E-03    -2.83365E+06    -16.2180E+06    -28.7057E+06    -12.9984E+06    -21.4168E-03     35.3502E-03    -13.9334E-03     123.449E-03    -22.1144E-03     36.0634E-03    -14.0493E-03     123.456E-03
            1108     16.8585E-03     99.0237E-03    -1.94588E+06     65.5587E+06    -3.19564E+06    -6.62677E+06    -20.2386E-03     34.3911E-03    -14.1526E-03     102.660E-03    -21.1978E-03     35.5854E-03    -14.2608E-03     103.118E-03
            1109     888.427E-06     99.2678E-03    -14.9706E+06    -27.5057E+06    -13.9372E+06     2.70795E+06    -12.9833E-03     25.9775E-03    -12.9942E-03     3.53394E-03    -12.9981E-03     25.8819E-03    -13.0023E-03     3.56870E-03
            1110     1.77669E-03     99.2718E-03    -14.9421E+06    -24.3056E+06    -11.4256E+06     4.55637E+06    -12.9550E-03     25.9467E-03    -12.9918E-03     6.53410E-03    -12.9779E-03     25.8635E-03    -12.9920E-03     6.59254E-03
            1111     2.66517E-03     99.2785E-03    -14.9691E+06    -20.3440E+06    -7.47652E+06     5.73087E+06    -12.9131E-03     25.9036E-03    -12.9905E-03     9.76409E-03    -12.9477E-03     25.8345E-03    -12.9766E-03     9.83749E-03
            1112     3.55359E-03     99.2879E-03    -14.9272E+06    -17.4113E+06    -2.67426E+06     5.90906E+06    -12.8675E-03     25.8577E-03    -12.9902E-03     13.1225E-03    -12.9132E-03     25.7963E-03    -12.9567E-03     13.1979E-03
            1113     4.44210E-03     99.3000E-03    -14.6261E+06    -16.2768E+06     2.10770E+06     5.37564E+06    -12.8266E-03     25.8152E-03    -12.9886E-03     16.6366E-03    -12.8794E-03     25.7522E-03    -12.9333E-03     16.7049E-03
            1114     5.33069E-03     99.3152E-03    -13.9920E+06    -16.2883E+06     6.22232E+06     4.60490E+06    -12.7960E-03     25.7785E-03    -12.9824E-03     20.3544E-03    -12.8518E-03     25.7087E-03    -12.9074E-03     20.4125E-03
            1115     6.21926E-03     99.3336E-03    -13.1389E+06    -16.4649E+06     9.29338E+06     3.60942E+06    -12.7831E-03     25.7529E-03    -12.9697E-03     24.3472E-03    -12.8391E-03     25.6767E-03    -12.8803E-03     24.3920E-03
            1116     7.10801E-03     99.3555E-03    -12.2179E+06    -17.0430E+06     10.9824E+06     2.04911E+06    -12.8146E-03     25.7663E-03    -12.9518E-03     28.7022E-03    -12.8679E-03     25.6839E-03    -12.8544E-03     28.7263E-03
            1117     7.99658E-03     99.3812E-03    -11.2965E+06    -17.6261E+06     11.5207E+06    -310.410E+03    -12.9068E-03     25.8396E-03    -12.9328E-03     33.4548E-03    -12.9560E-03     25.7527E-03    -12.8333E-03     33.4476E-03
            1118     8.88536E-03     99.4113E-03    -9.94833E+06    -19.5596E+06     11.9702E+06    -2.64879E+06    -13.1216E-03     26.0468E-03    -12.9252E-03     38.6050E-03    -13.1630E-03     25.9487E-03    -12.8225E-03     38.5664E-03
            1119     9.77368E-03     99.4459E-03    -8.51446E+06    -19.1991E+06     12.4892E+06    -4.97359E+06    -13.4922E-03     26.4248E-03    -12.9325E-03     44.2904E-03    -13.5295E-03     26.3275E-03    -12.8299E-03     44.2197E-03
            1120     10.6620E-03     99.4861E-03    -6.59205E+06    -20.1181E+06     12.9974E+06    -6.82069E+06    -13.9719E-03     26.9357E-03    -12.9638E-03     50.1988E-03    -14.0023E-03     26.8336E-03    -12.8601E-03     50.1012E-03
            1121     11.5499E-03     99.5311E-03    -4.41111E+06    -13.8799E+06     14.0456E+06    -7.50707E+06    -14.7332E-03     27.7509E-03    -13.0177E-03     56.4787E-03    -14.7696E-03     27.6816E-03    -12.9209E-03     56.3671E-03
            1122     12.4370E-03     99.5826E-03    -2.60816E+06     -7.2671E+06     17.2491E+06    -8.01044E+06    -15.8483E-03     28.9739E-03    -13.1256E-03     64.8483E-03    -15.9029E-03     28.9435E-03    -13.0251E-03     64.7221E-03
            1123     13.3231E-03     99.6432E-03    -1.85024E+06    -20.3207E+06     6.11952E+06    -9.22463E+06    -17.1212E-03     30.3623E-03    -13.2410E-03     71.5852E-03    -17.1590E-03     30.3036E-03    -13.1783E-03     71.4330E-03
            1124     14.2088E-03     99.7075E-03    -2.42067E+06    -6.58265E+06     4.15132E+06    -10.9768E+06    -18.3062E-03     31.7175E-03    -13.4113E-03     76.1637E-03    -18.3984E-03     31.7658E-03    -13.3775E-03     75.9806E-03
            1125     15.0932E-03     99.7766E-03    -3.52570E+06    -2.13839E+06    -229.627E+03    -14.5289E+06    -20.1522E-03     33.7784E-03    -13.6261E-03     93.2369E-03    -20.3780E-03     33.9848E-03    -13.6191E-03     93.0124E-03
            1126     15.9768E-03     99.8736E-03    -3.65286E+06    -20.6344E+06    -28.3918E+06    -14.9839E+06    -22.4012E-03     36.1869E-03    -13.7857E-03     124.207E-03    -23.0984E-03     36.8803E-03    -13.8925E-03     124.173E-03
            1127     16.8588E-03     100.003E-03    -2.47561E+06     56.9807E+06    -7.90071E+06    -8.54730E+06    -21.3708E-03     35.4185E-03    -14.0477E-03     102.611E-03    -22.3133E-03     36.5774E-03    -14.1662E-03     103.019E-03
            1128     888.662E-06     100.240E-03    -18.9731E+06    -33.5142E+06    -18.0898E+06     3.43688E+06    -12.5486E-03     25.1050E-03    -12.5563E-03     3.56650E-03    -12.5687E-03     24.9912E-03    -12.5707E-03     3.61070E-03
            1129     1.77755E-03     100.245E-03    -18.5816E+06    -29.6533E+06    -15.2002E+06     6.12388E+06    -12.5201E-03     25.0755E-03    -12.5554E-03     6.59125E-03    -12.5480E-03     24.9763E-03    -12.5615E-03     6.66999E-03
            1130     2.66626E-03     100.251E-03    -18.2144E+06    -24.2018E+06    -10.6329E+06     8.24414E+06    -12.4807E-03     25.0359E-03    -12.5551E-03     9.84917E-03    -12.5214E-03     24.9567E-03    -12.5468E-03     9.95511E-03
            1131     3.55515E-03     100.261E-03    -17.8450E+06    -19.2855E+06    -4.98081E+06     9.01595E+06    -12.4413E-03     24.9988E-03    -12.5575E-03     13.2373E-03    -12.4955E-03     24.9356E-03    -12.5286E-03     13.3530E-03
            1132     4.44400E-03     100.273E-03    -17.3463E+06    -16.8654E+06     724.521E+03     8.55158E+06    -12.4145E-03     24.9763E-03    -12.5618E-03     16.7891E-03    -12.4780E-03     24.9163E-03    -12.5086E-03     16.8986E-03
            1133     5.33291E-03     100.288E-03    -16.4780E+06    -16.1136E+06     5.48852E+06     7.37360E+06    -12.4030E-03     24.9656E-03    -12.5627E-03     20.5496E-03    -12.4703E-03     24.9013E-03    -12.4880E-03     20.6436E-03
            1134     6.22190E-03     100.306E-03    -15.1784E+06    -15.6754E+06     8.97759E+06     5.89471E+06    -12.4162E-03     24.9736E-03    -12.5574E-03     24.5955E-03    -12.4830E-03     24.9048E-03    -12.4677E-03     24.6700E-03
            1135     7.11082E-03     100.328E-03    -13.6006E+06    -15.0171E+06     11.1283E+06     3.87840E+06    -12.4652E-03     25.0119E-03    -12.5467E-03     29.0180E-03    -12.5285E-03     24.9413E-03    -12.4496E-03     29.0660E-03
            1136     7.99989E-03     100.354E-03    -12.1076E+06    -14.5668E+06     12.0838E+06     1.26952E+06    -12.5806E-03     25.1161E-03    -12.5355E-03     33.8597E-03    -12.6390E-03     25.0447E-03    -12.4364E-03     33.8733E-03
            1137     8.88869E-03     100.384E-03    -10.7631E+06    -16.4001E+06     12.4210E+06    -1.86788E+06    -12.8351E-03     25.3713E-03    -12.5362E-03     39.2135E-03    -12.8855E-03     25.2893E-03    -12.4347E-03     39.1854E-03
            1138     9.77753E-03     100.419E-03    -8.98744E+06    -15.8224E+06     13.1456E+06    -4.74407E+06    -13.1975E-03     25.7497E-03    -12.5522E-03     45.0739E-03    -13.2428E-03     25.6688E-03    -12.4505E-03     45.0068E-03
            1139     10.6659E-03     100.459E-03    -7.29566E+06    -17.6806E+06     13.3320E+06    -7.17367E+06    -13.7746E-03     26.3680E-03    -12.5935E-03     51.1986E-03    -13.8122E-03     26.2784E-03    -12.4906E-03     51.0970E-03
            1140     11.5540E-03     100.505E-03    -5.08649E+06    -12.7972E+06     14.1863E+06    -8.61088E+06    -14.6470E-03     27.3106E-03    -12.6637E-03     57.9446E-03    -14.6882E-03     27.2473E-03    -12.5668E-03     57.8193E-03
            1141     12.4411E-03     100.558E-03    -2.33302E+06    -5.71679E+06     17.9030E+06    -9.03335E+06    -15.8122E-03     28.6018E-03    -12.7897E-03     66.7194E-03    -15.8686E-03     28.5777E-03    -12.6885E-03     66.5806E-03
            1142     13.3277E-03     100.619E-03    -62.1884E+03    -19.7730E+06     7.58707E+06    -8.93809E+06    -17.2969E-03     30.2275E-03    -12.9306E-03     73.7250E-03    -17.3293E-03     30.1675E-03    -12.8639E-03     73.5765E-03
            1143     14.2127E-03     100.685E-03     269.257E+03    -2.96404E+06     6.74279E+06    -9.33344E+06    -18.7893E-03     31.9248E-03    -13.1355E-03     78.1088E-03    -18.8788E-03     31.9853E-03    -13.0979E-03     77.9454E-03
            1144     15.0969E-03     100.756E-03    -1.36238E+06     3.75528E+06     3.41489E+06    -12.4999E+06    -20.9660E-03     34.3683E-03    -13.4023E-03     95.0867E-03    -21.1989E-03     34.5998E-03    -13.3887E-03     94.8831E-03
            1145     15.9788E-03     100.855E-03    -3.25921E+06    -21.4761E+06    -27.6014E+06    -15.4546E+06    -23.4862E-03     37.1069E-03    -13.6206E-03     125.391E-03    -24.1847E-03     37.7976E-03    -13.7228E-03     125.330E-03
            1146     16.8615E-03     100.984E-03    -2.98875E+06     48.0639E+06    -13.8089E+06    -11.4858E+06    -22.6972E-03     36.6282E-03    -13.9311E-03     103.372E-03    -23.6281E-03     37.7593E-03    -14.0655E-03     103.713E-03
            1147     889.265E-06     101.212E-03    -25.2808E+06    -40.3889E+06    -24.6179E+06     3.55371E+06    -12.0578E-03     24.1269E-03    -12.0691E-03     3.59287E-03    -12.0899E-03     23.9973E-03    -12.0970E-03     3.63861E-03
            1148     1.77830E-03     101.216E-03    -24.0159E+06    -36.3629E+06    -21.0582E+06     6.61505E+06    -12.0369E-03     24.1049E-03    -12.0679E-03     6.64498E-03    -12.0738E-03     23.9884E-03    -12.0856E-03     6.73012E-03
            1149     2.66762E-03     101.223E-03    -22.2739E+06    -29.9270E+06    -15.4662E+06     9.64534E+06    -12.0065E-03     24.0770E-03    -12.0705E-03     9.92554E-03    -12.0521E-03     23.9821E-03    -12.0721E-03     10.0497E-03
            1150     3.55680E-03     101.232E-03    -20.8088E+06    -22.6303E+06    -8.43850E+06     11.5031E+06    -11.9782E-03     24.0554E-03    -12.0772E-03     13.3391E-03    -12.0373E-03     23.9847E-03    -12.0564E-03     13.4870E-03
            1151     4.44612E-03     101.244E-03    -19.5069E+06    -17.9682E+06    -1.32156E+06     11.4133E+06    -11.9680E-03     24.0565E-03    -12.0885E-03     16.9231E-03    -12.0378E-03     23.9970E-03    -12.0408E-03     17.0697E-03
            1152     5.33541E-03     101.259E-03    -18.0269E+06    -15.8053E+06     4.57663E+06     9.91382E+06    -11.9841E-03     24.0828E-03    -12.0987E-03     20.7254E-03    -12.0583E-03     24.0236E-03    -12.0268E-03     20.8523E-03
            1153     6.22470E-03     101.278E-03    -16.2250E+06    -14.6649E+06     8.68223E+06     7.82612E+06    -12.0302E-03     24.1339E-03    -12.1037E-03     24.8234E-03    -12.1031E-03     24.0720E-03    -12.0155E-03     24.9231E-03
            1154     7.11404E-03     101.300E-03    -14.2133E+06    -12.6571E+06     11.2691E+06     5.24874E+06    -12.1018E-03     24.2046E-03    -12.1027E-03     29.2934E-03    -12.1717E-03     24.1463E-03    -12.0074E-03     29.3593E-03
            1155     8.00328E-03     101.325E-03    -12.1790E+06    -11.7449E+06     12.4751E+06     2.41133E+06    -12.2527E-03     24.3548E-03    -12.1021E-03     34.2470E-03    -12.3160E-03     24.2970E-03    -12.0050E-03     34.2757E-03
            1156     8.89256E-03     101.356E-03    -10.3840E+06    -12.1805E+06     13.2481E+06    -917.146E+03    -12.5063E-03     24.6186E-03    -12.1124E-03     39.7648E-03    -12.5619E-03     24.5558E-03    -12.0134E-03     39.7494E-03
            1157     9.78146E-03     101.391E-03    -8.86659E+06    -12.2165E+06     13.7694E+06    -4.53596E+06    -12.8947E-03     25.0323E-03    -12.1376E-03     45.7744E-03    -12.9452E-03     24.9680E-03    -12.0381E-03     45.7106E-03
            1158     10.6704E-03     101.432E-03    -7.07263E+06    -14.4597E+06     13.9847E+06    -7.17452E+06    -13.5625E-03     25.7533E-03    -12.1908E-03     52.3031E-03    -13.6044E-03     25.6782E-03    -12.0897E-03     52.2022E-03
            1159     11.5583E-03     101.479E-03    -5.16418E+06    -10.5906E+06     14.5505E+06    -9.25203E+06    -14.4303E-03     26.7038E-03    -12.2735E-03     59.4171E-03    -14.4752E-03     26.6506E-03    -12.1779E-03     59.2845E-03
            1160     12.4460E-03     101.532E-03    -2.95708E+06    -4.56054E+06     17.7191E+06    -10.5868E+06    -15.6831E-03     28.0940E-03    -12.4109E-03     68.6570E-03    -15.7436E-03     28.0765E-03    -12.3114E-03     68.4989E-03
            1161     13.3324E-03     101.596E-03    -973.453E+03    -20.1258E+06     7.98653E+06    -10.4080E+06    -17.6151E-03     30.1986E-03    -12.5835E-03     76.0399E-03    -17.6524E-03     30.1379E-03    -12.5130E-03     75.8722E-03
            1162     14.2172E-03     101.663E-03     1.73960E+06    -1.50392E+06     8.59694E+06    -9.87709E+06    -19.4647E-03     32.3014E-03    -12.8367E-03     80.4178E-03    -19.5538E-03     32.3665E-03    -12.7941E-03     80.2452E-03
            1163     15.1002E-03     101.736E-03     3.61244E+06     8.54918E+06     7.94813E+06    -10.7800E+06    -21.7753E-03     34.9368E-03    -13.1615E-03     97.5695E-03    -22.0006E-03     35.1823E-03    -13.1394E-03     97.3827E-03
            1164     15.9828E-03     101.836E-03     2.29104E+06    -17.9384E+06    -24.0551E+06    -13.6568E+06    -24.7467E-03     38.1863E-03    -13.4397E-03     126.983E-03    -25.4321E-03     38.8860E-03    -13.5372E-03     126.921E-03
            1165     16.8627E-03     101.967E-03    -472.734E+03     40.9890E+06    -17.2604E+06    -12.4170E+06    -24.2530E-03     38.0668E-03    -13.8138E-03     103.661E-03    -25.1615E-03     39.1692E-03    -13.9588E-03     103.954E-03
            1166     889.517E-06     102.183E-03    -35.0864E+06    -46.5551E+06    -34.6188E+06     2.66039E+06    -11.5286E-03     23.0679E-03    -11.5393E-03     3.61639E-03    -11.5864E-03     22.9362E-03    -11.5940E-03     3.65064E-03
            1167     1.77934E-03     102.187E-03    -32.3188E+06    -42.8373E+06    -30.1034E+06     5.21727E+06    -11.5190E-03     23.0607E-03    -11.5417E-03     6.68836E-03    -11.5748E-03     22.9370E-03    -11.5832E-03     6.75552E-03
            1168     2.66888E-03     102.194E-03    -28.3727E+06    -36.6114E+06    -23.1892E+06     8.32679E+06    -11.5034E-03     23.0534E-03    -11.5500E-03     9.98656E-03    -11.5586E-03     22.9451E-03    -11.5717E-03     10.0937E-03
            1169     3.55866E-03     102.203E-03    -24.0683E+06    -27.9832E+06    -14.1714E+06     11.5589E+06    -11.4910E-03     23.0541E-03    -11.5631E-03     13.4156E-03    -11.5503E-03     22.9697E-03    -11.5585E-03     13.5643E-03
            1170     4.44832E-03     102.215E-03    -20.7761E+06    -20.0005E+06    -4.75494E+06     12.9474E+06    -11.5007E-03     23.0826E-03    -11.5819E-03     17.0166E-03    -11.5688E-03     23.0198E-03    -11.5466E-03     17.1831E-03
            1171     5.33806E-03     102.230E-03    -18.3014E+06    -15.5082E+06     3.00295E+06     11.7458E+06    -11.5488E-03     23.1520E-03    -11.6033E-03     20.8563E-03    -11.6224E-03     23.0969E-03    -11.5392E-03     21.0071E-03
            1172     6.22773E-03     102.249E-03    -15.9863E+06    -13.3120E+06     8.17116E+06     9.32367E+06    -11.6258E-03     23.2465E-03    -11.6206E-03     24.9906E-03    -11.6988E-03     23.1917E-03    -11.5373E-03     25.1098E-03
            1173     7.11736E-03     102.271E-03    -13.8674E+06    -10.2222E+06     11.3774E+06     6.52916E+06    -11.7345E-03     23.3669E-03    -11.6323E-03     29.5119E-03    -11.8063E-03     23.3201E-03    -11.5405E-03     29.5947E-03
            1174     8.00702E-03     102.296E-03    -11.9548E+06    -8.67684E+06     12.8566E+06     3.30055E+06    -11.9035E-03     23.5478E-03    -11.6443E-03     34.5687E-03    -11.9705E-03     23.5042E-03    -11.5501E-03     34.6092E-03
            1175     8.89642E-03     102.327E-03    -10.0942E+06    -8.00304E+06     13.5763E+06    -235.768E+03    -12.1485E-03     23.8111E-03    -11.6626E-03     40.1911E-03    -12.2090E-03     23.7680E-03    -11.5685E-03     40.1850E-03
            1176     9.78596E-03     102.363E-03    -8.71406E+06    -8.20052E+06     14.2180E+06    -3.55322E+06    -12.5929E-03     24.2915E-03    -11.6986E-03     46.4707E-03    -12.6488E-03     24.2461E-03    -11.6030E-03     46.4201E-03
            1177     10.6747E-03     102.404E-03    -7.71268E+06    -10.6295E+06     14.1348E+06    -7.00805E+06    -13.2466E-03     25.0078E-03    -11.7612E-03     53.3182E-03    -13.2969E-03     24.9520E-03    -11.6639E-03     53.2202E-03
            1178     11.5635E-03     102.452E-03    -6.16224E+06    -7.92680E+06     14.4559E+06    -9.63805E+06    -14.1871E-03     26.0412E-03    -11.8542E-03     60.7322E-03    -14.2401E-03     26.0024E-03    -11.7615E-03     60.5955E-03
            1179     12.4511E-03     102.506E-03    -4.54247E+06    -2.56460E+06     17.2325E+06    -11.1686E+06    -15.7014E-03     27.7112E-03    -12.0098E-03     70.4589E-03    -15.7717E-03     27.7064E-03    -11.9133E-03     70.2939E-03
            1180     13.3375E-03     102.572E-03    -2.26402E+06    -18.5959E+06     8.92586E+06    -12.8562E+06    -17.7565E-03     29.9732E-03    -12.2167E-03     78.6224E-03    -17.8039E-03     29.9207E-03    -12.1418E-03     78.4233E-03
            1181     14.2217E-03     102.642E-03     641.679E+03    -1.73496E+06     8.81703E+06    -13.0490E+06    -19.8977E-03     32.4006E-03    -12.5029E-03     83.4298E-03    -19.9935E-03     32.4670E-03    -12.4572E-03     83.2149E-03
            1182     15.1051E-03     102.716E-03     4.26893E+06     9.24300E+06     8.62045E+06    -11.5366E+06    -22.6938E-03     35.5708E-03    -12.8770E-03     100.632E-03    -22.9215E-03     35.8216E-03    -12.8535E-03     100.429E-03
            1183     15.9854E-03     102.820E-03     5.10860E+06    -13.0317E+06    -22.8640E+06    -12.6827E+06    -26.1052E-03     39.3222E-03    -13.2170E-03     130.042E-03    -26.7936E-03     40.0488E-03    -13.3198E-03     129.966E-03
            1184     16.8645E-03     102.951E-03     3.01082E+06     35.3948E+06    -23.3258E+06    -11.2407E+06    -26.1184E-03     39.7736E-03    -13.6552E-03     105.375E-03    -27.0044E-03     40.8636E-03    -13.8275E-03     105.641E-03
            1185     890.204E-06     103.153E-03    -48.6253E+06    -49.7498E+06    -48.5824E+06     577.355E+03    -10.9862E-03     21.9766E-03    -10.9903E-03     3.62618E-03    -11.0868E-03     21.8688E-03    -11.0906E-03     3.63357E-03
            1186     1.78009E-03     103.157E-03    -44.6032E+06    -46.8167E+06    -43.2388E+06     1.43790E+06    -10.9869E-03     21.9862E-03    -10.9993E-03     6.70954E-03    -11.0793E-03     21.8795E-03    -11.0830E-03     6.72797E-03
            1187     2.67035E-03     103.164E-03    -38.2291E+06    -41.9344E+06    -35.0406E+06     3.38434E+06    -10.9894E-03     22.0045E-03    -11.0151E-03     10.0168E-03    -11.0690E-03     21.9011E-03    -11.0740E-03     10.0603E-03
            1188     3.56038E-03     103.173E-03    -30.3280E+06    -34.4159E+06    -24.2769E+06     6.74385E+06    -10.9982E-03     22.0341E-03    -11.0359E-03     13.4455E-03    -11.0648E-03     21.9412E-03    -11.0634E-03     13.5323E-03
            1189     4.45062E-03     103.185E-03    -22.6715E+06    -24.5679E+06    -11.9517E+06     10.6741E+06    -11.0287E-03     22.0914E-03    -11.0627E-03     17.0425E-03    -11.0892E-03     22.0188E-03    -11.0540E-03     17.1798E-03
            1190     5.34069E-03     103.200E-03    -17.6980E+06    -16.1554E+06    -807.039E+03     12.1174E+06    -11.0967E-03     22.1919E-03    -11.0952E-03     20.8875E-03    -11.1608E-03     22.1381E-03    -11.0501E-03     21.0432E-03
            1191     6.23079E-03     103.219E-03    -14.7454E+06    -11.7003E+06     6.73583E+06     10.2281E+06    -11.2075E-03     22.3341E-03    -11.1266E-03     25.0478E-03    -11.2744E-03     22.2876E-03    -11.0546E-03     25.1789E-03
            1192     7.12082E-03     103.241E-03    -12.2306E+06    -8.24700E+06     11.3685E+06     7.51264E+06    -11.3548E-03     22.5086E-03    -11.1538E-03     29.6272E-03    -11.4211E-03     22.4692E-03    -11.0673E-03     29.7228E-03
            1193     8.01069E-03     103.267E-03    -10.4809E+06    -5.41518E+06     13.6127E+06     4.65896E+06    -11.5325E-03     22.7108E-03    -11.1782E-03     34.7269E-03    -11.5979E-03     22.6802E-03    -11.0871E-03     34.7852E-03
            1194     8.90065E-03     103.297E-03    -9.37109E+06    -3.56474E+06     14.2452E+06     742.913E+03    -11.8025E-03     23.0080E-03    -11.2055E-03     40.4701E-03    -11.8666E-03     22.9849E-03    -11.1156E-03     40.4770E-03
            1195     9.79014E-03     103.333E-03    -8.08553E+06    -5.06366E+06     14.4152E+06    -2.52801E+06    -12.2327E-03     23.4824E-03    -11.2497E-03     47.0004E-03    -12.2899E-03     23.4511E-03    -11.1586E-03     46.9637E-03
            1196     10.6797E-03     103.376E-03    -7.40755E+06    -5.75494E+06     15.0423E+06    -5.55549E+06    -12.8952E-03     24.2153E-03    -11.3201E-03     54.1107E-03    -12.9518E-03     24.1816E-03    -11.2258E-03     54.0323E-03
            1197     11.5683E-03     103.424E-03    -7.18783E+06    -4.02254E+06     15.0893E+06    -9.53395E+06    -14.0193E-03     25.4461E-03    -11.4267E-03     62.0949E-03    -14.0835E-03     25.4267E-03    -11.3350E-03     61.9604E-03
            1198     12.4561E-03     103.480E-03    -5.74331E+06    -755.636E+03     16.8379E+06    -11.5341E+06    -15.6373E-03     27.2364E-03    -11.5991E-03     72.4655E-03    -15.7149E-03     27.2422E-03    -11.5055E-03     72.2967E-03
            1199     13.3423E-03     103.547E-03    -4.02020E+06    -14.1321E+06     10.1722E+06    -13.9258E+06    -17.7452E-03     29.5757E-03    -11.8305E-03     81.3145E-03    -17.8090E-03     29.5456E-03    -11.7533E-03     81.1025E-03
            1200     14.2278E-03     103.620E-03    -1.70978E+06    -1.24403E+06     8.96992E+06    -16.1231E+06    -20.1913E-03     32.3352E-03    -12.1439E-03     86.5407E-03    -20.2999E-03     32.4074E-03    -12.0948E-03     86.2855E-03
            1201     15.1095E-03     103.697E-03     667.528E+03     6.58503E+06     6.94415E+06    -14.6943E+06    -23.4785E-03     36.0380E-03    -12.5594E-03     103.913E-03    -23.7196E-03     36.2848E-03    -12.5352E-03     103.663E-03
            1202     15.9904E-03     103.803E-03     2.46467E+06    -10.6266E+06    -24.7908E+06    -13.7104E+06    -27.2773E-03     40.2279E-03    -12.9506E-03     133.199E-03    -27.9785E-03     40.9722E-03    -13.0628E-03     133.084E-03
            1203     16.8690E-03     103.938E-03     1.23627E+06     29.7495E+06    -30.2622E+06    -10.6665E+06    -28.3751E-03     41.8425E-03    -13.4673E-03     107.564E-03    -29.2593E-03     42.9246E-03    -13.6636E-03     107.788E-03
            1204     890.369E-06     104.121E-03    -63.6184E+06    -48.3124E+06    -63.5332E+06    -2.02386E+06    -10.4664E-03     20.9357E-03    -10.4693E-03     3.61294E-03    -10.6223E-03     20.8785E-03    -10.6247E-03     3.58677E-03
            1205     1.78111E-03     104.126E-03    -59.6483E+06    -46.1460E+06    -58.6246E+06    -3.49933E+06    -10.4756E-03     20.9552E-03    -10.4797E-03     6.68742E-03    -10.6219E-03     20.8960E-03    -10.6194E-03     6.64215E-03
            1206     2.67147E-03     104.132E-03    -53.0715E+06    -43.2930E+06    -50.7556E+06    -4.02775E+06    -10.4931E-03     20.9934E-03    -10.5002E-03     9.98316E-03    -10.6222E-03     20.9275E-03    -10.6143E-03     9.93101E-03
            1207     3.56214E-03     104.142E-03    -43.3900E+06    -38.4313E+06    -39.8097E+06    -2.74673E+06    -10.5241E-03     21.0519E-03    -10.5278E-03     13.3981E-03    -10.6277E-03     20.9804E-03    -10.6082E-03     13.3624E-03
            1208     4.45259E-03     104.154E-03    -31.0007E+06    -30.9400E+06    -25.8547E+06     1.14314E+06    -10.5711E-03     21.1335E-03    -10.5625E-03     16.9672E-03    -10.6438E-03     21.0614E-03    -10.6019E-03     16.9816E-03
            1209     5.34324E-03     104.169E-03    -18.9259E+06    -20.7432E+06    -10.5305E+06     6.78268E+06    -10.6444E-03     21.2470E-03    -10.6027E-03     20.7614E-03    -10.6938E-03     21.1862E-03    -10.5978E-03     20.8483E-03
            1210     6.23370E-03     104.188E-03    -12.0911E+06    -11.8862E+06     2.46676E+06     9.81986E+06    -10.7754E-03     21.4238E-03    -10.6484E-03     24.9148E-03    -10.8226E-03     21.3787E-03    -10.6013E-03     25.0407E-03
            1211     7.12408E-03     104.210E-03    -9.79696E+06    -6.37170E+06     10.5906E+06     8.51806E+06    -10.9533E-03     21.6464E-03    -10.6930E-03     29.5154E-03    -11.0090E-03     21.6139E-03    -10.6166E-03     29.6242E-03
            1212     8.01442E-03     104.236E-03    -7.66484E+06    -2.38689E+06     14.6464E+06     5.35859E+06    -11.1677E-03     21.8984E-03    -10.7307E-03     34.6369E-03    -11.2247E-03     21.8772E-03    -10.6429E-03     34.7044E-03
            1213     8.90450E-03     104.267E-03    -5.88809E+06     206.924E+03     16.1465E+06     2.38063E+06    -11.4535E-03     22.2216E-03    -10.7681E-03     40.4900E-03    -11.5083E-03     22.2093E-03    -10.6791E-03     40.5184E-03
            1214     9.79458E-03     104.303E-03    -5.80752E+06    -1.65366E+06     16.1188E+06    -816.342E+03    -11.8681E-03     22.6880E-03    -10.8199E-03     47.1492E-03    -11.9209E-03     22.6676E-03    -10.7285E-03     47.1352E-03
            1215     10.6842E-03     104.346E-03    -4.73002E+06    -786.125E+03     17.2423E+06    -4.75501E+06    -12.5737E-03     23.4696E-03    -10.8959E-03     54.6342E-03    -12.6267E-03     23.4530E-03    -10.8017E-03     54.5670E-03
            1216     11.5734E-03     104.395E-03    -3.93602E+06     76.9407E+03     18.0904E+06    -7.53586E+06    -13.7173E-03     24.7303E-03    -11.0130E-03     63.2700E-03    -13.7745E-03     24.7213E-03    -10.9170E-03     63.1625E-03
            1217     12.4612E-03     104.453E-03    -5.23781E+06     1.86477E+06     18.4648E+06    -9.80509E+06    -15.4100E-03     26.6015E-03    -11.1915E-03     74.2906E-03    -15.4899E-03     26.6159E-03    -11.0943E-03     74.1456E-03
            1218     13.3485E-03     104.522E-03    -5.07357E+06    -7.91230E+06     13.4266E+06    -14.1431E+06    -17.8715E-03     29.3178E-03    -11.4463E-03     83.9313E-03    -17.9532E-03     29.3146E-03    -11.3603E-03     83.7170E-03
            1219     14.2320E-03     104.598E-03    -3.96601E+06     1.21389E+06     10.8073E+06    -17.6260E+06    -20.6123E-03     32.4069E-03    -11.7945E-03     89.4198E-03    -20.7379E-03     32.4915E-03    -11.7365E-03     89.1439E-03
            1220     15.1153E-03     104.678E-03    -1.99291E+06     5.49877E+06     8.03693E+06    -18.2416E+06    -24.1501E-03     36.4070E-03    -12.2569E-03     106.861E-03    -24.4033E-03     36.6496E-03    -12.2218E-03     106.559E-03
            1221     15.9943E-03     104.788E-03    -589.075E+03    -12.0118E+06    -22.6151E+06    -16.5746E+06    -28.5099E-03     41.2244E-03    -12.7145E-03     135.858E-03    -29.2114E-03     41.9469E-03    -12.8093E-03     135.671E-03
            1222     16.8710E-03     104.924E-03     949.440E+03     21.1329E+06    -28.0399E+06    -10.6770E+06    -30.7630E-03     44.0977E-03    -13.3348E-03     111.225E-03    -31.6487E-03     45.1435E-03    -13.5070E-03     111.395E-03
            1223     891.011E-06     105.090E-03    -65.4915E+06    -42.7032E+06    -65.4061E+06    -3.62992E+06    -10.0635E-03     20.1277E-03    -10.0642E-03     3.54217E-03    -10.2341E-03     20.1040E-03    -10.2344E-03     3.49527E-03
            1224     1.78163E-03     105.093E-03    -63.9918E+06    -40.8775E+06    -62.6211E+06    -6.79143E+06    -10.0740E-03     20.1455E-03    -10.0715E-03     6.56256E-03    -10.2439E-03     20.1247E-03    -10.2326E-03     6.47479E-03
            1225     2.67268E-03     105.100E-03    -60.7692E+06    -39.4921E+06    -58.0377E+06    -9.62881E+06    -10.0966E-03     20.1847E-03    -10.0881E-03     9.80556E-03    -10.2591E-03     20.1596E-03    -10.2330E-03     9.68110E-03
            1226     3.56339E-03     105.109E-03    -55.5342E+06    -37.2222E+06    -51.7765E+06    -11.4017E+06    -10.1270E-03     20.2357E-03    -10.1088E-03     13.1822E-03    -10.2757E-03     20.2053E-03    -10.2332E-03     13.0348E-03
            1227     4.45437E-03     105.122E-03    -46.9060E+06    -33.5910E+06    -42.9030E+06    -11.1919E+06    -10.1667E-03     20.3009E-03    -10.1342E-03     16.7171E-03    -10.2905E-03     20.2633E-03    -10.2320E-03     16.5723E-03
            1228     5.34517E-03     105.137E-03    -33.4418E+06    -27.8661E+06    -29.4728E+06    -6.95731E+06    -10.2358E-03     20.4069E-03    -10.1711E-03     20.4500E-03    -10.3201E-03     20.3590E-03    -10.2296E-03     20.3596E-03
            1229     6.23616E-03     105.156E-03    -17.4755E+06    -17.8883E+06    -11.3612E+06     940.864E+03    -10.3521E-03     20.5761E-03    -10.2240E-03     24.4950E-03    -10.3974E-03     20.5288E-03    -10.2295E-03     24.5064E-03
            1230     7.12697E-03     105.178E-03    -6.35300E+06    -7.08363E+06     5.50508E+06     6.36083E+06    -10.5381E-03     20.8229E-03    -10.2849E-03     29.0228E-03    -10.5681E-03     20.7893E-03    -10.2379E-03     29.1039E-03
            1231     8.01756E-03     105.205E-03    -3.13437E+06    -137.188E+03     15.1468E+06     6.44987E+06    -10.7928E-03     21.1335E-03    -10.3408E-03     34.1678E-03    -10.8310E-03     21.1163E-03    -10.2603E-03     34.2496E-03
            1232     8.90809E-03     105.236E-03    -2.70001E+06     3.03060E+06     18.4219E+06     3.86882E+06    -11.0994E-03     21.4885E-03    -10.3891E-03     40.0567E-03    -11.1454E-03     21.4823E-03    -10.2975E-03     40.1046E-03
            1233     9.79836E-03     105.273E-03    -1.11830E+06     2.26962E+06     19.6180E+06     662.903E+03    -11.5469E-03     21.9937E-03    -10.4467E-03     46.8482E-03    -11.5867E-03     21.9806E-03    -10.3503E-03     46.8538E-03
            1234     10.6884E-03     105.316E-03    -891.453E+03     4.24710E+06     20.6789E+06    -3.19660E+06    -12.2446E-03     22.7701E-03    -10.5255E-03     54.7410E-03    -12.2899E-03     22.7674E-03    -10.4270E-03     54.6948E-03
            1235     11.5777E-03     105.366E-03    -839.750E+03     1.68485E+06     21.1551E+06    -5.62833E+06    -13.3428E-03     23.9898E-03    -10.6470E-03     63.7484E-03    -13.3899E-03     23.9786E-03    -10.5424E-03     63.6669E-03
            1236     12.4666E-03     105.425E-03    -44.7878E+03     6.12745E+06     23.5085E+06    -7.07521E+06    -15.2252E-03     26.0567E-03    -10.8315E-03     75.4873E-03    -15.2907E-03     26.0757E-03    -10.7228E-03     75.3790E-03
            1237     13.3527E-03     105.497E-03    -1.80486E+06     127.753E+03     20.3318E+06    -11.9300E+06    -17.9608E-03     29.0696E-03    -11.1087E-03     86.0865E-03    -18.0458E-03     29.0897E-03    -11.0046E-03     85.9017E-03
            1238     14.2380E-03     105.576E-03    -4.28236E+06     4.39766E+06     14.3981E+06    -16.0039E+06    -21.0932E-03     32.5785E-03    -11.4853E-03     92.1040E-03    -21.2283E-03     32.6725E-03    -11.4135E-03     91.8478E-03
            1239     15.1185E-03     105.659E-03    -4.53778E+06     9.44586E+06     11.9308E+06    -19.4388E+06    -25.0675E-03     37.0704E-03    -12.0029E-03     109.727E-03    -25.3415E-03     37.3275E-03    -11.9504E-03     109.401E-03
            1240     15.9983E-03     105.773E-03    -4.70564E+06    -14.4246E+06    -16.8042E+06    -20.7009E+06    -29.8100E-03     42.3579E-03    -12.5478E-03     138.627E-03    -30.5155E-03     43.0444E-03    -12.6041E-03     138.346E-03
            1241     16.8744E-03     105.913E-03    -1.59915E+06     8.10383E+06    -13.6302E+06    -12.6604E+06    -32.2701E-03     45.5669E-03    -13.2967E-03     115.993E-03    -33.1738E-03     46.5335E-03    -13.3743E-03     116.086E-03
            1242     890.960E-06     106.056E-03    -51.6710E+06    -35.3615E+06    -51.1862E+06    -3.78028E+06    -9.84672E-03     19.6910E-03    -9.84428E-03     3.38524E-03    -9.97957E-03     19.6634E-03    -9.97401E-03     3.33637E-03
            1243     1.78233E-03     106.061E-03    -51.3543E+06    -33.1307E+06    -50.0405E+06    -7.38128E+06    -9.86051E-03     19.7102E-03    -9.84971E-03     6.28150E-03    -9.99671E-03     19.6916E-03    -9.97741E-03     6.18607E-03
            1244     2.67323E-03     106.067E-03    -50.8460E+06    -32.4563E+06    -47.9826E+06    -11.1039E+06    -9.88745E-03     19.7513E-03    -9.86385E-03     9.39657E-03    -10.0251E-03     19.7324E-03    -9.98297E-03     9.25300E-03
            1245     3.56446E-03     106.077E-03    -49.7904E+06    -31.4424E+06    -45.4225E+06    -14.3771E+06    -9.91734E-03     19.7975E-03    -9.88013E-03     12.6408E-03    -10.0549E-03     19.7784E-03    -9.98946E-03     12.4549E-03
            1246     4.45543E-03     106.089E-03    -48.0076E+06    -29.9940E+06    -42.2271E+06    -17.1362E+06    -9.95359E-03     19.8511E-03    -9.89752E-03     16.0538E-03    -10.0891E-03     19.8322E-03    -9.99556E-03     15.8322E-03
            1247     5.34660E-03     106.105E-03    -43.8707E+06    -29.7207E+06    -37.4295E+06    -18.0625E+06    -10.0003E-03     19.9204E-03    -9.92011E-03     19.6950E-03    -10.1225E-03     19.8899E-03    -10.0005E-03     19.4612E-03
            1248     6.23755E-03     106.123E-03    -33.6466E+06    -24.9385E+06    -28.9631E+06    -14.9717E+06    -10.0481E-03     19.9905E-03    -9.94242E-03     23.6478E-03    -10.1385E-03     19.9570E-03    -10.0023E-03     23.4538E-03
            1249     7.12876E-03     106.146E-03    -17.3136E+06    -14.7297E+06    -13.8483E+06    -6.41695E+06    -10.1568E-03     20.1360E-03    -9.97921E-03     28.0416E-03    -10.2025E-03     20.1081E-03    -10.0020E-03     27.9578E-03
            1250     8.01988E-03     106.173E-03    -2.77318E+06    -2.94629E+06     6.70458E+06     2.14556E+06    -10.3877E-03     20.4382E-03    -10.0504E-03     33.0781E-03    -10.4078E-03     20.4185E-03    -10.0086E-03     33.1045E-03
            1251     8.91065E-03     106.204E-03     3.56578E+06     4.73884E+06     20.3508E+06     4.66019E+06    -10.7484E-03     20.8706E-03    -10.1223E-03     38.9587E-03    -10.7682E-03     20.8609E-03    -10.0325E-03     39.0170E-03
            1252     9.80122E-03     106.241E-03     3.87010E+06     6.05971E+06     23.5412E+06     2.25781E+06    -11.2347E-03     21.4170E-03    -10.1823E-03     45.8952E-03    -11.2603E-03     21.4096E-03    -10.0790E-03     45.9217E-03
            1253     10.6915E-03     106.285E-03     3.95197E+06     8.21433E+06     25.2448E+06    -766.300E+03    -11.9092E-03     22.1693E-03    -10.2602E-03     54.0258E-03    -11.9418E-03     22.1720E-03    -10.1516E-03     54.0118E-03
            1254     11.5813E-03     106.336E-03     3.93800E+06     3.93054E+06     25.9360E+06    -3.50581E+06    -13.0992E-03     23.4828E-03    -10.3836E-03     63.5415E-03    -13.1311E-03     23.4675E-03    -10.2654E-03     63.4886E-03
            1255     12.4696E-03     106.397E-03     4.47789E+06     9.40651E+06     28.7758E+06    -6.23992E+06    -15.0578E-03     25.6301E-03    -10.5723E-03     76.2243E-03    -15.1105E-03     25.6487E-03    -10.4485E-03     76.1285E-03
            1256     13.3572E-03     106.472E-03     4.34581E+06     4.95970E+06     27.8619E+06    -6.91018E+06    -17.9058E-03     28.7677E-03    -10.8619E-03     87.7868E-03    -17.9740E-03     28.7882E-03    -10.7361E-03     87.6686E-03
            1257     14.2407E-03     106.553E-03    -705.434E+03     8.83830E+06     21.0978E+06    -8.55637E+06    -21.4740E-03     32.7315E-03    -11.2575E-03     94.6667E-03    -21.6034E-03     32.8287E-03    -11.1638E-03     94.5064E-03
            1258     15.1230E-03     106.642E-03    -5.52987E+06     20.5091E+06     20.1818E+06    -16.8965E+06    -25.9556E-03     37.7782E-03    -11.8226E-03     112.592E-03    -26.2538E-03     38.0712E-03    -11.7434E-03     112.290E-03
            1259     15.9998E-03     106.758E-03    -6.29570E+06    -14.2110E+06    -8.29691E+06    -23.8021E+06    -30.6461E-03     43.0791E-03    -12.4330E-03     141.876E-03    -31.3316E-03     43.7161E-03    -12.4448E-03     141.522E-03
            1260     16.8745E-03     106.903E-03    -3.53446E+06     -8.4024E+06    -1.24036E+06    -16.0189E+06    -32.4491E-03     45.6948E-03    -13.2457E-03     121.936E-03    -33.3439E-03     46.5512E-03    -13.2346E-03     121.945E-03
            1261     891.341E-06     107.024E-03    -34.2067E+06    -27.9426E+06    -34.3793E+06    -3.64707E+06    -9.84608E-03     19.6853E-03    -9.83923E-03     3.14577E-03    -9.92673E-03     19.6451E-03    -9.92101E-03     3.09856E-03
            1262     1.78224E-03     107.028E-03    -34.1912E+06    -25.1738E+06    -33.4103E+06    -7.06763E+06    -9.86536E-03     19.7109E-03    -9.84549E-03     5.84047E-03    -9.95141E-03     19.6830E-03    -9.92646E-03     5.74899E-03
            1263     2.67359E-03     107.035E-03    -33.8858E+06    -24.7314E+06    -31.0735E+06    -10.5187E+06    -9.90557E-03     19.7720E-03    -9.86645E-03     8.73006E-03    -9.99417E-03     19.7426E-03    -9.93682E-03     8.59390E-03
            1264     3.56455E-03     107.044E-03    -33.5747E+06    -24.2083E+06    -28.5940E+06    -13.8315E+06    -9.95527E-03     19.8469E-03    -9.89165E-03     11.7323E-03    -10.0467E-03     19.8162E-03    -9.95084E-03     11.5532E-03
            1265     4.45576E-03     107.056E-03    -33.6073E+06    -23.7281E+06    -26.6972E+06    -16.5280E+06    -10.0029E-03     19.9187E-03    -9.91580E-03     14.9020E-03    -10.0980E-03     19.8877E-03    -9.96615E-03     14.6880E-03
            1266     5.34669E-03     107.072E-03    -34.1590E+06    -24.7779E+06    -26.1492E+06    -19.3891E+06    -10.0351E-03     19.9694E-03    -9.93427E-03     18.3129E-03    -10.1324E-03     19.9333E-03    -9.97956E-03     18.0617E-03
            1267     6.23789E-03     107.091E-03    -34.2311E+06    -24.1562E+06    -26.5507E+06    -21.9989E+06    -10.0435E-03     19.9831E-03    -9.93955E-03     22.0777E-03    -10.1417E-03     19.9509E-03    -9.98764E-03     21.7927E-03
            1268     7.12893E-03     107.113E-03    -29.4975E+06    -21.6941E+06    -23.7372E+06    -20.7848E+06    -10.0467E-03     19.9901E-03    -9.94347E-03     26.2949E-03    -10.1289E-03     19.9595E-03    -9.98793E-03     26.0255E-03
            1269     8.02018E-03     107.140E-03    -15.9831E+06    -11.7857E+06    -11.9320E+06    -13.2155E+06    -10.1124E-03     20.0750E-03    -9.96268E-03     31.1468E-03    -10.1587E-03     20.0574E-03    -9.98207E-03     30.9748E-03
            1270     8.91148E-03     107.172E-03     508.371E+03    -151.060E+03     8.40260E+06    -3.29949E+06    -10.3878E-03     20.4110E-03    -10.0232E-03     36.8911E-03    -10.3984E-03     20.3984E-03    -9.98168E-03     36.8469E-03
            1271     9.80236E-03     107.209E-03     10.6945E+06     7.21120E+06     25.1011E+06     1.88650E+06    -10.8909E-03     20.9933E-03    -10.1024E-03     43.8137E-03    -10.8861E-03     20.9792E-03    -10.0028E-03     43.8358E-03
            1272     10.6928E-03     107.253E-03     12.7056E+06     10.7176E+06     31.0630E+06     1.45223E+06    -11.6388E-03     21.8175E-03    -10.1786E-03     52.1563E-03    -11.6390E-03     21.8107E-03    -10.0573E-03     52.1716E-03
            1273     11.5827E-03     107.306E-03     12.2683E+06     7.24132E+06     32.9823E+06    -749.562E+03    -12.8690E-03     23.1655E-03    -10.2965E-03     62.2746E-03    -12.8726E-03     23.1427E-03    -10.1599E-03     62.2587E-03
            1274     12.4718E-03     107.368E-03     10.7650E+06     12.5259E+06     35.8700E+06    -3.19155E+06    -14.8467E-03     25.3270E-03    -10.4803E-03     75.7839E-03    -14.8793E-03     25.3383E-03    -10.3347E-03     75.7297E-03
            1275     13.3585E-03     107.445E-03     9.46584E+06     4.83574E+06     34.5697E+06    -3.71963E+06    -17.6778E-03     28.4429E-03    -10.7651E-03     88.5072E-03    -17.7239E-03     28.4396E-03    -10.6130E-03     88.4333E-03
            1276     14.2440E-03     107.531E-03     10.7282E+06     10.8093E+06     31.2666E+06    -1.98102E+06    -21.3917E-03     32.5481E-03    -11.1564E-03     97.0897E-03    -21.4731E-03     32.6155E-03    -11.0313E-03     97.0169E-03
            1277     15.1237E-03     107.623E-03     4.71845E+06     32.9808E+06     33.8702E+06    -4.95594E+06    -25.9267E-03     37.6445E-03    -11.7178E-03     115.977E-03    -26.1933E-03     37.9469E-03    -11.6031E-03     115.829E-03
            1278     16.0023E-03     107.745E-03    -8.37274E+06    -973.683E+03     4.39251E+06    -18.0127E+06    -30.1877E-03     42.5073E-03    -12.3195E-03     145.593E-03    -30.8417E-03     43.1154E-03    -12.2840E-03     145.292E-03
            1279     16.8797E-03     107.890E-03    -12.1591E+06    -21.4718E+06     1.46265E+06    -22.7422E+06    -32.2277E-03     45.3303E-03    -13.1026E-03     128.424E-03    -33.1081E-03     46.0874E-03    -13.0465E-03     128.299E-03
            1280     890.827E-06     107.991E-03    -18.8108E+06    -20.7272E+06    -18.8885E+06    -3.66296E+06    -10.1273E-03     20.2426E-03    -10.1153E-03     2.82430E-03    -10.1639E-03     20.1937E-03    -10.1524E-03     2.77682E-03
            1281     1.78209E-03     107.995E-03    -19.0866E+06    -17.9072E+06    -18.3975E+06    -6.54433E+06    -10.1547E-03     20.2802E-03    -10.1255E-03     5.23706E-03    -10.1975E-03     20.2450E-03    -10.1638E-03     5.15221E-03
            1282     2.67282E-03     108.002E-03    -19.5024E+06    -17.8013E+06    -16.4695E+06    -9.38439E+06    -10.2095E-03     20.3621E-03    -10.1526E-03     7.81543E-03    -10.2574E-03     20.3254E-03    -10.1809E-03     7.69372E-03
            1283     3.56387E-03     108.011E-03    -20.0679E+06    -17.4770E+06    -14.8822E+06    -12.0365E+06    -10.2728E-03     20.4561E-03    -10.1833E-03     10.4976E-03    -10.3264E-03     20.4196E-03    -10.2033E-03     10.3414E-03
            1284     4.45457E-03     108.023E-03    -20.5108E+06    -17.7292E+06    -13.7776E+06    -14.6176E+06    -10.3313E-03     20.5452E-03    -10.2138E-03     13.3289E-03    -10.3885E-03     20.5065E-03    -10.2273E-03     13.1392E-03
            1285     5.34552E-03     108.039E-03    -20.5372E+06    -18.0053E+06    -12.2774E+06    -17.2857E+06    -10.3809E-03     20.6252E-03    -10.2442E-03     16.3667E-03    -10.4401E-03     20.5831E-03    -10.2497E-03     16.1423E-03
            1286     6.23619E-03     108.058E-03    -21.0180E+06    -18.3318E+06    -11.1455E+06    -20.1030E+06    -10.4062E-03     20.6755E-03    -10.2694E-03     19.7247E-03    -10.4691E-03     20.6311E-03    -10.2680E-03     19.4637E-03
            1287     7.12708E-03     108.081E-03    -22.4168E+06    -19.1516E+06    -11.6228E+06    -23.1670E+06    -10.3832E-03     20.6637E-03    -10.2805E-03     23.5667E-03    -10.4515E-03     20.6181E-03    -10.2783E-03     23.2660E-03
            1288     8.01795E-03     108.107E-03    -21.9189E+06    -16.7059E+06    -13.1514E+06    -23.9710E+06    -10.3270E-03     20.5942E-03    -10.2671E-03     28.0831E-03    -10.3943E-03     20.5625E-03    -10.2769E-03     27.7719E-03
            1289     8.90907E-03     108.139E-03    -13.7401E+06    -9.54334E+06    -5.38081E+06    -18.3605E+06    -10.3411E-03     20.6134E-03    -10.2723E-03     33.4979E-03    -10.3894E-03     20.5946E-03    -10.2654E-03     33.2590E-03
            1290     9.80026E-03     108.177E-03     1.06804E+06     1.26951E+06     12.3552E+06    -9.10026E+06    -10.6066E-03     20.9215E-03    -10.3149E-03     40.1236E-03    -10.6226E-03     20.9099E-03    -10.2565E-03     40.0040E-03
            1291     10.6912E-03     108.222E-03     13.4336E+06     7.96588E+06     28.1074E+06    -924.330E+03    -11.3196E-03     21.7024E-03    -10.3828E-03     48.5689E-03    -11.3071E-03     21.6843E-03    -10.2733E-03     48.5542E-03
            1292     11.5811E-03     108.275E-03     17.5856E+06     10.2109E+06     37.7354E+06     996.727E+03    -12.6027E-03     23.0947E-03    -10.4919E-03     59.1801E-03    -12.5891E-03     23.0703E-03    -10.3436E-03     59.1881E-03
            1293     12.4701E-03     108.339E-03     17.9615E+06     12.6048E+06     42.4021E+06     787.836E+03    -14.6102E-03     25.2710E-03    -10.6608E-03     73.3048E-03    -14.6122E-03     25.2585E-03    -10.4931E-03     73.3046E-03
            1294     13.3578E-03     108.419E-03     18.1355E+06     7.98518E+06     43.2612E+06    -843.355E+03    -17.1613E-03     28.0799E-03    -10.9186E-03     86.8760E-03    -17.1728E-03     28.0587E-03    -10.7401E-03     86.8440E-03
            1295     14.2425E-03     108.507E-03     21.0162E+06     11.1447E+06     41.2196E+06    -4.54001E+06    -20.3588E-03     31.6207E-03    -11.2619E-03     97.5172E-03    -20.3890E-03     31.6457E-03    -11.1024E-03     97.4190E-03
            1296     15.1260E-03     108.606E-03     24.8303E+06     25.6030E+06     46.8213E+06     6.30760E+06    -24.5153E-03     36.2682E-03    -11.7530E-03     116.970E-03    -24.6539E-03     36.4503E-03    -11.5920E-03     116.978E-03
            1297     16.0056E-03     108.728E-03     16.4127E+06     29.1900E+06     31.8522E+06     3.89203E+06    -28.6449E-03     40.9203E-03    -12.2754E-03     145.791E-03    -29.1349E-03     41.4799E-03    -12.1822E-03     145.759E-03
            1298     16.8828E-03     108.878E-03     3.96036E+06    -15.5037E+06     24.4190E+06    -17.6758E+06    -32.0606E-03     45.0892E-03    -13.0286E-03     133.121E-03    -32.8254E-03     45.7428E-03    -12.8898E-03     133.000E-03
            1299     890.643E-06     108.959E-03    -6.74569E+06    -13.8266E+06    -6.67075E+06    -3.47787E+06    -10.7739E-03     21.5254E-03    -10.7516E-03     2.42234E-03    -10.7779E-03     21.4758E-03    -10.7551E-03     2.37717E-03
            1300     1.78081E-03     108.963E-03    -7.26180E+06    -11.9906E+06    -6.02646E+06    -5.53851E+06    -10.8132E-03     21.5876E-03    -10.7744E-03     4.47225E-03    -10.8234E-03     21.5469E-03    -10.7766E-03     4.40023E-03
            1301     2.67140E-03     108.970E-03    -7.82559E+06    -11.8275E+06    -4.99268E+06    -7.71335E+06    -10.8813E-03     21.6865E-03    -10.8053E-03     6.66844E-03    -10.8961E-03     21.6460E-03    -10.8017E-03     6.56807E-03
            1302     3.56156E-03     108.979E-03    -8.28967E+06    -11.8835E+06    -3.73146E+06    -10.0269E+06    -10.9612E-03     21.8044E-03    -10.8433E-03     8.93982E-03    -10.9802E-03     21.7626E-03    -10.8327E-03     8.80928E-03
            1303     4.45196E-03     108.992E-03    -8.84483E+06    -11.8210E+06    -2.22957E+06    -12.4801E+06    -11.0463E-03     21.9324E-03    -10.8861E-03     11.3286E-03    -11.0705E-03     21.8896E-03    -10.8673E-03     11.1661E-03
            1304     5.34201E-03     109.007E-03    -9.89643E+06    -12.4244E+06    -1.15549E+06    -14.8993E+06    -11.1253E-03     22.0552E-03    -10.9299E-03     13.8966E-03    -11.1556E-03     22.0095E-03    -10.9033E-03     13.7025E-03
            1305     6.23227E-03     109.027E-03    -11.0638E+06    -12.4310E+06    -303.227E+03    -17.1653E+06    -11.1796E-03     22.1497E-03    -10.9702E-03     16.7342E-03    -11.2171E-03     22.1047E-03    -10.9376E-03     16.5105E-03
            1306     7.12232E-03     109.048E-03    -12.2371E+06    -13.0413E+06     603.087E+03    -19.6417E+06    -11.2058E-03     22.2123E-03    -11.0065E-03     19.9728E-03    -11.2499E-03     22.1648E-03    -10.9669E-03     19.7168E-03
            1307     8.01253E-03     109.076E-03    -14.2535E+06    -13.2064E+06     862.305E+03    -22.2141E+06    -11.1747E-03     22.2061E-03    -11.0314E-03     23.8563E-03    -11.2294E-03     22.1606E-03    -10.9872E-03     23.5669E-03
            1308     8.90269E-03     109.107E-03    -16.5365E+06    -12.7091E+06    -741.239E+03    -23.5526E+06    -11.0639E-03     22.0958E-03    -11.0319E-03     28.6420E-03    -11.1285E-03     22.0587E-03    -10.9932E-03     28.3353E-03
            1309     9.79327E-03     109.145E-03    -14.7731E+06    -6.38315E+06     2.50384E+06    -20.1212E+06    -11.0136E-03     22.0419E-03    -11.0283E-03     34.6316E-03    -11.0836E-03     22.0294E-03    -10.9851E-03     34.3693E-03
            1310     10.6840E-03     109.189E-03    -4.70605E+06    -201.439E+03     16.5838E+06    -13.0423E+06    -11.3480E-03     22.4174E-03    -11.0693E-03     42.5115E-03    -11.3974E-03     22.4011E-03    -10.9793E-03     42.3403E-03
            1311     11.5745E-03     109.244E-03     9.68196E+06     7.31784E+06     35.0189E+06    -5.04041E+06    -12.4048E-03     23.5647E-03    -11.1599E-03     53.0851E-03    -12.4211E-03     23.5398E-03    -11.0095E-03     53.0162E-03
            1312     12.4634E-03     109.309E-03     18.9829E+06     9.46742E+06     45.3266E+06     161.904E+03    -14.2183E-03     25.5135E-03    -11.2952E-03     67.4842E-03    -14.2104E-03     25.4752E-03    -11.1098E-03     67.4790E-03
            1313     13.3507E-03     109.391E-03     22.0106E+06     11.5782E+06     49.3787E+06     653.457E+03    -16.3057E-03     27.7968E-03    -11.4911E-03     81.5291E-03    -16.3017E-03     27.7689E-03    -11.2929E-03     81.5225E-03
            1314     14.2376E-03     109.482E-03     19.9259E+06     17.0987E+06     49.9641E+06    -3.73654E+06    -18.7897E-03     30.5493E-03    -11.7596E-03     93.1902E-03    -18.8277E-03     30.5739E-03    -11.5635E-03     93.1127E-03
            1315     15.1212E-03     109.584E-03     25.6033E+06     5.00799E+06     49.2513E+06    -1.74874E+06    -22.1716E-03     34.3011E-03    -12.1295E-03     112.754E-03    -22.2324E-03     34.3279E-03    -11.9276E-03     112.674E-03
            1316     16.0031E-03     109.711E-03     43.1633E+06     40.2527E+06     48.1438E+06     8.54459E+06    -25.5831E-03     38.0633E-03    -12.4802E-03     141.727E-03    -25.8346E-03     38.4714E-03    -12.3604E-03     141.761E-03
            1317     16.8841E-03     109.862E-03     37.5490E+06     2.72809E+06     26.2656E+06     8.39259E+06    -31.4079E-03     44.4320E-03    -13.0241E-03     137.533E-03    -31.9410E-03     45.0329E-03    -12.9512E-03     137.685E-03
            1318     889.382E-06     109.928E-03     1.61385E+06    -8.04275E+06     2.40902E+06    -2.77604E+06    -11.8672E-03     23.7091E-03    -11.8418E-03     1.92879E-03    -11.8510E-03     23.6630E-03    -11.8205E-03     1.89259E-03
            1319     1.77916E-03     109.933E-03     1.28944E+06    -7.23057E+06     2.65461E+06    -4.33063E+06    -11.9215E-03     23.7938E-03    -11.8723E-03     3.55954E-03    -11.9086E-03     23.7519E-03    -11.8504E-03     3.50296E-03
            1320     2.66840E-03     109.939E-03     822.975E+03    -7.12378E+06     3.49112E+06    -6.07488E+06    -12.0097E-03     23.9208E-03    -11.9111E-03     5.28420E-03    -12.0005E-03     23.8789E-03    -11.8845E-03     5.20475E-03
            1321     3.55790E-03     109.950E-03      79.352E+03    -6.92767E+06     4.74155E+06    -8.00530E+06    -12.1153E-03     24.0761E-03    -11.9608E-03     7.05999E-03    -12.1120E-03     24.0346E-03    -11.9272E-03     6.95524E-03
            1322     4.44700E-03     109.962E-03    -1.05781E+06    -7.20624E+06     5.84352E+06    -9.76843E+06    -12.2354E-03     24.2535E-03    -12.0180E-03     8.93320E-03    -12.2391E-03     24.2107E-03    -11.9768E-03     8.80528E-03
            1323     5.33624E-03     109.978E-03    -2.41716E+06    -7.34241E+06     6.77822E+06    -11.6767E+06    -12.3648E-03     24.4450E-03    -12.0802E-03     10.9481E-03    -12.3766E-03     24.4023E-03    -12.0321E-03     10.7951E-03
            1324     6.22515E-03     109.996E-03    -4.06595E+06    -7.86406E+06     7.72939E+06    -13.6690E+06    -12.5023E-03     24.6503E-03    -12.1480E-03     13.1602E-03    -12.5232E-03     24.6062E-03    -12.0920E-03     12.9810E-03
            1325     7.11412E-03     110.019E-03    -6.32666E+06    -7.93674E+06     8.70617E+06    -15.4588E+06    -12.6321E-03     24.8513E-03    -12.2193E-03     15.6794E-03    -12.6658E-03     24.8090E-03    -12.1550E-03     15.4766E-03
            1326     8.00285E-03     110.045E-03    -8.88734E+06    -8.49276E+06     9.31402E+06    -17.2237E+06    -12.7235E-03     25.0130E-03    -12.2895E-03     18.6698E-03    -12.7704E-03     24.9709E-03    -12.2177E-03     18.4438E-03
            1327     8.89177E-03     110.077E-03    -11.2555E+06    -8.74845E+06     9.61494E+06    -19.1311E+06    -12.7683E-03     25.1209E-03    -12.3526E-03     22.3637E-03    -12.8276E-03     25.0809E-03    -12.2755E-03     22.1127E-03
            1328     9.78055E-03     110.114E-03    -13.0943E+06    -8.36058E+06     10.4661E+06    -20.2373E+06    -12.7780E-03     25.1866E-03    -12.4087E-03     27.1341E-03    -12.8486E-03     25.1503E-03    -12.3252E-03     26.8686E-03
            1329     10.6696E-03     110.159E-03    -13.7048E+06    -3.95115E+06     15.7618E+06    -19.4794E+06    -12.8369E-03     25.3091E-03    -12.4722E-03     33.6256E-03    -12.9251E-03     25.2884E-03    -12.3678E-03     33.3698E-03
            1330     11.5585E-03     110.213E-03     -9.3446E+06    -296.757E+03     24.8738E+06    -16.1504E+06    -13.2166E-03     25.7689E-03    -12.5523E-03     42.8765E-03    -13.3020E-03     25.7475E-03    -12.4140E-03     42.6635E-03
            1331     12.4475E-03     110.281E-03     2.04616E+06     3.10079E+06     37.3223E+06    -8.97541E+06    -14.0490E-03     26.7083E-03    -12.6593E-03     55.9991E-03    -14.1018E-03     26.6708E-03    -12.4801E-03     55.8780E-03
            1332     13.3357E-03     110.362E-03     13.1285E+06     9.61367E+06     49.6873E+06    -3.13644E+06    -15.1900E-03     27.9826E-03    -12.7926E-03     69.6275E-03    -15.2190E-03     27.9484E-03    -12.5772E-03     69.5782E-03
            1333     14.2220E-03     110.456E-03     15.9417E+06     17.3190E+06     53.3968E+06     2.38442E+06    -16.9488E-03     29.8905E-03    -12.9417E-03     82.0676E-03    -16.9931E-03     29.8982E-03    -12.7229E-03     82.0802E-03
            1334     15.1076E-03     110.560E-03     9.17885E+06     11.7827E+06     44.2722E+06    -5.13212E+06    -19.2852E-03     32.4065E-03    -13.1213E-03     101.327E-03    -19.3840E-03     32.4515E-03    -12.9303E-03     101.223E-03
            1335     15.9927E-03     110.687E-03     3.74304E+06     19.9608E+06     27.9432E+06    -5.93308E+06    -21.9823E-03     35.2744E-03    -13.2921E-03     128.775E-03    -22.2332E-03     35.5284E-03    -13.1868E-03     128.640E-03
            1336     16.8783E-03     110.841E-03    -8.25591E+06    -1.85876E+06    -9.28195E+06     15.4375E+06    -26.3816E-03     39.9026E-03    -13.5210E-03     135.295E-03    -26.8920E-03     40.4052E-03    -13.5527E-03     135.509E-03
            1337     888.291E-06     110.901E-03     6.13118E+06    -3.85983E+06     6.92226E+06    -1.49243E+06    -13.5321E-03     26.9747E-03    -13.4425E-03     1.39074E-03    -13.5060E-03     26.9363E-03    -13.4112E-03     1.37109E-03
            1338     1.77611E-03     110.905E-03     5.56465E+06    -3.60559E+06     7.10364E+06    -2.98313E+06    -13.5911E-03     27.1063E-03    -13.5152E-03     2.44349E-03    -13.5685E-03     27.0698E-03    -13.4826E-03     2.40422E-03
            1339     2.66427E-03     110.912E-03     4.81337E+06    -3.40087E+06     7.89885E+06    -4.32686E+06    -13.6934E-03     27.2627E-03    -13.5693E-03     3.57686E-03    -13.6761E-03     27.2272E-03    -13.5319E-03     3.51985E-03
            1340     3.55198E-03     110.922E-03     3.76931E+06    -3.48057E+06     8.74750E+06    -5.46610E+06    -13.8262E-03     27.4588E-03    -13.6326E-03     4.76955E-03    -13.8153E-03     27.4232E-03    -13.5893E-03     4.69740E-03
            1341     4.43982E-03     110.935E-03     2.53647E+06    -3.46731E+06     10.0076E+06    -6.81453E+06    -14.0006E-03     27.7102E-03    -13.7096E-03     6.03829E-03    -13.9978E-03     27.6747E-03    -13.6582E-03     5.94828E-03
            1342     5.32725E-03     110.950E-03     1.12813E+06    -3.74252E+06     11.8535E+06    -8.15206E+06    -14.2296E-03     28.0344E-03    -13.8048E-03     7.39825E-03    -14.2363E-03     27.9970E-03    -13.7417E-03     7.29045E-03
            1343     6.21463E-03     110.970E-03    -702.415E+03    -4.00582E+06     13.6304E+06    -9.45202E+06    -14.5212E-03     28.4391E-03    -13.9179E-03     8.87683E-03    -14.5394E-03     28.4006E-03    -13.8429E-03     8.75166E-03
            1344     7.10156E-03     110.992E-03    -2.51062E+06    -4.42430E+06     15.1775E+06    -10.8290E+06    -14.8705E-03     28.9201E-03    -14.0495E-03     10.5088E-03    -14.8996E-03     28.8800E-03    -13.9636E-03     10.3652E-03
            1345     7.98834E-03     111.019E-03    -4.20542E+06    -4.43374E+06     17.3864E+06    -12.3519E+06    -15.2744E-03     29.4786E-03    -14.2041E-03     12.3646E-03    -15.3155E-03     29.4379E-03    -14.1047E-03     12.2005E-03
            1346     8.87453E-03     111.050E-03    -6.26260E+06    -4.94117E+06     19.3031E+06    -13.9222E+06    -15.7020E-03     30.0802E-03    -14.3782E-03     14.6310E-03    -15.7558E-03     30.0374E-03    -14.2654E-03     14.4457E-03
            1347     9.76050E-03     111.088E-03    -8.27817E+06    -5.02736E+06     20.9778E+06    -15.6191E+06    -16.1068E-03     30.6732E-03    -14.5663E-03     17.6761E-03    -16.1735E-03     30.6308E-03    -14.4421E-03     17.4680E-03
            1348     10.6460E-03     111.132E-03    -9.98073E+06    -4.11644E+06     21.9882E+06    -15.8589E+06    -16.4601E-03     31.2197E-03    -14.7596E-03     22.0136E-03    -16.5388E-03     31.1833E-03    -14.6292E-03     21.8016E-03
            1349     11.5315E-03     111.187E-03    -13.2175E+06    -1.19172E+06     22.7477E+06    -15.7014E+06    -16.6660E-03     31.6187E-03    -14.9527E-03     28.2918E-03    -16.7669E-03     31.6009E-03    -14.8181E-03     28.0814E-03
            1350     12.4170E-03     111.252E-03    -14.4802E+06    -1.90793E+06     25.9884E+06    -16.2825E+06    -16.1999E-03     31.3323E-03    -15.1324E-03     37.1802E-03    -16.3111E-03     31.3084E-03    -14.9787E-03     36.9629E-03
            1351     13.3037E-03     111.335E-03    -10.2439E+06     351.091E+03     33.8631E+06    -9.75889E+06    -15.0117E-03     30.2595E-03    -15.2478E-03     47.6900E-03    -15.1170E-03     30.2304E-03    -15.0641E-03     47.5575E-03
            1352     14.1916E-03     111.428E-03    -4.17144E+06     8.94531E+06     37.5645E+06     77.4555E+03    -14.4011E-03     29.6527E-03    -15.2516E-03     60.0555E-03    -14.4973E-03     29.6570E-03    -15.0707E-03     60.0476E-03
            1353     15.0781E-03     111.535E-03    -1.61799E+06     25.8007E+06     40.0309E+06     3.00703E+06    -15.8395E-03     31.0737E-03    -15.2341E-03     79.4079E-03    -15.9689E-03     31.1732E-03    -15.0690E-03     79.4265E-03
            1354     15.9635E-03     111.660E-03    -15.7710E+06     9.46594E+06     24.8472E+06     6.61877E+06    -18.3219E-03     33.5740E-03    -15.2521E-03     106.701E-03    -18.5421E-03     33.7005E-03    -15.1187E-03     106.746E-03
            1355     16.8442E-03     111.816E-03    -22.9645E+06    -15.6580E+06    -6.13489E+06     8.99096E+06    -12.9528E-03     28.0075E-03    -15.0547E-03     119.188E-03    -13.2400E-03     28.1787E-03    -15.0293E-03     119.312E-03
            1356     886.025E-06     111.876E-03     8.85910E+06    -1.46354E+06     8.95772E+06    -827.472E+03    -15.8319E-03     31.7077E-03    -15.8758E-03     485.826E-06    -15.7988E-03     31.6743E-03    -15.8417E-03     474.863E-06
            1357     1.77225E-03     111.882E-03     8.30269E+06    -1.07957E+06     9.98377E+06    -1.57183E+06    -15.9475E-03     31.8322E-03    -15.8847E-03     899.365E-06    -15.9193E-03     31.8000E-03    -15.8452E-03     878.468E-06
            1358     2.65797E-03     111.888E-03     7.57295E+06    -1.22609E+06     10.8667E+06    -2.18733E+06    -16.0663E-03     32.0087E-03    -15.9424E-03     1.35104E-03    -16.0428E-03     31.9756E-03    -15.8973E-03     1.32188E-03
            1359     3.54388E-03     111.899E-03     6.62146E+06    -1.19104E+06     12.2304E+06    -2.88194E+06    -16.2560E-03     32.2773E-03    -16.0213E-03     1.83313E-03    -16.2393E-03     32.2437E-03    -15.9680E-03     1.79466E-03
            1360     4.42933E-03     111.911E-03     5.46355E+06    -1.13007E+06     14.4695E+06    -3.53524E+06    -16.5394E-03     32.6704E-03    -16.1310E-03     2.33760E-03    -16.5319E-03     32.6356E-03    -16.0649E-03     2.29031E-03
            1361     5.31466E-03     111.928E-03     3.99721E+06    -1.28564E+06     16.9663E+06    -4.29224E+06    -16.9419E-03     33.2174E-03    -16.2756E-03     2.85849E-03    -16.9451E-03     33.1803E-03    -16.1947E-03     2.80098E-03
            1362     6.19939E-03     111.947E-03     2.52992E+06    -1.69831E+06     19.7119E+06    -4.99604E+06    -17.4914E-03     33.9529E-03    -16.4615E-03     3.38676E-03    -17.5056E-03     33.9119E-03    -16.3641E-03     3.31961E-03
            1363     7.08368E-03     111.971E-03     805.404E+03    -1.39225E+06     22.8086E+06    -6.08096E+06    -18.2151E-03     34.9110E-03    -16.6958E-03     3.90552E-03    -18.2430E-03     34.8695E-03    -16.5809E-03     3.82367E-03
            1364     7.96702E-03     111.997E-03    -1.46187E+06    -2.06147E+06     25.3191E+06    -6.92276E+06    -19.1088E-03     36.0919E-03    -16.9831E-03     4.43963E-03    -19.1508E-03     36.0468E-03    -16.8514E-03     4.34601E-03
            1365     8.84957E-03     112.031E-03    -4.02493E+06    -1.56695E+06     27.6516E+06    -7.97115E+06    -20.1365E-03     37.4614E-03    -17.3249E-03     5.08043E-03    -20.1958E-03     37.4191E-03    -17.1785E-03     4.97214E-03
            1366     9.73095E-03     112.068E-03    -7.55465E+06    -2.33169E+06     27.3203E+06    -8.95370E+06    -21.3036E-03     39.0185E-03    -17.7149E-03     6.01563E-03    -21.3794E-03     38.9778E-03    -17.5639E-03     5.89328E-03
            1367     10.6114E-03     112.114E-03    -11.4444E+06    -2.47335E+06     25.5710E+06    -9.91069E+06    -22.5050E-03     40.6597E-03    -18.1548E-03     7.47125E-03    -22.5981E-03     40.6266E-03    -18.0067E-03     7.33504E-03
            1368     11.4902E-03     112.167E-03    -13.8956E+06    -1.32890E+06     24.7367E+06    -9.09955E+06    -23.0837E-03     41.7084E-03    -18.6247E-03     9.82888E-03    -23.1902E-03     41.6858E-03    -18.4790E-03     9.70201E-03
            1369     12.3683E-03     112.233E-03    -18.8823E+06     1.99139E+06     22.6521E+06    -9.66261E+06    -21.8359E-03     40.8676E-03    -19.0317E-03     13.4943E-03    -21.9695E-03     40.8720E-03    -18.8940E-03     13.3605E-03
            1370     13.2483E-03     112.309E-03    -26.4748E+06    -7.05800E+06     15.5007E+06    -8.85731E+06    -18.4779E-03     37.7385E-03    -19.2606E-03     18.8298E-03    -18.6260E-03     37.7189E-03    -19.1344E-03     18.7083E-03
            1371     14.1330E-03     112.400E-03    -25.4245E+06     1.74658E+06     16.8071E+06    -7.13634E+06    -15.3109E-03     34.6001E-03    -19.2892E-03     26.7059E-03    -15.4690E-03     34.6212E-03    -19.1708E-03     26.6081E-03
            1372     15.0224E-03     112.503E-03    -19.1293E+06     14.4483E+06     28.2491E+06     1.78184E+06    -15.4504E-03     34.7386E-03    -19.2882E-03     39.9896E-03    -15.6169E-03     34.8015E-03    -19.1401E-03     40.0032E-03
            1373     15.9084E-03     112.635E-03    -7.54214E+06     5.19352E+06     33.4632E+06     13.4237E+06    -11.0919E-03     30.2664E-03    -19.1744E-03     57.0629E-03    -11.2108E-03     30.2799E-03    -19.0037E-03     57.2195E-03
            1374     16.8014E-03     112.781E-03     7.01384E+06    -1.84334E+06     20.9580E+06     7.31971E+06     2.05163E-03     16.4527E-03    -18.5043E-03     59.0428E-03     2.02659E-03     16.4337E-03    -18.4071E-03     59.1351E-03
            1375     16.8501E-03     56.0466E-03    -2.28651E+06     130.169E+06     22.6656E+06     29.6097E+03    -16.5425E-03     31.1859E-03    -14.6434E-03     102.875E-03    -17.6183E-03     32.6500E-03    -14.7155E-03     103.490E-03
            1376     15.9633E-03     55.9139E-03    -2.32679E+06     73.8414E+06    -20.0996E+06     11.7542E+03    -17.5165E-03     32.0398E-03    -14.5233E-03     119.417E-03    -18.3272E-03     33.1627E-03    -14.7275E-03     119.640E-03
            1377     15.0760E-03     55.8231E-03    -1.58989E+06     26.4361E+06    -7.60030E+06     64.4465E+03    -16.1555E-03     30.8221E-03    -14.6666E-03     84.3046E-03    -16.3787E-03     31.1556E-03    -14.7406E-03     84.2896E-03
            1378     14.1892E-03     55.7583E-03    -1.01139E+06    -8.34803E+06    -5.09796E+06    -82.0748E+03    -15.7944E-03     30.5314E-03    -14.7370E-03     66.5015E-03    -15.8551E-03     30.5737E-03    -14.7489E-03     66.4658E-03
            1379     13.3020E-03     55.6993E-03    -971.862E+03    -28.6093E+06    -4.34573E+06    -510.266E+03    -15.7391E-03     30.5095E-03    -14.7704E-03     61.2944E-03    -15.7418E-03     30.4198E-03    -14.7492E-03     61.2556E-03
            1380     12.4158E-03     55.6441E-03    -1.90324E+06    -32.7112E+06     4.11311E+06    -678.613E+03    -15.5398E-03     30.3594E-03    -14.8197E-03     55.5967E-03    -15.5347E-03     30.2196E-03    -14.7489E-03     55.5628E-03
            1381     11.5286E-03     55.5964E-03    -3.06254E+06    -42.3873E+06     3.43844E+06    -455.185E+03    -15.3474E-03     30.1813E-03    -14.8339E-03     48.4613E-03    -15.3219E-03     29.9844E-03    -14.7508E-03     48.4365E-03
            1382     10.6419E-03     55.5540E-03    -3.54343E+06    -49.7197E+06     5.14722E+06     20.2227E+03    -15.2421E-03     30.0988E-03    -14.8566E-03     43.4900E-03    -15.2049E-03     29.8575E-03    -14.7537E-03     43.4761E-03
            1383     9.75491E-03     55.5157E-03    -3.85733E+06    -48.7202E+06     7.68929E+06     312.948E+03    -15.1571E-03     30.0282E-03    -14.8712E-03     39.0822E-03    -15.1231E-03     29.7853E-03    -14.7565E-03     39.0756E-03
            1384     8.86821E-03     55.4814E-03    -4.62740E+06    -51.5360E+06     7.19319E+06     11.6897E+03    -15.0813E-03     29.9578E-03    -14.8765E-03     34.7202E-03    -15.0442E-03     29.7004E-03    -14.7591E-03     34.7122E-03
            1385     7.98125E-03     55.4513E-03    -5.92222E+06    -54.6381E+06     6.82186E+06    -90.5945E+03    -15.0203E-03     29.9037E-03    -14.8834E-03     30.4992E-03    -14.9833E-03     29.6319E-03    -14.7614E-03     30.4918E-03
            1386     7.09453E-03     55.4248E-03    -7.47340E+06    -56.2887E+06     5.38535E+06    -23.2758E+03    -14.9590E-03     29.8421E-03    -14.8832E-03     26.4635E-03    -14.9243E-03     29.5655E-03    -14.7638E-03     26.4583E-03
            1387     6.20761E-03     55.4021E-03    -9.12042E+06    -57.9709E+06     3.67174E+06    -20.7197E+03    -14.9110E-03     29.7932E-03    -14.8822E-03     22.6357E-03    -14.8791E-03     29.5124E-03    -14.7665E-03     22.6316E-03
            1388     5.32086E-03     55.3827E-03    -10.9070E+06    -59.1851E+06     1.00553E+06     24.4525E+03    -14.8715E-03     29.7479E-03    -14.8764E-03     19.0241E-03    -14.8424E-03     29.4671E-03    -14.7698E-03     19.0214E-03
            1389     4.43398E-03     55.3668E-03    -13.0119E+06    -61.1845E+06    -2.80189E+06    -24.1789E+03    -14.8431E-03     29.7103E-03    -14.8672E-03     15.6016E-03    -14.8159E-03     29.4279E-03    -14.7736E-03     15.5989E-03
            1390     3.54721E-03     55.3538E-03    -15.0788E+06    -63.0825E+06    -7.26201E+06    -59.1481E+03    -14.8275E-03     29.6823E-03    -14.8548E-03     12.3368E-03    -14.8012E-03     29.3996E-03    -14.7778E-03     12.3342E-03
            1391     2.66037E-03     55.3439E-03    -16.8947E+06    -65.1835E+06    -11.9459E+06    -83.3702E+03    -14.8200E-03     29.6610E-03    -14.8410E-03     9.19643E-03    -14.7928E-03     29.3771E-03    -14.7817E-03     9.19403E-03
            1392     1.77359E-03     55.3367E-03    -18.3621E+06    -67.2571E+06    -15.9775E+06    -34.3175E+03    -14.8155E-03     29.6458E-03    -14.8303E-03     6.16138E-03    -14.7867E-03     29.3594E-03    -14.7861E-03     6.16007E-03
            1393     886.772E-06     55.3324E-03    -19.2657E+06    -68.9146E+06    -18.6987E+06    -30.3835E+03    -14.8193E-03     29.6453E-03    -14.8260E-03     3.31136E-03    -14.7886E-03     29.3558E-03    -14.7917E-03     3.31051E-03
            1394     16.8500E-03     55.0681E-03    -2.62836E+06     130.413E+06     22.5237E+06    -200.682E+03    -16.5389E-03     31.1827E-03    -14.6438E-03     103.142E-03    -17.6176E-03     32.6497E-03    -14.7165E-03     103.756E-03
            1395     15.9636E-03     54.9385E-03    -2.13171E+06     73.6614E+06    -20.1040E+06    -239.198E+03    -17.5643E-03     32.0866E-03    -14.5223E-03     119.274E-03    -18.3701E-03     33.2046E-03    -14.7266E-03     119.492E-03
            1396     15.0758E-03     54.8468E-03    -1.15267E+06     26.4056E+06    -7.23013E+06    -142.169E+03    -16.2581E-03     30.9204E-03    -14.6623E-03     84.3318E-03    -16.4801E-03     31.2530E-03    -14.7350E-03     84.3135E-03
            1397     14.1893E-03     54.7808E-03    -802.188E+03    -7.90605E+06    -4.82132E+06    -264.243E+03    -15.7790E-03     30.5078E-03    -14.7289E-03     66.3031E-03    -15.8393E-03     30.5512E-03    -14.7403E-03     66.2651E-03
            1398     13.3029E-03     54.7235E-03    -530.465E+03    -28.9558E+06    -4.26570E+06     89.4308E+03    -15.6780E-03     30.4421E-03    -14.7642E-03     61.4708E-03    -15.6781E-03     30.3499E-03    -14.7427E-03     61.4400E-03
            1399     12.4152E-03     54.6671E-03    -1.39520E+06    -32.8830E+06     4.89186E+06     444.027E+03    -15.5226E-03     30.3418E-03    -14.8192E-03     55.5943E-03    -15.5159E-03     30.1992E-03    -14.7451E-03     55.5750E-03
            1400     11.5289E-03     54.6200E-03    -2.85797E+06    -42.1264E+06     4.15887E+06     153.723E+03    -15.3350E-03     30.1689E-03    -14.8339E-03     48.4569E-03    -15.3098E-03     29.9720E-03    -14.7479E-03     48.4400E-03
            1401     10.6417E-03     54.5775E-03    -3.64237E+06    -49.9554E+06     5.14371E+06    -448.326E+03    -15.2573E-03     30.1112E-03    -14.8538E-03     43.5514E-03    -15.2203E-03     29.8689E-03    -14.7504E-03     43.5314E-03
            1402     9.75512E-03     54.5391E-03    -4.06198E+06    -48.9006E+06     7.59961E+06    -416.737E+03    -15.1573E-03     30.0243E-03    -14.8670E-03     39.0664E-03    -15.1240E-03     29.7809E-03    -14.7522E-03     39.0503E-03
            1403     8.86811E-03     54.5050E-03    -4.81502E+06    -51.3649E+06     7.12615E+06     -98.607E+03    -15.0836E-03     29.9548E-03    -14.8712E-03     34.7322E-03    -15.0475E-03     29.6987E-03    -14.7541E-03     34.7228E-03
            1404     7.98142E-03     54.4746E-03    -6.05078E+06    -54.7875E+06     6.74316E+06    -55.8094E+03    -15.0192E-03     29.8969E-03    -14.8778E-03     30.4864E-03    -14.9824E-03     29.6246E-03    -14.7558E-03     30.4794E-03
            1405     7.09448E-03     54.4483E-03    -7.55506E+06    -56.2387E+06     5.33063E+06    -41.3762E+03    -14.9540E-03     29.8310E-03    -14.8769E-03     26.4540E-03    -14.9197E-03     29.5548E-03    -14.7578E-03     26.4486E-03
            1406     6.20773E-03     54.4255E-03    -9.22483E+06    -57.9625E+06     3.43072E+06    -129.250E+03    -14.9037E-03     29.7788E-03    -14.8751E-03     22.6309E-03    -14.8720E-03     29.4986E-03    -14.7605E-03     22.6254E-03
            1407     5.32083E-03     54.4063E-03    -11.0811E+06    -59.3505E+06     939.974E+03    -56.6330E+03    -14.8648E-03     29.7354E-03    -14.8706E-03     19.0162E-03    -14.8362E-03     29.4541E-03    -14.7638E-03     19.0124E-03
            1408     4.43405E-03     54.3902E-03    -13.0103E+06    -61.0813E+06    -2.69276E+06     44.7982E+03    -14.8379E-03     29.6995E-03    -14.8616E-03     15.5947E-03    -14.8110E-03     29.4173E-03    -14.7676E-03     15.5929E-03
            1409     3.54720E-03     54.3773E-03    -15.0188E+06    -63.0700E+06    -7.25682E+06    -47.5226E+03    -14.8210E-03     29.6697E-03    -14.8487E-03     12.3321E-03    -14.7945E-03     29.3870E-03    -14.7717E-03     12.3297E-03
            1410     2.66041E-03     54.3673E-03    -16.8590E+06    -65.2537E+06    -11.9432E+06    -17.8624E+03    -14.8135E-03     29.6488E-03    -14.8353E-03     9.19209E-03    -14.7861E-03     29.3645E-03    -14.7759E-03     9.19053E-03
            1411     1.77358E-03     54.3602E-03    -18.3348E+06    -67.2891E+06    -15.9422E+06     8.03453E+03    -14.8105E-03     29.6351E-03    -14.8246E-03     6.15460E-03    -14.7815E-03     29.3484E-03    -14.7802E-03     6.15384E-03
            1412     886.796E-06     54.3558E-03    -19.2979E+06    -68.9329E+06    -18.6462E+06     14.2387E+03    -14.8185E-03     29.6334E-03    -14.8148E-03     3.33052E-03    -14.7880E-03     29.3438E-03    -14.7801E-03     3.33025E-03
            1413     16.8502E-03     54.0911E-03    -2.47865E+06     130.494E+06     22.6171E+06    -138.409E+03    -16.4720E-03     31.1120E-03    -14.6401E-03     102.762E-03    -17.5453E-03     32.5742E-03    -14.7126E-03     103.377E-03
            1414     15.9624E-03     53.9622E-03    -2.92195E+06     73.4418E+06    -20.3912E+06    -546.092E+03    -17.6064E-03     32.1234E-03    -14.5170E-03     118.769E-03    -18.4103E-03     33.2368E-03    -14.7213E-03     118.983E-03
            1415     15.0770E-03     53.8692E-03    -2.38431E+06     26.6002E+06    -7.67483E+06    -339.691E+03    -16.2735E-03     30.9266E-03    -14.6531E-03     84.4241E-03    -16.5019E-03     31.2633E-03    -14.7266E-03     84.4030E-03
            1416     14.1896E-03     53.8055E-03    -1.96995E+06    -7.80896E+06    -5.05973E+06    -177.761E+03    -15.6376E-03     30.3620E-03    -14.7244E-03     66.5669E-03    -15.7035E-03     30.4078E-03    -14.7355E-03     66.5306E-03
            1417     13.3017E-03     53.7461E-03    -1.93385E+06    -29.9652E+06    -4.80571E+06     98.1758E+03    -15.6793E-03     30.4437E-03    -14.7644E-03     61.5877E-03    -15.6844E-03     30.3495E-03    -14.7422E-03     61.5570E-03
            1418     12.4162E-03     53.6910E-03    -1.50344E+06    -33.1479E+06     5.10696E+06     528.347E+03    -15.5233E-03     30.3434E-03    -14.8201E-03     55.5807E-03    -15.5170E-03     30.1993E-03    -14.7443E-03     55.5625E-03
            1419     11.5284E-03     53.6434E-03    -1.37165E+06    -40.8591E+06     5.48012E+06     285.265E+03    -15.3692E-03     30.2036E-03    -14.8344E-03     48.4509E-03    -15.3404E-03     30.0090E-03    -14.7458E-03     48.4356E-03
            1420     10.6421E-03     53.6008E-03    -2.29892E+06    -49.5866E+06     5.64272E+06     -255.97E+03    -15.2647E-03     30.1149E-03    -14.8502E-03     43.5056E-03    -15.2222E-03     29.8718E-03    -14.7468E-03     43.4880E-03
            1421     9.75496E-03     53.5627E-03    -3.61281E+06    -49.4422E+06     7.50933E+06    -444.526E+03    -15.1595E-03     30.0222E-03    -14.8627E-03     39.1125E-03    -15.1229E-03     29.7755E-03    -14.7482E-03     39.0961E-03
            1422     8.86831E-03     53.5283E-03    -4.91319E+06    -51.5298E+06     7.06460E+06    -227.961E+03    -15.0949E-03     29.9613E-03    -14.8664E-03     34.7209E-03    -15.0590E-03     29.7045E-03    -14.7492E-03     34.7098E-03
            1423     7.98135E-03     53.4982E-03    -6.12878E+06    -54.7969E+06     6.61961E+06    -118.567E+03    -15.0149E-03     29.8863E-03    -14.8714E-03     30.4764E-03    -14.9783E-03     29.6143E-03    -14.7500E-03     30.4686E-03
            1424     7.09461E-03     53.4717E-03    -7.51058E+06    -56.2645E+06     5.38038E+06    -137.836E+03    -14.9508E-03     29.8219E-03    -14.8710E-03     26.4438E-03    -14.9164E-03     29.5454E-03    -14.7517E-03     26.4371E-03
            1425     6.20771E-03     53.4491E-03    -9.23892E+06    -57.9644E+06     3.47281E+06    -54.0644E+03    -14.8971E-03     29.7661E-03    -14.8690E-03     22.6208E-03    -14.8654E-03     29.4858E-03    -14.7542E-03     22.6162E-03
            1426     5.32091E-03     53.4297E-03    -11.2582E+06    -59.4523E+06     718.742E+03    -68.9832E+03    -14.8565E-03     29.7203E-03    -14.8638E-03     19.0089E-03    -14.8284E-03     29.4391E-03    -14.7576E-03     19.0049E-03
            1427     4.43405E-03     53.4137E-03    -13.2695E+06    -61.0877E+06    -2.97178E+06    -87.1869E+03    -14.8301E-03     29.6847E-03    -14.8546E-03     15.5902E-03    -14.8040E-03     29.4033E-03    -14.7616E-03     15.5867E-03
            1428     3.54724E-03     53.4007E-03    -15.1755E+06    -63.0800E+06    -7.41450E+06    -9.85129E+03    -14.8140E-03     29.6563E-03    -14.8424E-03     12.3268E-03    -14.7879E-03     29.3740E-03    -14.7660E-03     12.3248E-03
            1429     2.66040E-03     53.3908E-03    -16.9886E+06    -65.3141E+06    -12.0239E+06     13.5256E+03    -14.8066E-03     29.6362E-03    -14.8296E-03     9.18856E-03    -14.7796E-03     29.3519E-03    -14.7704E-03     9.18742E-03
            1430     1.77361E-03     53.3837E-03    -18.3923E+06    -67.2591E+06    -15.9994E+06     11.1399E+03    -14.8068E-03     29.6252E-03    -14.8184E-03     6.15420E-03    -14.7782E-03     29.3388E-03    -14.7742E-03     6.15348E-03
            1431     886.796E-06     53.3794E-03    -19.2742E+06    -68.9457E+06    -18.6370E+06     5.67763E+03    -14.8076E-03     29.6201E-03    -14.8125E-03     3.33933E-03    -14.7770E-03     29.3304E-03    -14.7778E-03     3.33894E-03
            1432     16.8505E-03     53.1158E-03    -2.38892E+06     130.733E+06     22.4755E+06     25.2211E+03    -16.5440E-03     31.1752E-03    -14.6311E-03     102.713E-03    -17.6171E-03     32.6387E-03    -14.7048E-03     103.325E-03
            1433     15.9644E-03     52.9846E-03    -2.52751E+06     73.6745E+06    -20.3637E+06    -112.548E+03    -17.4484E-03     31.9606E-03    -14.5122E-03     119.224E-03    -18.2553E-03     33.0791E-03    -14.7172E-03     119.446E-03
            1434     15.0759E-03     52.8939E-03    -2.37114E+06     26.3616E+06    -7.68136E+06    -244.146E+03    -16.1471E-03     30.8056E-03    -14.6585E-03     84.5904E-03    -16.3752E-03     31.1412E-03    -14.7317E-03     84.5719E-03
            1435     14.1888E-03     52.8283E-03    -2.55465E+06    -8.09623E+06    -5.28219E+06     36.9400E+03    -15.7501E-03     30.4806E-03    -14.7305E-03     66.7948E-03    -15.8187E-03     30.5267E-03    -14.7414E-03     66.7608E-03
            1436     13.3033E-03     52.7700E-03    -2.06711E+06    -29.7545E+06    -4.92026E+06    -72.3909E+03    -15.7164E-03     30.4817E-03    -14.7653E-03     61.5967E-03    -15.7222E-03     30.3888E-03    -14.7437E-03     61.5636E-03
            1437     12.4148E-03     52.7143E-03    -1.74966E+06    -33.3007E+06     4.19872E+06    -469.927E+03    -15.5516E-03     30.3671E-03    -14.8155E-03     55.6301E-03    -15.5450E-03     30.2239E-03    -14.7437E-03     55.5990E-03
            1438     11.5292E-03     52.6666E-03    -1.65445E+06    -41.1307E+06     4.76868E+06    -110.306E+03    -15.3900E-03     30.2191E-03    -14.8291E-03     48.3913E-03    -15.3612E-03     30.0245E-03    -14.7432E-03     48.3710E-03
            1439     10.6418E-03     52.6246E-03    -2.20947E+06    -48.9563E+06     5.95735E+06     333.311E+03    -15.2518E-03     30.0994E-03    -14.8476E-03     43.5264E-03    -15.2102E-03     29.8589E-03    -14.7436E-03     43.5165E-03
            1440     9.75517E-03     52.5859E-03    -3.51278E+06    -49.3926E+06     7.58655E+06    -51.5273E+03    -15.1810E-03     30.0400E-03    -14.8590E-03     39.1234E-03    -15.1442E-03     29.7934E-03    -14.7443E-03     39.1120E-03
            1441     8.86822E-03     52.5519E-03    -4.66971E+06    -51.8265E+06     7.23320E+06    -256.730E+03    -15.0983E-03     29.9602E-03    -14.8619E-03     34.6822E-03    -15.0610E-03     29.7014E-03    -14.7438E-03     34.6707E-03
            1442     7.98150E-03     52.5215E-03    -6.01596E+06    -54.7160E+06     6.68009E+06    -167.104E+03    -15.0127E-03     29.8781E-03    -14.8654E-03     30.4602E-03    -14.9758E-03     29.6062E-03    -14.7440E-03     30.4518E-03
            1443     7.09458E-03     52.4953E-03    -7.58413E+06    -56.4410E+06     5.21896E+06    -145.916E+03    -14.9456E-03     29.8099E-03    -14.8643E-03     26.4335E-03    -14.9110E-03     29.5329E-03    -14.7454E-03     26.4267E-03
            1444     6.20779E-03     52.4724E-03    -9.32473E+06    -58.0770E+06     3.43562E+06        -429.526    -14.8924E-03     29.7550E-03    -14.8626E-03     22.6059E-03    -14.8610E-03     29.4743E-03    -14.7477E-03     22.6020E-03
            1445     5.32092E-03     52.4533E-03    -11.2169E+06    -59.3170E+06     657.795E+03    -8.81890E+03    -14.8484E-03     29.7051E-03    -14.8566E-03     19.0004E-03    -14.8202E-03     29.4246E-03    -14.7511E-03     18.9972E-03
            1446     4.43409E-03     52.4372E-03    -13.2851E+06    -61.1517E+06    -3.13288E+06    -101.557E+03    -14.8220E-03     29.6697E-03    -14.8477E-03     15.5830E-03    -14.7957E-03     29.3882E-03    -14.7554E-03     15.5793E-03
            1447     3.54725E-03     52.4243E-03    -15.3139E+06    -63.1834E+06    -7.50852E+06    -56.9426E+03    -14.8068E-03     29.6431E-03    -14.8363E-03     12.3199E-03    -14.7812E-03     29.3606E-03    -14.7601E-03     12.3173E-03
            1448     2.66043E-03     52.4143E-03    -17.0387E+06    -65.2970E+06    -12.0521E+06    -17.0960E+03    -14.8002E-03     29.6240E-03    -14.8238E-03     9.18462E-03    -14.7734E-03     29.3398E-03    -14.7646E-03     9.18308E-03
            1449     1.77361E-03     52.4072E-03    -18.4226E+06    -67.2814E+06    -16.0366E+06    -29.9856E+03    -14.8009E-03     29.6136E-03    -14.8126E-03     6.15637E-03    -14.7723E-03     29.3272E-03    -14.7685E-03     6.15512E-03
            1450     886.805E-06     52.4029E-03    -19.3010E+06    -68.9579E+06    -18.7151E+06     7.43804E+03    -14.7957E-03     29.6087E-03    -14.8130E-03     3.33065E-03    -14.7651E-03     29.3191E-03    -14.7786E-03     3.33029E-03
            1451     16.8504E-03     52.1389E-03    -2.04428E+06     130.422E+06     22.4651E+06    -60.3365E+03    -16.3349E-03     30.9772E-03    -14.6423E-03     102.771E-03    -17.4070E-03     32.4399E-03    -14.7161E-03     103.389E-03
            1452     15.9621E-03     52.0083E-03    -2.48968E+06     73.5661E+06    -20.5624E+06     248.635E+03    -17.3905E-03     31.9223E-03    -14.5317E-03     119.715E-03    -18.2005E-03     33.0442E-03    -14.7376E-03     119.945E-03
            1453     15.0763E-03     51.9174E-03    -2.34613E+06     26.6938E+06    -7.71621E+06     199.717E+03    -16.4122E-03     31.0865E-03    -14.6742E-03     84.8176E-03    -16.6417E-03     31.4247E-03    -14.7481E-03     84.8031E-03
            1454     14.1896E-03     51.8514E-03    -1.64147E+06    -8.01910E+06    -4.97465E+06    -58.3304E+03    -15.9257E-03     30.6602E-03    -14.7345E-03     66.6207E-03    -15.9905E-03     30.7051E-03    -14.7454E-03     66.5848E-03
            1455     13.3015E-03     51.7937E-03    -1.17374E+06    -29.4628E+06    -4.69353E+06    -222.205E+03    -15.7500E-03     30.5120E-03    -14.7619E-03     61.3854E-03    -15.7519E-03     30.4187E-03    -14.7410E-03     61.3504E-03
            1456     12.4164E-03     51.7373E-03    -1.56632E+06    -33.2758E+06     4.11557E+06    -468.599E+03    -15.5332E-03     30.3445E-03    -14.8113E-03     55.5930E-03    -15.5256E-03     30.2013E-03    -14.7402E-03     55.5620E-03
            1457     11.5284E-03     51.6904E-03    -2.57300E+06    -41.9428E+06     4.24710E+06    -236.289E+03    -15.3522E-03     30.1794E-03    -14.8273E-03     48.3745E-03    -15.3259E-03     29.9828E-03    -14.7415E-03     48.3526E-03
            1458     10.6421E-03     51.6477E-03    -2.98469E+06    -48.8830E+06     5.77726E+06     131.325E+03    -15.3075E-03     30.1522E-03    -14.8447E-03     43.5316E-03    -15.2697E-03     29.9135E-03    -14.7406E-03     43.5189E-03
            1459     9.75510E-03     51.6096E-03    -3.38341E+06    -48.8456E+06     7.81149E+06     16.0676E+03    -15.1888E-03     30.0416E-03    -14.8528E-03     39.0579E-03    -15.1524E-03     29.7972E-03    -14.7380E-03     39.0473E-03
            1460     8.86838E-03     51.5751E-03    -4.61959E+06    -51.9608E+06     7.06511E+06    -141.808E+03    -15.0818E-03     29.9364E-03    -14.8546E-03     34.6517E-03    -15.0438E-03     29.6771E-03    -14.7372E-03     34.6417E-03
            1461     7.98147E-03     51.5452E-03    -5.99729E+06    -54.8272E+06     6.68934E+06    -103.390E+03    -15.0109E-03     29.8702E-03    -14.8593E-03     30.4388E-03    -14.9738E-03     29.5977E-03    -14.7376E-03     30.4312E-03
            1462     7.09468E-03     51.5186E-03    -7.62631E+06    -56.5008E+06     5.15226E+06         189.580    -14.9417E-03     29.7991E-03    -14.8573E-03     26.4113E-03    -14.9072E-03     29.5219E-03    -14.7386E-03     26.4064E-03
            1463     6.20781E-03     51.4961E-03    -9.38402E+06    -58.1261E+06     3.26197E+06    -58.1918E+03    -14.8846E-03     29.7395E-03    -14.8549E-03     22.5921E-03    -14.8531E-03     29.4589E-03    -14.7407E-03     22.5875E-03
            1464     5.32097E-03     51.4767E-03    -11.2104E+06    -59.3087E+06     660.841E+03    -34.7667E+03    -14.8434E-03     29.6929E-03    -14.8496E-03     18.9885E-03    -14.8152E-03     29.4125E-03    -14.7440E-03     18.9850E-03
            1465     4.43412E-03     51.4608E-03    -13.1998E+06    -61.1128E+06    -3.04913E+06    -11.5092E+03    -14.8147E-03     29.6554E-03    -14.8407E-03     15.5700E-03    -14.7881E-03     29.3739E-03    -14.7482E-03     15.5674E-03
            1466     3.54727E-03     51.4478E-03    -15.2121E+06    -63.2433E+06    -7.49358E+06    -76.8755E+03    -14.7996E-03     29.6288E-03    -14.8292E-03     12.3105E-03    -14.7734E-03     29.3458E-03    -14.7529E-03     12.3076E-03
            1467     2.66045E-03     51.4379E-03    -17.0039E+06    -65.3233E+06    -12.0791E+06    -78.6845E+03    -14.7932E-03     29.6099E-03    -14.8166E-03     9.17675E-03    -14.7662E-03     29.3256E-03    -14.7576E-03     9.17441E-03
            1468     1.77362E-03     51.4307E-03    -18.4013E+06    -67.3437E+06    -16.0132E+06    -32.0933E+03    -14.7935E-03     29.5995E-03    -14.8060E-03     6.15433E-03    -14.7647E-03     29.3128E-03    -14.7618E-03     6.15305E-03
            1469     886.810E-06     51.4264E-03    -19.3474E+06    -68.9732E+06    -18.6506E+06    -5.57063E+03    -14.7919E-03     29.5957E-03    -14.8038E-03     3.31770E-03    -14.7616E-03     29.3059E-03    -14.7690E-03     3.31717E-03
            1470     16.8497E-03     51.1624E-03    -2.42118E+06     129.963E+06     21.9799E+06    -107.614E+03    -16.1824E-03     30.8482E-03    -14.6658E-03     103.059E-03    -17.2587E-03     32.3135E-03    -14.7408E-03     103.681E-03
            1471     15.9630E-03     51.0327E-03    -2.95839E+06     73.0465E+06    -21.1222E+06     215.353E+03    -17.7501E-03     32.2992E-03    -14.5491E-03     119.284E-03    -18.5592E-03     33.4183E-03    -14.7563E-03     119.509E-03
            1472     15.0754E-03     50.9395E-03    -1.95995E+06     27.1747E+06    -7.36966E+06     284.472E+03    -16.5368E-03     31.2162E-03    -14.6794E-03     84.5492E-03    -16.7651E-03     31.5554E-03    -14.7528E-03     84.5347E-03
            1473     14.1889E-03     50.8753E-03    -2.19215E+06    -7.69915E+06    -5.23856E+06    -172.305E+03    -15.9863E-03     30.7185E-03    -14.7322E-03     66.3586E-03    -16.0537E-03     30.7660E-03    -14.7441E-03     66.3212E-03
            1474     13.3036E-03     50.8166E-03    -1.79810E+06    -29.3520E+06    -5.09401E+06    -458.282E+03    -15.7619E-03     30.5183E-03    -14.7564E-03     61.4180E-03    -15.7665E-03     30.4271E-03    -14.7367E-03     61.3800E-03
            1475     12.4150E-03     50.7613E-03    -1.79466E+06    -33.5481E+06     4.34300E+06    -16.1102E+03    -15.4986E-03     30.3079E-03    -14.8093E-03     55.5687E-03    -15.4920E-03     30.1632E-03    -14.7364E-03     55.5436E-03
            1476     11.5291E-03     50.7135E-03    -2.43681E+06    -41.9376E+06      4.3855E+06    -79.7009E+03    -15.3896E-03     30.2130E-03    -14.8234E-03     48.3870E-03    -15.3629E-03     30.0160E-03    -14.7371E-03     48.3671E-03
            1477     10.6419E-03     50.6713E-03    -2.75851E+06    -49.0629E+06     5.59543E+06    -425.131E+03    -15.3262E-03     30.1629E-03    -14.8367E-03     43.4486E-03    -15.2868E-03     29.9232E-03    -14.7336E-03     43.4287E-03
            1478     9.75533E-03     50.6328E-03    -3.55337E+06    -48.9455E+06     7.55596E+06     6.92881E+03    -15.1678E-03     30.0121E-03    -14.8443E-03     39.0058E-03    -15.1318E-03     29.7678E-03    -14.7304E-03     38.9951E-03
            1479     8.86836E-03     50.5989E-03    -4.64384E+06    -51.7735E+06     6.91839E+06     52.2874E+03    -15.0747E-03     29.9213E-03    -14.8466E-03     34.6586E-03    -15.0368E-03     29.6631E-03    -14.7302E-03     34.6512E-03
            1480     7.98157E-03     50.5684E-03    -6.07898E+06    -55.0240E+06     6.58002E+06    -2.08453E+03    -15.0080E-03     29.8598E-03    -14.8519E-03     30.4083E-03    -14.9708E-03     29.5866E-03    -14.7304E-03     30.4020E-03
            1481     7.09472E-03     50.5423E-03    -7.60775E+06    -56.4176E+06     5.27899E+06     45.7470E+03    -14.9345E-03     29.7847E-03    -14.8502E-03     26.3840E-03    -14.9001E-03     29.5077E-03    -14.7310E-03     26.3797E-03
            1482     6.20785E-03     50.5194E-03    -9.31645E+06    -58.0509E+06     3.32746E+06    -48.5390E+03    -14.8798E-03     29.7269E-03    -14.8472E-03     22.5773E-03    -14.8482E-03     29.4466E-03    -14.7329E-03     22.5728E-03
            1483     5.32102E-03     50.5003E-03    -11.2447E+06    -59.4257E+06     648.858E+03    -72.4989E+03    -14.8377E-03     29.6791E-03    -14.8414E-03     18.9686E-03    -14.8095E-03     29.3982E-03    -14.7357E-03     18.9646E-03
            1484     4.43415E-03     50.4842E-03    -13.2345E+06    -61.1008E+06    -3.05686E+06    -15.3823E+03    -14.8083E-03     29.6402E-03    -14.8319E-03     15.5548E-03    -14.7819E-03     29.3588E-03    -14.7394E-03     15.5522E-03
            1485     3.54732E-03     50.4713E-03    -15.2037E+06    -63.1913E+06    -7.58601E+06    -33.9320E+03    -14.7919E-03     29.6113E-03    -14.8194E-03     12.2960E-03    -14.7656E-03     29.3287E-03    -14.7436E-03     12.2938E-03
            1486     2.66046E-03     50.4613E-03    -17.0062E+06    -65.3879E+06    -12.1515E+06    -75.4171E+03    -14.7855E-03     29.5920E-03    -14.8065E-03     9.16440E-03    -14.7583E-03     29.3075E-03    -14.7478E-03     9.16211E-03
            1487     1.77365E-03     50.4543E-03    -18.4222E+06    -67.4188E+06    -16.0215E+06    -47.9935E+03    -14.7837E-03     29.5795E-03    -14.7958E-03     6.14412E-03    -14.7549E-03     29.2924E-03    -14.7515E-03     6.14264E-03
            1488     886.809E-06     50.4499E-03    -19.2993E+06    -68.9960E+06    -18.6874E+06    -23.4617E+03    -14.7850E-03     29.5749E-03    -14.7899E-03     3.31944E-03    -14.7544E-03     29.2851E-03    -14.7553E-03     3.31868E-03
            1489     16.8483E-03     50.1844E-03    -2.67158E+06     130.387E+06     22.1901E+06     314.786E+03    -16.3414E-03     31.0005E-03    -14.6591E-03     102.627E-03    -17.4180E-03     32.4662E-03    -14.7334E-03     103.247E-03
            1490     15.9626E-03     50.0554E-03    -3.88975E+06     72.9632E+06    -21.1160E+06    -377.897E+03    -17.8276E-03     32.3613E-03    -14.5337E-03     118.527E-03    -18.6395E-03     33.4796E-03    -14.7395E-03     118.740E-03
            1491     15.0766E-03     49.9634E-03    -2.56828E+06     26.5287E+06    -7.81655E+06     93.1748E+03    -16.4144E-03     31.0749E-03    -14.6605E-03     84.1038E-03    -16.6436E-03     31.4118E-03    -14.7343E-03     84.0872E-03
            1492     14.1895E-03     49.8979E-03    -1.99097E+06    -7.22770E+06    -4.84556E+06    -20.2115E+03    -15.7183E-03     30.4433E-03    -14.7250E-03     66.1858E-03    -15.7853E-03     30.4916E-03    -14.7359E-03     66.1512E-03
            1493     13.3016E-03     49.8403E-03    -2.77215E+06    -29.1222E+06    -5.04951E+06    -378.340E+03    -15.7505E-03     30.5081E-03    -14.7576E-03     61.3622E-03    -15.7606E-03     30.4197E-03    -14.7366E-03     61.3251E-03
            1494     12.4163E-03     49.7845E-03    -2.73276E+06    -33.7099E+06     3.61166E+06    -592.481E+03    -15.6039E-03     30.4071E-03    -14.8032E-03     55.5038E-03    -15.6008E-03     30.2641E-03    -14.7323E-03     55.4710E-03
            1495     11.5286E-03     49.7372E-03    -1.99058E+06    -41.8141E+06     4.20411E+06    -568.645E+03    -15.4131E-03     30.2254E-03    -14.8123E-03     48.3730E-03    -15.3841E-03     30.0287E-03    -14.7278E-03     48.3467E-03
            1496     10.6423E-03     49.6944E-03    -2.52219E+06    -49.6269E+06     5.40835E+06    -116.386E+03    -15.2681E-03     30.0959E-03    -14.8278E-03     43.4181E-03    -15.2263E-03     29.8533E-03    -14.7251E-03     43.4024E-03
            1497     9.75523E-03     49.6566E-03    -3.69881E+06    -49.2189E+06     7.44127E+06     90.4295E+03    -15.1609E-03     29.9990E-03    -14.8381E-03     39.0177E-03    -15.1250E-03     29.7537E-03    -14.7242E-03     39.0082E-03
            1498     8.86847E-03     49.6220E-03    -4.94222E+06    -51.6016E+06     6.88856E+06     140.000E+03    -15.0874E-03     29.9268E-03    -14.8394E-03     34.6308E-03    -15.0513E-03     29.6699E-03    -14.7229E-03     34.6245E-03
            1499     7.98164E-03     49.5921E-03    -6.16285E+06    -54.9683E+06     6.56153E+06    -7.42159E+03    -14.9965E-03     29.8400E-03    -14.8435E-03     30.3814E-03    -14.9598E-03     29.5672E-03    -14.7221E-03     30.3751E-03
            1500     7.09475E-03     49.5656E-03    -7.56349E+06    -56.4758E+06     5.33150E+06    -59.2706E+03    -14.9309E-03     29.7729E-03    -14.8420E-03     26.3671E-03    -14.8963E-03     29.4955E-03    -14.7225E-03     26.3615E-03
            1501     6.20794E-03     49.5431E-03    -9.25919E+06    -58.0224E+06     3.47162E+06     53.9595E+03    -14.8770E-03     29.7156E-03    -14.8385E-03     22.5509E-03    -14.8454E-03     29.4350E-03    -14.7236E-03     22.5477E-03
            1502     5.32104E-03     49.5237E-03    -11.3032E+06    -59.3817E+06     606.096E+03     7.07132E+03    -14.8319E-03     29.6630E-03    -14.8311E-03     18.9477E-03    -14.8039E-03     29.3823E-03    -14.7256E-03     18.9447E-03
            1503     4.43422E-03     49.5078E-03    -13.3772E+06    -61.1685E+06    -3.20248E+06    -49.5776E+03    -14.8021E-03     29.6225E-03    -14.8204E-03     15.5325E-03    -14.7761E-03     29.3412E-03    -14.7283E-03     15.5295E-03
            1504     3.54734E-03     49.4948E-03    -15.3253E+06    -63.1426E+06    -7.71133E+06    -28.0054E+03    -14.7843E-03     29.5909E-03    -14.8066E-03     12.2783E-03    -14.7585E-03     29.3088E-03    -14.7313E-03     12.2761E-03
            1505     2.66052E-03     49.4849E-03    -17.0508E+06    -65.4028E+06    -12.2283E+06    -67.7657E+03    -14.7752E-03     29.5679E-03    -14.7927E-03     9.14714E-03    -14.7480E-03     29.2835E-03    -14.7343E-03     9.14494E-03
            1506     1.77366E-03     49.4778E-03    -18.4338E+06     -67.514E+06    -16.1225E+06    -52.8057E+03    -14.7700E-03     29.5513E-03    -14.7813E-03     6.13445E-03    -14.7410E-03     29.2639E-03    -14.7373E-03     6.13290E-03
            1507     886.840E-06     49.4735E-03    -19.3277E+06    -69.0262E+06    -18.7330E+06    -16.0008E+03    -14.7655E-03     29.5463E-03    -14.7808E-03     3.32231E-03    -14.7349E-03     29.2564E-03    -14.7463E-03     3.32163E-03
            1508     16.8525E-03     49.2101E-03    -1.57162E+06     130.881E+06     23.3870E+06     654.009E+03    -16.6370E-03     31.2699E-03    -14.6329E-03     102.949E-03    -17.7072E-03     32.7313E-03    -14.7034E-03     103.569E-03
            1509     15.9635E-03     49.0780E-03    -1.12345E+06     73.8711E+06    -19.5607E+06     797.032E+03    -17.5365E-03     32.0442E-03    -14.5077E-03     119.063E-03    -18.3353E-03     33.1580E-03    -14.7110E-03     119.292E-03
            1510     15.0766E-03     48.9867E-03    -1.66095E+06     26.2233E+06    -7.52701E+06     10.2759E+03    -16.2927E-03     30.9374E-03    -14.6446E-03     84.2082E-03    -16.5173E-03     31.2710E-03    -14.7179E-03     84.1915E-03
            1511     14.1893E-03     48.9223E-03    -1.20039E+06     -7.3579E+06    -4.68107E+06     60.7055E+03    -15.7030E-03     30.4151E-03    -14.7121E-03     66.2795E-03    -15.7661E-03     30.4614E-03    -14.7231E-03     66.2459E-03
            1512     13.3033E-03     48.8632E-03    -601.415E+03    -28.6538E+06    -4.26830E+06     51.3863E+03    -15.6569E-03     30.4050E-03    -14.7481E-03     61.1674E-03    -15.6576E-03     30.3143E-03    -14.7271E-03     61.1361E-03
            1513     12.4153E-03     48.8081E-03    -1.44367E+06    -33.1869E+06     4.13797E+06    -544.474E+03    -15.5894E-03     30.3865E-03    -14.7970E-03     55.5260E-03    -15.5814E-03     30.2435E-03    -14.7261E-03     55.4938E-03
            1514     11.5294E-03     48.7603E-03    -2.87611E+06    -42.3335E+06     3.62280E+06    -643.768E+03    -15.4019E-03     30.2078E-03    -14.8059E-03     48.3876E-03    -15.3757E-03     30.0106E-03    -14.7222E-03     48.3604E-03
            1515     10.6420E-03     48.7184E-03    -3.64627E+06    -50.2264E+06     4.77733E+06    -158.099E+03    -15.2594E-03     30.0812E-03    -14.8218E-03     43.4692E-03    -15.2214E-03     29.8380E-03    -14.7197E-03     43.4530E-03
            1516     9.75536E-03     48.6796E-03    -4.09372E+06    -49.2883E+06     7.41871E+06     85.7166E+03    -15.1827E-03     30.0146E-03    -14.8319E-03     39.0005E-03    -15.1486E-03     29.7695E-03    -14.7174E-03     38.9909E-03
            1517     8.86858E-03     48.6458E-03    -5.00583E+06    -51.4230E+06     7.08109E+06     8.27915E+03    -15.0784E-03     29.9103E-03    -14.8319E-03     34.5772E-03    -15.0431E-03     29.6542E-03    -14.7147E-03     34.5692E-03
            1518     7.98165E-03     48.6155E-03    -6.20823E+06    -54.8485E+06     6.53468E+06    -112.704E+03    -14.9938E-03     29.8284E-03    -14.8347E-03     30.3707E-03    -14.9574E-03     29.5563E-03    -14.7134E-03     30.3630E-03
            1519     7.09488E-03     48.5893E-03    -7.69911E+06    -56.6481E+06     5.09245E+06    -79.3881E+03    -14.9310E-03     29.7627E-03    -14.8317E-03     26.3443E-03    -14.8965E-03     29.4850E-03    -14.7129E-03     26.3384E-03
            1520     6.20795E-03     48.5665E-03    -9.41462E+06    -58.0994E+06     3.29167E+06     46.3301E+03    -14.8750E-03     29.7020E-03    -14.8270E-03     22.5245E-03    -14.8438E-03     29.4216E-03    -14.7127E-03     22.5212E-03
            1521     5.32115E-03     48.5473E-03    -11.1926E+06    -59.2400E+06     680.713E+03     46.6406E+03    -14.8287E-03     29.6474E-03    -14.8187E-03     18.9170E-03    -14.8005E-03     29.3672E-03    -14.7132E-03     18.9146E-03
            1522     4.43424E-03     48.5313E-03    -13.1927E+06    -61.1931E+06    -3.09339E+06    -15.6995E+03    -14.7965E-03     29.6033E-03    -14.8067E-03     15.5063E-03    -14.7698E-03     29.3214E-03    -14.7143E-03     15.5037E-03
            1523     3.54743E-03     48.5185E-03    -15.1966E+06    -63.1533E+06    -7.58432E+06    -30.8907E+03    -14.7747E-03     29.5663E-03    -14.7916E-03     12.2548E-03    -14.7484E-03     29.2838E-03    -14.7159E-03     12.2526E-03
            1524     2.66054E-03     48.5085E-03    -17.0131E+06    -65.3915E+06    -12.2489E+06    -16.7491E+03    -14.7607E-03     29.5368E-03    -14.7761E-03     9.12995E-03    -14.7334E-03     29.2525E-03    -14.7179E-03     9.12842E-03
            1525     1.77371E-03     48.5014E-03    -18.4477E+06    -67.5799E+06    -16.1471E+06    -35.7139E+03    -14.7549E-03     29.5190E-03    -14.7641E-03     6.12183E-03    -14.7258E-03     29.2313E-03    -14.7201E-03     6.12051E-03
            1526     886.831E-06     48.4971E-03    -19.3230E+06    -69.0606E+06    -18.7209E+06    -9.13473E+03    -14.7471E-03     29.5108E-03    -14.7637E-03     3.31989E-03    -14.7164E-03     29.2207E-03    -14.7292E-03     3.31931E-03
            1527     16.8486E-03     48.2322E-03    -3.09778E+06     129.808E+06     22.2357E+06    -248.201E+03    -16.5919E-03     31.2230E-03    -14.6311E-03     103.225E-03    -17.6677E-03     32.6841E-03    -14.7037E-03     103.836E-03
            1528     15.9639E-03     48.1019E-03    -1.73917E+06     74.1502E+06    -19.4729E+06     714.409E+03    -17.6088E-03     32.1186E-03    -14.5098E-03     119.749E-03    -18.4128E-03     33.2360E-03    -14.7121E-03     119.980E-03
            1529     15.0760E-03     48.0106E-03    -362.522E+03     27.1936E+06    -6.65869E+06     405.339E+03    -16.3304E-03     30.9757E-03    -14.6453E-03     84.3693E-03    -16.5504E-03     31.3102E-03    -14.7175E-03     84.3574E-03
            1530     14.1901E-03     47.9447E-03    -475.327E+03    -7.54599E+06    -4.49503E+06     12.8409E+03    -15.8006E-03     30.5088E-03    -14.7082E-03     66.4035E-03    -15.8603E-03     30.5530E-03    -14.7190E-03     66.3691E-03
            1531     13.3024E-03     47.8878E-03    -79.9798E+03    -28.6418E+06    -3.90800E+06     355.234E+03    -15.6893E-03     30.4305E-03    -14.7413E-03     61.5522E-03    -15.6880E-03     30.3386E-03    -14.7192E-03     61.5249E-03
            1532     12.4162E-03     47.8308E-03    -631.698E+03    -33.1576E+06     5.10999E+06     586.919E+03    -15.5041E-03     30.2991E-03    -14.7950E-03     55.5780E-03    -15.4934E-03     30.1535E-03    -14.7204E-03     55.5606E-03
            1533     11.5287E-03     47.7842E-03    -2.10132E+06    -42.0236E+06     4.73262E+06     279.787E+03    -15.3887E-03     30.1963E-03    -14.8076E-03     48.2954E-03    -15.3607E-03     29.9979E-03    -14.7199E-03     48.2801E-03
            1534     10.6423E-03     47.7414E-03    -3.30000E+06    -49.8878E+06     5.33543E+06    -289.969E+03    -15.3382E-03     30.1563E-03    -14.8181E-03     43.4260E-03    -15.2998E-03     29.9137E-03    -14.7143E-03     43.4079E-03
            1535     9.75551E-03     47.7034E-03    -4.10860E+06    -49.5143E+06     7.21730E+06    -455.158E+03    -15.1704E-03     29.9928E-03    -14.8225E-03     38.9460E-03    -15.1358E-03     29.7469E-03    -14.7086E-03     38.9294E-03
            1536     8.86855E-03     47.6691E-03    -4.66446E+06    -51.4708E+06     7.00820E+06    -220.386E+03    -15.0673E-03     29.8900E-03    -14.8227E-03     34.5675E-03    -15.0302E-03     29.6332E-03    -14.7062E-03     34.5565E-03
            1537     7.98182E-03     47.6391E-03    -5.92180E+06    -54.8960E+06     6.57178E+06    -22.7368E+03    -15.0042E-03     29.8294E-03    -14.8252E-03     30.3402E-03    -14.9664E-03     29.5566E-03    -14.7041E-03     30.3336E-03
            1538     7.09487E-03     47.6127E-03    -7.63568E+06    -56.7438E+06     5.04643E+06     58.6142E+03    -14.9355E-03     29.7556E-03    -14.8201E-03     26.3107E-03    -14.9005E-03     29.4774E-03    -14.7016E-03     26.3066E-03
            1539     6.20811E-03     47.5901E-03    -9.36995E+06    -58.0549E+06     3.19894E+06    -31.5994E+03    -14.8758E-03     29.6889E-03    -14.8131E-03     22.4848E-03    -14.8443E-03     29.4087E-03    -14.6993E-03     22.4806E-03
            1540     5.32118E-03     47.5709E-03    -11.2354E+06    -59.2907E+06     615.432E+03    -30.1558E+03    -14.8240E-03     29.6272E-03    -14.8032E-03     18.8813E-03    -14.7958E-03     29.3469E-03    -14.6979E-03     18.8778E-03
            1541     4.43437E-03     47.5549E-03    -13.1926E+06    -61.1465E+06    -3.08820E+06     27.3136E+03    -14.7869E-03     29.5767E-03    -14.7897E-03     15.4733E-03    -14.7603E-03     29.2951E-03    -14.6974E-03     15.4713E-03
            1542     3.54745E-03     47.5420E-03    -15.2037E+06    -63.1814E+06    -7.56940E+06     20.1428E+03    -14.7593E-03     29.5329E-03    -14.7737E-03     12.2273E-03    -14.7330E-03     29.2504E-03    -14.6978E-03     12.2257E-03
            1543     2.66061E-03     47.5321E-03    -16.9736E+06    -65.3774E+06    -12.1001E+06     12.8812E+03    -14.7449E-03     29.5026E-03    -14.7578E-03     9.11003E-03    -14.7175E-03     29.2181E-03    -14.6989E-03     9.10888E-03
            1544     1.77372E-03     47.5250E-03    -18.3562E+06    -67.5760E+06    -16.0105E+06    -11.8433E+03    -14.7374E-03     29.4819E-03    -14.7445E-03     6.10572E-03    -14.7080E-03     29.1939E-03    -14.6999E-03     6.10471E-03
            1545     886.883E-06     47.5207E-03    -19.2907E+06    -69.1141E+06    -18.6283E+06    -16.3888E+03    -14.7389E-03     29.4700E-03    -14.7311E-03     3.31655E-03    -14.7082E-03     29.1795E-03    -14.6960E-03     3.31588E-03
            1546     16.8518E-03     47.2560E-03    -2.70725E+06     129.252E+06     22.3958E+06    -261.642E+03    -16.5026E-03     31.1421E-03    -14.6395E-03     102.542E-03    -17.5739E-03     32.5977E-03    -14.7110E-03     103.151E-03
            1547     15.9623E-03     47.1254E-03    -3.37486E+06     73.1615E+06    -20.5527E+06    -438.457E+03    -17.5858E-03     32.1029E-03    -14.5171E-03     119.408E-03    -18.3971E-03     33.2216E-03    -14.7211E-03     119.626E-03
            1548     15.0771E-03     47.0330E-03    -2.40524E+06     27.5051E+06    -7.50211E+06    -100.020E+03    -16.3464E-03     30.9985E-03    -14.6521E-03     84.4920E-03    -16.5761E-03     31.3391E-03    -14.7260E-03     84.4735E-03
            1549     14.1890E-03     46.9695E-03    -1.74752E+06    -7.20552E+06    -4.75178E+06     82.0775E+03    -15.8447E-03     30.5599E-03    -14.7152E-03     66.5224E-03    -15.9112E-03     30.6083E-03    -14.7260E-03     66.4887E-03
            1550     13.3030E-03     46.9099E-03    -1.93925E+06    -28.9680E+06    -4.31039E+06     256.163E+03    -15.8078E-03     30.5516E-03    -14.7438E-03     61.4277E-03    -15.8149E-03     30.4615E-03    -14.7206E-03     61.3988E-03
            1551     12.4158E-03     46.8552E-03    -1.66424E+06    -33.1021E+06     4.96213E+06     574.794E+03    -15.5614E-03     30.3516E-03    -14.7902E-03     55.5113E-03    -15.5557E-03     30.2081E-03    -14.7150E-03     55.4936E-03
            1552     11.5292E-03     46.8071E-03    -1.20385E+06    -41.3887E+06     5.56439E+06     529.534E+03    -15.4018E-03     30.2026E-03    -14.8008E-03     48.2805E-03    -15.3714E-03     30.0049E-03    -14.7113E-03     48.2685E-03
            1553     10.6424E-03     46.7650E-03    -1.52509E+06    -49.5888E+06      6.1137E+06     61.6375E+03    -15.3123E-03     30.1229E-03    -14.8105E-03     43.3200E-03    -15.2666E-03     29.8779E-03    -14.7058E-03     43.3065E-03
            1554     9.75548E-03     46.7268E-03    -2.79655E+06    -49.4817E+06     7.46588E+06    -282.446E+03    -15.1759E-03     29.9897E-03    -14.8138E-03     38.9251E-03    -15.1351E-03     29.7417E-03    -14.7007E-03     38.9108E-03
            1555     8.86875E-03     46.6927E-03    -4.56496E+06    -51.8012E+06     6.66538E+06    -126.732E+03    -15.0801E-03     29.8921E-03    -14.8120E-03     34.5454E-03    -15.0414E-03     29.6340E-03    -14.6969E-03     34.5357E-03
            1556     7.98179E-03     46.6626E-03    -6.02784E+06    -55.1124E+06     6.38008E+06     111.009E+03    -15.0131E-03     29.8263E-03    -14.8132E-03     30.2993E-03    -14.9752E-03     29.5529E-03    -14.6926E-03     30.2945E-03
            1557     7.09507E-03     46.6363E-03    -7.47925E+06    -56.6214E+06     5.18327E+06     139.375E+03    -14.9437E-03     29.7500E-03    -14.8063E-03     26.2527E-03    -14.9082E-03     29.4720E-03    -14.6875E-03     26.2497E-03
            1558     6.20813E-03     46.6137E-03    -9.25819E+06    -57.9658E+06     3.28333E+06     41.8086E+03    -14.8714E-03     29.6682E-03    -14.7968E-03     22.4363E-03    -14.8395E-03     29.3882E-03    -14.6830E-03     22.4330E-03
            1559     5.32134E-03     46.5945E-03    -11.2506E+06    -59.3589E+06     576.272E+03    -1.92707E+03    -14.8165E-03     29.6015E-03    -14.7850E-03     18.8390E-03    -14.7883E-03     29.3210E-03    -14.6797E-03     18.8359E-03
            1560     4.43441E-03     46.5785E-03    -13.3185E+06    -61.1636E+06    -3.18617E+06     23.8603E+03    -14.7725E-03     29.5423E-03    -14.7698E-03     15.4347E-03    -14.7463E-03     29.2609E-03    -14.6777E-03     15.4326E-03
            1561     3.54756E-03     46.5657E-03    -15.2314E+06    -63.1318E+06    -7.53740E+06     2.36054E+03    -14.7435E-03     29.4962E-03    -14.7528E-03     12.1950E-03    -14.7175E-03     29.2139E-03    -14.6768E-03     12.1933E-03
            1562     2.66065E-03     46.5557E-03    -16.9482E+06    -65.3902E+06    -12.0285E+06    -38.8765E+03    -14.7254E-03     29.4613E-03    -14.7359E-03     9.08387E-03    -14.6980E-03     29.1765E-03    -14.6767E-03     9.08205E-03
            1563     1.77379E-03     46.5487E-03    -18.3167E+06    -67.5738E+06    -15.9410E+06    -18.4792E+03    -14.7163E-03     29.4379E-03    -14.7216E-03     6.08765E-03    -14.6869E-03     29.1498E-03    -14.6767E-03     6.08655E-03
            1564     886.866E-06     46.5444E-03    -19.2152E+06    -69.1592E+06    -18.5958E+06    -16.0970E+03    -14.7244E-03     29.4230E-03    -14.6986E-03     3.31036E-03    -14.6933E-03     29.1321E-03    -14.6635E-03     3.30968E-03
            1565     16.8490E-03     46.2800E-03    -2.09174E+06     129.900E+06     23.0086E+06     50.2400E+03    -16.6251E-03     31.2657E-03    -14.6406E-03     102.435E-03    -17.6944E-03     32.7220E-03    -14.7109E-03     103.044E-03
            1566     15.9644E-03     46.1482E-03    -2.47867E+06     72.9808E+06    -20.3165E+06     90.3108E+03    -17.5092E-03     32.0252E-03    -14.5161E-03     119.347E-03    -18.3157E-03     33.1410E-03    -14.7199E-03     119.569E-03
            1567     15.0752E-03     46.0576E-03    -2.43612E+06     27.2272E+06    -7.71327E+06    -135.090E+03    -16.2330E-03     30.8888E-03    -14.6558E-03     84.4075E-03    -16.4619E-03     31.2281E-03    -14.7303E-03     84.3895E-03
            1568     14.1897E-03     45.9914E-03    -3.02172E+06    -7.38059E+06    -5.50587E+06     160.946E+03    -15.9504E-03     30.6681E-03    -14.7177E-03     66.4232E-03    -16.0221E-03     30.7189E-03    -14.7302E-03     66.3900E-03
            1569     13.3027E-03     45.9342E-03    -2.74903E+06    -29.0336E+06    -5.10265E+06     72.2758E+03    -15.8538E-03     30.5939E-03    -14.7401E-03     61.2883E-03    -15.8638E-03     30.5058E-03    -14.7195E-03     61.2568E-03
            1570     12.4160E-03     45.8780E-03    -2.22262E+06    -32.6056E+06     4.09996E+06    -306.583E+03    -15.6142E-03     30.3952E-03    -14.7810E-03     55.5013E-03    -15.6108E-03     30.2562E-03    -14.7100E-03     55.4722E-03
            1571     11.5294E-03     45.8309E-03    -2.13426E+06    -42.0153E+06     3.84602E+06    -300.541E+03    -15.4133E-03     30.1999E-03    -14.7866E-03     48.3793E-03    -15.3841E-03     30.0028E-03    -14.7034E-03     48.3566E-03
            1572     10.6423E-03     45.7885E-03    -2.00678E+06    -49.8363E+06     5.42172E+06     169.885E+03    -15.2868E-03     30.0871E-03    -14.8003E-03     43.3520E-03    -15.2421E-03     29.8425E-03    -14.6980E-03     43.3400E-03
            1573     9.75565E-03     45.7502E-03    -3.16662E+06    -49.2816E+06     7.33945E+06     595.511E+03    -15.1881E-03     29.9933E-03    -14.8052E-03     38.8498E-03    -15.1492E-03     29.7470E-03    -14.6925E-03     38.8468E-03
            1574     8.86874E-03     45.7162E-03    -4.77845E+06    -51.7656E+06     6.65431E+06     318.596E+03    -15.1089E-03     29.9097E-03    -14.8008E-03     34.5009E-03    -15.0713E-03     29.6521E-03    -14.6855E-03     34.4970E-03
            1575     7.98202E-03     45.6860E-03    -6.25528E+06    -55.0577E+06     6.21185E+06     98.8316E+03    -15.0250E-03     29.8225E-03    -14.7975E-03     30.2375E-03    -14.9881E-03     29.5499E-03    -14.6775E-03     30.2326E-03
            1576     7.09511E-03     45.6599E-03    -7.69575E+06    -56.6276E+06     5.04849E+06     61.9918E+03    -14.9374E-03     29.7258E-03    -14.7885E-03     26.1874E-03    -14.9028E-03     29.4483E-03    -14.6700E-03     26.1834E-03
            1577     6.20832E-03     45.6372E-03    -9.29642E+06    -57.8779E+06     3.35519E+06     101.715E+03    -14.8653E-03     29.6431E-03    -14.7778E-03     22.3822E-03    -14.8339E-03     29.3635E-03    -14.6636E-03     22.3797E-03
            1578     5.32140E-03     45.6181E-03    -11.1723E+06    -59.3380E+06     649.258E+03     50.1497E+03    -14.8032E-03     29.5674E-03    -14.7642E-03     18.7871E-03    -14.7748E-03     29.2867E-03    -14.6587E-03     18.7847E-03
            1579     4.43455E-03     45.6022E-03    -13.1444E+06    -61.1794E+06    -3.00696E+06     17.2397E+03    -14.7589E-03     29.5067E-03    -14.7479E-03     15.3915E-03    -14.7320E-03     29.2248E-03    -14.6551E-03     15.3894E-03
            1580     3.54762E-03     45.5893E-03    -15.1452E+06    -63.0557E+06    -7.52276E+06    -16.1744E+03    -14.7252E-03     29.4536E-03    -14.7284E-03     12.1582E-03    -14.6989E-03     29.1715E-03    -14.6527E-03     12.1562E-03
            1581     2.66074E-03     45.5795E-03    -16.9331E+06    -65.4143E+06    -12.1019E+06    -58.0634E+03    -14.7030E-03     29.4132E-03    -14.7102E-03     9.05589E-03    -14.6754E-03     29.1284E-03    -14.6513E-03     9.05384E-03
            1582     1.77380E-03     45.5724E-03    -18.3318E+06    -67.6292E+06    -15.9866E+06    -42.2945E+03    -14.6925E-03     29.3875E-03    -14.6950E-03     6.07037E-03    -14.6630E-03     29.0992E-03    -14.6503E-03     6.06897E-03
            1583     886.936E-06     45.5681E-03    -19.2178E+06    -69.1829E+06    -18.5867E+06    -12.4720E+03    -14.6930E-03     29.3688E-03    -14.6758E-03     3.29127E-03    -14.6618E-03     29.0777E-03    -14.6406E-03     3.29065E-03
            1584     16.8513E-03     45.3016E-03    -2.34904E+06     129.578E+06     22.6899E+06    -90.4281E+03    -16.5168E-03     31.1604E-03    -14.6436E-03     102.280E-03    -17.5843E-03     32.6137E-03    -14.7146E-03     102.890E-03
            1585     15.9624E-03     45.1730E-03    -2.63354E+06     73.3751E+06    -20.1198E+06     72.7176E+03    -17.6323E-03     32.1514E-03    -14.5191E-03     119.182E-03    -18.4381E-03     33.2666E-03    -14.7222E-03     119.404E-03
            1586     15.0772E-03     45.0802E-03    -1.56576E+06     27.1788E+06    -7.69507E+06     366.878E+03    -16.3949E-03     31.0436E-03    -14.6487E-03     84.5463E-03    -16.6206E-03     31.3825E-03    -14.7243E-03     84.5335E-03
            1587     14.1892E-03     45.0154E-03    -892.775E+03    -7.64681E+06    -5.13712E+06     368.432E+03    -15.8302E-03     30.5402E-03    -14.7100E-03     66.2723E-03    -15.8908E-03     30.5854E-03    -14.7233E-03     66.2422E-03
            1588     13.3027E-03     44.9569E-03    -935.184E+03    -28.6690E+06    -4.79570E+06     2.52812E+03    -15.7919E-03     30.5296E-03    -14.7376E-03     61.2964E-03    -15.7936E-03     30.4401E-03    -14.7187E-03     61.2641E-03
            1589     12.4162E-03     44.9017E-03    -1.18656E+06    -32.6535E+06     3.90534E+06    -279.804E+03    -15.6631E-03     30.4417E-03    -14.7786E-03     55.5609E-03    -15.6542E-03     30.3013E-03    -14.7100E-03     55.5321E-03
            1590     11.5290E-03     44.8542E-03    -2.31699E+06    -42.0821E+06     3.76003E+06    -101.919E+03    -15.4646E-03     30.2474E-03    -14.7828E-03     48.2832E-03    -15.4362E-03     30.0505E-03    -14.6996E-03     48.2629E-03
            1591     10.6426E-03     44.8118E-03    -4.11093E+06    -50.5269E+06     4.43985E+06     331.981E+03    -15.3145E-03     30.1061E-03    -14.7915E-03     43.2588E-03    -15.2778E-03     29.8626E-03    -14.6901E-03     43.2489E-03
            1592     9.75565E-03     44.7739E-03    -4.67998E+06    -49.1979E+06     6.79546E+06     443.921E+03    -15.2019E-03     29.9953E-03    -14.7934E-03     38.8521E-03    -15.1699E-03     29.7523E-03    -14.6813E-03     38.8472E-03
            1593     8.86894E-03     44.7396E-03    -5.10644E+06    -51.4156E+06     6.72765E+06     309.187E+03    -15.1388E-03     29.9249E-03    -14.7861E-03     34.4156E-03    -15.1035E-03     29.6694E-03    -14.6705E-03     34.4114E-03
            1594     7.98212E-03     44.7097E-03    -6.24561E+06    -54.9199E+06     6.32872E+06     162.532E+03    -15.0261E-03     29.8052E-03    -14.7791E-03     30.1441E-03    -14.9895E-03     29.5331E-03    -14.6588E-03     30.1400E-03
            1595     7.09531E-03     44.6834E-03    -7.82976E+06    -56.5229E+06     4.93178E+06     22.1976E+03    -14.9289E-03     29.6960E-03    -14.7671E-03     26.1296E-03    -14.8949E-03     29.4193E-03    -14.6492E-03     26.1250E-03
            1596     6.20841E-03     44.6609E-03     -9.4657E+06    -57.9632E+06     3.29662E+06    -48.7638E+03    -14.8540E-03     29.6093E-03    -14.7553E-03     22.3151E-03    -14.8232E-03     29.3296E-03    -14.6411E-03     22.3106E-03
            1597     5.32157E-03     44.6417E-03    -11.2330E+06    -59.2704E+06     739.845E+03     26.5148E+03    -14.7884E-03     29.5287E-03    -14.7403E-03     18.7291E-03    -14.7605E-03     29.2483E-03    -14.6344E-03     18.7264E-03
            1598     4.43463E-03     44.6259E-03    -13.2412E+06    -61.1914E+06    -3.09062E+06     9.65586E+03    -14.7392E-03     29.4609E-03    -14.7217E-03     15.3398E-03    -14.7127E-03     29.1791E-03    -14.6292E-03     15.3375E-03
            1599     3.54774E-03     44.6131E-03    -15.1740E+06    -62.9855E+06    -7.57627E+06    -11.2576E+03    -14.7024E-03     29.4033E-03    -14.7009E-03     12.1138E-03    -14.6763E-03     29.1216E-03    -14.6254E-03     12.1118E-03
            1600     2.66079E-03     44.6032E-03    -16.9106E+06    -65.4390E+06    -12.0930E+06    -47.3468E+03    -14.6787E-03     29.3604E-03    -14.6817E-03     9.02033E-03    -14.6510E-03     29.0754E-03    -14.6228E-03     9.01842E-03
            1601     1.77389E-03     44.5962E-03    -18.3004E+06    -67.6925E+06    -15.9747E+06    -36.6905E+03    -14.6650E-03     29.3302E-03    -14.6652E-03     6.04734E-03    -14.6352E-03     29.0415E-03    -14.6204E-03     6.04601E-03
            1602     886.915E-06     44.5919E-03    -19.2023E+06    -69.2081E+06    -18.5937E+06    -35.9555E+03    -14.6534E-03     29.3081E-03    -14.6547E-03     3.26622E-03    -14.6221E-03     29.0170E-03    -14.6195E-03     3.26530E-03
            1603     16.8491E-03     44.3260E-03    -2.38988E+06     129.407E+06     22.4229E+06    -101.593E+03    -16.4741E-03     31.1223E-03    -14.6482E-03     102.397E-03    -17.5433E-03     32.5773E-03    -14.7202E-03     103.007E-03
            1604     15.9637E-03     44.1956E-03    -2.63912E+06     73.1899E+06    -20.4610E+06    -132.076E+03    -17.7918E-03     32.3121E-03    -14.5203E-03     119.195E-03    -18.5985E-03     33.4286E-03    -14.7249E-03     119.412E-03
            1605     15.0759E-03     44.1036E-03    -1.65717E+06     27.3312E+06    -7.70610E+06     35.1369E+03    -16.5132E-03     31.1563E-03    -14.6431E-03     84.4589E-03    -16.7392E-03     31.4958E-03    -14.7189E-03     84.4409E-03
            1606     14.1901E-03     44.0389E-03    -615.713E+03    -7.67243E+06    -5.12810E+06    -27.3747E+03    -15.7957E-03     30.4971E-03    -14.7014E-03     66.3050E-03    -15.8545E-03     30.5414E-03    -14.7150E-03     66.2701E-03
            1607     13.3027E-03     43.9805E-03     92.9869E+03    -28.7181E+06    -4.09709E+06     152.445E+03    -15.7451E-03     30.4790E-03    -14.7338E-03     61.2830E-03    -15.7424E-03     30.3866E-03    -14.7128E-03     61.2529E-03
            1608     12.4157E-03     43.9249E-03    -885.162E+03    -32.8326E+06     4.88353E+06     571.747E+03    -15.6794E-03     30.4573E-03    -14.7779E-03     55.2999E-03    -15.6700E-03     30.3140E-03    -14.7046E-03     55.2820E-03
            1609     11.5297E-03     43.8774E-03    -2.14711E+06    -42.3561E+06     4.64893E+06     863.276E+03    -15.4865E-03     30.2661E-03    -14.7797E-03     48.0659E-03    -15.4580E-03     30.0662E-03    -14.6919E-03     48.0581E-03
            1610     10.6425E-03     43.8356E-03    -2.98755E+06    -49.8398E+06     5.54571E+06     612.581E+03    -15.3458E-03     30.1295E-03    -14.7837E-03     43.2125E-03    -15.3061E-03     29.8862E-03    -14.6794E-03     43.2062E-03
            1611     9.75585E-03     43.7971E-03    -4.02204E+06    -48.9609E+06     7.07217E+06    -28.2126E+03    -15.2627E-03     30.0404E-03    -14.7776E-03     38.7925E-03    -15.2282E-03     29.7973E-03    -14.6654E-03     38.7815E-03
            1612     8.86912E-03     43.7632E-03    -4.99560E+06    -51.5805E+06     6.76356E+06    -20.0897E+03    -15.1348E-03     29.9010E-03    -14.7662E-03     34.2893E-03    -15.0988E-03     29.6445E-03    -14.6503E-03     34.2809E-03
            1613     7.98230E-03     43.7331E-03    -6.16238E+06    -54.8256E+06     6.54774E+06     191.649E+03    -15.0182E-03     29.7763E-03    -14.7581E-03     30.0594E-03    -14.9816E-03     29.5042E-03    -14.6369E-03     30.0557E-03
            1614     7.09546E-03     43.7070E-03    -7.64004E+06    -56.3184E+06     5.11079E+06     71.6632E+03    -14.9255E-03     29.6689E-03    -14.7434E-03     26.0483E-03    -14.8912E-03     29.3927E-03    -14.6251E-03     26.0444E-03
            1615     6.20860E-03     43.6845E-03    -9.43574E+06    -57.9509E+06     3.25331E+06    -79.1074E+03    -14.8393E-03     29.5680E-03    -14.7288E-03     22.2429E-03    -14.8083E-03     29.2884E-03    -14.6148E-03     22.2380E-03
            1616     5.32169E-03     43.6654E-03    -11.3831E+06    -59.4083E+06     627.109E+03    -54.1025E+03    -14.7713E-03     29.4832E-03    -14.7120E-03     18.6607E-03    -14.7437E-03     29.2025E-03    -14.6062E-03     18.6570E-03
            1617     4.43479E-03     43.6496E-03    -13.3318E+06    -61.1007E+06    -3.15699E+06     3.47940E+03    -14.7161E-03     29.4075E-03    -14.6914E-03     15.2779E-03    -14.6901E-03     29.1264E-03    -14.5993E-03     15.2756E-03
            1618     3.54783E-03     43.6368E-03    -15.2673E+06    -62.9865E+06    -7.68207E+06    -75.6996E+03    -14.6762E-03     29.3452E-03    -14.6690E-03     12.0609E-03    -14.6503E-03     29.0638E-03    -14.5940E-03     12.0582E-03
            1619     2.66091E-03     43.6270E-03    -16.9563E+06    -65.4607E+06    -12.1857E+06    -59.1457E+03    -14.6506E-03     29.2989E-03    -14.6482E-03     8.97619E-03    -14.6230E-03     29.0140E-03    -14.5897E-03     8.97413E-03
            1620     1.77392E-03     43.6200E-03    -18.3203E+06    -67.7502E+06    -15.9992E+06    -34.7381E+03    -14.6331E-03     29.2637E-03    -14.6305E-03     6.01428E-03    -14.6034E-03     28.9747E-03    -14.5857E-03     6.01299E-03
            1621     886.994E-06     43.6157E-03    -19.1816E+06    -69.2475E+06    -18.6127E+06     -2.3595E+03    -14.6130E-03     29.2373E-03    -14.6243E-03     3.23126E-03    -14.5815E-03     28.9459E-03    -14.5892E-03     3.23079E-03
            1622     16.8506E-03     43.3490E-03    -2.45517E+06     129.702E+06     22.3688E+06    -83.0157E+03    -16.5165E-03     31.1692E-03    -14.6527E-03     102.575E-03    -17.5874E-03     32.6270E-03    -14.7254E-03     103.183E-03
            1623     15.9628E-03     43.2187E-03    -2.89360E+06     73.1117E+06    -20.6252E+06     16.8177E+03    -17.8551E-03     32.3782E-03    -14.5231E-03     119.281E-03    -18.6632E-03     33.4954E-03    -14.7281E-03     119.496E-03
            1624     15.0771E-03     43.1270E-03    -2.22477E+06     27.1277E+06    -7.98393E+06    -191.779E+03    -16.4954E-03     31.1404E-03    -14.6450E-03     84.4494E-03    -16.7229E-03     31.4795E-03    -14.7211E-03     84.4285E-03
            1625     14.1893E-03     43.0621E-03    -2.08431E+06    -7.74802E+06    -5.38763E+06    -416.346E+03    -15.9852E-03     30.6840E-03    -14.6988E-03     66.3076E-03    -16.0514E-03     30.7309E-03    -14.7114E-03     66.2670E-03
            1626     13.3030E-03     43.0041E-03    -1.91945E+06    -29.3467E+06    -4.65382E+06     198.495E+03    -15.8655E-03     30.5856E-03    -14.7201E-03     61.1321E-03    -15.8711E-03     30.4937E-03    -14.6980E-03     61.1023E-03
            1627     12.4167E-03     42.9479E-03    -1.74152E+06    -33.2309E+06     4.54249E+06     810.719E+03    -15.5601E-03     30.3219E-03    -14.7618E-03     55.2704E-03    -15.5536E-03     30.1782E-03    -14.6884E-03     55.2559E-03
            1628     11.5292E-03     42.9011E-03    -1.81364E+06    -42.1807E+06     4.65021E+06     834.390E+03    -15.4574E-03     30.2244E-03    -14.7670E-03     48.0448E-03    -15.4274E-03     30.0247E-03    -14.6800E-03     48.0367E-03
            1629     10.6428E-03     42.8587E-03    -2.06548E+06    -49.1126E+06     6.06561E+06     589.465E+03    -15.4503E-03     30.2180E-03    -14.7677E-03     43.1130E-03    -15.4078E-03     29.9762E-03    -14.6632E-03     43.1062E-03
            1630     9.75614E-03     42.8206E-03    -3.11907E+06    -48.5041E+06     7.62193E+06     310.716E+03    -15.2715E-03     30.0272E-03    -14.7557E-03     38.6067E-03    -15.2339E-03     29.7842E-03    -14.6428E-03     38.6000E-03
            1631     8.86930E-03     42.7866E-03    -4.70084E+06    -51.7522E+06     6.79765E+06     82.5100E+03    -15.1120E-03     29.8540E-03    -14.7420E-03     34.1921E-03    -15.0742E-03     29.5961E-03    -14.6261E-03     34.1851E-03
            1632     7.98251E-03     42.7568E-03    -6.06539E+06    -54.8440E+06     6.60083E+06     53.5681E+03    -15.0154E-03     29.7481E-03    -14.7327E-03     29.9718E-03    -14.9784E-03     29.4756E-03    -14.6113E-03     29.9663E-03
            1633     7.09566E-03     42.7306E-03    -7.46766E+06    -56.2099E+06     5.31206E+06     87.5778E+03    -14.9151E-03     29.6310E-03    -14.7159E-03     25.9492E-03    -14.8803E-03     29.3548E-03    -14.5970E-03     25.9455E-03
            1634     6.20878E-03     42.7082E-03    -9.19456E+06    -57.8465E+06     3.37052E+06     53.3665E+03    -14.8279E-03     29.5261E-03    -14.6983E-03     22.1553E-03    -14.7960E-03     29.2465E-03    -14.5842E-03     22.1522E-03
            1635     5.32188E-03     42.6892E-03    -11.1787E+06    -59.4808E+06     657.468E+03    -29.0089E+03    -14.7530E-03     29.4317E-03    -14.6788E-03     18.5737E-03    -14.7243E-03     29.1503E-03    -14.5730E-03     18.5703E-03
            1636     4.43493E-03     42.6734E-03    -13.2289E+06    -61.0890E+06    -3.06082E+06    -39.0839E+03    -14.6915E-03     29.3477E-03    -14.6562E-03     15.1971E-03    -14.6651E-03     29.0664E-03    -14.5637E-03     15.1942E-03
            1637     3.54798E-03     42.6606E-03    -15.2082E+06    -62.9471E+06    -7.69241E+06    -35.9326E+03    -14.6451E-03     29.2765E-03    -14.6314E-03     11.9941E-03    -14.6190E-03     28.9952E-03    -14.5565E-03     11.9919E-03
            1638     2.66098E-03     42.6509E-03    -17.0151E+06    -65.5274E+06      -12.32E+06    -68.9538E+03    -14.6164E-03     29.2251E-03    -14.6086E-03     8.92432E-03    -14.5888E-03     28.9401E-03    -14.5505E-03     8.92214E-03
            1639     1.77402E-03     42.6439E-03    -18.3466E+06    -67.7813E+06    -16.0794E+06    -61.2647E+03    -14.5957E-03     29.1850E-03    -14.5893E-03     5.97210E-03    -14.5659E-03     28.8961E-03    -14.5448E-03     5.97047E-03
            1640     886.987E-06     42.6396E-03    -19.1963E+06    -69.3169E+06    -18.5292E+06    -36.0810E+03    -14.5790E-03     29.1542E-03    -14.5752E-03     3.20057E-03    -14.5476E-03     28.8623E-03    -14.5395E-03     3.19966E-03
            1641     16.8492E-03     42.3724E-03    -2.42988E+06     129.787E+06     22.5881E+06     141.241E+03    -16.5129E-03     31.1649E-03    -14.6520E-03     102.854E-03    -17.5846E-03     32.6233E-03    -14.7238E-03     103.467E-03
            1642     15.9634E-03     42.2415E-03    -2.75597E+06     73.3355E+06    -20.2150E+06    -7.20884E+03    -17.7916E-03     32.3163E-03    -14.5247E-03     119.028E-03    -18.5975E-03     33.4314E-03    -14.7281E-03     119.245E-03
            1643     15.0756E-03     42.1505E-03    -2.04952E+06     27.2000E+06    -7.66433E+06    -179.076E+03    -16.5557E-03     31.2013E-03    -14.6456E-03     84.1709E-03    -16.7822E-03     31.5393E-03    -14.7204E-03     84.1498E-03
            1644     14.1899E-03     42.0850E-03    -2.44700E+06    -8.00518E+06    -5.71557E+06     79.6454E+03    -16.0633E-03     30.7558E-03    -14.6925E-03     66.2231E-03    -16.1303E-03     30.8022E-03    -14.7059E-03     66.1885E-03
            1645     13.3035E-03     42.0271E-03    -1.87724E+06    -29.8011E+06    -5.16685E+06    -5.78930E+03    -15.9052E-03     30.6135E-03    -14.7083E-03     61.1454E-03    -15.9091E-03     30.5200E-03    -14.6882E-03     61.1128E-03
            1646     12.4161E-03     41.9719E-03    -1.42198E+06    -33.3496E+06     4.39229E+06     300.687E+03    -15.6397E-03     30.3859E-03    -14.7461E-03     55.3105E-03    -15.6313E-03     30.2413E-03    -14.6738E-03     55.2894E-03
            1647     11.5297E-03     41.9243E-03    -2.46455E+06    -41.9873E+06     4.28032E+06     636.031E+03    -15.5228E-03     30.2672E-03    -14.7444E-03     47.9550E-03    -15.4958E-03     30.0699E-03    -14.6585E-03     47.9443E-03
            1648     10.6431E-03     41.8820E-03     -2.9453E+06    -49.3249E+06     5.56655E+06     463.113E+03    -15.4280E-03     30.1693E-03    -14.7413E-03     42.9258E-03    -15.3888E-03     29.9284E-03    -14.6377E-03     42.9175E-03
            1649     9.75635E-03     41.8441E-03    -3.50309E+06    -48.3181E+06     7.62326E+06     509.178E+03    -15.2381E-03     29.9684E-03    -14.7303E-03     38.4774E-03    -15.2026E-03     29.7268E-03    -14.6170E-03     38.4733E-03
            1650     8.86956E-03     41.8102E-03    -4.44075E+06    -51.3636E+06     7.00538E+06     283.466E+03    -15.1157E-03     29.8305E-03    -14.7149E-03     34.1162E-03    -15.0775E-03     29.5739E-03    -14.5989E-03     34.1119E-03
            1651     7.98274E-03     41.7803E-03    -5.80735E+06    -54.9089E+06     6.56009E+06     91.1642E+03    -15.0111E-03     29.7130E-03    -14.7019E-03     29.8562E-03    -14.9726E-03     29.4399E-03    -14.5811E-03     29.8513E-03
            1652     7.09590E-03     41.7544E-03    -7.45008E+06    -56.1906E+06     5.24978E+06     121.252E+03    -14.9054E-03     29.5877E-03    -14.6823E-03     25.8388E-03    -14.8705E-03     29.3116E-03    -14.5638E-03     25.8356E-03
            1653     6.20900E-03     41.7319E-03    -9.20316E+06    -57.8080E+06     3.44712E+06     123.121E+03    -14.8146E-03     29.4766E-03    -14.6620E-03     22.0392E-03    -14.7830E-03     29.1971E-03    -14.5476E-03     22.0371E-03
            1654     5.32209E-03     41.7130E-03    -11.1624E+06    -59.3743E+06     699.394E+03     91.1107E+03    -14.7310E-03     29.3698E-03    -14.6388E-03     18.4630E-03    -14.7025E-03     29.0889E-03    -14.5330E-03     18.4612E-03
            1655     4.43513E-03     41.6972E-03    -13.2598E+06    -61.0864E+06    -3.18814E+06    -3.68214E+03    -14.6609E-03     29.2736E-03    -14.6127E-03     15.1005E-03    -14.6345E-03     28.9925E-03    -14.5209E-03     15.0981E-03
            1656     3.54813E-03     41.6846E-03    -15.2376E+06    -62.9568E+06    -7.69721E+06    -14.4415E+03    -14.6086E-03     29.1946E-03    -14.5860E-03     11.9112E-03    -14.5826E-03     28.9134E-03    -14.5111E-03     11.9093E-03
            1657     2.66113E-03     41.6748E-03    -16.9315E+06    -65.4922E+06    -12.2143E+06    -35.8403E+03    -14.5731E-03     29.1349E-03    -14.5618E-03     8.85865E-03    -14.5452E-03     28.8498E-03    -14.5033E-03     8.85691E-03
            1658     1.77408E-03     41.6679E-03    -18.3147E+06    -67.8412E+06    -16.0238E+06    -92.2685E+03    -14.5490E-03     29.0904E-03    -14.5414E-03     5.92186E-03    -14.5190E-03     28.8010E-03    -14.4966E-03     5.91984E-03
            1659     887.072E-06     41.6637E-03    -19.1474E+06    -69.4229E+06    -18.5918E+06    -86.7995E+03    -14.5331E-03     29.0570E-03    -14.5239E-03     3.17302E-03    -14.5012E-03     28.7647E-03    -14.4885E-03     3.17147E-03
            1660     16.8508E-03     41.3954E-03    -2.54071E+06     129.674E+06     22.6778E+06     246.918E+03    -16.6627E-03     31.3045E-03    -14.6418E-03     102.647E-03    -17.7351E-03     32.7625E-03    -14.7128E-03     103.259E-03
            1661     15.9629E-03     41.2651E-03    -2.53555E+06     73.6119E+06    -19.8964E+06    -222.772E+03    -17.8146E-03     32.3231E-03    -14.5085E-03     118.759E-03    -18.6201E-03     33.4386E-03    -14.7110E-03     118.973E-03
            1662     15.0773E-03     41.1733E-03    -1.80564E+06     27.3745E+06    -7.43013E+06    -90.9606E+03    -16.5684E-03     31.1945E-03    -14.6261E-03     83.7052E-03    -16.7929E-03     31.5313E-03    -14.7003E-03     83.6846E-03
            1663     14.1899E-03     41.1084E-03    -1.28870E+06    -8.26823E+06    -5.10253E+06     253.328E+03    -15.8605E-03     30.5389E-03    -14.6783E-03     65.9007E-03    -15.9213E-03     30.5805E-03    -14.6900E-03     65.8690E-03
            1664     13.3027E-03     41.0505E-03    -1.78167E+06    -29.7409E+06    -4.54236E+06     279.838E+03    -15.8542E-03     30.5564E-03    -14.7022E-03     60.9872E-03    -15.8585E-03     30.4620E-03    -14.6792E-03     60.9584E-03
            1665     12.4169E-03     40.9950E-03    -2.60928E+06    -33.4109E+06     4.02958E+06     139.669E+03    -15.8435E-03     30.5736E-03    -14.7301E-03     55.1547E-03    -15.8405E-03     30.4310E-03    -14.6577E-03     55.1311E-03
            1666     11.5302E-03     40.9478E-03    -2.36065E+06    -42.2529E+06     4.28270E+06     223.403E+03    -15.5781E-03     30.2953E-03    -14.7172E-03     47.9236E-03    -15.5500E-03     30.0965E-03    -14.6311E-03     47.9076E-03
            1667     10.6434E-03     40.9055E-03    -2.59590E+06    -49.2741E+06     5.80565E+06     492.176E+03    -15.3445E-03     30.0582E-03    -14.7137E-03     42.8855E-03    -15.3038E-03     29.8165E-03    -14.6095E-03     42.8778E-03
            1668     9.75658E-03     40.8677E-03    -3.30492E+06    -48.3175E+06     7.61857E+06     295.421E+03    -15.2382E-03     29.9409E-03    -14.7028E-03     38.4057E-03    -15.2016E-03     29.6991E-03    -14.5898E-03     38.3990E-03
            1669     8.86984E-03     40.8337E-03    -4.35103E+06    -51.2193E+06     7.00530E+06     364.135E+03    -15.1380E-03     29.8213E-03    -14.6833E-03     33.9815E-03    -15.0995E-03     29.5652E-03    -14.5677E-03     33.9782E-03
            1670     7.98303E-03     40.8040E-03    -5.79222E+06    -54.7454E+06     6.48136E+06     337.226E+03    -15.0091E-03     29.6744E-03    -14.6653E-03     29.7241E-03    -14.9706E-03     29.4022E-03    -14.5451E-03     29.7223E-03
            1671     7.09617E-03     40.7780E-03    -7.41844E+06    -56.2241E+06     5.26893E+06     223.614E+03    -14.9016E-03     29.5436E-03    -14.6420E-03     25.6995E-03    -14.8665E-03     29.2673E-03    -14.5234E-03     25.6976E-03
            1672     6.20930E-03     40.7557E-03    -9.24654E+06    -57.7262E+06     3.43897E+06     228.515E+03    -14.7954E-03     29.4126E-03    -14.6172E-03     21.8964E-03    -14.7640E-03     29.1335E-03    -14.5029E-03     21.8956E-03
            1673     5.32233E-03     40.7368E-03    -11.2063E+06    -59.2513E+06     676.412E+03     121.470E+03    -14.7008E-03     29.2911E-03    -14.5902E-03     18.3340E-03    -14.6726E-03     29.0108E-03    -14.4847E-03     18.3326E-03
            1674     4.43535E-03     40.7212E-03    -13.1883E+06    -61.0277E+06    -3.11105E+06     65.2345E+03    -14.6251E-03     29.1864E-03    -14.5613E-03     14.9853E-03    -14.5985E-03     28.9054E-03    -14.4692E-03     14.9839E-03
            1675     3.54833E-03     40.7085E-03    -15.1755E+06    -62.9239E+06    -7.65015E+06    -11.3351E+03    -14.5644E-03     29.0958E-03    -14.5315E-03     11.8159E-03    -14.5382E-03     28.8146E-03    -14.4565E-03     11.8141E-03
            1676     2.66127E-03     40.6989E-03    -16.9246E+06    -65.4719E+06    -12.1433E+06    -62.5914E+03    -14.5199E-03     29.0253E-03    -14.5054E-03     8.78324E-03    -14.4922E-03     28.7403E-03    -14.4466E-03     8.78118E-03
            1677     1.77420E-03     40.6919E-03    -18.2711E+06    -67.8853E+06    -16.0054E+06    -54.3537E+03    -14.4908E-03     28.9752E-03    -14.4844E-03     5.86930E-03    -14.4605E-03     28.6856E-03    -14.4395E-03     5.86778E-03
            1678     887.089E-06     40.6878E-03    -19.2452E+06    -69.5326E+06    -18.6200E+06    -37.0506E+03    -14.4696E-03     28.9434E-03    -14.4739E-03     3.13417E-03    -14.4380E-03     28.6507E-03    -14.4383E-03     3.13327E-03
            1679     16.8501E-03     40.4192E-03    -2.11154E+06     129.768E+06     22.8234E+06    -26.8307E+03    -16.9014E-03     31.5327E-03    -14.6313E-03     102.707E-03    -17.9708E-03     32.9890E-03    -14.7023E-03     103.306E-03
            1680     15.9642E-03     40.2880E-03    -1.87875E+06     73.7455E+06    -19.9538E+06     134.244E+03    -17.8912E-03     32.3792E-03    -14.4880E-03     119.024E-03    -18.6922E-03     33.4931E-03    -14.6919E-03     119.236E-03
            1681     15.0769E-03     40.1964E-03    -2.07636E+06     26.9150E+06    -7.72490E+06     280.199E+03    -16.4477E-03     31.0557E-03    -14.6079E-03     84.0409E-03    -16.6730E-03     31.3915E-03    -14.6826E-03     84.0261E-03
            1682     14.1904E-03     40.1323E-03    -2.23275E+06    -8.19743E+06    -5.39333E+06     257.795E+03    -15.9306E-03     30.5918E-03    -14.6612E-03     66.0093E-03    -15.9959E-03     30.6356E-03    -14.6730E-03     65.9776E-03
            1683     13.3039E-03     40.0738E-03    -2.08309E+06    -29.4433E+06    -4.84136E+06     428.383E+03    -15.9127E-03     30.5909E-03    -14.6782E-03     60.9889E-03    -15.9183E-03     30.4987E-03    -14.6567E-03     60.9621E-03
            1684     12.4166E-03     40.0181E-03    -1.85373E+06    -33.3453E+06     4.22436E+06     199.795E+03    -15.7617E-03     30.4685E-03    -14.7068E-03     55.0522E-03    -15.7550E-03     30.3246E-03    -14.6347E-03     55.0296E-03
            1685     11.5303E-03     39.9710E-03    -1.99454E+06    -42.4455E+06     4.13158E+06    -88.4543E+03    -15.5626E-03     30.2577E-03    -14.6950E-03     47.8240E-03    -15.5321E-03     30.0574E-03    -14.6100E-03     47.8040E-03
            1686     10.6437E-03     39.9292E-03    -2.37893E+06    -49.2668E+06     5.50029E+06     44.9403E+03    -15.4157E-03     30.1022E-03    -14.6865E-03     42.8553E-03    -15.3735E-03     29.8607E-03    -14.5841E-03     42.8418E-03
            1687     9.75688E-03     39.8910E-03    -3.09302E+06    -48.3368E+06     7.62713E+06     403.400E+03    -15.2719E-03     29.9420E-03    -14.6701E-03     38.2960E-03    -15.2342E-03     29.6997E-03    -14.5574E-03     38.2907E-03
            1688     8.87018E-03     39.8574E-03    -4.48185E+06    -51.3477E+06     7.01393E+06     585.024E+03    -15.1443E-03     29.7901E-03    -14.6458E-03     33.7935E-03    -15.1062E-03     29.5335E-03    -14.5298E-03     33.7931E-03
            1689     7.98336E-03     39.8276E-03    -5.88121E+06    -54.4316E+06     6.60404E+06     475.449E+03    -15.0181E-03     29.6402E-03    -14.6222E-03     29.5628E-03    -14.9806E-03     29.3695E-03    -14.5017E-03     29.5628E-03
            1690     7.09654E-03     39.8018E-03    -7.44971E+06    -56.1887E+06     5.21334E+06     340.491E+03    -14.8914E-03     29.4841E-03    -14.5927E-03     25.5303E-03    -14.8564E-03     29.2080E-03    -14.4743E-03     25.5300E-03
            1691     6.20961E-03     39.7795E-03    -9.15564E+06    -57.5908E+06     3.48451E+06     260.041E+03    -14.7708E-03     29.3340E-03    -14.5632E-03     21.7352E-03    -14.7392E-03     29.0553E-03    -14.4490E-03     21.7349E-03
            1692     5.32266E-03     39.7608E-03    -11.0501E+06    -59.1137E+06     814.330E+03     170.704E+03    -14.6656E-03     29.1981E-03    -14.5325E-03     18.1846E-03    -14.6371E-03     28.9181E-03    -14.4267E-03     18.1838E-03
            1693     4.43562E-03     39.7452E-03    -13.1312E+06    -60.9779E+06    -2.99993E+06     91.8149E+03    -14.5786E-03     29.0787E-03    -14.5000E-03     14.8541E-03    -14.5520E-03     28.7976E-03    -14.4076E-03     14.8530E-03
            1694     3.54856E-03     39.7327E-03    -15.1030E+06    -62.7965E+06    -7.54753E+06     24.0875E+03    -14.5082E-03     28.9756E-03    -14.4673E-03     11.7064E-03    -14.4820E-03     28.6947E-03    -14.3921E-03     11.7050E-03
            1695     2.66145E-03     39.7230E-03    -16.8718E+06    -65.5041E+06    -12.1703E+06    -42.3117E+03    -14.4586E-03     28.8975E-03    -14.4389E-03     8.70018E-03    -14.4304E-03     28.6122E-03    -14.3803E-03     8.69839E-03
            1696     1.77431E-03     39.7162E-03    -18.2920E+06    -67.9485E+06    -16.0621E+06        -393.697    -14.4249E-03     28.8415E-03    -14.4167E-03     5.80654E-03    -14.3946E-03     28.5517E-03    -14.3719E-03     5.80573E-03
            1697     887.165E-06     39.7120E-03    -19.1396E+06    -69.5361E+06    -18.6037E+06     14.3445E+03    -14.3956E-03     28.8077E-03    -14.4120E-03     3.09983E-03    -14.3636E-03     28.5148E-03    -14.3765E-03     3.09959E-03
            1698     16.8504E-03     39.4407E-03    -2.89024E+06     130.045E+06     22.0366E+06    -179.716E+03    -16.8521E-03     31.4786E-03    -14.6264E-03     102.815E-03    -17.9236E-03     32.9375E-03    -14.7006E-03     103.413E-03
            1699     15.9639E-03     39.3118E-03    -3.02088E+06     73.2875E+06    -20.5622E+06     31.8353E+03    -17.8613E-03     32.3489E-03    -14.4876E-03     118.997E-03    -18.6643E-03     33.4610E-03    -14.6923E-03     119.209E-03
            1700     15.0769E-03     39.2200E-03    -1.91317E+06     26.7346E+06    -7.50417E+06     442.793E+03    -16.4721E-03     31.0816E-03    -14.6096E-03     84.1962E-03    -16.6966E-03     31.4161E-03    -14.6831E-03     84.1834E-03
            1701     14.1901E-03     39.1551E-03    -1.81377E+06    -7.82162E+06    -5.63128E+06     515.364E+03    -16.1391E-03     30.7916E-03    -14.6525E-03     66.2636E-03    -16.2030E-03     30.8376E-03    -14.6667E-03     66.2345E-03
            1702     13.3038E-03     39.0972E-03    -1.32358E+06    -29.8088E+06    -5.61858E+06     158.143E+03    -16.1044E-03     30.7587E-03    -14.6543E-03     61.0940E-03    -16.1047E-03     30.6648E-03    -14.6372E-03     61.0633E-03
            1703     12.4176E-03     39.0415E-03    -1.32595E+06    -33.3703E+06     4.24703E+06     331.502E+03    -15.7035E-03     30.3847E-03    -14.6812E-03     54.9674E-03    -15.6940E-03     30.2397E-03    -14.6097E-03     54.9467E-03
            1704     11.5304E-03     38.9945E-03    -2.26967E+06    -42.0381E+06     3.90521E+06     326.172E+03    -15.5417E-03     30.2113E-03    -14.6696E-03     47.6874E-03    -15.5128E-03     30.0138E-03    -14.5859E-03     47.6729E-03
            1705     10.6439E-03     38.9524E-03    -3.22303E+06    -49.5682E+06     4.74808E+06    -100.900E+03    -15.5136E-03     30.1679E-03    -14.6543E-03     42.6469E-03    -15.4741E-03     29.9272E-03    -14.5540E-03     42.6315E-03
            1706     9.75737E-03     38.9147E-03    -4.23215E+06    -48.6450E+06     7.09892E+06     300.267E+03    -15.3120E-03     29.9419E-03    -14.6299E-03     38.0850E-03    -15.2788E-03     29.7004E-03    -14.5177E-03     38.0784E-03
            1707     8.87054E-03     38.8809E-03    -4.88583E+06    -51.2033E+06     6.90971E+06     469.431E+03    -15.1463E-03     29.7456E-03    -14.5993E-03     33.6325E-03    -15.1102E-03     29.4904E-03    -14.4834E-03     33.6307E-03
            1708     7.98382E-03     38.8514E-03    -5.93775E+06    -54.3922E+06     6.63773E+06     483.831E+03    -15.0211E-03     29.5912E-03    -14.5701E-03     29.3634E-03    -14.9841E-03     29.3207E-03    -14.4494E-03     29.3636E-03
            1709     7.09693E-03     38.8256E-03    -7.41762E+06    -55.9596E+06     5.25139E+06     434.768E+03    -14.8741E-03     29.4083E-03    -14.5342E-03     25.3365E-03    -14.8393E-03     29.1333E-03    -14.4160E-03     25.3375E-03
            1710     6.21003E-03     38.8035E-03    -9.19628E+06    -57.4785E+06     3.45670E+06     272.760E+03    -14.7398E-03     29.2392E-03    -14.4994E-03     21.5533E-03    -14.7085E-03     28.9612E-03    -14.3855E-03     21.5531E-03
            1711     5.32301E-03     38.7848E-03    -11.1620E+06    -59.0103E+06     785.428E+03     236.631E+03    -14.6209E-03     29.0850E-03    -14.4642E-03     18.0182E-03    -14.5930E-03     28.8058E-03    -14.3585E-03     18.0184E-03
            1712     4.43596E-03     38.7694E-03    -13.1925E+06    -60.8211E+06    -3.10214E+06     135.000E+03    -14.5205E-03     28.9480E-03    -14.4275E-03     14.7105E-03    -14.4942E-03     28.6680E-03    -14.3357E-03     14.7100E-03
            1713     3.54882E-03     38.7569E-03    -15.1475E+06    -62.7164E+06    -7.71917E+06     9.87301E+03    -14.4417E-03     28.8336E-03    -14.3920E-03     11.5867E-03    -14.4155E-03     28.5535E-03    -14.3177E-03     11.5852E-03
            1714     2.66165E-03     38.7473E-03    -16.8407E+06    -65.5392E+06    -12.2235E+06     18.5159E+03    -14.3877E-03     28.7499E-03    -14.3622E-03     8.60813E-03    -14.3593E-03     28.4645E-03    -14.3038E-03     8.60714E-03
            1715     1.77445E-03     38.7405E-03    -18.1882E+06    -67.9693E+06    -15.9412E+06     40.2637E+03    -14.3494E-03     28.6885E-03    -14.3391E-03     5.74155E-03    -14.3187E-03     28.3982E-03    -14.2939E-03     5.74128E-03
            1716     887.234E-06     38.7364E-03    -19.0823E+06    -69.4860E+06    -18.4769E+06     38.9321E+03    -14.3208E-03     28.6508E-03    -14.3300E-03     3.06947E-03    -14.2887E-03     28.3579E-03    -14.2940E-03     3.06956E-03
            1717     16.8506E-03     38.4652E-03    -2.31571E+06     130.120E+06     22.1326E+06     115.607E+03    -16.7704E-03     31.3950E-03    -14.6246E-03     102.446E-03    -17.8370E-03     32.8511E-03    -14.6992E-03     103.050E-03
            1718     15.9631E-03     38.3339E-03    -2.58494E+06     73.0339E+06    -20.8724E+06     85.6859E+03    -17.7218E-03     32.2116E-03    -14.4899E-03     118.763E-03    -18.5209E-03     33.3214E-03    -14.6964E-03     118.980E-03
            1719     15.0771E-03     38.2437E-03    -2.14055E+06     26.3585E+06    -8.02479E+06     8.50325E+03    -16.6883E-03     31.2975E-03    -14.6093E-03     84.1719E-03    -16.9123E-03     31.6308E-03    -14.6845E-03     84.1518E-03
            1720     14.1903E-03     38.1782E-03    -1.17922E+06    -7.70369E+06    -5.36278E+06     67.3294E+03    -16.2637E-03     30.9073E-03    -14.6435E-03     66.1730E-03    -16.3251E-03     30.9526E-03    -14.6575E-03     66.1376E-03
            1721     13.3041E-03     38.1199E-03    -983.222E+03    -29.9326E+06    -5.12652E+06     584.583E+03    -16.1308E-03     30.7721E-03    -14.6414E-03     60.7162E-03    -16.1296E-03     30.6761E-03    -14.6222E-03     60.6909E-03
            1722     12.4174E-03     38.0652E-03    -1.46096E+06    -33.5013E+06     4.21741E+06     814.547E+03    -15.8616E-03     30.5196E-03    -14.6580E-03     54.8019E-03    -15.8526E-03     30.3742E-03    -14.5862E-03     54.7872E-03
            1723     11.5310E-03     38.0179E-03    -2.11370E+06    -41.3735E+06     4.52096E+06     718.393E+03    -15.6455E-03     30.2814E-03    -14.6359E-03     47.5885E-03    -15.6177E-03     30.0861E-03    -14.5502E-03     47.5789E-03
            1724     10.6444E-03     37.9757E-03    -3.13467E+06    -49.3648E+06     5.14354E+06     389.363E+03    -15.5032E-03     30.1164E-03    -14.6132E-03     42.3860E-03    -15.4640E-03     29.8759E-03    -14.5113E-03     42.3770E-03
            1725     9.75773E-03     37.9382E-03    -3.96322E+06    -48.9292E+06     7.04159E+06     12.7821E+03    -15.3329E-03     29.9150E-03    -14.5821E-03     37.8430E-03    -15.2978E-03     29.6717E-03    -14.4702E-03     37.8327E-03
            1726     8.87109E-03     37.9046E-03    -4.97665E+06    -51.2967E+06     6.55598E+06     183.458E+03    -15.1703E-03     29.7132E-03    -14.5429E-03     33.4451E-03    -15.1341E-03     29.4582E-03    -14.4285E-03     33.4397E-03
            1727     7.98426E-03     37.8751E-03    -6.07036E+06    -54.4939E+06     6.39877E+06     356.965E+03    -15.0100E-03     29.5172E-03    -14.5072E-03     29.1428E-03    -14.9730E-03     29.2467E-03    -14.3874E-03     29.1414E-03
            1728     7.09745E-03     37.8495E-03    -7.47086E+06    -55.8019E+06     5.34511E+06     460.099E+03    -14.8518E-03     29.3181E-03    -14.4664E-03     25.1124E-03    -14.8176E-03     29.0438E-03    -14.3479E-03     25.1137E-03
            1729     6.21046E-03     37.8275E-03    -9.24355E+06    -57.2928E+06     3.49876E+06     411.688E+03    -14.6992E-03     29.1249E-03    -14.4257E-03     21.3463E-03    -14.6685E-03     28.8478E-03    -14.3117E-03     21.3480E-03
            1730     5.32344E-03     37.8090E-03    -11.2439E+06    -58.9114E+06     675.802E+03     274.639E+03    -14.5656E-03     28.9507E-03    -14.3851E-03     17.8302E-03    -14.5381E-03     28.6722E-03    -14.2800E-03     17.8309E-03
            1731     4.43630E-03     37.7936E-03    -13.2611E+06    -60.5892E+06    -3.30279E+06     151.639E+03    -14.4537E-03     28.7977E-03    -14.3440E-03     14.5469E-03    -14.4278E-03     28.5192E-03    -14.2535E-03     14.5467E-03
            1732     3.54913E-03     37.7813E-03    -15.1927E+06    -62.6686E+06    -7.91202E+06     39.8371E+03    -14.3671E-03     28.6726E-03    -14.3056E-03     11.4522E-03    -14.3409E-03     28.3931E-03    -14.2322E-03     11.4511E-03
            1733     2.66188E-03     37.7717E-03    -16.9032E+06    -65.5694E+06    -12.3149E+06     18.4114E+03    -14.3047E-03     28.5788E-03    -14.2740E-03     8.50343E-03    -14.2765E-03     28.2935E-03    -14.2160E-03     8.50247E-03
            1734     1.77461E-03     37.7650E-03    -18.2005E+06    -67.9517E+06    -15.9442E+06     28.6329E+03    -14.2606E-03     28.5109E-03    -14.2503E-03     5.66790E-03    -14.2300E-03     28.2207E-03    -14.2051E-03     5.66749E-03
            1735     887.302E-06     37.7609E-03    -19.0252E+06    -69.4326E+06    -18.4201E+06      26.233E+03    -14.2447E-03     28.4733E-03    -14.2286E-03     3.04073E-03    -14.2125E-03     28.1805E-03    -14.1924E-03     3.04066E-03
            1736     16.8506E-03     37.4875E-03    -2.00084E+06     129.557E+06     22.0875E+06     78.2495E+03    -16.8003E-03     31.4418E-03    -14.6415E-03     103.292E-03    -17.8723E-03     32.9026E-03    -14.7160E-03     103.896E-03
            1737     15.9642E-03     37.3585E-03    -2.44368E+06     73.0028E+06    -21.1407E+06     445.846E+03    -18.1975E-03     32.6897E-03    -14.4922E-03     118.783E-03    -18.9970E-03     33.8010E-03    -14.7003E-03     118.996E-03
            1738     15.0764E-03     37.2659E-03    -2.12355E+06     26.6806E+06     -8.3043E+06     136.166E+03    -16.8822E-03     31.4740E-03    -14.5918E-03     83.9008E-03    -17.1061E-03     31.8092E-03    -14.6689E-03     83.8815E-03
            1739     14.1911E-03     37.2012E-03    -2.17539E+06    -8.48168E+06    -5.82613E+06    -67.8495E+03    -16.2732E-03     30.8934E-03    -14.6202E-03     65.7029E-03    -16.3372E-03     30.9365E-03    -14.6339E-03     65.6658E-03
            1740     13.3042E-03     37.1434E-03    -2.12801E+06    -29.7340E+06    -5.14971E+06     472.710E+03    -16.0749E-03     30.6930E-03    -14.6181E-03     60.5591E-03    -16.0796E-03     30.5995E-03    -14.5976E-03     60.5326E-03
            1741     12.4179E-03     37.0881E-03    -1.99539E+06    -33.4343E+06     3.98610E+06     809.228E+03    -15.9903E-03     30.6180E-03    -14.6276E-03     54.5506E-03    -15.9837E-03     30.4740E-03    -14.5563E-03     54.5356E-03
            1742     11.5316E-03     37.0412E-03    -1.76232E+06    -41.4537E+06     4.39659E+06     656.510E+03    -15.7645E-03     30.3572E-03    -14.5927E-03     47.3682E-03    -15.7346E-03     30.1611E-03    -14.5081E-03     47.3577E-03
            1743     10.6449E-03     36.9993E-03    -1.89670E+06    -48.6796E+06     5.70637E+06     434.077E+03    -15.5120E-03     30.0743E-03    -14.5623E-03     42.2299E-03    -15.4683E-03     29.8345E-03    -14.4604E-03     42.2216E-03
            1744     9.75831E-03     36.9617E-03    -2.89364E+06    -49.0163E+06     7.34971E+06     375.312E+03    -15.3485E-03     29.8741E-03    -14.5256E-03     37.6446E-03    -15.3083E-03     29.6283E-03    -14.4136E-03     37.6391E-03
            1745     8.87162E-03     36.9283E-03    -4.39894E+06    -51.4255E+06     6.80254E+06     375.955E+03    -15.1944E-03     29.6736E-03    -14.4792E-03     33.1651E-03    -15.1554E-03     29.4166E-03    -14.3642E-03     33.1621E-03
            1746     7.98489E-03     36.8990E-03    -5.99329E+06    -54.3988E+06     6.30723E+06     359.182E+03    -14.9955E-03     29.4297E-03    -14.4343E-03     28.8919E-03    -14.9581E-03     29.1597E-03    -14.3151E-03     28.8907E-03
            1747     7.09797E-03     36.8735E-03    -7.52917E+06    -55.8957E+06     5.22740E+06     402.114E+03    -14.8170E-03     29.2045E-03    -14.3874E-03     24.8673E-03    -14.7828E-03     28.9299E-03    -14.2693E-03     24.8679E-03
            1748     6.21102E-03     36.8517E-03    -9.19601E+06    -57.0918E+06     3.55151E+06     495.354E+03    -14.6518E-03     28.9930E-03    -14.3412E-03     21.1136E-03    -14.6212E-03     28.7168E-03    -14.2274E-03     21.1164E-03
            1749     5.32390E-03     36.8333E-03    -11.1532E+06    -58.6984E+06     637.165E+03     372.481E+03    -14.5033E-03     28.7982E-03    -14.2949E-03     17.6168E-03    -14.4755E-03     28.5206E-03    -14.1904E-03     17.6188E-03
            1750     4.43674E-03     36.8181E-03    -13.2381E+06    -60.3941E+06    -3.36308E+06     213.045E+03    -14.3794E-03     28.6286E-03    -14.2493E-03     14.3595E-03    -14.3535E-03     28.3512E-03    -14.1593E-03     14.3601E-03
            1751     3.54946E-03     36.8058E-03    -15.2005E+06    -62.5495E+06    -7.94065E+06     82.2291E+03    -14.2817E-03     28.4890E-03    -14.2073E-03     11.2977E-03    -14.2557E-03     28.2100E-03    -14.1342E-03     11.2971E-03
            1752     2.66216E-03     36.7964E-03    -16.8600E+06    -65.5683E+06    -12.2919E+06     3.75334E+03    -14.2110E-03     28.3841E-03    -14.1731E-03     8.38296E-03    -14.1826E-03     28.0987E-03    -14.1151E-03     8.38183E-03
            1753     1.77479E-03     36.7897E-03    -18.1644E+06    -67.9556E+06    -16.0088E+06     8.07028E+03    -14.1623E-03     28.3087E-03    -14.1464E-03     5.58309E-03    -14.1315E-03     28.0185E-03    -14.1015E-03     5.58243E-03
            1754     887.409E-06     36.7857E-03    -18.9998E+06    -69.4001E+06    -18.4551E+06     20.2980E+03    -14.1330E-03     28.2633E-03    -14.1304E-03     3.00951E-03    -14.1006E-03     27.9707E-03    -14.0945E-03     3.00937E-03
            1755     16.8479E-03     36.5081E-03    -2.90428E+06     129.288E+06     22.2741E+06     534.263E+03    -16.9335E-03     31.5737E-03    -14.6402E-03     102.734E-03    -18.0060E-03     33.0303E-03    -14.7121E-03     103.335E-03
            1756     15.9631E-03     36.3811E-03    -4.72525E+06     72.6028E+06    -21.1429E+06    -662.196E+03    -18.4720E-03     32.9481E-03    -14.4761E-03     117.430E-03    -19.2767E-03     34.0550E-03    -14.6802E-03     117.620E-03
            1757     15.0785E-03     36.2886E-03    -3.06966E+06     26.8587E+06    -8.25009E+06     29.0646E+03    -16.9343E-03     31.4933E-03    -14.5590E-03     83.4902E-03    -17.1642E-03     31.8316E-03    -14.6347E-03     83.4690E-03
            1758     14.1910E-03     36.2247E-03    -2.52273E+06    -8.74552E+06    -6.06213E+06     408.257E+03    -16.1587E-03     30.7434E-03    -14.5846E-03     65.3954E-03    -16.2229E-03     30.7851E-03    -14.5986E-03     65.3647E-03
            1759     13.3048E-03     36.1664E-03    -2.23378E+06    -30.1882E+06    -5.76462E+06     94.7480E+03    -16.1271E-03     30.7067E-03    -14.5796E-03     60.3775E-03    -16.1306E-03     30.6118E-03    -14.5614E-03     60.3460E-03
            1760     12.4184E-03     36.1113E-03    -2.01213E+06    -33.4016E+06     3.29121E+06     17.2465E+03    -15.9805E-03     30.5642E-03    -14.5837E-03     54.4856E-03    -15.9728E-03     30.4211E-03    -14.5158E-03     54.4606E-03
            1761     11.5319E-03     36.0643E-03    -1.79584E+06    -41.2663E+06     3.79354E+06     27.8813E+03    -15.8074E-03     30.3516E-03    -14.5443E-03     47.1170E-03    -15.7769E-03     30.1573E-03    -14.4628E-03     47.0985E-03
            1762     10.6456E-03     36.0229E-03    -2.22913E+06    -48.9566E+06     5.23109E+06     467.918E+03    -15.5994E-03     30.1051E-03    -14.5058E-03     41.9824E-03    -15.5562E-03     29.8651E-03    -14.4054E-03     41.9745E-03
            1763     9.75894E-03     35.9853E-03    -3.32180E+06    -48.8234E+06     7.19875E+06     743.152E+03    -15.3820E-03     29.8412E-03    -14.4592E-03     37.4272E-03    -15.3439E-03     29.5971E-03    -14.3476E-03     37.4265E-03
            1764     8.87232E-03     35.9521E-03    -4.41620E+06    -51.3753E+06     6.84703E+06     645.168E+03    -15.1901E-03     29.5949E-03    -14.4048E-03     32.8695E-03    -15.1513E-03     29.3382E-03    -14.2897E-03     32.8702E-03
            1765     7.98552E-03     35.9229E-03    -5.85303E+06    -54.2366E+06     6.48968E+06     627.158E+03    -14.9805E-03     29.3330E-03    -14.3524E-03     28.5977E-03    -14.9429E-03     29.0632E-03    -14.2329E-03     28.6000E-03
            1766     7.09863E-03     35.8977E-03    -7.59044E+06    -55.8144E+06     4.90418E+06     491.498E+03    -14.7755E-03     29.0718E-03    -14.2963E-03     24.5995E-03    -14.7411E-03     28.7982E-03    -14.1799E-03     24.6014E-03
            1767     6.21158E-03     35.8760E-03    -9.34893E+06    -57.0889E+06     3.26234E+06     445.469E+03    -14.5965E-03     28.8407E-03    -14.2442E-03     20.8529E-03    -14.5662E-03     28.5651E-03    -14.1316E-03     20.8552E-03
            1768     5.32446E-03     35.8578E-03    -11.1775E+06    -58.3854E+06     653.107E+03     427.116E+03    -14.4344E-03     28.6271E-03    -14.1927E-03     17.3772E-03    -14.4072E-03     28.3511E-03    -14.0885E-03     17.3799E-03
            1769     4.43720E-03     35.8426E-03    -13.1017E+06    -60.2004E+06    -3.23540E+06     231.946E+03    -14.2961E-03     28.4381E-03    -14.1420E-03     14.1487E-03    -14.2700E-03     28.1612E-03    -14.0519E-03     14.1495E-03
            1770     3.54988E-03     35.8305E-03    -14.9514E+06    -62.3953E+06    -7.78278E+06     112.323E+03    -14.1854E-03     28.2809E-03    -14.0955E-03     11.1235E-03    -14.1586E-03     28.0021E-03    -14.0223E-03     11.1233E-03
            1771     2.66246E-03     35.8212E-03    -16.6650E+06    -65.5505E+06    -12.2054E+06     57.3706E+03    -14.1048E-03     28.1626E-03    -14.0578E-03     8.24832E-03    -14.0755E-03     27.8768E-03    -13.9996E-03     8.24790E-03
            1772     1.77501E-03     35.8146E-03    -18.0325E+06    -67.9449E+06    -15.8997E+06     57.0336E+03    -14.0499E-03     28.0782E-03    -14.0283E-03     5.49714E-03    -14.0186E-03     27.7877E-03    -13.9831E-03     5.49713E-03
            1773     887.509E-06     35.8106E-03    -18.9033E+06    -69.3488E+06    -18.3550E+06     32.2612E+03    -14.0009E-03     28.0240E-03    -14.0231E-03     2.95267E-03    -13.9682E-03     27.7313E-03    -13.9870E-03     2.95269E-03
            1774     16.8534E-03     35.5341E-03    -1.42980E+06     130.521E+06     23.5513E+06     1.03735E+06    -17.3222E-03     31.9137E-03    -14.5915E-03     102.035E-03    -18.3785E-03     33.3600E-03    -14.6609E-03     102.636E-03
            1775     15.9653E-03     35.4021E-03    -1.01970E+06     73.4301E+06    -19.5639E+06     902.026E+03    -17.8961E-03     32.3278E-03    -14.4317E-03     117.917E-03    -18.6796E-03     33.4250E-03    -14.6345E-03     118.136E-03
            1776     15.0778E-03     35.3128E-03    -1.94085E+06     26.3191E+06    -7.86253E+06     265.331E+03    -16.8742E-03     31.4060E-03    -14.5317E-03     83.4361E-03    -17.0969E-03     31.7379E-03    -14.6064E-03     83.4177E-03
            1777     14.1919E-03     35.2472E-03    -1.58414E+06    -8.14715E+06    -5.46637E+06     381.070E+03    -16.2911E-03     30.8443E-03    -14.5532E-03     65.6195E-03    -16.3523E-03     30.8868E-03    -14.5664E-03     65.5881E-03
            1778     13.3055E-03     35.1900E-03    -801.808E+03    -30.2016E+06    -5.20617E+06     58.0754E+03    -16.2382E-03     30.7766E-03    -14.5384E-03     60.3595E-03    -16.2351E-03     30.6785E-03    -14.5195E-03     60.3273E-03
            1779     12.4189E-03     35.1344E-03    -669.250E+03    -33.1843E+06     3.93978E+06    -320.685E+03    -16.0200E-03     30.5546E-03    -14.5347E-03     54.2720E-03    -16.0065E-03     30.4096E-03    -14.4659E-03     54.2426E-03
            1780     11.5326E-03     35.0877E-03    -1.81136E+06    -42.0131E+06     3.71984E+06    -5.26446E+03    -15.8023E-03     30.2919E-03    -14.4896E-03     46.7909E-03    -15.7704E-03     30.0937E-03    -14.4075E-03     46.7721E-03
            1781     10.6462E-03     35.0462E-03    -2.68308E+06    -49.3244E+06     5.19488E+06     596.891E+03    -15.6690E-03     30.1123E-03    -14.4434E-03     41.6796E-03    -15.6274E-03     29.8711E-03    -14.3420E-03     41.6733E-03
            1782     9.75975E-03     35.0090E-03    -3.43127E+06    -48.6220E+06     7.10085E+06     769.707E+03    -15.4264E-03     29.8099E-03    -14.3835E-03     37.1012E-03    -15.3889E-03     29.5671E-03    -14.2726E-03     37.1009E-03
            1783     8.87302E-03     34.9759E-03    -4.58674E+06    -51.2687E+06     6.45648E+06     707.716E+03    -15.1754E-03     29.4938E-03    -14.3184E-03     32.5697E-03    -15.1369E-03     29.2383E-03    -14.2051E-03     32.5713E-03
            1784     7.98628E-03     34.9470E-03    -5.78540E+06    -54.3422E+06     6.42290E+06     782.884E+03    -14.9617E-03     29.2212E-03    -14.2595E-03     28.2698E-03    -14.9234E-03     28.9509E-03    -14.1402E-03     28.2741E-03
            1785     7.09934E-03     34.9219E-03    -7.41900E+06    -55.4290E+06     5.05116E+06     825.897E+03    -14.7395E-03     28.9345E-03    -14.1950E-03     24.2782E-03    -14.7051E-03     28.6623E-03    -14.0786E-03     24.2844E-03
            1786     6.21228E-03     34.9005E-03    -9.35751E+06    -56.8930E+06     3.13466E+06     490.338E+03    -14.5325E-03     28.6668E-03    -14.1342E-03     20.5557E-03    -14.5024E-03     28.3923E-03    -14.0225E-03     20.5586E-03
            1787     5.32506E-03     34.8824E-03    -11.2161E+06    -58.2105E+06     593.629E+03     299.489E+03    -14.3535E-03     28.4300E-03    -14.0765E-03     17.1063E-03    -14.3267E-03     28.1550E-03    -13.9729E-03     17.1074E-03
            1788     4.43776E-03     34.8675E-03    -13.0775E+06    -59.9537E+06    -3.33189E+06     204.574E+03    -14.2006E-03     28.2201E-03    -14.0195E-03     13.9148E-03    -14.1746E-03     27.9445E-03    -13.9303E-03     13.9153E-03
            1789     3.55032E-03     34.8555E-03    -14.9611E+06    -62.3731E+06    -7.91354E+06     142.775E+03    -14.0755E-03     28.0437E-03    -13.9682E-03     10.9280E-03    -14.0486E-03     27.7652E-03    -13.8956E-03     10.9282E-03
            1790     2.66282E-03     34.8463E-03    -16.6290E+06    -65.4690E+06    -12.2512E+06     181.736E+03    -13.9821E-03     27.9093E-03    -13.9272E-03     8.10195E-03    -13.9527E-03     27.6239E-03    -13.8694E-03     8.10317E-03
            1791     1.77523E-03     34.8397E-03    -17.9840E+06    -67.8607E+06    -15.8232E+06     111.536E+03    -13.9199E-03     27.8163E-03    -13.8963E-03     5.40111E-03    -13.8886E-03     27.5260E-03    -13.8510E-03     5.40182E-03
            1792     887.635E-06     34.8358E-03    -18.7929E+06    -69.2538E+06    -18.2519E+06     46.9683E+03    -13.8756E-03     27.7589E-03    -13.8833E-03     2.89072E-03    -13.8427E-03     27.4664E-03    -13.8469E-03     2.89094E-03
            1793     16.8509E-03     34.5567E-03    -2.47328E+06     128.782E+06     20.9952E+06    -288.793E+03    -17.3732E-03     31.9620E-03    -14.5888E-03     103.305E-03    -18.4356E-03     33.4120E-03    -14.6670E-03     103.889E-03
            1794     15.9643E-03     34.4268E-03    -364.779E+03     74.0002E+06    -20.3042E+06     1.88006E+06    -18.3083E-03     32.7326E-03    -14.4243E-03     119.335E-03    -19.0937E-03     33.8382E-03    -14.6326E-03     119.561E-03
            1795     15.0785E-03     34.3345E-03     672.603E+03     27.1291E+06    -6.83498E+06     1.33780E+06    -16.9862E-03     31.5043E-03    -14.5181E-03     83.5572E-03    -17.1968E-03     31.8335E-03    -14.5926E-03     83.5521E-03
            1796     14.1920E-03     34.2710E-03    -166.958E+03    -7.95930E+06    -4.77555E+06     507.116E+03    -16.5189E-03     31.0485E-03    -14.5296E-03     65.4527E-03    -16.5744E-03     31.0890E-03    -14.5417E-03     65.4223E-03
            1797     13.3057E-03     34.2125E-03    -820.722E+03    -28.8370E+06    -4.87876E+06     309.995E+03    -16.4024E-03     30.9011E-03    -14.4987E-03     60.3605E-03    -16.4016E-03     30.8092E-03    -14.4801E-03     60.3313E-03
            1798     12.4200E-03     34.1578E-03    -1.44524E+06    -33.7308E+06     3.12205E+06    -52.9309E+03    -16.1688E-03     30.6476E-03    -14.4788E-03     54.0932E-03    -16.1572E-03     30.5020E-03    -14.4121E-03     54.0671E-03
            1799     11.5333E-03     34.1111E-03    -1.70427E+06    -42.6769E+06     3.35975E+06     399.709E+03    -15.8715E-03     30.2936E-03    -14.4221E-03     46.6014E-03    -15.8374E-03     30.0923E-03    -14.3410E-03     46.5880E-03
            1800     10.6470E-03     34.0696E-03    -2.26647E+06    -49.4930E+06     5.03126E+06     836.793E+03    -15.6813E-03     30.0479E-03    -14.3666E-03     41.3658E-03    -15.6370E-03     29.8052E-03    -14.2664E-03     41.3628E-03
            1801     9.76051E-03     34.0326E-03    -3.33334E+06    -48.6513E+06     6.85261E+06     860.572E+03    -15.4480E-03     29.7456E-03    -14.2976E-03     36.7182E-03    -15.4096E-03     29.5028E-03    -14.1880E-03     36.7191E-03
            1802     8.87392E-03     33.9998E-03    -4.47176E+06    -50.9766E+06     6.31177E+06     886.095E+03    -15.1850E-03     29.4069E-03    -14.2219E-03     32.2039E-03    -15.1461E-03     29.1528E-03    -14.1099E-03     32.2079E-03
            1803     7.98708E-03     33.9711E-03    -5.92574E+06    -54.4294E+06     6.11024E+06     851.388E+03    -14.9342E-03     29.0871E-03    -14.1529E-03     27.9022E-03    -14.8960E-03     28.8169E-03    -14.0349E-03     27.9075E-03
            1804     7.10017E-03     33.9463E-03    -7.35247E+06    -55.2449E+06     5.37412E+06     918.433E+03    -14.6961E-03     28.7776E-03    -14.0815E-03     23.9079E-03    -14.6621E-03     28.5057E-03    -13.9638E-03     23.9154E-03
            1805     6.21304E-03     33.9251E-03    -9.07709E+06    -56.2673E+06     3.44365E+06     734.537E+03    -14.4622E-03     28.4731E-03    -14.0109E-03     20.2160E-03    -14.4320E-03     28.2009E-03    -13.8989E-03     20.2221E-03
            1806     5.32578E-03     33.9072E-03    -11.1921E+06    -58.0393E+06     279.859E+03     324.956E+03    -14.2589E-03     28.2026E-03    -13.9438E-03     16.8064E-03    -14.2317E-03     27.9289E-03    -13.8420E-03     16.8079E-03
            1807     4.43835E-03     33.8925E-03    -13.2215E+06    -59.7913E+06    -3.65704E+06     206.408E+03    -14.0894E-03     27.9704E-03    -13.8810E-03     13.6499E-03    -14.0639E-03     27.6963E-03    -13.7934E-03     13.6505E-03
            1808     3.55084E-03     33.8807E-03    -15.0817E+06    -62.3839E+06    -8.13880E+06     207.158E+03    -13.9500E-03     27.7753E-03    -13.8253E-03     10.7093E-03    -13.9234E-03     27.4973E-03    -13.7537E-03     10.7105E-03
            1809     2.66319E-03     33.8716E-03    -16.7111E+06    -65.3629E+06    -12.3347E+06     209.879E+03    -13.8455E-03     27.6263E-03    -13.7808E-03     7.93798E-03    -13.8165E-03     27.3417E-03    -13.7234E-03     7.93958E-03
            1810     1.77551E-03     33.8652E-03    -17.9345E+06    -67.6784E+06    -15.8502E+06     142.793E+03    -13.7739E-03     27.5213E-03    -13.7475E-03     5.29070E-03    -13.7425E-03     27.2320E-03    -13.7026E-03     5.29183E-03
            1811     887.755E-06     33.8612E-03    -18.7734E+06    -69.1564E+06    -18.2189E+06     56.5010E+03    -13.7309E-03     27.4606E-03    -13.7297E-03     2.83965E-03    -13.6981E-03     27.1685E-03    -13.6933E-03     2.84000E-03
            1812     16.8486E-03     33.5769E-03    -3.58622E+06     128.054E+06     20.7805E+06    -398.899E+03    -17.3741E-03     31.9843E-03    -14.6102E-03     101.900E-03    -18.4351E-03     33.4269E-03    -14.6867E-03     102.471E-03
            1813     15.9649E-03     33.4492E-03    -5.38653E+06     71.8233E+06    -22.4447E+06    -997.965E+03    -18.6727E-03     33.0999E-03    -14.4272E-03     117.567E-03    -19.4719E-03     34.2001E-03    -14.6358E-03     117.746E-03
            1814     15.0783E-03     33.3576E-03    -2.79391E+06     27.1937E+06    -8.17510E+06     663.736E+03    -17.2092E-03     31.7070E-03    -14.4978E-03     83.3612E-03    -17.4363E-03     32.0444E-03    -14.5741E-03     83.3462E-03
            1815     14.1925E-03     33.2935E-03    -1.70209E+06    -7.18186E+06    -5.60089E+06     890.022E+03    -16.6703E-03     31.1641E-03    -14.4939E-03     65.0169E-03    -16.7327E-03     31.2113E-03    -14.5090E-03     64.9909E-03
            1816     13.3067E-03     33.2358E-03    -1.26909E+06    -28.7673E+06    -5.67074E+06     412.067E+03    -16.5278E-03     30.9779E-03    -14.4501E-03     60.0323E-03    -16.5280E-03     30.8879E-03    -14.4349E-03     60.0042E-03
            1817     12.4200E-03     33.1807E-03    -1.12853E+06    -33.5550E+06     3.27496E+06     442.865E+03    -16.2801E-03     30.7014E-03    -14.4213E-03     53.7498E-03    -16.2671E-03     30.5557E-03    -14.3546E-03     53.7301E-03
            1818     11.5343E-03     33.1344E-03    -2.19182E+06    -42.8521E+06     2.86044E+06     632.524E+03    -16.0104E-03     30.3587E-03    -14.3483E-03     46.2571E-03    -15.9777E-03     30.1578E-03    -14.2687E-03     46.2466E-03
            1819     10.6479E-03     33.0932E-03    -2.85628E+06    -49.8760E+06     4.17317E+06     911.278E+03    -15.7261E-03     30.0032E-03    -14.2771E-03     41.0599E-03    -15.6828E-03     29.7606E-03    -14.1798E-03     41.0581E-03
            1820     9.76143E-03     33.0563E-03    -3.51033E+06    -48.4522E+06     6.75870E+06     1.06152E+06    -15.4552E-03     29.6548E-03    -14.1996E-03     36.2866E-03    -15.4177E-03     29.4132E-03    -14.0904E-03     36.2903E-03
            1821     8.87484E-03     33.0238E-03    -4.76100E+06    -50.8628E+06     6.27630E+06     1.09214E+06    -15.1857E-03     29.2990E-03    -14.1133E-03     31.7445E-03    -15.1483E-03     29.0459E-03    -14.0013E-03     31.7512E-03
            1822     7.98810E-03     32.9954E-03    -6.14418E+06    -54.1546E+06     6.06444E+06     1.02330E+06    -14.9039E-03     28.9366E-03    -14.0327E-03     27.4873E-03    -14.8671E-03     28.6681E-03    -13.9149E-03     27.4950E-03
            1823     7.10106E-03     32.9708E-03    -7.70606E+06    -55.1075E+06     4.93618E+06     800.027E+03    -14.6311E-03     28.5809E-03    -13.9498E-03     23.5040E-03    -14.5983E-03     28.3108E-03    -13.8340E-03     23.5101E-03
            1824     6.21392E-03     32.9499E-03    -9.27575E+06    -55.9003E+06     3.34847E+06     747.146E+03    -14.3805E-03     28.2520E-03    -13.8715E-03     19.8380E-03    -14.3516E-03     27.9820E-03    -13.7602E-03     19.8444E-03
            1825     5.32654E-03     32.9323E-03    -11.0874E+06    -57.5454E+06     234.680E+03     562.079E+03    -14.1555E-03     27.9511E-03    -13.7956E-03     16.4644E-03    -14.1284E-03     27.6798E-03    -13.6950E-03     16.4691E-03
            1826     4.43905E-03     32.9178E-03    -13.1116E+06    -59.6976E+06    -3.81848E+06     262.796E+03    -13.9613E-03     27.6876E-03    -13.7262E-03     13.3541E-03    -13.9352E-03     27.4140E-03    -13.6397E-03     13.3555E-03
            1827     3.55138E-03     32.9062E-03    -14.9356E+06    -62.3447E+06    -8.09364E+06     241.759E+03    -13.8100E-03     27.4764E-03    -13.6665E-03     10.4695E-03    -13.7827E-03     27.1983E-03    -13.5949E-03     10.4712E-03
            1828     2.66365E-03     32.8972E-03    -16.5063E+06    -65.2243E+06    -12.2164E+06     211.501E+03    -13.6950E-03     27.3125E-03    -13.6175E-03     7.75425E-03    -13.6654E-03     27.0282E-03    -13.5601E-03     7.75591E-03
            1829     1.77579E-03     32.8909E-03    -17.7680E+06    -67.5331E+06    -15.7399E+06     167.189E+03    -13.6121E-03     27.1930E-03    -13.5808E-03     5.16767E-03    -13.5803E-03     26.9039E-03    -13.5358E-03     5.16913E-03
            1830     887.917E-06     32.8870E-03    -18.5366E+06    -68.9753E+06    -18.0848E+06     103.206E+03    -13.5598E-03     27.1254E-03    -13.5655E-03     2.78084E-03    -13.5263E-03     26.8336E-03    -13.5291E-03     2.78180E-03
            1831     16.8536E-03     32.6005E-03    -1.03514E+06     129.388E+06     23.0969E+06     923.908E+03    -17.6280E-03     32.2161E-03    -14.5881E-03     101.730E-03    -18.6739E-03     33.6507E-03    -14.6587E-03     102.313E-03
            1832     15.9646E-03     32.4716E-03    -1.35017E+06     72.2746E+06    -20.7735E+06     421.165E+03    -18.4633E-03     32.8637E-03    -14.4003E-03     117.643E-03    -19.2402E-03     33.9526E-03    -14.6070E-03     117.841E-03
            1833     15.0793E-03     32.3803E-03    -2.81961E+06     26.1591E+06    -8.92756E+06    -363.859E+03    -17.3746E-03     31.8414E-03    -14.4668E-03     83.1422E-03    -17.5989E-03     32.1744E-03    -14.5453E-03     83.1122E-03
            1834     14.1932E-03     32.3161E-03    -1.77633E+06    -7.18421E+06    -6.12985E+06     375.899E+03    -16.8342E-03     31.2843E-03    -14.4501E-03     64.9742E-03    -16.8960E-03     31.3321E-03    -14.4678E-03     64.9409E-03
            1835     13.3070E-03     32.2588E-03    -850.711E+03    -28.9461E+06    -5.73472E+06     550.654E+03    -16.7375E-03     31.1301E-03    -14.3926E-03     59.6106E-03    -16.7352E-03     31.0386E-03    -14.3781E-03     59.5838E-03
            1836     12.4216E-03     32.2037E-03    -1.37028E+06    -33.8084E+06     3.35120E+06     1.06129E+06    -16.3617E-03     30.7121E-03    -14.3504E-03     53.3167E-03    -16.3492E-03     30.5650E-03    -14.2826E-03     53.3050E-03
            1837     11.5350E-03     32.1577E-03    -2.41655E+06    -42.6581E+06     3.03201E+06     1.32172E+06    -16.0691E-03     30.3344E-03    -14.2653E-03     45.7837E-03    -16.0378E-03     30.1343E-03    -14.1848E-03     45.7822E-03
            1838     10.6489E-03     32.1167E-03    -3.48371E+06    -49.6710E+06     3.90961E+06     852.688E+03    -15.8173E-03     29.9954E-03    -14.1782E-03     40.5821E-03    -15.7769E-03     29.7550E-03    -14.0815E-03     40.5795E-03
            1839     9.76262E-03     32.0801E-03    -4.07965E+06    -48.7085E+06     6.46510E+06     904.892E+03    -15.4670E-03     29.5535E-03    -14.0865E-03     35.8219E-03    -15.4314E-03     29.3117E-03    -13.9776E-03     35.8237E-03
            1840     8.87597E-03     32.0480E-03    -4.73635E+06    -50.7125E+06     6.38185E+06     1.10903E+06    -15.1616E-03     29.1509E-03    -13.9892E-03     31.2701E-03    -15.1243E-03     28.8982E-03    -13.8769E-03     31.2771E-03
            1841     7.98913E-03     32.0198E-03    -5.82973E+06    -53.9513E+06     6.10639E+06     1.04857E+06    -14.8658E-03     28.7624E-03    -13.8966E-03     27.0030E-03    -14.8277E-03     28.4944E-03    -13.7794E-03     27.0110E-03
            1842     7.10215E-03     31.9957E-03    -7.27104E+06    -54.6747E+06     5.03432E+06     910.830E+03    -14.5608E-03     28.3636E-03    -13.8028E-03     23.0498E-03    -14.5265E-03     28.0948E-03    -13.6878E-03     23.0574E-03
            1843     6.21485E-03     31.9750E-03    -9.03515E+06    -55.7427E+06     3.31227E+06     639.508E+03    -14.2852E-03     28.0001E-03    -13.7149E-03     19.4151E-03    -14.2552E-03     27.7306E-03    -13.6045E-03     19.4201E-03
            1844     5.32746E-03     31.9576E-03    -10.7606E+06    -57.1944E+06     526.038E+03     551.226E+03    -14.0348E-03     27.6668E-03    -13.6320E-03     16.0790E-03    -14.0070E-03     27.3962E-03    -13.5308E-03     16.0836E-03
            1845     4.43979E-03     31.9434E-03    -12.6220E+06    -59.4599E+06    -3.55339E+06     472.342E+03    -13.8214E-03     27.3767E-03    -13.5553E-03     13.0318E-03    -13.7935E-03     27.1032E-03    -13.4686E-03     13.0360E-03
            1846     3.55203E-03     31.9319E-03    -14.5473E+06    -62.2170E+06    -7.99626E+06     299.741E+03    -13.6533E-03     27.1427E-03    -13.4894E-03     10.2082E-03    -13.6244E-03     26.8645E-03    -13.4180E-03     10.2106E-03
            1847     2.66411E-03     31.9232E-03    -16.1410E+06    -65.1164E+06    -12.0408E+06     268.966E+03    -13.5264E-03     26.9627E-03    -13.4363E-03     7.55471E-03    -13.4954E-03     26.6781E-03    -13.3787E-03     7.55715E-03
            1848     1.77614E-03     31.9169E-03    -17.3918E+06    -67.3481E+06    -15.3894E+06     233.038E+03    -13.4353E-03     26.8317E-03    -13.3963E-03     5.03117E-03    -13.4024E-03     26.5425E-03    -13.3504E-03     5.03351E-03
            1849     888.071E-06     31.9132E-03    -18.2565E+06    -68.7344E+06    -17.7114E+06     160.984E+03    -13.3732E-03     26.7520E-03    -13.3788E-03     2.71741E-03    -13.3392E-03     26.4606E-03    -13.3412E-03     2.71914E-03
            1850     16.8496E-03     31.6241E-03    -3.08840E+06     128.466E+06     20.8253E+06    -178.795E+03    -17.8050E-03     32.3814E-03    -14.5764E-03     101.810E-03    -18.8574E-03     33.8186E-03    -14.6541E-03     102.372E-03
            1851     15.9656E-03     31.4933E-03    -1.99854E+06     73.1896E+06    -21.1295E+06     843.212E+03    -18.8734E-03     33.2513E-03    -14.3778E-03     117.933E-03    -19.6568E-03     34.3486E-03    -14.5867E-03     118.131E-03
            1852     15.0794E-03     31.4032E-03     92.8439E+03     26.9030E+06    -7.85212E+06     324.146E+03    -17.5544E-03     31.9830E-03    -14.4286E-03     82.6548E-03    -17.7634E-03     32.3106E-03    -14.5070E-03     82.6320E-03
            1853     14.1935E-03     31.3386E-03    -354.889E+03    -7.84630E+06    -5.55677E+06    -22.0214E+03    -16.9864E-03     31.3871E-03    -14.4006E-03     64.6523E-03    -17.0405E-03     31.4281E-03    -14.4165E-03     64.6135E-03
            1854     13.3084E-03     31.2811E-03    -944.163E+03    -29.6784E+06    -5.55956E+06     1.28381E+06    -16.8823E-03     31.2120E-03    -14.3296E-03     59.2333E-03    -16.8792E-03     31.1162E-03    -14.3130E-03     59.2158E-03
            1855     12.4221E-03     31.2271E-03    -1.74150E+06    -34.2256E+06     3.15976E+06     1.86391E+06    -16.5280E-03     30.7970E-03    -14.2690E-03     52.9085E-03    -16.5163E-03     30.6484E-03    -14.2010E-03     52.9070E-03
            1856     11.5364E-03     31.1809E-03    -2.39665E+06    -42.1457E+06     3.16910E+06     1.58135E+06    -16.1647E-03     30.3313E-03    -14.1665E-03     45.4088E-03    -16.1340E-03     30.1333E-03    -14.0861E-03     45.4107E-03
            1857     10.6502E-03     31.1403E-03    -2.68807E+06    -48.9092E+06     4.51439E+06     1.10259E+06    -15.8576E-03     29.9232E-03    -14.0655E-03     39.9956E-03    -15.8150E-03     29.6843E-03    -13.9682E-03     39.9963E-03
            1858     9.76380E-03     31.1042E-03    -3.55619E+06    -48.8820E+06     6.35021E+06     718.966E+03    -15.4831E-03     29.4416E-03    -13.9585E-03     35.3176E-03    -15.4443E-03     29.1982E-03    -13.8507E-03     35.3172E-03
            1859     8.87719E-03     31.0722E-03    -4.42090E+06    -50.9289E+06     6.09472E+06     879.548E+03    -15.1500E-03     28.9972E-03    -13.8472E-03     30.7532E-03    -15.1103E-03     28.7433E-03    -13.7364E-03     30.7574E-03
            1860     7.99040E-03     31.0445E-03     -5.5056E+06    -53.6527E+06     6.12635E+06     1.09339E+06    -14.8093E-03     28.5521E-03    -13.7429E-03     26.4592E-03    -14.7699E-03     28.2850E-03    -13.6265E-03     26.4679E-03
            1861     7.10326E-03     31.0206E-03    -6.99626E+06    -54.4026E+06     5.22766E+06     980.941E+03    -14.4808E-03     28.1196E-03    -13.6387E-03     22.5431E-03    -14.4458E-03     27.8514E-03    -13.5236E-03     22.5517E-03
            1862     6.21600E-03     31.0003E-03    -8.66612E+06    -55.2360E+06     3.45274E+06     760.671E+03    -14.1675E-03     27.7077E-03    -13.5402E-03     18.9434E-03    -14.1367E-03     27.4400E-03    -13.4303E-03     18.9501E-03
            1863     5.32838E-03     30.9833E-03    -10.6568E+06    -57.1531E+06     416.509E+03     553.017E+03    -13.8922E-03     27.3414E-03    -13.4492E-03     15.6699E-03    -13.8637E-03     27.0710E-03    -13.3488E-03     15.6746E-03
            1864     4.44066E-03     30.9693E-03    -12.5268E+06    -59.1959E+06    -3.53835E+06     550.774E+03    -13.6650E-03     27.0309E-03    -13.3658E-03     12.6809E-03    -13.6370E-03     26.7585E-03    -13.2795E-03     12.6861E-03
            1865     3.55270E-03     30.9581E-03    -14.2654E+06    -62.0050E+06    -7.98659E+06     502.821E+03    -13.4797E-03     26.7731E-03    -13.2934E-03     9.92341E-03    -13.4498E-03     26.4956E-03    -13.2227E-03     9.92850E-03
            1866     2.66467E-03     30.9494E-03    -15.9148E+06    -64.9513E+06    -12.0197E+06     406.816E+03    -13.3386E-03     26.5743E-03    -13.2357E-03     7.33624E-03    -13.3066E-03     26.2901E-03    -13.1786E-03     7.34050E-03
            1867     1.77648E-03     30.9434E-03    -17.1822E+06    -67.0716E+06    -15.2527E+06     305.426E+03    -13.2381E-03     26.4307E-03    -13.1925E-03     4.88399E-03    -13.2047E-03     26.1424E-03    -13.1466E-03     4.88729E-03
            1868     888.276E-06     30.9396E-03    -17.9238E+06    -68.4439E+06    -17.4217E+06     170.488E+03    -13.1712E-03     26.3425E-03    -13.1713E-03     2.64368E-03    -13.1364E-03     26.0516E-03    -13.1331E-03     2.64553E-03
            1869     16.8520E-03     30.6442E-03    -2.27059E+06     128.233E+06     20.8896E+06    -11.6395E+03    -18.1604E-03     32.7398E-03    -14.5793E-03     101.538E-03    -19.2096E-03     34.1755E-03    -14.6575E-03     102.089E-03
            1870     15.9658E-03     30.5166E-03    -3.17137E+06     72.7830E+06    -22.1697E+06    -287.162E+03    -19.3320E-03     33.6849E-03    -14.3529E-03     117.107E-03    -20.1159E-03     34.7802E-03    -14.5647E-03     117.279E-03
            1871     15.0805E-03     30.4247E-03    -3.01676E+06     27.1556E+06    -9.09801E+06     285.053E+03    -17.8125E-03     32.1927E-03    -14.3801E-03     82.5499E-03    -18.0355E-03     32.5277E-03    -14.4606E-03     82.5254E-03
            1872     14.1953E-03     30.3618E-03    -2.44260E+06    -8.47499E+06    -6.74589E+06     734.115E+03    -17.1986E-03     31.5322E-03    -14.3335E-03     64.2016E-03    -17.2599E-03     31.5743E-03    -14.3514E-03     64.1719E-03
            1873     13.3087E-03     30.3035E-03    -1.88516E+06    -30.9477E+06    -6.35669E+06     1.26954E+06    -16.9183E-03     31.1683E-03    -14.2500E-03     58.7549E-03    -16.9161E-03     31.0680E-03    -14.2342E-03     58.7373E-03
            1874     12.4236E-03     30.2501E-03    -1.64896E+06    -33.8465E+06     3.18666E+06     1.80875E+06    -16.6603E-03     30.8370E-03    -14.1767E-03     52.3468E-03    -16.6483E-03     30.6898E-03    -14.1093E-03     52.3446E-03
            1875     11.5376E-03     30.2041E-03    -1.64182E+06    -41.2423E+06     3.26480E+06     1.27130E+06    -16.2950E-03     30.3498E-03    -14.0548E-03     44.9158E-03    -16.2618E-03     30.1549E-03    -13.9763E-03     44.9137E-03
            1876     10.6515E-03     30.1640E-03    -1.66147E+06    -48.8875E+06     4.53943E+06     935.416E+03    -15.9010E-03     29.8385E-03    -13.9375E-03     39.4609E-03    -15.8531E-03     29.5980E-03    -13.8415E-03     39.4597E-03
            1877     9.76519E-03     30.1282E-03    -2.47530E+06    -48.5772E+06     6.67273E+06     1.25473E+06    -15.5228E-03     29.3384E-03    -13.8155E-03     34.7100E-03    -15.4794E-03     29.0944E-03    -13.7081E-03     34.7165E-03
            1878     8.87866E-03     30.0966E-03    -4.32475E+06    -50.9936E+06     5.76088E+06     1.15199E+06    -15.1225E-03     28.8098E-03    -13.6874E-03     30.1279E-03    -15.0816E-03     28.5559E-03    -13.5783E-03     30.1358E-03
            1879     7.99171E-03     30.0694E-03    -5.80746E+06    -53.5219E+06     5.78627E+06     1.09885E+06    -14.7424E-03     28.3125E-03    -13.5701E-03     25.8856E-03    -14.7042E-03     28.0469E-03    -13.4551E-03     25.8946E-03
            1880     7.10464E-03     30.0458E-03    -7.17047E+06    -54.0304E+06     4.96345E+06     998.416E+03    -14.3737E-03     27.8279E-03    -13.4543E-03     21.9851E-03    -14.3397E-03     27.5623E-03    -13.3407E-03     21.9940E-03
            1881     6.21713E-03     30.0260E-03    -8.81230E+06     -54.989E+06     3.28967E+06     834.304E+03    -14.0289E-03     27.3759E-03    -13.3469E-03     18.4390E-03    -13.9989E-03     27.1098E-03    -13.2380E-03     18.4467E-03
            1882     5.32950E-03     30.0092E-03    -10.5794E+06    -56.7866E+06     217.030E+03     710.071E+03    -13.7356E-03     26.9827E-03    -13.2470E-03     15.2251E-03    -13.7070E-03     26.7143E-03    -13.1483E-03     15.2319E-03
            1883     4.44155E-03     29.9956E-03    -12.4531E+06    -59.1511E+06    -3.84956E+06     565.831E+03    -13.4878E-03     26.6442E-03    -13.1564E-03     12.3020E-03    -13.4590E-03     26.3724E-03    -13.0719E-03     12.3075E-03
            1884     3.55349E-03     29.9845E-03    -14.1874E+06    -61.8197E+06    -7.98461E+06     670.075E+03    -13.2876E-03     26.3668E-03    -13.0792E-03     9.61405E-03    -13.2575E-03     26.0900E-03    -13.0089E-03     9.62136E-03
            1885     2.66523E-03     29.9762E-03    -15.7221E+06    -64.5877E+06    -11.8752E+06     602.275E+03    -13.1324E-03     26.1491E-03    -13.0167E-03     7.10355E-03    -13.1002E-03     25.8662E-03    -12.9596E-03     7.11037E-03
            1886     1.77690E-03     29.9702E-03    -16.9213E+06    -66.6942E+06    -15.1091E+06     358.034E+03    -13.0234E-03     25.9925E-03    -12.9690E-03     4.72331E-03    -12.9895E-03     25.7055E-03    -12.9234E-03     4.72731E-03
            1887     888.454E-06     29.9666E-03    -17.6558E+06    -68.1143E+06    -17.1936E+06     173.523E+03    -12.9529E-03     25.8923E-03    -12.9394E-03     2.54698E-03    -12.9175E-03     25.6023E-03    -12.9010E-03     2.54889E-03
            1888     16.8501E-03     29.6648E-03    -2.34620E+06     128.643E+06     22.0591E+06     635.697E+03    -18.4660E-03     33.0288E-03    -14.5628E-03     101.428E-03    -19.5130E-03     34.4601E-03    -14.6356E-03     101.975E-03
            1889     15.9665E-03     29.5382E-03      -3.683E+06     72.7283E+06    -21.5831E+06     72.2709E+03    -19.5371E-03     33.8548E-03    -14.3176E-03     116.190E-03    -20.3183E-03     34.9436E-03    -14.5256E-03     116.359E-03
            1890     15.0807E-03     29.4472E-03    -3.27753E+06     26.5592E+06    -9.47362E+06     307.748E+03    -18.0175E-03     32.3413E-03    -14.3238E-03     81.9263E-03    -18.2398E-03     32.6737E-03    -14.4049E-03     81.9000E-03
            1891     14.1954E-03     29.3833E-03    -3.17382E+06    -9.10041E+06    -7.11742E+06     917.668E+03    -17.2909E-03     31.5549E-03    -14.2640E-03     63.9348E-03    -17.3537E-03     31.5948E-03    -14.2818E-03     63.9071E-03
            1892     13.3110E-03     29.3270E-03    -2.94780E+06    -31.1174E+06    -7.08922E+06     794.284E+03    -17.1725E-03     31.3340E-03    -14.1615E-03     58.5156E-03    -17.1742E-03     31.2353E-03    -14.1475E-03     58.4914E-03
            1893     12.4245E-03     29.2726E-03    -1.88454E+06    -33.7628E+06     2.12021E+06     635.223E+03    -16.7810E-03     30.8457E-03    -14.0647E-03     51.9218E-03    -16.7684E-03     30.7004E-03    -14.0024E-03     51.9046E-03
            1894     11.5391E-03     29.2275E-03    -1.08039E+06    -40.8712E+06     2.86559E+06     877.834E+03    -16.3710E-03     30.2989E-03    -13.9279E-03     44.1941E-03    -16.3346E-03     30.1053E-03    -13.8527E-03     44.1871E-03
            1895     10.6530E-03     29.1877E-03    -1.91305E+06    -49.1645E+06     4.02548E+06     1.16462E+06    -15.9804E-03     29.7746E-03    -13.7942E-03     38.8157E-03    -15.9324E-03     29.5336E-03    -13.7000E-03     38.8176E-03
            1896     9.76684E-03     29.1522E-03    -3.19390E+06    -48.8228E+06     6.21348E+06     1.63638E+06    -15.5364E-03     29.1912E-03    -13.6548E-03     34.0139E-03    -15.4954E-03     28.9476E-03    -13.5483E-03     34.0255E-03
            1897     8.88016E-03     29.1214E-03    -4.05765E+06    -50.3221E+06     6.15965E+06     1.69146E+06    -15.0870E-03     28.5991E-03    -13.5121E-03     29.4608E-03    -15.0462E-03     28.3474E-03    -13.4025E-03     29.4758E-03
            1898     7.99331E-03     29.0943E-03    -5.42711E+06    -53.2567E+06     5.71896E+06     1.19666E+06    -14.6594E-03     28.0385E-03    -13.3791E-03     25.2452E-03    -14.6195E-03     27.7737E-03    -13.2654E-03     25.2556E-03
            1899     7.10601E-03     29.0715E-03    -6.88277E+06    -53.7495E+06     4.83690E+06     1.01310E+06    -14.2485E-03     27.5002E-03    -13.2517E-03     21.3808E-03    -14.2132E-03     27.2356E-03    -13.1396E-03     21.3901E-03
            1900     6.21849E-03     29.0518E-03    -8.52058E+06    -54.7271E+06     3.15642E+06     939.733E+03    -13.8811E-03     27.0155E-03    -13.1344E-03     17.8932E-03    -13.8497E-03     26.7505E-03    -13.0269E-03     17.9024E-03
            1901     5.33064E-03     29.0356E-03    -10.3417E+06    -56.4790E+06     63.8340E+03     774.951E+03    -13.5612E-03     26.5868E-03    -13.0256E-03     14.7414E-03    -13.5316E-03     26.3198E-03    -12.9284E-03     14.7491E-03
            1902     4.44259E-03     29.0221E-03    -12.1656E+06    -59.0389E+06    -3.93419E+06     784.212E+03    -13.2934E-03     26.2216E-03    -12.9282E-03     11.8916E-03    -13.2633E-03     25.9500E-03    -12.8446E-03     11.9000E-03
            1903     3.55430E-03     29.0115E-03    -13.9322E+06    -61.6646E+06    -7.87769E+06     761.884E+03    -13.0745E-03     25.9203E-03    -12.8458E-03     9.27906E-03    -13.0435E-03     25.6438E-03    -12.7756E-03     9.28761E-03
            1904     2.66588E-03     29.0033E-03    -15.3605E+06    -64.1149E+06    -11.5388E+06     678.603E+03    -12.9073E-03     25.6862E-03    -12.7790E-03     6.85058E-03    -12.8745E-03     25.4048E-03    -12.7214E-03     6.85842E-03
            1905     1.77732E-03     28.9975E-03    -16.4972E+06    -66.2072E+06    -14.7145E+06     467.362E+03    -12.7909E-03     25.5177E-03    -12.7267E-03     4.55414E-03    -12.7561E-03     25.2319E-03    -12.6804E-03     4.55958E-03
            1906     888.705E-06     28.9939E-03    -17.2722E+06    -67.7003E+06    -16.8621E+06     255.121E+03    -12.7090E-03     25.4026E-03    -12.6935E-03     2.43516E-03    -12.6728E-03     25.1136E-03    -12.6546E-03     2.43814E-03
            1907     16.8537E-03     28.6888E-03    -2.15178E+06     128.750E+06     21.5394E+06     746.755E+03    -19.0125E-03     33.5370E-03    -14.5245E-03     100.785E-03    -20.0485E-03     34.9599E-03    -14.6004E-03     101.319E-03
            1908     15.9667E-03     28.5581E-03    -1.65111E+06     73.2131E+06    -20.9636E+06     1.02169E+06    -19.6087E-03     33.8714E-03    -14.2627E-03     115.699E-03    -20.3720E-03     34.9496E-03    -14.4713E-03     115.876E-03
            1909     15.0831E-03     28.4701E-03    -1.03646E+06     26.3867E+06    -8.79675E+06     906.993E+03    -18.1104E-03     32.3716E-03    -14.2612E-03     81.3851E-03    -18.3192E-03     32.6959E-03    -14.3419E-03     81.3654E-03
            1910     14.1969E-03     28.4059E-03    -827.864E+03    -9.04270E+06    -6.29797E+06     1.06381E+06    -17.4530E-03     31.6424E-03    -14.1894E-03     63.6901E-03    -17.5047E-03     31.6774E-03    -14.2066E-03     63.6639E-03
            1911     13.3108E-03     28.3490E-03    -562.221E+03    -30.7640E+06    -6.33661E+06     803.518E+03    -17.3973E-03     31.4654E-03    -14.0680E-03     57.9876E-03    -17.3881E-03     31.3634E-03    -14.0543E-03     57.9632E-03
            1912     12.4267E-03     28.2956E-03    -723.943E+03    -33.5399E+06     2.11537E+06     224.414E+03    -17.0251E-03     30.9706E-03    -13.9455E-03     51.3176E-03    -17.0067E-03     30.8245E-03    -13.8852E-03     51.2949E-03
            1913     11.5405E-03     28.2509E-03    -1.73382E+06    -41.9150E+06     2.18504E+06     950.683E+03    -16.4841E-03     30.2702E-03    -13.7861E-03     43.4925E-03    -16.4481E-03     30.0730E-03    -13.7119E-03     43.4866E-03
            1914     10.6549E-03     28.2113E-03    -2.54713E+06    -49.2236E+06     3.71510E+06     1.91406E+06    -16.0159E-03     29.6495E-03    -13.6336E-03     38.0584E-03    -15.9703E-03     29.4093E-03    -13.5399E-03     38.0702E-03
            1915     9.76844E-03     28.1767E-03    -3.22219E+06    -48.6391E+06     5.92671E+06     1.53832E+06    -15.5236E-03     28.9998E-03    -13.4762E-03     33.2802E-03    -15.4824E-03     28.7573E-03    -13.3714E-03     33.2909E-03
            1916     8.88195E-03     28.1460E-03    -3.91028E+06    -50.1757E+06     6.04686E+06     1.53561E+06    -15.0454E-03     28.3635E-03    -13.3180E-03     28.7231E-03    -15.0038E-03     28.1123E-03    -13.2094E-03     28.7363E-03
            1917     7.99494E-03     28.1199E-03    -4.96695E+06    -52.5713E+06     5.99242E+06     1.60869E+06    -14.5594E-03     27.7306E-03    -13.1712E-03     24.5367E-03    -14.5185E-03     27.4680E-03    -13.0578E-03     24.5526E-03
            1918     7.10760E-03     28.0972E-03    -6.71838E+06    -53.4554E+06     4.56292E+06     1.21728E+06    -14.1143E-03     27.1441E-03    -13.0298E-03     20.7349E-03    -14.0781E-03     26.8811E-03    -12.9198E-03     20.7469E-03
            1919     6.21991E-03     28.0783E-03    -8.37037E+06    -54.3216E+06     2.80065E+06     977.636E+03    -13.7161E-03     26.6174E-03    -12.9013E-03     17.2998E-03    -13.6840E-03     26.3546E-03    -12.7964E-03     17.3097E-03
            1920     5.33193E-03     28.0622E-03    -10.0514E+06    -56.3518E+06    -80.3563E+03     941.755E+03    -13.3686E-03     26.1532E-03    -12.7846E-03     14.2243E-03    -13.3375E-03     25.8866E-03    -12.6887E-03     14.2343E-03
            1921     4.44368E-03     28.0493E-03    -11.8520E+06    -58.8638E+06    -3.83011E+06     972.545E+03    -13.0799E-03     25.7604E-03    -12.6805E-03     11.4500E-03    -13.0485E-03     25.4891E-03    -12.5971E-03     11.4609E-03
            1922     3.55522E-03     28.0388E-03    -13.4910E+06    -61.2994E+06    -7.73746E+06     906.378E+03    -12.8446E-03     25.4359E-03    -12.5913E-03     8.92121E-03    -12.8121E-03     25.1604E-03    -12.5216E-03     8.93169E-03
            1923     2.66657E-03     28.0309E-03    -14.9645E+06    -63.7030E+06    -11.4019E+06     743.223E+03    -12.6609E-03     25.1802E-03    -12.5193E-03     6.57492E-03    -12.6270E-03     24.9000E-03    -12.4622E-03     6.58365E-03
            1924     1.77779E-03     28.0252E-03    -16.1006E+06    -65.6661E+06    -14.4142E+06     603.899E+03    -12.5298E-03     24.9954E-03    -12.4656E-03     4.37169E-03    -12.4942E-03     24.7113E-03    -12.4191E-03     4.37893E-03
            1925     888.917E-06     28.0219E-03    -16.8508E+06    -67.0850E+06    -16.4148E+06     359.926E+03    -12.4373E-03     24.8812E-03    -12.4440E-03     2.32419E-03    -12.4005E-03     24.5941E-03    -12.4043E-03     2.32854E-03
            1926     16.8514E-03     27.7070E-03    -2.17312E+06     127.588E+06     20.1718E+06    -171.671E+03    -19.3102E-03     33.8221E-03    -14.5120E-03     101.283E-03    -20.3414E-03     35.2402E-03    -14.5930E-03     101.796E-03
            1927     15.9691E-03     27.5818E-03    -627.979E+03     73.0188E+06    -22.0181E+06     1.36810E+06    -19.9672E-03     34.1983E-03    -14.2310E-03     116.056E-03    -20.7175E-03     35.2694E-03    -14.4461E-03     116.229E-03
            1928     15.0817E-03     27.4908E-03    -392.031E+03     26.3276E+06    -9.00522E+06     1.71144E+06    -18.5810E-03     32.7907E-03    -14.2097E-03     81.7056E-03    -18.7867E-03     33.1146E-03    -14.2924E-03     81.6944E-03
            1929     14.1981E-03     27.4286E-03    -571.184E+03    -8.39794E+06    -6.06574E+06     1.14695E+06    -18.0263E-03     32.1303E-03    -14.1041E-03     62.9856E-03    -18.0774E-03     32.1672E-03    -14.1214E-03     62.9587E-03
            1930     13.3136E-03     27.3712E-03    -62.1019E+03    -29.5099E+06    -5.96641E+06     896.739E+03    -17.5446E-03     31.4961E-03    -13.9515E-03     57.3388E-03    -17.5342E-03     31.3981E-03    -13.9385E-03     57.3158E-03
            1931     12.4274E-03     27.3184E-03    -689.129E+03    -34.2636E+06     1.94493E+06     1.10817E+06    -17.1488E-03     30.9592E-03    -13.8105E-03     50.3970E-03    -17.1283E-03     30.8090E-03    -13.7501E-03     50.3859E-03
            1932     11.5427E-03     27.2740E-03    -1.50038E+06    -42.6461E+06     2.10256E+06     1.53959E+06    -16.6051E-03     30.2351E-03    -13.6300E-03     42.6411E-03    -16.5664E-03     30.0336E-03    -13.5555E-03     42.6430E-03
            1933     10.6565E-03     27.2355E-03    -1.87332E+06    -48.9392E+06     3.88090E+06     1.69890E+06    -16.0449E-03     29.5011E-03    -13.4562E-03     37.2897E-03    -15.9963E-03     29.2609E-03    -13.3631E-03     37.2990E-03
            1934     9.77048E-03     27.2010E-03    -2.25226E+06    -48.1499E+06     6.00515E+06     1.67443E+06    -15.5126E-03     28.7924E-03    -13.2798E-03     32.4705E-03    -15.4672E-03     28.5507E-03    -13.1767E-03     32.4831E-03
            1935     8.88378E-03     27.1713E-03    -3.43183E+06    -50.2785E+06     5.66079E+06     1.57872E+06    -14.9728E-03     28.0776E-03    -13.1048E-03     27.9175E-03    -14.9280E-03     27.8257E-03    -12.9986E-03     27.9315E-03
            1936     7.99675E-03     27.1454E-03    -4.65241E+06    -52.3260E+06     6.03092E+06     1.75561E+06    -14.4570E-03     27.4022E-03    -12.9451E-03     23.7721E-03    -14.4149E-03     27.1403E-03    -12.8324E-03     23.7901E-03
            1937     7.10931E-03     27.1236E-03    -5.97132E+06    -52.6712E+06     4.94241E+06     1.62827E+06    -13.9688E-03     26.7595E-03    -12.7906E-03     20.0253E-03    -13.9306E-03     26.4987E-03    -12.6809E-03     20.0428E-03
            1938     6.22147E-03     27.1049E-03    -7.82613E+06    -53.9915E+06     2.79156E+06     1.19955E+06    -13.5335E-03     26.1833E-03    -12.6498E-03     16.6675E-03    -13.4991E-03     25.9213E-03    -12.5462E-03     16.6803E-03
            1939     5.33333E-03     27.0895E-03    -9.70224E+06    -56.2123E+06    -177.780E+03     1.14563E+06    -13.1609E-03     25.6845E-03    -12.5236E-03     13.6673E-03    -13.1281E-03     25.4182E-03    -12.4289E-03     13.6800E-03
            1940     4.44487E-03     27.0768E-03    -11.4394E+06    -58.6004E+06    -3.83158E+06     1.16345E+06    -12.8471E-03     25.2587E-03    -12.4116E-03     10.9831E-03    -12.8140E-03     24.9881E-03    -12.3292E-03     10.9965E-03
            1941     3.55620E-03     27.0667E-03    -13.0919E+06    -60.8780E+06    -7.72820E+06     1.09263E+06    -12.5932E-03     24.9089E-03    -12.3157E-03     8.53914E-03    -12.5593E-03     24.6348E-03    -12.2471E-03     8.55209E-03
            1942     2.66732E-03     27.0590E-03    -14.5152E+06    -63.1979E+06    -11.2965E+06     966.791E+03    -12.3938E-03     24.6327E-03    -12.2390E-03     6.28774E-03    -12.3584E-03     24.3542E-03    -12.1828E-03     6.29940E-03
            1943     1.77830E-03     27.0536E-03    -15.6396E+06    -65.0708E+06    -14.1329E+06     730.256E+03    -12.2481E-03     24.4324E-03    -12.1843E-03     4.17204E-03    -12.2115E-03     24.1503E-03    -12.1379E-03     4.18093E-03
            1944     889.157E-06     27.0502E-03    -16.2816E+06    -66.2671E+06    -15.9471E+06     448.566E+03    -12.1573E-03     24.3205E-03    -12.1632E-03     2.22214E-03    -12.1196E-03     24.0359E-03    -12.1232E-03     2.22765E-03
            1945     16.8522E-03     26.7261E-03    -2.55280E+06     126.990E+06     20.1950E+06     41.1509E+03    -19.3054E-03     33.8094E-03    -14.5040E-03     99.6798E-03    -20.3240E-03     35.2112E-03    -14.5835E-03     100.180E-03
            1946     15.9663E-03     26.6033E-03    -5.03581E+06     70.9397E+06    -23.7584E+06    -215.575E+03    -20.3488E-03     34.5541E-03    -14.2053E-03     114.443E-03    -21.1095E-03     35.6177E-03    -14.4197E-03     114.589E-03
            1947     15.0843E-03     26.5120E-03    -3.23108E+06     26.1319E+06    -10.1633E+06     1.04837E+06    -19.2123E-03     33.3577E-03    -14.1454E-03     80.6102E-03    -19.4300E-03     33.6862E-03    -14.2294E-03     80.5853E-03
            1948     14.1995E-03     26.4496E-03    -2.29777E+06    -7.43746E+06    -6.59776E+06     927.557E+03    -18.3185E-03     32.3227E-03    -14.0043E-03     62.0923E-03    -18.3776E-03     32.3664E-03    -14.0231E-03     62.0616E-03
            1949     13.3145E-03     26.3942E-03    -1.94691E+06    -29.6407E+06    -7.06374E+06     854.975E+03    -17.9343E-03     31.7536E-03    -13.8193E-03     56.7199E-03    -17.9312E-03     31.6589E-03    -13.8088E-03     56.6955E-03
            1950     12.4303E-03     26.3408E-03    -1.31044E+06    -34.9804E+06     1.25964E+06     1.44522E+06    -17.2097E-03     30.8624E-03    -13.6527E-03     49.5914E-03    -17.1895E-03     30.7098E-03    -13.5938E-03     49.5849E-03
            1951     11.5443E-03     26.2977E-03    -1.07126E+06    -42.1344E+06     2.04571E+06     1.58977E+06    -16.6258E-03     30.0813E-03    -13.4555E-03     41.7818E-03    -16.5851E-03     29.8813E-03    -13.3826E-03     41.7846E-03
            1952     10.6588E-03     26.2593E-03    -1.15453E+06    -49.0654E+06     3.49717E+06     1.46505E+06    -16.1154E-03     29.3765E-03    -13.2611E-03     36.4116E-03    -16.0622E-03     29.1349E-03    -13.1708E-03     36.4180E-03
            1953     9.77249E-03     26.2259E-03    -1.80993E+06    -48.2490E+06     5.85230E+06     1.88028E+06    -15.4758E-03     28.5421E-03    -13.0662E-03     31.5690E-03    -15.4276E-03     28.2992E-03    -12.9644E-03     31.5845E-03
            1954     8.88582E-03     26.1966E-03    -2.81651E+06    -49.8464E+06     5.75564E+06     2.08257E+06    -14.8912E-03     27.7663E-03    -12.8750E-03     27.0544E-03    -14.8439E-03     27.5153E-03    -12.7699E-03     27.0751E-03
            1955     7.99872E-03     26.1715E-03    -4.16793E+06    -52.2167E+06     6.00754E+06     1.85134E+06    -14.3368E-03     27.0372E-03    -12.7003E-03     22.9484E-03    -14.2923E-03     26.7750E-03    -12.5885E-03     22.9678E-03
            1956     7.11114E-03     26.1501E-03    -5.60908E+06    -52.0819E+06     5.16402E+06     1.82863E+06    -13.8059E-03     26.3387E-03    -12.5328E-03     19.2670E-03    -13.7669E-03     26.0800E-03    -12.4234E-03     19.2872E-03
            1957     6.22317E-03     26.1321E-03    -7.19187E+06    -53.4616E+06     3.03039E+06     1.67167E+06    -13.3354E-03     25.7155E-03    -12.3801E-03     15.9919E-03    -13.2989E-03     25.4549E-03    -12.2770E-03     16.0109E-03
            1958     5.33481E-03     26.1171E-03    -9.06453E+06    -56.0065E+06    -203.180E+03     1.48946E+06    -12.9343E-03     25.1776E-03    -12.2432E-03     13.0814E-03    -12.8986E-03     24.9114E-03    -12.1499E-03     13.0987E-03
            1959     4.44617E-03     26.1049E-03    -10.8987E+06    -58.2428E+06    -3.89553E+06     1.46727E+06    -12.5958E-03     24.7186E-03    -12.1228E-03     10.4931E-03    -12.5604E-03     24.4491E-03    -12.0421E-03     10.5105E-03
            1960     3.55724E-03     26.0951E-03    -12.5375E+06    -60.4253E+06    -7.62916E+06     1.38706E+06    -12.3200E-03     24.3415E-03    -12.0215E-03     8.14631E-03    -12.2842E-03     24.0687E-03    -11.9538E-03     8.16312E-03
            1961     2.66812E-03     26.0877E-03    -13.9064E+06    -62.5471E+06    -10.9156E+06     1.19657E+06    -12.1093E-03     24.0504E-03    -11.9412E-03     5.98519E-03    -12.0723E-03     23.7738E-03    -11.8849E-03     5.99986E-03
            1962     1.77882E-03     26.0824E-03    -14.9116E+06    -64.2628E+06    -13.5079E+06     895.739E+03    -11.9565E-03     23.8392E-03    -11.8828E-03     3.96253E-03    -11.9183E-03     23.5592E-03    -11.8355E-03     3.97359E-03
            1963     889.447E-06     26.0793E-03    -15.5833E+06    -65.3349E+06    -15.2227E+06     527.496E+03    -11.8611E-03     23.7130E-03    -11.8519E-03     2.13384E-03    -11.8222E-03     23.4311E-03    -11.8107E-03     2.14038E-03
            1964     16.8542E-03     25.7515E-03    -1.27242E+06     127.749E+06     21.8690E+06     1.28573E+06    -20.1501E-03     34.6197E-03    -14.4696E-03     98.3659E-03    -21.1519E-03     36.0071E-03    -14.5437E-03     98.8548E-03
            1965     15.9698E-03     25.6218E-03    -1.50780E+06     72.0170E+06    -21.5775E+06     1.49802E+06    -20.8154E-03     34.9476E-03    -14.1322E-03     114.183E-03    -21.5585E-03     36.0036E-03    -14.3423E-03     114.336E-03
            1966     15.0854E-03     25.5335E-03    -1.93755E+06     25.7864E+06    -10.0803E+06     244.004E+03    -19.4099E-03     33.4523E-03    -14.0424E-03     79.2360E-03    -19.6160E-03     33.7723E-03    -14.1274E-03     79.1983E-03
            1967     14.2006E-03     25.4718E-03    -1.38572E+06    -7.55931E+06    -6.48534E+06     674.106E+03    -18.4463E-03     32.3292E-03    -13.8830E-03     61.2894E-03    -18.4992E-03     32.3693E-03    -13.9024E-03     61.2553E-03
            1968     13.3170E-03     25.4151E-03    -1.15845E+06    -30.2483E+06    -6.90937E+06     1.08877E+06    -18.0778E-03     31.7583E-03    -13.6805E-03     55.6738E-03    -18.0692E-03     31.6583E-03    -13.6695E-03     55.6524E-03
            1969     12.4318E-03     25.3646E-03    -1.15935E+06    -34.6666E+06     931.855E+03     1.00006E+06    -17.3910E-03     30.8790E-03    -13.4880E-03     48.8034E-03    -17.3694E-03     30.7275E-03    -13.4314E-03     48.7914E-03
            1970     11.5467E-03     25.3209E-03    -906.419E+03    -42.3404E+06     1.48584E+06     1.14102E+06    -16.7403E-03     30.0056E-03    -13.2653E-03     41.0405E-03    -16.6972E-03     29.8047E-03    -13.1952E-03     41.0379E-03
            1971     10.6609E-03     25.2837E-03    -985.354E+03    -49.3370E+06     3.26515E+06     1.74009E+06    -16.1303E-03     29.1807E-03    -13.0504E-03     35.3615E-03    -16.0751E-03     28.9375E-03    -12.9611E-03     35.3718E-03
            1972     9.77478E-03     25.2507E-03    -1.82003E+06    -48.4194E+06     5.57894E+06     2.12381E+06    -15.4361E-03     28.2722E-03    -12.8361E-03     30.6082E-03    -15.3871E-03     28.0287E-03    -12.7354E-03     30.6272E-03
            1973     8.88804E-03     25.2223E-03    -2.69217E+06    -49.5141E+06     5.65258E+06     2.23898E+06    -14.7955E-03     27.4230E-03    -12.6275E-03     26.1381E-03    -14.7478E-03     27.1736E-03    -12.5235E-03     26.1611E-03
            1974     8.00080E-03     25.1978E-03    -3.77986E+06    -51.7410E+06     6.02169E+06     2.22703E+06    -14.1925E-03     26.6301E-03    -12.4376E-03     22.0776E-03    -14.1466E-03     26.3697E-03    -12.3270E-03     22.1019E-03
            1975     7.11311E-03     25.1772E-03    -5.25673E+06    -51.7651E+06     5.17332E+06     1.99582E+06    -13.6249E-03     25.8820E-03    -12.2571E-03     18.4684E-03    -13.5846E-03     25.6243E-03    -12.1486E-03     18.4909E-03
            1976     6.22495E-03     25.1597E-03    -6.81663E+06    -52.9961E+06     3.04862E+06     1.95224E+06    -13.1185E-03     25.2111E-03    -12.0926E-03     15.2865E-03    -13.0807E-03     24.9522E-03    -11.9906E-03     15.3093E-03
            1977     5.33642E-03     25.1453E-03    -8.49161E+06    -55.6675E+06    -221.317E+03     1.97431E+06    -12.6875E-03     24.6334E-03    -11.9459E-03     12.4760E-03    -12.6493E-03     24.3681E-03    -11.8540E-03     12.4997E-03
            1978     4.44751E-03     25.1334E-03    -10.2528E+06    -57.7647E+06    -3.81021E+06     1.89653E+06    -12.3248E-03     24.1430E-03    -11.8183E-03     9.98376E-03    -12.2870E-03     23.8749E-03    -11.7387E-03     10.0068E-03
            1979     3.55835E-03     25.1241E-03    -11.8452E+06    -59.8234E+06    -7.21622E+06     1.72516E+06    -12.0332E-03     23.7454E-03    -11.7122E-03     7.74222E-03    -11.9953E-03     23.4740E-03    -11.6444E-03     7.76346E-03
            1980     2.66895E-03     25.1169E-03    -13.1759E+06    -61.7133E+06    -10.3438E+06     1.45104E+06    -11.8092E-03     23.4364E-03    -11.6272E-03     5.67529E-03    -11.7707E-03     23.1620E-03    -11.5703E-03     5.69329E-03
            1981     1.77941E-03     25.1119E-03    -14.1951E+06    -63.2732E+06    -12.8113E+06     1.03916E+06    -11.6482E-03     23.2124E-03    -11.5643E-03     3.75507E-03    -11.6089E-03     22.9353E-03    -11.5160E-03     3.76801E-03
            1982     889.731E-06     25.1087E-03    -14.7903E+06    -64.2400E+06    -14.4688E+06     598.350E+03    -11.5362E-03     23.0709E-03    -11.5348E-03     2.02734E-03    -11.4960E-03     22.7922E-03    -11.4925E-03     2.03482E-03
            1983     16.8524E-03     24.7687E-03    -2.78080E+06     126.445E+06     20.5091E+06     238.885E+03    -20.9671E-03     35.4114E-03    -14.4443E-03     97.9271E-03    -21.9659E-03     36.7897E-03    -14.5211E-03     98.3771E-03
            1984     15.9707E-03     24.6431E-03    -959.916E+03     73.7407E+06    -21.0211E+06     1.69114E+06    -21.5597E-03     35.6246E-03    -14.0650E-03     114.312E-03    -22.2983E-03     36.6827E-03    -14.2756E-03     114.451E-03
            1985     15.0868E-03     24.5541E-03     227.537E+03     26.4644E+06    -9.79227E+06     1.28291E+06    -19.7417E-03     33.6802E-03    -13.9386E-03     79.0334E-03    -19.9350E-03     33.9967E-03    -14.0263E-03     79.0077E-03
            1986     14.2039E-03     24.4931E-03     185.483E+03    -8.46811E+06    -6.17313E+06     1.06100E+06    -18.8129E-03     32.5672E-03    -13.7543E-03     60.6780E-03    -18.8558E-03     32.5986E-03    -13.7732E-03     60.6480E-03
            1987     13.3184E-03     24.4379E-03     300.367E+03    -29.5944E+06    -6.17396E+06     1.30209E+06    -18.1343E-03     31.6630E-03    -13.5287E-03     54.8633E-03    -18.1191E-03     31.5617E-03    -13.5171E-03     54.8452E-03
            1988     12.4340E-03     24.3869E-03    -228.775E+03    -34.5158E+06     708.408E+03     1.09637E+06    -17.5725E-03     30.8845E-03    -13.3120E-03     47.7521E-03    -17.5453E-03     30.7319E-03    -13.2580E-03     47.7415E-03
            1989     11.5490E-03     24.3446E-03    -737.134E+03    -43.0741E+06     945.630E+03     1.25896E+06    -16.8944E-03     29.9568E-03    -13.0623E-03     39.9717E-03    -16.8482E-03     29.7523E-03    -12.9941E-03     39.9708E-03
            1990     10.6634E-03     24.3080E-03    -1.19298E+06    -49.7119E+06     2.95943E+06     1.88660E+06    -16.1164E-03     28.9412E-03    -12.8248E-03     34.3340E-03    -16.0610E-03     28.6965E-03    -12.7362E-03     34.3466E-03
            1991     9.77716E-03     24.2760E-03    -1.68764E+06    -48.3295E+06     5.45898E+06     2.23827E+06    -15.3903E-03     27.9813E-03    -12.5910E-03     29.5868E-03    -15.3403E-03     27.7380E-03    -12.4912E-03     29.6076E-03
            1992     8.89037E-03     24.2483E-03    -2.50917E+06    -49.4074E+06     5.38746E+06     2.35525E+06    -14.6894E-03     27.0529E-03    -12.3635E-03     25.1615E-03    -14.6404E-03     26.8039E-03    -12.2612E-03     25.1861E-03
            1993     8.00305E-03     24.2247E-03    -3.52916E+06    -51.2702E+06     5.91411E+06     2.36431E+06    -14.0271E-03     26.1857E-03    -12.1586E-03     21.1633E-03    -13.9804E-03     25.9273E-03    -12.0496E-03     21.1897E-03
            1994     7.11518E-03     24.2046E-03    -4.67754E+06    -51.2901E+06     5.15149E+06     2.20957E+06    -13.4188E-03     25.3845E-03    -11.9657E-03     17.6420E-03    -13.3762E-03     25.1283E-03    -11.8588E-03     17.6675E-03
            1995     6.22684E-03     24.1879E-03    -6.15421E+06    -52.8088E+06     3.03509E+06     2.21368E+06    -12.8827E-03     24.6740E-03    -11.7912E-03     14.5639E-03    -12.8419E-03     24.4150E-03    -11.6905E-03     14.5901E-03
            1996     5.33806E-03     24.1739E-03    -7.81297E+06    -55.3544E+06     26.0693E+03     2.42765E+06    -12.4246E-03     24.0615E-03    -11.6369E-03     11.8594E-03    -12.3838E-03     23.7964E-03    -11.5452E-03     11.8890E-03
            1997     4.44894E-03     24.1627E-03    -9.51842E+06    -57.0561E+06    -3.40023E+06     2.41238E+06    -12.0426E-03     23.5446E-03    -11.5020E-03     9.46917E-03    -12.0028E-03     23.2783E-03    -11.4225E-03     9.49899E-03
            1998     3.55950E-03     24.1536E-03    -11.1343E+06    -58.9739E+06    -6.69477E+06     2.10512E+06    -11.7317E-03     23.1220E-03    -11.3903E-03     7.32756E-03    -11.6923E-03     22.8531E-03    -11.3221E-03     7.35376E-03
            1999     2.66984E-03     24.1468E-03    -12.4610E+06    -60.7175E+06    -9.68622E+06     1.70943E+06    -11.4925E-03     22.7940E-03    -11.3015E-03     5.37196E-03    -11.4527E-03     22.5226E-03    -11.2439E-03     5.39334E-03
            2000     1.77999E-03     24.1419E-03    -13.4573E+06    -62.0981E+06    -12.1820E+06     1.23139E+06    -11.3244E-03     22.5598E-03    -11.2354E-03     3.54913E-03    -11.2841E-03     22.2865E-03    -11.1867E-03     3.56459E-03
            2001     890.035E-06     24.1391E-03    -14.0825E+06    -62.9759E+06    -13.7783E+06     685.589E+03    -11.2074E-03     22.4112E-03    -11.2038E-03     1.90925E-03    -11.1665E-03     22.1367E-03    -11.1610E-03     1.91787E-03
            2002     16.8543E-03     23.7870E-03    -2.60639E+06     125.414E+06     19.6848E+06     61.2246E+03    -21.5198E-03     35.9404E-03    -14.4206E-03     96.9239E-03    -22.5050E-03     37.3044E-03    -14.5002E-03     97.3477E-03
            2003     15.9709E-03     23.6628E-03    -3.38441E+06     72.7899E+06    -23.2619E+06     135.863E+03    -22.0718E-03     36.0741E-03    -14.0023E-03     112.483E-03    -22.8060E-03     37.1222E-03    -14.2193E-03     112.587E-03
            2004     15.0883E-03     23.5746E-03    -1.87272E+06     27.1740E+06    -10.4602E+06     951.221E+03    -20.1576E-03     34.0036E-03    -13.8459E-03     78.1057E-03    -20.3579E-03     34.3241E-03    -13.9349E-03     78.0723E-03
            2005     14.2041E-03     23.5141E-03    -719.276E+03    -8.51800E+06    -6.83847E+06     1.19071E+06    -19.1204E-03     32.7511E-03    -13.6307E-03     59.8609E-03    -19.1655E-03     32.7832E-03    -13.6515E-03     59.8319E-03
            2006     13.3213E-03     23.4602E-03     107.215E+03    -29.7937E+06    -6.87120E+06     1.12645E+06    -18.5866E-03     31.9555E-03    -13.3689E-03     53.9673E-03    -18.5703E-03     31.8537E-03    -13.3602E-03     53.9463E-03
            2007     12.4365E-03     23.4096E-03     343.932E+03    -34.5394E+06     1.11502E+06     1.80659E+06    -17.7511E-03     30.8724E-03    -13.1213E-03     46.7460E-03    -17.7209E-03     30.7177E-03    -13.0662E-03     46.7447E-03
            2008     11.5515E-03     23.3682E-03    -592.494E+03    -43.0062E+06     1.20813E+06     2.00363E+06    -16.9203E-03     29.7677E-03    -12.8474E-03     38.7661E-03    -16.8733E-03     29.5624E-03    -12.7781E-03     38.7752E-03
            2009     10.6659E-03     23.3327E-03    -1.00017E+06    -49.9537E+06     2.49597E+06     1.80353E+06    -16.1333E-03     28.7183E-03    -12.5850E-03     33.2110E-03    -16.0756E-03     28.4725E-03    -12.4987E-03     33.2228E-03
            2010     9.77969E-03     23.3015E-03    -1.34266E+06    -48.5541E+06     5.30643E+06     2.14881E+06    -15.3260E-03     27.6579E-03    -12.3319E-03     28.5032E-03    -15.2735E-03     27.4129E-03    -12.2330E-03     28.5231E-03
            2011     8.89286E-03     23.2747E-03    -2.04518E+06    -49.2404E+06     5.43026E+06     2.58663E+06    -14.5644E-03     26.6514E-03    -12.0870E-03     24.1130E-03    -14.5132E-03     26.4024E-03    -11.9855E-03     24.1409E-03
            2012     8.00539E-03     23.2518E-03    -3.08520E+06    -50.7112E+06     5.82488E+06     2.44342E+06    -13.8375E-03     25.7043E-03    -11.8668E-03     20.2237E-03    -13.7891E-03     25.4481E-03    -11.7597E-03     20.2513E-03
            2013     7.11733E-03     23.2326E-03    -4.22206E+06    -50.8499E+06     4.98274E+06     2.23195E+06    -13.1871E-03     24.8502E-03    -11.6630E-03     16.8108E-03    -13.1426E-03     24.5957E-03    -11.5583E-03     16.8367E-03
            2014     6.22878E-03     23.2165E-03    -5.47011E+06    -52.9213E+06     3.09164E+06     2.52591E+06    -12.6272E-03     24.1087E-03    -11.4815E-03     13.8380E-03    -12.5828E-03     23.8481E-03    -11.3814E-03     13.8684E-03
            2015     5.33977E-03     23.2032E-03    -7.04932E+06    -55.0059E+06     439.438E+03     2.90956E+06    -12.1494E-03     23.4701E-03    -11.3207E-03     11.2461E-03    -12.1059E-03     23.2050E-03    -11.2285E-03     11.2820E-03
            2016     4.45038E-03     23.1923E-03    -8.68054E+06    -56.2395E+06    -2.75747E+06     2.88676E+06    -11.7474E-03     22.9272E-03    -11.1798E-03     8.96567E-03    -11.7055E-03     22.6628E-03    -11.0995E-03     9.00169E-03
            2017     3.56069E-03     23.1838E-03    -10.1814E+06    -57.8269E+06    -5.99379E+06     2.54634E+06    -11.4211E-03     22.4839E-03    -11.0628E-03     6.92858E-03    -11.3796E-03     22.2184E-03    -10.9942E-03     6.96054E-03
            2018     2.67072E-03     23.1772E-03    -11.5144E+06    -59.5370E+06    -8.93668E+06     2.01402E+06    -11.1679E-03     22.1393E-03    -10.9713E-03     5.07549E-03    -11.1263E-03     21.8713E-03    -10.9130E-03     5.10085E-03
            2019     1.78060E-03     23.1727E-03    -12.5245E+06    -60.7212E+06    -11.3129E+06     1.45844E+06    -10.9922E-03     21.8974E-03    -10.9052E-03     3.35756E-03    -10.9504E-03     21.6283E-03    -10.8555E-03     3.37598E-03
            2020     890.327E-06     23.1698E-03    -13.1531E+06    -61.4842E+06    -12.8891E+06     821.860E+03    -10.8910E-03     21.7518E-03    -10.8608E-03     1.79749E-03    -10.8489E-03     21.4822E-03    -10.8170E-03     1.80788E-03
            2021     16.8541E-03     22.8058E-03    -2.36691E+06     125.753E+06     20.8357E+06     463.793E+03    -22.3777E-03     36.7720E-03    -14.3943E-03     96.3335E-03    -23.3532E-03     38.1251E-03    -14.4690E-03     96.7330E-03
            2022     15.9728E-03     22.6813E-03    -2.52124E+06     72.4456E+06    -22.4273E+06     539.521E+03    -22.6304E-03     36.5613E-03    -13.9308E-03     110.854E-03    -23.3453E-03     37.5895E-03    -14.1443E-03     110.945E-03
            2023     15.0900E-03     22.5953E-03    -1.31091E+06     26.6445E+06    -10.7455E+06     306.147E+03    -20.4310E-03     34.1685E-03    -13.7374E-03     76.6999E-03    -20.6225E-03     34.4811E-03    -13.8279E-03     76.6561E-03
            2024     14.2069E-03     22.5353E-03    -729.156E+03    -7.87902E+06    -6.69259E+06     734.598E+03    -19.4019E-03     32.8988E-03    -13.4968E-03     58.7331E-03    -19.4465E-03     32.9322E-03    -13.5178E-03     58.6977E-03
            2025     13.3227E-03     22.4814E-03    -954.121E+03    -30.3338E+06    -7.33606E+06     1.10553E+06    -18.8885E-03     32.0931E-03    -13.2046E-03     52.8428E-03    -18.8749E-03     31.9897E-03    -13.1959E-03     52.8213E-03
            2026     12.4392E-03     22.4328E-03    -522.127E+03    -35.0989E+06     682.237E+03     1.81672E+06    -18.0079E-03     30.9311E-03    -12.9232E-03     45.5846E-03    -17.9800E-03     30.7748E-03    -12.8681E-03     45.5836E-03
            2027     11.5541E-03     22.3920E-03     151.863E+03    -42.7981E+06     1.32234E+06     2.18813E+06    -16.9938E-03     29.6127E-03    -12.6190E-03     37.5813E-03    -16.9429E-03     29.4067E-03    -12.5505E-03     37.5933E-03
            2028     10.6686E-03     22.3575E-03     29.4232E+03    -49.7260E+06     2.89092E+06     1.95612E+06    -16.1199E-03     28.4547E-03    -12.3348E-03     31.9878E-03    -16.0576E-03     28.2076E-03    -12.2483E-03     32.0019E-03
            2029     9.78237E-03     22.3273E-03    -647.782E+03    -48.9061E+06     5.26907E+06     2.20984E+06    -15.2436E-03     27.3048E-03    -12.0612E-03     27.3437E-03    -15.1869E-03     27.0569E-03    -11.9630E-03     27.3646E-03
            2030     8.89542E-03     22.3015E-03    -1.23036E+06    -49.2544E+06     5.57715E+06     2.58178E+06    -14.3993E-03     26.2004E-03    -11.8011E-03     23.0408E-03    -14.3441E-03     25.9498E-03    -11.7000E-03     23.0689E-03
            2031     8.00777E-03     22.2796E-03    -1.90483E+06    -49.8916E+06     6.34469E+06     2.55004E+06    -13.6280E-03     25.1973E-03    -11.5694E-03     19.2600E-03    -13.5756E-03     24.9427E-03    -11.4625E-03     19.2891E-03
            2032     7.11954E-03     22.2611E-03    -3.04208E+06    -50.6724E+06     5.34347E+06     2.41775E+06    -12.9390E-03     24.2958E-03    -11.3568E-03     15.9732E-03    -12.8893E-03     24.0399E-03    -11.2522E-03     16.0016E-03
            2033     6.23072E-03     22.2458E-03    -4.57123E+06    -53.2347E+06     3.39823E+06     2.93498E+06    -12.3552E-03     23.5246E-03    -11.1694E-03     13.1218E-03    -12.3063E-03     23.2606E-03    -11.0686E-03     13.1576E-03
            2034     5.34148E-03     22.2330E-03    -6.15114E+06    -54.5438E+06     964.757E+03     3.36872E+06    -11.8575E-03     22.8609E-03    -11.0035E-03     10.6502E-03    -11.8108E-03     22.5960E-03    -10.9106E-03     10.6921E-03
            2035     4.45183E-03     22.2228E-03    -7.64880E+06    -55.2994E+06    -2.07897E+06     3.27506E+06    -11.4406E-03     22.2995E-03    -10.8589E-03     8.48412E-03    -11.3958E-03     22.0373E-03    -10.7780E-03     8.52524E-03
            2036     3.56184E-03     22.2145E-03    -9.01093E+06    -56.5977E+06    -5.15201E+06     2.95975E+06    -11.1067E-03     21.8464E-03    -10.7397E-03     6.55321E-03    -11.0624E-03     21.5841E-03    -10.6703E-03     6.59057E-03
            2037     2.67162E-03     22.2084E-03    -10.2653E+06    -58.0269E+06    -7.96848E+06     2.44552E+06    -10.8496E-03     21.4960E-03    -10.6464E-03     4.79506E-03    -10.8053E-03     21.2324E-03    -10.5872E-03     4.82603E-03
            2038     1.78116E-03     22.2039E-03    -11.3079E+06    -59.1470E+06    -10.1746E+06     1.71743E+06    -10.6681E-03     21.2480E-03    -10.5799E-03     3.17711E-03    -10.6242E-03     20.9834E-03    -10.5286E-03     3.19889E-03
            2039     890.613E-06     22.2014E-03    -11.9445E+06    -59.6855E+06    -11.6614E+06     995.089E+03    -10.5665E-03     21.1007E-03    -10.5342E-03     1.69315E-03    -10.5228E-03     20.8366E-03    -10.4887E-03     1.70579E-03
            2040     16.8546E-03     21.8203E-03    -2.70479E+06     125.309E+06     21.0784E+06     350.661E+03    -23.1479E-03     37.5106E-03    -14.3627E-03     95.4389E-03    -24.1096E-03     38.8465E-03    -14.4351E-03     95.8094E-03
            2041     15.9742E-03     21.7011E-03    -2.14449E+06     72.7532E+06    -21.6811E+06     314.403E+03    -23.1485E-03     37.0056E-03    -13.8571E-03     108.737E-03    -23.8399E-03     38.0106E-03    -14.0679E-03     108.806E-03
            2042     15.0915E-03     21.6149E-03    -960.109E+03     26.4184E+06    -11.3199E+06     370.909E+03    -20.9081E-03     34.5285E-03    -13.6204E-03     75.8507E-03    -21.0936E-03     34.8373E-03    -13.7140E-03     75.8050E-03
            2043     14.2087E-03     21.5563E-03    -553.359E+03    -8.45708E+06    -6.92834E+06     768.564E+03    -19.8164E-03     33.1623E-03    -13.3459E-03     57.6653E-03    -19.8572E-03     33.1912E-03    -13.3675E-03     57.6294E-03
            2044     13.3256E-03     21.5034E-03    -10.5791E+03    -30.0926E+06    -6.79510E+06     1.23049E+06    -19.0745E-03     32.0982E-03    -13.0237E-03     51.5927E-03    -19.0560E-03     31.9925E-03    -13.0140E-03     51.5730E-03
            2045     12.4413E-03     21.4550E-03     91.7789E+03    -35.6544E+06     381.672E+03     1.26945E+06    -18.1566E-03     30.8692E-03    -12.7126E-03     43.9835E-03    -18.1234E-03     30.7087E-03    -12.6592E-03     43.9758E-03
            2046     11.5570E-03     21.4162E-03     367.494E+03    -42.7729E+06     1.10745E+06     1.70364E+06    -17.0800E-03     29.4614E-03    -12.3814E-03     36.2017E-03    -17.0273E-03     29.2550E-03    -12.3144E-03     36.2078E-03
            2047     10.6713E-03     21.3825E-03     473.299E+03    -49.7638E+06     3.01303E+06     2.12578E+06    -16.0830E-03     28.1584E-03    -12.0754E-03     30.7750E-03    -16.0182E-03     27.9100E-03    -11.9889E-03     30.7918E-03
            2048     9.78515E-03     21.3535E-03     122.454E+03    -49.1562E+06     5.65639E+06     2.44589E+06    -15.1229E-03     26.9082E-03    -11.7854E-03     26.1134E-03    -15.0623E-03     26.6572E-03    -11.6860E-03     26.1377E-03
            2049     8.89800E-03     21.3287E-03    -528.770E+03    -48.8026E+06     5.86062E+06     2.42114E+06    -14.2045E-03     25.7153E-03    -11.5108E-03     21.9561E-03    -14.1467E-03     25.4654E-03    -11.4100E-03     21.9823E-03
            2050     8.01022E-03     21.3078E-03    -980.571E+03    -49.6343E+06     6.73556E+06     2.31267E+06    -13.3871E-03     24.6579E-03    -11.2708E-03     18.3016E-03    -13.3309E-03     24.4025E-03    -11.1638E-03     18.3279E-03
            2051     7.12170E-03     21.2902E-03    -1.95999E+06    -50.8048E+06     5.82577E+06     2.94263E+06    -12.6750E-03     23.7278E-03    -11.0529E-03     15.1508E-03    -12.6203E-03     23.4689E-03    -10.9472E-03     15.1861E-03
            2052     6.23270E-03     21.2755E-03    -3.48720E+06    -53.3451E+06     3.78960E+06     3.49634E+06    -12.0678E-03     22.9287E-03    -10.8608E-03     12.4340E-03    -12.0139E-03     22.6620E-03    -10.7595E-03     12.4772E-03
            2053     5.34315E-03     21.2635E-03    -4.93539E+06    -53.9592E+06     1.52839E+06     3.72149E+06    -11.5545E-03     22.2470E-03    -10.6925E-03     10.0896E-03    -11.5034E-03     21.9824E-03    -10.5995E-03     10.1361E-03
            2054     4.45322E-03     21.2536E-03    -6.30679E+06    -54.3065E+06    -1.31130E+06     3.68400E+06    -11.1340E-03     21.6813E-03    -10.5473E-03     8.02724E-03    -11.0851E-03     21.4210E-03    -10.4660E-03     8.07372E-03
            2055     3.56297E-03     21.2460E-03    -7.68168E+06    -55.2967E+06    -4.20075E+06     3.40773E+06    -10.7952E-03     21.2237E-03    -10.4285E-03     6.19514E-03    -10.7474E-03     20.9645E-03    -10.3582E-03     6.23834E-03
            2056     2.67243E-03     21.2400E-03    -8.85484E+06    -56.2887E+06    -6.76295E+06     2.85183E+06    -10.5409E-03     20.8767E-03    -10.3358E-03     4.53646E-03    -10.4938E-03     20.6179E-03    -10.2751E-03     4.57271E-03
            2057     1.78175E-03     21.2360E-03    -9.75925E+06    -57.1965E+06    -8.79390E+06     2.05772E+06    -10.3624E-03     20.6304E-03    -10.2681E-03     3.00708E-03    -10.3155E-03     20.3714E-03    -10.2149E-03     3.03328E-03
            2058     890.911E-06     21.2333E-03    -10.3827E+06    -57.6434E+06    -10.1062E+06     1.12929E+06    -10.2458E-03     20.4759E-03    -10.2301E-03     1.60889E-03    -10.1995E-03     20.2174E-03    -10.1820E-03     1.62328E-03
            2059     16.8560E-03     20.8360E-03    -1.93411E+06     125.069E+06     21.0410E+06     339.835E+03    -23.6247E-03     37.9566E-03    -14.3319E-03     94.8450E-03    -24.5682E-03     39.2763E-03    -14.4052E-03     95.1953E-03
            2060     15.9749E-03     20.7197E-03    -2.56378E+06     72.7504E+06    -22.5532E+06     486.462E+03    -23.7546E-03     37.5434E-03    -13.7888E-03     107.176E-03    -24.4300E-03     38.5335E-03    -14.0034E-03     107.236E-03
            2061     15.0935E-03     20.6344E-03    -2.09077E+06     26.6540E+06    -11.6969E+06     353.632E+03    -21.7234E-03     35.2294E-03    -13.5060E-03     74.4040E-03    -21.9104E-03     35.5376E-03    -13.6001E-03     74.3525E-03
            2062     14.2112E-03     20.5769E-03    -1.03107E+06    -9.17758E+06    -7.78336E+06     194.516E+03    -20.2837E-03     33.4635E-03    -13.1798E-03     56.1381E-03    -20.3223E-03     33.4885E-03    -13.2040E-03     56.0939E-03
            2063     13.3281E-03     20.5249E-03     381.807E+03    -30.2917E+06    -7.06570E+06     825.272E+03    -19.3402E-03     32.1611E-03    -12.8209E-03     50.1300E-03    -19.3177E-03     32.0530E-03    -12.8129E-03     50.1051E-03
            2064     12.4447E-03     20.4780E-03     1.04065E+06    -35.6620E+06     1.03174E+06     1.32498E+06    -18.1578E-03     30.6454E-03    -12.4876E-03     42.4559E-03    -18.1196E-03     30.4814E-03    -12.4323E-03     42.4497E-03
            2065     11.5596E-03     20.4402E-03     843.205E+03    -43.1828E+06     1.13303E+06     1.48696E+06    -17.0612E-03     29.1970E-03    -12.1358E-03     34.7278E-03    -17.0050E-03     28.9872E-03    -12.0687E-03     34.7316E-03
            2066     10.6743E-03     20.4079E-03     733.051E+03    -49.8356E+06     3.21771E+06     1.96037E+06    -16.0130E-03     27.8250E-03    -11.8120E-03     29.4156E-03    -15.9468E-03     27.5752E-03    -11.7247E-03     29.4306E-03
            2067     9.78782E-03     20.3801E-03     705.831E+03    -49.2906E+06     6.12373E+06     2.25401E+06    -14.9486E-03     26.4573E-03    -11.5087E-03     24.8747E-03    -14.8853E-03     26.2038E-03    -11.4076E-03     24.8969E-03
            2068     8.90066E-03     20.3565E-03     594.536E+03    -48.1236E+06     6.69865E+06     2.24488E+06    -13.9785E-03     25.2038E-03    -11.2252E-03     20.8750E-03    -13.9172E-03     24.9543E-03    -11.1228E-03     20.8992E-03
            2069     8.01253E-03     20.3365E-03    -264.729E+03    -49.8418E+06     6.89654E+06     2.38796E+06    -13.1256E-03     24.1039E-03    -10.9783E-03     17.3886E-03    -13.0657E-03     23.8461E-03    -10.8712E-03     17.4161E-03
            2070     7.12387E-03     20.3198E-03    -1.33287E+06    -51.4866E+06     5.94092E+06     3.21774E+06    -12.3962E-03     23.1540E-03    -10.7578E-03     14.3634E-03    -12.3375E-03     22.8905E-03    -10.6515E-03     14.4025E-03
            2071     6.23452E-03     20.3060E-03    -2.39507E+06    -53.0302E+06     4.12317E+06     3.96187E+06    -11.7744E-03     22.3377E-03    -10.5633E-03     11.7812E-03    -11.7158E-03     22.0704E-03    -10.4623E-03     11.8306E-03
            2072     5.34476E-03     20.2945E-03    -3.67411E+06    -53.3453E+06     1.97073E+06     4.09660E+06    -11.2539E-03     21.6490E-03    -10.3951E-03     9.55856E-03    -11.1980E-03     21.3850E-03    -10.3026E-03     9.61010E-03
            2073     4.45455E-03     20.2853E-03    -4.98227E+06    -53.2996E+06    -488.277E+03     4.11640E+06    -10.8316E-03     21.0842E-03    -10.2526E-03     7.60794E-03    -10.7787E-03     20.8258E-03    -10.1705E-03     7.66008E-03
            2074     3.56401E-03     20.2779E-03    -6.16206E+06    -53.8051E+06    -2.99972E+06     3.82422E+06    -10.5009E-03     20.6369E-03    -10.1360E-03     5.86408E-03    -10.4494E-03     20.3813E-03    -10.0641E-03     5.91272E-03
            2075     2.67324E-03     20.2724E-03    -7.18597E+06    -54.3925E+06    -5.31137E+06     3.22094E+06    -10.2466E-03     20.2914E-03    -10.0448E-03     4.29743E-03    -10.1960E-03     20.0376E-03    -9.98211E-03     4.33849E-03
            2076     1.78224E-03     20.2684E-03    -7.98727E+06    -54.9384E+06    -7.14261E+06     2.34671E+06    -10.0710E-03     20.0499E-03    -9.97891E-03     2.84607E-03    -10.0209E-03     19.7971E-03    -9.92338E-03     2.87603E-03
            2077     891.154E-06     20.2662E-03    -8.47091E+06    -55.2408E+06    -8.35832E+06     1.31561E+06    -9.95752E-03     19.9002E-03    -9.94265E-03     1.52578E-03    -9.90766E-03     19.6484E-03    -9.89206E-03     1.54258E-03
            2078     16.8553E-03     19.8536E-03    -2.51645E+06     124.674E+06     20.9729E+06     605.405E+03    -24.3462E-03     38.6550E-03    -14.3088E-03     93.4938E-03    -25.2763E-03     39.9579E-03    -14.3810E-03     93.8164E-03
            2079     15.9752E-03     19.7356E-03    -3.65313E+06     73.1017E+06    -21.8776E+06     333.161E+03    -24.7026E-03     38.4200E-03    -13.7173E-03     104.994E-03    -25.3715E-03     39.3989E-03    -13.9274E-03     105.030E-03
            2080     15.0955E-03     19.6533E-03    -2.34473E+06     27.3603E+06    -11.8599E+06    -56.2473E+03    -22.4242E-03     35.7946E-03    -13.3704E-03     71.8087E-03    -22.6061E-03     36.0998E-03    -13.4659E-03     71.7474E-03
            2081     14.2137E-03     19.5972E-03    -964.802E+03    -9.12162E+06    -8.51875E+06    -250.163E+03    -20.5947E-03     33.5928E-03    -12.9981E-03     54.6073E-03    -20.6294E-03     33.6164E-03    -13.0261E-03     54.5572E-03
            2082     13.3313E-03     19.5464E-03     93.7680E+03    -31.4693E+06      -8.307E+06     185.066E+03    -19.4892E-03     32.0988E-03    -12.6097E-03     48.7051E-03    -19.4632E-03     31.9856E-03    -12.6057E-03     48.6724E-03
            2083     12.4472E-03     19.5013E-03     825.312E+03    -36.2333E+06     674.736E+03     986.784E+03    -18.2131E-03     30.4687E-03    -12.2556E-03     40.9886E-03    -18.1736E-03     30.3016E-03    -12.2009E-03     40.9787E-03
            2084     11.5628E-03     19.4645E-03     1.10549E+06    -43.3401E+06     1.21576E+06     1.50753E+06    -16.9865E-03     28.8724E-03    -11.8859E-03     33.3606E-03    -16.9282E-03     28.6607E-03    -11.8185E-03     33.3653E-03
            2085     10.6771E-03     19.4337E-03     1.25917E+06    -50.0012E+06     3.34111E+06     1.68833E+06    -15.8555E-03     27.4048E-03    -11.5493E-03     28.0486E-03    -15.7862E-03     27.1528E-03    -11.4619E-03     28.0606E-03
            2086     9.79063E-03     19.4071E-03     1.41861E+06    -49.2202E+06     6.39977E+06     1.72126E+06    -14.7280E-03     25.9662E-03    -11.2382E-03     23.7004E-03    -14.6615E-03     25.7115E-03    -11.1369E-03     23.7161E-03
            2087     8.90303E-03     19.3847E-03     1.11362E+06    -48.2063E+06     6.85379E+06     2.09762E+06    -13.7322E-03     24.6823E-03    -10.9501E-03     19.8467E-03    -13.6682E-03     24.4313E-03    -10.8475E-03     19.8693E-03
            2088     8.01485E-03     19.3657E-03     497.584E+03    -50.0121E+06     7.29968E+06     2.69319E+06    -12.8625E-03     23.5638E-03    -10.7013E-03     16.4899E-03    -12.7990E-03     23.3034E-03    -10.5930E-03     16.5215E-03
            2089     7.12582E-03     19.3500E-03    -502.834E+03    -52.2247E+06     6.06218E+06     3.40107E+06    -12.1144E-03     22.5936E-03    -10.4792E-03     13.6181E-03    -12.0506E-03     22.3250E-03    -10.3724E-03     13.6597E-03
            2090     6.23631E-03     19.3368E-03    -1.51042E+06    -52.7628E+06     4.51615E+06     4.12381E+06    -11.4899E-03     21.7751E-03    -10.2852E-03     11.1634E-03    -11.4279E-03     21.5073E-03    -10.1839E-03     11.2150E-03
            2091     5.34623E-03     19.3261E-03    -2.41778E+06    -52.6094E+06     2.72679E+06     4.40149E+06    -10.9665E-03     21.0855E-03    -10.1190E-03     9.04929E-03    -10.9065E-03     20.8223E-03    -10.0256E-03     9.10487E-03
            2092     4.45576E-03     19.3173E-03    -3.31001E+06    -52.2767E+06     703.727E+03     4.33523E+06    -10.5471E-03     20.5271E-03    -9.98002E-03     7.20784E-03    -10.4890E-03     20.2697E-03    -9.89590E-03     7.26288E-03
            2093     3.56498E-03     19.3105E-03    -4.18170E+06    -52.2135E+06    -1.37077E+06     4.09900E+06    -10.2259E-03     20.0925E-03    -9.86658E-03     5.55166E-03    -10.1692E-03     19.8396E-03    -9.79166E-03     5.60390E-03
            2094     2.67395E-03     19.3052E-03    -5.00908E+06    -52.3319E+06    -3.34512E+06     3.51261E+06    -9.97888E-03     19.7560E-03    -9.77713E-03     4.05727E-03    -9.92323E-03     19.5065E-03    -9.71071E-03     4.10214E-03
            2095     1.78274E-03     19.3016E-03    -5.67061E+06    -52.4519E+06    -4.92310E+06     2.60540E+06    -9.80158E-03     19.5143E-03    -9.71268E-03     2.68907E-03    -9.74676E-03     19.2674E-03    -9.65302E-03     2.72239E-03
            2096     891.413E-06     19.2992E-03    -6.13298E+06    -52.4839E+06    -5.92602E+06     1.49311E+06    -9.68889E-03     19.3701E-03    -9.68118E-03     1.42961E-03    -9.63487E-03     19.1252E-03    -9.62582E-03     1.44872E-03
            2097     16.8564E-03     18.8681E-03    -2.16286E+06     124.831E+06     22.7031E+06     948.943E+03    -25.7930E-03     40.0546E-03    -14.2616E-03     91.6027E-03    -26.7029E-03     41.3342E-03    -14.3260E-03     91.8848E-03
            2098     15.9786E-03     18.7519E-03    -1.83401E+06     73.9039E+06    -20.4626E+06     126.064E+03    -25.3858E-03     38.9838E-03    -13.5980E-03     101.791E-03    -26.0214E-03     39.9347E-03    -13.8048E-03     101.800E-03
            2099     15.0981E-03     18.6716E-03    -781.699E+03     28.1426E+06    -11.3095E+06    -453.831E+03    -22.4148E-03     35.6294E-03    -13.2146E-03     69.5597E-03    -22.5817E-03     35.9264E-03    -13.3109E-03     69.4940E-03
            2100     14.2165E-03     18.6176E-03    -100.707E+03    -9.25975E+06    -8.16335E+06    -333.829E+03    -20.8113E-03     33.6355E-03    -12.8242E-03     53.2622E-03    -20.8398E-03     33.6545E-03    -12.8514E-03     53.2111E-03
            2101     13.3334E-03     18.5680E-03     276.182E+03    -32.5297E+06    -8.76639E+06     71.0798E+03    -19.6594E-03     32.0670E-03    -12.4076E-03     47.2243E-03    -19.6287E-03     31.9473E-03    -12.4046E-03     47.1906E-03
            2102     12.4505E-03     18.5244E-03     290.898E+03    -36.9273E+06     96.1200E+03     701.258E+03    -18.2551E-03     30.2846E-03    -12.0295E-03     39.4167E-03    -18.2155E-03     30.1147E-03    -11.9759E-03     39.4038E-03
            2103     11.5655E-03     18.4894E-03     904.947E+03    -43.3829E+06     904.515E+03     784.099E+03    -16.8760E-03     28.5191E-03    -11.6431E-03     31.9921E-03    -16.8176E-03     28.3074E-03    -11.5770E-03     31.9881E-03
            2104     10.6799E-03     18.4597E-03     1.67806E+06    -50.1814E+06     3.21436E+06     1.13616E+06    -15.6309E-03     26.9302E-03    -11.2993E-03     26.7989E-03    -15.5587E-03     26.6765E-03    -11.2129E-03     26.8044E-03
            2105     9.79298E-03     18.4348E-03     1.45717E+06    -49.4122E+06     6.68297E+06     1.66762E+06    -14.5089E-03     25.4961E-03    -10.9871E-03     22.5756E-03    -14.4421E-03     25.2397E-03    -10.8842E-03     22.5909E-03
            2106     8.90542E-03     18.4133E-03     1.04577E+06    -48.2759E+06     6.92525E+06     1.81078E+06    -13.4976E-03     24.1918E-03    -10.6942E-03     18.8371E-03    -13.4338E-03     23.9403E-03    -10.5911E-03     18.8562E-03
            2107     8.01687E-03     18.3956E-03     772.670E+03    -50.8198E+06     7.41056E+06     2.50584E+06    -12.6039E-03     23.0482E-03    -10.4444E-03     15.5999E-03    -12.5379E-03     22.7832E-03    -10.3348E-03     15.6293E-03
            2108     7.12771E-03     18.3806E-03     192.509E+03    -52.5849E+06     6.72702E+06     3.62129E+06    -11.8469E-03     22.0710E-03    -10.2240E-03     12.8811E-03    -11.7800E-03     21.7986E-03    -10.1144E-03     12.9257E-03
            2109     6.23786E-03     18.3684E-03    -630.530E+03    -52.5170E+06     5.11693E+06     4.08918E+06    -11.2204E-03     21.2504E-03    -10.0300E-03     10.5576E-03    -11.1552E-03     20.9817E-03    -9.92735E-03     10.6088E-03
            2110     5.34760E-03     18.3581E-03    -1.23672E+06    -51.8887E+06     3.45809E+06     4.27359E+06    -10.7084E-03     20.5731E-03    -9.86471E-03     8.54953E-03    -10.6445E-03     20.3106E-03    -9.77038E-03     8.60354E-03
            2111     4.45690E-03     18.3500E-03    -1.76114E+06    -51.2628E+06     1.67443E+06     4.35867E+06    -10.2918E-03     20.0186E-03    -9.72678E-03     6.80167E-03    -10.2288E-03     19.7625E-03    -9.64152E-03     6.85708E-03
            2112     3.56588E-03     18.3434E-03    -2.32996E+06    -50.6258E+06     78.9544E+03     4.14558E+06    -9.96913E-03     19.5850E-03    -9.61591E-03     5.23776E-03    -9.90755E-03     19.3352E-03    -9.53873E-03     5.29065E-03
            2113     2.67462E-03     18.3386E-03    -2.78070E+06    -50.1797E+06    -1.28730E+06     3.55085E+06    -9.73201E-03     19.2610E-03    -9.52901E-03     3.81422E-03    -9.67133E-03     19.0161E-03    -9.45866E-03     3.85962E-03
            2114     1.78319E-03     18.3350E-03    -3.01145E+06    -49.8484E+06    -2.31641E+06     2.62023E+06    -9.55481E-03     19.0208E-03    -9.46597E-03     2.52556E-03    -9.49425E-03     18.7793E-03    -9.40091E-03     2.55910E-03
            2115     891.603E-06     18.3330E-03    -3.02890E+06    -49.6009E+06    -2.91152E+06     1.49851E+06    -9.44149E-03     18.8792E-03    -9.43775E-03     1.35514E-03    -9.38049E-03     18.6399E-03    -9.37600E-03     1.37433E-03
            2116     16.8582E-03     17.8792E-03    -1.51072E+06     124.668E+06     23.1852E+06     256.279E+03    -26.8732E-03     41.0669E-03    -14.1937E-03     90.4424E-03    -27.7563E-03     42.3201E-03    -14.2564E-03     90.6810E-03
            2117     15.9809E-03     17.7686E-03    -607.737E+03     74.5200E+06    -19.8576E+06     533.027E+03    -25.5730E-03     39.0597E-03    -13.4867E-03     99.7050E-03    -26.1736E-03     39.9805E-03    -13.6932E-03     99.7075E-03
            2118     15.1000E-03     17.6908E-03    -238.525E+03     28.7588E+06    -11.1202E+06     53.4686E+03    -22.6767E-03     35.7560E-03    -13.0794E-03     68.4957E-03    -22.8364E-03     36.0494E-03    -13.1763E-03     68.4358E-03
            2119     14.2182E-03     17.6373E-03    -381.976E+03    -9.35260E+06    -8.37933E+06    -543.428E+03    -21.1283E-03     33.7890E-03    -12.6607E-03     51.7556E-03    -21.1551E-03     33.8056E-03    -12.6885E-03     51.7017E-03
            2120     13.3368E-03     17.5896E-03     241.665E+03    -33.3536E+06    -9.04990E+06    -53.0445E+03    -19.8288E-03     32.0440E-03    -12.2152E-03     45.5349E-03    -19.7949E-03     31.9188E-03    -12.2124E-03     45.5002E-03
            2121     12.4527E-03     17.5478E-03     1.52143E+06    -37.0101E+06     823.850E+03     365.933E+03    -18.2197E-03     30.0385E-03    -11.8188E-03     37.7568E-03    -18.1737E-03     29.8642E-03    -11.7632E-03     37.7403E-03
            2122     11.5683E-03     17.5143E-03     1.67908E+06    -43.4587E+06     1.58426E+06     362.434E+03    -16.6906E-03     28.1141E-03    -11.4235E-03     30.5448E-03    -16.6286E-03     27.8993E-03    -11.3550E-03     30.5362E-03
            2123     10.6821E-03     17.4865E-03     1.19164E+06    -50.9240E+06     3.17961E+06     937.508E+03    -15.4455E-03     26.5199E-03    -11.0744E-03     25.6043E-03    -15.3742E-03     26.2629E-03    -10.9864E-03     25.6076E-03
            2124     9.79534E-03     17.4625E-03     1.33921E+06    -49.1781E+06     7.45617E+06     1.13177E+06    -14.3218E-03     25.0810E-03    -10.7592E-03     21.4064E-03    -14.2568E-03     24.8246E-03    -10.6526E-03     21.4152E-03
            2125     8.90745E-03     17.4426E-03     1.61244E+06    -48.4912E+06     7.93050E+06     1.27301E+06    -13.2700E-03     23.7337E-03    -10.4637E-03     17.7738E-03    -13.2044E-03     23.4787E-03    -10.3561E-03     17.7863E-03
            2126     8.01880E-03     17.4258E-03     1.14498E+06    -52.1462E+06     7.79083E+06     2.38460E+06    -12.3673E-03     22.5790E-03    -10.2117E-03     14.7123E-03    -12.2981E-03     22.3061E-03    -10.0988E-03     14.7402E-03
            2127     7.12936E-03     17.4119E-03     340.706E+03    -52.9666E+06     7.21580E+06     3.57382E+06    -11.6092E-03     21.5997E-03    -9.99057E-03     12.1291E-03    -11.5416E-03     21.3245E-03    -9.87818E-03     12.1733E-03
            2128     6.23936E-03     17.4002E-03    -358.331E+03    -51.9890E+06     5.26172E+06     3.99006E+06    -10.9807E-03     20.7739E-03    -9.79319E-03     9.92873E-03    -10.9151E-03     20.5072E-03    -9.69098E-03     9.97879E-03
            2129     5.34884E-03     17.3908E-03    -1.05503E+06    -51.2921E+06     3.30640E+06     4.05017E+06    -10.4741E-03     20.1002E-03    -9.62613E-03     8.02436E-03    -10.4100E-03     19.8407E-03    -9.53369E-03     8.07558E-03
            2130     4.45795E-03     17.3830E-03    -1.45081E+06    -50.2355E+06     1.86130E+06     4.04606E+06    -10.0612E-03     19.5491E-03    -9.48782E-03     6.36900E-03    -9.99846E-03     19.2974E-03    -9.40357E-03     6.42044E-03
            2131     3.56672E-03     17.3770E-03    -1.45816E+06    -49.0918E+06     805.652E+03     3.73988E+06    -9.73444E-03     19.1111E-03    -9.37663E-03     4.90548E-03    -9.67178E-03     18.8666E-03    -9.29931E-03     4.95318E-03
            2132     2.67525E-03     17.3723E-03    -1.27274E+06    -48.0514E+06     210.452E+03     3.06080E+06    -9.49263E-03     18.7841E-03    -9.29149E-03     3.56186E-03    -9.42966E-03     18.5454E-03    -9.21891E-03     3.60097E-03
            2133     1.78360E-03     17.3691E-03    -966.107E+03    -47.4284E+06    -240.452E+03     2.12820E+06    -9.32233E-03     18.5515E-03    -9.22919E-03     2.34295E-03    -9.25806E-03     18.3161E-03    -9.16022E-03     2.37017E-03
            2134     891.847E-06     17.3671E-03    -641.755E+03    -47.0111E+06    -425.710E+03     1.20090E+06    -9.20407E-03     18.4052E-03    -9.20114E-03     1.27359E-03    -9.13850E-03     18.1717E-03    -9.13418E-03     1.28895E-03
            2135     16.8595E-03     16.8921E-03    -978.770E+03     123.887E+06     22.1804E+06    -110.666E+03    -27.4025E-03     41.5443E-03    -14.1418E-03     87.6697E-03    -28.2451E-03     42.7592E-03    -14.2092E-03     87.8740E-03
            2136     15.9802E-03     16.7848E-03    -2.40596E+06     73.8737E+06    -20.8651E+06     743.917E+03    -25.7598E-03     39.1695E-03    -13.4098E-03     96.8310E-03    -26.3371E-03     40.0612E-03    -13.6177E-03     96.8306E-03
            2137     15.1014E-03     16.7084E-03    -2.26058E+06     30.2607E+06    -11.9004E+06     260.769E+03    -23.3239E-03     36.2895E-03    -12.9656E-03     66.4255E-03    -23.4884E-03     36.5880E-03    -13.0657E-03     66.3647E-03
            2138     14.2214E-03     16.6574E-03    -1.64017E+06    -8.57081E+06    -9.36417E+06    -775.640E+03    -21.5016E-03     34.0053E-03    -12.5037E-03     50.0219E-03    -21.5316E-03     34.0263E-03    -12.5357E-03     49.9649E-03
            2139     13.3383E-03     16.6112E-03    -229.219E+03    -34.0906E+06    -10.3312E+06    -982.312E+03    -19.9090E-03     31.9390E-03    -12.0300E-03     43.6624E-03    -19.8725E-03     31.8107E-03    -12.0319E-03     43.6166E-03
            2140     12.4558E-03     16.5713E-03     1.20869E+06    -37.8845E+06     230.324E+03    -488.038E+03    -18.0682E-03     29.6927E-03    -11.6245E-03     35.9723E-03    -18.0205E-03     29.5142E-03    -11.5702E-03     35.9459E-03
            2141     11.5703E-03     16.5401E-03     1.29182E+06    -44.0172E+06     2.13782E+06     702.503E+03    -16.5369E-03     27.7662E-03    -11.2294E-03     29.1378E-03    -16.4762E-03     27.5478E-03    -11.1567E-03     29.1342E-03
            2142     10.6844E-03     16.5131E-03     1.24493E+06    -50.5602E+06     3.78598E+06     730.705E+03    -15.3313E-03     26.2028E-03    -10.8715E-03     24.3096E-03    -15.2609E-03     25.9463E-03    -10.7810E-03     24.3107E-03
            2143     9.79740E-03     16.4909E-03     1.57914E+06    -48.8775E+06     8.04612E+06     20.2972E+03    -14.1356E-03     24.6854E-03    -10.5499E-03     20.1673E-03    -14.0705E-03     24.4292E-03    -10.4410E-03     20.1621E-03
            2144     8.90940E-03     16.4721E-03     1.42019E+06    -49.8020E+06     8.39640E+06     917.205E+03    -13.0639E-03     23.3180E-03    -10.2541E-03     16.6879E-03    -12.9979E-03     23.0560E-03    -10.1419E-03     16.6960E-03
            2145     8.02048E-03     16.4566E-03     704.344E+03    -53.3807E+06     7.66053E+06     2.50492E+06    -12.1726E-03     22.1695E-03    -9.99691E-03     13.7625E-03    -12.1035E-03     21.8913E-03    -9.88223E-03     13.7922E-03
            2146     7.13091E-03     16.4434E-03    -42.0986E+03    -53.1439E+06     6.54894E+06     3.37010E+06    -11.4127E-03     21.1808E-03    -9.76807E-03     11.3008E-03    -11.3458E-03     20.9061E-03    -9.65821E-03     11.3424E-03
            2147     6.24071E-03     16.4327E-03    -552.776E+03    -51.5334E+06     5.35329E+06     3.68813E+06    -10.7820E-03     20.3513E-03    -9.56931E-03     9.22347E-03    -10.7181E-03     20.0870E-03    -9.46702E-03     9.26972E-03
            2148     5.35005E-03     16.4237E-03    -816.522E+03    -50.4836E+06     4.44170E+06     3.62282E+06    -10.2669E-03     19.6690E-03    -9.40207E-03     7.41996E-03    -10.2044E-03     19.4115E-03    -9.30548E-03     7.46573E-03
            2149     4.45896E-03     16.4166E-03    -917.151E+03    -49.2123E+06     3.24115E+06     3.32151E+06    -9.84893E-03     19.1088E-03    -9.25990E-03     5.85955E-03    -9.78695E-03     18.8595E-03    -9.17100E-03     5.90170E-03
            2150     3.56755E-03     16.4108E-03    -844.704E+03    -47.6096E+06     1.94820E+06     2.92110E+06    -9.51167E-03     18.6542E-03    -9.14249E-03     4.50123E-03    -9.44974E-03     18.4146E-03    -9.06249E-03     4.53841E-03
            2151     2.67589E-03     16.4066E-03    -614.801E+03    -46.1367E+06     966.817E+03     2.19066E+06    -9.25349E-03     18.3061E-03    -9.05259E-03     3.27173E-03    -9.19110E-03     18.0749E-03    -8.97997E-03     3.29964E-03
            2152     1.78403E-03     16.4035E-03    -325.414E+03    -45.5597E+06     479.870E+03     1.36863E+06    -9.08325E-03     18.0730E-03    -8.98977E-03     2.15572E-03    -9.01953E-03     17.8450E-03    -8.92084E-03     2.17315E-03
            2153     892.055E-06     16.4017E-03    -23.6543E+03    -45.1640E+06     237.243E+03     719.263E+03    -8.97498E-03     17.9250E-03    -8.95004E-03     1.15800E-03    -8.90996E-03     17.6989E-03    -8.88333E-03     1.16716E-03
            2154     16.8598E-03     15.9058E-03    -1.49570E+06     123.120E+06     21.4655E+06     479.506E+03    -28.4425E-03     42.5613E-03    -14.1188E-03     84.5411E-03    -29.2523E-03     43.7408E-03    -14.1878E-03     84.7137E-03
            2155     15.9831E-03     15.7999E-03    -2.73661E+06     74.8855E+06    -21.0204E+06     1.19807E+06    -26.6904E-03     40.0148E-03    -13.3245E-03     93.4272E-03    -27.2416E-03     40.8833E-03    -13.5342E-03     93.4104E-03
            2156     15.1036E-03     15.7261E-03    -2.31587E+06     31.8658E+06    -12.5153E+06    -194.533E+03    -23.5796E-03     36.4108E-03    -12.8311E-03     63.5708E-03    -23.7361E-03     36.7086E-03    -12.9366E-03     63.5034E-03
            2157     14.2222E-03     15.6768E-03    -1.16132E+06    -7.75284E+06    -9.07973E+06    -1.31817E+06    -21.6091E-03     33.9595E-03    -12.3504E-03     47.6771E-03    -21.6347E-03     33.9798E-03    -12.3828E-03     47.6143E-03
            2158     13.3418E-03     15.6327E-03    -461.148E+03    -34.2558E+06    -11.1251E+06    -1.42858E+06    -19.7859E-03     31.6470E-03    -11.8610E-03     41.4646E-03    -19.7469E-03     31.5171E-03    -11.8663E-03     41.4146E-03
            2159     12.4571E-03     15.5957E-03    -503.463E+03    -39.4086E+06    -1.35845E+06    -691.491E+03    -17.9218E-03     29.3725E-03    -11.4507E-03     34.2070E-03    -17.8771E-03     29.1901E-03    -11.3996E-03     34.1790E-03
            2160     11.5726E-03     15.5655E-03    -129.024E+03    -44.5160E+06     1.16100E+06     79.0528E+03    -16.4941E-03     27.5425E-03    -11.0484E-03     27.6535E-03    -16.4379E-03     27.3245E-03    -10.9778E-03     27.6424E-03
            2161     10.6864E-03     15.5405E-03     1.14913E+06    -49.2045E+06     3.57850E+06    -410.792E+03    -15.2063E-03     25.8864E-03    -10.6801E-03     22.8856E-03    -15.1377E-03     25.6369E-03    -10.5925E-03     22.8724E-03
            2162     9.79927E-03     15.5194E-03     1.55490E+06    -49.4423E+06     8.38522E+06    -526.889E+03    -13.9834E-03     24.3414E-03    -10.3580E-03     18.8417E-03    -13.9180E-03     24.0817E-03    -10.2466E-03     18.8297E-03
            2163     8.91108E-03     15.5022E-03     858.441E+03    -51.8281E+06     8.58085E+06     953.400E+03    -12.9430E-03     23.0004E-03    -10.0574E-03     15.4515E-03    -12.8771E-03     22.7286E-03    -9.94055E-03     15.4602E-03
            2164     8.02213E-03     15.4874E-03     50.9598E+03    -54.2285E+06     7.81378E+06     2.42584E+06    -12.0443E-03     21.8331E-03    -9.78880E-03     12.6138E-03    -11.9774E-03     21.5512E-03    -9.67117E-03     12.6426E-03
            2165     7.13243E-03     15.4755E-03    -461.645E+03    -53.0602E+06     6.92317E+06     2.96056E+06    -11.2675E-03     20.8164E-03    -9.54893E-03     10.2606E-03    -11.2033E-03     20.5422E-03    -9.43671E-03     10.2971E-03
            2166     6.24210E-03     15.4653E-03    -723.765E+03    -51.0516E+06     5.88299E+06     3.00361E+06    -10.6126E-03     19.9524E-03    -9.33979E-03     8.30372E-03    -10.5510E-03     19.6899E-03    -9.23530E-03     8.34123E-03
            2167     5.35128E-03     15.4572E-03    -918.463E+03    -49.5909E+06     5.17910E+06     2.80178E+06    -10.0694E-03     19.2332E-03    -9.16388E-03     6.63174E-03    -10.0097E-03     18.9793E-03    -9.06474E-03     6.66699E-03
            2168     4.46003E-03     15.4504E-03    -1.14320E+06    -48.2168E+06     3.97947E+06     2.47171E+06    -9.62839E-03     18.6427E-03    -9.01431E-03     5.21375E-03    -9.57004E-03     18.3976E-03    -8.92285E-03     5.24499E-03
            2169     3.56844E-03     15.4453E-03    -1.26152E+06    -46.3244E+06     2.20007E+06     1.99470E+06    -9.27078E-03     18.1595E-03    -8.88869E-03     3.97766E-03    -9.21315E-03     17.9265E-03    -8.80869E-03     4.00293E-03
            2170     2.67655E-03     15.4412E-03    -1.21774E+06    -44.6731E+06     490.381E+03     1.38016E+06    -8.99709E-03     17.7890E-03    -8.79188E-03     2.89864E-03    -8.93914E-03     17.5667E-03    -8.72289E-03     2.91612E-03
            2171     1.78447E-03     15.4385E-03    -1.17895E+06    -44.3225E+06    -516.213E+03     808.863E+03    -8.81979E-03     17.5461E-03    -8.72635E-03     1.90972E-03    -8.76068E-03     17.3270E-03    -8.66296E-03     1.91995E-03
            2172     892.259E-06     15.4367E-03    -1.18294E+06    -44.0811E+06    -989.449E+03     371.885E+03    -8.73093E-03     17.3979E-03    -8.66693E-03     1.00394E-03    -8.67149E-03     17.1806E-03    -8.60625E-03     1.00863E-03
            2173     16.8584E-03     14.9136E-03    -3.27736E+06     122.798E+06     22.3909E+06     966.398E+03    -29.6084E-03     43.7222E-03    -14.1137E-03     81.8248E-03    -30.3979E-03     44.8711E-03    -14.1751E-03     81.9629E-03
            2174     15.9843E-03     14.8147E-03    -3.88929E+06     77.1206E+06    -19.4564E+06     553.476E+03    -28.0153E-03     41.2557E-03    -13.2404E-03     89.0545E-03    -28.5456E-03     42.1027E-03    -13.4439E-03     89.0012E-03
            2175     15.1058E-03     14.7441E-03    -2.16758E+06     33.1814E+06    -13.5153E+06    -725.914E+03    -23.8482E-03     36.5230E-03    -12.6749E-03     60.3852E-03    -23.9931E-03     36.8175E-03    -12.7874E-03     60.3100E-03
            2176     14.2261E-03     14.6961E-03    -716.557E+03     -7.9952E+06    -9.43069E+06    -1.41501E+06    -21.2313E-03     33.4209E-03    -12.1896E-03     45.4518E-03    -21.2493E-03     33.4354E-03    -12.2241E-03     45.3906E-03
            2177     13.3425E-03     14.6553E-03    -656.580E+03    -34.9634E+06    -11.5224E+06    -1.24867E+06    -19.5610E-03     31.2689E-03    -11.7079E-03     39.2034E-03    -19.5192E-03     31.1341E-03    -11.7138E-03     39.1573E-03
            2178     12.4596E-03     14.6196E-03    -357.185E+03    -39.9068E+06    -1.47653E+06    -568.721E+03    -17.8837E-03     29.1774E-03    -11.2937E-03     32.3332E-03    -17.8363E-03     28.9914E-03    -11.2427E-03     32.3076E-03
            2179     11.5743E-03     14.5915E-03     105.329E+03    -44.1388E+06     844.745E+03    -905.909E+03    -16.4507E-03     27.3290E-03    -10.8783E-03     26.0195E-03    -16.3929E-03     27.1124E-03    -10.8102E-03     25.9963E-03
            2180     10.6883E-03     14.5678E-03     517.372E+03    -48.7849E+06     2.98552E+06    -1.44156E+06    -15.1513E-03     25.6495E-03    -10.4982E-03     21.2621E-03    -15.0853E-03     25.4035E-03    -10.4133E-03     21.2360E-03
            2181     9.80103E-03     14.5485E-03     151.390E+03    -50.8415E+06     8.29169E+06    -590.743E+03    -13.9694E-03     24.1367E-03    -10.1673E-03     17.2402E-03    -13.9086E-03     23.8719E-03    -10.0523E-03     17.2276E-03
            2182     8.91293E-03     14.5322E-03    -734.673E+03    -53.7111E+06     8.42040E+06     1.00591E+06    -12.9288E-03     22.7762E-03    -9.84736E-03     13.8326E-03    -12.8678E-03     22.4975E-03    -9.72631E-03     13.8421E-03
            2183     8.02393E-03     14.5189E-03    -1.47427E+06    -54.6172E+06     7.72389E+06     2.03812E+06    -11.9841E-03     21.5395E-03    -9.55537E-03     11.0898E-03    -11.9240E-03     21.2579E-03    -9.43542E-03     11.1138E-03
            2184     7.13416E-03     14.5077E-03    -1.90220E+06    -52.8792E+06     7.02061E+06     2.23440E+06    -11.1602E-03     20.4547E-03    -9.29456E-03     8.85328E-03    -11.1035E-03     20.1832E-03    -9.18003E-03     8.88047E-03
            2185     6.24378E-03     14.4986E-03    -2.27394E+06    -50.5251E+06     5.01064E+06     2.22187E+06    -10.4430E-03     19.5045E-03    -9.06148E-03     7.03066E-03    -10.3885E-03     19.2481E-03    -8.95987E-03     7.05818E-03
            2186     5.35276E-03     14.4909E-03    -2.67037E+06    -48.8156E+06     3.22590E+06     2.02347E+06    -9.83914E-03     18.7049E-03    -8.86573E-03     5.53880E-03    -9.78650E-03     18.4601E-03    -8.77495E-03     5.56409E-03
            2187     4.46131E-03     14.4849E-03    -2.96105E+06    -47.2999E+06     2.12084E+06     1.58234E+06    -9.35493E-03     18.0619E-03    -8.70702E-03     4.31243E-03    -9.30429E-03     17.8267E-03    -8.62354E-03     4.33227E-03
            2188     3.56947E-03     14.4800E-03    -3.06957E+06    -45.3739E+06     403.379E+03     1.06709E+06    -8.97759E-03     17.5529E-03    -8.57527E-03     3.26328E-03    -8.92777E-03     17.3299E-03    -8.50301E-03     3.27664E-03
            2189     2.67736E-03     14.4765E-03    -3.06877E+06    -43.8428E+06    -1.40092E+06     757.507E+03    -8.69543E-03     17.1678E-03    -8.47239E-03     2.36418E-03    -8.64520E-03     16.9551E-03    -8.41137E-03     2.37367E-03
            2190     1.78500E-03     14.4738E-03    -3.12824E+06    -43.5496E+06    -2.55956E+06     532.198E+03    -8.50347E-03     16.9045E-03    -8.40103E-03     1.55434E-03    -8.45227E-03     16.6950E-03    -8.34615E-03     1.56104E-03
            2191     892.562E-06     14.4724E-03    -3.24954E+06    -43.4193E+06    -3.12652E+06     232.132E+03    -8.41251E-03     16.7428E-03    -8.33032E-03     791.759E-06    -8.36127E-03     16.5350E-03    -8.27828E-03     794.662E-06
            2192     16.8605E-03     13.9238E-03    -3.19738E+06     123.420E+06     25.8331E+06     1.34605E+06    -30.8138E-03     44.8900E-03    -14.0762E-03     78.4685E-03    -31.5665E-03     45.9948E-03    -14.1214E-03     78.5694E-03
            2193     15.9855E-03     13.8257E-03    -3.24036E+06     78.1108E+06    -16.6619E+06     72.4952E+03    -28.3237E-03     41.4680E-03    -13.1443E-03     83.0179E-03    -28.8087E-03     42.2675E-03    -13.3362E-03     82.9401E-03
            2194     15.1094E-03     13.7623E-03    -2.70801E+06     33.5214E+06    -14.3321E+06    -1.00716E+06    -23.7881E-03     36.3288E-03    -12.5407E-03     57.2554E-03    -23.9236E-03     36.6154E-03    -12.6570E-03     57.1780E-03
            2195     14.2265E-03     13.7169E-03    -1.51352E+06    -7.85152E+06    -10.0609E+06    -1.39163E+06    -21.2179E-03     33.2649E-03    -12.0469E-03     43.7216E-03    -21.2361E-03     33.2791E-03    -12.0837E-03     43.6621E-03
            2196     13.3455E-03     13.6772E-03    -611.505E+03    -35.7998E+06    -11.6620E+06    -1.13237E+06    -19.4589E-03     31.0188E-03    -11.5599E-03     36.8768E-03    -19.4130E-03     30.8776E-03    -11.5654E-03     36.8337E-03
            2197     12.4610E-03     13.6443E-03    -141.482E+03    -40.1822E+06    -1.64329E+06    -886.923E+03    -17.8551E-03     28.9912E-03    -11.1361E-03     30.4151E-03    -17.8049E-03     28.8026E-03    -11.0858E-03     30.3862E-03
            2198     11.5763E-03     13.6172E-03     13.9105E+03    -43.2178E+06     1.35812E+06    -1.25867E+06    -16.5278E-03     27.2343E-03    -10.7065E-03     24.0236E-03    -16.4720E-03     27.0212E-03    -10.6371E-03     23.9962E-03
            2199     10.6902E-03     13.5957E-03    -555.432E+03    -49.1032E+06     3.27035E+06    -1.36216E+06    -15.2947E-03     25.5973E-03    -10.3025E-03     19.1345E-03    -15.2337E-03     25.3505E-03    -10.2142E-03     19.1097E-03
            2200     9.80320E-03     13.5773E-03    -1.59897E+06    -52.6146E+06     8.55486E+06    -411.709E+03    -14.1128E-03     24.0538E-03    -9.94104E-03     15.0624E-03    -14.0583E-03     23.7822E-03    -9.81965E-03     15.0523E-03
            2201     8.91521E-03     13.5627E-03    -2.71675E+06    -55.0486E+06     8.81232E+06     938.602E+03    -12.9910E-03     22.5765E-03    -9.58559E-03     11.6731E-03    -12.9383E-03     22.2933E-03    -9.45777E-03     11.6819E-03
            2202     8.02627E-03     13.5504E-03    -3.66180E+06    -54.7099E+06     6.79183E+06     1.55430E+06    -11.9622E-03     21.2132E-03    -9.25100E-03     9.06265E-03    -11.9115E-03     20.9356E-03    -9.13240E-03     9.08050E-03
            2203     7.13653E-03     13.5404E-03    -4.48510E+06    -52.5258E+06     4.83192E+06     1.58191E+06    -11.0322E-03     19.9851E-03    -8.95298E-03     7.00692E-03    -10.9857E-03     19.7223E-03    -8.84616E-03     7.02583E-03
            2204     6.24596E-03     13.5321E-03    -5.04827E+06    -50.2105E+06     2.83293E+06     1.44859E+06    -10.2250E-03     18.9199E-03    -8.69486E-03     5.40593E-03    -10.1817E-03     18.6722E-03    -8.60057E-03     5.42359E-03
            2205     5.35481E-03     13.5254E-03    -5.30097E+06    -48.1457E+06     491.259E+03     1.25393E+06    -9.55061E-03     18.0261E-03    -8.47544E-03     4.15710E-03    -9.50810E-03     17.7924E-03    -8.39548E-03     4.17257E-03
            2206     4.46304E-03     13.5199E-03    -5.44322E+06    -46.3759E+06    -1.37910E+06     710.683E+03    -9.00664E-03     17.3044E-03    -8.29774E-03     3.16171E-03    -8.96467E-03     17.0824E-03    -8.22950E-03     3.17038E-03
            2207     3.57089E-03     13.5156E-03    -5.46880E+06    -44.8519E+06    -2.77013E+06     230.630E+03    -8.59534E-03     16.7537E-03    -8.15835E-03     2.35152E-03    -8.55366E-03     16.5414E-03    -8.09924E-03     2.35415E-03
            2208     2.67842E-03     13.5123E-03    -5.44060E+06    -43.6477E+06    -3.98388E+06     202.711E+03    -8.29746E-03     16.3485E-03    -8.05103E-03     1.67997E-03    -8.25562E-03     16.1439E-03    -7.99977E-03     1.68235E-03
            2209     1.78577E-03     13.5101E-03    -5.40262E+06    -43.1696E+06    -4.77443E+06     247.954E+03    -8.08345E-03     16.0591E-03    -7.97568E-03     1.10490E-03    -8.04095E-03     15.8580E-03    -7.92912E-03     1.10795E-03
            2210     892.896E-06     13.5086E-03    -5.41269E+06    -43.0186E+06    -5.29370E+06     169.650E+03    -7.96892E-03     15.8890E-03    -7.92006E-03     559.893E-06    -7.92594E-03     15.6894E-03    -7.87631E-03     562.009E-06
            2211     16.8616E-03     12.9281E-03    -2.88692E+06     123.111E+06     27.5172E+06     842.143E+03    -31.5584E-03     45.5687E-03    -14.0103E-03     75.9004E-03    -32.2708E-03     46.6283E-03    -14.0470E-03     75.9616E-03
            2212     15.9898E-03     12.8405E-03    -2.12962E+06     78.5687E+06    -13.7611E+06     601.978E+03    -28.0411E-03     41.0990E-03    -13.0579E-03     77.8239E-03    -28.4765E-03     41.8461E-03    -13.2375E-03     77.7470E-03
            2213     15.1078E-03     12.7806E-03    -1.84393E+06     34.8202E+06    -12.9965E+06    -215.779E+03    -23.8280E-03     36.2669E-03    -12.4390E-03     54.1590E-03    -23.9537E-03     36.5475E-03    -12.5518E-03     54.0938E-03
            2214     14.2299E-03     12.7359E-03    -1.39505E+06    -6.97697E+06    -9.03677E+06    -1.31088E+06    -21.4795E-03     33.4045E-03    -11.9250E-03     40.8369E-03    -21.4961E-03     33.4177E-03    -11.9580E-03     40.7793E-03
            2215     13.3467E-03     12.7008E-03    -594.429E+03    -36.4905E+06    -10.9713E+06    -1.17372E+06    -19.6246E-03     31.0376E-03    -11.4130E-03     34.6891E-03    -19.5765E-03     30.8898E-03    -11.4141E-03     34.6466E-03
            2216     12.4633E-03     12.6681E-03    -962.937E+03    -40.2349E+06    -962.080E+03    -919.312E+03    -18.1383E-03     29.0980E-03    -10.9598E-03     27.9778E-03    -18.0920E-03     28.9084E-03    -10.9048E-03     27.9489E-03
            2217     11.5786E-03     12.6435E-03    -1.72691E+06    -42.6210E+06     2.39488E+06    -1.16579E+06    -16.8073E-03     27.3010E-03    -10.4937E-03     21.3920E-03    -16.7618E-03     27.0912E-03    -10.4174E-03     21.3663E-03
            2218     10.6929E-03     12.6229E-03    -2.33567E+06    -49.7379E+06     4.23525E+06    -1.10186E+06    -15.5974E-03     25.6428E-03    -10.0454E-03     16.3842E-03    -15.5453E-03     25.3936E-03    -9.94869E-03     16.3630E-03
            2219     9.80628E-03     12.6066E-03    -3.14930E+06    -54.1053E+06     8.90195E+06    -201.625E+03    -14.2785E-03     23.9121E-03    -9.63364E-03     12.3155E-03    -14.2298E-03     23.6345E-03    -9.50611E-03     12.3082E-03
            2220     8.91841E-03     12.5931E-03    -4.36094E+06    -56.0042E+06     8.46361E+06     796.080E+03    -13.0198E-03     22.2505E-03    -9.23076E-03     9.17580E-03    -12.9732E-03     21.9652E-03    -9.10091E-03     9.18300E-03
            2221     8.02958E-03     12.5824E-03    -5.56253E+06    -54.6444E+06     5.73313E+06     1.29982E+06    -11.8657E-03     20.7192E-03    -8.85355E-03     6.84110E-03    -11.8229E-03     20.4461E-03    -8.73758E-03     6.85584E-03
            2222     7.13966E-03     12.5735E-03    -6.51429E+06    -52.0235E+06     3.04339E+06     1.11019E+06    -10.8242E-03     19.3433E-03    -8.51913E-03     5.09632E-03    -10.7859E-03     19.0884E-03    -8.41903E-03     5.10928E-03
            2223     6.24894E-03     12.5664E-03    -7.22991E+06    -49.8939E+06     820.149E+03     777.958E+03    -9.92957E-03     18.1629E-03    -8.23337E-03     3.77963E-03    -9.89467E-03     17.9229E-03    -8.14645E-03     3.78875E-03
            2224     5.35742E-03     12.5605E-03    -7.74270E+06    -47.5906E+06    -1.96720E+06     436.484E+03    -9.19062E-03     17.1792E-03    -7.98856E-03     2.80308E-03    -9.15753E-03     16.9554E-03    -7.91817E-03     2.80808E-03
            2225     4.46537E-03     12.5558E-03    -7.87821E+06    -45.6244E+06    -4.59006E+06    -41.7959E+03    -8.59491E-03     16.3811E-03    -7.78621E-03     2.04529E-03    -8.56152E-03     16.1711E-03    -7.73159E-03     2.04431E-03
            2226     3.57279E-03     12.5520E-03    -7.92506E+06    -44.7216E+06    -6.06447E+06    -347.561E+03    -8.12826E-03     15.7588E-03    -7.63050E-03     1.46676E-03    -8.09427E-03     15.5554E-03    -7.58449E-03     1.46198E-03
            2227     2.67989E-03     12.5491E-03    -7.94209E+06    -43.8645E+06    -6.78708E+06    -317.513E+03    -7.78489E-03     15.3003E-03    -7.51541E-03     1.01028E-03    -7.75118E-03     15.1023E-03    -7.47422E-03     1.00598E-03
            2228     1.78671E-03     12.5471E-03    -7.86056E+06    -43.1925E+06    -7.32311E+06    -121.714E+03    -7.54763E-03     14.9841E-03    -7.43651E-03     649.824E-06    -7.51370E-03     14.7902E-03    -7.39909E-03     648.131E-06
            2229     893.405E-06     12.5459E-03    -7.79466E+06    -42.8973E+06    -7.64293E+06     13.5409E+03    -7.42860E-03     14.8100E-03    -7.38141E-03     327.842E-06    -7.39430E-03     14.6179E-03    -7.34613E-03     327.953E-06
            2230     16.8634E-03     11.9322E-03    -2.62228E+06     122.431E+06     27.7873E+06     673.919E+03    -31.6210E-03     45.5835E-03    -13.9625E-03     72.3095E-03    -32.2869E-03     46.5945E-03    -13.9973E-03     72.3433E-03
            2231     15.9869E-03     11.8568E-03    -3.64938E+06     80.0922E+06    -10.2244E+06     577.223E+03    -28.3477E-03     41.3513E-03    -13.0035E-03     71.9308E-03    -28.7571E-03     42.0620E-03    -13.1655E-03     71.8470E-03
            2232     15.1128E-03     11.7953E-03    -3.14299E+06     36.5877E+06    -10.8577E+06    -32.4504E+03    -24.1946E-03     36.5385E-03    -12.3439E-03     50.4352E-03    -24.3227E-03     36.8171E-03    -12.4467E-03     50.3718E-03
            2233     14.2305E-03     11.7584E-03    -2.57358E+06    -6.92376E+06    -7.65204E+06    -662.417E+03    -21.7105E-03     33.5090E-03    -11.7985E-03     38.1619E-03    -21.7311E-03     33.5182E-03    -11.8230E-03     38.1141E-03
            2234     13.3490E-03     11.7216E-03    -2.64457E+06    -37.4480E+06    -10.1311E+06    -775.144E+03    -20.3251E-03     31.5674E-03    -11.2423E-03     31.7847E-03    -20.2851E-03     31.4146E-03    -11.2349E-03     31.7474E-03
            2235     12.4665E-03     11.6930E-03    -2.77539E+06    -40.3219E+06    -29.8709E+03    -820.324E+03    -18.7029E-03     29.4293E-03    -10.7264E-03     24.9093E-03    -18.6657E-03     29.2393E-03    -10.6641E-03     24.8821E-03
            2236     11.5820E-03     11.6690E-03    -2.97844E+06    -41.8911E+06     4.24404E+06    -1.10473E+06    -17.2479E-03     27.4504E-03    -10.2025E-03     18.4818E-03    -17.2117E-03     27.2427E-03    -10.1162E-03     18.4572E-03
            2237     10.6970E-03     11.6505E-03    -3.36382E+06    -50.6159E+06     5.58882E+06    -1.20096E+06    -15.8019E-03     25.5011E-03    -9.69914E-03     13.3774E-03    -15.7552E-03     25.2466E-03    -9.59293E-03     13.3553E-03
            2238     9.81035E-03     11.6358E-03    -4.51853E+06    -55.6019E+06     8.94693E+06     26.6822E+03    -14.2801E-03     23.5186E-03    -9.23851E-03     9.62509E-03    -14.2359E-03     23.2351E-03    -9.10660E-03     9.62110E-03
            2239     8.92253E-03     11.6242E-03    -6.28224E+06    -56.5670E+06     7.34402E+06     1.02720E+06    -12.8613E-03     21.6568E-03    -8.79545E-03     6.91516E-03    -12.8219E-03     21.3730E-03    -8.66760E-03     6.92556E-03
            2240     8.03338E-03     11.6149E-03    -7.65283E+06    -54.2639E+06     4.20123E+06     923.770E+03    -11.6009E-03     19.9897E-03    -8.38877E-03     4.97628E-03    -11.5668E-03     19.7237E-03    -8.27798E-03     4.98632E-03
            2241     7.14329E-03     11.6075E-03    -8.43117E+06    -51.6026E+06     1.54230E+06     589.610E+03    -10.5025E-03     18.5343E-03    -8.03178E-03     3.58072E-03    -10.4722E-03     18.2864E-03    -7.93702E-03     3.58707E-03
            2242     6.25220E-03     11.6014E-03    -9.13642E+06    -49.4058E+06    -1.49229E+06     260.855E+03    -9.56797E-03     17.2883E-03    -7.72033E-03     2.56429E-03    -9.53993E-03     17.0568E-03    -7.64290E-03     2.56679E-03
            2243     5.36041E-03     11.5965E-03    -9.56001E+06    -47.0258E+06    -4.28423E+06    -301.717E+03    -8.78837E-03     16.2419E-03    -7.45358E-03     1.82640E-03    -8.76182E-03     16.0269E-03    -7.39296E-03     1.82190E-03
            2244     4.46791E-03     11.5926E-03    -9.83114E+06    -45.4689E+06    -6.64686E+06    -578.294E+03    -8.14986E-03     15.3813E-03    -7.23146E-03     1.26054E-03    -8.12348E-03     15.1779E-03    -7.18451E-03     1.25265E-03
            2245     3.57496E-03     11.5895E-03    -10.1847E+06    -44.7617E+06    -8.48705E+06    -570.084E+03    -7.63591E-03     14.6890E-03    -7.05313E-03     849.367E-06    -7.60965E-03     14.4923E-03    -7.01589E-03     841.712E-06
            2246     2.68154E-03     11.5870E-03    -10.5124E+06    -44.1869E+06    -9.64836E+06    -563.477E+03    -7.23723E-03     14.1554E-03    -6.91816E-03     541.826E-06    -7.21175E-03     13.9637E-03    -6.88709E-03     534.354E-06
            2247     1.78786E-03     11.5853E-03    -10.6483E+06    -43.5421E+06    -10.2569E+06    -389.283E+03    -6.96481E-03     13.7888E-03    -6.82404E-03     317.204E-06    -6.94006E-03     13.6014E-03    -6.79675E-03     312.056E-06
            2248     893.946E-06     11.5842E-03    -10.6686E+06    -43.0716E+06    -10.5270E+06    -163.850E+03    -6.84666E-03     13.5709E-03    -6.72423E-03     151.741E-06    -6.82230E-03     13.3863E-03    -6.69894E-03     149.561E-06
            2249     16.8628E-03     10.9451E-03    -2.75407E+06     122.096E+06     26.6885E+06     1.44430E+06    -32.5185E-03     46.4228E-03    -13.9043E-03     67.3687E-03    -33.1340E-03     47.3849E-03    -13.9439E-03     67.3806E-03
            2250     15.9917E-03     10.8636E-03    -1.71737E+06     81.5042E+06    -6.63371E+06     567.059E+03    -28.5830E-03     41.5037E-03    -12.9206E-03     65.2453E-03    -28.9497E-03     42.1733E-03    -13.0695E-03     65.1516E-03
            2251     15.1121E-03     10.8171E-03    -2.00826E+06     36.9348E+06    -6.65275E+06    -256.007E+03    -24.4193E-03     36.6584E-03    -12.2390E-03     46.1963E-03    -24.5381E-03     36.9206E-03    -12.3229E-03     46.1309E-03
            2252     14.2326E-03     10.7753E-03    -4.34498E+06    -6.70009E+06    -5.69366E+06     171.943E+03    -22.6117E-03     34.2500E-03    -11.6382E-03     35.2489E-03    -22.6415E-03     34.2572E-03    -11.6507E-03     35.2110E-03
            2253     13.3530E-03     10.7444E-03    -4.05209E+06    -36.6812E+06    -7.90452E+06    -442.962E+03    -21.1083E-03     32.1190E-03    -11.0107E-03     28.1631E-03    -21.0775E-03     31.9667E-03    -10.9912E-03     28.1301E-03
            2254     12.4699E-03     10.7161E-03    -3.45418E+06    -40.4890E+06     1.65893E+06    -1.18541E+06    -19.3173E-03     29.7389E-03    -10.4217E-03     21.8107E-03    -19.2846E-03     29.5456E-03    -10.3497E-03     21.7792E-03
            2255     11.5870E-03     10.6948E-03    -3.79563E+06    -41.3725E+06     6.33355E+06    -1.25424E+06    -17.5303E-03     27.3681E-03    -9.83788E-03     15.4373E-03    -17.5013E-03     27.1606E-03    -9.74072E-03     15.4113E-03
            2256     10.7015E-03     10.6781E-03    -5.16003E+06    -51.3772E+06     6.75228E+06    -902.579E+03    -15.6885E-03     24.9816E-03    -9.29302E-03     10.7758E-03    -15.6511E-03     24.7239E-03    -9.17728E-03     10.7580E-03
            2257     9.81493E-03     10.6656E-03    -6.71992E+06    -57.4724E+06     8.81298E+06     249.732E+03    -13.9928E-03     22.7997E-03    -8.80689E-03     7.48816E-03    -13.9566E-03     22.5101E-03    -8.66975E-03     7.48734E-03
            2258     8.92665E-03     10.6559E-03    -7.93028E+06    -56.4425E+06     6.81544E+06     993.590E+03    -12.4802E-03     20.8268E-03    -8.34664E-03     5.28036E-03    -12.4483E-03     20.5467E-03    -8.21922E-03     5.29051E-03
            2259     8.03728E-03     10.6482E-03    -8.91738E+06    -53.6340E+06     2.99686E+06     520.871E+03    -11.1833E-03     19.1122E-03    -7.92891E-03     3.75479E-03    -11.1547E-03     18.8529E-03    -7.82322E-03     3.75973E-03
            2260     7.14670E-03     10.6422E-03    -9.95156E+06    -51.3512E+06    -20.5404E+03     128.508E+03    -10.0834E-03     17.6491E-03    -7.56570E-03     2.69281E-03    -10.0588E-03     17.4069E-03    -7.47691E-03     2.69325E-03
            2261     6.25531E-03     10.6374E-03    -10.6556E+06    -48.7828E+06    -3.37414E+06    -303.194E+03    -9.16159E-03     16.4061E-03    -7.24448E-03     1.95044E-03    -9.13932E-03     16.1826E-03    -7.17516E-03     1.94566E-03
            2262     5.36310E-03     10.6335E-03    -11.2172E+06    -46.6944E+06    -6.57156E+06    -724.663E+03    -8.38379E-03     15.3488E-03    -6.96504E-03     1.40880E-03    -8.36269E-03     15.1412E-03    -6.91393E-03     1.39882E-03
            2263     4.47029E-03     10.6303E-03    -11.8689E+06    -45.7609E+06    -8.81659E+06    -741.726E+03    -7.72953E-03     14.4601E-03    -6.73054E-03     983.373E-06    -7.70977E-03     14.2613E-03    -6.69106E-03     973.349E-06
            2264     3.57689E-03     10.6279E-03    -12.4435E+06    -44.9741E+06    -10.6001E+06    -585.324E+03    -7.19251E-03     13.7280E-03    -6.53553E-03     657.276E-06    -7.17416E-03     13.5366E-03    -6.50528E-03     649.397E-06
            2265     2.68310E-03     10.6260E-03    -12.8829E+06    -44.4290E+06    -11.9717E+06    -497.647E+03    -6.76767E-03     13.1465E-03    -6.37884E-03     412.660E-06    -6.75032E-03     12.9604E-03    -6.35559E-03     406.012E-06
            2266     1.78893E-03     10.6247E-03    -13.2794E+06    -43.9653E+06    -12.8801E+06    -409.953E+03    -6.45048E-03     12.7103E-03    -6.25986E-03     232.892E-06    -6.43446E-03     12.5284E-03    -6.24125E-03     227.458E-06
            2267     894.583E-06     10.6238E-03    -13.5599E+06    -43.4862E+06    -13.2995E+06    -244.731E+03    -6.27387E-03     12.4163E-03    -6.14241E-03     107.247E-06    -6.25933E-03     12.2378E-03    -6.12619E-03     104.012E-06
            2268     16.8656E-03     9.94380E-03    -2.36047E+06     121.614E+06     30.7162E+06     379.082E+03    -33.3498E-03     47.2021E-03    -13.8523E-03     62.2489E-03    -33.9278E-03     48.1148E-03    -13.8717E-03     62.2169E-03
            2269     15.9923E-03     9.88158E-03    -1.89998E+06     81.8397E+06    -4.58472E+06     712.573E+03    -28.8950E-03     41.7092E-03    -12.8142E-03     58.7942E-03    -29.2272E-03     42.3390E-03    -12.9530E-03     58.6960E-03
            2270     15.1149E-03     9.83147E-03    -2.33945E+06     36.8396E+06    -4.86569E+06     1.61288E+06    -25.3246E-03     37.4062E-03    -12.0816E-03     42.4662E-03    -25.4392E-03     37.6576E-03    -12.1560E-03     42.4241E-03
            2271     14.2374E-03     9.79501E-03    -2.43596E+06    -5.78844E+06    -2.12275E+06     899.343E+03    -23.4932E-03     34.9083E-03    -11.4151E-03     31.7117E-03    -23.5167E-03     34.9089E-03    -11.4138E-03     31.6830E-03
            2272     13.3559E-03     9.76499E-03    -4.04605E+06    -34.3625E+06    -4.80038E+06    -386.942E+03    -21.7312E-03     32.4484E-03    -10.7172E-03     25.0045E-03    -21.7063E-03     32.3012E-03    -10.6855E-03     24.9731E-03
            2273     12.4756E-03     9.73958E-03    -5.02158E+06    -40.0741E+06     3.52065E+06    -1.36823E+06    -19.7023E-03     29.7687E-03    -10.0665E-03     18.5763E-03    -19.6798E-03     29.5761E-03    -9.98346E-03     18.5429E-03
            2274     11.5915E-03     9.72066E-03    -5.95129E+06    -42.0343E+06     7.97839E+06    -1.22814E+06    -17.3025E-03     26.7505E-03    -9.44792E-03     12.7424E-03    -17.2853E-03     26.5398E-03    -9.33845E-03     12.7176E-03
            2275     10.7063E-03     9.70672E-03    -7.18351E+06    -52.0877E+06     7.73259E+06    -423.037E+03    -15.2192E-03     24.1127E-03    -8.89351E-03     8.75603E-03    -15.1920E-03     23.8527E-03    -8.76890E-03     8.74490E-03
            2276     9.81895E-03     9.69632E-03    -8.56834E+06    -58.5978E+06     7.63998E+06     124.486E+03    -13.4201E-03     21.8263E-03    -8.40621E-03     6.11934E-03    -13.3897E-03     21.5354E-03    -8.27062E-03     6.11721E-03
            2277     8.93034E-03     9.68849E-03    -9.55161E+06    -56.1329E+06     5.38400E+06     242.522E+03    -11.9095E-03     19.8683E-03    -7.95886E-03     4.42867E-03    -11.8840E-03     19.5942E-03    -7.83670E-03     4.42928E-03
            2278     8.04031E-03     9.68246E-03    -10.3234E+06    -53.2360E+06     1.86560E+06     102.015E+03    -10.6443E-03     18.2051E-03    -7.56080E-03     3.31948E-03    -10.6216E-03     17.9514E-03    -7.45931E-03     3.31907E-03
            2279     7.14938E-03     9.67779E-03    -11.0530E+06    -50.8965E+06    -1.91579E+06    -300.887E+03    -9.60459E-03     16.8156E-03    -7.21097E-03     2.58266E-03    -9.58343E-03     16.5801E-03    -7.13073E-03     2.57754E-03
            2280     6.25752E-03     9.67408E-03    -11.7520E+06    -48.4336E+06    -5.30451E+06    -732.781E+03    -8.73727E-03     15.6418E-03    -6.90454E-03     2.06410E-03    -8.71821E-03     15.4245E-03    -6.84379E-03     2.05375E-03
            2281     5.36498E-03     9.67118E-03    -12.5042E+06    -46.8376E+06    -8.11243E+06    -744.396E+03    -8.00597E-03     14.6453E-03    -6.63929E-03     1.66650E-03    -7.98888E-03     14.4410E-03    -6.59380E-03     1.65623E-03
            2282     4.47181E-03     9.66888E-03    -13.3203E+06    -46.0504E+06    -10.3663E+06    -615.932E+03    -7.39010E-03     13.8023E-03    -6.41219E-03     1.32910E-03    -7.37494E-03     13.6064E-03    -6.37793E-03     1.32066E-03
            2283     3.57817E-03     9.66715E-03    -14.0182E+06    -45.2748E+06    -12.0960E+06    -505.040E+03    -6.87529E-03     13.0956E-03    -6.22035E-03     1.03266E-03    -6.86222E-03     12.9072E-03    -6.19486E-03     1.02579E-03
            2284     2.68404E-03     9.66583E-03    -14.5711E+06    -44.6594E+06    -13.4276E+06    -376.141E+03    -6.45889E-03     12.5219E-03    -6.06297E-03     766.115E-06    -6.44753E-03     12.3392E-03    -6.04423E-03     761.014E-06
            2285     1.78964E-03     9.66495E-03    -14.9795E+06    -44.2564E+06    -14.4267E+06    -320.298E+03    -6.13378E-03     12.0757E-03    -5.94190E-03     514.830E-06    -6.12359E-03     11.8970E-03    -5.92814E-03     510.539E-06
            2286     894.861E-06     9.66444E-03    -15.2763E+06    -43.9260E+06    -15.0331E+06    -230.223E+03    -5.93690E-03     11.7783E-03    -5.84141E-03     272.884E-06    -5.92778E-03     11.6027E-03    -5.83074E-03     269.828E-06
            2287     16.8663E-03     8.94977E-03    -2.61928E+06     120.669E+06     32.2599E+06    -68.3155E+03    -33.6111E-03     47.3963E-03    -13.7853E-03     57.0845E-03    -34.1534E-03     48.2646E-03    -13.7952E-03     57.0229E-03
            2288     15.9936E-03     8.89377E-03     -2.6896E+06     81.5968E+06    -801.501E+03     1.29451E+06    -30.0045E-03     42.7115E-03    -12.7070E-03     52.3480E-03    -30.3130E-03     43.3028E-03    -12.8254E-03     52.2464E-03
            2289     15.1192E-03     8.84640E-03    -3.37146E+06     37.2869E+06    -1.51290E+06     2.47425E+06    -26.5284E-03     38.4179E-03    -11.8895E-03     38.8500E-03    -26.6467E-03     38.6612E-03    -11.9462E-03     38.8165E-03
            2290     14.2399E-03     8.81422E-03    -4.33298E+06    -4.39371E+06    -208.658E+03     1.47380E+06    -24.1316E-03     35.2735E-03    -11.1419E-03     28.3406E-03    -24.1660E-03     35.2776E-03    -11.1302E-03     28.3203E-03
            2291     13.3619E-03     8.78487E-03    -5.76567E+06    -33.3922E+06    -2.68516E+06     179.427E+03    -22.0212E-03     32.4139E-03    -10.3926E-03     22.0262E-03    -22.0076E-03     32.2692E-03    -10.3493E-03     22.0033E-03
            2292     12.4798E-03     8.76339E-03    -6.34147E+06    -39.3269E+06     6.36909E+06    -817.319E+03    -19.3853E-03     29.1056E-03    -9.72028E-03     15.6784E-03    -19.3737E-03     28.9135E-03    -9.62221E-03     15.6535E-03
            2293     11.5964E-03     8.74751E-03    -7.70635E+06    -42.3048E+06     10.1035E+06    -1.32729E+06    -16.6569E-03     25.7648E-03    -9.10786E-03     10.7639E-03    -16.6507E-03     25.5519E-03    -8.98482E-03     10.7387E-03
            2294     10.7099E-03     8.73624E-03    -8.72918E+06    -53.4775E+06     7.89605E+06    -631.435E+03    -14.4026E-03     22.9782E-03    -8.57556E-03     7.61025E-03    -14.3813E-03     22.7132E-03    -8.44588E-03     7.59697E-03
            2295     9.82202E-03     8.72808E-03    -9.78481E+06    -58.4270E+06     6.52603E+06    -103.177E+03    -12.6312E-03     20.7535E-03    -8.12227E-03     5.66672E-03    -12.6056E-03     20.4668E-03    -7.99073E-03     5.66192E-03
            2296     8.93251E-03     8.72201E-03    -10.8011E+06    -55.9267E+06     3.88077E+06    -613.500E+03    -11.1856E-03     18.9060E-03    -7.72036E-03     4.47770E-03    -11.1646E-03     18.6369E-03    -7.60420E-03     4.46739E-03
            2297     8.04202E-03     8.71755E-03    -11.2491E+06    -53.2200E+06     356.795E+03    -776.596E+03    -10.0302E-03     17.4005E-03    -7.37038E-03     3.76194E-03    -10.0100E-03     17.1505E-03    -7.27511E-03     3.75022E-03
            2298     7.15047E-03     8.71407E-03    -11.7068E+06    -50.6465E+06    -3.72418E+06    -750.998E+03    -9.10158E-03     16.1667E-03    -7.06510E-03     3.29601E-03    -9.08147E-03     15.9360E-03    -6.99331E-03     3.28508E-03
            2299     6.25825E-03     8.71146E-03    -12.4702E+06    -48.4150E+06    -7.02447E+06    -778.141E+03    -8.33935E-03     15.1436E-03    -6.80428E-03     2.93621E-03    -8.32144E-03     14.9300E-03    -6.75112E-03     2.92525E-03
            2300     5.36536E-03     8.70941E-03    -13.2998E+06    -47.2257E+06    -9.15675E+06    -683.863E+03    -7.70338E-03     14.2893E-03    -6.58594E-03     2.62091E-03    -7.68821E-03     14.0858E-03    -6.54396E-03     2.61141E-03
            2301     4.47197E-03     8.70791E-03    -13.9532E+06    -46.2567E+06    -10.9840E+06    -502.615E+03    -7.17850E-03     13.5801E-03    -6.40163E-03     2.30358E-03    -7.16532E-03     13.3851E-03    -6.36925E-03     2.29660E-03
            2302     3.57811E-03     8.70677E-03    -14.5072E+06    -45.4870E+06    -12.4604E+06    -444.424E+03    -6.75229E-03     13.0023E-03    -6.25005E-03     1.95981E-03    -6.74083E-03     12.8140E-03    -6.22536E-03     1.95371E-03
            2303     2.68394E-03     8.70602E-03    -14.8754E+06    -44.8879E+06    -13.6353E+06    -423.551E+03    -6.41175E-03     12.5432E-03    -6.13144E-03     1.56815E-03    -6.40129E-03     12.3601E-03    -6.11296E-03     1.56244E-03
            2304     1.78940E-03     8.70551E-03    -15.0695E+06    -44.5421E+06    -14.5268E+06    -332.633E+03    -6.16990E-03     12.2171E-03    -6.04719E-03     1.10890E-03    -6.15962E-03     12.0373E-03    -6.03339E-03     1.10445E-03
            2305     894.779E-06     8.70530E-03    -15.2066E+06    -44.3153E+06    -14.9688E+06    -209.305E+03    -6.04515E-03     12.0251E-03    -5.97991E-03     618.342E-06    -6.03521E-03     11.8473E-03    -5.96845E-03     615.560E-06
            2306     16.8668E-03     7.95457E-03    -3.13218E+06     119.303E+06     32.1236E+06     132.215E+03    -34.4396E-03     48.1458E-03    -13.7061E-03     52.3068E-03    -34.9475E-03     48.9732E-03    -13.7140E-03     52.2225E-03
            2307     15.9973E-03     7.90328E-03    -3.50490E+06     79.7926E+06     1.17235E+06     1.83102E+06    -31.1142E-03     43.6899E-03    -12.5756E-03     46.7335E-03    -31.3993E-03     44.2428E-03    -12.6804E-03     46.6301E-03
            2308     15.1216E-03     7.86228E-03    -4.36215E+06     38.5467E+06     2.88292E+06     2.76805E+06    -27.4567E-03     39.1495E-03    -11.6928E-03     35.0065E-03    -27.5806E-03     39.3867E-03    -11.7280E-03     34.9765E-03
            2309     14.2460E-03     7.83093E-03    -6.58877E+06    -2.84320E+06     2.13089E+06     2.02968E+06    -24.6209E-03     35.4963E-03    -10.8754E-03     25.5992E-03    -24.6693E-03     35.5054E-03    -10.8511E-03     25.5874E-03
            2310     13.3657E-03     7.80657E-03    -6.62671E+06    -32.3228E+06     938.799E+03     777.613E+03    -21.6660E-03     31.7726E-03    -10.1066E-03     19.3527E-03    -21.6618E-03     31.6277E-03    -10.0454E-03     19.3397E-03
            2311     12.4840E-03     7.78757E-03    -7.13327E+06    -38.0327E+06     10.0723E+06    -632.944E+03    -18.3939E-03     27.8532E-03    -9.45929E-03     13.5979E-03    -18.3927E-03     27.6627E-03    -9.34344E-03     13.5773E-03
            2312     11.5989E-03     7.77565E-03    -8.55064E+06    -42.5142E+06     12.8470E+06    -1.30550E+06    -15.5675E-03     24.4691E-03    -8.90160E-03     9.63246E-03    -15.5690E-03     24.2522E-03    -8.76332E-03     9.60846E-03
            2313     10.7119E-03     7.76697E-03    -10.2792E+06    -54.4289E+06     9.10876E+06    -1.01715E+06    -13.3499E-03     21.7836E-03    -8.43370E-03     7.57395E-03    -13.3366E-03     21.5143E-03    -8.29433E-03     7.55620E-03
            2314     9.82287E-03     7.76080E-03    -10.9871E+06    -58.0543E+06     6.25836E+06    -1.13723E+06    -11.6848E-03     19.7318E-03    -8.04705E-03     6.30136E-03    -11.6653E-03     19.4491E-03    -7.91564E-03     6.28349E-03
            2315     8.93275E-03     7.75650E-03    -11.0426E+06    -55.5146E+06     2.54110E+06    -1.61873E+06    -10.4025E-03     18.1195E-03    -7.71697E-03     5.54680E-03    -10.3814E-03     17.8548E-03    -7.60775E-03     5.52365E-03
            2316     8.04144E-03     7.75324E-03    -11.5156E+06    -53.7282E+06    -1.64895E+06    -1.61273E+06    -9.41929E-03     16.8622E-03    -7.44291E-03     5.14251E-03    -9.39689E-03     16.6130E-03    -7.35655E-03     5.12007E-03
            2317     7.14949E-03     7.75092E-03    -12.0454E+06    -50.9528E+06    -4.72442E+06    -1.17003E+06    -8.66114E-03     15.8795E-03    -7.21832E-03     4.80875E-03    -8.64085E-03     15.6493E-03    -7.15060E-03     4.79244E-03
            2318     6.25684E-03     7.74908E-03    -12.5351E+06    -48.6285E+06    -7.44680E+06    -860.533E+03    -8.05256E-03     15.0867E-03    -7.03412E-03     4.48418E-03    -8.03407E-03     14.8727E-03    -6.98266E-03     4.47218E-03
            2319     5.36376E-03     7.74783E-03    -13.0266E+06    -47.5326E+06    -9.21724E+06    -704.369E+03    -7.57431E-03     14.4647E-03    -6.89035E-03     4.12843E-03    -7.55726E-03     14.2594E-03    -6.84863E-03     4.11869E-03
            2320     4.47025E-03     7.74684E-03    -13.4254E+06    -46.4053E+06    -10.3704E+06    -707.531E+03    -7.20534E-03     13.9853E-03    -6.77993E-03     3.69517E-03    -7.19021E-03     13.7878E-03    -6.74502E-03     3.68557E-03
            2321     3.57647E-03     7.74622E-03    -13.4868E+06    -45.6364E+06    -11.4024E+06    -773.057E+03    -6.93369E-03     13.6316E-03    -6.69793E-03     3.14791E-03    -6.91846E-03     13.4395E-03    -6.66921E-03     3.13760E-03
            2322     2.68244E-03     7.74576E-03    -13.4418E+06    -45.2332E+06    -12.3248E+06    -695.706E+03    -6.75263E-03     13.3942E-03    -6.64161E-03     2.49249E-03    -6.73641E-03     13.2054E-03    -6.61815E-03     2.48329E-03
            2323     1.78836E-03     7.74554E-03    -13.4089E+06    -44.9920E+06    -12.9653E+06    -503.242E+03    -6.64763E-03     13.2549E-03    -6.60730E-03     1.73992E-03    -6.63067E-03     13.0682E-03    -6.58744E-03     1.73329E-03
            2324     894.154E-06     7.74533E-03    -13.3590E+06    -44.8104E+06    -13.1999E+06    -294.429E+03    -6.60518E-03     13.1886E-03    -6.58343E-03     960.812E-06    -6.58787E-03     13.0031E-03    -6.56508E-03     956.940E-06
            2325     16.8699E-03     6.95867E-03    -2.26536E+06     117.423E+06     38.7510E+06     576.172E+03    -35.0213E-03     48.7072E-03    -13.6859E-03     50.1305E-03    -35.5084E-03     49.4909E-03    -13.6591E-03     50.0321E-03
            2326     15.9980E-03     6.91269E-03    -6.45126E+06     77.8319E+06     3.18996E+06     2.92075E+06    -32.3929E-03     44.8730E-03    -12.4801E-03     42.1777E-03    -32.6689E-03     45.3937E-03    -12.5676E-03     42.0796E-03
            2327     15.1259E-03     6.87601E-03    -7.79504E+06     38.5833E+06     3.40843E+06     2.98965E+06    -28.2395E-03     39.7565E-03    -11.5170E-03     31.3481E-03    -28.3743E-03     39.9911E-03    -11.5446E-03     31.3224E-03
            2328     14.2478E-03     6.84884E-03    -7.16443E+06    -1.19814E+06     6.61264E+06     2.32255E+06    -24.3989E-03     35.0808E-03    -10.6819E-03     22.6879E-03    -24.4564E-03     35.0897E-03    -10.6367E-03     22.6829E-03
            2329     13.3692E-03     6.82799E-03    -8.56924E+06    -29.4398E+06     4.40297E+06     1.01167E+06    -20.5209E-03     30.4586E-03    -9.93778E-03     17.0839E-03    -20.5342E-03     30.3245E-03    -9.86065E-03     17.0772E-03
            2330     12.4856E-03     6.81415E-03    -9.85280E+06    -37.0390E+06     11.6280E+06    -1.17783E+06    -16.8987E-03     26.2625E-03    -9.36380E-03     12.6916E-03    -16.9143E-03     26.0781E-03    -9.23767E-03     12.6660E-03
            2331     11.5993E-03     6.80479E-03    -10.3389E+06    -42.7505E+06     15.1251E+06    -1.77861E+06    -14.0792E-03     22.9943E-03    -8.91505E-03     9.92205E-03    -14.0926E-03     22.7754E-03    -8.76245E-03     9.89296E-03
            2332     10.7109E-03     6.79897E-03    -10.8680E+06    -54.3872E+06     10.8122E+06    -2.03688E+06    -12.1569E-03     20.7093E-03    -8.55235E-03     8.83043E-03    -12.1492E-03     20.4386E-03    -8.40367E-03     8.79999E-03
            2333     9.82098E-03     6.79442E-03    -11.1385E+06    -57.6055E+06     5.85668E+06    -2.67976E+06    -10.7479E-03     19.0077E-03    -8.25983E-03     8.09269E-03    -10.7293E-03     18.7282E-03    -8.13087E-03     8.05522E-03
            2334     8.92991E-03     6.79155E-03    -11.5855E+06    -55.9000E+06     816.875E+03    -2.62056E+06    -9.70793E-03     17.7353E-03    -8.02735E-03     7.58617E-03    -9.68649E-03     17.4719E-03    -7.92541E-03     7.55029E-03
            2335     8.03818E-03     6.78936E-03    -11.9898E+06    -54.2704E+06    -2.59769E+06    -2.23581E+06    -8.97863E-03     16.8335E-03    -7.85487E-03     7.27904E-03    -8.95647E-03     16.5837E-03    -7.77178E-03     7.24868E-03
            2336     7.14579E-03     6.78770E-03    -12.1128E+06    -51.6190E+06    -5.19414E+06    -1.95774E+06    -8.44484E-03     16.1693E-03    -7.72448E-03     6.85775E-03    -8.42327E-03     15.9366E-03    -7.65804E-03     6.83137E-03
            2337     6.25306E-03     6.78658E-03    -11.8953E+06    -49.1690E+06    -7.13877E+06    -1.48873E+06    -8.05282E-03     15.6831E-03    -7.63031E-03     6.35987E-03    -8.03082E-03     15.4650E-03    -7.57746E-03     6.33984E-03
            2338     5.35996E-03     6.78569E-03    -11.5688E+06    -47.6951E+06    -7.83640E+06    -1.31843E+06    -7.78643E-03     15.3578E-03    -7.57135E-03     5.76527E-03    -7.76387E-03     15.1475E-03    -7.52460E-03     5.74767E-03
            2339     4.46674E-03     6.78509E-03    -11.1027E+06    -46.5366E+06    -8.36678E+06    -1.43885E+06    -7.62124E-03     15.1567E-03    -7.53543E-03     5.02782E-03    -7.59723E-03     14.9523E-03    -7.49369E-03     5.00883E-03
            2340     3.57337E-03     6.78462E-03    -10.7845E+06    -46.0882E+06    -9.22176E+06    -1.36715E+06    -7.53121E-03     15.0471E-03    -7.51587E-03     4.16458E-03    -7.50500E-03     14.8457E-03    -7.47952E-03     4.14664E-03
            2341     2.68003E-03     6.78431E-03    -10.6167E+06    -45.8329E+06    -9.79333E+06    -1.08033E+06    -7.50091E-03     15.0100E-03    -7.50913E-03     3.21517E-03    -7.47339E-03     14.8104E-03    -7.47624E-03     3.20103E-03
            2342     1.78665E-03     6.78405E-03    -10.5024E+06    -45.6521E+06    -10.1170E+06    -759.424E+03    -7.49999E-03     15.0086E-03    -7.50863E-03     2.19863E-03    -7.47169E-03     14.8102E-03    -7.47779E-03     2.18871E-03
            2343     893.347E-06     6.78396E-03    -10.4653E+06    -45.5243E+06    -10.3147E+06    -410.940E+03    -7.51123E-03     15.0162E-03    -7.50498E-03     1.20522E-03    -7.48262E-03     14.8187E-03    -7.47537E-03     1.19985E-03
            2344     16.8653E-03     5.95856E-03    -3.22441E+06     116.079E+06     42.1964E+06     1.96530E+06    -35.4974E-03     49.1134E-03    -13.6160E-03     44.6727E-03    -35.9587E-03     49.8534E-03    -13.5687E-03     44.5753E-03
            2345     16.0004E-03     5.92087E-03    -7.20146E+06     76.5282E+06     9.39157E+06     2.56618E+06    -32.4183E-03     44.8172E-03    -12.3989E-03     35.0624E-03    -32.6789E-03     45.2970E-03    -12.4525E-03     34.9657E-03
            2346     15.1265E-03     5.88897E-03    -8.79631E+06     38.4231E+06     8.43640E+06     3.62885E+06    -27.9152E-03     39.3403E-03    -11.4251E-03     26.8435E-03    -28.0552E-03     39.5615E-03    -11.4258E-03     26.8311E-03
            2347     14.2516E-03     5.86712E-03    -10.9998E+06     315.092E+03     9.38193E+06     2.75248E+06    -22.9694E-03     33.5938E-03    -10.6243E-03     20.0051E-03    -23.0496E-03     33.6092E-03    -10.5619E-03     20.0108E-03
            2348     13.3687E-03     5.85213E-03    -10.8791E+06    -26.1052E+06     7.98044E+06     98.0649E+03    -18.5050E-03     28.4911E-03    -9.98607E-03     16.1926E-03    -18.5388E-03     28.3707E-03    -9.89254E-03     16.1778E-03
            2349     12.4838E-03     5.84152E-03    -11.0305E+06    -34.6702E+06     14.6372E+06    -2.24539E+06    -14.9226E-03     24.4736E-03    -9.55105E-03     13.3810E-03    -14.9516E-03     24.2981E-03    -9.41160E-03     13.3435E-03
            2350     11.5958E-03     5.83608E-03    -11.8814E+06    -42.8645E+06     16.6358E+06    -3.54987E+06    -12.5345E-03     21.7798E-03    -9.24524E-03     12.0841E-03    -12.5576E-03     21.5604E-03    -9.08268E-03     12.0331E-03
            2351     10.7060E-03     5.83143E-03    -11.9868E+06    -54.3206E+06     11.0290E+06    -3.94201E+06    -11.1118E-03     20.1193E-03    -9.00755E-03     11.4610E-03    -11.1101E-03     19.8503E-03    -8.85626E-03     11.4065E-03
            2352     9.81538E-03     5.82870E-03    -12.2154E+06    -57.6870E+06     4.55376E+06    -3.89997E+06    -10.0861E-03     18.9105E-03    -8.82437E-03     10.7138E-03    -10.0709E-03     18.6339E-03    -8.70024E-03     10.6609E-03
            2353     8.92383E-03     5.82665E-03    -12.4455E+06    -56.6580E+06    -72.7956E+03    -3.71243E+06    -9.38549E-03     18.0845E-03    -8.69897E-03     10.2129E-03    -9.36596E-03     17.8198E-03    -8.59914E-03     10.1632E-03
            2354     8.03181E-03     5.82511E-03    -11.8736E+06    -54.6215E+06    -2.10993E+06    -3.77699E+06    -8.96088E-03     17.5844E-03    -8.62355E-03     9.61663E-03    -8.93833E-03     17.3319E-03    -8.53769E-03     9.56659E-03
            2355     7.13955E-03     5.82393E-03    -10.7873E+06    -52.5772E+06    -3.97500E+06    -3.53162E+06    -8.68578E-03     17.2625E-03    -8.57676E-03     8.85343E-03    -8.65796E-03     17.0213E-03    -8.50476E-03     8.80690E-03
            2356     6.24704E-03     5.82306E-03    -9.65775E+06    -50.0391E+06    -5.10235E+06    -2.96087E+06    -8.53601E-03     17.0902E-03    -8.55421E-03     7.96034E-03    -8.50452E-03     16.8615E-03    -8.49317E-03     7.92142E-03
            2357     5.35455E-03     5.82236E-03    -8.47297E+06    -47.9381E+06    -5.41369E+06    -2.74277E+06    -8.47006E-03     17.0210E-03    -8.55096E-03     6.99363E-03    -8.43520E-03     16.8015E-03    -8.49624E-03     6.95772E-03
            2358     4.46198E-03     5.82176E-03    -7.58938E+06    -47.3148E+06    -6.04983E+06    -2.44332E+06    -8.46689E-03     17.0245E-03    -8.55765E-03     5.90918E-03    -8.42756E-03     16.8077E-03    -8.50829E-03     5.87726E-03
            2359     3.56953E-03     5.82133E-03    -7.15437E+06    -46.9452E+06    -6.35743E+06    -1.83424E+06    -8.49653E-03     17.0672E-03    -8.57067E-03     4.77476E-03    -8.45510E-03     16.8521E-03    -8.52401E-03     4.75081E-03
            2360     2.67706E-03     5.82093E-03    -7.05131E+06    -46.6837E+06    -6.57552E+06    -1.38093E+06    -8.53545E-03     17.1200E-03    -8.58455E-03     3.62014E-03    -8.49356E-03     16.9063E-03    -8.53952E-03     3.60212E-03
            2361     1.78470E-03     5.82067E-03    -7.01479E+06    -46.5664E+06    -6.84922E+06    -932.437E+03    -8.57273E-03     17.1682E-03    -8.59545E-03     2.44653E-03    -8.53041E-03     16.9554E-03    -8.55200E-03     2.43437E-03
            2362     892.319E-06     5.82048E-03    -6.95837E+06    -46.3885E+06    -6.91661E+06    -521.675E+03    -8.59885E-03     17.1993E-03    -8.60040E-03     1.33491E-03    -8.55639E-03     16.9874E-03    -8.55763E-03     1.32811E-03
            2363     16.8785E-03     4.96557E-03    -3.69273E+06     114.366E+06     44.5677E+06     3.38671E+06    -36.2718E-03     49.8304E-03    -13.5586E-03     42.7926E-03    -36.7083E-03     50.5311E-03    -13.4962E-03     42.6934E-03
            2364     16.0019E-03     4.92848E-03    -7.50068E+06     76.0702E+06     12.7410E+06     4.91307E+06    -31.4340E-03     43.7792E-03    -12.3452E-03     31.8918E-03    -31.6816E-03     44.2335E-03    -12.3809E-03     31.8390E-03
            2365     15.1293E-03     4.90332E-03    -10.7091E+06     39.2005E+06     13.0754E+06     4.66764E+06    -25.5085E-03     36.9789E-03    -11.4703E-03     23.1470E-03    -25.6580E-03     37.1922E-03    -11.4463E-03     23.1603E-03
            2366     14.2474E-03     4.88816E-03    -11.7281E+06     4.15303E+06     13.6471E+06     2.32324E+06    -19.9210E-03     30.7500E-03    -10.8290E-03     19.5174E-03    -20.0144E-03     30.7773E-03    -10.7498E-03     19.5250E-03
            2367     13.3649E-03     4.87756E-03    -12.6936E+06     -22.539E+06     11.0819E+06    -1.58786E+06    -15.9077E-03     26.2909E-03    -10.3832E-03     17.8554E-03    -15.9597E-03     26.1859E-03    -10.2767E-03     17.8225E-03
            2368     12.4769E-03     4.87164E-03    -12.5401E+06    -32.9334E+06     15.7969E+06    -4.18362E+06    -13.1106E-03     23.2319E-03    -10.1213E-03     16.3897E-03    -13.1511E-03     23.0653E-03    -9.97635E-03     16.3290E-03
            2369     11.5872E-03     4.86758E-03    -12.4453E+06    -42.5521E+06     16.7246E+06    -5.46568E+06    -11.5848E-03     21.5416E-03    -9.95683E-03     15.4457E-03    -11.6112E-03     21.3243E-03    -9.79346E-03     15.3709E-03
            2370     10.6970E-03     4.86430E-03    -12.8309E+06    -54.7464E+06     9.53131E+06    -5.94667E+06    -10.6641E-03     20.4917E-03    -9.82758E-03     14.4066E-03    -10.6638E-03     20.2238E-03    -9.68194E-03     14.3269E-03
            2371     9.80593E-03     4.86255E-03    -12.4201E+06    -58.5673E+06     3.36636E+06    -5.79743E+06    -10.0687E-03     19.8084E-03    -9.73973E-03     13.3724E-03    -10.0514E-03     19.5294E-03    -9.61997E-03     13.2955E-03
            2372     8.91455E-03     4.86093E-03    -10.9568E+06    -56.7485E+06     739.317E+03    -5.99737E+06    -9.76427E-03     19.4573E-03    -9.69305E-03     12.3900E-03    -9.73831E-03     19.1888E-03    -9.59118E-03     12.3111E-03
            2373     8.02304E-03     4.85970E-03    -9.25435E+06    -55.2708E+06    -1.40343E+06    -6.25528E+06    -9.58393E-03     19.2544E-03    -9.67045E-03     11.2659E-03    -9.54835E-03     18.9937E-03    -9.58391E-03     11.1841E-03
            2374     7.13138E-03     4.85864E-03    -7.59240E+06    -54.0049E+06    -2.49443E+06    -5.80241E+06    -9.52005E-03     19.1881E-03    -9.66807E-03     10.0349E-03    -9.47632E-03     18.9328E-03    -9.59123E-03     9.95924E-03
            2375     6.23984E-03     4.85779E-03    -5.89209E+06    -51.2894E+06    -2.81209E+06    -5.07494E+06    -9.52154E-03     19.1966E-03    -9.67510E-03     8.76607E-03    -9.47273E-03     18.9529E-03    -9.60625E-03     8.69995E-03
            2376     5.34825E-03     4.85703E-03    -4.60129E+06    -49.1495E+06    -3.33318E+06    -4.18192E+06    -9.55735E-03     19.2429E-03    -9.68557E-03     7.48101E-03    -9.50439E-03     19.0087E-03    -9.62429E-03     7.42656E-03
            2377     4.45680E-03     4.85638E-03    -3.92688E+06    -48.7803E+06    -3.59785E+06    -3.16224E+06    -9.60282E-03     19.3039E-03    -9.70108E-03     6.19671E-03    -9.54661E-03     19.0709E-03    -9.64264E-03     6.15553E-03
            2378     3.56534E-03     4.85584E-03    -3.50929E+06    -48.2384E+06    -3.26960E+06    -2.29333E+06    -9.65484E-03     19.3724E-03    -9.71757E-03     4.93603E-03    -9.59778E-03     19.1410E-03    -9.65889E-03     4.90616E-03
            2379     2.67399E-03     4.85539E-03    -3.20550E+06    -47.7790E+06    -3.13469E+06    -1.53706E+06    -9.69387E-03     19.4238E-03    -9.72994E-03     3.69459E-03    -9.63614E-03     19.1941E-03    -9.67168E-03     3.67456E-03
            2380     1.78262E-03     4.85507E-03    -3.14699E+06    -47.6043E+06    -3.33683E+06    -933.687E+03    -9.72096E-03     19.4596E-03    -9.73869E-03     2.48939E-03    -9.66289E-03     19.2310E-03    -9.68178E-03     2.47721E-03
            2381     891.326E-06     4.85486E-03    -3.06707E+06    -47.3464E+06    -3.27659E+06    -492.812E+03    -9.73607E-03     19.4870E-03    -9.75095E-03     1.34455E-03    -9.67804E-03     19.2595E-03    -9.69423E-03     1.33812E-03
            2382     16.8635E-03     3.96675E-03    -5.49299E+06     109.330E+06     45.7194E+06     4.80206E+06    -36.0399E-03     49.7040E-03    -13.6641E-03     39.9400E-03    -36.4476E-03     50.3482E-03    -13.5861E-03     39.8563E-03
            2383     16.0021E-03     3.93670E-03    -7.48026E+06     76.0009E+06     17.5207E+06     7.84160E+06    -29.5598E-03     42.0810E-03    -12.5212E-03     27.9187E-03    -29.7937E-03     42.5080E-03    -12.5330E-03     27.9196E-03
            2384     15.1235E-03     3.92217E-03    -10.6413E+06     43.2240E+06     15.2470E+06     6.15564E+06    -21.1819E-03     32.9976E-03    -11.8157E-03     22.0899E-03    -21.3338E-03     33.2217E-03    -11.7867E-03     22.1377E-03
            2385     14.2412E-03     3.91234E-03    -14.0712E+06     8.70846E+06     12.4935E+06     1.08200E+06    -16.1955E-03     27.6227E-03    -11.4272E-03     22.8437E-03    -16.3041E-03     27.6764E-03    -11.3570E-03     22.8424E-03
            2386     13.3522E-03     3.90546E-03    -13.3771E+06    -18.5657E+06     8.68821E+06    -4.16982E+06    -14.0180E-03     25.2130E-03    -11.1950E-03     21.3112E-03    -14.0749E-03     25.1313E-03    -11.1053E-03     21.2483E-03
            2387     12.4636E-03     3.90206E-03    -11.9696E+06    -32.2763E+06     12.1447E+06    -6.84559E+06    -12.5868E-03     23.6575E-03    -11.0708E-03     19.4292E-03    -12.6196E-03     23.4981E-03    -10.9459E-03     19.3355E-03
            2388     11.5745E-03     3.89816E-03    -11.5532E+06    -42.5772E+06     11.5508E+06    -7.32867E+06    -11.6932E-03     22.6808E-03    -10.9876E-03     17.9486E-03    -11.7073E-03     22.4692E-03    -10.8514E-03     17.8504E-03
            2389     10.6844E-03     3.89668E-03    -11.3165E+06    -55.0040E+06     4.31014E+06    -7.92974E+06    -11.2012E-03     22.1189E-03    -10.9177E-03     16.1993E-03    -11.1851E-03     21.8548E-03    -10.8000E-03     16.0945E-03
            2390     9.79391E-03     3.89462E-03    -9.75720E+06    -58.9181E+06    -339.031E+03    -8.84513E+06    -10.9608E-03     21.8332E-03    -10.8724E-03     14.6311E-03    -10.9242E-03     21.5537E-03    -10.7745E-03     14.5152E-03
            2391     8.90368E-03     3.89345E-03    -7.30977E+06    -57.3947E+06    -2.38274E+06    -9.25957E+06    -10.8614E-03     21.7061E-03    -10.8447E-03     13.0709E-03    -10.8117E-03     21.4335E-03    -10.7628E-03     12.9501E-03
            2392     8.01317E-03     3.89215E-03    -5.08220E+06    -56.7866E+06    -3.10346E+06    -8.63617E+06    -10.8150E-03     21.6475E-03    -10.8325E-03     11.5324E-03    -10.7538E-03     21.3756E-03    -10.7583E-03     11.4200E-03
            2393     7.12284E-03     3.89115E-03    -3.57807E+06    -55.8272E+06    -3.43330E+06    -7.72544E+06    -10.7966E-03     21.6240E-03    -10.8275E-03     10.0212E-03    -10.7287E-03     21.3551E-03    -10.7585E-03     9.92080E-03
            2394     6.23236E-03     3.89020E-03    -2.43872E+06    -53.2336E+06    -3.22380E+06    -6.67027E+06    -10.8048E-03     21.6300E-03    -10.8252E-03     8.58167E-03    -10.7353E-03     21.3720E-03    -10.7606E-03     8.49501E-03
            2395     5.34206E-03     3.88937E-03    -1.49978E+06    -51.5990E+06    -2.43469E+06    -5.10944E+06    -10.8163E-03     21.6435E-03    -10.8273E-03     7.20041E-03    -10.7455E-03     21.3912E-03    -10.7624E-03     7.13401E-03
            2396     4.45167E-03     3.88871E-03    -814.262E+03    -50.5634E+06    -1.36698E+06    -3.64095E+06    -10.8283E-03     21.6593E-03    -10.8311E-03     5.89879E-03    -10.7571E-03     21.4097E-03    -10.7634E-03     5.85145E-03
            2397     3.56136E-03     3.88806E-03    -317.533E+03    -49.8250E+06    -949.483E+03    -2.69323E+06    -10.8325E-03     21.6640E-03    -10.8315E-03     4.65586E-03    -10.7605E-03     21.4167E-03    -10.7636E-03     4.62084E-03
            2398     2.67100E-03     3.88764E-03     89.9717E+03    -49.2977E+06    -478.592E+03    -1.73412E+06    -10.8351E-03     21.6676E-03    -10.8325E-03     3.46447E-03    -10.7626E-03     21.4216E-03    -10.7635E-03     3.44191E-03
            2399     1.78068E-03     3.88726E-03     392.726E+03    -48.6965E+06     52.9373E+03    -862.167E+03    -10.8341E-03     21.6682E-03    -10.8341E-03     2.31991E-03    -10.7617E-03     21.4240E-03    -10.7637E-03     2.30866E-03
            2400     890.310E-06     3.88706E-03     486.203E+03    -48.1881E+06     220.921E+03    -295.952E+03    -10.8285E-03     21.6702E-03    -10.8417E-03     1.25773E-03    -10.7565E-03     21.4282E-03    -10.7714E-03     1.25384E-03
            2401     16.8734E-03     2.96828E-03    -4.08176E+06     105.022E+06     48.7607E+06     6.00312E+06    -33.7342E-03     47.6862E-03    -13.9519E-03     34.1360E-03    -34.0831E-03     48.2531E-03    -13.8545E-03     34.0816E-03
            2402     15.9941E-03     2.94793E-03    -7.19438E+06     72.9932E+06     21.1918E+06     8.69265E+06    -23.1097E-03     36.1736E-03    -13.0639E-03     24.8325E-03    -23.3172E-03     36.5543E-03    -13.0533E-03     24.8843E-03
            2403     15.1126E-03     2.94718E-03    -10.2901E+06     48.4244E+06     11.4682E+06     8.59308E+06    -17.1265E-03     29.7639E-03    -12.6374E-03     25.9224E-03    -17.2754E-03     30.0153E-03    -12.6354E-03     26.0138E-03
            2404     14.2218E-03     2.93859E-03    -11.4660E+06     17.5932E+06     6.36215E+06     965.594E+03    -15.1118E-03     27.5464E-03    -12.4347E-03     26.3339E-03    -15.2095E-03     27.6473E-03    -12.4117E-03     26.3354E-03
            2405     13.3357E-03     2.93326E-03    -11.4570E+06    -14.0737E+06     83.6862E+03    -7.47705E+06    -14.0664E-03     26.3658E-03    -12.2993E-03     22.7265E-03    -14.1064E-03     26.3148E-03    -12.2619E-03     22.6231E-03
            2406     12.4481E-03     2.92992E-03    -10.1033E+06    -32.4342E+06     625.425E+03    -9.91561E+06    -13.4579E-03     25.6739E-03    -12.2160E-03     19.8105E-03    -13.4638E-03     25.5269E-03    -12.1512E-03     19.6782E-03
            2407     11.5592E-03     2.92814E-03    -8.24609E+06    -44.0517E+06    -223.653E+03    -9.54085E+06    -12.9058E-03     25.0507E-03    -12.1449E-03     17.7045E-03    -12.8838E-03     24.8435E-03    -12.0702E-03     17.5785E-03
            2408     10.6705E-03     2.92577E-03    -6.30697E+06    -54.2044E+06    -5.82772E+06    -10.1136E+06    -12.6409E-03     24.7117E-03    -12.0708E-03     15.5255E-03    -12.5860E-03     24.4587E-03    -12.0122E-03     15.3930E-03
            2409     9.78201E-03     2.92478E-03    -4.55660E+06    -59.3187E+06    -9.30214E+06    -11.2743E+06    -12.5074E-03     24.5181E-03    -12.0107E-03     13.6873E-03    -12.4311E-03     24.2419E-03    -11.9646E-03     13.5403E-03
            2410     8.89277E-03     2.92315E-03    -3.15217E+06    -59.0290E+06    -10.7271E+06    -10.9729E+06    -12.3847E-03     24.3435E-03    -11.9589E-03     11.9362E-03    -12.2996E-03     24.0686E-03    -11.9223E-03     11.7935E-03
            2411     8.00398E-03     2.92218E-03    -2.27880E+06    -59.4571E+06    -9.49595E+06    -9.76051E+06    -12.2900E-03     24.2161E-03    -11.9260E-03     10.3015E-03    -12.2016E-03     23.9359E-03    -11.8840E-03     10.1746E-03
            2412     7.11476E-03     2.92112E-03    -1.54115E+06    -57.9636E+06    -8.08218E+06    -8.22493E+06    -12.1977E-03     24.0921E-03    -11.8944E-03     8.83429E-03    -12.1098E-03     23.8163E-03    -11.8485E-03     8.72749E-03
            2413     6.22573E-03     2.92021E-03    -1.17227E+06    -55.8568E+06    -6.74637E+06    -6.81929E+06    -12.1033E-03     23.9688E-03    -11.8656E-03     7.46952E-03    -12.0185E-03     23.7011E-03    -11.8166E-03     7.38101E-03
            2414     5.33640E-03     2.91947E-03    -1.04316E+06    -54.4588E+06    -4.81560E+06    -5.14716E+06    -12.0261E-03     23.8707E-03    -11.8445E-03     6.21370E-03    -11.9455E-03     23.6069E-03    -11.7881E-03     6.14688E-03
            2415     4.44717E-03     2.91873E-03    -878.598E+03    -52.4673E+06    -3.46327E+06    -3.75981E+06    -11.9555E-03     23.7782E-03    -11.8227E-03     5.04900E-03    -11.8788E-03     23.5222E-03    -11.7627E-03     5.00017E-03
            2416     3.55779E-03     2.91825E-03    -661.020E+03    -51.6374E+06    -2.37034E+06    -2.69901E+06    -11.8931E-03     23.6979E-03    -11.8048E-03     3.96381E-03    -11.8181E-03     23.4441E-03    -11.7408E-03     3.92875E-03
            2417     2.66839E-03     2.91775E-03    -615.346E+03    -51.0045E+06    -1.60121E+06    -1.63255E+06    -11.8420E-03     23.6320E-03    -11.7900E-03     2.93224E-03    -11.7689E-03     23.3802E-03    -11.7232E-03     2.91101E-03
            2418     1.77895E-03     2.91746E-03    -689.633E+03    -49.8721E+06    -1.00234E+06    -767.826E+03    -11.8026E-03     23.5805E-03    -11.7779E-03     1.95263E-03    -11.7323E-03     23.3335E-03    -11.7096E-03     1.94262E-03
            2419     889.502E-06     2.91723E-03    -724.568E+03    -48.7597E+06    -746.834E+03    -156.711E+03    -11.7706E-03     23.5436E-03    -11.7729E-03     1.05901E-03    -11.7025E-03     23.3019E-03    -11.7049E-03     1.05693E-03
            2420     16.8576E-03     1.97215E-03    -1.61907E+06     98.7408E+06     48.5718E+06     6.98669E+06    -28.2415E-03     42.9951E-03    -14.7536E-03     34.3451E-03    -28.5328E-03     43.4922E-03    -14.6516E-03     34.3414E-03
            2421     15.9771E-03     1.97714E-03    -2.60034E+06     71.3847E+06     26.3116E+06     11.2477E+06    -19.1322E-03     33.3096E-03    -14.1774E-03     29.8948E-03    -19.3085E-03     33.6539E-03    -14.1456E-03     30.0080E-03
            2422     15.0849E-03     1.96710E-03    -5.51103E+06     54.6475E+06     12.5603E+06     7.70419E+06    -17.7585E-03     31.6315E-03    -13.8730E-03     27.8229E-03    -17.8907E-03     31.9012E-03    -13.8815E-03     27.9083E-03
            2423     14.2060E-03     1.96366E-03    -4.97711E+06     29.3077E+06    -2.00838E+06    -185.208E+03    -17.1222E-03     30.7283E-03    -13.6061E-03     23.9792E-03    -17.1899E-03     30.8878E-03    -13.6514E-03     23.9683E-03
            2424     13.3186E-03     1.95797E-03    -5.23075E+06    -8.40245E+06    -14.8522E+06    -7.60825E+06    -15.8407E-03     29.2463E-03    -13.4056E-03     19.8803E-03    -15.8348E-03     29.2348E-03    -13.4601E-03     19.7771E-03
            2425     12.4320E-03     1.95639E-03    -5.08627E+06    -34.0814E+06    -19.0060E+06    -11.6162E+06    -15.1476E-03     28.4246E-03    -13.2770E-03     16.6591E-03    -15.0970E-03     28.2898E-03    -13.3152E-03     16.5061E-03
            2426     11.5458E-03     1.95398E-03    -3.23777E+06    -45.7892E+06    -19.8575E+06    -11.3486E+06    -14.7876E-03     27.9505E-03    -13.1629E-03     14.2084E-03    -14.7091E-03     27.7554E-03    -13.1911E-03     14.0598E-03
            2427     10.6589E-03     1.95312E-03    -1.64582E+06    -54.5806E+06    -22.1213E+06    -10.7527E+06    -14.3773E-03     27.4293E-03    -13.0521E-03     12.2807E-03    -14.2746E-03     27.1911E-03    -13.0811E-03     12.1404E-03
            2428     9.77121E-03     1.95143E-03    -1.61985E+06    -60.3041E+06    -23.0164E+06    -10.4719E+06    -14.1314E-03     27.0889E-03    -12.9575E-03     10.5715E-03    -14.0189E-03     26.8232E-03    -12.9828E-03     10.4352E-03
            2429     8.88420E-03     1.95069E-03    -2.45692E+06    -61.5870E+06    -22.2707E+06    -9.59651E+06    -13.8706E-03     26.7430E-03    -12.8725E-03     9.05644E-03    -13.7614E-03     26.4710E-03    -12.8909E-03     8.93173E-03
            2430     7.99616E-03     1.94960E-03    -3.29759E+06    -61.9395E+06    -20.0103E+06    -8.21720E+06    -13.6201E-03     26.4216E-03    -12.8015E-03     7.74744E-03    -13.5179E-03     26.1457E-03    -12.8069E-03     7.64074E-03
            2431     7.10848E-03     1.94885E-03    -3.96525E+06    -60.5109E+06    -16.9625E+06    -7.03584E+06    -13.3981E-03     26.1374E-03    -12.7394E-03     6.57168E-03    -13.3056E-03     25.8653E-03    -12.7307E-03     6.48037E-03
            2432     6.22021E-03     1.94816E-03    -4.40937E+06    -58.5867E+06    -14.1416E+06    -5.41142E+06    -13.1930E-03     25.8758E-03    -12.6828E-03     5.52838E-03    -13.1097E-03     25.6098E-03    -12.6622E-03     5.45816E-03
            2433     5.33206E-03     1.94749E-03    -4.90806E+06    -56.8465E+06    -11.7032E+06    -4.00333E+06    -13.0108E-03     25.6437E-03    -12.6329E-03     4.56687E-03    -12.9360E-03     25.3835E-03    -12.6019E-03     4.51490E-03
            2434     4.44356E-03     1.94702E-03    -5.23614E+06    -54.1937E+06    -10.0647E+06    -3.00674E+06    -12.8509E-03     25.4371E-03    -12.5861E-03     3.69247E-03    -12.7840E-03     25.1883E-03    -12.5503E-03     3.65344E-03
            2435     3.55501E-03     1.94652E-03    -5.47156E+06    -53.4557E+06    -8.13706E+06    -2.08083E+06    -12.7254E-03     25.2772E-03    -12.5519E-03     2.88161E-03    -12.6634E-03     25.0297E-03    -12.5071E-03     2.85458E-03
            2436     2.66637E-03     1.94623E-03    -5.70954E+06    -52.4954E+06    -6.74304E+06    -1.11864E+06    -12.6218E-03     25.1444E-03    -12.5226E-03     2.12389E-03    -12.5645E-03     24.9000E-03    -12.4719E-03     2.10933E-03
            2437     1.77762E-03     1.94594E-03    -5.92195E+06    -50.7752E+06    -6.30842E+06    -478.936E+03    -12.5426E-03     25.0386E-03    -12.4960E-03     1.41303E-03    -12.4894E-03     24.8024E-03    -12.4453E-03     1.40677E-03
            2438     888.825E-06     1.94581E-03    -6.11937E+06    -49.1870E+06    -6.11617E+06    -103.401E+03    -12.4862E-03     24.9676E-03    -12.4815E-03     768.359E-06    -12.4365E-03     24.7395E-03    -12.4319E-03     766.978E-06
            2439     16.8292E-03     997.352E-06     935.042E+03     92.8731E+06     51.1250E+06     6.49775E+06    -26.0614E-03     42.1566E-03    -16.0952E-03     27.0665E-03    -26.3010E-03     42.5815E-03    -15.9756E-03     27.0941E-03
            2440     15.9438E-03     988.857E-06     1.15108E+06     73.3451E+06     35.0640E+06     6.82964E+06    -23.6988E-03     39.2333E-03    -15.5345E-03     23.7130E-03    -23.8602E-03     39.5568E-03    -15.4672E-03     23.7802E-03
            2441     15.0738E-03     988.857E-06      5.0614E+06     61.1592E+06     16.2586E+06     3.45785E+06    -21.9947E-03     37.0054E-03    -15.0107E-03     19.1865E-03    -22.0842E-03     37.2824E-03    -15.0254E-03     19.2222E-03
            2442     14.1862E-03     980.802E-06     5.69674E+06     35.0527E+06    -9.37421E+06    -799.549E+03    -19.7007E-03     34.2548E-03    -14.5541E-03     15.1701E-03    -19.7106E-03     34.4365E-03    -14.6601E-03     15.1550E-03
            2443     13.3061E-03     982.026E-06     6.63841E+06    -3.28693E+06    -26.4370E+06    -4.91025E+06    -18.1079E-03     32.3510E-03    -14.2431E-03     11.7470E-03    -18.0322E-03     32.3636E-03    -14.3801E-03     11.6812E-03
            2444     12.4213E-03     978.258E-06     5.02091E+06    -33.4597E+06    -36.5273E+06    -8.08395E+06    -17.0395E-03     31.0575E-03    -14.0181E-03     9.92557E-03    -16.9132E-03     30.9362E-03    -14.1595E-03     9.81941E-03
            2445     11.5362E-03     978.320E-06     1.83453E+06    -48.1061E+06    -40.0446E+06    -8.67170E+06    -16.3608E-03     30.2017E-03    -13.8409E-03     7.82905E-03    -16.2240E-03     30.0167E-03    -13.9740E-03     7.71604E-03
            2446     10.6504E-03     977.017E-06    -600.130E+03    -56.5424E+06    -39.3847E+06    -7.20279E+06    -15.8048E-03     29.5002E-03    -13.6954E-03     6.82037E-03    -15.6688E-03     29.2755E-03    -13.8095E-03     6.72661E-03
            2447     9.76492E-03     976.522E-06    -2.69504E+06    -61.5402E+06    -36.5979E+06    -6.16412E+06    -15.3196E-03     28.8918E-03    -13.5722E-03     5.72505E-03    -15.1908E-03     28.6411E-03    -13.6621E-03     5.64488E-03
            2448     8.87791E-03     975.764E-06    -4.74905E+06    -63.8611E+06    -33.0844E+06    -5.43843E+06    -14.8973E-03     28.3611E-03    -13.4638E-03     4.86844E-03    -14.7805E-03     28.0967E-03    -13.5297E-03     4.79778E-03
            2449     7.99152E-03     975.363E-06    -6.38168E+06    -63.6164E+06    -29.2977E+06    -4.64989E+06    -14.5300E-03     27.8954E-03    -13.3654E-03     4.14603E-03    -14.4272E-03     27.6291E-03    -13.4104E-03     4.08566E-03
            2450     7.10408E-03     974.873E-06    -7.75785E+06    -62.4667E+06    -25.2283E+06    -3.91124E+06    -14.1959E-03     27.4751E-03    -13.2792E-03     3.50987E-03    -14.1076E-03     27.2106E-03    -13.3035E-03     3.45912E-03
            2451     6.21689E-03     974.473E-06    -8.90212E+06    -60.7973E+06    -21.3303E+06    -3.00979E+06    -13.9094E-03     27.1121E-03    -13.2027E-03     2.93273E-03    -13.8348E-03     26.8519E-03    -13.2083E-03     2.89367E-03
            2452     5.32910E-03     974.163E-06    -9.48986E+06    -58.2773E+06    -18.2371E+06    -2.14325E+06    -13.6499E-03     26.7819E-03    -13.1320E-03     2.42035E-03    -13.5864E-03     26.5308E-03    -13.1249E-03     2.39253E-03
            2453     4.44131E-03     973.834E-06    -9.82027E+06    -55.4733E+06    -15.7933E+06    -1.60661E+06    -13.4319E-03     26.5016E-03    -13.0697E-03     1.95101E-03    -13.3776E-03     26.2614E-03    -13.0540E-03     1.93015E-03
            2454     3.55326E-03     973.626E-06    -10.0430E+06    -54.7276E+06    -13.3942E+06    -1.03726E+06    -13.2540E-03     26.2762E-03    -13.0222E-03     1.51816E-03    -13.2054E-03     26.0365E-03    -12.9953E-03     1.50468E-03
            2455     2.66505E-03     973.410E-06    -10.1813E+06    -53.4610E+06    -11.5462E+06    -572.702E+03    -13.1144E-03     26.0975E-03    -12.9831E-03     1.11794E-03    -13.0710E-03     25.8617E-03    -12.9486E-03     1.11049E-03
            2456     1.77679E-03     973.297E-06    -10.1594E+06    -51.3248E+06    -10.6157E+06    -210.730E+03    -13.0102E-03     25.9600E-03    -12.9498E-03     744.043E-06    -12.9712E-03     25.7335E-03    -12.9137E-03     741.282E-06
            2457     888.410E-06     973.202E-06    -10.2480E+06    -49.3805E+06    -10.2875E+06    -9.12765E+03    -12.9428E-03     25.8690E-03    -12.9262E-03     399.614E-06    -12.9074E-03     25.6519E-03    -12.8912E-03     399.484E-06


