********************************************************************************
Field Output Report, written Sat Jul 27 20:30:55 2024

Source 1
---------

   ODB: D:/Project_1740/abaqus/results//zeides_2a_40_red_150_cal_0_vel_2_fric_050.odb
   Step: Step-1
   Frame: Increment  60199521: Step Time =    7.850

Loc 1 : Nodal values from source 1

Output sorted by column "Nodal Label".

Field Output reported at nodes for region: DIE_2A_40_D0_36-1.Region_1
   Computation algorithm: EXTRAPOLATE_COMPUTE_AVERAGE
   Averaged at nodes
   Averaging regions: ODB_REGIONS

      Node Label     COORD.COOR1     COORD.COOR2
                          @Loc 1          @Loc 1
-------------------------------------------------
               1     23.7940E-03     245.478E-03


Field Output reported at nodes for region: DIE_2A_40_D0_36-1.Region_2
   Computation algorithm: EXTRAPOLATE_COMPUTE_AVERAGE
   Averaged at nodes
   Averaging regions: ODB_REGIONS

      Node Label     COORD.COOR1     COORD.COOR2
                          @Loc 1          @Loc 1
-------------------------------------------------
               1     23.7940E-03     245.478E-03


Field Output reported at nodes for part: WIRE-1
   Computation algorithm: EXTRAPOLATE_COMPUTE_AVERAGE
   Averaged at nodes
   Averaging regions: ODB_REGIONS

      Node Label     COORD.COOR1     COORD.COOR2           S.S11           S.S22           S.S33           S.S12         PE.PE11         PE.PE22         PE.PE33         PE.PE12         LE.LE11         LE.LE22         LE.LE33         LE.LE12
                          @Loc 1          @Loc 1          @Loc 1          @Loc 1          @Loc 1          @Loc 1          @Loc 1          @Loc 1          @Loc 1          @Loc 1          @Loc 1          @Loc 1          @Loc 1          @Loc 1
-------------------------------------------------------------------------------------------------------------------------------------------------------------------------------------------------------------------------------------------------
               1    -204.362E-09     56.2725E-03    -6.39248E+06    -64.5221E+06    -7.21207E+06    -45.0329E+03    -14.1939E-03     28.3260E-03    -14.1321E-03     1.28246E-03    -14.1184E-03     28.0285E-03    -14.0654E-03     1.28167E-03
               2     17.7280E-03     57.3951E-03    -7.50581E+06     174.781E+06     50.8964E+06    -4.07264E+06    -28.7850E-03     43.3979E-03    -14.6129E-03     365.362E-03    -45.3458E-03     60.4064E-03    -14.6009E-03     377.812E-03
               3     17.4866E-03     113.896E-03     9.03873E+06    -16.1345E+06     1.42897E+06     17.3220E+06     11.5145E-03     11.8724E-03    -23.3869E-03     3.10250E-03     11.5506E-03     11.7460E-03    -23.3694E-03     3.32556E-03
               4    -1.70225E-06     112.766E-03     10.0639E+06     2.25581E+06     9.89296E+06    -1.46574E+06    -16.4915E-03     33.1417E-03    -16.6502E-03    -1.09896E-03    -16.4551E-03     33.1302E-03    -16.6186E-03    -1.11320E-03
               5     143.462E-09    -756.339E-18    -8.56905E+06    -35.8334E+06    -10.1883E+06    -143.385E+03    -11.1633E-03     22.3451E-03    -11.1818E-03    -94.5083E-06    -11.1297E-03     22.2006E-03    -11.1684E-03    -90.2667E-06
               6     17.6482E-03    -756.339E-18    -17.7472E+06     79.8164E+06     51.6395E+06     12.3346E+06    -62.7900E-03     79.4866E-03    -16.6966E-03     71.2642E-03    -63.2687E-03     80.0310E-03    -16.5284E-03     70.9848E-03
               7     887.701E-06     56.2750E-03    -6.89861E+06    -63.3176E+06    -6.57146E+06    -267.232E+03    -14.2148E-03     28.3753E-03    -14.1605E-03     2.60414E-03    -14.1460E-03     28.0809E-03    -14.0915E-03     2.60026E-03
               8     1.77462E-03     56.2782E-03    -7.06967E+06    -62.1298E+06    -5.56266E+06    -417.838E+03    -14.2303E-03     28.4289E-03    -14.1986E-03     5.28655E-03    -14.1672E-03     28.1365E-03    -14.1261E-03     5.28039E-03
               9     2.66206E-03     56.2851E-03    -6.26343E+06    -60.9605E+06    -3.57582E+06    -341.143E+03    -14.2027E-03     28.4151E-03    -14.2124E-03     8.09713E-03    -14.1404E-03     28.1246E-03    -14.1328E-03     8.09157E-03
              10     3.54948E-03     56.2937E-03    -5.49834E+06    -59.8526E+06    -1.17486E+06    -447.760E+03    -14.2089E-03     28.4274E-03    -14.2185E-03     10.9839E-03    -14.1481E-03     28.1380E-03    -14.1296E-03     10.9766E-03
              11     4.43689E-03     56.3058E-03    -4.77724E+06    -58.3554E+06     264.388E+03    -176.314E+03    -14.2476E-03     28.4692E-03    -14.2216E-03     13.9956E-03    -14.1876E-03     28.1843E-03    -14.1287E-03     13.9913E-03
              12     5.32415E-03     56.3202E-03    -3.79837E+06    -57.3720E+06     2.41332E+06    -88.4813E+03    -14.3008E-03     28.5338E-03    -14.2330E-03     17.1645E-03    -14.2407E-03     28.2495E-03    -14.1322E-03     17.1607E-03
              13     6.21162E-03     56.3383E-03    -2.37094E+06    -57.8759E+06     4.04741E+06    -398.427E+03    -14.3811E-03     28.6284E-03    -14.2473E-03     20.4805E-03    -14.3158E-03     28.3375E-03    -14.1397E-03     20.4720E-03
              14     7.09881E-03     56.3589E-03    -151.638E+03    -56.6956E+06     5.19787E+06     445.477E+03    -14.4667E-03     28.7256E-03    -14.2589E-03     23.9982E-03    -14.3942E-03     28.4362E-03    -14.1505E-03     23.9997E-03
              15     7.98629E-03     56.3837E-03     1.34317E+06    -55.0658E+06     6.17685E+06     783.343E+03    -14.6332E-03     28.9091E-03    -14.2759E-03     27.6472E-03    -14.5578E-03     28.6251E-03    -14.1671E-03     27.6518E-03
              16     8.87317E-03     56.4109E-03     1.82517E+06    -55.6212E+06     5.43747E+06    -67.1044E+03    -14.8915E-03     29.1926E-03    -14.3011E-03     31.5337E-03    -14.8130E-03     28.9074E-03    -14.1959E-03     31.5255E-03
              17     9.76017E-03     56.4435E-03     1.81728E+06    -53.7955E+06     4.46399E+06    -666.231E+03    -15.1385E-03     29.4727E-03    -14.3342E-03     35.6965E-03    -15.0632E-03     29.2000E-03    -14.2365E-03     35.6781E-03
              18     10.6468E-03     56.4785E-03     1.99352E+06    -49.4469E+06     2.42003E+06    -986.764E+03    -15.2960E-03     29.6581E-03    -14.3621E-03     40.2371E-03    -15.2262E-03     29.4128E-03    -14.2812E-03     40.2113E-03
              19     11.5336E-03     56.5202E-03     2.70698E+06    -42.1318E+06     2.11594E+06     144.725E+03    -15.5417E-03     29.9374E-03    -14.3957E-03     44.5407E-03    -15.4835E-03     29.7331E-03    -14.3279E-03     44.5249E-03
              20     12.4200E-03     56.5634E-03     2.04386E+06    -29.8327E+06    -518.611E+03    -417.455E+03    -15.8740E-03     30.2922E-03    -14.4182E-03     51.3229E-03    -15.8428E-03     30.1639E-03    -14.3805E-03     51.2935E-03
              21     13.3064E-03     56.6181E-03     2.55734E+06    -18.7604E+06    -4.13981E+06     401.484E+03    -16.2584E-03     30.7032E-03    -14.4449E-03     55.7031E-03    -16.2514E-03     30.6507E-03    -14.4421E-03     55.6761E-03
              22     14.1923E-03     56.6709E-03     1.46138E+06     2.85643E+06    -4.46446E+06     795.634E+03    -16.8350E-03     31.3278E-03    -14.4929E-03     59.4541E-03    -16.8942E-03     31.4153E-03    -14.5214E-03     59.4246E-03
              23     15.0778E-03     56.7333E-03    -2.01616E+06     30.6165E+06    -7.41600E+06    -2.99663E+06    -18.5373E-03     33.0890E-03    -14.5517E-03     85.8437E-03    -18.7981E-03     33.4728E-03    -14.6302E-03     85.7717E-03
              24     15.9642E-03     56.8403E-03    -8.83058E+06     51.6152E+06    -29.4798E+06    -7.06862E+06    -20.5874E-03     35.1106E-03    -14.5232E-03     147.002E-03    -22.1563E-03     36.9167E-03    -14.7327E-03     147.380E-03
              25     16.8519E-03     57.0198E-03    -11.0722E+06     118.296E+06     744.955E+03    -6.79532E+06    -25.0248E-03     39.5595E-03    -14.5347E-03     275.697E-03    -34.6710E-03     49.5847E-03    -14.6864E-03     282.341E-03
              26     17.7680E-03     58.3387E-03     14.2051E+06     156.100E+06     14.0357E+06    -7.32016E+06    -3.86544E-03     18.1168E-03    -14.2514E-03     338.166E-03    -17.7121E-03     32.5385E-03    -14.4281E-03     351.846E-03
              27     17.7562E-03     59.2186E-03     11.2009E+06     159.501E+06     40.5130E+06     8.15579E+06    -20.5393E-03     34.4406E-03    -13.9013E-03     297.101E-03    -32.9599E-03     47.3719E-03    -13.9463E-03     309.243E-03
              28     17.7335E-03     60.2905E-03    -3.01233E+06     172.513E+06     104.879E+06     8.89473E+06    -53.9830E-03     68.1695E-03    -14.1865E-03     326.807E-03    -68.3625E-03     82.8701E-03    -13.9079E-03     335.160E-03
              29     17.7400E-03     61.3097E-03    -10.9427E+06     161.348E+06     76.6662E+06    -10.8048E+06    -35.2843E-03     50.2117E-03    -14.9274E-03     338.111E-03    -50.6588E-03     65.8937E-03    -14.7622E-03     348.969E-03
              30     17.7249E-03     62.1732E-03    -30.7612E+06     143.911E+06     13.0110E+06     187.753E+03    -6.58774E-03     21.9136E-03    -15.3258E-03     274.892E-03    -19.2159E-03     34.8834E-03    -15.4249E-03     289.237E-03
              31     17.7406E-03     63.1239E-03    -39.4342E+06     130.881E+06     4.75199E+06    -7.49727E+06    -16.3922E-03     31.4828E-03    -15.0906E-03     268.082E-03    -28.3621E-03     43.7613E-03    -15.1995E-03     280.236E-03
              32     17.7214E-03     64.1916E-03     2.01343E+06     161.641E+06     48.7852E+06     3.09784E+06    -34.4853E-03     49.1623E-03    -14.6770E-03     351.490E-03    -49.6657E-03     64.7862E-03    -14.6703E-03     362.080E-03
              33     17.7680E-03     65.1751E-03     35.8323E+06     195.972E+06     70.0526E+06     9.92648E+06    -27.3532E-03     41.6194E-03    -14.2662E-03     389.305E-03    -44.3859E-03     59.2739E-03    -14.2520E-03     401.178E-03
              34     17.7448E-03     66.1087E-03     18.4655E+06     197.737E+06     76.3978E+06     337.343E+03    -31.6197E-03     45.6761E-03    -14.0564E-03     368.900E-03    -48.5573E-03     63.1630E-03    -13.9879E-03     380.851E-03
              35     17.7488E-03     67.1107E-03     6.43653E+06     191.972E+06     84.5454E+06     7.29194E+06    -40.2112E-03     54.3977E-03    -14.1864E-03     352.986E-03    -56.4200E-03     71.0662E-03    -14.0514E-03     363.683E-03
              36     17.7403E-03     68.0733E-03    -14.4621E+06     168.812E+06     46.3840E+06     281.782E+03    -29.6083E-03     43.8497E-03    -14.2414E-03     337.796E-03    -44.9480E-03     59.6032E-03    -14.2333E-03     349.524E-03
              37     17.7555E-03     69.0129E-03    -3.95406E+06     175.495E+06     42.9351E+06    -2.09891E+06    -29.3891E-03     43.3655E-03    -13.9763E-03     322.591E-03    -43.9719E-03     58.4354E-03    -14.0104E-03     334.520E-03
              38     17.7459E-03     70.0314E-03     4.32439E+06     189.224E+06     70.5014E+06    -8.54201E+06    -42.3799E-03     56.3077E-03    -13.9278E-03     338.565E-03    -58.3182E-03     72.7333E-03    -13.8559E-03     349.162E-03
              39     17.7410E-03     71.0441E-03    -4.52612E+06     184.424E+06     71.2031E+06    -267.094E+03    -42.1382E-03     56.3873E-03    -14.2491E-03     366.925E-03    -59.7621E-03     74.4461E-03    -14.1540E-03     378.170E-03
              40     17.7470E-03     71.9943E-03     772.181E+03     188.052E+06     69.4533E+06    -410.759E+03    -33.7778E-03     48.1350E-03    -14.3572E-03     364.908E-03    -50.9941E-03     65.8204E-03    -14.2837E-03     377.206E-03
              41     17.7454E-03     72.9673E-03    -1.83922E+06     186.358E+06     73.4687E+06    -491.035E+03    -35.8454E-03     50.1218E-03    -14.2764E-03     349.578E-03    -52.2171E-03     66.9358E-03    -14.1766E-03     361.546E-03
              42     17.7425E-03     73.9591E-03    -3.67735E+06     184.375E+06     69.4841E+06     1.47369E+06    -38.4725E-03     52.7532E-03    -14.2807E-03     355.470E-03    -55.1606E-03     69.8816E-03    -14.1953E-03     367.144E-03
              43     17.7456E-03     74.9407E-03    -534.496E+03     186.690E+06     67.5090E+06     389.854E+03    -35.9986E-03     50.3247E-03    -14.3262E-03     360.587E-03    -53.0471E-03     67.8383E-03    -14.2586E-03     372.691E-03
              44     17.7435E-03     75.9091E-03    -243.935E+03     187.690E+06     70.6282E+06    -885.158E+03    -34.3530E-03     48.6968E-03    -14.3439E-03     353.328E-03    -51.1427E-03     65.9471E-03    -14.2625E-03     365.843E-03
              45     17.7453E-03     76.8867E-03    -3.84517E+06     185.329E+06     73.2499E+06     124.750E+03    -35.2407E-03     49.6064E-03    -14.3657E-03     350.461E-03    -51.8956E-03     66.6932E-03    -14.2626E-03     362.915E-03
              46     17.7415E-03     77.8732E-03    -3.29749E+06     184.859E+06     68.6689E+06     1.70653E+06    -36.1022E-03     50.4647E-03    -14.3624E-03     357.971E-03    -53.1691E-03     67.9771E-03    -14.2824E-03     370.300E-03
              47     17.7462E-03     78.8518E-03     1.67406E+06     188.424E+06     66.0624E+06    -935.169E+03    -34.2708E-03     48.5917E-03    -14.3210E-03     360.365E-03    -51.5211E-03     66.3254E-03    -14.2663E-03     372.984E-03
              48     17.7453E-03     79.8211E-03    -2.42072E+06     186.557E+06     71.2851E+06    -990.454E+03    -33.9703E-03     48.3210E-03    -14.3507E-03     355.415E-03    -51.0744E-03     65.8721E-03    -14.2612E-03     368.281E-03
              49     17.7418E-03     80.8060E-03    -4.64088E+06     184.754E+06     69.6948E+06     1.57425E+06    -35.5816E-03     49.9699E-03    -14.3883E-03     359.364E-03    -52.8635E-03     67.6891E-03    -14.3010E-03     372.013E-03
              50     17.7452E-03     81.7848E-03    -1.01591E+06     186.980E+06     66.0701E+06     689.015E+03    -34.0552E-03     48.4301E-03    -14.3749E-03     361.475E-03    -51.4319E-03     66.2754E-03    -14.3142E-03     374.227E-03
              51     17.7442E-03     82.7525E-03     853.592E+03     188.779E+06     66.8386E+06    -1.24814E+06    -32.6909E-03     47.0358E-03    -14.3449E-03     355.235E-03    -49.7847E-03     64.6089E-03    -14.2856E-03     368.292E-03
              52     17.7456E-03     83.7311E-03    -3.16078E+06     186.612E+06     69.2479E+06    -821.329E+03    -34.3655E-03     48.7314E-03    -14.3659E-03     354.393E-03    -51.4977E-03     66.3141E-03    -14.2857E-03     367.326E-03
              53     17.7407E-03     84.7162E-03    -3.63966E+06     185.533E+06     65.5299E+06     1.75529E+06    -34.9672E-03     49.3616E-03    -14.3945E-03     361.844E-03    -52.4592E-03     67.3094E-03    -14.3306E-03     374.668E-03
              54     17.7469E-03     85.6907E-03     2.81479E+06     189.413E+06     61.3849E+06    -556.482E+03    -32.3589E-03     46.6985E-03    -14.3396E-03     362.314E-03    -49.8319E-03     64.6760E-03    -14.3114E-03     375.436E-03
              55     17.7453E-03     86.6564E-03    -2.62036E+06     186.668E+06     66.8050E+06    -1.46948E+06    -33.1065E-03     47.4399E-03    -14.3334E-03     355.326E-03    -50.3280E-03     65.1213E-03    -14.2662E-03     368.504E-03
              56     17.7421E-03     87.6445E-03    -5.12698E+06     183.268E+06     62.0359E+06     787.064E+03    -35.3091E-03     49.6470E-03    -14.3379E-03     359.381E-03    -52.7280E-03     67.5185E-03    -14.2860E-03     372.258E-03
              57     17.7460E-03     88.6211E-03    -417.901E+03     185.816E+06     58.3516E+06     419.298E+03    -33.4600E-03     47.7831E-03    -14.3231E-03     362.784E-03    -51.0473E-03     65.8594E-03    -14.3002E-03     375.842E-03
              58     17.7446E-03     89.5902E-03     1.84579E+06     186.372E+06     57.0780E+06    -1.77057E+06    -32.5622E-03     46.8412E-03    -14.2790E-03     357.347E-03    -49.9281E-03     64.7099E-03    -14.2666E-03     370.667E-03
              59     17.7460E-03     90.5678E-03    -5.05013E+06     179.789E+06     54.4794E+06    -1.50145E+06    -33.7890E-03     48.0716E-03    -14.2826E-03     355.765E-03    -51.1482E-03     65.8931E-03    -14.2635E-03     369.002E-03
              60     17.7422E-03     91.5502E-03    -5.25370E+06     172.455E+06     38.0521E+06    -2.78645E+06    -33.7502E-03     47.9942E-03    -14.2440E-03     361.109E-03    -51.3343E-03     66.0615E-03    -14.2962E-03     374.230E-03
              61     17.7476E-03     92.5224E-03     8.25737E+06     181.790E+06     45.8155E+06     7.44943E+06    -32.8997E-03     47.0959E-03    -14.1962E-03     363.378E-03    -50.4553E-03     65.1933E-03    -14.2427E-03     376.668E-03
              62     17.7466E-03     93.4984E-03     6.29770E+06     184.250E+06     61.3791E+06     6.68224E+06    -31.1010E-03     45.3511E-03    -14.2500E-03     357.409E-03    -48.2861E-03     63.0349E-03    -14.2194E-03     370.717E-03
              63     17.7464E-03     94.4677E-03    -11.4057E+06     163.878E+06     34.2511E+06    -1.45579E+06    -25.3811E-03     39.5456E-03    -14.1645E-03     346.071E-03    -41.9193E-03     56.5270E-03    -14.2143E-03     359.818E-03
              64     17.7552E-03     95.4113E-03    -12.2384E+06     155.315E+06     26.1435E+06    -12.1505E+06    -30.2327E-03     44.1342E-03    -13.9015E-03     337.840E-03    -46.6392E-03     60.9759E-03    -13.9783E-03     351.036E-03
              65     17.7433E-03     96.4296E-03     13.7738E+06     169.784E+06     50.0108E+06     1.07881E+06    -41.8874E-03     55.7294E-03    -13.8420E-03     355.053E-03    -59.3768E-03     73.7287E-03    -13.8581E-03     367.047E-03
              66     17.7506E-03     97.4289E-03     5.93298E+06     163.262E+06     52.5279E+06     4.74855E+06    -36.7309E-03     50.9128E-03    -14.1820E-03     372.328E-03    -55.0711E-03     69.7033E-03    -14.1647E-03     384.880E-03
              67     17.7399E-03     98.3685E-03    -15.9381E+06     121.713E+06     3.50221E+06    -5.73363E+06    -21.4507E-03     35.6220E-03    -14.1713E-03     345.816E-03    -37.8428E-03     52.3816E-03    -14.3072E-03     359.690E-03
              68     17.7650E-03     99.2920E-03     2.52279E+06     130.517E+06     8.18477E+06    -1.49536E+06    -23.3282E-03     36.9960E-03    -13.6677E-03     314.708E-03    -37.7183E-03     51.8394E-03    -13.8197E-03     328.035E-03
              69     17.7492E-03     100.312E-03     455.414E+03     146.361E+06     35.4296E+06    -12.0528E+06    -41.9107E-03     55.3858E-03    -13.4751E-03     327.276E-03    -57.4888E-03     71.3905E-03    -13.5109E-03     338.230E-03
              70     17.7467E-03     101.337E-03    -6.86564E+06     128.319E+06     18.9301E+06    -6.81372E+06    -43.1693E-03     56.9257E-03    -13.7564E-03     362.429E-03    -60.5893E-03     74.7268E-03    -13.8379E-03     373.525E-03
              71     17.7512E-03     102.279E-03    -3.27520E+06     113.140E+06     5.81606E+06    -10.4753E+06    -35.1915E-03     49.0089E-03    -13.8175E-03     360.837E-03    -51.9848E-03     66.1757E-03    -13.9477E-03     372.628E-03
              72     17.7514E-03     103.255E-03     5.37529E+06     90.2589E+06     11.9211E+06    -12.1176E+06    -37.5548E-03     51.1714E-03    -13.6165E-03     338.823E-03    -52.7255E-03     66.6472E-03    -13.6956E-03     349.747E-03
              73     17.7550E-03     104.243E-03     3.92346E+06     70.9531E+06     10.7604E+06    -9.22333E+06    -40.2894E-03     53.7921E-03    -13.5028E-03     336.589E-03    -55.1738E-03     68.9114E-03    -13.5575E-03     346.938E-03
              74     17.7521E-03     105.228E-03    -7.05017E+06     42.0467E+06     1.68934E+06    -14.0105E+06    -42.5806E-03     56.0352E-03    -13.4547E-03     343.030E-03    -57.5124E-03     71.0866E-03    -13.4970E-03     352.693E-03
              75     17.7564E-03     106.219E-03    -133.546E+03     10.6023E+06     19.6590E+06    -16.1575E+06    -44.4843E-03     57.9973E-03    -13.5131E-03     343.363E-03    -58.9054E-03     72.3984E-03    -13.4299E-03     352.045E-03
              76     17.7529E-03     107.198E-03    -1.30629E+06    -30.0937E+06     26.6321E+06    -17.9492E+06    -46.6384E-03     60.2490E-03    -13.6106E-03     335.292E-03    -60.1756E-03     73.5970E-03    -13.4319E-03     342.847E-03
              77     17.7504E-03     108.187E-03     3.18321E+06    -58.1887E+06     32.9518E+06    -9.10904E+06    -49.4623E-03     63.1795E-03    -13.7172E-03     331.683E-03    -61.8575E-03     75.2839E-03    -13.4727E-03     338.036E-03
              78     17.7516E-03     109.180E-03     3.56215E+06    -69.1170E+06     11.5875E+06    -4.25302E+06    -48.9996E-03     62.7068E-03    -13.7072E-03     328.548E-03    -59.6724E-03     73.1128E-03    -13.5542E-03     333.558E-03
              79     17.7483E-03     110.160E-03     619.908E+03    -65.2260E+06    -25.0486E+06     3.78195E+06    -44.0120E-03     57.7635E-03    -13.7515E-03     317.180E-03    -51.9466E-03     65.5409E-03    -13.7831E-03     320.770E-03
              80     17.7471E-03     111.131E-03     208.939E+03    -25.9646E+06    -14.8957E+06     20.8597E+06    -25.7542E-03     40.0497E-03    -14.2955E-03     287.120E-03    -30.1103E-03     44.3620E-03    -14.3326E-03     289.453E-03
              81     17.7437E-03     112.053E-03    -1.58135E+06     2.70311E+06     2.56490E+06     2.05455E+06     4.29858E-03     11.4380E-03    -15.7365E-03     219.061E-03     2.90499E-03     12.8398E-03    -15.7253E-03     219.888E-03
              82     17.6973E-03     112.949E-03     4.12291E+06    -4.69534E+06     3.78471E+06    -1.41506E+06     15.7044E-03     4.36507E-03    -20.0695E-03     87.8294E-03     15.5908E-03     4.44233E-03    -20.0497E-03     87.9094E-03
              83     16.6246E-03     113.719E-03    -3.19650E+06     24.2322E+06     25.4827E+06    -187.393E+03     5.20067E-03     18.6435E-03    -23.8442E-03     17.3973E-03     5.09630E-03     18.7165E-03    -23.7473E-03     17.3942E-03
              84     15.7366E-03     113.569E-03    -15.2492E+06    -12.9849E+06     27.8008E+06    -2.65947E+06    -14.9028E-03     39.1499E-03    -24.2471E-03     26.4446E-03    -15.0076E-03     39.0632E-03    -24.0671E-03     26.4011E-03
              85     14.8803E-03     113.418E-03    -13.6697E+06     -911.72E+03     19.0718E+06    -897.014E+03    -29.1240E-03     52.8159E-03    -23.6919E-03     12.5876E-03    -29.2303E-03     52.7960E-03    -23.5754E-03     12.5582E-03
              86     14.0278E-03     113.296E-03    -10.3082E+06     2.79934E+06     14.6534E+06    -8.36276E+06    -29.0724E-03     51.9084E-03    -22.8360E-03     1.63612E-03    -29.1580E-03     51.9091E-03    -22.7518E-03     1.51127E-03
              87     13.1656E-03     113.208E-03    -9.89848E+06    -9.03469E+06     19.2393E+06    -1.56303E+06    -28.5900E-03     50.7211E-03    -22.1311E-03    -1.26053E-03    -28.6591E-03     50.6584E-03    -22.0075E-03    -1.29480E-03
              88     12.3003E-03     113.130E-03    -9.86205E+06     8.31887E+06     24.2149E+06    -4.35336E+06    -28.4928E-03     49.9080E-03    -21.4151E-03    -2.04691E-03    -28.5926E-03     49.9259E-03    -21.2918E-03    -2.11466E-03
              89     11.4328E-03     113.069E-03    -5.46319E+06    -7.08485E+06     19.9796E+06    -5.35234E+06    -27.6962E-03     48.3927E-03    -20.6966E-03    -2.02123E-03    -27.7447E-03     48.3340E-03    -20.5785E-03    -2.09981E-03
              90     10.5631E-03     113.013E-03    -238.779E+03     3.93026E+06     25.8185E+06    -4.56803E+06    -26.1233E-03     46.1536E-03    -20.0303E-03    -1.40151E-03    -26.1695E-03     46.1344E-03    -19.9065E-03    -1.46822E-03
              91     9.69041E-03     112.969E-03     3.30226E+06    -5.73886E+06     27.3760E+06    -2.91838E+06    -24.3869E-03     43.8372E-03    -19.4503E-03    -892.598E-06    -24.4032E-03     43.7628E-03    -19.3099E-03    -936.247E-06
              92     8.81503E-03     112.929E-03     3.82114E+06     2.42345E+06     29.0671E+06    -627.255E+03    -22.6573E-03     41.5961E-03    -18.9388E-03    -519.000E-06    -22.6850E-03     41.5596E-03    -18.8025E-03    -531.459E-06
              93     7.93783E-03     112.896E-03     3.55880E+06    -321.318E+03     25.3734E+06    -2.20900E+06    -21.2707E-03     39.7745E-03    -18.5037E-03    -240.458E-06    -21.2902E-03     39.7301E-03    -18.3816E-03    -272.328E-06
              94     7.05879E-03     112.867E-03     4.76422E+06      175.26E+03     27.5698E+06    -2.47109E+06    -20.2399E-03     38.3990E-03    -18.1590E-03    -34.9922E-06    -20.2571E-03     38.3523E-03    -18.0283E-03    -69.4887E-06
              95     6.17903E-03     112.844E-03     5.34907E+06    -1.18915E+06     24.8026E+06    -1.70266E+06    -19.2210E-03     37.0794E-03    -17.8584E-03     121.804E-06    -19.2291E-03     37.0292E-03    -17.7405E-03     97.8773E-06
              96     5.29712E-03     112.823E-03     5.33148E+06     380.077E+03     20.6542E+06    -1.32560E+06    -18.4475E-03     36.0644E-03    -17.6170E-03     8.39736E-06    -18.4518E-03     36.0282E-03    -17.5220E-03    -10.1460E-06
              97     4.41531E-03     112.807E-03     5.44052E+06    -357.526E+03     17.6205E+06    -1.61718E+06    -18.0188E-03     35.4484E-03    -17.4296E-03    -134.633E-06    -18.0172E-03     35.4127E-03    -17.3488E-03    -156.555E-06
              98     3.53272E-03     112.793E-03     5.90144E+06     297.547E+03     14.2053E+06    -1.85561E+06    -17.7171E-03     34.9734E-03    -17.2563E-03    -158.937E-06    -17.7091E-03     34.9453E-03    -17.1943E-03    -183.638E-06
              99     2.64988E-03     112.783E-03     6.93633E+06    -819.805E+03     11.5040E+06    -1.76398E+06    -17.3795E-03     34.4892E-03    -17.1097E-03    -107.806E-06    -17.3607E-03     34.4581E-03    -17.0610E-03    -131.086E-06
             100     1.76608E-03     112.774E-03     7.49853E+06    -418.220E+03     10.3290E+06    -1.35721E+06    -17.2833E-03     34.2328E-03    -16.9495E-03     239.475E-06    -17.2608E-03     34.2044E-03    -16.9081E-03     221.955E-06
             101     884.936E-06     112.770E-03     8.85080E+06    -791.887E+03     9.52410E+06    -1.44128E+06    -16.9385E-03     33.6906E-03    -16.7521E-03    -280.448E-06    -16.9056E-03     33.6628E-03    -16.7162E-03    -296.515E-06
             102     1.55829E-06     111.790E-03     5.91566E+06    -2.52949E+06     5.78332E+06    -1.29176E+06    -15.7445E-03     31.0120E-03    -15.2674E-03    -760.223E-06    -15.7167E-03     30.9871E-03    -15.2434E-03    -773.783E-06
             103    -572.525E-09     110.810E-03     3.21167E+06    -5.87759E+06     3.66483E+06    -689.015E+03    -13.3779E-03     26.4982E-03    -13.1203E-03     1.06729E-03    -13.3567E-03     26.4621E-03    -13.0981E-03     1.05918E-03
             104     44.2415E-09     109.840E-03     2.70994E+06    -8.24153E+06     2.44590E+06    -962.476E+03    -11.0303E-03     22.7161E-03    -11.6858E-03     2.05987E-03    -11.0069E-03     22.6705E-03    -11.6655E-03     2.04739E-03
             105    -689.522E-09     108.871E-03     277.401E+03    -12.0852E+06     408.698E+03    -1.07864E+06    -10.0810E-03     20.5620E-03    -10.4811E-03     1.03552E-03    -10.0612E-03     20.5035E-03    -10.4619E-03     1.02129E-03
             106     620.883E-09     107.905E-03    -6.31178E+06    -16.9566E+06    -5.91064E+06    -1.93050E+06    -9.85393E-03     19.5064E-03    -9.65247E-03     907.309E-06    -9.85106E-03     19.4421E-03    -9.64828E-03     881.879E-06
             107    -191.040E-09     106.937E-03    -20.6607E+06    -24.0809E+06    -20.5396E+06    -2.19112E+06    -9.57493E-03     18.9820E-03    -9.40707E-03     2.10155E-03    -9.61240E-03     18.9241E-03    -9.44490E-03     2.07290E-03
             108     57.5557E-09     105.971E-03    -37.6265E+06    -32.3316E+06    -37.2204E+06    -3.03150E+06    -9.29449E-03     18.5942E-03    -9.29970E-03     2.65423E-03    -9.38060E-03     18.5439E-03    -9.38437E-03     2.61482E-03
             109     66.1283E-09     105.005E-03    -51.2165E+06    -42.0315E+06    -52.2437E+06    -2.42948E+06    -9.44826E-03     18.7148E-03    -9.26651E-03     1.91147E-03    -9.56647E-03     18.6575E-03    -9.39251E-03     1.87990E-03
             110     118.851E-09     104.041E-03    -52.9200E+06    -46.9295E+06    -52.4095E+06    -1.23857E+06    -9.94989E-03     19.7529E-03    -9.80297E-03     767.179E-06    -10.0693E-03     19.6738E-03    -9.92023E-03     751.308E-06
             111    -38.3962E-09     103.072E-03    -43.4822E+06    -50.1508E+06    -44.3030E+06    -752.734E+03    -10.6411E-03     20.9318E-03    -10.2907E-03     1.01385E-03    -10.7204E-03     20.8111E-03    -10.3765E-03     1.00425E-03
             112     569.704E-09     102.102E-03    -30.2538E+06    -48.7637E+06    -30.5830E+06     1.80110E+06    -11.0793E-03     21.7168E-03    -10.6375E-03     2.54228E-03    -11.1143E-03     21.5640E-03    -10.6758E-03     2.56547E-03
             113    -323.341E-09     101.133E-03    -17.4792E+06    -38.9031E+06    -18.0029E+06     3.76283E+06    -11.2447E-03     22.7117E-03    -11.4671E-03     2.70917E-03    -11.2484E-03     22.5715E-03    -11.4753E-03     2.75772E-03
             114    -329.921E-09     100.163E-03    -13.5427E+06    -26.4256E+06    -13.3334E+06     3.65841E+06    -11.6165E-03     23.8758E-03    -12.2593E-03     1.45530E-03    -11.6254E-03     23.7854E-03    -12.2680E-03     1.50264E-03
             115    -161.038E-09     99.1922E-03    -13.4417E+06    -19.4772E+06    -12.7735E+06     1.08101E+06    -12.3132E-03     24.7130E-03    -12.3998E-03     1.01225E-03    -12.3325E-03     24.6565E-03    -12.4159E-03     1.02630E-03
             116     502.990E-09     98.2187E-03    -12.8142E+06    -16.2904E+06    -13.3724E+06     1.05013E+06    -12.9699E-03     25.4305E-03    -12.4606E-03     2.11260E-03    -12.9897E-03     25.3900E-03    -12.4853E-03     2.12599E-03
             117     49.2402E-09     97.2452E-03    -8.54134E+06    -11.7970E+06    -8.01234E+06     1.67034E+06    -13.2723E-03     26.0917E-03    -12.8194E-03     2.57915E-03    -13.2851E-03     26.0598E-03    -12.8300E-03     2.60041E-03
             118     203.994E-09     96.2725E-03    -4.91203E+06    -9.46844E+06    -4.24417E+06    -113.662E+03    -13.3915E-03     26.5896E-03    -13.1982E-03     1.65714E-03    -13.3949E-03     26.5586E-03    -13.1985E-03     1.65542E-03
             119    -109.835E-09     95.2995E-03    -3.06832E+06    -10.6188E+06    -3.20956E+06    -1.33712E+06    -13.5760E-03     27.3022E-03    -13.7262E-03     964.246E-06    -13.5700E-03     27.2612E-03    -13.7224E-03     946.801E-06
             120    -254.985E-09     94.3237E-03    -1.96415E+06    -13.2666E+06    -2.63447E+06    -729.417E+03    -13.7966E-03     27.8768E-03    -14.0801E-03     1.06753E-03    -13.7822E-03     27.8202E-03    -14.0712E-03     1.05800E-03
             121     106.348E-09     93.3481E-03    -4.98055E+06    -16.4151E+06    -4.62862E+06    -1.01430E+06    -13.9616E-03     27.9608E-03    -13.9992E-03     1.54005E-03    -13.9548E-03     27.8958E-03    -13.9914E-03     1.52670E-03
             122    -23.6703E-09     92.3735E-03    -8.53259E+06    -20.3691E+06    -9.03326E+06    -1.22573E+06    -14.3415E-03     28.2096E-03    -13.8681E-03     1.66472E-03    -14.3403E-03     28.1363E-03    -13.8713E-03     1.64857E-03
             123     771.961E-09     91.3975E-03    -11.3544E+06    -24.8769E+06    -10.4873E+06    -1.53762E+06    -14.4290E-03     28.5096E-03    -14.0806E-03     1.91491E-03    -14.4332E-03     28.4201E-03    -14.0805E-03     1.89472E-03
             124    -895.956E-09     90.4219E-03    -10.2231E+06    -28.6035E+06    -10.7357E+06    -900.134E+03    -14.2547E-03     28.5256E-03    -14.2709E-03     1.88339E-03    -14.2472E-03     28.4164E-03    -14.2683E-03     1.87147E-03
             125     981.031E-09     89.4462E-03    -11.7705E+06    -31.1302E+06    -11.2445E+06    -269.102E+03    -14.2129E-03     28.4000E-03    -14.1871E-03     1.67746E-03    -14.2087E-03     28.2812E-03    -14.1811E-03     1.67371E-03
             126    -1.01826E-06     88.4715E-03    -10.8502E+06    -33.0132E+06    -11.1551E+06    -971.173E+03    -14.1503E-03     28.3892E-03    -14.2388E-03     1.63164E-03    -14.1389E-03     28.2594E-03    -14.2310E-03     1.61889E-03
             127     890.975E-09     87.4952E-03    -12.2617E+06    -36.1613E+06    -12.7943E+06    -517.896E+03    -14.1797E-03     28.3987E-03    -14.2190E-03     1.76352E-03    -14.1685E-03     28.2576E-03    -14.2127E-03     1.75665E-03
             128    -843.735E-09     86.5200E-03    -14.7383E+06    -38.8826E+06    -14.0891E+06    -1.04467E+06    -14.1876E-03     28.2715E-03    -14.0839E-03     1.72176E-03    -14.1829E-03     28.1222E-03    -14.0766E-03     1.70807E-03
             129     983.742E-09     85.5454E-03    -14.3265E+06    -40.9686E+06    -14.7672E+06    -982.536E+03    -14.2921E-03     28.2860E-03    -13.9938E-03     1.43330E-03    -14.2814E-03     28.1266E-03    -13.9875E-03     1.42036E-03
             130    -603.057E-09     84.5692E-03    -17.1399E+06    -44.0476E+06    -16.4373E+06    -196.486E+03    -14.3715E-03     28.3326E-03    -13.9611E-03     1.85776E-03    -14.3680E-03     28.1643E-03    -13.9545E-03     1.85491E-03
             131     954.548E-09     83.5937E-03    -15.8873E+06    -44.7556E+06    -16.2281E+06     90.2314E+03    -14.1966E-03     28.2395E-03    -14.0429E-03     1.98086E-03    -14.1861E-03     28.0656E-03    -14.0361E-03     1.98176E-03
             132    -1.04171E-06     82.6194E-03    -15.1590E+06    -45.2965E+06    -15.1775E+06    -255.261E+03    -13.8283E-03     27.9697E-03    -14.1414E-03     1.60988E-03    -13.8148E-03     27.7905E-03    -14.1297E-03     1.60634E-03
             133     568.719E-09     81.6439E-03    -14.1497E+06    -46.8487E+06    -14.3327E+06    -1.15008E+06    -13.8193E-03     27.8082E-03    -13.9889E-03     1.28380E-03    -13.7998E-03     27.6185E-03    -13.9721E-03     1.26868E-03
             134    -402.393E-09     80.6702E-03    -14.5618E+06    -49.1980E+06    -14.9303E+06    -481.055E+03    -14.0045E-03     27.9298E-03    -13.9254E-03     1.42655E-03    -13.9828E-03     27.7299E-03    -13.9076E-03     1.41991E-03
             135     368.645E-09     79.6937E-03    -15.5693E+06    -49.7836E+06    -14.7501E+06    -231.187E+03    -14.0377E-03     27.9895E-03    -13.9518E-03     1.90695E-03    -14.0205E-03     27.7878E-03    -13.9308E-03     1.90354E-03
             136    -177.283E-09     78.7189E-03    -15.0484E+06    -51.4723E+06    -15.4453E+06    -653.208E+03    -13.9671E-03     27.6207E-03    -13.6536E-03     1.98497E-03    -13.9439E-03     27.4109E-03    -13.6344E-03     1.97612E-03
             137     533.623E-09     77.7452E-03    -16.5284E+06    -54.5076E+06    -16.4201E+06    -378.878E+03    -13.9794E-03     27.4632E-03    -13.4838E-03     1.64685E-03    -13.9577E-03     27.2418E-03    -13.4629E-03     1.64151E-03
             138    -12.5923E-09     76.7707E-03    -15.4640E+06    -55.5297E+06    -15.8557E+06    -199.859E+03    -13.9764E-03     27.6525E-03    -13.6761E-03     1.17505E-03    -13.9487E-03     27.4237E-03    -13.6525E-03     1.17208E-03
             139     16.8551E-09     75.7964E-03    -14.8910E+06    -55.8970E+06    -15.1083E+06    -659.786E+03    -13.6867E-03     27.7602E-03    -14.0735E-03     1.05923E-03    -13.6567E-03     27.5278E-03    -14.0464E-03     1.05047E-03
             140    -713.502E-09     74.8213E-03    -15.6667E+06    -57.1744E+06    -15.7342E+06    -720.173E+03    -13.7998E-03     28.1189E-03    -14.3191E-03     1.28443E-03    -13.7708E-03     27.8823E-03    -14.2922E-03     1.27484E-03
             141     483.988E-09     73.8454E-03    -17.0660E+06    -58.7860E+06    -17.1156E+06    -134.292E+03    -14.3395E-03     28.4560E-03    -14.1165E-03     1.36345E-03    -14.3131E-03     28.2155E-03    -14.0921E-03     1.36151E-03
             142     136.893E-09     72.8705E-03    -18.2703E+06    -59.9199E+06    -17.7219E+06    -442.641E+03    -14.4874E-03     28.5992E-03    -14.1118E-03     1.75092E-03    -14.4644E-03     28.3557E-03    -14.0870E-03     1.74490E-03
             143    -89.4736E-09     71.8940E-03    -18.1565E+06    -60.7663E+06    -18.6539E+06    -155.175E+03    -14.4904E-03     28.8202E-03    -14.3299E-03     1.65884E-03    -14.4641E-03     28.5739E-03    -14.3087E-03     1.65657E-03
             144     316.430E-09     70.9192E-03    -20.2503E+06    -60.9237E+06    -19.4334E+06     86.5620E+03    -14.7319E-03     29.2383E-03    -14.5064E-03     1.61675E-03    -14.7146E-03     28.9955E-03    -14.4858E-03     1.61768E-03
             145    -138.646E-09     69.9418E-03    -17.3099E+06    -58.7282E+06    -18.3218E+06     380.789E+03    -14.7529E-03     29.8011E-03    -15.0483E-03     1.52092E-03    -14.7256E-03     29.5635E-03    -15.0296E-03     1.52567E-03
             146    -579.238E-09     68.9662E-03    -15.9456E+06    -57.5318E+06    -16.1750E+06     518.916E+03    -14.8282E-03     30.1026E-03    -15.2744E-03     1.30295E-03    -14.7987E-03     29.8661E-03    -15.2487E-03     1.30952E-03
             147     498.290E-09     67.9869E-03    -16.8922E+06    -58.3711E+06    -16.6176E+06    -513.487E+03    -15.0540E-03     30.0623E-03    -15.0083E-03     1.78200E-03    -15.0270E-03     29.8239E-03    -14.9823E-03     1.77499E-03
             148    -339.485E-09     67.0120E-03    -17.3601E+06    -59.3434E+06    -17.8609E+06    -3.86244E+03    -15.0481E-03     29.9213E-03    -14.8732E-03     1.65450E-03    -15.0200E-03     29.6806E-03    -14.8513E-03     1.65413E-03
             149     478.520E-09     66.0338E-03    -16.7651E+06    -58.8549E+06    -16.0366E+06    -527.726E+03    -15.1355E-03     29.9806E-03    -14.8451E-03     1.58303E-03    -15.1074E-03     29.7389E-03    -14.8156E-03     1.57566E-03
             150    -101.248E-09     65.0580E-03    -14.0495E+06    -59.7092E+06    -14.9663E+06     195.003E+03    -15.0566E-03     29.9667E-03    -14.9101E-03     1.59492E-03    -15.0149E-03     29.7153E-03    -14.8779E-03     1.59710E-03
             151    -34.4293E-09     64.0801E-03    -16.3675E+06    -60.6551E+06    -14.7653E+06     152.992E+03    -14.8198E-03     29.7659E-03    -14.9461E-03     1.39364E-03    -14.7883E-03     29.5128E-03    -14.9083E-03     1.39521E-03
             152    -43.4923E-09     63.1050E-03    -10.3909E+06    -60.1454E+06    -11.8947E+06     208.982E+03    -14.8257E-03     29.7322E-03    -14.9065E-03     1.63576E-03    -14.7693E-03     29.4688E-03    -14.8637E-03     1.63805E-03
             153    -47.1113E-09     62.1260E-03    -9.07393E+06    -58.4676E+06    -8.11661E+06     430.576E+03    -14.7500E-03     29.5057E-03    -14.7557E-03     1.89619E-03    -14.6951E-03     29.2432E-03    -14.6984E-03     1.90115E-03
             154     130.314E-09     61.1520E-03    -7.44065E+06    -59.2062E+06    -7.91307E+06    -675.102E+03    -14.7230E-03     29.1102E-03    -14.3872E-03     1.77592E-03    -14.6596E-03     28.8413E-03    -14.3301E-03     1.76675E-03
             155     369.695E-09     60.1743E-03    -5.32376E+06    -58.5560E+06    -4.78745E+06     1.02609E+06    -14.6218E-03     28.8390E-03    -14.2172E-03     1.75183E-03    -14.5535E-03     28.5659E-03    -14.1485E-03     1.76484E-03
             156    -152.603E-09     59.2005E-03    -3.62615E+06    -58.5130E+06    -2.65302E+06    -870.069E+03    -14.2833E-03     28.6027E-03    -14.3195E-03     1.68920E-03    -14.2094E-03     28.3243E-03    -14.2426E-03     1.67767E-03
             157    -124.789E-09     58.2235E-03    -4.01809E+06    -61.9708E+06    -5.48637E+06    -781.595E+03    -14.3035E-03     28.6335E-03    -14.3300E-03     1.52292E-03    -14.2224E-03     28.3426E-03    -14.2617E-03     1.51251E-03
             158     331.307E-09     57.2497E-03    -6.65765E+06    -63.6869E+06    -5.82636E+06    -232.147E+03    -14.4340E-03     28.6816E-03    -14.2477E-03     1.29062E-03    -14.3631E-03     28.3866E-03    -14.1748E-03     1.28724E-03
             159     170.812E-09     55.2990E-03    -10.9784E+06    -65.2829E+06    -10.1092E+06    -837.260E+03    -14.0558E-03     28.1336E-03    -14.0778E-03     1.42007E-03    -13.9978E-03     27.8432E-03    -14.0178E-03     1.40869E-03
             160    -173.653E-09     54.3226E-03    -10.6155E+06    -67.5382E+06    -11.8203E+06    -616.493E+03    -14.1177E-03     28.1305E-03    -14.0128E-03     1.46939E-03    -14.0522E-03     27.8310E-03    -13.9586E-03     1.46098E-03
             161     341.667E-09     53.3483E-03    -9.93156E+06    -67.3374E+06    -9.46857E+06     754.493E+03    -14.0551E-03     27.9632E-03    -13.9081E-03     1.74668E-03    -13.9897E-03     27.6604E-03    -13.8434E-03     1.75591E-03
             162    -251.276E-09     52.3728E-03    -7.60107E+06    -66.1669E+06    -7.51881E+06     296.173E+03    -13.9907E-03     27.8785E-03    -13.8878E-03     1.72168E-03    -13.9182E-03     27.5754E-03    -13.8184E-03     1.72520E-03
             163     336.643E-09     51.3991E-03    -7.21989E+06    -65.4575E+06    -7.23880E+06    -149.896E+03    -14.0246E-03     27.9682E-03    -13.9435E-03     1.59665E-03    -13.9516E-03     27.6676E-03    -13.8743E-03     1.59409E-03
             164    -285.973E-09     50.4231E-03    -8.48991E+06    -65.2372E+06    -8.90297E+06     289.508E+03    -13.9921E-03     27.9529E-03    -13.9609E-03     1.62908E-03    -13.9235E-03     27.6578E-03    -13.8985E-03     1.63233E-03
             165     278.448E-09     49.4489E-03    -13.8364E+06    -65.4355E+06    -13.1840E+06     107.664E+03    -14.0439E-03     27.9284E-03    -13.8845E-03     1.76108E-03    -13.9958E-03     27.6462E-03    -13.8354E-03     1.76184E-03
             166     12.2973E-09     48.4736E-03    -16.8531E+06    -66.8664E+06    -17.8300E+06    -320.297E+03    -14.1432E-03     28.1050E-03    -13.9618E-03     1.91359E-03    -14.1016E-03     27.8268E-03    -13.9295E-03     1.90898E-03
             167     770.691E-12     47.4986E-03    -19.5974E+06    -65.4464E+06    -18.7748E+06     804.638E+03    -14.1678E-03     28.2601E-03    -14.0923E-03     1.85767E-03    -14.1408E-03     27.9945E-03    -14.0629E-03     1.86751E-03
             168     122.796E-09     46.5234E-03    -18.4234E+06    -63.9678E+06    -18.0390E+06     172.772E+03    -14.3047E-03     28.4879E-03    -14.1831E-03     1.78406E-03    -14.2751E-03     28.2269E-03    -14.1539E-03     1.78558E-03
             169    -32.6356E-09     45.5480E-03    -15.3566E+06    -63.5686E+06    -17.3281E+06     420.526E+03    -14.4230E-03     28.7691E-03    -14.3461E-03     1.69053E-03    -14.3796E-03     28.5047E-03    -14.3183E-03     1.69565E-03
             170     50.0304E-09     44.5718E-03    -17.0674E+06    -63.7892E+06    -16.5785E+06    -358.386E+03    -14.4558E-03     28.8241E-03    -14.3683E-03     1.70407E-03    -14.4216E-03     28.5601E-03    -14.3340E-03     1.69897E-03
             171     86.8026E-09     43.5964E-03    -17.2735E+06    -63.3130E+06    -16.9871E+06     95.0515E+03    -14.3825E-03     28.7104E-03    -14.3279E-03     1.62956E-03    -14.3493E-03     28.4496E-03    -14.2960E-03     1.63037E-03
             172    -130.210E-09     42.6210E-03    -17.1998E+06    -61.6915E+06    -16.2517E+06     470.200E+03    -14.3586E-03     28.6506E-03    -14.2919E-03     1.43065E-03    -14.3282E-03     28.3966E-03    -14.2588E-03     1.43617E-03
             173     295.871E-09     41.6452E-03    -14.0306E+06    -62.1255E+06    -14.7392E+06    -223.883E+03    -14.3131E-03     28.5369E-03    -14.2238E-03     1.45407E-03    -14.2682E-03     28.2741E-03    -14.1871E-03     1.45060E-03
             174    -318.534E-09     40.6699E-03    -14.1300E+06    -64.0114E+06    -12.6886E+06    -1.51752E+06    -14.1863E-03     28.2808E-03    -14.0946E-03     1.49654E-03    -14.1419E-03     28.0058E-03    -14.0447E-03     1.47631E-03
             175     512.814E-09     39.6946E-03    -10.8932E+06    -67.4093E+06    -11.8785E+06    -1.08311E+06    -14.1960E-03     28.1852E-03    -13.9892E-03     1.69922E-03    -14.1315E-03     27.8877E-03    -13.9351E-03     1.68456E-03
             176    -359.683E-09     38.7197E-03    -7.69771E+06    -68.8588E+06    -6.85661E+06    -485.503E+03    -14.1475E-03     28.1860E-03    -14.0385E-03     1.67358E-03    -14.0720E-03     27.8697E-03    -13.9618E-03     1.66710E-03
             177     400.860E-09     37.7445E-03    -7.56606E+06    -72.9246E+06    -8.14992E+06    -1.83749E+06    -14.0355E-03     28.0155E-03    -13.9800E-03     1.64681E-03    -13.9511E-03     27.6808E-03    -13.9040E-03     1.62320E-03
             178    -359.593E-09     36.7698E-03    -5.78350E+06    -73.4707E+06    -7.49011E+06     859.477E+03    -13.9524E-03     27.7817E-03    -13.8293E-03     1.58487E-03    -13.8589E-03     27.4412E-03    -13.7518E-03     1.59475E-03
             179     507.337E-09     35.7953E-03    -6.62365E+06    -71.4982E+06    -4.83707E+06     245.243E+03    -13.8781E-03     27.5267E-03    -13.6486E-03     1.45933E-03    -13.7946E-03     27.1939E-03    -13.5595E-03     1.46306E-03
             180    -238.660E-09     34.8211E-03    -9.96257E+06    -72.7687E+06    -11.0892E+06     530.502E+03    -13.6955E-03     27.1829E-03    -13.4875E-03     1.47542E-03    -13.6167E-03     26.8579E-03    -13.4230E-03     1.48329E-03
             181     313.085E-09     33.8471E-03    -8.54268E+06    -70.3956E+06    -7.50438E+06     999.514E+03    -13.4094E-03     26.8033E-03    -13.3939E-03     1.28024E-03    -13.3316E-03     26.4830E-03    -13.3169E-03     1.29293E-03
             182    -362.260E-09     32.8740E-03    -3.70417E+06    -65.8502E+06    -4.94045E+06     1.74949E+06    -13.1381E-03     26.3729E-03    -13.2348E-03     1.20753E-03    -13.0455E-03     26.0649E-03    -13.1587E-03     1.23028E-03
             183     209.637E-09     31.9003E-03    -5.35866E+06    -62.6274E+06    -3.75367E+06     410.773E+03    -13.0109E-03     25.9566E-03    -12.9457E-03     1.31130E-03    -12.9324E-03     25.6649E-03    -12.8659E-03     1.31682E-03
             184     60.5029E-09     30.9280E-03    -3.36119E+06    -63.4502E+06    -3.14111E+06    -611.016E+03    -12.9097E-03     25.5294E-03    -12.6197E-03     1.36690E-03    -12.8210E-03     25.2289E-03    -12.5385E-03     1.35998E-03
             185     170.651E-09     29.9554E-03    -4.96855E+06    -62.7198E+06    -5.10519E+06     740.188E+03    -12.6362E-03     25.0938E-03    -12.4576E-03     1.27556E-03    -12.5536E-03     24.8015E-03    -12.3850E-03     1.28519E-03
             186    -102.693E-09     28.9840E-03    -6.45995E+06    -60.8997E+06    -7.50473E+06     1.41258E+06    -12.3200E-03     24.6361E-03    -12.3161E-03     1.12112E-03    -12.2445E-03     24.3580E-03    -12.2559E-03     1.14018E-03
             187     13.8882E-09     28.0121E-03    -7.86722E+06    -53.2498E+06    -7.80696E+06     2.32354E+06    -12.0562E-03     24.0573E-03    -12.0011E-03     1.10620E-03    -11.9995E-03     23.8193E-03    -11.9515E-03     1.13694E-03
             188     159.812E-09     27.0416E-03    -10.3645E+06    -51.7684E+06    -9.96883E+06    -350.470E+03    -11.8543E-03     23.4571E-03    -11.6027E-03     1.12882E-03    -11.8101E-03     23.2328E-03    -11.5625E-03     1.12424E-03
             189     106.568E-09     26.0712E-03    -7.16185E+06    -51.2696E+06    -8.48954E+06     1.43102E+06    -11.5535E-03     22.8476E-03    -11.2941E-03     971.817E-06    -11.4968E-03     22.6188E-03    -11.2518E-03     990.972E-06
             190     62.6721E-09     25.1018E-03    -7.55783E+06    -46.8987E+06     -5.8928E+06     1.01171E+06    -11.2224E-03     22.2575E-03    -11.0351E-03     989.913E-06    -11.1783E-03     22.0474E-03    -10.9856E-03     1.00340E-03
             191     110.746E-09     24.1323E-03    -5.55145E+06    -46.9676E+06    -5.23071E+06    -1.14329E+06    -10.8563E-03     21.7524E-03    -10.8961E-03     1.07387E-03    -10.8036E-03     21.5383E-03    -10.8461E-03     1.05932E-03
             192    -360.390E-09     23.1641E-03    -2.10228E+06    -46.0842E+06    -4.13345E+06     281.916E+03    -10.6038E-03     21.2738E-03    -10.6700E-03     951.501E-06    -10.5375E-03     21.0575E-03    -10.6208E-03     955.143E-06
             193     461.391E-09     22.1952E-03    -1.86058E+06    -44.6224E+06    -555.520E+03     1.14991E+06    -10.5339E-03     20.8284E-03    -10.2945E-03     991.069E-06    -10.4743E-03     20.6138E-03    -10.2298E-03     1.00658E-03
             194    -127.298E-09     21.2282E-03    -1.10211E+06    -43.6686E+06    -912.993E+03     196.836E+03    -10.3101E-03     20.4356E-03    -10.1255E-03     1.01770E-03    -10.2476E-03     20.2253E-03    -10.0652E-03     1.02014E-03
             195     117.854E-09     20.2600E-03    -8.03752E+06    -42.5557E+06    -8.46798E+06     269.283E+03    -10.0371E-03     20.0827E-03    -10.0456E-03     967.887E-06    -9.99978E-03     19.8994E-03    -10.0146E-03     971.260E-06
             196    -135.176E-09     19.2934E-03    -9.68659E+06    -40.5642E+06    -9.60033E+06     235.775E+03    -9.85284E-03     19.6867E-03    -9.83384E-03     931.236E-06    -9.82450E-03     19.5176E-03    -9.80897E-03     934.467E-06
             197     179.806E-09     18.3260E-03    -9.93367E+06    -36.4768E+06    -11.1665E+06     1.92723E+06    -9.69031E-03     19.2216E-03    -9.53134E-03     814.997E-06    -9.66655E-03     19.0758E-03    -9.51988E-03     840.379E-06
             198     36.7715E-09     17.3607E-03    -12.6621E+06    -31.9152E+06    -10.7536E+06     1.30083E+06    -9.46472E-03     18.8148E-03    -9.35007E-03     719.908E-06    -9.46152E-03     18.6951E-03    -9.33920E-03     737.163E-06
             199    -35.4922E-09     16.3937E-03    -13.0914E+06    -31.0415E+06    -13.3213E+06    -332.846E+03    -9.22148E-03     18.3412E-03    -9.11970E-03     552.125E-06    -9.21794E-03     18.2305E-03    -9.12232E-03     547.334E-06
             200     204.693E-09     15.4294E-03    -13.1634E+06    -30.9193E+06    -13.3055E+06     569.399E+03    -9.03682E-03     17.7985E-03    -8.76171E-03     245.941E-06    -9.03415E-03     17.6888E-03    -8.76432E-03     253.181E-06
             201     107.522E-09     14.4639E-03    -10.1691E+06    -28.4472E+06    -10.2511E+06     1.02824E+06    -8.84012E-03     17.3375E-03    -8.49738E-03     155.963E-06    -8.83054E-03     17.2314E-03    -8.49265E-03     169.437E-06
             202     183.228E-09     13.4997E-03    -8.75402E+06    -25.2158E+06    -9.02335E+06     658.030E+03    -8.54127E-03     16.8282E-03    -8.28697E-03     261.952E-06    -8.53119E-03     16.7342E-03    -8.28283E-03     270.841E-06
             203    -30.6909E-09     12.5352E-03    -9.74732E+06    -24.1191E+06    -9.85836E+06     789.860E+03    -8.14122E-03     16.0003E-03    -7.85908E-03     141.075E-06    -8.13698E-03     15.9142E-03    -7.85927E-03     151.105E-06
             204     374.210E-09     11.5728E-03    -14.9672E+06    -25.7394E+06    -13.5478E+06    -972.375E+03    -7.63829E-03     14.9931E-03    -7.35482E-03     17.8161E-06    -7.65270E-03     14.9116E-03    -7.36353E-03     5.52978E-06
             205    -201.052E-09     10.6107E-03    -13.5716E+06    -28.7538E+06    -14.3243E+06    -1.67354E+06    -7.12156E-03     14.1172E-03    -6.99566E-03    -81.2827E-06    -7.12355E-03     14.0196E-03    -7.00591E-03    -102.686E-06
             206     238.214E-09     9.64925E-03    -15.3535E+06    -29.1222E+06    -16.2405E+06     255.676E+03    -6.77974E-03     13.4119E-03    -6.63220E-03    -4.74315E-06    -6.78732E-03     13.3178E-03    -6.64892E-03    -1.67366E-06
             207    -27.8290E-09     8.68871E-03    -17.9846E+06    -29.8066E+06    -17.4317E+06    -176.808E+03    -6.68716E-03     13.1787E-03    -6.49149E-03     227.300E-06    -6.70505E-03     13.0868E-03    -6.50936E-03     224.631E-06
             208     167.352E-09     7.72777E-03    -19.4862E+06    -31.7862E+06    -18.5883E+06    -1.20582E+06    -6.83359E-03     13.5807E-03    -6.74706E-03     355.573E-06    -6.85452E-03     13.4831E-03    -6.76566E-03     339.318E-06
             209    -147.970E-09     6.76655E-03    -19.0937E+06    -35.1153E+06    -19.6448E+06    -1.11401E+06    -7.31770E-03     14.6062E-03    -7.28850E-03     458.926E-06    -7.33031E-03     14.4932E-03    -7.30812E-03     444.630E-06
             210     168.306E-09     5.80357E-03    -15.2520E+06    -36.9963E+06    -15.2895E+06     107.204E+03    -8.02993E-03     16.0264E-03    -7.99643E-03     564.742E-06    -8.02682E-03     15.8921E-03    -7.99712E-03     566.149E-06
             211    -135.573E-09     4.83934E-03    -11.8862E+06    -35.2292E+06    -11.7147E+06     882.137E+03    -8.76195E-03     17.4887E-03    -8.72678E-03     655.357E-06    -8.75000E-03     17.3534E-03    -8.71703E-03     666.685E-06
             212     161.662E-09     3.87388E-03    -11.1896E+06    -32.7830E+06    -11.3761E+06     983.953E+03    -9.45779E-03     18.9438E-03    -9.48606E-03     616.181E-06    -9.44642E-03     18.8190E-03    -9.47918E-03     629.233E-06
             213    -246.088E-09     2.90684E-03    -11.1536E+06    -31.5419E+06    -10.9363E+06     343.455E+03    -10.1129E-03     20.2995E-03    -10.1867E-03     523.105E-06    -10.1029E-03     20.1804E-03    -10.1794E-03     526.490E-06
             214     194.238E-09     1.93861E-03    -9.97574E+06    -32.9329E+06    -9.47562E+06    -765.700E+03    -10.7021E-03     21.4211E-03    -10.7190E-03     388.896E-06    -10.6842E-03     21.2922E-03    -10.7041E-03     377.790E-06
             215    -177.840E-09     969.655E-06    -9.32297E+06    -35.2865E+06    -9.01892E+06    -908.345E+03    -11.0630E-03     22.1294E-03    -11.0664E-03     121.768E-06    -11.0367E-03     21.9874E-03    -11.0468E-03     113.070E-06
             216     889.952E-06    -756.339E-18    -8.04431E+06    -42.0331E+06    -7.08255E+06    -226.296E+03    -11.2008E-03     22.4050E-03    -11.2042E-03     76.0274E-06    -11.1642E-03     22.2202E-03    -11.1670E-03     76.0151E-06
             217     1.77992E-03    -756.339E-18    -6.90904E+06    -50.3665E+06    -4.46641E+06    -154.617E+03    -11.2852E-03     22.5261E-03    -11.2409E-03     272.328E-06    -11.2388E-03     22.2899E-03    -11.1802E-03     270.266E-06
             218     2.66974E-03    -756.339E-18    -5.87206E+06    -52.5047E+06    -5.46857E+06    -172.466E+03    -11.3668E-03     22.6356E-03    -11.2688E-03     409.195E-06    -11.3113E-03     22.3889E-03    -11.2115E-03     406.985E-06
             219     3.55950E-03    -756.339E-18    -4.87187E+06    -54.5187E+06    -6.70455E+06    -901.122E+03    -11.4446E-03     22.7421E-03    -11.2976E-03     557.066E-06    -11.3796E-03     22.4858E-03    -11.2450E-03     545.376E-06
             220     4.44928E-03    -756.339E-18    -3.86197E+06    -55.2883E+06    -7.84551E+06    -718.732E+03    -11.5543E-03     22.8827E-03    -11.3283E-03     714.691E-06    -11.4816E-03     22.6227E-03    -11.2818E-03     705.364E-06
             221     5.33882E-03    -756.339E-18    -3.08251E+06    -55.2225E+06    -8.97665E+06    -861.548E+03    -11.7363E-03     23.1052E-03    -11.3689E-03     917.739E-06    -11.6583E-03     22.8462E-03    -11.3292E-03     906.514E-06
             222     6.22827E-03    -756.339E-18    -2.13415E+06    -57.2407E+06    -11.1013E+06    -1.23368E+06    -11.9877E-03     23.4111E-03    -11.4234E-03     1.09783E-03    -11.8989E-03     23.1437E-03    -11.3928E-03     1.08180E-03
             223     7.11741E-03    -756.339E-18    -1.19034E+06    -60.7433E+06    -14.8674E+06    -1.50042E+06    -12.2830E-03     23.7715E-03    -11.4885E-03     1.36116E-03    -12.1790E-03     23.4908E-03    -11.4731E-03     1.34171E-03
             224     8.00616E-03    -756.339E-18     972.799E+03    -62.2272E+06    -19.1285E+06    -3.02500E+06    -12.6419E-03     24.2049E-03    -11.5631E-03     1.71291E-03    -12.5188E-03     23.9199E-03    -11.5699E-03     1.67376E-03
             225     8.89482E-03    -756.339E-18     4.71737E+06    -60.6932E+06    -23.2312E+06    -3.62897E+06    -13.0813E-03     24.7314E-03    -11.6501E-03     2.06430E-03    -12.9358E-03     24.4546E-03    -11.6851E-03     2.01732E-03
             226     9.78268E-03    -756.339E-18     8.65687E+06    -59.4114E+06    -26.8814E+06    -4.08238E+06    -13.6027E-03     25.3628E-03    -11.7601E-03     2.59007E-03    -13.4341E-03     25.0919E-03    -11.8209E-03     2.53723E-03
             227     10.6703E-03    -756.339E-18     12.1398E+06    -53.9430E+06    -28.8928E+06    -3.56724E+06    -14.2262E-03     26.1226E-03    -11.8963E-03     3.05203E-03    -14.0452E-03     25.8770E-03    -11.9802E-03     3.00572E-03
             228     11.5574E-03    -756.339E-18     15.0969E+06    -40.9594E+06    -26.0037E+06    -3.09749E+06    -15.0086E-03     27.0848E-03    -12.0762E-03     3.62009E-03    -14.8359E-03     26.8956E-03    -12.1687E-03     3.57964E-03
             229     12.4432E-03    -756.339E-18     17.3290E+06    -17.7351E+06    -18.7312E+06    -2.18446E+06    -15.9843E-03     28.2855E-03    -12.3012E-03     4.71519E-03    -15.8446E-03     28.1987E-03    -12.3942E-03     4.68638E-03
             230     13.3279E-03    -756.339E-18     14.4677E+06     13.7171E+06    -7.55578E+06     2.67805E+06    -17.7086E-03     30.3124E-03    -12.6037E-03     6.21682E-03    -17.6452E-03     30.3709E-03    -12.6824E-03     6.24999E-03
             231     14.2114E-03    -756.339E-18     9.85719E+06     36.8207E+06     6.86240E+06     3.55876E+06    -21.3829E-03     34.4549E-03    -13.0720E-03     10.3882E-03    -21.3969E-03     34.6147E-03    -13.1053E-03     10.4332E-03
             232     15.0851E-03    -756.339E-18     11.2468E+06     53.2684E+06     29.7239E+06    -4.58180E+06    -25.4382E-03     39.2022E-03    -13.7640E-03     15.0705E-03    -25.5026E-03     39.4093E-03    -13.7089E-03     15.0088E-03
             233     15.9608E-03    -756.339E-18     15.7254E+06     74.9597E+06     59.9981E+06    -3.60004E+06    -29.4950E-03     44.1359E-03    -14.6409E-03     15.3052E-03    -29.6155E-03     44.4051E-03    -14.4724E-03     15.2355E-03
             234     16.8391E-03    -756.339E-18      28.338E+03     83.2287E+06     63.0595E+06     7.71574E+06    -47.3858E-03     63.2897E-03    -15.9039E-03     42.7099E-03    -47.7004E-03     63.7153E-03    -15.7093E-03     42.5696E-03
             235     17.7216E-03     1.05604E-03    -10.6690E+06     92.4941E+06     57.6836E+06     9.96796E+06    -54.9118E-03     70.8249E-03    -15.9131E-03     81.8560E-03    -55.4973E-03     71.5353E-03    -15.7433E-03     81.6193E-03
             236     17.7171E-03     2.07949E-03    -4.10625E+06     111.583E+06     61.7946E+06     9.23982E+06    -55.9907E-03     70.8224E-03    -14.8317E-03     103.022E-03    -56.9217E-03     71.9640E-03    -14.6786E-03     102.658E-03
             237     17.7265E-03     3.12683E-03    -2.79369E+06     128.752E+06     66.7279E+06     6.94714E+06    -63.9020E-03     78.3187E-03    -14.4167E-03     133.268E-03    -65.5256E-03     80.2023E-03    -14.2657E-03     132.745E-03
             238     17.7298E-03     4.15894E-03     4.99375E+06     149.659E+06     76.3086E+06     4.45223E+06    -65.4131E-03     79.5779E-03    -14.1648E-03     167.983E-03    -68.0522E-03     82.5518E-03    -14.0075E-03     167.542E-03
             239     17.7323E-03     5.20762E-03     3.51954E+06     157.901E+06     75.2257E+06     1.55958E+06    -68.2324E-03     82.3378E-03    -14.1054E-03     199.692E-03    -72.3053E-03     86.7740E-03    -13.9634E-03     199.506E-03
             240     17.7254E-03     6.24610E-03    -4.88296E+06     156.730E+06     71.5441E+06    -663.871E+03    -63.2096E-03     77.4651E-03    -14.2556E-03     233.456E-03    -68.7909E-03     83.3813E-03    -14.1180E-03     234.220E-03
             241     17.7388E-03     7.25836E-03     289.482E+03     164.804E+06     72.0628E+06     2.03984E+06    -54.0354E-03     68.2743E-03    -14.2389E-03     256.709E-03    -60.6901E-03     75.3069E-03    -14.1180E-03     258.887E-03
             242     17.7379E-03     8.26641E-03     1.17911E+06     166.277E+06     66.5674E+06     841.498E+03    -50.6757E-03     64.7953E-03    -14.1195E-03     268.411E-03    -58.2899E-03     72.8126E-03    -14.0295E-03     271.509E-03
             243     17.7395E-03     9.27439E-03    -2.63056E+06     164.283E+06     61.9326E+06     966.821E+03    -48.9810E-03     63.0656E-03    -14.0846E-03     281.405E-03    -57.5500E-03     72.0297E-03    -14.0093E-03     285.339E-03
             244     17.7434E-03     10.2706E-03    -2.42649E+06     165.780E+06     63.0135E+06     1.43831E+06    -47.0828E-03     61.1583E-03    -14.0754E-03     291.787E-03    -56.4995E-03     70.9729E-03    -13.9972E-03     296.522E-03
             245     17.7396E-03     11.2734E-03    -4.02753E+06     165.470E+06     61.6796E+06    -170.030E+03    -45.4265E-03     59.5254E-03    -14.0989E-03     299.552E-03    -55.5557E-03     70.0494E-03    -14.0246E-03     304.892E-03
             246     17.7454E-03     12.2616E-03     712.682E+03     167.410E+06     55.3796E+06     1.74227E+06    -42.9408E-03     56.9799E-03    -14.0390E-03     306.506E-03    -53.5792E-03     68.0545E-03    -14.0059E-03     312.523E-03
             247     17.7444E-03     13.2520E-03    -4.80356E+06     162.236E+06     50.7790E+06    -3.60380E+06    -45.4068E-03     59.4165E-03    -14.0097E-03     306.971E-03    -56.6504E-03     71.0727E-03    -13.9840E-03     313.172E-03
             248     17.7370E-03     14.2539E-03     2.88717E+06     168.028E+06     63.2205E+06     8.15357E+06    -45.4456E-03     59.5559E-03    -14.1103E-03     318.030E-03    -57.3289E-03     71.8630E-03    -14.0420E-03     324.839E-03
             249     17.7511E-03     15.2446E-03     6.69746E+06     171.826E+06     67.4907E+06     7.12440E+06    -39.6693E-03     53.8052E-03    -14.1359E-03     324.688E-03    -51.8533E-03     66.4267E-03    -14.0573E-03     332.179E-03
             250     17.7407E-03     16.2178E-03    -11.0203E+06     152.169E+06     42.8414E+06    -3.72586E+06    -35.0239E-03     49.0935E-03    -14.0696E-03     308.058E-03    -46.8239E-03     61.2693E-03    -14.0601E-03     316.034E-03
             251     17.7510E-03     17.1815E-03    -10.7491E+06     152.310E+06     44.2944E+06    -4.27120E+06    -38.0354E-03     52.0130E-03    -13.9776E-03     302.873E-03    -49.7675E-03     64.1208E-03    -13.9613E-03     310.756E-03
             252     17.7411E-03     18.2011E-03     3.56505E+06     162.465E+06     54.2398E+06    -3.39964E+06    -45.2075E-03     59.1045E-03    -13.8970E-03     320.857E-03    -57.9339E-03     72.2662E-03    -13.8665E-03     328.257E-03
             253     17.7485E-03     19.1985E-03    -2.44844E+06     157.155E+06     51.9084E+06    -1.97438E+06    -44.5200E-03     58.5367E-03    -14.0167E-03     337.424E-03    -58.3767E-03     72.7925E-03    -13.9814E-03     345.513E-03
             254     17.7402E-03     20.1749E-03     454.367E+03     154.419E+06     55.7591E+06    -2.51388E+06    -41.2041E-03     55.3204E-03    -14.1163E-03     337.998E-03    -55.2196E-03     69.7236E-03    -14.0621E-03     346.799E-03
             255     17.7496E-03     21.1602E-03    -653.996E+03     149.294E+06     41.7503E+06      -292.7E+03    -39.5421E-03     53.5676E-03    -14.0256E-03     333.049E-03    -53.3220E-03     67.7540E-03    -14.0323E-03     342.173E-03
             256     17.7429E-03     22.1409E-03    -2.78532E+06     138.362E+06     39.7052E+06    -9.07258E+06    -40.8854E-03     54.9561E-03    -14.0707E-03     330.404E-03    -54.9101E-03     69.3472E-03    -14.0688E-03     339.567E-03
             257     17.7409E-03     23.1326E-03     7.11008E+06     142.745E+06     63.1548E+06     9.26176E+06    -41.3801E-03     55.6064E-03    -14.2262E-03     337.666E-03    -55.7338E-03     70.3091E-03    -14.1277E-03     347.278E-03
             258     17.7486E-03     24.1205E-03     11.0774E+06     146.729E+06     77.9248E+06     10.2275E+06    -37.8112E-03     52.1744E-03    -14.3632E-03     344.677E-03    -52.3935E-03     67.0909E-03    -14.2024E-03     354.538E-03
             259     17.7380E-03     25.0983E-03    -18.1759E+06     115.262E+06     46.6274E+06    -2.13174E+06    -31.1918E-03     45.6017E-03    -14.4099E-03     329.005E-03    -45.2903E-03     59.9093E-03    -14.3175E-03     339.433E-03
             260     17.7509E-03     26.0331E-03     7.53577E+06     108.221E+06     89.3683E+06    -3.30641E+06    -32.4419E-03     46.9362E-03    -14.4943E-03     317.626E-03    -45.7526E-03     60.4018E-03    -14.2153E-03     327.935E-03
             261     17.7383E-03     27.0652E-03      1.6414E+06     103.331E+06     42.5681E+06    -15.0890E+06    -42.1383E-03     56.7108E-03    -14.5725E-03     307.607E-03    -55.6483E-03     70.4634E-03    -14.5119E-03     316.891E-03
             262     17.7093E-03     28.0258E-03    -56.4737E+06     91.1496E+06    -9.43693E+06     4.20907E+06    -30.9771E-03     46.2428E-03    -15.2657E-03     294.030E-03    -44.3882E-03     59.7911E-03    -15.3632E-03     305.052E-03
             263     17.7368E-03     28.9654E-03    -8.69584E+06     109.922E+06     20.8535E+06     7.65697E+06    -14.6351E-03     29.7850E-03    -15.1498E-03     311.538E-03    -27.2562E-03     42.6993E-03    -15.1924E-03     323.560E-03
             264     17.7576E-03     29.9765E-03     32.4514E+06     137.376E+06    -7.32296E+06     3.59892E+06    -24.0563E-03     37.9305E-03    -13.8742E-03     338.984E-03    -37.5139E-03     52.0100E-03    -14.1571E-03     349.411E-03
             265     17.7504E-03     30.9615E-03     12.0434E+06     157.905E+06     17.9858E+06     275.097E+03    -39.2818E-03     52.8893E-03    -13.6075E-03     347.019E-03    -54.4423E-03     68.6013E-03    -13.7640E-03     356.622E-03
             266     17.7451E-03     31.9476E-03     1.16398E+06     160.565E+06     43.9314E+06    -1.55970E+06    -43.9135E-03     57.8709E-03    -13.9574E-03     351.170E-03    -59.7379E-03     74.1424E-03    -13.9722E-03     360.914E-03
             267     17.7411E-03     32.9378E-03     1.67668E+06     162.716E+06     46.8118E+06     3.12222E+06    -43.0072E-03     57.1611E-03    -14.1539E-03     356.128E-03    -59.0462E-03     73.6478E-03    -14.1583E-03     366.155E-03
             268     17.7444E-03     33.9112E-03     4.27653E+06     179.001E+06     70.5227E+06     11.3690E+06    -40.3408E-03     54.6527E-03    -14.3119E-03     351.693E-03    -56.2076E-03     70.9655E-03    -14.2251E-03     362.383E-03
             269     17.7406E-03     34.8976E-03     23.5604E+06     184.716E+06     123.002E+06     15.8363E+06    -39.7794E-03     54.4808E-03    -14.7014E-03     356.447E-03    -55.2690E-03     70.3557E-03    -14.3884E-03     367.044E-03
             270     17.7367E-03     35.8926E-03    -24.3525E+06     132.243E+06     43.5657E+06    -12.1019E+06    -32.4059E-03     47.4317E-03    -15.0258E-03     326.516E-03    -46.9297E-03     62.1986E-03    -14.9644E-03     337.400E-03
             271     17.7135E-03     36.7825E-03    -44.2280E+06     117.655E+06    -24.8779E+06    -2.49076E+06    -15.8113E-03     31.1018E-03    -15.2905E-03     263.069E-03    -27.6242E-03     43.2251E-03    -15.5214E-03     275.278E-03
             272     17.7407E-03     37.7465E-03    -32.3746E+06     132.535E+06     12.5526E+06    -12.6750E+06    -20.6468E-03     35.9066E-03    -15.2598E-03     272.146E-03    -32.3800E-03     47.9563E-03    -15.3423E-03     283.177E-03
             273     17.7162E-03     38.8089E-03     6.36780E+06     156.389E+06     40.5167E+06     985.988E+03    -34.7681E-03     49.4989E-03    -14.7308E-03     349.008E-03    -49.3240E-03     64.5165E-03    -14.7642E-03     358.903E-03
             274     17.7714E-03     39.7855E-03     39.3202E+06     196.093E+06     67.0303E+06     16.6705E+06    -25.4990E-03     39.7427E-03    -14.2438E-03     379.967E-03    -41.4223E-03     56.3068E-03    -14.2500E-03     391.439E-03
             275     17.7449E-03     40.7235E-03     11.3638E+06     194.136E+06     74.2427E+06    -7.44625E+06    -30.5634E-03     44.5824E-03    -14.0190E-03     357.151E-03    -46.4841E-03     61.0197E-03    -13.9458E-03     368.423E-03
             276     17.7473E-03     41.7260E-03     17.7986E+03     185.511E+06     73.3574E+06    -636.201E+03    -43.8306E-03     57.8904E-03    -14.0598E-03     350.659E-03    -59.7688E-03     74.2751E-03    -13.9620E-03     360.681E-03
             277     17.7427E-03     42.7060E-03    -2.60891E+06     182.853E+06      68.296E+06     1.81254E+06    -39.5980E-03     53.7883E-03    -14.1904E-03     353.856E-03    -55.6276E-03     70.2595E-03    -14.1102E-03     364.523E-03
             278     17.7475E-03     43.6795E-03    -1.11646E+06     184.401E+06     68.2997E+06    -254.245E+03    -35.5924E-03     49.8239E-03    -14.2315E-03     347.660E-03    -51.2963E-03     65.9802E-03    -14.1558E-03     358.983E-03
             279     17.7449E-03     44.6540E-03    -2.87756E+06     184.047E+06     72.1418E+06    -160.360E+03    -37.7384E-03     51.9723E-03    -14.2339E-03     344.832E-03    -53.4789E-03     68.1472E-03    -14.1358E-03     356.004E-03
             280     17.7420E-03     45.6507E-03    -580.861E+03     186.233E+06     71.4454E+06     1.36881E+06    -38.8343E-03     53.0909E-03    -14.2566E-03     351.903E-03    -54.9866E-03     69.6955E-03    -14.1686E-03     363.037E-03
             281     17.7479E-03     46.6247E-03     1.82564E+06     189.028E+06     71.3488E+06    -1.02758E+06    -35.7549E-03     50.0171E-03    -14.2622E-03     354.413E-03    -52.1957E-03     66.9286E-03    -14.1822E-03     366.151E-03
             282     17.7438E-03     47.6006E-03    -4.69716E+06     184.632E+06     73.5677E+06    -37.9964E+03    -37.8312E-03     52.1229E-03    -14.2917E-03     352.627E-03    -54.3703E-03     69.0880E-03    -14.1848E-03     364.328E-03
             283     17.7416E-03     48.5946E-03    -3.93676E+06     184.745E+06     70.9249E+06     1.14787E+06    -38.5182E-03     52.8676E-03    -14.3493E-03     357.250E-03    -55.3395E-03     70.1253E-03    -14.2569E-03     368.897E-03
             284     17.7450E-03     49.5637E-03    -1.10610E+06     187.473E+06     72.2565E+06     663.350E+03    -35.2848E-03     49.6756E-03    -14.3908E-03     355.414E-03    -52.1145E-03     66.9573E-03    -14.2998E-03     367.688E-03
             285     17.7425E-03     50.5406E-03    -2.95290E+06     185.496E+06     69.8729E+06     408.007E+03    -33.9887E-03     48.3798E-03    -14.3911E-03     349.995E-03    -50.5290E-03     65.3656E-03    -14.3065E-03     362.518E-03
             286     17.7446E-03     51.5207E-03    -1.89251E+06     185.909E+06     66.8665E+06     683.676E+03    -32.9305E-03     47.3176E-03    -14.3871E-03     352.899E-03    -49.5723E-03     64.4187E-03    -14.3196E-03     365.569E-03
             287     17.7446E-03     52.4953E-03     606.784E+03     187.142E+06     64.7588E+06    -1.98969E+06    -32.2439E-03     46.5882E-03    -14.3443E-03     353.461E-03    -48.9312E-03     63.7542E-03    -14.2927E-03     366.170E-03
             288     17.7456E-03     53.4698E-03    -2.43313E+06     185.450E+06     69.6493E+06      11.562E+03    -34.4747E-03     48.8369E-03    -14.3622E-03     352.915E-03    -51.2513E-03     66.0613E-03    -14.2793E-03     365.430E-03
             289     17.7404E-03     54.4565E-03    -6.69924E+06     181.243E+06     65.0906E+06     425.463E+03    -35.4292E-03     49.8152E-03    -14.3860E-03     358.964E-03    -52.5083E-03     67.3253E-03    -14.3136E-03     371.313E-03
             290     17.7473E-03     55.4317E-03     407.411E+03     180.322E+06     42.5775E+06    -1.79413E+06    -32.6205E-03     46.8801E-03    -14.2596E-03     360.292E-03    -49.7132E-03     64.4910E-03    -14.3088E-03     373.010E-03
             291     17.7443E-03     56.3984E-03     43.7582E+03     182.060E+06     52.2093E+06     2.81770E+06    -35.4395E-03     49.8648E-03    -14.4253E-03     352.971E-03    -52.4280E-03     67.3489E-03    -14.4283E-03     365.505E-03
             292     886.909E-06     57.2496E-03    -5.82139E+06    -62.9935E+06    -5.08868E+06    -89.3278E+03    -14.3378E-03     28.6167E-03    -14.2789E-03     2.65130E-03    -14.2663E-03     28.3202E-03    -14.2046E-03     2.64969E-03
             293     1.77466E-03     57.2543E-03    -4.80234E+06    -61.8508E+06    -3.12971E+06    -150.000E+03    -14.2320E-03     28.5311E-03    -14.2992E-03     5.36522E-03    -14.1615E-03     28.2333E-03    -14.2182E-03     5.36255E-03
             294     2.66193E-03     57.2599E-03    -4.18644E+06    -60.8430E+06    -1.32945E+06    -299.561E+03    -14.2524E-03     28.5369E-03    -14.2845E-03     8.17280E-03    -14.1832E-03     28.2407E-03    -14.1968E-03     8.16776E-03
             295     3.54931E-03     57.2695E-03    -2.87383E+06    -59.4831E+06     1.10260E+06    -433.862E+03    -14.3008E-03     28.5892E-03    -14.2883E-03     11.0547E-03    -14.2307E-03     28.2945E-03    -14.1924E-03     11.0475E-03
             296     4.43652E-03     57.2808E-03    -1.13009E+06    -58.8308E+06     3.93741E+06    -432.348E+03    -14.3297E-03     28.6306E-03    -14.3009E-03     14.0242E-03    -14.2561E-03     28.3328E-03    -14.1943E-03     14.0165E-03
             297     5.32398E-03     57.2960E-03     312.938E+03    -57.0964E+06     5.77324E+06    -202.997E+03    -14.3837E-03     28.6931E-03    -14.3093E-03     17.2125E-03    -14.3084E-03     28.3994E-03    -14.1981E-03     17.2071E-03
             298     6.21112E-03     57.3134E-03     1.40517E+06    -57.0043E+06     7.53379E+06    -876.725E+03    -14.4926E-03     28.8189E-03    -14.3263E-03     20.4690E-03    -14.4148E-03     28.5219E-03    -14.2080E-03     20.4542E-03
             299     7.09841E-03     57.3348E-03     2.88228E+06    -57.9312E+06     7.90425E+06    -1.30248E+06    -14.5990E-03     28.9423E-03    -14.3433E-03     23.8885E-03    -14.5136E-03     28.6385E-03    -14.2239E-03     23.8673E-03
             300     7.98543E-03     57.3588E-03     4.93269E+06    -55.7475E+06     8.51902E+06     62.9469E+03    -14.7692E-03     29.1313E-03    -14.3622E-03     27.6190E-03    -14.6783E-03     28.8354E-03    -14.2459E-03     27.6141E-03
             301     8.87252E-03     57.3876E-03     5.11508E+06    -55.1752E+06     7.74958E+06     936.876E+03    -15.0207E-03     29.4107E-03    -14.3900E-03     31.5163E-03    -14.9298E-03     29.1197E-03    -14.2787E-03     31.5208E-03
             302     9.75924E-03     57.4188E-03     4.33915E+06    -52.5330E+06     5.75236E+06     41.4664E+03    -15.2731E-03     29.6945E-03    -14.4214E-03     35.8268E-03    -15.1890E-03     29.4226E-03    -14.3227E-03     35.8172E-03
             303     10.6459E-03     57.4559E-03     4.01320E+06    -48.9373E+06     3.75682E+06    -1.07118E+06    -15.4608E-03     29.9164E-03    -14.4556E-03     40.4132E-03    -15.3836E-03     29.6689E-03    -14.3717E-03     40.3860E-03
             304     11.5324E-03     57.4953E-03     4.74853E+06    -43.6726E+06     2.25852E+06    -1.33198E+06    -15.6550E-03     30.1435E-03    -14.4885E-03     45.2094E-03    -15.5846E-03     29.9284E-03    -14.4208E-03     45.1745E-03
             305     12.4188E-03     57.5417E-03     6.07453E+06    -29.4211E+06     2.84224E+06     462.604E+03    -16.0576E-03     30.5805E-03    -14.5229E-03     52.2838E-03    -16.0120E-03     30.4437E-03    -14.4748E-03     52.2657E-03
             306     13.3046E-03     57.5939E-03     4.71306E+06    -20.0011E+06    -1.71644E+06     263.705E+03    -16.4953E-03     31.0493E-03    -14.5540E-03     57.6981E-03    -16.4795E-03     30.9842E-03    -14.5404E-03     57.6696E-03
             307     14.1901E-03     57.6501E-03     4.88938E+06     1.91670E+06    -1.74703E+06     1.99956E+06    -17.1883E-03     31.7949E-03    -14.6066E-03     63.5167E-03    -17.2340E-03     31.8697E-03    -14.6252E-03     63.5033E-03
             308     15.0735E-03     57.7124E-03     5.73815E+06     34.9468E+06     841.228E+03     1.88112E+06    -18.4600E-03     33.1267E-03    -14.6667E-03     92.7968E-03    -18.6988E-03     33.5071E-03    -14.7215E-03     92.7946E-03
             309     15.9551E-03     57.8194E-03    -301.772E+03     60.1690E+06    -21.0657E+06    -1.05981E+06    -24.4807E-03     39.1752E-03    -14.6945E-03     158.209E-03    -26.1508E-03     41.1188E-03    -14.8866E-03     158.639E-03
             310     16.8328E-03     57.9983E-03     4.34437E+06     115.076E+06    -13.4168E+06    -3.81673E+06    -16.8080E-03     31.2840E-03    -14.4760E-03     268.721E-03    -25.2113E-03     40.1558E-03    -14.7162E-03     276.008E-03
             311     887.478E-06     58.2262E-03    -3.95672E+06    -62.3387E+06    -4.21461E+06    -700.756E+03    -14.3223E-03     28.6522E-03    -14.3300E-03     2.76743E-03    -14.2436E-03     28.3550E-03    -14.2549E-03     2.75795E-03
             312     1.77441E-03     58.2289E-03    -3.14857E+06    -61.9998E+06    -1.58295E+06    -301.714E+03    -14.3313E-03     28.6656E-03    -14.3343E-03     5.40002E-03    -14.2545E-03     28.3624E-03    -14.2478E-03     5.39536E-03
             313     2.66189E-03     58.2360E-03    -1.73119E+06    -60.2955E+06     1.48836E+06    -346.759E+03    -14.3615E-03     28.7091E-03    -14.3476E-03     8.20794E-03    -14.2848E-03     28.4080E-03    -14.2503E-03     8.20226E-03
             314     3.54900E-03     58.2445E-03    -383.937E+03    -58.8090E+06     4.01159E+06    -1.02501E+06    -14.4088E-03     28.7730E-03    -14.3641E-03     11.0266E-03    -14.3314E-03     28.4738E-03    -14.2582E-03     11.0117E-03
             315     4.43637E-03     58.2569E-03     1.39918E+06    -58.6479E+06     6.96579E+06    -1.40790E+06    -14.4454E-03     28.8312E-03    -14.3858E-03     13.9576E-03    -14.3638E-03     28.5262E-03    -14.2680E-03     13.9372E-03
             316     5.32342E-03     58.2711E-03     3.69885E+06    -57.6013E+06     9.54386E+06    -1.04736E+06    -14.5200E-03     28.9248E-03    -14.4048E-03     17.1473E-03    -14.4324E-03     28.6182E-03    -14.2790E-03     17.1309E-03
             317     6.21071E-03     58.2896E-03     5.25427E+06    -55.9801E+06     11.1747E+06    -769.138E+03    -14.6194E-03     29.0433E-03    -14.4239E-03     20.4138E-03    -14.5292E-03     28.7406E-03    -14.2945E-03     20.4003E-03
             318     7.09763E-03     58.3101E-03     5.34830E+06    -57.5532E+06     10.6853E+06    -1.29008E+06    -14.7662E-03     29.2120E-03    -14.4458E-03     23.8695E-03    -14.6730E-03     28.9025E-03    -14.3167E-03     23.8482E-03
             319     7.98470E-03     58.3352E-03     4.96401E+06    -58.2394E+06     8.59100E+06    -543.019E+03    -14.9085E-03     29.3735E-03    -14.4650E-03     27.6987E-03    -14.8140E-03     29.0650E-03    -14.3448E-03     27.6858E-03
             320     8.87153E-03     58.3631E-03     6.17026E+06    -55.1915E+06     9.81341E+06     778.548E+03    -15.0994E-03     29.5978E-03    -14.4985E-03     31.6705E-03    -15.0063E-03     29.3022E-03    -14.3783E-03     31.6728E-03
             321     9.75832E-03     58.3958E-03     7.24374E+06    -51.4459E+06     9.50999E+06     465.916E+03    -15.2794E-03     29.8078E-03    -14.5283E-03     35.8924E-03    -15.1878E-03     29.5317E-03    -14.4167E-03     35.8882E-03
             322     10.6451E-03     58.4316E-03     6.45660E+06    -48.1412E+06     7.53603E+06     154.677E+03    -15.5026E-03     30.0597E-03    -14.5571E-03     40.5331E-03    -15.4200E-03     29.8073E-03    -14.4590E-03     40.5215E-03
             323     11.5317E-03     58.4728E-03     3.90142E+06    -43.4126E+06     3.23595E+06    -569.013E+03    -15.6342E-03     30.2099E-03    -14.5757E-03     45.1973E-03    -15.5702E-03     29.9962E-03    -14.5022E-03     45.1718E-03
             324     12.4183E-03     58.5174E-03     2.30093E+06    -31.5671E+06     588.995E+03    -521.706E+03    -15.8170E-03     30.4039E-03    -14.5869E-03     52.7131E-03    -15.7839E-03     30.2653E-03    -14.5416E-03     52.6823E-03
             325     13.3051E-03     58.5723E-03     2.90706E+06    -19.9090E+06    -1.15575E+06     1.23579E+06    -16.0373E-03     30.6357E-03    -14.5984E-03     58.1487E-03    -16.0318E-03     30.5732E-03    -14.5795E-03     58.1328E-03
             326     14.1918E-03     58.6264E-03     3.00428E+06     682.443E+03    -2.19285E+06    -53.3561E+03    -15.8937E-03     30.4843E-03    -14.5906E-03     64.5395E-03    -15.9449E-03     30.5550E-03    -14.6069E-03     64.5027E-03
             327     15.0804E-03     58.6919E-03     2.32208E+06     36.2851E+06    -2.67854E+06     151.834E+03    -16.1585E-03     30.6882E-03    -14.5297E-03     92.9960E-03    -16.4028E-03     31.0770E-03    -14.5991E-03     92.9805E-03
             328     15.9732E-03     58.7955E-03     11.2361E+06     65.0607E+06    -3.13736E+06    -2.93524E+06    -16.6576E-03     30.9862E-03    -14.3286E-03     171.187E-03    -18.2026E-03     32.8106E-03    -14.4549E-03     171.724E-03
             329     16.8511E-03     59.0037E-03     15.9703E+06     117.629E+06     19.8624E+06     -71.098E+03    -18.6513E-03     32.6933E-03    -14.0420E-03     262.119E-03    -26.2122E-03     40.6817E-03    -14.1364E-03     268.711E-03
             330     887.228E-06     59.2008E-03    -3.28679E+06    -61.1284E+06    -2.28401E+06    -731.858E+03    -14.3580E-03     28.6945E-03    -14.3365E-03     2.77420E-03    -14.2806E-03     28.3994E-03    -14.2545E-03     2.76431E-03
             331     1.77463E-03     59.2053E-03    -2.35487E+06    -62.0092E+06    -372.432E+03    -769.397E+03    -14.4655E-03     28.8458E-03    -14.3803E-03     5.32421E-03    -14.3865E-03     28.5397E-03    -14.2889E-03     5.31345E-03
             332     2.66154E-03     59.2110E-03    -627.852E+03    -59.5273E+06     2.97348E+06    -1.08608E+06    -14.4881E-03     28.9130E-03    -14.4249E-03     8.18739E-03    -14.4092E-03     28.6120E-03    -14.3228E-03     8.17210E-03
             333     3.54883E-03     59.2209E-03     1.37497E+06    -57.9521E+06     6.64226E+06    -1.38005E+06    -14.5207E-03     28.9784E-03    -14.4577E-03     11.0076E-03    -14.4396E-03     28.6772E-03    -14.3424E-03     10.9881E-03
             334     4.43576E-03     59.2320E-03     2.93687E+06    -57.7383E+06     9.35877E+06    -2.03335E+06    -14.6131E-03     29.1016E-03    -14.4885E-03     13.9393E-03    -14.5286E-03     28.7955E-03    -14.3623E-03     13.9107E-03
             335     5.32298E-03     59.2476E-03     4.37439E+06    -58.0971E+06     10.7310E+06    -2.04857E+06    -14.6667E-03     29.1819E-03    -14.5153E-03     17.0739E-03    -14.5768E-03     28.8702E-03    -14.3837E-03     17.0445E-03
             336     6.20986E-03     59.2649E-03     5.44411E+06    -56.8688E+06     11.2422E+06    -690.532E+03    -14.7253E-03     29.2584E-03    -14.5331E-03     20.3778E-03    -14.6329E-03     28.9509E-03    -14.4023E-03     20.3651E-03
             337     7.09705E-03     59.2867E-03     5.56981E+06    -56.7810E+06     11.3761E+06     23.8872E+03    -14.8763E-03     29.4319E-03    -14.5556E-03     23.8927E-03    -14.7842E-03     29.1250E-03    -14.4244E-03     23.8882E-03
             338     7.98373E-03     59.3108E-03     5.94931E+06    -58.8868E+06     9.93928E+06    -583.684E+03    -15.0284E-03     29.6081E-03    -14.5797E-03     27.6847E-03    -14.9301E-03     29.2930E-03    -14.4532E-03     27.6711E-03
             339     8.87067E-03     59.3398E-03     7.21284E+06    -55.6382E+06     9.22318E+06    -964.167E+03    -15.1317E-03     29.7311E-03    -14.5994E-03     31.8651E-03    -15.0319E-03     29.4326E-03    -14.4831E-03     31.8449E-03
             340     9.75727E-03     59.3719E-03     8.12303E+06    -52.2308E+06     10.9301E+06     526.976E+03    -15.3181E-03     29.9511E-03    -14.6330E-03     36.0237E-03    -15.2231E-03     29.6678E-03    -14.5144E-03     36.0201E-03
             341     10.6441E-03     59.4083E-03     7.52369E+06    -48.9428E+06     9.44592E+06     2.05794E+06    -15.5263E-03     30.1842E-03    -14.6579E-03     40.6741E-03    -15.4400E-03     29.9235E-03    -14.5506E-03     40.6868E-03
             342     11.5303E-03     59.4496E-03     5.29918E+06    -42.5631E+06     5.93327E+06     2.92638E+06    -15.6841E-03     30.3570E-03    -14.6730E-03     45.0477E-03    -15.6185E-03     30.1420E-03    -14.5893E-03     45.0667E-03
             343     12.4171E-03     59.4935E-03     2.25749E+06    -30.9118E+06     1.82585E+06     1.09206E+06    -15.6045E-03     30.2727E-03    -14.6682E-03     52.2967E-03    -15.5748E-03     30.1360E-03    -14.6175E-03     52.2864E-03
             344     13.3036E-03     59.5494E-03     992.796E+03    -20.6732E+06    -1.10883E+06    -109.266E+03    -15.5418E-03     30.1929E-03    -14.6511E-03     57.8804E-03    -15.5457E-03     30.1301E-03    -14.6281E-03     57.8472E-03
             345     14.1905E-03     59.6021E-03     656.453E+03     1.29034E+06    -2.29312E+06     645.065E+03    -14.5912E-03     29.1772E-03    -14.5859E-03     62.3740E-03    -14.6545E-03     29.2541E-03    -14.6002E-03     62.3480E-03
             346     15.0779E-03     59.6664E-03    -2.06943E+06     39.9948E+06    -7.52296E+06    -2.07447E+06    -13.1905E-03     27.5712E-03    -14.3807E-03     91.4210E-03    -13.4567E-03     27.9933E-03    -14.4733E-03     91.3912E-03
             347     15.9622E-03     59.7686E-03    -1.44325E+06     59.9779E+06    -7.75690E+06    -5.15919E+06    -7.96346E-03     21.9036E-03    -13.9402E-03     152.360E-03    -9.23793E-03     23.4039E-03    -14.0638E-03     152.929E-03
             348     16.9065E-03     59.9403E-03    -908.945E+03     117.558E+06     50.4735E+06     1.36579E+06    -28.5321E-03     42.4451E-03    -13.9130E-03     257.780E-03    -36.7869E-03     50.9753E-03    -13.8297E-03     262.539E-03
             349     887.217E-06     60.1774E-03    -4.82313E+06    -60.2122E+06    -3.30156E+06    -50.4408E+03    -14.5724E-03     28.9159E-03    -14.3435E-03     2.86279E-03    -14.5026E-03     28.6291E-03    -14.2657E-03     2.86165E-03
             350     1.77419E-03     60.1803E-03    -3.35515E+06    -61.0062E+06    -841.188E+03    -1.26030E+06    -14.5565E-03     29.0470E-03    -14.4906E-03     5.34740E-03    -14.4833E-03     28.7481E-03    -14.4015E-03     5.33020E-03
             351     2.66139E-03     60.1877E-03    -1.75801E+06    -58.6292E+06     2.38230E+06    -1.64113E+06    -14.5829E-03     29.1128E-03    -14.5299E-03     8.09278E-03    -14.5102E-03     28.8188E-03    -14.4304E-03     8.07025E-03
             352     3.54834E-03     60.1960E-03    -391.744E+03    -57.6374E+06     5.64115E+06    -1.55555E+06    -14.6112E-03     29.1717E-03    -14.5605E-03     11.0086E-03    -14.5380E-03     28.8761E-03    -14.4481E-03     10.9867E-03
             353     4.43548E-03     60.2089E-03     558.742E+03    -56.5199E+06     6.79188E+06    -1.57814E+06    -14.7113E-03     29.2937E-03    -14.5823E-03     14.0633E-03    -14.6368E-03     29.0008E-03    -14.4672E-03     14.0406E-03
             354     5.32212E-03     60.2229E-03     438.634E+03    -58.5943E+06     7.22018E+06    -1.49407E+06    -14.8053E-03     29.4182E-03    -14.6129E-03     17.1522E-03    -14.7293E-03     29.1148E-03    -14.4925E-03     17.1299E-03
             355     6.20928E-03     60.2416E-03     721.923E+03    -58.1012E+06     7.27997E+06    -776.640E+03    -14.8651E-03     29.5022E-03    -14.6371E-03     20.4812E-03    -14.7889E-03     29.2012E-03    -14.5175E-03     20.4673E-03
             356     7.09595E-03     60.2623E-03     2.38215E+06    -56.9116E+06     7.83435E+06    -248.510E+03    -14.9641E-03     29.6235E-03    -14.6594E-03     24.0067E-03    -14.8826E-03     29.3257E-03    -14.5412E-03     23.9986E-03
             357     7.98294E-03     60.2878E-03     3.67201E+06    -57.1716E+06     7.89997E+06    -1.04366E+06    -15.0865E-03     29.7699E-03    -14.6833E-03     27.7645E-03    -14.9992E-03     29.4696E-03    -14.5662E-03     27.7448E-03
             358     8.86951E-03     60.3156E-03     3.57658E+06    -56.3265E+06     5.11820E+06    -1.39658E+06    -15.1814E-03     29.8748E-03    -14.6933E-03     31.8483E-03    -15.0929E-03     29.5842E-03    -14.5913E-03     31.8223E-03
             359     9.75667E-03     60.3487E-03     3.95168E+06    -54.4251E+06     5.65748E+06    -151.030E+03    -15.3673E-03     30.0869E-03    -14.7196E-03     36.1695E-03    -15.2824E-03     29.8064E-03    -14.6181E-03     36.1571E-03
             360     10.6427E-03     60.3850E-03     4.48125E+06    -51.9695E+06     5.31811E+06     2.76632E+06    -15.5253E-03     30.2692E-03    -14.7439E-03     40.5754E-03    -15.4442E-03     30.0040E-03    -14.6484E-03     40.5970E-03
             361     11.5300E-03     60.4260E-03     5.31481E+06    -42.1264E+06     3.46207E+06     3.83917E+06    -15.6260E-03     30.3739E-03    -14.7480E-03     45.2825E-03    -15.5573E-03     30.1646E-03    -14.6773E-03     45.3135E-03
             362     12.4155E-03     60.4714E-03     5.54604E+06    -28.8125E+06     4.65967E+06     3.17712E+06    -15.6607E-03     30.4165E-03    -14.7558E-03     51.9485E-03    -15.6226E-03     30.2822E-03    -14.6987E-03     51.9644E-03
             363     13.3037E-03     60.5234E-03     5.32638E+06    -18.4801E+06     3.55769E+06    -134.714E+03    -15.0837E-03     29.8116E-03    -14.7280E-03     57.5268E-03    -15.0750E-03     29.7459E-03    -14.6911E-03     57.4948E-03
             364     14.1903E-03     60.5813E-03     5.20729E+06    -1.28444E+06     3.80486E+06     347.231E+03    -14.4000E-03     29.0533E-03    -14.6534E-03     60.4527E-03    -14.4452E-03     29.1014E-03    -14.6400E-03     60.4246E-03
             365     15.0822E-03     60.6345E-03     10.4414E+06     43.9838E+06     10.9439E+06    -409.386E+03    -11.4610E-03     25.9035E-03    -14.4426E-03     82.9304E-03    -11.6710E-03     26.2744E-03    -14.4668E-03     82.9318E-03
             366     15.9856E-03     60.7411E-03    -9.00654E+06     67.3305E+06     17.0447E+06     4.19497E+06    -19.5613E-03     33.9224E-03    -14.3611E-03     136.976E-03    -20.8335E-03     35.3497E-03    -14.3605E-03     137.378E-03
             367     16.8335E-03     60.8899E-03    -22.6605E+06     107.866E+06     47.0657E+06     1.58726E+06    -32.8626E-03     47.5515E-03    -14.6889E-03     254.074E-03    -41.6543E-03     56.5051E-03    -14.5771E-03     259.917E-03
             368     887.046E-06     61.1523E-03    -6.90276E+06    -59.5007E+06    -6.70938E+06    -401.574E+03    -14.6885E-03     29.1788E-03    -14.4903E-03     2.93463E-03    -14.6252E-03     28.9035E-03    -14.4276E-03     2.92887E-03
             369     1.77405E-03     61.1573E-03    -6.23169E+06    -59.0838E+06    -4.11937E+06    -1.13519E+06    -14.6562E-03     29.2679E-03    -14.6117E-03     5.44273E-03    -14.5955E-03     28.9875E-03    -14.5376E-03     5.42712E-03
             370     2.66091E-03     61.1629E-03    -5.68365E+06    -58.6271E+06    -1.47452E+06    -1.32336E+06    -14.6656E-03     29.3072E-03    -14.6416E-03     8.12139E-03    -14.6069E-03     29.0245E-03    -14.5557E-03     8.10294E-03
             371     3.54796E-03     61.1729E-03    -5.18085E+06    -57.3009E+06     705.608E+03    -863.180E+03    -14.6687E-03     29.3264E-03    -14.6577E-03     11.0387E-03    -14.6127E-03     29.0466E-03    -14.5635E-03     11.0258E-03
             372     4.43482E-03     61.1842E-03    -4.89687E+06    -56.2271E+06     1.87357E+06    -773.470E+03    -14.7261E-03     29.3948E-03    -14.6686E-03     14.1970E-03    -14.6722E-03     29.1184E-03    -14.5706E-03     14.1846E-03
             373     5.32200E-03     61.2001E-03    -4.06925E+06    -58.8362E+06     2.82802E+06    -516.407E+03    -14.8970E-03     29.5920E-03    -14.6950E-03     17.3228E-03    -14.8368E-03     29.3003E-03    -14.5897E-03     17.3131E-03
             374     6.20838E-03     61.2172E-03    -3.14740E+06    -58.0772E+06     3.06616E+06    -827.090E+03    -15.0097E-03     29.7331E-03    -14.7234E-03     20.6677E-03    -14.9468E-03     29.4439E-03    -14.6193E-03     20.6531E-03
             375     7.09535E-03     61.2395E-03    -2.43043E+06    -56.7052E+06     3.29225E+06    -1.24447E+06    -15.0583E-03     29.8075E-03    -14.7492E-03     24.2762E-03    -14.9946E-03     29.5244E-03    -14.6470E-03     24.2552E-03
             376     7.98189E-03     61.2635E-03    -1.87509E+06    -56.5125E+06     4.04359E+06    -1.10714E+06    -15.1932E-03     29.9714E-03    -14.7782E-03     27.9826E-03    -15.1289E-03     29.6881E-03    -14.6733E-03     27.9620E-03
             377     8.86882E-03     61.2929E-03    -1.09393E+06    -55.9642E+06     3.61476E+06    -1.44126E+06    -15.3735E-03     30.1788E-03    -14.8052E-03     31.8648E-03    -15.3068E-03     29.8990E-03    -14.7044E-03     31.8380E-03
             378     9.75488E-03     61.3246E-03    -675.409E+03    -56.8097E+06     2.07729E+06    -783.414E+03    -15.4634E-03     30.2932E-03    -14.8298E-03     36.0977E-03    -15.3931E-03     30.0128E-03    -14.7361E-03     36.0768E-03
             379     10.6421E-03     61.3624E-03     1.33407E+06    -54.3270E+06     1.49681E+06     606.312E+03    -15.5894E-03     30.4382E-03    -14.8488E-03     40.3475E-03    -15.5151E-03     30.1714E-03    -14.7645E-03     40.3410E-03
             380     11.5279E-03     61.4021E-03     3.96871E+06    -42.8806E+06     21.8151E+03     1.59278E+06    -15.6665E-03     30.5126E-03    -14.8462E-03     44.6310E-03    -15.5986E-03     30.3066E-03    -14.7896E-03     44.6327E-03
             381     12.4162E-03     61.4483E-03     7.94968E+06    -26.6176E+06     4.50773E+06     688.032E+03    -15.8881E-03     30.7514E-03    -14.8633E-03     50.9972E-03    -15.8407E-03     30.6246E-03    -14.8137E-03     50.9808E-03
             382     13.3004E-03     61.5008E-03     7.62994E+06    -19.3019E+06     4.45052E+06     2.02409E+06    -15.5034E-03     30.3658E-03    -14.8624E-03     54.1370E-03    -15.4828E-03     30.2908E-03    -14.8232E-03     54.1318E-03
             383     14.1915E-03     61.5528E-03     6.15575E+06     1.01674E+06     4.88665E+06     416.924E+03    -15.2888E-03     30.1131E-03    -14.8243E-03     57.0946E-03    -15.3297E-03     30.1652E-03    -14.8102E-03     57.0662E-03
             384     15.0726E-03     61.6162E-03    -2.34877E+06     34.4898E+06     11.3610E+06     5.65828E+06    -16.5348E-03     31.3657E-03    -14.8309E-03     70.6464E-03    -16.7884E-03     31.7003E-03    -14.8207E-03     70.6841E-03
             385     15.9592E-03     61.6915E-03     2.53300E+06     70.8625E+06     27.8251E+06     7.88972E+06    -30.9856E-03     46.1421E-03    -15.1565E-03     148.691E-03    -32.5568E-03     47.8947E-03    -15.1238E-03     148.992E-03
             386     16.8308E-03     61.9476E-03    -6.20328E+06     118.844E+06     28.8765E+06     97.6945E+03    -25.6098E-03     41.0065E-03    -15.3968E-03     245.994E-03    -33.2838E-03     48.9871E-03    -15.4157E-03     253.384E-03
             387     886.888E-06     62.1296E-03    -8.97228E+06    -58.7711E+06    -8.60201E+06    -246.921E+03    -14.7237E-03     29.4666E-03    -14.7429E-03     2.96560E-03    -14.6688E-03     29.2007E-03    -14.6877E-03     2.96176E-03
             388     1.77377E-03     62.1326E-03    -9.38537E+06    -58.2407E+06    -8.61799E+06    -328.936E+03    -14.6939E-03     29.4176E-03    -14.7237E-03     5.45437E-03    -14.6436E-03     29.1525E-03    -14.6687E-03     5.44918E-03
             389     2.66072E-03     62.1401E-03    -9.89875E+06    -58.5884E+06    -6.64605E+06    -249.883E+03    -14.7145E-03     29.4397E-03    -14.7252E-03     8.24875E-03    -14.6693E-03     29.1707E-03    -14.6591E-03     8.24416E-03
             390     3.54752E-03     62.1483E-03    -9.24497E+06    -57.2951E+06    -3.83313E+06    -277.823E+03    -14.7545E-03     29.4920E-03    -14.7376E-03     11.1715E-03    -14.7122E-03     29.2247E-03    -14.6602E-03     11.1661E-03
             391     4.43459E-03     62.1613E-03    -8.07114E+06    -56.3352E+06    -882.579E+03    -27.6744E+03    -14.8134E-03     29.5701E-03    -14.7567E-03     14.3067E-03    -14.7712E-03     29.3018E-03    -14.6677E-03     14.3040E-03
             392     5.32116E-03     62.1757E-03    -6.98607E+06    -58.3388E+06     330.912E+03    -540.467E+03    -14.9139E-03     29.6917E-03    -14.7778E-03     17.4858E-03    -14.8654E-03     29.4103E-03    -14.6814E-03     17.4758E-03
             393     6.20818E-03     62.1948E-03    -5.71043E+06    -57.4283E+06     585.510E+03    -1.03786E+06    -15.0444E-03     29.8416E-03    -14.7972E-03     20.8529E-03    -14.9915E-03     29.5629E-03    -14.7028E-03     20.8357E-03
             394     7.09460E-03     62.2152E-03    -4.95690E+06    -56.5973E+06     2.57649E+06    -988.043E+03    -15.1955E-03     30.0290E-03    -14.8335E-03     24.5045E-03    -15.1436E-03     29.7511E-03    -14.7314E-03     24.4868E-03
             395     7.98142E-03     62.2412E-03    -3.98665E+06    -56.0364E+06     3.74811E+06    -1.37530E+06    -15.3837E-03     30.2567E-03    -14.8730E-03     28.2881E-03    -15.3303E-03     29.9794E-03    -14.7673E-03     28.2639E-03
             396     8.86742E-03     62.2690E-03    -3.10794E+06      -55.57E+06     4.15978E+06    -1.56118E+06    -15.5949E-03     30.5109E-03    -14.9161E-03     32.1933E-03    -15.5397E-03     30.2354E-03    -14.8102E-03     32.1646E-03
             397     9.75419E-03     62.3026E-03    -1.86075E+06    -57.4252E+06     2.51543E+06    -1.71166E+06    -15.7468E-03     30.7008E-03    -14.9540E-03     36.2095E-03    -15.6824E-03     30.4186E-03    -14.8555E-03     36.1762E-03
             398     10.6399E-03     62.3381E-03    -438.745E+03    -54.9275E+06    -430.420E+03    -2.00632E+06    -15.8786E-03     30.8549E-03    -14.9763E-03     40.4260E-03    -15.8097E-03     30.5907E-03    -14.8982E-03     40.3853E-03
             399     11.5270E-03     62.3806E-03     2.22674E+06    -43.4212E+06    -271.956E+03    -2.01972E+06    -16.1349E-03     31.1360E-03    -15.0011E-03     44.4169E-03    -16.0750E-03     30.9306E-03    -14.9427E-03     44.3709E-03
             400     12.4114E-03     62.4240E-03     1.62386E+06    -27.7028E+06     1.06241E+06    -407.600E+03    -16.1357E-03     31.1624E-03    -15.0267E-03     50.5122E-03    -16.1128E-03     31.0438E-03    -14.9836E-03     50.4815E-03
             401     13.2998E-03     62.4796E-03     3.24588E+06    -20.0222E+06     1.22527E+06     1.16587E+06    -16.5500E-03     31.6064E-03    -15.0564E-03     54.0619E-03    -16.5470E-03     31.5402E-03    -15.0260E-03     54.0427E-03
             402     14.1806E-03     62.5288E-03    -395.485E+03    -3.04622E+06    -2.28217E+06     5.79280E+06    -16.5577E-03     31.6248E-03    -15.0670E-03     57.2442E-03    -16.6164E-03     31.6778E-03    -15.0734E-03     57.2798E-03
             403     15.0734E-03     62.5932E-03    -31.1717E+03     29.9564E+06     3.02170E+06     9.02436E+06    -23.5839E-03     38.8463E-03    -15.2624E-03     81.5699E-03    -23.8723E-03     39.2330E-03    -15.2906E-03     81.6026E-03
             404     15.9392E-03     62.6902E-03     3.48164E+06     81.3314E+06     23.7814E+06     4.40622E+06    -24.4216E-03     39.9716E-03    -15.5500E-03     164.134E-03    -26.1340E-03     41.9188E-03    -15.5541E-03     164.704E-03
             405     16.8254E-03     62.9160E-03    -20.6055E+06     123.891E+06     20.3716E+06    -2.96591E+06    -17.0222E-03     32.3851E-03    -15.3629E-03     247.195E-03    -24.4982E-03     40.1693E-03    -15.4108E-03     253.860E-03
             406     886.658E-06     63.1050E-03    -11.4768E+06    -58.7550E+06    -11.5772E+06     491.470E+03    -14.7902E-03     29.6569E-03    -14.8667E-03     2.92078E-03    -14.7434E-03     29.3990E-03    -14.8227E-03     2.92653E-03
             407     1.77357E-03     63.1099E-03    -11.9943E+06    -58.3847E+06    -10.6935E+06     378.831E+03    -14.7482E-03     29.5620E-03    -14.8139E-03     5.50591E-03    -14.7077E-03     29.3029E-03    -14.7653E-03     5.50985E-03
             408     2.66052E-03     63.1156E-03    -11.0492E+06    -58.2481E+06    -8.79223E+06     83.6819E+03    -14.7626E-03     29.5613E-03    -14.7987E-03     8.27188E-03    -14.7205E-03     29.2988E-03    -14.7422E-03     8.27162E-03
             409     3.54745E-03     63.1256E-03    -10.1727E+06    -57.4093E+06    -5.63212E+06        -182.539    -14.8514E-03     29.6615E-03    -14.8101E-03     11.2605E-03    -14.8110E-03     29.3976E-03    -14.7403E-03     11.2587E-03
             410     4.43396E-03     63.1370E-03    -9.11695E+06    -56.6139E+06    -2.63360E+06     202.385E+03    -14.9093E-03     29.7427E-03    -14.8335E-03     14.4186E-03    -14.8693E-03     29.4771E-03    -14.7513E-03     14.4189E-03
             411     5.32093E-03     63.1531E-03    -7.96332E+06    -56.6736E+06    -312.160E+03    -506.058E+03    -14.9309E-03     29.7846E-03    -14.8537E-03     17.6745E-03    -14.8887E-03     29.5139E-03    -14.7616E-03     17.6651E-03
             412     6.20754E-03     63.1704E-03    -6.85275E+06    -57.2946E+06     1.29258E+06    -1.30459E+06    -15.0727E-03     29.9474E-03    -14.8746E-03     21.0789E-03    -15.0268E-03     29.6700E-03    -14.7752E-03     21.0583E-03
             413     7.09436E-03     63.1931E-03    -5.08814E+06    -56.6627E+06     3.30685E+06    -1.14715E+06    -15.3008E-03     30.2099E-03    -14.9091E-03     24.7578E-03    -15.2505E-03     29.9308E-03    -14.8030E-03     24.7380E-03
             414     7.98043E-03     63.2172E-03    -4.02247E+06    -55.1404E+06     4.15300E+06    -1.30307E+06    -15.5146E-03     30.4648E-03    -14.9502E-03     28.6604E-03    -15.4633E-03     30.1914E-03    -14.8437E-03     28.6370E-03
             415     8.86718E-03     63.2472E-03    -3.31188E+06    -55.4407E+06     4.05336E+06    -1.67325E+06    -15.7478E-03     30.7458E-03    -14.9980E-03     32.6727E-03    -15.6937E-03     30.4714E-03    -14.8926E-03     32.6425E-03
             416     9.75278E-03     63.2790E-03    -2.93900E+06    -56.5492E+06     1.83127E+06    -2.09111E+06    -15.9947E-03     31.0381E-03    -15.0433E-03     36.7385E-03    -15.9361E-03     30.7630E-03    -14.9479E-03     36.7001E-03
             417     10.6392E-03     63.3168E-03    -2.97213E+06    -54.3667E+06    -911.810E+03    -2.74649E+06    -16.2172E-03     31.3026E-03    -15.0854E-03     41.2317E-03    -16.1614E-03     31.0459E-03    -15.0068E-03     41.1810E-03
             418     11.5242E-03     63.3570E-03    -4.86960E+06    -44.2650E+06    -1.52376E+06    -2.28404E+06    -16.3210E-03     31.4478E-03    -15.1269E-03     45.7446E-03    -16.2937E-03     31.2505E-03    -15.0632E-03     45.6952E-03
             419     12.4111E-03     63.4041E-03    -4.68570E+06    -30.1733E+06    -1.05349E+06    -453.987E+03    -16.5168E-03     31.6772E-03    -15.1604E-03     51.8170E-03    -16.5199E-03     31.5596E-03    -15.1151E-03     51.7846E-03
             420     13.2957E-03     63.4538E-03    -6.31443E+06    -21.2194E+06    -7.96882E+06     704.248E+03    -16.7968E-03     31.9652E-03    -15.1684E-03     56.4989E-03    -16.8277E-03     31.9214E-03    -15.1683E-03     56.4730E-03
             421     14.1845E-03     63.5132E-03    -1.69334E+06    -6.83913E+06    -8.59244E+06     2.78890E+06    -18.9973E-03     34.2520E-03    -15.2546E-03     59.5442E-03    -19.0623E-03     34.3118E-03    -15.2852E-03     59.5268E-03
             422     15.0636E-03     63.5643E-03     2.71195E+06     35.8440E+06     1.38351E+06    -212.528E+03    -23.2610E-03     38.7474E-03    -15.4864E-03     93.3956E-03    -23.5733E-03     39.1938E-03    -15.5354E-03     93.3232E-03
             423     15.9432E-03     63.7055E-03    -5.80868E+06     75.6978E+06    -3.64607E+06     7.32729E+06    -12.0580E-03     27.4129E-03    -15.3549E-03     144.548E-03    -13.2940E-03     28.9086E-03    -15.4745E-03     145.284E-03
             424     16.8729E-03     63.8210E-03    -3.94971E+06     122.737E+06     18.7991E+06     11.3349E+06    -16.6011E-03     31.4842E-03    -14.8832E-03     257.846E-03    -25.1526E-03     40.4051E-03    -14.9614E-03     263.946E-03
             425     886.851E-06     64.0824E-03    -14.6816E+06    -59.7817E+06    -13.3693E+06     418.733E+03    -14.8464E-03     29.7628E-03    -14.9164E-03     2.76931E-03    -14.8116E-03     29.5071E-03    -14.8752E-03     2.77417E-03
             426     1.77356E-03     64.0857E-03    -12.7372E+06    -58.0590E+06    -10.8101E+06     421.463E+03    -14.8536E-03     29.7377E-03    -14.8842E-03     5.42913E-03    -14.8171E-03     29.4815E-03    -14.8356E-03     5.43368E-03
             427     2.66023E-03     64.0927E-03    -11.9570E+06    -58.0683E+06    -9.00674E+06     16.7815E+03    -14.8635E-03     29.7459E-03    -14.8824E-03     8.28201E-03    -14.8260E-03     29.4860E-03    -14.8259E-03     8.28093E-03
             428     3.54698E-03     64.1015E-03    -10.7470E+06    -57.3371E+06    -6.50061E+06    -132.044E+03    -14.8833E-03     29.7711E-03    -14.8878E-03     11.3253E-03    -14.8446E-03     29.5096E-03    -14.8216E-03     11.3218E-03
             429     4.43387E-03     64.1145E-03    -9.04364E+06    -56.7769E+06    -2.87596E+06    -224.129E+03    -14.8945E-03     29.7938E-03    -14.8994E-03     14.4973E-03    -14.8535E-03     29.5276E-03    -14.8183E-03     14.4921E-03
             430     5.32050E-03     64.1288E-03    -7.46026E+06    -55.5637E+06     312.848E+03    -337.524E+03    -14.9915E-03     29.9046E-03    -14.9131E-03     17.8813E-03    -14.9493E-03     29.6378E-03    -14.8202E-03     17.8740E-03
             431     6.20729E-03     64.1481E-03    -6.29236E+06    -56.4533E+06     2.72705E+06    -1.10278E+06    -15.1634E-03     30.1038E-03    -14.9404E-03     21.3674E-03    -15.1180E-03     29.8277E-03    -14.8357E-03     21.3494E-03
             432     7.09362E-03     64.1690E-03    -5.61944E+06    -56.8767E+06     3.39512E+06    -1.41546E+06    -15.3230E-03     30.2936E-03    -14.9707E-03     25.0641E-03    -15.2751E-03     30.0141E-03    -14.8631E-03     25.0409E-03
             433     7.98041E-03     64.1954E-03    -4.84018E+06    -54.9751E+06     3.39928E+06    -900.649E+03    -15.5205E-03     30.5226E-03    -15.0021E-03     29.0707E-03    -15.4724E-03     30.2523E-03    -14.8984E-03     29.0527E-03
             434     8.86618E-03     64.2236E-03    -4.91848E+06    -54.8186E+06     2.39868E+06    -1.02427E+06    -15.7394E-03     30.7794E-03    -15.0400E-03     33.2525E-03    -15.6918E-03     30.5128E-03    -14.9414E-03     33.2310E-03
             435     9.75279E-03     64.2577E-03    -5.57060E+06    -56.0777E+06      133.44E+03    -1.21087E+06    -15.9820E-03     31.0629E-03    -15.0809E-03     37.5776E-03    -15.9347E-03     30.7964E-03    -14.9909E-03     37.5508E-03
             436     10.6383E-03     64.2935E-03    -7.13005E+06    -53.8809E+06    -2.31756E+06    -1.12618E+06    -16.1391E-03     31.2580E-03    -15.1189E-03     42.3352E-03    -16.1026E-03     31.0117E-03    -15.0421E-03     42.3058E-03
             437     11.5249E-03     64.3365E-03    -8.59311E+06    -45.7081E+06    -2.51399E+06    -104.353E+03    -16.1959E-03     31.3492E-03    -15.1533E-03     47.0230E-03    -16.1836E-03     31.1515E-03    -15.0871E-03     47.0022E-03
             438     12.4105E-03     64.3794E-03    -10.3820E+06    -30.6148E+06    -2.41817E+06     23.3732E+03    -16.4855E-03     31.6628E-03    -15.1773E-03     53.8217E-03    -16.5146E-03     31.5534E-03    -15.1299E-03     53.7959E-03
             439     13.2960E-03     64.4365E-03    -11.0444E+06    -23.8411E+06    -9.46555E+06     1.82804E+06    -17.1369E-03     32.3295E-03    -15.1926E-03     58.7063E-03    -17.1856E-03     32.2819E-03    -15.1894E-03     58.6948E-03
             440     14.1802E-03     64.4849E-03    -11.2520E+06    -3.63374E+06    -10.0948E+06    -1.47678E+06    -19.7154E-03     35.0149E-03    -15.2995E-03     68.3133E-03    -19.8401E-03     35.1162E-03    -15.3284E-03     68.2396E-03
             441     15.0571E-03     64.5664E-03    -17.0044E+06     29.5184E+06    -11.3752E+06     2.96890E+06    -16.7769E-03     32.1056E-03    -15.3287E-03     98.7882E-03    -17.1068E-03     32.5132E-03    -15.4038E-03     98.8086E-03
             442     15.9543E-03     64.6561E-03    -15.5648E+06     51.6284E+06    -32.7897E+06     13.4508E+06    -9.74104E-03     24.6467E-03    -14.9056E-03     134.089E-03    -10.6429E-03     25.7694E-03    -15.1219E-03     134.690E-03
             443     16.8327E-03     64.7833E-03     12.9484E+06     130.666E+06     11.1664E+06     11.7335E+06    -17.5783E-03     31.9853E-03    -14.4070E-03     268.779E-03    -26.7732E-03     41.6562E-03    -14.5594E-03     275.213E-03
             444     886.582E-06     65.0586E-03    -14.2490E+06    -59.5473E+06    -14.5293E+06    -128.532E+03    -14.9894E-03     29.9253E-03    -14.9359E-03     2.76648E-03    -14.9512E-03     29.6719E-03    -14.9016E-03     2.76429E-03
             445     1.77326E-03     65.0630E-03    -13.7707E+06    -58.6857E+06    -12.3380E+06     108.824E+03    -14.9118E-03     29.8693E-03    -14.9574E-03     5.37973E-03    -14.8774E-03     29.6136E-03    -14.9141E-03     5.38023E-03
             446     2.66012E-03     65.0689E-03    -12.7003E+06    -57.6369E+06    -8.89252E+06     387.663E+03    -14.9102E-03     29.8642E-03    -14.9541E-03     8.39921E-03    -14.8771E-03     29.6074E-03    -14.8965E-03     8.40291E-03
             447     3.54671E-03     65.0789E-03    -11.7224E+06    -56.7814E+06    -6.13807E+06    -359.171E+03    -14.8922E-03     29.8439E-03    -14.9516E-03     11.4282E-03    -14.8598E-03     29.5860E-03    -14.8830E-03     11.4218E-03
             448     4.43355E-03     65.0902E-03    -10.2452E+06    -56.6102E+06    -3.15713E+06    -798.304E+03    -14.9166E-03     29.8691E-03    -14.9525E-03     14.5906E-03    -14.8816E-03     29.6058E-03    -14.8713E-03     14.5780E-03
             449     5.32043E-03     65.1064E-03    -8.50031E+06    -55.9404E+06    -95.0514E+03    -434.562E+03    -15.0350E-03     29.9983E-03    -14.9633E-03     18.0048E-03    -14.9969E-03     29.7317E-03    -14.8703E-03     17.9963E-03
             450     6.20688E-03     65.1242E-03    -7.59756E+06    -55.2447E+06     2.02688E+06    -374.073E+03    -15.1566E-03     30.1399E-03    -14.9834E-03     21.5749E-03    -15.1184E-03     29.8728E-03    -14.8821E-03     21.5664E-03
             451     7.09355E-03     65.1470E-03    -7.16578E+06    -56.9031E+06     2.52602E+06    -757.815E+03    -15.2846E-03     30.2915E-03    -15.0068E-03     25.3921E-03    -15.2432E-03     30.0153E-03    -14.9013E-03     25.3776E-03
             452     7.97975E-03     65.1715E-03    -7.02083E+06    -55.6250E+06     1.52584E+06    -403.175E+03    -15.3848E-03     30.4064E-03    -15.0215E-03     29.5320E-03    -15.3439E-03     30.1386E-03    -14.9231E-03     29.5207E-03
             453     8.86661E-03     65.2021E-03    -6.94126E+06    -54.5131E+06     1.20174E+06     246.427E+03    -15.5287E-03     30.5700E-03    -15.0413E-03     33.8840E-03    -15.4898E-03     30.3095E-03    -14.9462E-03     33.8792E-03
             454     9.75257E-03     65.2339E-03    -7.41080E+06    -55.9569E+06    -625.235E+03     154.822E+03    -15.6996E-03     30.7608E-03    -15.0612E-03     38.4154E-03    -15.6604E-03     30.4985E-03    -14.9725E-03     38.4067E-03
             455     10.6391E-03     65.2727E-03    -8.20022E+06    -54.6887E+06    -3.28236E+06     932.114E+03    -15.7629E-03     30.8346E-03    -15.0717E-03     43.1210E-03    -15.7289E-03     30.5868E-03    -14.9969E-03     43.1191E-03
             456     11.5253E-03     65.3118E-03    -8.76079E+06    -46.2688E+06    -4.97037E+06     1.27553E+06    -15.8633E-03     30.9344E-03    -15.0711E-03     48.2521E-03    -15.8472E-03     30.7374E-03    -15.0162E-03     48.2501E-03
             457     12.4113E-03     65.3603E-03    -9.62029E+06    -31.3940E+06    -4.05420E+06     2.32048E+06    -15.8100E-03     30.8747E-03    -15.0647E-03     55.3638E-03    -15.8301E-03     30.7609E-03    -15.0255E-03     55.3702E-03
             458     13.2989E-03     65.4102E-03    -9.65302E+06    -24.0407E+06    -8.13596E+06     1.97261E+06    -16.5562E-03     31.6080E-03    -15.0518E-03     63.1098E-03    -16.6005E-03     31.5563E-03    -15.0436E-03     63.1021E-03
             459     14.1821E-03     65.4725E-03    -13.9178E+06    -5.47984E+06    -12.4057E+06     3.76498E+06    -15.6354E-03     30.6399E-03    -15.0045E-03     75.0124E-03    -15.7579E-03     30.7293E-03    -15.0384E-03     75.0251E-03
             460     15.0761E-03     65.5379E-03    -15.8566E+06     17.9290E+06    -17.7909E+06     9.61307E+06    -10.4947E-03     25.2306E-03    -14.7359E-03     94.5084E-03    -10.7306E-03     25.5254E-03    -14.8279E-03     94.6415E-03
             461     15.9716E-03     65.6215E-03    -2.24902E+06     51.1976E+06    -16.9141E+06     5.95694E+06    -11.0936E-03     25.3679E-03    -14.2743E-03     138.993E-03    -12.0055E-03     26.5017E-03    -14.4299E-03     139.424E-03
             462     16.8727E-03     65.7734E-03     13.6144E+06     138.827E+06     33.7647E+06     344.792E+03    -23.3211E-03     37.3726E-03    -14.0515E-03     270.678E-03    -32.5645E-03     47.0599E-03    -14.1037E-03     276.985E-03
             463     886.579E-06     66.0362E-03    -16.3645E+06    -59.2301E+06    -15.5723E+06    -254.477E+03    -15.0580E-03     29.9758E-03    -14.9178E-03     2.80334E-03    -15.0294E-03     29.7285E-03    -14.8861E-03     2.79946E-03
             464     1.77334E-03     66.0391E-03    -15.3824E+06    -59.0254E+06    -13.5912E+06    -190.453E+03    -14.9668E-03     29.9579E-03    -14.9911E-03     5.48104E-03    -14.9381E-03     29.7048E-03    -14.9512E-03     5.47769E-03
             465     2.65986E-03     66.0463E-03    -13.6994E+06    -57.7272E+06    -9.80233E+06    -57.7692E+03    -14.9148E-03     29.9039E-03    -14.9891E-03     8.44575E-03    -14.8854E-03     29.6494E-03    -14.9345E-03     8.44369E-03
             466     3.54682E-03     66.0550E-03    -11.9291E+06    -55.9791E+06    -5.44179E+06     28.6439E+03    -14.9364E-03     29.9252E-03    -14.9888E-03     11.4787E-03    -14.9072E-03     29.6707E-03    -14.9176E-03     11.4773E-03
             467     4.43340E-03     66.0677E-03    -10.8273E+06    -56.0897E+06    -2.37184E+06    -566.303E+03    -15.0191E-03     30.0181E-03    -14.9990E-03     14.6762E-03    -14.9888E-03     29.7571E-03    -14.9138E-03     14.6666E-03
             468     5.31991E-03     66.0825E-03    -9.73411E+06    -56.6254E+06    -399.673E+03    -493.225E+03    -15.0216E-03     30.0305E-03    -15.0089E-03     18.1202E-03    -14.9882E-03     29.7627E-03    -14.9147E-03     18.1110E-03
             469     6.20674E-03     66.1019E-03    -8.52878E+06    -55.4698E+06     839.108E+03     342.459E+03    -15.0424E-03     30.0511E-03    -15.0087E-03     21.7785E-03    -15.0068E-03     29.7859E-03    -14.9117E-03     21.7793E-03
             470     7.09336E-03     66.1231E-03    -7.97065E+06    -56.2056E+06     1.62456E+06     258.787E+03    -15.1227E-03     30.1339E-03    -15.0112E-03     25.6948E-03    -15.0850E-03     29.8636E-03    -14.9100E-03     25.6936E-03
             471     7.98015E-03     66.1496E-03    -7.30271E+06    -56.3107E+06     1.17435E+06     12.2099E+03    -15.1760E-03     30.1840E-03    -15.0080E-03     29.8602E-03    -15.1349E-03     29.9137E-03    -14.9099E-03     29.8546E-03
             472     8.86664E-03     66.1778E-03    -6.43475E+06    -55.2880E+06     825.316E+03     663.222E+03    -15.1919E-03     30.1920E-03    -15.0001E-03     34.3421E-03    -15.1487E-03     29.9272E-03    -14.9064E-03     34.3432E-03
             473     9.75356E-03     66.2126E-03    -5.94202E+06    -55.8149E+06    -445.160E+03     1.21451E+06    -15.1947E-03     30.1790E-03    -14.9842E-03     38.9337E-03    -15.1483E-03     29.9146E-03    -14.8969E-03     38.9396E-03
             474     10.6403E-03     66.2478E-03    -5.57563E+06    -56.0030E+06    -4.33299E+06     1.46524E+06    -15.2117E-03     30.1608E-03    -14.9491E-03     43.8700E-03    -15.1606E-03     29.9037E-03    -14.8815E-03     43.8761E-03
             475     11.5270E-03     66.2912E-03    -5.44945E+06    -46.1924E+06    -6.33160E+06     1.96669E+06    -15.0677E-03     29.9661E-03    -14.8984E-03     49.3178E-03    -15.0322E-03     29.7657E-03    -14.8552E-03     49.3266E-03
             476     12.4148E-03     66.3344E-03    -3.84305E+06    -32.3309E+06    -3.24608E+06     1.76082E+06    -14.8309E-03     29.6763E-03    -14.8453E-03     56.5162E-03    -14.8209E-03     29.5472E-03    -14.8091E-03     56.5177E-03
             477     13.3013E-03     66.3897E-03    -2.63918E+06    -24.6002E+06    -5.93731E+06     2.13813E+06    -14.4007E-03     29.1436E-03    -14.7429E-03     65.3636E-03    -14.4105E-03     29.0738E-03    -14.7331E-03     65.3640E-03
             478     14.1922E-03     66.4465E-03    -1.59935E+06    -11.3067E+06    -10.5283E+06     6.50695E+06    -11.6619E-03     26.1850E-03    -14.5231E-03     70.6148E-03    -11.7010E-03     26.2089E-03    -14.5570E-03     70.6763E-03
             479     15.0835E-03     66.5058E-03     2.30712E+06     18.3446E+06    -7.72953E+06     7.03802E+06    -9.23783E-03     23.3983E-03    -14.1605E-03     85.4890E-03    -9.38107E-03     23.6374E-03    -14.2291E-03     85.5894E-03
             480     15.9785E-03     66.5885E-03     2.29746E+06     63.4669E+06    -5.32190E+06    -3.29555E+06    -14.4767E-03     28.2936E-03    -13.8170E-03     132.685E-03    -15.5197E-03     29.5856E-03    -13.9389E-03     132.990E-03
             481     16.8653E-03     66.7428E-03     3.11027E+06     140.352E+06      40.019E+06    -1.74693E+06    -29.9828E-03     43.9245E-03    -13.9417E-03     259.420E-03    -39.0156E-03     53.3509E-03    -13.9496E-03     265.029E-03
             482     886.800E-06     67.0123E-03    -17.0997E+06    -59.0119E+06    -16.4022E+06    -219.657E+03    -15.0351E-03     29.9668E-03    -14.9316E-03     2.78751E-03    -15.0096E-03     29.7228E-03    -14.9033E-03     2.78419E-03
             483     1.77320E-03     67.0168E-03    -16.1083E+06    -58.6026E+06    -13.6550E+06    -430.676E+03    -14.9896E-03     29.9853E-03    -14.9957E-03     5.41669E-03    -14.9651E-03     29.7354E-03    -14.9556E-03     5.41028E-03
             484     2.66001E-03     67.0225E-03    -14.7738E+06    -57.9120E+06    -10.5398E+06    -493.497E+03    -14.9695E-03     29.9738E-03    -15.0043E-03     8.42230E-03    -14.9441E-03     29.7210E-03    -14.9516E-03     8.41468E-03
             485     3.54653E-03     67.0323E-03    -12.9992E+06    -56.1618E+06    -6.52726E+06    -159.543E+03    -14.9831E-03     29.9952E-03    -15.0121E-03     11.5426E-03    -14.9574E-03     29.7429E-03    -14.9444E-03     11.5388E-03
             486     4.43320E-03     67.0442E-03    -11.2205E+06    -55.5831E+06    -2.47135E+06     154.433E+03    -14.9812E-03     30.0033E-03    -15.0221E-03     14.8177E-03    -14.9535E-03     29.7456E-03    -14.9376E-03     14.8175E-03
             487     5.31993E-03     67.0599E-03    -10.1971E+06    -56.8701E+06    -394.738E+03     5.85681E+03    -14.9563E-03     29.9776E-03    -15.0213E-03     18.3180E-03    -14.9249E-03     29.7093E-03    -14.9261E-03     18.3152E-03
             488     6.20669E-03     67.0779E-03    -8.87248E+06    -56.3916E+06    -200.437E+03     259.964E+03    -14.9233E-03     29.9251E-03    -15.0018E-03     22.0587E-03    -14.8866E-03     29.6572E-03    -14.9081E-03     22.0585E-03
             489     7.09353E-03     67.1007E-03    -7.19413E+06    -55.7084E+06     1.36819E+06     551.643E+03    -14.9136E-03     29.8975E-03    -14.9839E-03     25.9365E-03    -14.8723E-03     29.6289E-03    -14.8858E-03     25.9393E-03
             490     7.98042E-03     67.1253E-03    -5.91422E+06    -55.8297E+06     1.65863E+06    -64.7171E+03    -14.9075E-03     29.8664E-03    -14.9589E-03     30.0829E-03    -14.8608E-03     29.5957E-03    -14.8611E-03     30.0766E-03
             491     8.86739E-03     67.1557E-03    -4.59583E+06    -56.6208E+06     932.215E+03     43.6434E+03    -14.8042E-03     29.7264E-03    -14.9222E-03     34.5044E-03    -14.7498E-03     29.4520E-03    -14.8287E-03     34.4980E-03
             492     9.75468E-03     67.1874E-03    -3.12266E+06    -56.3762E+06     374.830E+03     977.204E+03    -14.6242E-03     29.4940E-03    -14.8698E-03     39.0656E-03    -14.5638E-03     29.2213E-03    -14.7816E-03     39.0692E-03
             493     10.6420E-03     67.2259E-03    -2.41297E+06    -56.4278E+06    -2.81184E+06     1.30842E+06    -14.4602E-03     29.2510E-03    -14.7908E-03     43.9780E-03    -14.3945E-03     28.9846E-03    -14.7196E-03     43.9831E-03
             494     11.5302E-03     67.2651E-03    -1.84007E+06    -46.6572E+06    -3.22002E+06     1.49610E+06    -14.1172E-03     28.8109E-03    -14.6937E-03     49.0908E-03    -14.0667E-03     28.5976E-03    -14.6395E-03     49.0951E-03
             495     12.4179E-03     67.3121E-03    -1.97383E+06    -31.1691E+06    -1.07514E+06     826.471E+03    -13.7772E-03     28.3569E-03    -14.5796E-03     56.2307E-03    -13.7620E-03     28.2271E-03    -14.5370E-03     56.2220E-03
             496     13.3080E-03     67.3621E-03    -1.34374E+06    -26.6757E+06    -4.49665E+06     611.170E+03    -12.8542E-03     27.2674E-03    -14.4131E-03     63.0545E-03    -12.8525E-03     27.1792E-03    -14.3950E-03     63.0396E-03
             497     14.1970E-03     67.4208E-03     1.66255E+06    -15.0080E+06    -9.07661E+06     2.55878E+06    -11.2770E-03     25.4373E-03    -14.1603E-03     64.0219E-03    -11.2897E-03     25.4290E-03    -14.1864E-03     64.0354E-03
             498     15.0915E-03     67.4710E-03     6.01449E+06     21.9587E+06    -6.42137E+06     785.412E+03    -11.4082E-03     25.2787E-03    -13.8705E-03     79.1857E-03    -11.5456E-03     25.5341E-03    -13.9432E-03     79.1972E-03
             499     15.9813E-03     67.5644E-03    -63.8855E+03     77.4638E+06    -3.99180E+06     125.559E+03    -21.4507E-03     35.2320E-03    -13.7812E-03     138.136E-03    -22.6870E-03     36.7552E-03    -13.9134E-03     138.423E-03
             500     16.8551E-03     67.7316E-03    -11.6211E+06     138.108E+06     20.7479E+06     1.46270E+06    -30.1197E-03     44.1584E-03    -14.0387E-03     259.245E-03    -38.9036E-03     53.3320E-03    -14.1184E-03     265.401E-03
             501     886.453E-06     67.9902E-03    -16.5456E+06    -58.4341E+06    -16.2640E+06    -355.636E+03    -15.0159E-03     30.0270E-03    -15.0111E-03     2.79588E-03    -14.9888E-03     29.7848E-03    -14.9837E-03     2.79081E-03
             502     1.77332E-03     67.9929E-03    -15.9213E+06    -58.2807E+06    -13.8052E+06    -253.368E+03    -14.9735E-03     29.9883E-03    -15.0147E-03     5.33402E-03    -14.9484E-03     29.7400E-03    -14.9762E-03     5.32997E-03
             503     2.65986E-03     68.0000E-03    -14.9551E+06    -57.8217E+06    -10.3434E+06    -269.677E+03    -14.9734E-03     29.9892E-03    -15.0158E-03     8.45459E-03    -14.9493E-03     29.7368E-03    -14.9620E-03     8.44992E-03
             504     3.54650E-03     68.0087E-03    -13.8267E+06    -56.5728E+06    -7.61592E+06    -207.887E+03    -14.9242E-03     29.9346E-03    -15.0105E-03     11.6668E-03    -14.9004E-03     29.6831E-03    -14.9465E-03     11.6625E-03
             505     4.43330E-03     68.0214E-03    -12.3904E+06    -56.0177E+06    -4.61907E+06     202.251E+03    -14.8473E-03     29.8439E-03    -14.9966E-03     14.9895E-03    -14.8217E-03     29.5889E-03    -14.9205E-03     14.9900E-03
             506     5.32017E-03     68.0362E-03    -10.4127E+06    -56.3166E+06    -1.41251E+06     201.682E+03    -14.8399E-03     29.8201E-03    -14.9802E-03     18.5020E-03    -14.8089E-03     29.5563E-03    -14.8905E-03     18.5019E-03
             507     6.20694E-03     68.0552E-03    -8.64385E+06    -56.6731E+06     149.577E+03    -283.643E+03    -14.8052E-03     29.7612E-03    -14.9560E-03     22.2157E-03    -14.7674E-03     29.4911E-03    -14.8605E-03     22.2087E-03
             508     7.09401E-03     68.0764E-03    -7.02652E+06    -56.1060E+06     887.220E+03    -33.3035E+03    -14.7062E-03     29.6258E-03    -14.9196E-03     26.1409E-03    -14.6627E-03     29.3556E-03    -14.8236E-03     26.1363E-03
             509     7.98102E-03     68.1027E-03    -5.92947E+06    -54.7558E+06     1.34922E+06    -113.983E+03    -14.5998E-03     29.4715E-03    -14.8718E-03     30.2420E-03    -14.5541E-03     29.2066E-03    -14.7770E-03     30.2353E-03
             510     8.86847E-03     68.1307E-03    -5.12998E+06    -57.1638E+06     1.02934E+06    -632.236E+03    -14.4188E-03     29.2329E-03    -14.8141E-03     34.4492E-03    -14.3663E-03     28.9563E-03    -14.7186E-03     34.4344E-03
             511     9.75584E-03     68.1645E-03    -4.28857E+06    -57.6211E+06    -141.216E+03     12.5842E+03    -14.1325E-03     28.8638E-03    -14.7313E-03     38.8881E-03    -14.0752E-03     28.5871E-03    -14.6422E-03     38.8797E-03
             512     10.6442E-03     68.1996E-03    -3.49888E+06    -56.6611E+06    -1.40744E+06     938.422E+03    -13.8573E-03     28.4847E-03    -14.6274E-03     43.5713E-03    -13.7984E-03     28.2163E-03    -14.5472E-03     43.5724E-03
             513     11.5320E-03     68.2419E-03    -3.56507E+06    -46.9248E+06    -2.68109E+06     1.03621E+06    -13.5626E-03     28.0601E-03    -14.4975E-03     47.9790E-03    -13.5207E-03     27.8467E-03    -14.4377E-03     47.9782E-03
             514     12.4218E-03     68.2839E-03    -2.84308E+06    -29.7690E+06    -1.34683E+06     322.611E+03    -13.3120E-03     27.6687E-03    -14.3567E-03     54.4233E-03    -13.3020E-03     27.5468E-03    -14.3161E-03     54.4091E-03
             515     13.3095E-03     68.3387E-03    -2.85473E+06    -27.2806E+06    -6.23186E+06    -63.7676E+03    -12.7223E-03     26.9093E-03    -14.1870E-03     58.9248E-03    -12.7221E-03     26.8203E-03    -14.1745E-03     58.9021E-03
             516     14.2015E-03     68.3884E-03    -3.30346E+06    -15.7030E+06    -13.0527E+06    -377.628E+03    -12.4336E-03     26.4143E-03    -13.9807E-03     60.3592E-03    -12.4624E-03     26.4135E-03    -14.0184E-03     60.3327E-03
             517     15.0867E-03     68.4485E-03    -7.70340E+06     24.6365E+06    -16.5710E+06     508.593E+03    -14.5362E-03     28.3461E-03    -13.8098E-03     77.7268E-03    -14.7483E-03     28.6663E-03    -13.9172E-03     77.7204E-03
             518     15.9758E-03     68.5316E-03    -7.53368E+06     74.2126E+06    -22.4583E+06     3.91474E+06    -20.3952E-03     34.1102E-03    -13.7150E-03     149.865E-03    -21.7055E-03     35.7228E-03    -13.9240E-03     150.278E-03
             519     16.8555E-03     68.7383E-03    -3.04306E+06     137.094E+06     9.32925E+06     1.89390E+06    -26.8869E-03     40.7214E-03    -13.8345E-03     264.282E-03    -35.3067E-03     49.5917E-03    -13.9822E-03     270.649E-03
             520     886.682E-06     68.9661E-03    -16.4761E+06    -58.1149E+06    -15.9289E+06     207.044E+03    -14.8657E-03     30.0057E-03    -15.1400E-03     2.61960E-03    -14.8393E-03     29.7644E-03    -15.1115E-03     2.62193E-03
             521     1.77314E-03     68.9706E-03    -16.4858E+06    -58.4015E+06    -14.1768E+06     104.091E+03    -14.9133E-03     29.9067E-03    -14.9935E-03     5.50013E-03    -14.8902E-03     29.6592E-03    -14.9558E-03     5.50074E-03
             522     2.65988E-03     68.9762E-03    -15.4267E+06    -57.7304E+06    -10.7550E+06     224.495E+03    -14.8863E-03     29.8626E-03    -14.9763E-03     8.64814E-03    -14.8641E-03     29.6120E-03    -14.9240E-03     8.64993E-03
             523     3.54674E-03     68.9861E-03    -14.0587E+06    -56.6042E+06    -7.80447E+06     57.0078E+03    -14.8139E-03     29.7707E-03    -14.9568E-03     11.7664E-03    -14.7910E-03     29.5196E-03    -14.8934E-03     11.7657E-03
             524     4.43359E-03     68.9975E-03    -12.3410E+06    -56.1707E+06    -5.23197E+06    -192.030E+03    -14.7479E-03     29.6776E-03    -14.9297E-03     15.0723E-03    -14.7209E-03     29.4226E-03    -14.8566E-03     15.0678E-03
             525     5.32050E-03     69.0133E-03    -10.6160E+06    -55.9610E+06    -2.45106E+06    -302.781E+03    -14.6754E-03     29.5750E-03    -14.8996E-03     18.6345E-03    -14.6444E-03     29.3148E-03    -14.8153E-03     18.6281E-03
             526     6.20761E-03     69.0311E-03    -9.03734E+06    -56.0570E+06    -421.927E+03    -550.393E+03    -14.6205E-03     29.4838E-03    -14.8633E-03     22.3485E-03    -14.5848E-03     29.2182E-03    -14.7710E-03     22.3381E-03
             527     7.09457E-03     69.0533E-03    -7.66008E+06    -56.7830E+06     607.044E+03    -648.156E+03    -14.5261E-03     29.3452E-03    -14.8190E-03     26.1946E-03    -14.4844E-03     29.0729E-03    -14.7226E-03     26.1821E-03
             528     7.98217E-03     69.0778E-03    -6.27995E+06    -54.6460E+06     2.23524E+06    -136.451E+03    -14.3289E-03     29.0911E-03    -14.7622E-03     30.1588E-03    -14.2865E-03     28.8259E-03    -14.6627E-03     30.1519E-03
             529     8.86944E-03     69.1075E-03    -5.65541E+06    -56.3201E+06     2.48744E+06    -460.860E+03    -14.0961E-03     28.7853E-03    -14.6892E-03     34.1661E-03    -14.0496E-03     28.5115E-03    -14.5869E-03     34.1536E-03
             530     9.75774E-03     69.1384E-03    -4.88947E+06    -58.6497E+06     153.419E+03    -753.326E+03    -13.8568E-03     28.4458E-03    -14.5891E-03     38.3748E-03    -13.8014E-03     28.1644E-03    -14.4962E-03     38.3566E-03
             531     10.6455E-03     69.1759E-03    -3.52313E+06    -57.3853E+06    -2.09929E+06    -135.059E+03    -13.6409E-03     28.1125E-03    -14.4716E-03     42.7772E-03    -13.5799E-03     27.8414E-03    -14.3938E-03     42.7646E-03
             532     11.5347E-03     69.2144E-03    -1.15360E+06    -46.4431E+06    -2.32334E+06    -146.000E+03    -13.5156E-03     27.8598E-03    -14.3442E-03     46.9521E-03    -13.4627E-03     27.6447E-03    -14.2868E-03     46.9361E-03
             533     12.4218E-03     69.2601E-03    -492.653E+03    -30.0590E+06    -1.48476E+06     194.762E+03    -13.4150E-03     27.6310E-03    -14.2160E-03     53.1496E-03    -13.3921E-03     27.5040E-03    -14.1791E-03     53.1339E-03
             534     13.3122E-03     69.3098E-03    -1.09413E+06    -26.8649E+06    -5.63444E+06     812.282E+03    -13.1220E-03     27.1996E-03    -14.0776E-03     57.1840E-03    -13.1137E-03     27.1084E-03    -14.0652E-03     57.1723E-03
             535     14.1988E-03     69.3639E-03    -3.70678E+06    -16.5014E+06    -14.7244E+06     1.32108E+06    -13.1043E-03     27.0105E-03    -13.9062E-03     60.4622E-03    -13.1322E-03     27.0093E-03    -13.9505E-03     60.4556E-03
             536     15.0916E-03     69.4197E-03    -3.91633E+06     22.5128E+06    -17.1173E+06     4.22363E+06    -15.8758E-03     29.6672E-03    -13.7913E-03     83.3654E-03    -16.0850E-03     29.9920E-03    -13.9039E-03     83.4035E-03
             537     15.9720E-03     69.5173E-03    -3.07005E+06     68.2453E+06    -21.8028E+06     5.57769E+06    -15.9870E-03     29.6161E-03    -13.6290E-03     147.570E-03    -17.1836E-03     31.1068E-03    -13.8325E-03     148.127E-03
             538     16.8834E-03     69.6904E-03    -464.650E+03     138.240E+06     20.7383E+06    -1.99303E+06    -27.9566E-03     41.6649E-03    -13.7083E-03     265.432E-03    -36.9476E-03     51.0867E-03    -13.8044E-03     271.249E-03
             539     886.503E-06     69.9438E-03    -17.3575E+06    -58.7807E+06    -17.3037E+06     659.757E+03    -14.8109E-03     29.7825E-03    -14.9716E-03     2.73696E-03    -14.7862E-03     29.5411E-03    -14.9477E-03     2.74517E-03
             540     1.77356E-03     69.9465E-03    -17.0944E+06    -58.4857E+06    -14.2692E+06     699.074E+03    -14.8268E-03     29.7173E-03    -14.8905E-03     5.53986E-03    -14.8066E-03     29.4704E-03    -14.8522E-03     5.54823E-03
             541     2.66034E-03     69.9536E-03    -15.8256E+06    -57.7350E+06    -10.7062E+06     331.689E+03    -14.7494E-03     29.6227E-03    -14.8733E-03     8.66187E-03    -14.7293E-03     29.3726E-03    -14.8202E-03     8.66508E-03
             542     3.54709E-03     69.9620E-03    -14.0106E+06    -56.2095E+06    -7.25933E+06    -9.82813E+03    -14.6890E-03     29.5372E-03    -14.8482E-03     11.8632E-03    -14.6671E-03     29.2871E-03    -14.7827E-03     11.8616E-03
             543     4.43404E-03     69.9745E-03    -12.2983E+06    -55.7012E+06    -4.19422E+06    -413.970E+03    -14.6369E-03     29.4589E-03    -14.8220E-03     15.2163E-03    -14.6119E-03     29.2047E-03    -14.7444E-03     15.2090E-03
             544     5.32111E-03     69.9890E-03    -10.5267E+06    -55.8430E+06    -2.07284E+06    -724.753E+03    -14.5413E-03     29.3289E-03    -14.7876E-03     18.6766E-03    -14.5105E-03     29.0685E-03    -14.7017E-03     18.6647E-03
             545     6.20833E-03     70.0077E-03    -8.89645E+06    -55.6540E+06    -112.188E+03    -826.151E+03    -14.4224E-03     29.1656E-03    -14.7433E-03     22.3384E-03    -14.3869E-03     28.9013E-03    -14.6502E-03     22.3246E-03
             546     7.09579E-03     70.0288E-03    -7.33154E+06    -56.6227E+06     1.39060E+06    -955.882E+03    -14.3305E-03     29.0225E-03    -14.6919E-03     26.1451E-03    -14.2886E-03     28.7494E-03    -14.5922E-03     26.1287E-03
             547     7.98283E-03     70.0542E-03    -5.96849E+06    -55.5651E+06     1.99150E+06    -716.755E+03    -14.1475E-03     28.7725E-03    -14.6250E-03     29.9759E-03    -14.1018E-03     28.5026E-03    -14.5258E-03     29.9616E-03
             548     8.87113E-03     70.0818E-03    -4.36314E+06    -55.3675E+06     3.74509E+06    -387.950E+03    -13.9331E-03     28.4850E-03    -14.5519E-03     33.8323E-03    -13.8834E-03     28.2124E-03    -14.4465E-03     33.8208E-03
             549     9.75856E-03     70.1145E-03    -3.79155E+06    -58.7291E+06     778.414E+03    -780.314E+03    -13.7845E-03     28.2372E-03    -14.4526E-03     37.8613E-03    -13.7245E-03     27.9529E-03    -14.3581E-03     37.8428E-03
             550     10.6472E-03     70.1491E-03    -3.06633E+06    -56.7994E+06    -4.06172E+06    -1.83495E+06    -13.6598E-03     27.9918E-03    -14.3319E-03     42.2732E-03    -13.5946E-03     27.7258E-03    -14.2654E-03     42.2386E-03
             551     11.5347E-03     70.1903E-03    -2.27274E+06    -46.8069E+06    -4.66276E+06    -2.01421E+06    -13.5341E-03     27.7524E-03    -14.2183E-03     46.5760E-03    -13.4828E-03     27.5404E-03    -14.1705E-03     46.5360E-03
             552     12.4247E-03     70.2326E-03    -1.41382E+06    -32.0570E+06    -2.50952E+06     132.005E+03    -13.5098E-03     27.6216E-03    -14.1118E-03     52.8081E-03    -13.4872E-03     27.4875E-03    -14.0758E-03     52.7914E-03
             553     13.3116E-03     70.2856E-03    -1.71094E+06    -26.9326E+06    -5.96139E+06     1.34346E+06    -13.4058E-03     27.3998E-03    -13.9940E-03     56.5974E-03    -13.4003E-03     27.3099E-03    -13.9822E-03     56.5918E-03
             554     14.2033E-03     70.3347E-03    -1.44487E+06    -17.7141E+06    -13.6743E+06     1.97432E+06    -13.7587E-03     27.6203E-03    -13.8616E-03     60.3724E-03    -13.7792E-03     27.6124E-03    -13.9021E-03     60.3716E-03
             555     15.0883E-03     70.3960E-03    -1.72520E+06     17.6685E+06    -16.8202E+06     2.59831E+06    -15.0844E-03     28.8305E-03    -13.7461E-03     84.6362E-03    -15.2717E-03     29.1231E-03    -13.8533E-03     84.6594E-03
             556     15.9812E-03     70.4934E-03     2.41434E+06     72.2954E+06    -16.0993E+06     506.566E+03    -18.9641E-03     32.6411E-03    -13.6770E-03     137.793E-03    -20.1232E-03     34.1121E-03    -13.8658E-03     138.167E-03
             557     16.8574E-03     70.6479E-03     2.09180E+06     144.281E+06     28.6208E+06    -726.352E+03    -32.0828E-03     46.0376E-03    -13.9548E-03     268.926E-03    -41.8889E-03     56.2818E-03    -14.0239E-03     274.905E-03
             558     887.151E-06     70.9198E-03    -19.1159E+06    -60.2072E+06    -18.1662E+06     332.123E+03    -14.7592E-03     29.3531E-03    -14.5939E-03     2.87975E-03    -14.7399E-03     29.1083E-03    -14.5697E-03     2.88374E-03
             559     1.77354E-03     70.9237E-03    -17.0463E+06    -58.7445E+06    -14.7482E+06     728.518E+03    -14.7498E-03     29.4527E-03    -14.7029E-03     5.64836E-03    -14.7282E-03     29.2051E-03    -14.6668E-03     5.65710E-03
             560     2.66051E-03     70.9294E-03    -15.4795E+06    -57.3101E+06    -10.2713E+06     444.425E+03    -14.6288E-03     29.3499E-03    -14.7211E-03     8.65455E-03    -14.6082E-03     29.1007E-03    -14.6669E-03     8.65920E-03
             561     3.54775E-03     70.9388E-03    -13.8804E+06    -55.8100E+06    -6.29104E+06    -123.501E+03    -14.5307E-03     29.2341E-03    -14.7034E-03     11.8666E-03    -14.5103E-03     28.9845E-03    -14.6338E-03     11.8635E-03
             562     4.43484E-03     70.9503E-03    -11.9716E+06    -55.1179E+06    -2.91194E+06    -458.205E+03    -14.4988E-03     29.1772E-03    -14.6784E-03     15.2034E-03    -14.4749E-03     28.9236E-03    -14.5957E-03     15.1956E-03
             563     5.32193E-03     70.9656E-03    -10.1883E+06    -55.2277E+06    -704.760E+03    -993.465E+03    -14.4350E-03     29.0838E-03    -14.6488E-03     18.6098E-03    -14.4054E-03     28.8241E-03    -14.5575E-03     18.5945E-03
             564     6.20917E-03     70.9831E-03    -8.24332E+06    -55.4309E+06     1.17136E+06    -1.41135E+06    -14.2847E-03     28.8926E-03    -14.6078E-03     22.2119E-03    -14.2482E-03     28.6266E-03    -14.5096E-03     22.1905E-03
             565     7.09657E-03     71.0049E-03    -6.59390E+06    -56.5532E+06     2.17812E+06    -1.30984E+06    -14.1022E-03     28.6514E-03    -14.5492E-03     25.9667E-03    -14.0578E-03     28.3765E-03    -14.4467E-03     25.9458E-03
             566     7.98469E-03     71.0291E-03    -5.12219E+06    -55.5096E+06     1.44477E+06    -1.30555E+06    -14.0094E-03     28.4803E-03    -14.4709E-03     29.7514E-03    -13.9588E-03     28.2102E-03    -14.3757E-03     29.7295E-03
             567     8.87185E-03     71.0575E-03    -4.12377E+06    -56.0904E+06     2.29496E+06    -963.254E+03    -13.8979E-03     28.2992E-03    -14.4013E-03     33.5440E-03    -13.8437E-03     28.0247E-03    -14.3025E-03     33.5251E-03
             568     9.76049E-03     71.0885E-03    -2.92421E+06    -57.6306E+06     1.31427E+06    -864.060E+03    -13.7858E-03     28.1060E-03    -14.3202E-03     37.5634E-03    -13.7238E-03     27.8252E-03    -14.2258E-03     37.5438E-03
             569     10.6480E-03     71.1245E-03    -3.34031E+06    -55.6073E+06    -3.66410E+06    -1.72134E+06    -13.6923E-03     27.9056E-03    -14.2134E-03     41.9335E-03    -13.6307E-03     27.6455E-03    -14.1462E-03     41.9003E-03
             570     11.5373E-03     71.1634E-03    -4.96338E+06    -47.3161E+06    -4.86107E+06    -1.57302E+06    -13.6344E-03     27.7526E-03    -14.1182E-03     46.2235E-03    -13.5957E-03     27.5424E-03    -14.0667E-03     46.1890E-03
             571     12.4243E-03     71.2077E-03    -5.29200E+06    -34.1769E+06    -4.73693E+06    -1.22369E+06    -13.6285E-03     27.6511E-03    -14.0226E-03     52.2141E-03    -13.6189E-03     27.5151E-03    -13.9891E-03     52.1798E-03
             572     13.3147E-03     71.2583E-03    -2.86519E+06    -26.8255E+06    -6.77911E+06    -350.946E+03    -13.9520E-03     27.8860E-03    -13.9340E-03     55.9696E-03    -13.9519E-03     27.8001E-03    -13.9248E-03     55.9409E-03
             573     14.2001E-03     71.3097E-03    -1.59225E+06    -21.0146E+06    -13.9691E+06     1.20494E+06    -14.6248E-03     28.4808E-03    -13.8559E-03     60.2154E-03    -14.6433E-03     28.4595E-03    -13.8930E-03     60.2020E-03
             574     15.0901E-03     71.3709E-03    -1.14339E+06     19.8305E+06    -15.6749E+06     1.13109E+06    -15.4334E-03     29.2111E-03    -13.7777E-03     83.0943E-03    -15.6123E-03     29.5019E-03    -13.8832E-03     83.0936E-03
             575     15.9758E-03     71.4644E-03    -5.47025E+06     74.3926E+06    -22.2095E+06     196.688E+03    -22.5719E-03     36.3479E-03    -13.7759E-03     145.026E-03    -23.9099E-03     37.9952E-03    -13.9869E-03     145.319E-03
             576     16.8536E-03     71.6490E-03    -5.43784E+06     140.250E+06     17.8935E+06    -311.544E+03    -31.5014E-03     45.5845E-03    -14.0832E-03     276.735E-03    -41.2887E-03     55.7991E-03    -14.1892E-03     283.173E-03
             577     887.018E-06     71.8962E-03    -17.9886E+06    -60.5054E+06    -17.8508E+06    -181.313E+03    -14.5145E-03     28.9073E-03    -14.3927E-03     2.99060E-03    -14.4898E-03     28.6588E-03    -14.3682E-03     2.98786E-03
             578     1.77443E-03     71.8996E-03    -16.9998E+06    -59.4019E+06    -15.0501E+06    -126.592E+03    -14.5483E-03     29.0292E-03    -14.4809E-03     5.68940E-03    -14.5251E-03     28.7787E-03    -14.4454E-03     5.68709E-03
             579     2.66125E-03     71.9060E-03    -14.9230E+06    -57.2210E+06    -10.3582E+06     185.892E+03    -14.5189E-03     29.0367E-03    -14.5178E-03     8.64051E-03    -14.4955E-03     28.7873E-03    -14.4650E-03     8.64187E-03
             580     3.54821E-03     71.9143E-03    -12.7957E+06    -55.0127E+06    -5.39386E+06    -59.7117E+03    -14.4486E-03     28.9780E-03    -14.5294E-03     11.8897E-03    -14.4252E-03     28.7295E-03    -14.4581E-03     11.8875E-03
             581     4.43543E-03     71.9266E-03    -10.8554E+06    -54.7481E+06    -1.49360E+06    -692.439E+03    -14.3724E-03     28.8946E-03    -14.5222E-03     15.1216E-03    -14.3455E-03     28.6392E-03    -14.4345E-03     15.1107E-03
             582     5.32279E-03     71.9410E-03    -8.83497E+06    -54.3638E+06     995.785E+03    -1.05460E+06    -14.2734E-03     28.7692E-03    -14.4958E-03     18.4872E-03    -14.2408E-03     28.5093E-03    -14.3992E-03     18.4711E-03
             583     6.21016E-03     71.9592E-03    -7.62457E+06    -54.9539E+06     1.98023E+06    -1.41661E+06    -14.1679E-03     28.6222E-03    -14.4544E-03     22.0415E-03    -14.1301E-03     28.3566E-03    -14.3537E-03     22.0200E-03
             584     7.09787E-03     71.9796E-03    -6.50375E+06    -56.3805E+06     2.42197E+06    -1.71657E+06    -14.0268E-03     28.4286E-03    -14.4018E-03     25.6490E-03    -13.9826E-03     28.1541E-03    -14.2985E-03     25.6228E-03
             585     7.98533E-03     72.0046E-03    -5.47373E+06    -55.4001E+06     1.32932E+06    -1.60807E+06    -13.8661E-03     28.1937E-03    -14.3277E-03     29.3849E-03    -13.8172E-03     27.9249E-03    -14.2328E-03     29.3590E-03
             586     8.87378E-03     72.0320E-03    -4.21577E+06    -56.1486E+06     2.01680E+06    -1.63191E+06    -13.8399E-03     28.1017E-03    -14.2618E-03     33.2225E-03    -13.7858E-03     27.8275E-03    -14.1642E-03     33.1949E-03
             587     9.76107E-03     72.0635E-03    -2.98906E+06    -57.3511E+06     1.81291E+06    -1.79472E+06    -13.8750E-03     28.0735E-03    -14.1984E-03     37.2160E-03    -13.8145E-03     27.7935E-03    -14.1019E-03     37.1842E-03
             588     10.6498E-03     72.0985E-03    -1.90982E+06    -55.4462E+06    -473.206E+03    -960.672E+03    -13.8666E-03     27.9917E-03    -14.1251E-03     41.2991E-03    -13.8029E-03     27.7258E-03    -14.0443E-03     41.2754E-03
             589     11.5371E-03     72.1381E-03    -1.18640E+06    -47.6020E+06    -507.313E+03    -915.965E+03    -13.8924E-03     27.9502E-03    -14.0579E-03     45.6219E-03    -13.8409E-03     27.7270E-03    -13.9896E-03     45.5954E-03
             590     12.4264E-03     72.1817E-03    -741.777E+03    -33.0198E+06    -686.618E+03    -1.71378E+06    -14.0842E-03     28.0729E-03    -13.9887E-03     51.4062E-03    -14.0596E-03     27.9304E-03    -13.9431E-03     51.3648E-03
             591     13.3130E-03     72.2322E-03    -1.78706E+06    -29.6869E+06    -6.64432E+06    -1.03003E+06    -14.4671E-03     28.3940E-03    -13.9268E-03     55.8108E-03    -14.4584E-03     28.2928E-03    -13.9144E-03     55.7719E-03
             592     14.2021E-03     72.2862E-03    -2.07100E+06    -20.7838E+06    -12.5359E+06    -163.655E+03    -14.9267E-03     28.8060E-03    -13.8793E-03     60.5570E-03    -14.9499E-03     28.7844E-03    -13.9088E-03     60.5246E-03
             593     15.0876E-03     72.3441E-03    -1.92192E+06     19.0508E+06    -15.1452E+06     254.547E+03    -16.5306E-03     30.3670E-03    -13.8364E-03     84.2597E-03    -16.7257E-03     30.6669E-03    -13.9370E-03     84.2397E-03
             594     15.9745E-03     72.4436E-03    -1.17480E+06     73.1458E+06    -18.4160E+06     739.367E+03    -20.7317E-03     34.5392E-03    -13.8075E-03     152.111E-03    -22.1495E-03     36.2658E-03    -14.0039E-03     152.522E-03
             595     16.8637E-03     72.6312E-03    -495.441E+03     143.802E+06     27.1634E+06     187.488E+03    -29.7091E-03     43.7483E-03    -14.0392E-03     274.842E-03    -39.1442E-03     53.6135E-03    -14.1112E-03     281.241E-03
             596     887.394E-06     72.8714E-03    -17.7889E+06    -59.9366E+06    -17.0984E+06    -507.236E+03    -14.3871E-03     28.5925E-03    -14.2054E-03     3.06330E-03    -14.3634E-03     28.3454E-03    -14.1782E-03     3.05632E-03
             597     1.77431E-03     72.8757E-03    -16.5762E+06    -59.1830E+06    -14.3661E+06    -690.973E+03    -14.3130E-03     28.6226E-03    -14.3096E-03     5.62325E-03    -14.2890E-03     28.3715E-03    -14.2716E-03     5.61366E-03
             598     2.66180E-03     72.8814E-03    -14.7380E+06    -57.3429E+06    -10.2187E+06    -758.496E+03    -14.3529E-03     28.6853E-03    -14.3324E-03     8.45146E-03    -14.3286E-03     28.4348E-03    -14.2789E-03     8.44067E-03
             599     3.54907E-03     72.8905E-03    -12.3598E+06    -54.6897E+06    -5.43592E+06    -509.548E+03    -14.3177E-03     28.6687E-03    -14.3511E-03     11.7231E-03    -14.2924E-03     28.4213E-03    -14.2810E-03     11.7150E-03
             600     4.43625E-03     72.9019E-03    -10.0317E+06    -53.7416E+06    -817.754E+03    -868.262E+03    -14.2262E-03     28.5799E-03    -14.3537E-03     15.0369E-03    -14.1976E-03     28.3273E-03    -14.2654E-03     15.0238E-03
             601     5.32361E-03     72.9168E-03    -8.11993E+06    -54.1102E+06     1.60719E+06    -1.35648E+06    -14.1455E-03     28.4789E-03    -14.3334E-03     18.3511E-03    -14.1105E-03     28.2184E-03    -14.2351E-03     18.3311E-03
             602     6.21129E-03     72.9341E-03    -6.16968E+06    -54.5427E+06     3.20606E+06    -1.26664E+06    -14.0886E-03     28.3906E-03    -14.3020E-03     21.7914E-03    -14.0460E-03     28.1232E-03    -14.1979E-03     21.7718E-03
             603     7.09867E-03     72.9553E-03    -4.95636E+06    -55.6891E+06     3.81394E+06    -1.54307E+06    -14.0162E-03     28.2794E-03    -14.2632E-03     25.3311E-03    -13.9672E-03     28.0041E-03    -14.1562E-03     25.3071E-03
             604     7.98665E-03     72.9789E-03    -3.96105E+06    -55.3083E+06     3.28396E+06    -1.91564E+06    -13.8919E-03     28.1015E-03    -14.2095E-03     28.9729E-03    -13.8385E-03     27.8281E-03    -14.1072E-03     28.9430E-03
             605     8.87434E-03     73.0069E-03    -3.23942E+06    -55.8948E+06     3.32739E+06    -1.82434E+06    -13.8556E-03     28.0117E-03    -14.1561E-03     32.7852E-03    -13.7989E-03     27.7354E-03    -14.0537E-03     32.7551E-03
             606     9.76281E-03     73.0382E-03    -3.10545E+06    -56.9397E+06     1.43162E+06    -1.80099E+06    -13.9689E-03     28.0701E-03    -14.1011E-03     36.7109E-03    -13.9091E-03     27.7929E-03    -14.0069E-03     36.6790E-03
             607     10.6499E-03     73.0733E-03    -2.56183E+06    -56.0788E+06    -2.54446E+06    -2.21624E+06    -14.1030E-03     28.1469E-03    -14.0439E-03     40.9278E-03    -14.0388E-03     27.8819E-03    -13.9716E-03     40.8877E-03
             608     11.5385E-03     73.1126E-03    -1.28494E+06    -47.3058E+06    -1.85037E+06    -1.94599E+06    -14.1993E-03     28.2044E-03    -14.0051E-03     45.3379E-03    -14.1470E-03     27.9849E-03    -13.9439E-03     45.2977E-03
             609     12.4253E-03     73.1562E-03    -1.26276E+06    -33.3042E+06    -424.061E+03    -1.00136E+06    -14.4833E-03     28.4572E-03    -13.9740E-03     51.5605E-03    -14.4617E-03     28.3142E-03    -13.9260E-03     51.5275E-03
             610     13.3135E-03     73.2080E-03    -1.46548E+06    -30.2520E+06    -6.47307E+06    -910.599E+03    -14.7419E-03     28.6762E-03    -13.9343E-03     56.0899E-03    -14.7317E-03     28.5722E-03    -13.9207E-03     56.0516E-03
             611     14.2003E-03     73.2595E-03    -1.56747E+06    -21.0442E+06    -13.7727E+06    -825.410E+03    -14.8605E-03     28.7451E-03    -13.8846E-03     60.9694E-03    -14.8793E-03     28.7236E-03    -13.9207E-03     60.9284E-03
             612     15.0889E-03     73.3220E-03    -1.97193E+06     18.8621E+06    -16.1201E+06    -463.916E+03    -16.5459E-03     30.3835E-03    -13.8376E-03     86.7623E-03    -16.7524E-03     30.6967E-03    -13.9427E-03     86.7361E-03
             613     15.9741E-03     73.4193E-03     152.522E+03     74.9403E+06    -16.8904E+06    -552.187E+03    -20.2886E-03     34.0946E-03    -13.8061E-03     151.402E-03    -21.7149E-03     35.8365E-03    -13.9994E-03     151.836E-03
             614     16.8622E-03     73.6034E-03    -947.967E+03     143.681E+06     25.8526E+06     433.688E+03    -30.4603E-03     44.4973E-03    -14.0369E-03     275.068E-03    -40.0511E-03     54.5199E-03    -14.1146E-03     281.346E-03
             615     887.168E-06     73.8472E-03    -16.9482E+06    -58.6612E+06    -16.3139E+06    -568.532E+03    -14.2163E-03     28.3687E-03    -14.1524E-03     2.78949E-03    -14.1914E-03     28.1256E-03    -14.1243E-03     2.78176E-03
             616     1.77496E-03     73.8508E-03    -15.9093E+06    -58.2895E+06    -13.7667E+06    -1.05655E+06    -14.1213E-03     28.3028E-03    -14.1815E-03     5.64581E-03    -14.0962E-03     28.0545E-03    -14.1428E-03     5.63144E-03
             617     2.66203E-03     73.8572E-03    -14.3929E+06    -57.1217E+06    -9.82534E+06    -1.12724E+06    -14.1747E-03     28.3585E-03    -14.1838E-03     8.51728E-03    -14.1496E-03     28.1080E-03    -14.1292E-03     8.50164E-03
             618     3.54936E-03     73.8657E-03    -12.5756E+06    -54.6845E+06    -5.25004E+06    -1.16421E+06    -14.1432E-03     28.3389E-03    -14.1957E-03     11.5613E-03    -14.1193E-03     28.0915E-03    -14.1244E-03     11.5448E-03
             619     4.43703E-03     73.8775E-03    -10.2399E+06    -52.9820E+06    -975.998E+03    -1.19124E+06    -14.0652E-03     28.2590E-03    -14.1938E-03     14.7860E-03    -14.0385E-03     28.0107E-03    -14.1070E-03     14.7687E-03
             620     5.32461E-03     73.8918E-03    -8.27279E+06    -53.4092E+06     1.46071E+06    -1.51566E+06    -14.0484E-03     28.2270E-03    -14.1786E-03     18.1179E-03    -14.0151E-03     27.9704E-03    -14.0818E-03     18.0958E-03
             621     6.21195E-03     73.9095E-03    -6.60631E+06    -54.2473E+06     2.55629E+06    -1.98815E+06    -14.0283E-03     28.1851E-03    -14.1568E-03     21.5906E-03    -13.9873E-03     27.9207E-03    -14.0558E-03     21.5617E-03
             622     7.09986E-03     73.9300E-03    -4.42643E+06    -55.2597E+06     4.19456E+06    -1.90723E+06    -14.0164E-03     28.1522E-03    -14.1358E-03     25.0541E-03    -13.9659E-03     27.8777E-03    -14.0283E-03     25.0253E-03
             623     7.98737E-03     73.9541E-03    -2.93597E+06    -54.7566E+06     4.73176E+06    -1.98403E+06    -14.0610E-03     28.1711E-03    -14.1101E-03     28.6093E-03    -14.0054E-03     27.8970E-03    -14.0028E-03     28.5784E-03
             624     8.87519E-03     73.9814E-03    -1.88652E+06    -56.0447E+06     4.02220E+06    -2.09568E+06    -14.0474E-03     28.1297E-03    -14.0822E-03     32.3629E-03    -13.9848E-03     27.8497E-03    -13.9781E-03     32.3290E-03
             625     9.76260E-03     74.0129E-03    -570.657E+03    -56.5867E+06     1.67932E+06    -1.96764E+06    -14.0435E-03     28.0852E-03    -14.0417E-03     36.3515E-03    -13.9718E-03     27.8058E-03    -13.9505E-03     36.3173E-03
             626     10.6511E-03     74.0480E-03    -667.712E+03    -55.4754E+06    -1.76714E+06    -2.10772E+06    -14.2413E-03     28.2422E-03    -14.0009E-03     40.6383E-03    -14.1696E-03     27.9763E-03    -13.9283E-03     40.5994E-03
             627     11.5380E-03     74.0873E-03    -2.39176E+06    -48.3724E+06    -3.47579E+06    -1.63315E+06    -14.3978E-03     28.3711E-03    -13.9733E-03     45.1151E-03    -14.3471E-03     28.1502E-03    -13.9171E-03     45.0787E-03
             628     12.4264E-03     74.1313E-03    -2.63543E+06    -33.6132E+06    -2.14344E+06    -1.19000E+06    -14.5690E-03     28.5224E-03    -13.9534E-03     51.7956E-03    -14.5516E-03     28.3825E-03    -13.9115E-03     51.7599E-03
             629     13.3136E-03     74.1826E-03    -2.24173E+06    -29.5869E+06    -7.53776E+06    -1.30975E+06    -14.9775E-03     28.9034E-03    -13.9259E-03     56.3921E-03    -14.9711E-03     28.8059E-03    -13.9175E-03     56.3480E-03
             630     14.2010E-03     74.2356E-03    -3.01799E+06    -22.0501E+06    -16.4658E+06    -1.42610E+06    -15.1420E-03     29.0302E-03    -13.8882E-03     60.5618E-03    -15.1637E-03     29.0107E-03    -13.9342E-03     60.5120E-03
             631     15.0886E-03     74.2947E-03    -2.74180E+06     19.6355E+06    -17.5585E+06    -1.11130E+06    -16.3116E-03     30.1565E-03    -13.8449E-03     87.0536E-03    -16.5204E-03     30.4762E-03    -13.9572E-03     87.0216E-03
             632     15.9759E-03     74.3999E-03    -5.60357E+06     73.7451E+06    -22.6996E+06    -642.745E+03    -21.4570E-03     35.2819E-03    -13.8249E-03     152.000E-03    -22.9220E-03     37.0547E-03    -14.0372E-03     152.403E-03
             633     16.8570E-03     74.5795E-03    -4.72644E+06     141.550E+06     19.5014E+06    -97.0844E+03    -30.6792E-03     44.7591E-03    -14.0799E-03     277.508E-03    -40.4857E-03     54.9948E-03    -14.1808E-03     283.969E-03
             634     887.503E-06     74.8223E-03    -15.4249E+06    -57.2851E+06    -15.4239E+06    -807.032E+03    -13.8978E-03     28.0762E-03    -14.1784E-03     2.77244E-03    -13.8686E-03     27.8364E-03    -14.1501E-03     2.76158E-03
             635     1.77473E-03     74.8259E-03    -14.9696E+06    -57.3511E+06    -13.1051E+06    -1.05938E+06    -13.9987E-03     28.0370E-03    -14.0383E-03     5.70511E-03    -13.9712E-03     27.7910E-03    -13.9989E-03     5.69068E-03
             636     2.66266E-03     74.8322E-03    -13.6729E+06    -56.5752E+06    -9.07712E+06    -1.27066E+06    -14.0185E-03     28.0623E-03    -14.0438E-03     8.52886E-03    -13.9917E-03     27.8125E-03    -13.9874E-03     8.51136E-03
             637     3.55013E-03     74.8410E-03    -11.8905E+06    -54.4369E+06    -5.14160E+06    -1.34230E+06    -14.0353E-03     28.0895E-03    -14.0542E-03     11.4404E-03    -14.0085E-03     27.8422E-03    -13.9837E-03     11.4216E-03
             638     4.43750E-03     74.8523E-03    -10.2340E+06    -52.7408E+06    -1.12312E+06    -1.36398E+06    -14.0069E-03     28.0699E-03    -14.0631E-03     14.5719E-03    -13.9803E-03     27.8231E-03    -13.9774E-03     14.5524E-03
             639     5.32511E-03     74.8669E-03    -8.20226E+06    -52.2850E+06     1.69644E+06    -1.77899E+06    -13.9691E-03     28.0285E-03    -14.0594E-03     17.8137E-03    -13.9374E-03     27.7771E-03    -13.9632E-03     17.7883E-03
             640     6.21302E-03     74.8842E-03    -6.32098E+06    -53.3168E+06     2.82394E+06    -2.43631E+06    -13.9852E-03     28.0317E-03    -14.0465E-03     21.2007E-03    -13.9445E-03     27.7711E-03    -13.9459E-03     21.1660E-03
             641     7.10041E-03     74.9050E-03    -5.11831E+06    -55.3329E+06     3.39819E+06    -2.66858E+06    -14.0755E-03     28.1137E-03    -14.0382E-03     24.7222E-03    -14.0273E-03     27.8410E-03    -13.9335E-03     24.6836E-03
             642     7.98812E-03     74.9289E-03    -3.65795E+06    -54.3775E+06     3.39972E+06    -2.46796E+06    -14.1595E-03     28.1886E-03    -14.0291E-03     28.3325E-03    -14.1061E-03     27.9193E-03    -13.9280E-03     28.2953E-03
             643     8.87544E-03     74.9566E-03    -2.38807E+06    -55.6556E+06     3.22572E+06    -2.62852E+06    -14.1790E-03     28.2022E-03    -14.0232E-03     32.1093E-03    -14.1183E-03     27.9261E-03    -13.9229E-03     32.0686E-03
             644     9.76341E-03     74.9873E-03    -2.01354E+06    -56.7064E+06     1.00478E+06    -2.59368E+06    -14.2229E-03     28.2281E-03    -14.0052E-03     36.2492E-03    -14.1573E-03     27.9512E-03    -13.9150E-03     36.2068E-03
             645     10.6506E-03     75.0228E-03    -1.68667E+06    -55.9112E+06    -1.52516E+06    -1.57941E+06    -14.3484E-03     28.3328E-03    -13.9844E-03     40.6015E-03    -14.2815E-03     28.0659E-03    -13.9085E-03     40.5695E-03
             646     11.5387E-03     75.0625E-03    -799.026E+03    -48.2708E+06    -2.38793E+06    -1.33508E+06    -14.4892E-03     28.4551E-03    -13.9658E-03     44.9217E-03    -14.4322E-03     28.2307E-03    -13.9066E-03     44.8890E-03
             647     12.4258E-03     75.1056E-03    -337.189E+03    -33.4767E+06    -1.25267E+06    -1.68063E+06    -14.7438E-03     28.6975E-03    -13.9538E-03     51.6272E-03    -14.7166E-03     28.5539E-03    -13.9110E-03     51.5848E-03
             648     13.3135E-03     75.1585E-03    -300.363E+03    -29.8042E+06    -5.94684E+06    -1.41764E+06    -15.1662E-03     29.1089E-03    -13.9427E-03     56.3040E-03    -15.1521E-03     29.0051E-03    -13.9287E-03     56.2581E-03
             649     14.2003E-03     75.2105E-03    -572.726E+03    -21.5570E+06    -13.4231E+06    -1.07303E+06    -15.6964E-03     29.6290E-03    -13.9326E-03     60.2532E-03    -15.7124E-03     29.6053E-03    -13.9676E-03     60.2058E-03
             650     15.0862E-03     75.2713E-03    -2.86559E+06     17.2147E+06    -18.1973E+06    -721.640E+03    -16.5679E-03     30.4688E-03    -13.9009E-03     87.0012E-03    -16.7730E-03     30.7776E-03    -14.0127E-03     86.9723E-03
             651     15.9734E-03     75.3738E-03    -4.98911E+06     71.7602E+06    -25.1161E+06    -540.146E+03    -21.3233E-03     35.1847E-03    -13.8613E-03     155.796E-03    -22.8261E-03     36.9974E-03    -14.0837E-03     156.210E-03
             652     16.8591E-03     75.5655E-03    -2.82042E+06     142.874E+06     21.1314E+06    -739.644E+03    -29.9319E-03     44.0332E-03    -14.1013E-03     277.493E-03    -39.6504E-03     54.1876E-03    -14.1987E-03     284.169E-03
             653     887.666E-06     75.7970E-03    -15.0672E+06    -56.2401E+06    -14.4354E+06    -762.809E+03    -13.8059E-03     27.7932E-03    -13.9873E-03     2.65537E-03    -13.7779E-03     27.5566E-03    -13.9561E-03     2.64510E-03
             654     1.77551E-03     75.8009E-03    -14.4045E+06    -56.3617E+06    -11.8136E+06    -950.277E+03    -13.9145E-03     27.8265E-03    -13.9120E-03     5.59397E-03    -13.8875E-03     27.5827E-03    -13.8684E-03     5.58095E-03
             655     2.66267E-03     75.8070E-03    -13.0406E+06    -55.8256E+06    -8.38595E+06    -1.28758E+06    -13.9180E-03     27.8470E-03    -13.9290E-03     8.44328E-03    -13.8901E-03     27.5990E-03    -13.8711E-03     8.42558E-03
             656     3.55040E-03     75.8159E-03    -11.5176E+06    -53.9806E+06    -5.43468E+06    -1.53671E+06    -13.9689E-03     27.9119E-03    -13.9430E-03     11.3153E-03    -13.9405E-03     27.6667E-03    -13.8752E-03     11.2940E-03
             657     4.43806E-03     75.8274E-03    -9.54312E+06    -52.2964E+06    -1.61586E+06    -1.62526E+06    -14.0093E-03     27.9743E-03    -13.9650E-03     14.3293E-03    -13.9792E-03     27.7294E-03    -13.8834E-03     14.3064E-03
             658     5.32561E-03     75.8417E-03    -7.70470E+06    -51.2836E+06     2.09483E+06    -2.02368E+06    -13.9959E-03     27.9794E-03    -13.9835E-03     17.5148E-03    -13.9637E-03     27.7317E-03    -13.8874E-03     17.4862E-03
             659     6.21303E-03     75.8591E-03    -6.10579E+06    -52.4402E+06     3.55772E+06    -2.50580E+06    -14.0062E-03     27.9939E-03    -13.9877E-03     20.8691E-03    -13.9668E-03     27.7364E-03    -13.8850E-03     20.8336E-03
             660     7.10090E-03     75.8798E-03    -4.52857E+06    -54.6684E+06     3.53803E+06    -2.95210E+06    -14.0814E-03     28.0674E-03    -13.9860E-03     24.4842E-03    -14.0314E-03     27.7970E-03    -13.8825E-03     24.4419E-03
             661     7.98824E-03     75.9040E-03    -3.58108E+06    -54.5231E+06     3.13810E+06    -2.98874E+06    -14.1593E-03     28.1424E-03    -13.9831E-03     28.1104E-03    -14.1049E-03     27.8726E-03    -13.8832E-03     28.0665E-03
             662     8.87612E-03     75.9312E-03    -3.34517E+06    -55.3412E+06     2.59669E+06    -2.39141E+06    -14.2675E-03     28.2529E-03    -13.9854E-03     31.8341E-03    -14.2111E-03     27.9806E-03    -13.8873E-03     31.7963E-03
             663     9.76337E-03     75.9624E-03    -3.29526E+06    -56.5683E+06     324.020E+03    -2.31820E+06    -14.3905E-03     28.3740E-03    -13.9835E-03     35.9943E-03    -14.3305E-03     28.1006E-03    -13.8951E-03     35.9554E-03
             664     10.6511E-03     75.9978E-03    -2.62374E+06    -56.2067E+06    -3.64637E+06    -2.77904E+06    -14.4662E-03     28.4362E-03    -13.9700E-03     40.4588E-03    -14.4004E-03     28.1721E-03    -13.9029E-03     40.4112E-03
             665     11.5384E-03     76.0371E-03    -1.54042E+06    -48.0897E+06    -4.15402E+06    -2.56810E+06    -14.6543E-03     28.6181E-03    -13.9637E-03     44.9098E-03    -14.5988E-03     28.3984E-03    -13.9125E-03     44.8610E-03
             666     12.4259E-03     76.0813E-03    -722.931E+03    -33.4854E+06    -2.54377E+06    -2.20149E+06    -15.0034E-03     28.9719E-03    -13.9685E-03     51.6440E-03    -14.9765E-03     28.8309E-03    -13.9316E-03     51.5943E-03
             667     13.3129E-03     76.1333E-03    -154.447E+03    -30.1412E+06    -6.82809E+06    -2.04606E+06    -15.3021E-03     29.2730E-03    -13.9708E-03     56.5375E-03    -15.2857E-03     29.1688E-03    -13.9611E-03     56.4830E-03
             668     14.1997E-03     76.1873E-03     60.1687E+03    -22.1447E+06    -12.9621E+06    -1.27446E+06    -15.6478E-03     29.6146E-03    -13.9667E-03     61.1617E-03    -15.6607E-03     29.5866E-03    -13.9995E-03     61.1119E-03
             669     15.0867E-03     76.2473E-03    -63.8883E+03     16.9358E+06    -16.5777E+06    -564.448E+03    -17.1525E-03     31.1012E-03    -13.9487E-03     87.7036E-03    -17.3547E-03     31.4114E-03    -14.0561E-03     87.6727E-03
             670     15.9737E-03     76.3495E-03     634.000E+03     72.6563E+06    -19.8606E+06    -787.974E+03    -20.9435E-03     34.8647E-03    -13.9212E-03     157.275E-03    -22.4571E-03     36.6961E-03    -14.1268E-03     157.717E-03
             671     16.8588E-03     76.5452E-03    -1.12934E+06     143.089E+06     26.0163E+06    -497.648E+03    -29.3548E-03     43.4917E-03    -14.1369E-03     277.489E-03    -39.0164E-03     53.5819E-03    -14.2126E-03     284.167E-03
             672     887.643E-06     76.7718E-03    -15.1617E+06    -55.4528E+06    -14.4060E+06    -282.147E+03    -13.9116E-03     27.6712E-03    -13.7596E-03     2.65086E-03    -13.8853E-03     27.4386E-03    -13.7293E-03     2.64676E-03
             673     1.77505E-03     76.7755E-03    -14.3180E+06    -55.4189E+06    -11.4208E+06    -847.824E+03    -13.8435E-03     27.6944E-03    -13.8509E-03     5.44614E-03    -13.8180E-03     27.4547E-03    -13.8069E-03     5.43447E-03
             674     2.66324E-03     76.7817E-03    -12.7592E+06    -54.9106E+06    -8.14864E+06    -1.38244E+06    -13.8671E-03     27.7341E-03    -13.8670E-03     8.28320E-03    -13.8395E-03     27.4899E-03    -13.8096E-03     8.26426E-03
             675     3.55070E-03     76.7908E-03    -10.9947E+06    -53.1127E+06    -4.83993E+06    -1.73946E+06    -13.9281E-03     27.8146E-03    -13.8864E-03     11.1988E-03    -13.8993E-03     27.5722E-03    -13.8177E-03     11.1748E-03
             676     4.43818E-03     76.8021E-03    -9.33968E+06    -51.6677E+06    -1.79338E+06    -2.06846E+06    -13.9953E-03     27.9066E-03    -13.9114E-03     14.1864E-03    -13.9648E-03     27.6648E-03    -13.8319E-03     14.1577E-03
             677     5.32571E-03     76.8167E-03    -7.53758E+06    -50.5177E+06     1.20444E+06    -2.17678E+06    -14.0587E-03     27.9972E-03    -13.9385E-03     17.3481E-03    -14.0255E-03     27.7544E-03    -13.8483E-03     17.3174E-03
             678     6.21344E-03     76.8339E-03    -5.79183E+06    -51.5324E+06     3.47035E+06    -2.69033E+06    -14.0780E-03     28.0398E-03    -13.9618E-03     20.6604E-03    -14.0382E-03     27.7865E-03    -13.8613E-03     20.6224E-03
             679     7.10078E-03     76.8548E-03    -4.60177E+06    -53.8268E+06     3.64557E+06    -3.12816E+06    -14.0666E-03     28.0357E-03    -13.9691E-03     24.2624E-03    -14.0183E-03     27.7694E-03    -13.8661E-03     24.2178E-03
             680     7.98869E-03     76.8787E-03    -3.58318E+06    -54.4033E+06     3.03189E+06    -3.12337E+06    -14.1791E-03     28.1476E-03    -13.9685E-03     27.9127E-03    -14.1247E-03     27.8785E-03    -13.8692E-03     27.8671E-03
             681     8.87591E-03     76.9064E-03    -1.97221E+06    -55.7526E+06     2.73710E+06    -2.86603E+06    -14.3690E-03     28.3470E-03    -13.9780E-03     31.6544E-03    -14.3054E-03     28.0705E-03    -13.8806E-03     31.6105E-03
             682     9.76341E-03     76.9375E-03    -250.954E+03    -55.8417E+06     1.65777E+06    -2.77264E+06    -14.4746E-03     28.4611E-03    -13.9866E-03     35.7850E-03    -14.4024E-03     28.1850E-03    -13.8969E-03     35.7401E-03
             683     10.6508E-03     76.9726E-03     11.9151E+03    -55.7104E+06    -1.08927E+06    -2.95142E+06    -14.6202E-03     28.6093E-03    -13.9892E-03     40.2870E-03    -14.5457E-03     28.3403E-03    -13.9138E-03     40.2369E-03
             684     11.5382E-03     77.0124E-03    -735.857E+03    -48.5017E+06    -4.08493E+06    -2.94678E+06    -14.8072E-03     28.7922E-03    -13.9850E-03     44.9320E-03    -14.7473E-03     28.5693E-03    -13.9341E-03     44.8781E-03
             685     12.4253E-03     77.0565E-03    -960.288E+03    -33.0713E+06    -3.42958E+06    -2.93803E+06    -15.1258E-03     29.1190E-03    -13.9933E-03     51.9182E-03    -15.0995E-03     28.9819E-03    -13.9611E-03     51.8587E-03
             686     13.3122E-03     77.1093E-03    -1.07853E+06    -30.7262E+06    -8.16849E+06    -2.70840E+06    -15.3587E-03     29.3583E-03    -13.9996E-03     56.6563E-03    -15.3447E-03     29.2551E-03    -13.9943E-03     56.5928E-03
             687     14.1997E-03     77.1621E-03    -1.67590E+06    -23.0475E+06    -16.0691E+06    -2.04965E+06    -15.4932E-03     29.4766E-03    -13.9835E-03     61.1385E-03    -15.5086E-03     29.4509E-03    -14.0280E-03     61.0790E-03
             688     15.0868E-03     77.2237E-03    -1.33998E+06     18.1700E+06    -18.6192E+06    -2.25427E+06    -17.2786E-03     31.2411E-03    -13.9625E-03     89.1082E-03    -17.4938E-03     31.5700E-03    -14.0800E-03     89.0558E-03
             689     15.9698E-03     77.3289E-03     459.356E+03     72.6923E+06    -22.3576E+06    -1.14770E+06    -21.0044E-03     34.9406E-03    -13.9362E-03     157.393E-03    -22.5190E-03     36.7798E-03    -14.1541E-03     157.844E-03
             690     16.8595E-03     77.5165E-03    -929.027E+03     141.765E+06     21.8481E+06     1.13713E+06    -29.5987E-03     43.7410E-03    -14.1424E-03     280.045E-03    -39.4576E-03     54.0366E-03    -14.2373E-03     286.685E-03
             691     887.707E-06     77.7465E-03    -15.7741E+06    -54.5230E+06    -15.6562E+06    -591.641E+03    -13.9533E-03     27.5946E-03    -13.6412E-03     2.86454E-03    -13.9296E-03     27.3692E-03    -13.6176E-03     2.85640E-03
             692     1.77564E-03     77.7501E-03    -14.5369E+06    -54.4071E+06    -12.5791E+06    -897.615E+03    -13.9000E-03     27.7285E-03    -13.8285E-03     5.36649E-03    -13.8754E-03     27.4958E-03    -13.7914E-03     5.35418E-03
             693     2.66276E-03     77.7565E-03    -13.1653E+06    -53.7200E+06    -8.42532E+06    -1.48671E+06    -13.8639E-03     27.7309E-03    -13.8670E-03     8.14459E-03    -13.8396E-03     27.4936E-03    -13.8121E-03     8.12431E-03
             694     3.55064E-03     77.7653E-03    -11.3017E+06    -52.3488E+06    -5.03470E+06    -2.04041E+06    -13.8840E-03     27.7662E-03    -13.8822E-03     11.0701E-03    -13.8575E-03     27.5284E-03    -13.8151E-03     11.0422E-03
             695     4.43833E-03     77.7771E-03    -9.60848E+06    -50.9328E+06    -2.16151E+06    -2.24552E+06    -13.9692E-03     27.8692E-03    -13.9000E-03     14.0740E-03    -13.9406E-03     27.6320E-03    -13.8230E-03     14.0430E-03
             696     5.32592E-03     77.7914E-03    -7.98277E+06    -49.6983E+06     276.779E+03    -2.60693E+06    -14.0698E-03     27.9946E-03    -13.9249E-03     17.2632E-03    -14.0386E-03     27.7579E-03    -13.8398E-03     17.2270E-03
             697     6.21313E-03     77.8091E-03    -6.30572E+06    -50.3391E+06     2.77987E+06    -3.07929E+06    -14.1199E-03     28.0743E-03    -13.9543E-03     20.5315E-03    -14.0834E-03     27.8286E-03    -13.8583E-03     20.4886E-03
             698     7.10090E-03     77.8293E-03    -4.61168E+06    -53.3135E+06     3.68555E+06    -3.38472E+06    -14.1476E-03     28.1216E-03    -13.9740E-03     24.1037E-03    -14.1001E-03     27.8578E-03    -13.8716E-03     24.0559E-03
             699     7.98825E-03     77.8538E-03    -3.08618E+06    -53.7547E+06     2.59247E+06    -3.69930E+06    -14.2258E-03     28.2026E-03    -13.9767E-03     27.8956E-03    -14.1693E-03     27.9367E-03    -13.8814E-03     27.8425E-03
             700     8.87587E-03     77.8813E-03    -1.96280E+06    -55.6226E+06     2.29027E+06    -3.97884E+06    -14.3480E-03     28.3358E-03    -13.9878E-03     31.6788E-03    -14.2838E-03     28.0605E-03    -13.8929E-03     31.6206E-03
             701     9.76327E-03     77.9126E-03    -1.17379E+06    -55.8128E+06     1.05703E+06    -3.66106E+06    -14.5183E-03     28.5152E-03    -13.9970E-03     35.8633E-03    -14.4498E-03     28.2414E-03    -13.9090E-03     35.8070E-03
             702     10.6506E-03     77.9479E-03    -564.196E+03    -55.8018E+06    -1.31934E+06    -3.03264E+06    -14.7293E-03     28.7357E-03    -14.0064E-03     40.4852E-03    -14.6573E-03     28.4674E-03    -13.9312E-03     40.4340E-03
             703     11.5377E-03     77.9878E-03    -273.793E+03    -48.0185E+06    -3.90810E+06    -2.86467E+06    -14.9084E-03     28.9167E-03    -14.0084E-03     45.1741E-03    -14.8470E-03     28.6953E-03    -13.9579E-03     45.1212E-03
             704     12.4250E-03     78.0318E-03    -280.739E+03    -32.8104E+06    -3.01160E+06    -3.17833E+06    -15.1457E-03     29.1656E-03    -14.0199E-03     52.3163E-03    -15.1172E-03     29.0283E-03    -13.9869E-03     52.2537E-03
             705     13.3122E-03     78.0852E-03    -258.248E+03    -30.8806E+06    -6.80372E+06    -2.99788E+06    -15.4646E-03     29.4976E-03    -14.0329E-03     56.8924E-03    -15.4484E-03     29.3905E-03    -14.0218E-03     56.8250E-03
             706     14.1986E-03     78.1375E-03    -231.097E+03    -24.0691E+06    -15.8192E+06    -2.47157E+06    -15.8026E-03     29.8245E-03    -14.0219E-03     61.3178E-03    -15.8108E-03     29.7923E-03    -14.0658E-03     61.2518E-03
             707     15.0852E-03     78.1998E-03    -1.89535E+06     18.9189E+06    -18.6611E+06    -1.97395E+06    -16.6501E-03     30.6379E-03    -13.9877E-03     89.7862E-03    -16.8655E-03     30.9678E-03    -14.1057E-03     89.7428E-03
             708     15.9750E-03     78.3062E-03    -8.40290E+06     70.4253E+06    -28.8777E+06    -540.395E+03    -20.9496E-03     34.8723E-03    -13.9227E-03     158.196E-03    -22.4936E-03     36.7202E-03    -14.1570E-03     158.648E-03
             709     16.8567E-03     78.4946E-03    -5.76109E+06     138.375E+06     13.6186E+06    -188.460E+03    -29.4282E-03     43.5334E-03    -14.1052E-03     281.578E-03    -39.4004E-03     53.9370E-03    -14.2294E-03     288.350E-03
             710     887.924E-06     78.7211E-03    -15.3390E+06    -52.6931E+06    -15.6317E+06    -1.02448E+06    -13.9432E-03     27.6925E-03    -13.7493E-03     2.91501E-03    -13.9200E-03     27.4757E-03    -13.7288E-03     2.90129E-03
             711     1.77496E-03     78.7250E-03    -14.8148E+06    -53.5035E+06    -13.6480E+06    -1.57906E+06    -13.9077E-03     27.7724E-03    -13.8647E-03     5.25020E-03    -13.8843E-03     27.5462E-03    -13.8339E-03     5.22909E-03
             712     2.66307E-03     78.7310E-03    -13.1546E+06    -52.6607E+06    -9.26608E+06    -1.64854E+06    -13.8772E-03     27.7697E-03    -13.8925E-03     8.11950E-03    -13.8532E-03     27.5390E-03    -13.8434E-03     8.09712E-03
             713     3.55049E-03     78.7402E-03    -11.7673E+06    -51.1463E+06    -5.64065E+06    -2.10536E+06    -13.8865E-03     27.7904E-03    -13.9039E-03     11.1062E-03    -13.8632E-03     27.5601E-03    -13.8409E-03     11.0775E-03
             714     4.43811E-03     78.7516E-03    -9.98399E+06    -50.0938E+06    -2.97033E+06    -2.80644E+06    -13.9835E-03     27.9013E-03    -13.9179E-03     14.1199E-03    -13.9568E-03     27.6700E-03    -13.8456E-03     14.0816E-03
             715     5.32560E-03     78.7665E-03    -8.09533E+06    -49.0875E+06    -170.762E+03    -2.86821E+06    -14.0368E-03     27.9765E-03    -13.9397E-03     17.1758E-03    -14.0064E-03     27.7436E-03    -13.8576E-03     17.1362E-03
             716     6.21345E-03     78.7837E-03    -6.87807E+06    -49.1104E+06     2.44774E+06    -3.14083E+06    -14.0984E-03     28.0617E-03    -13.9634E-03     20.5004E-03    -14.0660E-03     27.8236E-03    -13.8700E-03     20.4566E-03
             717     7.10064E-03     78.8046E-03    -5.59650E+06    -52.3768E+06     3.16024E+06    -3.92406E+06    -14.2218E-03     28.2069E-03    -13.9851E-03     24.1180E-03    -14.1799E-03     27.9500E-03    -13.8853E-03     24.0632E-03
             718     7.98819E-03     78.8285E-03    -4.45578E+06    -53.1647E+06     1.68567E+06    -4.19797E+06    -14.2562E-03     28.2483E-03    -13.9921E-03     27.9356E-03    -14.2060E-03     27.9887E-03    -13.9002E-03     27.8761E-03
             719     8.87571E-03     78.8564E-03     -3.6692E+06    -54.6246E+06     1.81132E+06    -4.47717E+06    -14.3539E-03     28.3599E-03    -14.0060E-03     31.7332E-03    -14.2990E-03     28.0928E-03    -13.9124E-03     31.6686E-03
             720     9.76317E-03     78.8875E-03    -2.54062E+06    -56.1812E+06     89.8209E+03    -4.60853E+06    -14.5578E-03     28.5729E-03    -14.0150E-03     35.8423E-03    -14.4943E-03     28.3006E-03    -13.9294E-03     35.7738E-03
             721     10.6505E-03     78.9233E-03    -1.13170E+06    -55.9468E+06    -2.97241E+06    -4.16758E+06    -14.7750E-03     28.7966E-03    -14.0217E-03     40.4583E-03    -14.7032E-03     28.5308E-03    -13.9538E-03     40.3924E-03
             722     11.5378E-03     78.9629E-03     162.268E+03    -47.8203E+06    -3.29676E+06    -3.93103E+06    -14.9989E-03     29.0354E-03    -14.0365E-03     45.1685E-03    -14.9366E-03     28.8135E-03    -13.9839E-03     45.1017E-03
             723     12.4247E-03     79.0076E-03     823.157E+03    -32.6904E+06    -1.97261E+06    -3.38965E+06    -15.2267E-03     29.2802E-03    -14.0535E-03     52.1993E-03    -15.1943E-03     29.1404E-03    -14.0172E-03     52.1338E-03
             724     13.3118E-03     79.0605E-03     624.208E+03    -31.1910E+06    -6.04875E+06    -2.98704E+06    -15.4371E-03     29.5029E-03    -14.0658E-03     56.9574E-03    -15.4169E-03     29.3917E-03    -14.0518E-03     56.8902E-03
             725     14.1986E-03     79.1144E-03    -301.687E+03    -24.0153E+06    -14.4397E+06    -2.70662E+06    -15.8463E-03     29.9030E-03    -14.0566E-03     61.9748E-03    -15.8578E-03     29.8700E-03    -14.0936E-03     61.9056E-03
             726     15.0851E-03     79.1756E-03    -1.73214E+06     15.8034E+06    -17.5458E+06    -878.086E+03    -17.0189E-03     31.0551E-03    -14.0362E-03     89.1942E-03    -17.2310E-03     31.3680E-03    -14.1443E-03     89.1619E-03
             727     15.9710E-03     79.2800E-03    -711.913E+03     69.3771E+06    -20.1209E+06     172.906E+03    -20.5709E-03     34.5640E-03    -13.9931E-03     158.216E-03    -22.1010E-03     36.3963E-03    -14.1933E-03     158.686E-03
             728     16.8591E-03     79.4770E-03    -702.065E+03     140.640E+06     24.4627E+06    -643.696E+03    -28.6231E-03     42.7810E-03    -14.1578E-03     280.179E-03    -38.5174E-03     53.1011E-03    -14.2384E-03     287.081E-03
             729     887.147E-06     79.6961E-03    -15.0059E+06    -50.7346E+06    -13.9337E+06    -916.382E+03    -13.9149E-03     27.8588E-03    -13.9438E-03     2.94412E-03    -13.8954E-03     27.6487E-03    -13.9182E-03     2.93179E-03
             730     1.77547E-03     79.6995E-03    -13.8894E+06    -51.9289E+06    -12.3025E+06    -1.92581E+06    -13.8543E-03     27.7771E-03    -13.9229E-03     5.39461E-03    -13.8305E-03     27.5555E-03    -13.8889E-03     5.36899E-03
             731     2.66258E-03     79.7061E-03    -12.8305E+06    -52.0188E+06    -9.92282E+06    -2.27487E+06    -13.9270E-03     27.8455E-03    -13.9184E-03     8.12067E-03    -13.9014E-03     27.6185E-03    -13.8740E-03     8.09020E-03
             732     3.55049E-03     79.7146E-03    -11.0355E+06    -49.7883E+06    -5.93400E+06    -2.32436E+06    -13.9540E-03     27.8906E-03    -13.9366E-03     11.0716E-03    -13.9286E-03     27.6665E-03    -13.8780E-03     11.0401E-03
             733     4.43803E-03     79.7269E-03    -9.50129E+06    -48.6007E+06    -2.58196E+06    -3.00413E+06    -13.9866E-03     27.9408E-03    -13.9542E-03     14.1547E-03    -13.9602E-03     27.7157E-03    -13.8829E-03     14.1140E-03
             734     5.32556E-03     79.7412E-03    -7.88666E+06    -48.6492E+06    -497.899E+03    -3.60689E+06    -14.0345E-03     28.0027E-03    -13.9682E-03     17.1626E-03    -14.0033E-03     27.7722E-03    -13.8887E-03     17.1135E-03
             735     6.21296E-03     79.7588E-03    -5.72449E+06    -48.5867E+06     2.31399E+06    -3.34668E+06    -14.1143E-03     28.1017E-03    -13.9873E-03     20.4901E-03    -14.0768E-03     27.8646E-03    -13.8970E-03     20.4437E-03
             736     7.10069E-03     79.7795E-03    -4.83389E+06    -50.8377E+06     4.27315E+06    -3.60386E+06    -14.2160E-03     28.2275E-03    -14.0115E-03     24.0300E-03    -14.1741E-03     27.9756E-03    -13.9094E-03     23.9793E-03
             737     7.98803E-03     79.8036E-03    -3.95538E+06    -52.1632E+06     2.99975E+06    -4.58158E+06    -14.3226E-03     28.3440E-03    -14.0213E-03     27.7849E-03    -14.2733E-03     28.0867E-03    -13.9250E-03     27.7205E-03
             738     8.87546E-03     79.8313E-03    -2.46931E+06    -53.7752E+06     1.87084E+06    -5.08201E+06    -14.4531E-03     28.4869E-03    -14.0338E-03     31.7203E-03    -14.3935E-03     28.2222E-03    -13.9429E-03     31.6478E-03
             739     9.76267E-03     79.8630E-03    -1.76617E+06    -55.6542E+06    -257.144E+03    -5.31050E+06    -14.6354E-03     28.6823E-03    -14.0469E-03     35.8294E-03    -14.5682E-03     28.4120E-03    -13.9649E-03     35.7518E-03
             740     10.6500E-03     79.8983E-03    -1.38962E+06    -55.9447E+06    -3.66494E+06    -5.36685E+06    -14.8291E-03     28.8856E-03    -14.0565E-03     40.4376E-03    -14.7576E-03     28.6212E-03    -13.9917E-03     40.3561E-03
             741     11.5369E-03     79.9388E-03    -1.07644E+06    -47.8177E+06    -4.43053E+06    -4.99433E+06    -15.0264E-03     29.0974E-03    -14.0710E-03     45.2615E-03    -14.9687E-03     28.8790E-03    -14.0223E-03     45.1808E-03
             742     12.4241E-03     79.9830E-03    -628.203E+03    -33.6357E+06    -3.70192E+06    -4.18906E+06    -15.2874E-03     29.3746E-03    -14.0872E-03     52.3471E-03    -15.2585E-03     29.2348E-03    -14.0560E-03     52.2711E-03
             743     13.3108E-03     80.0367E-03    -400.005E+03    -31.2136E+06    -6.91676E+06    -3.26309E+06    -15.4323E-03     29.5336E-03    -14.1013E-03     56.9681E-03    -15.4164E-03     29.4255E-03    -14.0901E-03     56.8970E-03
             744     14.1983E-03     80.0893E-03    -755.497E+03    -24.6633E+06    -15.6535E+06    -2.54676E+06    -15.6145E-03     29.6954E-03    -14.0809E-03     62.0199E-03    -15.6253E-03     29.6614E-03    -14.1223E-03     61.9532E-03
             745     15.0850E-03     80.1532E-03    -512.392E+03     13.4441E+06    -19.7896E+06    -1.56637E+06    -17.2392E-03     31.2894E-03    -14.0503E-03     90.6800E-03    -17.4442E-03     31.5978E-03    -14.1680E-03     90.6369E-03
             746     15.9697E-03     80.2579E-03     1.76488E+06     70.0835E+06    -21.2961E+06    -1.26834E+06    -20.6576E-03     34.6681E-03    -14.0105E-03     159.177E-03    -22.2060E-03     36.5333E-03    -14.2212E-03     159.650E-03
             747     16.8584E-03     80.4481E-03    -455.764E+03     141.691E+06     23.0842E+06     15.5132E+03    -29.1115E-03     43.2949E-03    -14.1834E-03     281.762E-03    -39.1148E-03     53.7327E-03    -14.2728E-03     288.572E-03
             748     887.821E-06     80.6704E-03    -14.1454E+06    -49.0392E+06    -13.4233E+06    -832.729E+03    -13.9561E-03     27.8966E-03    -13.9406E-03     2.73659E-03    -13.9354E-03     27.6931E-03    -13.9161E-03     2.72536E-03
             749     1.77492E-03     80.6746E-03    -13.5554E+06    -49.8425E+06    -11.0002E+06    -1.65504E+06    -13.9343E-03     27.8920E-03    -13.9577E-03     5.39306E-03    -13.9137E-03     27.6785E-03    -13.9208E-03     5.37098E-03
             750     2.66296E-03     80.6807E-03    -12.4769E+06    -50.5553E+06    -8.96812E+06    -2.67225E+06    -14.0093E-03     27.9802E-03    -13.9709E-03     8.07807E-03    -13.9854E-03     27.7586E-03    -13.9244E-03     8.04247E-03
             751     3.55008E-03     80.6898E-03    -10.8563E+06    -49.0728E+06    -6.15484E+06    -3.04884E+06    -14.0041E-03     27.9936E-03    -13.9895E-03     10.9948E-03    -13.9784E-03     27.7731E-03    -13.9334E-03     10.9539E-03
             752     4.43768E-03     80.7015E-03    -9.03186E+06    -47.1692E+06    -2.48601E+06    -3.03787E+06    -13.9539E-03     27.9526E-03    -13.9988E-03     14.1139E-03    -13.9274E-03     27.7339E-03    -13.9297E-03     14.0728E-03
             753     5.32538E-03     80.7163E-03    -7.82391E+06    -47.3169E+06    -245.102E+03    -3.84553E+06    -14.0485E-03     28.0530E-03    -14.0045E-03     17.2305E-03    -14.0192E-03     27.8287E-03    -13.9258E-03     17.1783E-03
             754     6.21290E-03     80.7337E-03    -6.57828E+06    -48.3865E+06     1.24236E+06    -4.34596E+06    -14.1607E-03     28.1798E-03    -14.0191E-03     20.5382E-03    -14.1262E-03     27.9466E-03    -13.9332E-03     20.4789E-03
             755     7.10020E-03     80.7546E-03    -4.03887E+06    -49.9199E+06     3.83570E+06    -4.06214E+06    -14.2576E-03     28.3016E-03    -14.0439E-03     24.0713E-03    -14.2124E-03     28.0537E-03    -13.9465E-03     24.0147E-03
             756     7.98772E-03     80.7788E-03    -2.41881E+06    -50.1465E+06     3.89635E+06    -4.79129E+06    -14.3973E-03     28.4569E-03    -14.0597E-03     27.7584E-03    -14.3445E-03     28.2062E-03    -13.9640E-03     27.6912E-03
             757     8.87496E-03     80.8066E-03    -1.91852E+06    -53.1891E+06     1.80507E+06    -5.60838E+06    -14.5168E-03     28.5904E-03    -14.0736E-03     31.7210E-03    -14.4552E-03     28.3280E-03    -13.9847E-03     31.6417E-03
             758     9.76240E-03     80.8381E-03    -1.30752E+06    -54.9629E+06    -481.331E+03    -5.57438E+06    -14.6784E-03     28.7651E-03    -14.0867E-03     35.9847E-03    -14.6096E-03     28.4979E-03    -14.0075E-03     35.9036E-03
             759     10.6494E-03     80.8740E-03    -1.41852E+06    -55.4469E+06    -3.28920E+06    -5.60410E+06    -14.8714E-03     28.9715E-03    -14.1001E-03     40.5953E-03    -14.8012E-03     28.7090E-03    -14.0341E-03     40.5108E-03
             760     11.5368E-03     80.9139E-03    -1.69560E+06    -48.0667E+06    -5.88034E+06    -5.32931E+06    -15.0061E-03     29.1108E-03    -14.1048E-03     45.5001E-03    -14.9490E-03     28.8942E-03    -14.0620E-03     45.4151E-03
             761     12.4237E-03     80.9591E-03    -1.77009E+06    -34.2734E+06    -5.13024E+06    -4.80180E+06    -15.2245E-03     29.3407E-03    -14.1163E-03     52.6447E-03    -15.1983E-03     29.2015E-03    -14.0896E-03     52.5608E-03
             762     13.3109E-03     81.0120E-03    -1.67958E+06    -32.0283E+06    -8.10120E+06    -3.81403E+06    -15.5475E-03     29.6785E-03    -14.1310E-03     57.3397E-03    -15.5356E-03     29.5704E-03    -14.1226E-03     57.2611E-03
             763     14.1970E-03     81.0659E-03    -2.07360E+06    -25.3915E+06    -17.5932E+06    -3.12438E+06    -15.6471E-03     29.7564E-03    -14.1093E-03     62.0569E-03    -15.6611E-03     29.7239E-03    -14.1574E-03     61.9825E-03
             764     15.0847E-03     81.1277E-03    -2.17796E+06     13.8704E+06    -21.0039E+06    -3.32182E+06    -16.4266E-03     30.4830E-03    -14.0565E-03     91.0085E-03    -16.6363E-03     30.7952E-03    -14.1784E-03     90.9486E-03
             765     15.9736E-03     81.2364E-03    -5.29646E+06      68.163E+06    -29.2293E+06    -1.85449E+06    -20.9753E-03     34.9544E-03    -13.9791E-03     159.362E-03    -22.5427E-03     36.8298E-03    -14.2164E-03     159.814E-03
             766     16.8564E-03     81.4249E-03    -5.02855E+06     139.086E+06     13.7741E+06     218.916E+03    -29.3736E-03     43.5298E-03    -14.1562E-03     282.463E-03    -39.4403E-03     54.0326E-03    -14.2817E-03     289.312E-03
             767     887.357E-06     81.6458E-03    -14.1892E+06    -47.6006E+06    -14.1351E+06    -947.688E+03    -13.9496E-03     27.9259E-03    -13.9762E-03     2.70190E-03    -13.9302E-03     27.7306E-03    -13.9573E-03     2.68926E-03
             768     1.77521E-03     81.6492E-03    -13.7425E+06    -48.0139E+06    -11.6057E+06    -1.34265E+06    -14.0756E-03     28.0711E-03    -13.9955E-03     5.43616E-03    -14.0577E-03     27.8678E-03    -13.9640E-03     5.41811E-03
             769     2.66221E-03     81.6559E-03    -12.6730E+06    -48.1869E+06    -8.03988E+06    -2.52774E+06    -14.0459E-03     28.0830E-03    -14.0371E-03     8.14316E-03    -14.0278E-03     27.8722E-03    -13.9890E-03     8.10943E-03
             770     3.54999E-03     81.6647E-03    -11.2467E+06    -47.9349E+06    -5.65738E+06    -3.49894E+06    -14.0099E-03     28.0561E-03    -14.0462E-03     10.9924E-03    -13.9886E-03     27.8411E-03    -13.9887E-03     10.9457E-03
             771     4.43762E-03     81.6764E-03    -9.49428E+06    -46.5855E+06    -3.04186E+06    -3.70347E+06    -14.0006E-03     28.0460E-03    -14.0454E-03     14.0963E-03    -13.9765E-03     27.8316E-03    -13.9793E-03     14.0465E-03
             772     5.32510E-03     81.6912E-03    -7.65868E+06    -45.6741E+06    -276.171E+03    -3.74288E+06    -14.0477E-03     28.0952E-03    -14.0475E-03     17.2871E-03    -14.0200E-03     27.8789E-03    -13.9715E-03     17.2362E-03
             773     6.21256E-03     81.7089E-03    -6.48791E+06    -47.0771E+06     1.28592E+06    -4.54021E+06    -14.1761E-03     28.2337E-03    -14.0576E-03     20.5729E-03    -14.1431E-03     28.0068E-03    -13.9735E-03     20.5110E-03
             774     7.10011E-03     81.7296E-03    -5.57140E+06    -49.3367E+06     1.88792E+06    -5.30004E+06    -14.3185E-03     28.3942E-03    -14.0757E-03     24.1954E-03    -14.2790E-03     28.1543E-03    -13.9867E-03     24.1228E-03
             775     7.98728E-03     81.7541E-03    -4.14729E+06    -48.8841E+06     2.22805E+06    -5.24375E+06    -14.4419E-03     28.5361E-03    -14.0942E-03     27.9088E-03    -14.3971E-03     28.2966E-03    -14.0061E-03     27.8358E-03
             776     8.87468E-03     81.7818E-03    -3.26318E+06    -51.8961E+06     2.09996E+06    -5.60045E+06    -14.5618E-03     28.6801E-03    -14.1183E-03     31.7920E-03    -14.5091E-03     28.4255E-03    -14.0278E-03     31.7129E-03
             777     9.76178E-03     81.8136E-03    -2.67762E+06    -54.2569E+06    -402.847E+03    -6.29719E+06    -14.6853E-03     28.8156E-03    -14.1303E-03     36.1164E-03    -14.6245E-03     28.5538E-03    -14.0498E-03     36.0260E-03
             778     10.6492E-03     81.8493E-03    -1.36169E+06    -55.1952E+06    -2.78837E+06    -6.17061E+06    -14.8595E-03     29.0004E-03    -14.1409E-03     40.7239E-03    -14.7903E-03     28.7385E-03    -14.0728E-03     40.6320E-03
             779     11.5360E-03     81.8898E-03    -753.343E+03    -48.2936E+06    -4.99007E+06    -5.64991E+06    -15.0053E-03     29.1484E-03    -14.1431E-03     45.5877E-03    -14.9446E-03     28.9281E-03    -14.0970E-03     45.4986E-03
             780     12.4234E-03     81.9343E-03    -763.525E+03    -34.5328E+06    -4.14970E+06    -4.93932E+06    -15.2082E-03     29.3597E-03    -14.1515E-03     52.7537E-03    -15.1782E-03     29.2164E-03    -14.1211E-03     52.6681E-03
             781     13.3103E-03     81.9883E-03    -592.179E+03    -32.8052E+06    -7.30018E+06    -4.46194E+06    -15.5231E-03     29.6849E-03    -14.1619E-03     57.5928E-03    -15.5056E-03     29.5701E-03    -14.1499E-03     57.5060E-03
             782     14.1975E-03     82.0418E-03    -268.688E+03    -25.5865E+06    -15.3127E+06    -3.67292E+06    -15.7649E-03     29.9111E-03    -14.1463E-03     62.0112E-03    -15.7734E-03     29.8723E-03    -14.1853E-03     61.9292E-03
             783     15.0837E-03     82.1036E-03    -2.48850E+06     12.6939E+06    -19.8114E+06    -2.26591E+06    -16.4603E-03     30.5567E-03    -14.0963E-03     90.2591E-03    -16.6695E-03     30.8596E-03    -14.2102E-03     90.2124E-03
             784     15.9706E-03     82.2100E-03    -6.39414E+06     64.6630E+06    -30.5404E+06    -1.26876E+06    -20.7001E-03     34.6980E-03    -13.9979E-03     161.294E-03    -22.2785E-03     36.5718E-03    -14.2351E-03     161.757E-03
             785     16.8570E-03     82.4081E-03    -3.41525E+06     138.454E+06     14.1178E+06    -1.09787E+06    -28.5131E-03     42.6575E-03    -14.1445E-03     281.767E-03    -38.4482E-03     53.0312E-03    -14.2697E-03     288.767E-03
             786     887.821E-06     82.6203E-03    -15.1382E+06    -46.2439E+06    -14.4473E+06    -690.162E+03    -13.9665E-03     28.0533E-03    -14.0868E-03     2.90479E-03    -13.9533E-03     27.8667E-03    -14.0700E-03     2.89547E-03
             787     1.77478E-03     82.6248E-03    -14.3803E+06    -46.5637E+06    -11.9144E+06    -1.32183E+06    -14.0801E-03     28.1290E-03    -14.0489E-03     5.45583E-03    -14.0670E-03     27.9343E-03    -14.0201E-03     5.43804E-03
             788     2.66253E-03     82.6308E-03    -13.0365E+06    -45.9032E+06    -8.25901E+06    -2.22594E+06    -14.0442E-03     28.1158E-03    -14.0716E-03     8.20081E-03    -14.0309E-03     27.9173E-03    -14.0275E-03     8.17099E-03
             789     3.54988E-03     82.6398E-03    -11.5919E+06    -45.7415E+06    -5.23644E+06    -3.60386E+06    -14.0811E-03     28.1640E-03    -14.0830E-03     11.0779E-03    -14.0653E-03     27.9599E-03    -14.0260E-03     11.0299E-03
             790     4.43720E-03     82.6514E-03    -9.71758E+06    -45.6418E+06    -2.86474E+06    -4.49134E+06    -14.1068E-03     28.2004E-03    -14.0936E-03     14.0614E-03    -14.0854E-03     27.9908E-03    -14.0276E-03     14.0014E-03
             791     5.32479E-03     82.6662E-03    -7.76661E+06    -45.0750E+06    -852.567E+03    -4.39326E+06    -14.0884E-03     28.1857E-03    -14.0973E-03     17.2774E-03    -14.0613E-03     27.9735E-03    -14.0249E-03     17.2181E-03
             792     6.21241E-03     82.6840E-03    -6.11711E+06    -45.3511E+06     1.40133E+06    -4.39481E+06    -14.1902E-03     28.2951E-03    -14.1050E-03     20.6351E-03    -14.1580E-03     28.0762E-03    -14.0233E-03     20.5752E-03
             793     7.09961E-03     82.7050E-03    -5.08774E+06    -47.7762E+06     3.15061E+06    -5.27077E+06    -14.3273E-03     28.4516E-03    -14.1242E-03     24.1788E-03    -14.2895E-03     28.2169E-03    -14.0318E-03     24.1066E-03
             794     7.98713E-03     82.7293E-03    -4.24718E+06    -48.4926E+06     2.94299E+06    -5.80983E+06    -14.4454E-03     28.5837E-03    -14.1383E-03     28.0001E-03    -14.4027E-03     28.3452E-03    -14.0471E-03     27.9198E-03
             795     8.87422E-03     82.7574E-03    -3.16192E+06    -50.5808E+06     1.94917E+06    -5.86358E+06    -14.6157E-03     28.7708E-03    -14.1551E-03     31.9003E-03    -14.5643E-03     28.5230E-03    -14.0674E-03     31.8176E-03
             796     9.76157E-03     82.7888E-03    -2.46936E+06    -52.7371E+06    -68.2826E+03    -6.61510E+06    -14.7303E-03     28.9004E-03    -14.1701E-03     36.1595E-03    -14.6712E-03     28.6455E-03    -14.0903E-03     36.0650E-03
             797     10.6486E-03     82.8250E-03    -2.50120E+06    -55.0916E+06    -3.93957E+06    -7.13738E+06    -14.8376E-03     29.0126E-03    -14.1750E-03     40.8193E-03    -14.7726E-03     28.7546E-03    -14.1112E-03     40.7150E-03
             798     11.5361E-03     82.8651E-03    -2.01187E+06    -48.6745E+06    -5.52927E+06    -6.45508E+06    -15.0100E-03     29.1878E-03    -14.1778E-03     45.6687E-03    -14.9544E-03     28.9683E-03    -14.1319E-03     45.5691E-03
             799     12.4228E-03     82.9103E-03    -1.04347E+06    -34.7674E+06    -4.21023E+06    -5.90829E+06    -15.2536E-03     29.4398E-03    -14.1862E-03     52.8969E-03    -15.2247E-03     29.2960E-03    -14.1553E-03     52.7985E-03
             800     13.3100E-03     82.9638E-03    -148.599E+03    -33.0332E+06    -7.60307E+06    -5.41306E+06    -15.3984E-03     29.5876E-03    -14.1892E-03     57.7621E-03    -15.3778E-03     29.4713E-03    -14.1791E-03     57.6633E-03
             801     14.1965E-03     83.0182E-03    -330.179E+03    -26.7215E+06    -14.9012E+06    -4.28308E+06    -15.6313E-03     29.7999E-03    -14.1687E-03     62.4100E-03    -15.6390E-03     29.7549E-03    -14.2039E-03     62.3206E-03
             802     15.0838E-03     83.0796E-03    -199.204E+03     10.2797E+06    -18.8595E+06    -2.17577E+06    -17.0707E-03     31.2019E-03    -14.1312E-03     90.5232E-03    -17.2728E-03     31.4945E-03    -14.2402E-03     90.4734E-03
             803     15.9709E-03     83.1861E-03     1.79140E+06     64.7651E+06    -23.1522E+06    -921.711E+03    -20.1707E-03     34.2235E-03    -14.0528E-03     161.458E-03    -21.7228E-03     36.0790E-03    -14.2651E-03     161.951E-03
             804     16.8590E-03     83.3840E-03    -146.239E+03     138.903E+06     21.2153E+06    -970.975E+03    -28.2201E-03     42.4014E-03    -14.1813E-03     281.560E-03    -38.1563E-03     52.7687E-03    -14.2764E-03     288.528E-03
             805     887.051E-06     83.5959E-03    -15.4670E+06    -44.7885E+06    -14.4093E+06    -307.917E+03    -14.1341E-03     28.2142E-03    -14.0801E-03     3.06886E-03    -14.1247E-03     28.0352E-03    -14.0647E-03     3.06450E-03
             806     1.77493E-03     83.5997E-03    -14.4714E+06    -45.0899E+06    -11.4949E+06    -1.28150E+06    -14.0393E-03     28.1472E-03    -14.1079E-03     5.39538E-03    -14.0295E-03     27.9595E-03    -14.0790E-03     5.37816E-03
             807     2.66227E-03     83.6060E-03    -13.0753E+06    -44.3089E+06    -8.47986E+06    -2.14470E+06    -14.0546E-03     28.1546E-03    -14.1000E-03     8.15112E-03    -14.0435E-03     27.9644E-03    -14.0592E-03     8.12237E-03
             808     3.54976E-03     83.6150E-03    -11.6079E+06    -42.8895E+06    -4.85910E+06    -3.40228E+06    -14.1275E-03     28.2392E-03    -14.1118E-03     11.1381E-03    -14.1164E-03     28.0488E-03    -14.0570E-03     11.0927E-03
             809     4.43718E-03     83.6268E-03    -10.1415E+06    -43.5884E+06    -2.58438E+06    -4.87351E+06    -14.1831E-03     28.3136E-03    -14.1304E-03     14.1526E-03    -14.1673E-03     28.1145E-03    -14.0654E-03     14.0877E-03
             810     5.32448E-03     83.6412E-03    -8.27396E+06    -44.7124E+06    -1.13442E+06    -5.24230E+06    -14.2239E-03     28.3695E-03    -14.1456E-03     17.3355E-03    -14.1994E-03     28.1602E-03    -14.0744E-03     17.2652E-03
             811     6.21184E-03     83.6591E-03    -6.25528E+06    -44.3767E+06     1.53144E+06    -5.13023E+06    -14.2402E-03     28.4011E-03    -14.1609E-03     20.7126E-03    -14.2103E-03     28.1871E-03    -14.0798E-03     20.6431E-03
             812     7.09938E-03     83.6803E-03    -4.45697E+06    -46.0252E+06     4.04426E+06    -5.34777E+06    -14.3215E-03     28.4993E-03    -14.1778E-03     24.2200E-03    -14.2843E-03     28.2712E-03    -14.0844E-03     24.1469E-03
             813     7.98659E-03     83.7046E-03    -3.11929E+06    -47.3916E+06     3.42550E+06    -6.06511E+06    -14.4490E-03     28.6328E-03    -14.1838E-03     28.0219E-03    -14.4031E-03     28.3976E-03    -14.0934E-03     27.9382E-03
             814     8.87407E-03     83.7329E-03    -1.52144E+06    -49.2357E+06     2.49594E+06    -7.07129E+06    -14.6088E-03     28.8033E-03    -14.1945E-03     32.0079E-03    -14.5520E-03     28.5591E-03    -14.1085E-03     31.9096E-03
             815     9.76096E-03     83.7645E-03    -31.0520E+03    -51.9406E+06     910.288E+03    -7.07157E+06    -14.7783E-03     28.9868E-03    -14.2085E-03     36.1975E-03    -14.7096E-03     28.7310E-03    -14.1286E-03     36.0969E-03
             816     10.6484E-03     83.8004E-03     22.5929E+03    -54.5571E+06    -2.08263E+06    -6.55750E+06    -14.8859E-03     29.1040E-03    -14.2181E-03     40.8388E-03    -14.8118E-03     28.8424E-03    -14.1494E-03     40.7418E-03
             817     11.5352E-03     83.8409E-03    -830.063E+03    -48.4564E+06    -5.02728E+06    -6.88255E+06    -14.9992E-03     29.2136E-03    -14.2144E-03     45.7988E-03    -14.9387E-03     28.9927E-03    -14.1681E-03     45.6936E-03
             818     12.4226E-03     83.8859E-03    -591.476E+03    -34.1754E+06    -5.04785E+06    -7.27162E+06    -15.2111E-03     29.4227E-03    -14.2116E-03     53.1388E-03    -15.1796E-03     29.2824E-03    -14.1864E-03     53.0229E-03
             819     13.3093E-03     83.9399E-03    -236.681E+03    -34.1432E+06    -10.5674E+06    -6.48999E+06    -15.3465E-03     29.5480E-03    -14.2015E-03     57.8118E-03    -15.3208E-03     29.4309E-03    -14.2045E-03     57.6990E-03
             820     14.1972E-03     83.9933E-03    -688.802E+03    -28.3350E+06    -19.0398E+06    -4.61586E+06    -15.5127E-03     29.6815E-03    -14.1688E-03     62.5026E-03    -15.5137E-03     29.6347E-03    -14.2219E-03     62.4093E-03
             821     15.0838E-03     84.0565E-03    -727.086E+03     10.4035E+06    -21.8972E+06    -4.23222E+06    -17.0593E-03     31.1871E-03    -14.1277E-03     91.6431E-03    -17.2651E-03     31.4907E-03    -14.2513E-03     91.5678E-03
             822     15.9683E-03     84.1638E-03     1.22353E+06     63.7137E+06    -27.9920E+06    -2.64871E+06    -20.5081E-03     34.5612E-03    -14.0531E-03     160.212E-03    -22.0513E-03     36.4161E-03    -14.2872E-03     160.677E-03
             823     16.8576E-03     84.3541E-03    -246.111E+03     137.673E+06     16.6387E+06     681.736E+03    -28.7762E-03     42.9768E-03    -14.2006E-03     283.144E-03    -38.8776E-03     53.5178E-03    -14.3166E-03     290.056E-03
             824     887.635E-06     84.5712E-03    -15.7787E+06    -43.5456E+06    -15.0168E+06    -741.673E+03    -14.2091E-03     28.2563E-03    -14.0472E-03     2.98451E-03    -14.2022E-03     28.0848E-03    -14.0362E-03     2.97451E-03
             825     1.77467E-03     84.5748E-03    -13.8991E+06    -43.3397E+06    -11.8978E+06    -1.57299E+06    -14.0811E-03     28.2114E-03    -14.1303E-03     5.43869E-03    -14.0704E-03     28.0322E-03    -14.1068E-03     5.41768E-03
             826     2.66224E-03     84.5812E-03    -12.4419E+06    -42.8020E+06    -8.17796E+06     -2.2281E+06    -14.1225E-03     28.2570E-03    -14.1345E-03     8.24504E-03    -14.1108E-03     28.0730E-03    -14.0953E-03     8.21517E-03
             827     3.54963E-03     84.5902E-03    -10.8975E+06    -40.6113E+06    -4.41952E+06    -2.99697E+06    -14.1512E-03     28.3001E-03    -14.1490E-03     11.1350E-03    -14.1405E-03     28.1195E-03    -14.0964E-03     11.0948E-03
             828     4.43705E-03     84.6020E-03    -9.85348E+06    -40.7174E+06    -1.61301E+06    -4.47064E+06    -14.2143E-03     28.3823E-03    -14.1680E-03     14.1122E-03    -14.2025E-03     28.1957E-03    -14.1027E-03     14.0525E-03
             829     5.32435E-03     84.6167E-03    -8.52512E+06    -43.3229E+06    -534.859E+03    -5.94231E+06    -14.2898E-03     28.4764E-03    -14.1865E-03     17.4119E-03    -14.2695E-03     28.2735E-03    -14.1140E-03     17.3327E-03
             830     6.21156E-03     84.6345E-03    -6.70534E+06    -43.7166E+06     576.341E+03    -6.14798E+06    -14.3298E-03     28.5309E-03    -14.2011E-03     20.8613E-03    -14.3017E-03     28.3222E-03    -14.1251E-03     20.7786E-03
             831     7.09891E-03     84.6555E-03    -4.83197E+06    -45.0069E+06     2.73705E+06    -6.16038E+06    -14.3795E-03     28.5988E-03    -14.2193E-03     24.3740E-03    -14.3438E-03     28.3783E-03    -14.1334E-03     24.2903E-03
             832     7.98629E-03     84.6802E-03    -2.94303E+06    -45.3208E+06     2.83869E+06    -6.88310E+06    -14.4580E-03     28.6830E-03    -14.2250E-03     28.1168E-03    -14.4133E-03     28.4587E-03    -14.1408E-03     28.0226E-03
             833     8.87340E-03     84.7081E-03    -2.05388E+06    -47.5904E+06     2.06088E+06    -7.77186E+06    -14.5376E-03     28.7682E-03    -14.2306E-03     32.1693E-03    -14.4852E-03     28.5335E-03    -14.1483E-03     32.0620E-03
             834     9.76097E-03     84.7403E-03    -1.69952E+06    -51.8863E+06    -491.037E+03    -7.88143E+06    -14.6985E-03     28.9318E-03    -14.2333E-03     36.4777E-03    -14.6362E-03     28.6807E-03    -14.1580E-03     36.3668E-03
             835     10.6477E-03     84.7760E-03    -562.917E+03    -54.4828E+06    -3.44312E+06    -7.32178E+06    -14.8935E-03     29.1291E-03    -14.2357E-03     41.1923E-03    -14.8204E-03     28.8706E-03    -14.1731E-03     41.0855E-03
             836     11.5352E-03     84.8165E-03     832.745E+03    -46.9037E+06    -5.14040E+06    -7.39693E+06    -15.0018E-03     29.2323E-03    -14.2305E-03     46.2245E-03    -14.9350E-03     29.0169E-03    -14.1894E-03     46.1127E-03
             837     12.4221E-03     84.8616E-03     622.164E+03    -34.0501E+06    -5.10001E+06    -7.43405E+06    -15.1401E-03     29.3658E-03    -14.2257E-03     53.5079E-03    -15.1027E-03     29.2245E-03    -14.2027E-03     53.3901E-03
             838     13.3097E-03     84.9156E-03    -427.858E+03    -34.7526E+06    -10.6212E+06    -6.70199E+06    -15.3960E-03     29.6119E-03    -14.2158E-03     58.1590E-03    -15.3703E-03     29.4920E-03    -14.2179E-03     58.0437E-03
             839     14.1957E-03     84.9692E-03    -782.861E+03    -30.3827E+06    -20.2374E+06    -5.63677E+06    -15.6609E-03     29.8449E-03    -14.1840E-03     62.7674E-03    -15.6583E-03     29.7904E-03    -14.2400E-03     62.6608E-03
             840     15.0832E-03     85.0321E-03    -1.76111E+06     10.8507E+06    -22.3056E+06    -4.08527E+06    -16.4044E-03     30.5328E-03    -14.1285E-03     92.0151E-03    -16.6103E-03     30.8357E-03    -14.2532E-03     91.9470E-03
             841     15.9725E-03     85.1409E-03    -8.36230E+06     60.3346E+06    -35.3979E+06    -2.35040E+06    -20.9014E-03     34.9263E-03    -14.0249E-03     161.728E-03    -22.4897E-03     36.8018E-03    -14.2773E-03     162.183E-03
             842     16.8544E-03     85.3324E-03    -5.67778E+06     133.025E+06     6.19213E+06    -1.02688E+06    -28.5660E-03     42.7184E-03    -14.1524E-03     284.614E-03    -38.6980E-03     53.2846E-03    -14.3061E-03     291.648E-03
             843     887.059E-06     85.5462E-03    -14.6311E+06    -41.2870E+06    -14.8717E+06    -1.46902E+06    -14.2089E-03     28.2731E-03    -14.0642E-03     2.77905E-03    -14.1998E-03     28.1111E-03    -14.0575E-03     2.75966E-03
             844     1.77496E-03     85.5502E-03    -13.9865E+06    -41.6022E+06    -12.6118E+06    -2.25505E+06    -14.1430E-03     28.2878E-03    -14.1447E-03     5.43294E-03    -14.1342E-03     28.1184E-03    -14.1272E-03     5.40308E-03
             845     2.66209E-03     85.5564E-03    -12.2484E+06    -41.0522E+06    -8.43245E+06    -2.74710E+06    -14.1691E-03     28.3332E-03    -14.1640E-03     8.25007E-03    -14.1586E-03     28.1580E-03    -14.1289E-03     8.21349E-03
             846     3.54945E-03     85.5656E-03    -10.1617E+06    -39.0853E+06    -4.34185E+06    -3.20295E+06    -14.2147E-03     28.3996E-03    -14.1849E-03     11.2508E-03    -14.2027E-03     28.2254E-03    -14.1352E-03     11.2079E-03
             847     4.43670E-03     85.5774E-03    -8.25858E+06    -38.2604E+06    -443.786E+03    -4.02542E+06    -14.2552E-03     28.4645E-03    -14.2093E-03     14.1919E-03    -14.2408E-03     28.2862E-03    -14.1440E-03     14.1379E-03
             848     5.32411E-03     85.5921E-03    -7.46011E+06    -40.5756E+06     1.12119E+06    -5.58578E+06    -14.2686E-03     28.4941E-03    -14.2255E-03     17.4093E-03    -14.2493E-03     28.3010E-03    -14.1503E-03     17.3346E-03
             849     6.21155E-03     85.6099E-03    -6.50921E+06    -42.6462E+06     452.635E+03    -6.77365E+06    -14.3541E-03     28.5837E-03    -14.2296E-03     20.9645E-03    -14.3264E-03     28.3803E-03    -14.1561E-03     20.8738E-03
             850     7.09863E-03     85.6311E-03    -4.85368E+06    -43.7008E+06     1.26212E+06    -7.29390E+06    -14.4266E-03     28.6680E-03    -14.2414E-03     24.5737E-03    -14.3908E-03     28.4562E-03    -14.1647E-03     24.4753E-03
             851     7.98588E-03     85.6555E-03    -3.62112E+06    -43.8402E+06     1.81825E+06    -7.62833E+06    -14.4383E-03     28.6865E-03    -14.2482E-03     28.3823E-03    -14.3977E-03     28.4721E-03    -14.1703E-03     28.2786E-03
             852     8.87338E-03     85.6838E-03    -2.91294E+06    -46.2501E+06     1.73122E+06    -7.66609E+06    -14.4933E-03     28.7449E-03    -14.2516E-03     32.4044E-03    -14.4466E-03     28.5186E-03    -14.1717E-03     32.2986E-03
             853     9.76051E-03     85.7155E-03    -2.61147E+06    -50.9535E+06    -855.327E+03    -8.12119E+06    -14.6006E-03     28.8471E-03    -14.2465E-03     36.7034E-03    -14.5436E-03     28.6024E-03    -14.1731E-03     36.5896E-03
             854     10.6483E-03     85.7518E-03    -1.94767E+06    -53.3297E+06    -5.57381E+06    -9.20684E+06    -14.8043E-03     29.0356E-03    -14.2314E-03     41.4169E-03    -14.7366E-03     28.7879E-03    -14.1791E-03     41.2859E-03
             855     11.5350E-03     85.7920E-03    -1.25471E+06    -47.1212E+06    -6.56219E+06    -8.72525E+06    -14.9844E-03     29.2128E-03    -14.2283E-03     46.3923E-03    -14.9257E-03     29.0014E-03    -14.1910E-03     46.2635E-03
             856     12.4225E-03     85.8374E-03    -1.34844E+06    -34.4432E+06    -5.05440E+06    -7.01749E+06    -15.1551E-03     29.3861E-03    -14.2310E-03     53.6335E-03    -15.1271E-03     29.2457E-03    -14.2044E-03     53.5210E-03
             857     13.3093E-03     85.8911E-03    -1.75215E+06    -34.7362E+06    -9.90285E+06    -6.57753E+06    -15.3295E-03     29.5509E-03    -14.2214E-03     58.4566E-03    -15.3113E-03     29.4319E-03    -14.2180E-03     58.3430E-03
             858     14.1970E-03     85.9458E-03    -2.18760E+06    -30.3290E+06    -18.9810E+06    -6.69262E+06    -15.6713E-03     29.8614E-03    -14.1901E-03     63.4583E-03    -15.6784E-03     29.8081E-03    -14.2378E-03     63.3379E-03
             859     15.0830E-03     86.0078E-03    -2.87340E+06     7.26550E+06    -21.8692E+06    -4.78908E+06    -16.7144E-03     30.8602E-03    -14.1458E-03     91.2537E-03    -16.9213E-03     31.1461E-03    -14.2615E-03     91.1742E-03
             860     15.9703E-03     86.1142E-03    -708.493E+03     57.8950E+06    -23.7760E+06    -2.04718E+06    -20.0927E-03     34.1617E-03    -14.0691E-03     162.163E-03    -21.6664E-03     36.0075E-03    -14.2709E-03     162.645E-03
             861     16.8588E-03     86.3155E-03    -280.430E+03     134.060E+06     20.4612E+06    -1.33733E+06    -27.9142E-03     42.0902E-03    -14.1760E-03     282.748E-03    -37.9116E-03     52.5033E-03    -14.2676E-03     289.838E-03
             862     887.721E-06     86.5218E-03    -14.1195E+06    -38.5739E+06    -13.3543E+06    -1.56272E+06    -14.1994E-03     28.3239E-03    -14.1245E-03     2.86324E-03    -14.1939E-03     28.1726E-03    -14.1149E-03     2.84271E-03
             863     1.77444E-03     86.5254E-03    -13.1910E+06    -39.0474E+06    -11.5555E+06    -2.70278E+06    -14.1989E-03     28.3761E-03    -14.1771E-03     5.45665E-03    -14.1914E-03     28.2168E-03    -14.1592E-03     5.42103E-03
             864     2.66206E-03     86.5319E-03    -11.8601E+06    -39.3458E+06    -8.37164E+06    -3.53827E+06    -14.2057E-03     28.4051E-03    -14.1994E-03     8.29594E-03    -14.1958E-03     28.2378E-03    -14.1670E-03     8.24913E-03
             865     3.54940E-03     86.5409E-03    -9.98162E+06    -37.6458E+06    -4.66217E+06    -3.99977E+06    -14.2204E-03     28.4357E-03    -14.2154E-03     11.2894E-03    -14.2091E-03     28.2689E-03    -14.1696E-03     11.2362E-03
             866     4.43674E-03     86.5530E-03    -7.96072E+06    -36.6847E+06    -1.22073E+06    -4.37356E+06    -14.2507E-03     28.4809E-03    -14.2302E-03     14.3118E-03    -14.2359E-03     28.3111E-03    -14.1716E-03     14.2534E-03
             867     5.32392E-03     86.5674E-03    -6.09980E+06    -37.7994E+06     1.79139E+06    -5.08489E+06    -14.3144E-03     28.5629E-03    -14.2485E-03     17.5198E-03    -14.2933E-03     28.3807E-03    -14.1759E-03     17.4516E-03
             868     6.21120E-03     86.5854E-03    -5.04985E+06    -40.2300E+06     2.16057E+06    -6.70194E+06    -14.3313E-03     28.5875E-03    -14.2562E-03     21.0403E-03    -14.3023E-03     28.3915E-03    -14.1797E-03     20.9505E-03
             869     7.09869E-03     86.6066E-03    -4.35793E+06    -42.0043E+06     1.56983E+06    -7.88929E+06    -14.3383E-03     28.5918E-03    -14.2535E-03     24.6397E-03    -14.3029E-03     28.3873E-03    -14.1784E-03     24.5338E-03
             870     7.98603E-03     86.6310E-03    -3.23117E+06    -42.7943E+06     1.69362E+06    -8.20806E+06    -14.3963E-03     28.6464E-03    -14.2501E-03     28.5432E-03    -14.3550E-03     28.4368E-03    -14.1749E-03     28.4320E-03
             871     8.87325E-03     86.6591E-03    -1.92485E+06    -45.6841E+06     1.77465E+06    -8.10980E+06    -14.4876E-03     28.7383E-03    -14.2507E-03     32.6026E-03    -14.4368E-03     28.5134E-03    -14.1728E-03     32.4911E-03
             872     9.76075E-03     86.6911E-03    -857.051E+03    -48.8970E+06     964.764E+03    -8.50636E+06    -14.6235E-03     28.8747E-03    -14.2512E-03     36.9011E-03    -14.5634E-03     28.6351E-03    -14.1742E-03     36.7823E-03
             873     10.6476E-03     86.7270E-03    -1.27863E+06    -51.8952E+06    -3.09130E+06    -9.07364E+06    -14.7732E-03     29.0144E-03    -14.2412E-03     41.5532E-03    -14.7080E-03     28.7694E-03    -14.1796E-03     41.4240E-03
             874     11.5354E-03     86.7679E-03    -2.90347E+06    -48.2573E+06    -5.74876E+06    -8.39282E+06    -14.9318E-03     29.1657E-03    -14.2339E-03     46.4629E-03    -14.8810E-03     28.9499E-03    -14.1884E-03     46.3383E-03
             875     12.4222E-03     86.8128E-03    -2.98773E+06    -34.5751E+06    -5.32147E+06    -7.83136E+06    -15.1753E-03     29.4043E-03    -14.2290E-03     53.7845E-03    -15.1551E-03     29.2662E-03    -14.2011E-03     53.6614E-03
             876     13.3095E-03     86.8673E-03    -1.47766E+06    -33.9368E+06    -9.92792E+06    -8.01782E+06    -15.3115E-03     29.5285E-03    -14.2170E-03     58.4008E-03    -15.2935E-03     29.4136E-03    -14.2153E-03     58.2684E-03
             877     14.1964E-03     86.9206E-03    -668.909E+03    -30.9040E+06    -19.0155E+06    -7.30440E+06    -15.4710E-03     29.6501E-03    -14.1790E-03     63.5231E-03    -15.4693E-03     29.5914E-03    -14.2283E-03     63.3954E-03
             878     15.0839E-03     86.9853E-03    -178.522E+03     4.82371E+06    -23.0662E+06    -5.82575E+06    -16.8820E-03     31.0086E-03    -14.1266E-03     92.5018E-03    -17.0752E-03     31.2851E-03    -14.2486E-03     92.4078E-03
             879     15.9683E-03     87.0911E-03    -234.457E+03     56.7372E+06    -27.3917E+06    -4.72413E+06    -20.0564E-03     34.0992E-03    -14.0428E-03     162.230E-03    -21.6392E-03     35.9620E-03    -14.2617E-03     162.699E-03
             880     16.8595E-03     87.2845E-03    -3.01958E+06     133.271E+06     14.9423E+06    -1.72156E+06    -28.6517E-03     42.8109E-03    -14.1592E-03     283.829E-03    -38.7647E-03     53.3430E-03    -14.2733E-03     290.772E-03
             881     886.990E-06     87.4972E-03    -12.4863E+06    -35.9241E+06    -12.1175E+06    -1.19429E+06    -14.1825E-03     28.3913E-03    -14.2088E-03     2.88337E-03    -14.1744E-03     28.2490E-03    -14.1991E-03     2.86762E-03
             882     1.77489E-03     87.5008E-03    -12.2756E+06     -36.096E+06    -10.1924E+06    -2.61498E+06    -14.2341E-03     28.4458E-03    -14.2116E-03     5.48142E-03    -14.2283E-03     28.2979E-03    -14.1925E-03     5.44693E-03
             883     2.66188E-03     87.5074E-03    -11.0094E+06    -36.9018E+06    -7.46114E+06    -4.10475E+06    -14.2646E-03     28.5016E-03    -14.2370E-03     8.30811E-03    -14.2554E-03     28.3439E-03    -14.2048E-03     8.25398E-03
             884     3.54912E-03     87.5164E-03    -9.31333E+06    -36.2375E+06    -4.33794E+06    -4.76280E+06    -14.1930E-03     28.4407E-03    -14.2477E-03     11.2448E-03    -14.1809E-03     28.2795E-03    -14.2033E-03     11.1818E-03
             885     4.43657E-03     87.5283E-03    -7.45554E+06    -35.0253E+06    -1.30212E+06    -5.09874E+06    -14.1880E-03     28.4325E-03    -14.2445E-03     14.3951E-03    -14.1730E-03     28.2705E-03    -14.1894E-03     14.3273E-03
             886     5.32403E-03     87.5431E-03    -5.50618E+06    -36.1110E+06     1.14607E+06    -5.59155E+06    -14.3015E-03     28.5513E-03    -14.2498E-03     17.6881E-03    -14.2790E-03     28.3777E-03    -14.1837E-03     17.6135E-03
             887     6.21118E-03     87.5609E-03    -4.06366E+06    -37.1548E+06     3.09075E+06    -6.52776E+06    -14.3353E-03     28.5959E-03    -14.2606E-03     21.1233E-03    -14.3071E-03     28.4125E-03    -14.1854E-03     21.0359E-03
             888     7.09852E-03     87.5819E-03    -3.00958E+06    -40.0406E+06     3.86393E+06    -7.96012E+06    -14.3038E-03     28.5671E-03    -14.2633E-03     24.6616E-03    -14.2678E-03     28.3671E-03    -14.1816E-03     24.5548E-03
             889     7.98604E-03     87.6064E-03    -2.22647E+06    -41.4580E+06     3.11763E+06    -8.61231E+06    -14.3351E-03     28.5863E-03    -14.2513E-03     28.5155E-03    -14.2928E-03     28.3799E-03    -14.1723E-03     28.3992E-03
             890     8.87351E-03     87.6346E-03    -1.39211E+06    -44.6962E+06     2.45400E+06    -8.95802E+06    -14.4634E-03     28.7086E-03    -14.2452E-03     32.6351E-03    -14.4124E-03     28.4869E-03    -14.1661E-03     32.5127E-03
             891     9.76071E-03     87.6665E-03    -605.876E+03    -47.6192E+06     1.32528E+06    -9.09425E+06    -14.6387E-03     28.8828E-03    -14.2441E-03     37.0039E-03    -14.5797E-03     28.6488E-03    -14.1675E-03     36.8774E-03
             892     10.6482E-03     87.7028E-03    -18.5435E+03    -51.4439E+06    -1.55994E+06    -8.63387E+06    -14.7944E-03     29.0360E-03    -14.2415E-03     41.6322E-03    -14.7258E-03     28.7892E-03    -14.1747E-03     41.5086E-03
             893     11.5350E-03     87.7431E-03     952.166E+03    -48.1700E+06    -4.64587E+06    -8.33994E+06    -14.9235E-03     29.1523E-03    -14.2288E-03     46.6292E-03    -14.8553E-03     28.9299E-03    -14.1835E-03     46.5053E-03
             894     12.4226E-03     87.7890E-03     1.31430E+06    -33.9575E+06    -4.59761E+06    -8.31549E+06    -15.1206E-03     29.3377E-03    -14.2170E-03     54.0133E-03    -15.0809E-03     29.1954E-03    -14.1927E-03     53.8841E-03
             895     13.3094E-03     87.8426E-03    -111.267E+03    -32.9768E+06    -9.68335E+06    -8.32248E+06    -15.4119E-03     29.6189E-03    -14.2070E-03     58.6908E-03    -15.3893E-03     29.5069E-03    -14.2075E-03     58.5541E-03
             896     14.1966E-03     87.8970E-03    -1.63027E+06    -31.9823E+06    -20.4833E+06    -8.37885E+06    -15.4660E-03     29.6361E-03    -14.1701E-03     63.4298E-03    -15.4654E-03     29.5756E-03    -14.2238E-03     63.2882E-03
             897     15.0838E-03     87.9598E-03    -1.98251E+06     4.51048E+06    -23.2500E+06    -7.58336E+06    -16.2345E-03     30.3409E-03    -14.1064E-03     92.3081E-03    -16.4317E-03     30.6144E-03    -14.2263E-03     92.1961E-03
             898     15.9742E-03     88.0686E-03    -2.48461E+06     53.4069E+06    -32.5941E+06    -4.36855E+06    -20.8117E-03     34.8192E-03    -14.0075E-03     161.589E-03    -22.3862E-03     36.6689E-03    -14.2443E-03     162.034E-03
             899     16.8551E-03     88.2613E-03    -1.66692E+06     128.389E+06     7.40355E+06    -755.653E+03    -28.9944E-03     43.1309E-03    -14.1365E-03     284.792E-03    -39.1759E-03     53.7408E-03    -14.2832E-03     291.807E-03
             900     887.575E-06     88.4724E-03    -10.8475E+06    -33.3721E+06    -10.6539E+06    -1.09333E+06    -14.2010E-03     28.4285E-03    -14.2275E-03     2.94998E-03    -14.1905E-03     28.2945E-03    -14.2166E-03     2.93546E-03
             901     1.77438E-03     88.4765E-03    -10.5804E+06    -33.2328E+06    -8.57872E+06    -2.07185E+06    -14.2742E-03     28.5082E-03    -14.2340E-03     5.63983E-03    -14.2664E-03     28.3698E-03    -14.2134E-03     5.61232E-03
             902     2.66179E-03     88.4830E-03    -10.0144E+06    -33.6568E+06    -5.70271E+06    -3.80855E+06    -14.2627E-03     28.5238E-03    -14.2611E-03     8.35306E-03    -14.2557E-03     28.3784E-03    -14.2263E-03     8.30278E-03
             903     3.54918E-03     88.4918E-03    -8.85662E+06    -34.1527E+06    -3.47168E+06    -5.32189E+06    -14.2103E-03     28.4767E-03    -14.2664E-03     11.2447E-03    -14.2002E-03     28.3240E-03    -14.2214E-03     11.1744E-03
             904     4.43658E-03     88.5036E-03    -6.99397E+06    -33.4118E+06    -1.18393E+06    -5.94843E+06    -14.1778E-03     28.4356E-03    -14.2578E-03     14.4025E-03    -14.1629E-03     28.2807E-03    -14.2051E-03     14.3238E-03
             905     5.32390E-03     88.5186E-03    -5.19318E+06    -34.5038E+06     1.25300E+06    -6.31631E+06    -14.1766E-03     28.4267E-03    -14.2501E-03     17.7164E-03    -14.1550E-03     28.2605E-03    -14.1862E-03     17.6324E-03
             906     6.21140E-03     88.5364E-03    -3.62706E+06    -34.9889E+06     3.24532E+06    -6.83057E+06    -14.2453E-03     28.4895E-03    -14.2442E-03     21.2054E-03    -14.2184E-03     28.3160E-03    -14.1720E-03     21.1141E-03
             907     7.09868E-03     88.5574E-03    -2.57466E+06    -37.3619E+06     4.79252E+06    -7.92591E+06    -14.3455E-03     28.5937E-03    -14.2482E-03     24.8307E-03    -14.3126E-03     28.4051E-03    -14.1663E-03     24.7243E-03
             908     7.98595E-03     88.5817E-03    -1.62564E+06    -40.3543E+06     4.30097E+06    -8.84360E+06    -14.3843E-03     28.6305E-03    -14.2462E-03     28.6082E-03    -14.3423E-03     28.4270E-03    -14.1638E-03     28.4888E-03
             909     8.87344E-03     88.6099E-03    -961.827E+03    -43.0038E+06     3.18711E+06    -9.17109E+06    -14.4300E-03     28.6690E-03    -14.2391E-03     32.7196E-03    -14.3803E-03     28.4541E-03    -14.1594E-03     32.5945E-03
             910     9.76081E-03     88.6421E-03    -480.104E+03    -46.6762E+06    -268.259E+03    -9.66384E+06    -14.5582E-03     28.7814E-03    -14.2232E-03     37.1715E-03    -14.4976E-03     28.5542E-03    -14.1561E-03     37.0378E-03
             911     10.6479E-03     88.6782E-03     226.391E+03    -51.2187E+06    -4.05917E+06    -9.58414E+06    -14.7477E-03     28.9596E-03    -14.2120E-03     41.9000E-03    -14.6745E-03     28.7172E-03    -14.1583E-03     41.7642E-03
             912     11.5355E-03     88.7190E-03     240.534E+03    -47.4437E+06    -6.72864E+06    -9.37091E+06    -14.9189E-03     29.1195E-03    -14.2005E-03     46.9347E-03    -14.8522E-03     28.9047E-03    -14.1657E-03     46.7976E-03
             913     12.4225E-03     88.7641E-03     44.9540E+03    -34.0860E+06    -6.12173E+06    -8.68992E+06    -15.1108E-03     29.3049E-03    -14.1941E-03     54.2526E-03    -15.0750E-03     29.1661E-03    -14.1754E-03     54.1186E-03
             914     13.3101E-03     88.8188E-03     550.632E+03    -32.3751E+06    -8.96163E+06    -8.02600E+06    -15.4108E-03     29.6025E-03    -14.1918E-03     59.0506E-03    -15.3865E-03     29.4913E-03    -14.1905E-03     58.9181E-03
             915     14.1966E-03     88.8729E-03     215.273E+03    -30.4875E+06    -17.8381E+06    -8.47365E+06    -15.6926E-03     29.8617E-03    -14.1691E-03     63.2806E-03    -15.6894E-03     29.8028E-03    -14.2144E-03     63.1371E-03
             916     15.0837E-03     88.9351E-03    -1.52010E+06     2.25582E+06    -23.0522E+06    -7.70147E+06    -16.4536E-03     30.5685E-03    -14.1149E-03     91.6754E-03    -16.6431E-03     30.8274E-03    -14.2312E-03     91.5600E-03
             917     15.9687E-03     89.0431E-03    -5.15175E+06     47.4698E+06    -32.8548E+06    -4.38260E+06    -20.6212E-03     34.6403E-03    -14.0190E-03     163.690E-03    -22.2133E-03     36.4778E-03    -14.2447E-03     164.136E-03
             918     16.8582E-03     89.2425E-03    -3.01640E+06     126.125E+06     8.27490E+06    -2.02154E+06    -28.3525E-03     42.4763E-03    -14.1237E-03     284.412E-03    -38.4508E-03     52.9877E-03    -14.2609E-03     291.558E-03
             919     887.156E-06     89.4481E-03    -10.9722E+06    -31.2656E+06    -9.87925E+06    -1.05273E+06    -14.2405E-03     28.4506E-03    -14.2100E-03     2.97604E-03    -14.2349E-03     28.3262E-03    -14.1982E-03     2.96204E-03
             920     1.77475E-03     89.4520E-03    -9.39326E+06    -30.8317E+06    -6.83387E+06    -2.01528E+06    -14.2480E-03     28.4906E-03    -14.2426E-03     5.68019E-03    -14.2402E-03     28.3600E-03    -14.2184E-03     5.65344E-03
             921     2.66191E-03     89.4585E-03    -8.16882E+06    -30.4746E+06    -3.80541E+06    -3.11757E+06    -14.2348E-03     28.4915E-03    -14.2567E-03     8.36824E-03    -14.2259E-03     28.3565E-03    -14.2197E-03     8.32691E-03
             922     3.54914E-03     89.4673E-03    -7.35811E+06    -30.9047E+06    -1.70187E+06    -5.01779E+06    -14.2200E-03     28.4801E-03    -14.2601E-03     11.2757E-03    -14.2097E-03     28.3389E-03    -14.2131E-03     11.2094E-03
             923     4.43635E-03     89.4792E-03    -6.38494E+06    -31.5169E+06    -158.275E+03     -6.4588E+06    -14.1675E-03     28.4203E-03    -14.2528E-03     14.5286E-03    -14.1539E-03     28.2726E-03    -14.1987E-03     14.4433E-03
             924     5.32392E-03     89.4938E-03    -4.85425E+06    -32.9450E+06     1.57221E+06    -6.92103E+06    -14.1265E-03     28.3653E-03    -14.2388E-03     17.8223E-03    -14.1059E-03     28.2059E-03    -14.1761E-03     17.7305E-03
             925     6.21147E-03     89.5117E-03    -3.54661E+06    -33.5859E+06     3.11800E+06    -7.12680E+06    -14.1507E-03     28.3733E-03    -14.2226E-03     21.2438E-03    -14.1252E-03     28.2069E-03    -14.1532E-03     21.1487E-03
             926     7.09904E-03     89.5328E-03    -2.56383E+06    -34.6727E+06     4.53222E+06    -7.79833E+06    -14.2612E-03     28.4767E-03    -14.2155E-03     24.8854E-03    -14.2318E-03     28.3019E-03    -14.1388E-03     24.7807E-03
             927     7.98631E-03     89.5573E-03    -1.68624E+06    -38.1835E+06     3.94130E+06    -9.23098E+06    -14.3868E-03     28.5991E-03    -14.2122E-03     28.8009E-03    -14.3478E-03     28.4071E-03    -14.1347E-03     28.6765E-03
             928     8.87349E-03     89.5852E-03    -335.740E+03    -41.9669E+06     2.09005E+06    -9.99547E+06    -14.4182E-03     28.6224E-03    -14.2042E-03     33.0140E-03    -14.3653E-03     28.4133E-03    -14.1324E-03     32.8783E-03
             929     9.76108E-03     89.6174E-03     384.008E+03    -45.3886E+06     264.590E+03    -9.71334E+06    -14.4881E-03     28.6820E-03    -14.1939E-03     37.5051E-03    -14.4258E-03     28.4592E-03    -14.1273E-03     37.3709E-03
             930     10.6487E-03     89.6536E-03    -64.2526E+03    -50.3285E+06    -3.01698E+06    -10.0580E+06    -14.7019E-03     28.8864E-03    -14.1846E-03     42.1834E-03    -14.6329E-03     28.6474E-03    -14.1266E-03     42.0416E-03
             931     11.5358E-03     89.6944E-03     421.131E+03    -46.5541E+06    -4.43963E+06    -10.3554E+06    -14.9423E-03     29.1224E-03    -14.1801E-03     47.1310E-03    -14.8793E-03     28.9085E-03    -14.1354E-03     46.9812E-03
             932     12.4231E-03     89.7400E-03     1.97024E+06    -34.6313E+06    -4.72619E+06    -10.0224E+06    -15.2011E-03     29.3756E-03    -14.1745E-03     54.4102E-03    -15.1571E-03     29.2293E-03    -14.1507E-03     54.2589E-03
             933     13.3098E-03     89.7943E-03     2.98443E+06    -32.2286E+06    -9.01894E+06    -9.38373E+06    -15.3607E-03     29.5259E-03    -14.1652E-03     59.3278E-03    -15.3243E-03     29.4119E-03    -14.1679E-03     59.1780E-03
             934     14.1973E-03     89.8492E-03     3.14205E+06    -29.8574E+06    -14.2456E+06    -8.38566E+06    -15.6910E-03     29.8486E-03    -14.1576E-03     63.9290E-03    -15.6797E-03     29.7837E-03    -14.1900E-03     63.7867E-03
             935     15.0833E-03     89.9115E-03     370.306E+03    -1.10174E+06    -21.6755E+06    -5.95355E+06    -17.1285E-03     31.2472E-03    -14.1188E-03     92.0177E-03    -17.3129E-03     31.4919E-03    -14.2261E-03     91.9204E-03
             936     15.9730E-03     90.0184E-03    -46.7082E+03     46.6718E+06    -27.8374E+06    -4.95956E+06    -20.3620E-03     34.4074E-03    -14.0454E-03     163.342E-03    -21.9333E-03     36.2250E-03    -14.2522E-03     163.798E-03
             937     16.8586E-03     90.2189E-03    -1.31529E+06     125.162E+06     13.1031E+06    -3.66577E+06    -28.1311E-03     42.2767E-03    -14.1457E-03     283.364E-03    -38.2044E-03     52.7518E-03    -14.2597E-03     290.467E-03
             938     887.373E-06     90.4236E-03    -10.1981E+06    -28.5815E+06    -9.74786E+06    -1.30204E+06    -14.2364E-03     28.4988E-03    -14.2625E-03     3.03420E-03    -14.2309E-03     28.3865E-03    -14.2550E-03     3.01697E-03
             939     1.77441E-03     90.4275E-03    -9.45821E+06    -28.7135E+06    -7.21856E+06    -2.30796E+06    -14.1712E-03     28.4153E-03    -14.2441E-03     5.59169E-03    -14.1663E-03     28.2960E-03    -14.2249E-03     5.56117E-03
             940     2.66192E-03     90.4340E-03    -7.76554E+06    -28.1503E+06    -4.06309E+06    -3.26426E+06    -14.1354E-03     28.3611E-03    -14.2257E-03     8.42833E-03    -14.1276E-03     28.2376E-03    -14.1939E-03     8.38512E-03
             941     3.54927E-03     90.4429E-03    -6.04619E+06    -27.4518E+06    -293.714E+03    -4.56819E+06    -14.1402E-03     28.3579E-03    -14.2177E-03     11.3857E-03    -14.1304E-03     28.2300E-03    -14.1706E-03     11.3253E-03
             942     4.43689E-03     90.4545E-03    -4.79313E+06    -28.6726E+06     2.36696E+06    -6.19010E+06    -14.1413E-03     28.3549E-03    -14.2136E-03     14.6095E-03    -14.1275E-03     28.2155E-03    -14.1533E-03     14.5277E-03
             943     5.32419E-03     90.4692E-03    -3.64395E+06    -31.1521E+06     2.94177E+06    -7.40120E+06    -14.1770E-03     28.3817E-03    -14.2048E-03     17.9197E-03    -14.1549E-03     28.2276E-03    -14.1396E-03     17.8217E-03
             944     6.21155E-03     90.4869E-03    -1.90425E+06    -32.4817E+06     4.12940E+06    -7.70486E+06    -14.1622E-03     28.3588E-03    -14.1966E-03     21.3021E-03    -14.1316E-03     28.1941E-03    -14.1261E-03     21.1996E-03
             945     7.09900E-03     90.5081E-03    -783.323E+03    -32.9900E+06     5.38138E+06    -7.53831E+06    -14.1156E-03     28.2981E-03    -14.1825E-03     24.9786E-03    -14.0809E-03     28.1279E-03    -14.1066E-03     24.8774E-03
             946     7.98670E-03     90.5325E-03    -569.852E+03    -34.3888E+06     5.42362E+06    -9.04679E+06    -14.2266E-03     28.3930E-03    -14.1664E-03     28.9751E-03    -14.1896E-03     28.2161E-03    -14.0886E-03     28.8533E-03
             947     8.87429E-03     90.5607E-03    -147.108E+03    -40.2853E+06     3.90990E+06    -11.0968E+06    -14.4425E-03     28.6045E-03    -14.1620E-03     33.0673E-03    -14.3938E-03     28.4009E-03    -14.0838E-03     32.9173E-03
             948     9.76159E-03     90.5924E-03     1.63949E+06    -45.5836E+06     2.74138E+06    -10.9140E+06    -14.5727E-03     28.7382E-03    -14.1655E-03     37.4636E-03    -14.5075E-03     28.5090E-03    -14.0880E-03     37.3138E-03
             949     10.6488E-03     90.6292E-03     3.65364E+06    -48.3023E+06     1.55105E+06    -10.5503E+06    -14.7408E-03     28.9088E-03    -14.1679E-03     42.1671E-03    -14.6630E-03     28.6679E-03    -14.0954E-03     42.0188E-03
             950     11.5362E-03     90.6698E-03     3.92180E+06    -46.0397E+06    -1.40649E+06    -10.9075E+06    -14.9366E-03     29.0978E-03    -14.1612E-03     47.1314E-03    -14.8614E-03     28.8771E-03    -14.1072E-03     46.9743E-03
             951     12.4231E-03     90.7158E-03     3.10449E+06    -33.6401E+06    -2.24909E+06    -10.9965E+06    -15.2049E-03     29.3617E-03    -14.1569E-03     54.6077E-03    -15.1603E-03     29.2153E-03    -14.1238E-03     54.4437E-03
             952     13.3106E-03     90.7699E-03     3.43755E+06    -32.3537E+06    -6.36302E+06    -11.2024E+06    -15.4033E-03     29.5576E-03    -14.1543E-03     59.2581E-03    -15.3688E-03     29.4390E-03    -14.1442E-03     59.0844E-03
             953     14.1975E-03     90.8247E-03     3.95285E+06    -31.9669E+06    -11.6024E+06    -9.30962E+06    -15.5854E-03     29.7341E-03    -14.1487E-03     63.8805E-03    -15.5704E-03     29.6533E-03    -14.1661E-03     63.7266E-03
             954     15.0855E-03     90.8880E-03     6.67107E+06    -3.43252E+06    -13.5566E+06    -6.37722E+06    -17.2968E-03     31.4275E-03    -14.1308E-03     92.8875E-03    -17.4647E-03     31.6462E-03    -14.2032E-03     92.7844E-03
             955     15.9670E-03     90.9963E-03     6.45683E+06     47.1262E+06    -22.2011E+06    -2.10512E+06    -21.0697E-03     35.1362E-03    -14.0666E-03     162.502E-03    -22.6207E-03     36.9419E-03    -14.2553E-03     162.985E-03
             956     16.8575E-03     91.1895E-03    -1.08835E+06     124.234E+06     4.35313E+06    -808.110E+03    -28.5384E-03     42.6703E-03    -14.1319E-03     284.507E-03    -38.7219E-03     53.2784E-03    -14.2887E-03     291.588E-03
             957     887.136E-06     91.3993E-03    -10.3359E+06    -25.5636E+06    -10.0128E+06    -1.93012E+06    -14.2846E-03     28.4340E-03    -14.1494E-03     3.07509E-03    -14.2840E-03     28.3374E-03    -14.1474E-03     3.04972E-03
             958     1.77466E-03     91.4031E-03    -8.83431E+06    -26.0298E+06    -7.90738E+06    -2.84507E+06    -14.0795E-03     28.2751E-03    -14.1956E-03     5.61725E-03    -14.0744E-03     28.1693E-03    -14.1846E-03     5.57981E-03
             959     2.66208E-03     91.4092E-03    -7.34917E+06    -25.6949E+06    -4.25798E+06    -3.99415E+06    -14.0162E-03     28.1743E-03    -14.1581E-03     8.54256E-03    -14.0096E-03     28.0627E-03    -14.1314E-03     8.48994E-03
             960     3.54969E-03     91.4183E-03    -5.70881E+06    -25.0434E+06    -495.568E+03    -4.74105E+06    -14.0677E-03     28.2086E-03    -14.1409E-03     11.4730E-03    -14.0594E-03     28.0926E-03    -14.0988E-03     11.4103E-03
             961     4.43690E-03     91.4298E-03    -4.33932E+06    -25.5332E+06     2.87676E+06    -5.87759E+06    -14.1363E-03     28.2819E-03    -14.1456E-03     14.6122E-03    -14.1255E-03     28.1567E-03    -14.0879E-03     14.5344E-03
             962     5.32446E-03     91.4446E-03    -3.03704E+06    -28.5682E+06     4.35617E+06    -7.44993E+06    -14.1432E-03     28.2934E-03    -14.1503E-03     17.9979E-03    -14.1239E-03     28.1493E-03    -14.0827E-03     17.8993E-03
             963     6.21185E-03     91.4623E-03    -2.21785E+06    -31.2138E+06     4.41331E+06    -8.17880E+06    -14.1010E-03     28.2425E-03    -14.1415E-03     21.4333E-03    -14.0741E-03     28.0842E-03    -14.0710E-03     21.3247E-03
             964     7.09951E-03     91.4831E-03    -510.134E+03    -31.8996E+06     5.65387E+06    -8.37093E+06    -14.0865E-03     28.2144E-03    -14.1279E-03     25.1663E-03    -14.0524E-03     28.0488E-03    -14.0526E-03     25.0544E-03
             965     7.98717E-03     91.5076E-03     746.749E+03    -31.8327E+06     7.21991E+06    -8.29510E+06    -14.1970E-03     28.3154E-03    -14.1184E-03     29.1085E-03    -14.1596E-03     28.1467E-03    -14.0372E-03     28.9965E-03
             966     8.87458E-03     91.5361E-03    -152.763E+03    -36.6206E+06     6.41654E+06    -9.84410E+06    -14.4103E-03     28.5304E-03    -14.1201E-03     33.1372E-03    -14.3706E-03     28.3415E-03    -14.0347E-03     33.0034E-03
             967     9.76171E-03     91.5680E-03    -732.092E+03    -44.0411E+06     1.58155E+06    -12.7363E+06    -14.5994E-03     28.7161E-03    -14.1166E-03     37.6467E-03    -14.5466E-03     28.4998E-03    -14.0438E-03     37.4733E-03
             968     10.6492E-03     91.6043E-03     87.5238E+03    -48.6736E+06    -955.983E+03    -12.1636E+06    -14.7645E-03     28.8877E-03    -14.1232E-03     42.6466E-03    -14.7003E-03     28.6538E-03    -14.0576E-03     42.4776E-03
             969     11.5362E-03     91.6457E-03     335.048E+03    -44.8961E+06    -2.45953E+06    -10.7445E+06    -14.9464E-03     29.0729E-03    -14.1264E-03     47.4417E-03    -14.8894E-03     28.8647E-03    -14.0741E-03     47.2867E-03
             970     12.4239E-03     91.6908E-03     483.289E+03    -32.2852E+06    -1.99962E+06    -11.4300E+06    -15.2153E-03     29.3459E-03    -14.1306E-03     54.8943E-03    -15.1864E-03     29.2099E-03    -14.0945E-03     54.7246E-03
             971     13.3105E-03     91.7465E-03    -1.11678E+06    -32.2621E+06    -6.56560E+06    -10.7601E+06    -15.5878E-03     29.7274E-03    -14.1396E-03     59.3636E-03    -15.5764E-03     29.6165E-03    -14.1240E-03     59.1950E-03
             972     14.1975E-03     91.7998E-03    -2.32711E+06    -32.5866E+06    -13.9204E+06    -11.1594E+06    -15.9075E-03     30.0531E-03    -14.1456E-03     63.6888E-03    -15.9210E-03     29.9830E-03    -14.1646E-03     63.5096E-03
             973     15.0836E-03     91.8645E-03    -2.81537E+06    -6.69864E+06    -15.6658E+06    -9.79586E+06    -16.9086E-03     31.0469E-03    -14.1383E-03     92.8094E-03    -17.1140E-03     31.2639E-03    -14.2029E-03     92.6653E-03
             974     15.9751E-03     91.9738E-03    -446.099E+03     39.1495E+06    -21.8767E+06    -4.06339E+06    -20.7394E-03     34.8098E-03    -14.0703E-03     162.859E-03    -22.3156E-03     36.5867E-03    -14.2359E-03     163.315E-03
             975     16.8556E-03     92.1687E-03     5.83073E+06     123.636E+06     9.80519E+06     3.20092E+06    -28.3011E-03     42.4101E-03    -14.1090E-03     286.094E-03    -38.4688E-03     53.0091E-03    -14.2477E-03     293.240E-03
             976     887.397E-06     92.3747E-03    -8.61710E+06    -21.7571E+06    -8.54274E+06    -2.19171E+06    -14.2015E-03     28.1829E-03    -13.9813E-03     2.94845E-03    -14.2000E-03     28.1006E-03    -13.9800E-03     2.91972E-03
             977     1.77479E-03     92.3783E-03    -7.93648E+06    -23.0018E+06    -6.98920E+06    -3.78870E+06    -14.0346E-03     28.1200E-03    -14.0854E-03     5.54160E-03    -14.0307E-03     28.0267E-03    -14.0755E-03     5.49200E-03
             978     2.66240E-03     92.3844E-03    -6.55471E+06    -22.8514E+06    -4.26089E+06    -4.76370E+06    -13.9834E-03     28.0521E-03    -14.0687E-03     8.43235E-03    -13.9769E-03     27.9536E-03    -14.0474E-03     8.36983E-03
             979     3.54984E-03     92.3934E-03    -4.97581E+06    -23.2153E+06    -987.852E+03    -5.30029E+06    -13.9855E-03     28.0438E-03    -14.0583E-03     11.5200E-03    -13.9754E-03     27.9365E-03    -14.0224E-03     11.4502E-03
             980     4.43750E-03     92.4051E-03    -3.64943E+06    -23.1696E+06     2.33428E+06    -5.61167E+06    -14.0309E-03     28.0892E-03    -14.0583E-03     14.7535E-03    -14.0193E-03     27.9756E-03    -14.0078E-03     14.6792E-03
             981     5.32479E-03     92.4198E-03    -3.23291E+06    -25.4429E+06     4.66322E+06    -6.79025E+06    -14.0082E-03     28.0693E-03    -14.0611E-03     18.1208E-03    -13.9948E-03     27.9406E-03    -13.9962E-03     18.0308E-03
             982     6.21256E-03     92.4373E-03    -2.45182E+06    -29.4424E+06     5.19293E+06    -8.07359E+06    -14.0200E-03     28.0740E-03    -14.0539E-03     21.5820E-03    -13.9980E-03     27.9237E-03    -13.9817E-03     21.4748E-03
             983     7.10009E-03     92.4582E-03    -2.03161E+06    -30.3129E+06     5.37315E+06    -8.73087E+06    -14.1293E-03     28.1754E-03    -14.0461E-03     25.3487E-03    -14.1047E-03     28.0204E-03    -13.9724E-03     25.2323E-03
             984     7.98746E-03     92.4828E-03    -1.60225E+06    -31.8883E+06     4.78686E+06    -8.21522E+06    -14.2005E-03     28.2423E-03    -14.0418E-03     29.4205E-03    -14.1713E-03     28.0803E-03    -13.9693E-03     29.3096E-03
             985     8.87498E-03     92.5112E-03    -727.252E+03    -32.5302E+06     5.75460E+06    -8.59083E+06    -14.2888E-03     28.3339E-03    -14.0451E-03     33.6425E-03    -14.2568E-03     28.1672E-03    -13.9681E-03     33.5252E-03
             986     9.76275E-03     92.5433E-03    -1.79963E+06    -39.7843E+06     3.17952E+06    -11.1447E+06    -14.5012E-03     28.5508E-03    -14.0496E-03     38.0862E-03    -14.4622E-03     28.3549E-03    -13.9734E-03     37.9336E-03
             987     10.6498E-03     92.5798E-03    -3.34697E+06    -49.4955E+06    -3.12537E+06    -12.6369E+06    -14.7403E-03     28.7894E-03    -14.0491E-03     43.1487E-03    -14.6889E-03     28.5594E-03    -13.9881E-03     42.9738E-03
             988     11.5374E-03     92.6211E-03    -1.70088E+06    -43.3957E+06    -4.90800E+06    -12.8202E+06    -15.0255E-03     29.0781E-03    -14.0526E-03     48.1820E-03    -14.9772E-03     28.8839E-03    -14.0117E-03     48.0004E-03
             989     12.4237E-03     92.6668E-03    -530.417E+03    -32.5977E+06    -3.99805E+06    -11.6048E+06    -15.3087E-03     29.3786E-03    -14.0699E-03     55.5497E-03    -15.2815E-03     29.2454E-03    -14.0419E-03     55.3779E-03
             990     13.3114E-03     92.7219E-03    -1.01589E+06    -33.6734E+06    -8.11733E+06    -8.96630E+06    -15.7403E-03     29.8311E-03    -14.0909E-03     60.5622E-03    -15.7240E-03     29.7153E-03    -14.0811E-03     60.4170E-03
             991     14.1973E-03     92.7771E-03    -5.25976E+06    -29.9818E+06    -15.4682E+06    -8.08603E+06    -16.2868E-03     30.3993E-03    -14.1125E-03     64.8532E-03    -16.3181E-03     30.3504E-03    -14.1388E-03     64.7127E-03
             992     15.0841E-03     92.8401E-03    -8.75385E+06    -6.54941E+06    -19.8068E+06    -10.9910E+06    -17.3962E-03     31.5227E-03    -14.1265E-03     93.2807E-03    -17.6240E-03     31.7535E-03    -14.2034E-03     93.1190E-03
             993     15.9671E-03     92.9482E-03    -10.1363E+06     30.2681E+06    -29.5528E+06    -10.2454E+06    -20.5584E-03     34.6316E-03    -14.0732E-03     161.589E-03    -22.1539E-03     36.3841E-03    -14.2501E-03     161.974E-03
             994     16.8620E-03     93.1449E-03    -3.14938E+06     118.142E+06     11.9846E+06    -267.753E+03    -26.9624E-03     41.0985E-03    -14.1362E-03     281.604E-03    -36.9652E-03     51.4750E-03    -14.2430E-03     288.729E-03
             995     887.647E-06     93.3499E-03    -4.99953E+06    -17.5867E+06    -4.43896E+06    -1.88807E+06    -13.9645E-03     27.9541E-03    -13.9896E-03     2.76641E-03    -13.9568E-03     27.8814E-03    -13.9791E-03     2.74166E-03
             996     1.77509E-03     93.3535E-03    -5.11134E+06    -19.1879E+06    -3.93248E+06    -3.68791E+06    -13.9693E-03     27.9490E-03    -13.9797E-03     5.45185E-03    -13.9613E-03     27.8662E-03    -13.9641E-03     5.40358E-03
             997     2.66244E-03     93.3595E-03    -5.03128E+06    -20.1882E+06    -3.10476E+06    -5.06182E+06    -13.9344E-03     27.9090E-03    -13.9747E-03     8.44593E-03    -13.9258E-03     27.8200E-03    -13.9536E-03     8.37959E-03
             998     3.55015E-03     93.3684E-03    -4.22786E+06    -21.2521E+06    -973.246E+03    -5.77153E+06    -13.8698E-03     27.8342E-03    -13.9644E-03     11.6062E-03    -13.8589E-03     27.7357E-03    -13.9324E-03     11.5304E-03
             999     4.43773E-03     93.3802E-03    -2.97266E+06    -21.9515E+06     1.98086E+06    -5.73076E+06    -13.8303E-03     27.7808E-03    -13.9504E-03     14.8416E-03    -13.8166E-03     27.6728E-03    -13.9044E-03     14.7659E-03
            1000     5.32565E-03     93.3948E-03    -2.07667E+06    -22.6447E+06     4.72610E+06    -5.85388E+06    -13.8691E-03     27.8093E-03    -13.9402E-03     18.1635E-03    -13.8541E-03     27.6928E-03    -13.8807E-03     18.0857E-03
            1001     6.21321E-03     93.4122E-03    -1.87529E+06    -26.7785E+06     5.97959E+06    -7.41179E+06    -13.9852E-03     27.9263E-03    -13.9411E-03     21.7367E-03    -13.9653E-03     27.7873E-03    -13.8696E-03     21.6382E-03
            1002     7.10076E-03     93.4334E-03    -1.71769E+06    -29.6345E+06     5.73785E+06    -7.66637E+06    -14.0398E-03     27.9806E-03    -13.9408E-03     25.5810E-03    -14.0151E-03     27.8279E-03    -13.8666E-03     25.4785E-03
            1003     7.98842E-03     93.4577E-03    -1.86728E+06    -30.8671E+06     4.68831E+06    -7.80846E+06    -14.0572E-03     27.9903E-03    -13.9331E-03     29.7780E-03    -14.0306E-03     27.8338E-03    -13.8622E-03     29.6727E-03
            1004     8.87617E-03     93.4862E-03    -1.90603E+06    -30.4343E+06     4.75563E+06    -8.51674E+06    -14.1692E-03     28.0981E-03    -13.9289E-03     34.2013E-03    -14.1445E-03     27.9449E-03    -13.8583E-03     34.0853E-03
            1005     9.76343E-03     93.5186E-03    -1.04056E+06    -35.7553E+06     4.97340E+06    -9.69973E+06    -14.3938E-03     28.3349E-03    -13.9410E-03     38.6790E-03    -14.3593E-03     28.1553E-03    -13.8628E-03     38.5455E-03
            1006     10.6511E-03     93.5549E-03    -182.711E+03    -46.5731E+06    -397.261E+03    -12.5099E+06    -14.6498E-03     28.5929E-03    -13.9431E-03     43.7948E-03    -14.5906E-03     28.3688E-03    -13.8773E-03     43.6219E-03
            1007     11.5381E-03     93.5965E-03    -1.84596E+06    -43.1496E+06    -5.78119E+06    -13.1104E+06    -14.9276E-03     28.8644E-03    -13.9367E-03     49.2604E-03    -14.8789E-03     28.6726E-03    -13.9004E-03     49.0756E-03
            1008     12.4258E-03     93.6427E-03    -3.12968E+06    -33.4318E+06    -4.93089E+06    -11.7997E+06    -15.3504E-03     29.3134E-03    -13.9630E-03     56.6294E-03    -15.3337E-03     29.1813E-03    -13.9347E-03     56.4553E-03
            1009     13.3121E-03     93.6974E-03    -1.30558E+06    -35.4782E+06    -8.09011E+06    -10.9974E+06    -15.7615E-03     29.7555E-03    -13.9940E-03     62.0118E-03    -15.7442E-03     29.6311E-03    -13.9812E-03     61.8409E-03
            1010     14.1994E-03     93.7542E-03     3.61788E+06    -31.1462E+06    -11.6831E+06    -7.60031E+06    -16.3758E-03     30.4014E-03    -14.0256E-03     66.5398E-03    -16.3665E-03     30.3283E-03    -14.0441E-03     66.4062E-03
            1011     15.0848E-03     93.8166E-03     2.20035E+06    -2.70275E+06    -15.7877E+06    -6.69842E+06    -17.4199E-03     31.4524E-03    -14.0324E-03     95.1844E-03    -17.6051E-03     31.6815E-03    -14.1107E-03     95.0782E-03
            1012     15.9732E-03     93.9274E-03    -8.50224E+06     34.9839E+06    -33.5499E+06    -10.9596E+06    -22.6573E-03     36.6552E-03    -13.9980E-03     166.143E-03    -24.2934E-03     38.4828E-03    -14.2041E-03     166.493E-03
            1013     16.8511E-03     94.1177E-03    -12.6917E+06     108.869E+06    -5.85553E+06    -7.19417E+06    -26.3474E-03     40.4198E-03    -14.0724E-03     279.212E-03    -36.0726E-03     50.5041E-03    -14.2412E-03     286.494E-03
            1014     887.357E-06     94.3248E-03    -2.34360E+06    -14.1366E+06    -2.19831E+06    -1.37839E+06    -13.7621E-03     27.7382E-03    -13.9761E-03     2.60141E-03    -13.7494E-03     27.6757E-03    -13.9632E-03     2.58333E-03
            1015     1.77520E-03     94.3284E-03    -2.64614E+06    -15.6165E+06    -1.12761E+06    -2.69656E+06    -13.7775E-03     27.6340E-03    -13.8566E-03     5.60275E-03    -13.7663E-03     27.5615E-03    -13.8357E-03     5.56730E-03
            1016     2.66300E-03     94.3345E-03    -2.83753E+06    -17.0915E+06    -146.528E+03    -4.21486E+06    -13.8244E-03     27.6657E-03    -13.8413E-03     8.54415E-03    -13.8136E-03     27.5846E-03    -13.8132E-03     8.48882E-03
            1017     3.55058E-03     94.3432E-03    -3.16678E+06    -19.1808E+06     552.648E+03    -5.33753E+06    -13.7651E-03     27.6002E-03    -13.8351E-03     11.6626E-03    -13.7541E-03     27.5083E-03    -13.8000E-03     11.5924E-03
            1018     4.43846E-03     94.3549E-03    -2.92500E+06    -20.7927E+06     2.14055E+06    -5.75606E+06    -13.6977E-03     27.5180E-03    -13.8203E-03     14.9019E-03    -13.6856E-03     27.4155E-03    -13.7752E-03     14.8259E-03
            1019     5.32623E-03     94.3693E-03    -1.90551E+06    -21.5061E+06     3.88095E+06    -5.63709E+06    -13.7473E-03     27.5524E-03    -13.8051E-03     18.2885E-03    -13.7318E-03     27.4425E-03    -13.7517E-03     18.2137E-03
            1020     6.21400E-03     94.3873E-03    -1.53646E+06    -23.8463E+06     6.14095E+06    -5.91454E+06    -13.7982E-03     27.6029E-03    -13.8048E-03     21.9047E-03    -13.7810E-03     27.4778E-03    -13.7373E-03     21.8257E-03
            1021     7.10172E-03     94.4079E-03    -1.63167E+06    -28.7249E+06     6.12551E+06    -7.08462E+06    -13.8139E-03     27.6136E-03    -13.7997E-03     25.8398E-03    -13.7906E-03     27.4647E-03    -13.7250E-03     25.7450E-03
            1022     7.98965E-03     94.4325E-03    -924.726E+03    -29.6888E+06     6.05249E+06    -7.05989E+06    -13.8887E-03     27.6771E-03    -13.7884E-03     30.1011E-03    -13.8609E-03     27.5231E-03    -13.7138E-03     30.0057E-03
            1023     8.87730E-03     94.4609E-03    -637.532E+03    -28.3612E+06     6.42790E+06    -7.76416E+06    -13.9878E-03     27.7685E-03    -13.7807E-03     34.6354E-03    -13.9622E-03     27.6213E-03    -13.7065E-03     34.5295E-03
            1024     9.76535E-03     94.4935E-03    -768.191E+03    -32.3756E+06     5.75894E+06    -9.80955E+06    -14.2150E-03     27.9995E-03    -13.7846E-03     39.3858E-03    -14.1850E-03     27.8352E-03    -13.7077E-03     39.2513E-03
            1025     10.6527E-03     94.5300E-03    -1.67743E+06    -42.4866E+06     3.04620E+06    -11.7947E+06    -14.5772E-03     28.3808E-03    -13.8036E-03     44.3671E-03    -14.5363E-03     28.1742E-03    -13.7243E-03     44.2038E-03
            1026     11.5406E-03     94.5716E-03    -1.54939E+06    -43.9138E+06    -1.32566E+06    -12.1720E+06    -14.8543E-03     28.6672E-03    -13.8129E-03     49.6133E-03    -14.8096E-03     28.4649E-03    -13.7536E-03     49.4407E-03
            1027     12.4274E-03     94.6182E-03    -850.012E+03    -32.4032E+06    -805.385E+03    -11.8518E+06    -15.2488E-03     29.0843E-03    -13.8356E-03     57.1440E-03    -15.2282E-03     28.9480E-03    -13.7914E-03     56.9694E-03
            1028     13.3147E-03     94.6737E-03    -1.23998E+06    -34.5820E+06    -6.07158E+06    -12.9195E+06    -15.6270E-03     29.4872E-03    -13.8602E-03     62.5214E-03    -15.6140E-03     29.3646E-03    -13.8386E-03     62.3258E-03
            1029     14.2012E-03     94.7295E-03    -888.290E+03    -34.4070E+06    -12.9160E+06    -13.2234E+06    -16.0715E-03     29.9537E-03    -13.8822E-03     67.9820E-03    -16.0774E-03     29.8718E-03    -13.8956E-03     67.7772E-03
            1030     15.0879E-03     94.7953E-03     4.51528E+06    -4.15769E+06    -9.45449E+06    -8.22292E+06    -17.4511E-03     31.3668E-03    -13.9157E-03     94.5124E-03    -17.6361E-03     31.5805E-03    -13.9635E-03     94.3856E-03
            1031     15.9757E-03     94.8985E-03     6.44887E+06     36.7005E+06    -14.6721E+06    -434.277E+03    -20.8231E-03     34.6892E-03    -13.8661E-03     170.011E-03    -22.3618E-03     36.4239E-03    -14.0020E-03     170.516E-03
            1032     16.8596E-03     95.1148E-03    -4.44616E+06     105.623E+06     1.37027E+06    -4.81644E+06    -26.7084E-03     40.5595E-03    -13.8511E-03     280.901E-03    -36.2842E-03     50.4923E-03    -13.9910E-03     288.029E-03
            1033     887.851E-06     95.2993E-03    -2.80385E+06    -11.9071E+06    -2.53488E+06    -1.22586E+06    -13.6249E-03     27.3202E-03    -13.6952E-03     2.60591E-03    -13.6173E-03     27.2700E-03    -13.6866E-03     2.58978E-03
            1034     1.77571E-03     95.3030E-03    -2.93868E+06    -13.2452E+06    -804.879E+03    -1.58760E+06    -13.6375E-03     27.3022E-03    -13.6647E-03     5.63849E-03    -13.6318E-03     27.2415E-03    -13.6453E-03     5.61746E-03
            1035     2.66339E-03     95.3092E-03    -3.20375E+06    -14.3191E+06     1.12819E+06    -2.59203E+06    -13.6113E-03     27.2748E-03    -13.6635E-03     8.58131E-03    -13.6082E-03     27.2063E-03    -13.6325E-03     8.54704E-03
            1036     3.55124E-03     95.3179E-03    -3.29481E+06    -16.5282E+06     2.37114E+06    -3.93004E+06    -13.6218E-03     27.2829E-03    -13.6611E-03     11.7195E-03    -13.6179E-03     27.2018E-03    -13.6205E-03     11.6676E-03
            1037     4.43907E-03     95.3292E-03    -3.24400E+06    -19.1896E+06     3.17033E+06    -4.97748E+06    -13.6087E-03     27.2663E-03    -13.6576E-03     15.0273E-03    -13.6020E-03     27.1708E-03    -13.6093E-03     14.9615E-03
            1038     5.32697E-03     95.3440E-03    -2.84111E+06    -20.7365E+06     4.07175E+06    -5.38717E+06    -13.5425E-03     27.1877E-03    -13.6451E-03     18.5667E-03    -13.5331E-03     27.0827E-03    -13.5906E-03     18.4952E-03
            1039     6.21494E-03     95.3615E-03    -1.89793E+06    -22.6662E+06     5.85213E+06    -5.24796E+06    -13.4995E-03     27.1283E-03    -13.6287E-03     22.2231E-03    -13.4854E-03     27.0100E-03    -13.5639E-03     22.1529E-03
            1040     7.10322E-03     95.3824E-03    -1.29510E+06    -25.8545E+06     6.58021E+06    -6.10555E+06    -13.6001E-03     27.2131E-03    -13.6130E-03     26.2015E-03    -13.5798E-03     27.0774E-03    -13.5407E-03     26.1196E-03
            1041     7.99102E-03     95.4069E-03    -1.05400E+06    -29.6501E+06     6.33456E+06    -7.08898E+06    -13.7250E-03     27.3298E-03    -13.6047E-03     30.4562E-03    -13.6983E-03     27.1757E-03    -13.5285E-03     30.3607E-03
            1042     8.87917E-03     95.4353E-03    -470.319E+03    -26.0488E+06     8.68963E+06    -6.91345E+06    -13.8395E-03     27.4455E-03    -13.6059E-03     34.9347E-03    -13.8196E-03     27.3062E-03    -13.5240E-03     34.8400E-03
            1043     9.76697E-03     95.4678E-03    -1.10144E+06    -29.3310E+06     8.87353E+06    -8.23469E+06    -14.0903E-03     27.7084E-03    -13.6181E-03     39.6188E-03    -14.0709E-03     27.5553E-03    -13.5296E-03     39.5047E-03
            1044     10.6549E-03     95.5051E-03    -1.83652E+06    -39.3043E+06     6.04256E+06    -10.0650E+06    -14.5101E-03     28.1533E-03    -13.6432E-03     44.6928E-03    -14.4790E-03     27.9585E-03    -13.5533E-03     44.5519E-03
            1045     11.5415E-03     95.5466E-03    -3.32102E+06    -42.7369E+06    -734.230E+03    -11.7520E+06    -14.8449E-03     28.5010E-03    -13.6561E-03     49.9142E-03    -14.8116E-03     28.3064E-03    -13.5930E-03     49.7472E-03
            1046     12.4293E-03     95.5934E-03    -4.52065E+06    -31.6003E+06    -2.04879E+06    -12.0314E+06    -15.1643E-03     28.8456E-03    -13.6812E-03     57.7462E-03    -15.1614E-03     28.7203E-03    -13.6391E-03     57.5696E-03
            1047     13.3163E-03     95.6493E-03    -5.76918E+06    -32.6527E+06    -7.23756E+06    -11.6620E+06    -15.5451E-03     29.2562E-03    -13.7112E-03     62.5473E-03    -15.5559E-03     29.1517E-03    -13.6916E-03     62.3679E-03
            1048     14.2038E-03     95.7053E-03    -7.94035E+06    -31.2375E+06    -16.0097E+06    -14.3668E+06    -16.0413E-03     29.7743E-03    -13.7330E-03     67.7203E-03    -16.0833E-03     29.7236E-03    -13.7563E-03     67.5001E-03
            1049     15.0909E-03     95.7709E-03    -9.19628E+06    -12.4531E+06    -16.1862E+06    -12.6937E+06    -18.1134E-03     31.9163E-03    -13.8029E-03     95.0753E-03    -18.3544E-03     32.1274E-03    -13.8525E-03     94.8861E-03
            1050     15.9721E-03     95.8800E-03    -737.926E+03     22.1966E+06    -12.1674E+06    -4.30079E+06    -17.6025E-03     31.3645E-03    -13.7620E-03     161.283E-03    -19.0370E-03     32.9100E-03    -13.8539E-03     161.796E-03
            1051     16.8807E-03     96.0685E-03     11.0687E+06     112.130E+06     21.4593E+06     657.684E+03    -28.6283E-03     42.3835E-03    -13.7552E-03     280.462E-03    -38.6121E-03     52.7438E-03    -13.8266E-03     287.036E-03
            1052     888.149E-06     96.2739E-03    -5.27817E+06    -10.8868E+06    -4.01664E+06    -213.811E+03    -13.4818E-03     26.7787E-03    -13.2969E-03     2.88338E-03    -13.4859E-03     26.7393E-03    -13.2935E-03     2.88033E-03
            1053     1.77576E-03     96.2773E-03    -5.33643E+06    -12.3179E+06    -2.01075E+06    -231.606E+03    -13.4532E-03     26.8696E-03    -13.4164E-03     5.60851E-03    -13.4590E-03     26.8187E-03    -13.4009E-03     5.60508E-03
            1054     2.66401E-03     96.2833E-03    -5.24666E+06    -12.6994E+06     685.693E+03    -571.295E+03    -13.3463E-03     26.7779E-03    -13.4316E-03     8.76022E-03    -13.3552E-03     26.7211E-03    -13.4021E-03     8.75209E-03
            1055     3.55213E-03     96.2920E-03    -5.46002E+06    -13.8931E+06     2.84454E+06    -1.81990E+06    -13.3981E-03     26.8293E-03    -13.4312E-03     11.9569E-03    -13.4095E-03     26.7638E-03    -13.3889E-03     11.9323E-03
            1056     4.44005E-03     96.3036E-03    -5.54982E+06    -17.2805E+06     4.12680E+06    -3.30627E+06    -13.4000E-03     26.8373E-03    -13.4373E-03     15.2788E-03    -13.4090E-03     26.7532E-03    -13.3835E-03     15.2347E-03
            1057     5.32816E-03     96.3179E-03     -5.8218E+06    -19.5217E+06     4.08697E+06    -4.03149E+06    -13.2964E-03     26.7209E-03    -13.4245E-03     18.7733E-03    -13.3036E-03     26.6263E-03    -13.3673E-03     18.7195E-03
            1058     6.21661E-03     96.3354E-03    -5.95973E+06    -21.4984E+06     4.24738E+06    -4.78464E+06    -13.2751E-03     26.6772E-03    -13.4021E-03     22.4686E-03    -13.2806E-03     26.5728E-03    -13.3410E-03     22.4046E-03
            1059     7.10463E-03     96.3563E-03    -5.65686E+06    -24.3315E+06     4.82437E+06    -5.04158E+06    -13.3770E-03     26.7646E-03    -13.3876E-03     26.5049E-03    -13.3781E-03     26.6452E-03    -13.3200E-03     26.4370E-03
            1060     7.99294E-03     96.3811E-03    -5.58477E+06    -26.9566E+06     5.96841E+06    -6.33845E+06    -13.5532E-03     26.9426E-03    -13.3894E-03     30.7471E-03    -13.5524E-03     26.8090E-03    -13.3124E-03     30.6614E-03
            1061     8.88086E-03     96.4092E-03    -5.26296E+06    -27.0505E+06     7.50514E+06    -6.55028E+06    -13.7396E-03     27.1416E-03    -13.4020E-03     35.2948E-03    -13.7404E-03     27.0059E-03    -13.3176E-03     35.2050E-03
            1062     9.76874E-03     96.4426E-03    -4.60381E+06    -25.4213E+06     7.90006E+06    -6.54273E+06    -13.9466E-03     27.3618E-03    -13.4151E-03     40.2257E-03    -13.9489E-03     27.2345E-03    -13.3321E-03     40.1338E-03
            1063     10.6562E-03     96.4791E-03    -5.42846E+06    -37.4504E+06     1.81534E+06    -8.59034E+06    -14.2563E-03     27.6836E-03    -13.4273E-03     45.5996E-03    -14.2394E-03     27.5092E-03    -13.3561E-03     45.4783E-03
            1064     11.5446E-03     96.5222E-03    -6.36710E+06    -38.9380E+06    -2.77987E+06    -10.0375E+06    -14.7367E-03     28.1847E-03    -13.4480E-03     50.9684E-03    -14.7209E-03     28.0162E-03    -13.3963E-03     50.8240E-03
            1065     12.4314E-03     96.5676E-03    -6.01822E+06    -30.6270E+06    -2.85615E+06    -12.4667E+06    -15.2419E-03     28.7349E-03    -13.4930E-03     58.7352E-03    -15.2469E-03     28.6181E-03    -13.4541E-03     58.5532E-03
            1066     13.3185E-03     96.6258E-03    -3.09819E+06    -31.1487E+06    -7.40638E+06    -13.0875E+06    -15.9617E-03     29.5072E-03    -13.5455E-03     63.7221E-03    -15.9616E-03     29.4070E-03    -13.5329E-03     63.5240E-03
            1067     14.2047E-03     96.6798E-03    -1.79971E+06    -29.1957E+06    -13.2106E+06    -12.2100E+06    -16.9250E-03     30.5488E-03    -13.6238E-03     68.2672E-03    -16.9476E-03     30.4997E-03    -13.6449E-03     68.0717E-03
            1068     15.0896E-03     96.7493E-03    -4.62743E+06    -17.6618E+06    -14.9268E+06    -10.5581E+06    -18.1182E-03     31.8472E-03    -13.7289E-03     95.5712E-03    -18.3186E-03     32.0116E-03    -13.7713E-03     95.4124E-03
            1069     15.9798E-03     96.8559E-03    -7.68194E+06     20.0476E+06    -23.3199E+06    -12.6306E+06    -21.9712E-03     35.7550E-03    -13.7837E-03     152.569E-03    -23.4187E-03     37.3137E-03    -13.9182E-03     152.834E-03
            1070     16.8545E-03     97.0303E-03    -1.64025E+06     105.048E+06     10.0222E+06    -5.81489E+06    -30.9003E-03     44.8851E-03    -13.9848E-03     279.677E-03    -41.3432E-03     55.6669E-03    -14.0846E-03     286.277E-03
            1071     888.301E-06     97.2479E-03    -8.38220E+06    -12.1842E+06    -6.57863E+06     1.78430E+06    -13.1819E-03     26.1298E-03    -12.9479E-03     3.32496E-03    -13.1959E-03     26.0921E-03    -12.9510E-03     3.34771E-03
            1072     1.77670E-03     97.2511E-03    -8.31631E+06    -12.6702E+06    -3.85670E+06     1.69276E+06    -13.1070E-03     26.1988E-03    -13.0919E-03     5.67997E-03    -13.1245E-03     26.1532E-03    -13.0807E-03     5.70141E-03
            1073     2.66485E-03     97.2569E-03    -7.89839E+06    -12.2860E+06    -664.607E+03     1.42272E+06    -13.1315E-03     26.2529E-03    -13.1214E-03     8.95085E-03    -13.1522E-03     26.2040E-03    -13.0955E-03     8.96851E-03
            1074     3.55305E-03     97.2659E-03    -7.70844E+06    -12.5058E+06     2.63853E+06     1.00688E+06    -13.1155E-03     26.2596E-03    -13.1440E-03     12.1239E-03    -13.1399E-03     26.2045E-03    -13.1015E-03     12.1360E-03
            1075     4.44144E-03     97.2772E-03    -8.46435E+06    -15.1911E+06     4.35701E+06    -245.956E+03    -13.0723E-03     26.2243E-03    -13.1520E-03     15.3770E-03    -13.0991E-03     26.1545E-03    -13.0959E-03     15.3726E-03
            1076     5.32978E-03     97.2916E-03    -8.95349E+06    -18.0810E+06     4.52233E+06    -1.73754E+06    -13.0683E-03     26.2136E-03    -13.1453E-03     18.9393E-03    -13.0938E-03     26.1300E-03    -13.0835E-03     18.9153E-03
            1077     6.21793E-03     97.3088E-03    -9.60393E+06    -20.0874E+06     4.33062E+06    -2.42580E+06    -13.1129E-03     26.2497E-03    -13.1368E-03     22.7937E-03    -13.1387E-03     26.1576E-03    -13.0721E-03     22.7604E-03
            1078     7.10652E-03     97.3300E-03    -10.3985E+06    -23.1177E+06     5.28418E+06    -3.38022E+06    -13.2082E-03     26.3497E-03    -13.1415E-03     26.8330E-03    -13.2353E-03     26.2426E-03    -13.0665E-03     26.7867E-03
            1079     7.99480E-03     97.3544E-03    -10.5653E+06    -24.3711E+06     5.74429E+06    -4.52142E+06    -13.3148E-03     26.4613E-03    -13.1466E-03     31.1393E-03    -13.3422E-03     26.3481E-03    -13.0672E-03     31.0774E-03
            1080     8.88289E-03     97.3836E-03    -10.5414E+06    -26.5839E+06     4.09661E+06    -5.82091E+06    -13.4195E-03     26.5647E-03    -13.1452E-03     35.9201E-03    -13.4422E-03     26.4437E-03    -13.0709E-03     35.8401E-03
            1081     9.77125E-03     97.4156E-03    -9.89756E+06    -23.7612E+06     3.22794E+06    -6.40162E+06    -13.6492E-03     26.7945E-03    -13.1453E-03     41.2414E-03    -13.6732E-03     26.6897E-03    -13.0804E-03     41.1521E-03
            1082     10.6596E-03     97.4542E-03    -8.22345E+06    -33.5001E+06     1.00818E+06    -8.16606E+06    -14.0993E-03     27.2710E-03    -13.1718E-03     46.4791E-03    -14.1007E-03     27.1215E-03    -13.1062E-03     46.3638E-03
            1083     11.5470E-03     97.4951E-03    -6.01719E+06    -37.0300E+06    -2.01600E+06    -10.7528E+06    -14.6705E-03     27.8789E-03    -13.2084E-03     52.0033E-03    -14.6568E-03     27.7182E-03    -13.1560E-03     51.8501E-03
            1084     12.4344E-03     97.5449E-03    -3.78560E+06    -24.4194E+06     1.22059E+06    -13.8690E+06    -15.4164E-03     28.6965E-03    -13.2801E-03     59.5153E-03    -15.4252E-03     28.6017E-03    -13.2331E-03     59.3151E-03
            1085     13.3216E-03     97.5985E-03    -2.07421E+06    -32.2101E+06    -6.66473E+06    -16.3497E+06    -16.5039E-03     29.8681E-03    -13.3643E-03     65.1963E-03    -16.4988E-03     29.7608E-03    -13.3479E-03     64.9553E-03
            1086     14.2067E-03     97.6610E-03    -173.817E+03    -30.2180E+06    -9.55718E+06    -13.4351E+06    -18.0073E-03     31.5217E-03    -13.5144E-03     70.0175E-03    -18.0284E-03     31.4626E-03    -13.5181E-03     69.8031E-03
            1087     15.0923E-03     97.7227E-03     3.31393E+06    -19.0020E+06    -10.2565E+06    -12.6507E+06    -19.0068E-03     32.6874E-03    -13.6806E-03     94.3109E-03    -19.1619E-03     32.8165E-03    -13.7091E-03     94.1166E-03
            1088     15.9750E-03     97.8349E-03    -294.235E+03     30.1180E+06    -26.2710E+06    -11.4371E+06    -27.6262E-03     41.4649E-03    -13.8386E-03     161.146E-03    -29.2251E-03     43.2466E-03    -14.0132E-03     161.298E-03
            1089     16.8513E-03     98.0266E-03    -11.0458E+06     100.103E+06    -14.6489E+06    -7.03699E+06    -28.7853E-03     42.8504E-03    -14.0651E-03     276.515E-03    -38.4601E-03     52.8856E-03    -14.2675E-03     283.704E-03
            1090     888.550E-06     98.2208E-03    -11.8924E+06    -15.8707E+06    -11.5674E+06     1.94469E+06    -12.7943E-03     25.3704E-03    -12.5761E-03     3.21003E-03    -12.8134E-03     25.3266E-03    -12.5936E-03     3.23489E-03
            1091     1.77729E-03     98.2240E-03    -10.7641E+06    -14.4567E+06    -7.28147E+06     3.44689E+06    -12.7516E-03     25.4663E-03    -12.7147E-03     5.84416E-03    -12.7738E-03     25.4202E-03    -12.7145E-03     5.88826E-03
            1092     2.66577E-03     98.2303E-03    -10.7452E+06    -12.9870E+06    -2.50619E+06     3.87490E+06    -12.8464E-03     25.6137E-03    -12.7674E-03     8.99228E-03    -12.8776E-03     25.5680E-03    -12.7455E-03     9.04171E-03
            1093     3.55429E-03     98.2389E-03    -10.4693E+06    -12.8433E+06     1.22505E+06     3.75772E+06    -12.7584E-03     25.5615E-03    -12.8030E-03     12.2109E-03    -12.7940E-03     25.5107E-03    -12.7631E-03     12.2586E-03
            1094     4.44283E-03     98.2503E-03    -9.94440E+06    -13.6688E+06     4.11316E+06     3.06504E+06    -12.7196E-03     25.5304E-03    -12.8108E-03     15.5698E-03    -12.7557E-03     25.4707E-03    -12.7560E-03     15.6083E-03
            1095     5.33152E-03     98.2644E-03    -10.3336E+06    -16.6293E+06     5.94504E+06     1.59130E+06    -12.7811E-03     25.5978E-03    -12.8166E-03     19.2289E-03    -12.8177E-03     25.5213E-03    -12.7478E-03     19.2480E-03
            1096     6.22028E-03     98.2821E-03    -10.5220E+06    -19.1353E+06     6.67424E+06     368.733E+03    -12.9283E-03     25.7559E-03    -12.8276E-03     23.2154E-03    -12.9635E-03     25.6664E-03    -12.7512E-03     23.2182E-03
            1097     7.10854E-03     98.3029E-03    -10.4166E+06    -21.5664E+06     7.21507E+06    -613.268E+03    -13.0256E-03     25.8713E-03    -12.8456E-03     27.3183E-03    -13.0579E-03     25.7691E-03    -12.7632E-03     27.3079E-03
            1098     7.99686E-03     98.3280E-03    -11.0672E+06    -22.3725E+06     6.11655E+06    -2.07353E+06    -12.9716E-03     25.8194E-03    -12.8479E-03     31.6823E-03    -13.0048E-03     25.7162E-03    -12.7688E-03     31.6524E-03
            1099     8.88588E-03     98.3560E-03    -11.3787E+06    -23.3000E+06     4.23036E+06    -4.41229E+06    -13.0771E-03     25.9164E-03    -12.8393E-03     36.5839E-03    -13.1088E-03     25.8127E-03    -12.7679E-03     36.5227E-03
            1100     9.77434E-03     98.3897E-03    -10.1424E+06    -22.3122E+06     4.20474E+06    -6.99618E+06    -13.4346E-03     26.2815E-03    -12.8469E-03     41.9073E-03    -13.4632E-03     26.1827E-03    -12.7788E-03     41.8108E-03
            1101     10.6624E-03     98.4270E-03    -8.24040E+06    -29.5583E+06     3.28430E+06    -8.97530E+06    -13.9812E-03     26.8674E-03    -12.8863E-03     47.3514E-03    -13.9915E-03     26.7341E-03    -12.8150E-03     47.2262E-03
            1102     11.5501E-03     98.4708E-03    -7.40132E+06    -33.1349E+06    -918.846E+03    -12.0740E+06    -14.7046E-03     27.6416E-03    -12.9370E-03     53.1448E-03    -14.7050E-03     27.5008E-03    -12.8828E-03     52.9749E-03
            1103     12.4378E-03     98.5177E-03    -7.06191E+06    -19.9773E+06     1.12949E+06    -14.6789E+06    -15.6715E-03     28.7046E-03    -13.0331E-03     60.9150E-03    -15.7030E-03     28.6369E-03    -12.9883E-03     60.7044E-03
            1104     13.3231E-03     98.5775E-03    -7.83821E+06    -29.4789E+06    -8.27736E+06    -16.8802E+06    -16.8997E-03     30.0519E-03    -13.1522E-03     66.8244E-03    -16.9263E-03     29.9700E-03    -13.1395E-03     66.5756E-03
            1105     14.2097E-03     98.6345E-03    -5.91271E+06    -32.7016E+06    -15.5600E+06    -18.3008E+06    -18.3347E-03     31.6547E-03    -13.3200E-03     72.9828E-03    -18.3715E-03     31.5996E-03    -13.3419E-03     72.7054E-03
            1106     15.0910E-03     98.7081E-03    -7.29154E+06    -15.3666E+06    -17.0925E+06    -17.4642E+06    -20.2762E-03     33.8101E-03    -13.5339E-03     96.2424E-03    -20.5003E-03     34.0034E-03    -13.5865E-03     95.9752E-03
            1107     15.9783E-03     98.8046E-03    -2.98160E+06     20.9392E+06    -28.1799E+06    -11.1521E+06    -24.3646E-03     38.0003E-03    -13.6357E-03     176.378E-03    -26.0001E-03     39.7812E-03    -13.8027E-03     176.665E-03
            1108     16.8530E-03     99.0362E-03     4.14001E+06     91.3465E+06    -11.3321E+06    -3.32462E+06    -25.3197E-03     38.9786E-03    -13.6589E-03     276.435E-03    -33.9626E-03     47.9956E-03    -13.8540E-03     283.515E-03
            1109     889.037E-06     99.1924E-03    -14.1442E+06    -20.0879E+06    -13.1875E+06     2.27648E+06    -12.3024E-03     24.6704E-03    -12.3681E-03     2.78960E-03    -12.3242E-03     24.6111E-03    -12.3844E-03     2.81890E-03
            1110     1.77798E-03     99.1966E-03    -14.2526E+06    -18.5701E+06    -11.0515E+06     4.42275E+06    -12.3495E-03     24.6977E-03    -12.3482E-03     6.08775E-03    -12.3777E-03     24.6416E-03    -12.3558E-03     6.14449E-03
            1111     2.66672E-03     99.2027E-03    -13.1128E+06    -15.5198E+06    -5.77265E+06     6.18158E+06    -12.3740E-03     24.7495E-03    -12.3755E-03     9.10967E-03    -12.4086E-03     24.6993E-03    -12.3629E-03     9.18896E-03
            1112     3.55564E-03     99.2113E-03    -12.5212E+06    -13.7091E+06    -800.652E+03     6.41394E+06    -12.3298E-03     24.7269E-03    -12.3971E-03     12.3823E-03    -12.3715E-03     24.6777E-03    -12.3631E-03     12.4644E-03
            1113     4.44476E-03     99.2225E-03    -12.1768E+06    -13.7864E+06     3.11353E+06     5.80176E+06    -12.3761E-03     24.7884E-03    -12.4123E-03     15.8656E-03    -12.4217E-03     24.7328E-03    -12.3591E-03     15.9396E-03
            1114     5.33363E-03     99.2370E-03    -11.7356E+06    -15.5783E+06     6.66016E+06     5.01311E+06    -12.5161E-03     24.9562E-03    -12.4401E-03     19.5170E-03    -12.5622E-03     24.8860E-03    -12.3672E-03     19.5805E-03
            1115     6.22234E-03     99.2544E-03    -11.9371E+06    -18.0001E+06     7.68893E+06     3.44414E+06    -12.5996E-03     25.0654E-03    -12.4658E-03     23.5402E-03    -12.6449E-03     24.9821E-03    -12.3840E-03     23.5830E-03
            1116     7.11110E-03     99.2761E-03    -12.2392E+06    -20.1875E+06     6.28399E+06     1.84948E+06    -12.5589E-03     25.0307E-03    -12.4718E-03     27.7641E-03    -12.6008E-03     24.9392E-03    -12.3934E-03     27.7859E-03
            1117     8.00026E-03     99.2998E-03    -11.3220E+06    -19.3822E+06     6.09151E+06    -384.275E+03    -12.6471E-03     25.1178E-03    -12.4707E-03     32.3557E-03    -12.6858E-03     25.0298E-03    -12.3957E-03     32.3480E-03
            1118     8.88881E-03     99.3291E-03    -9.88332E+06    -19.8376E+06     7.09091E+06    -3.41203E+06    -12.9439E-03     25.4304E-03    -12.4865E-03     37.3858E-03    -12.9771E-03     25.3376E-03    -12.4080E-03     37.3378E-03
            1119     9.77747E-03     99.3620E-03    -9.36097E+06    -18.5565E+06     7.18177E+06    -6.45488E+06    -13.2365E-03     25.7487E-03    -12.5122E-03     42.7815E-03    -13.2707E-03     25.6630E-03    -12.4358E-03     42.6924E-03
            1120     10.6659E-03     99.4010E-03    -9.06217E+06    -26.4153E+06     3.90477E+06    -9.36140E+06    -13.7836E-03     26.3374E-03    -12.5538E-03     48.6171E-03    -13.8033E-03     26.2198E-03    -12.4828E-03     48.4875E-03
            1121     11.5542E-03     99.4436E-03    -7.51021E+06    -27.7469E+06     713.953E+03    -12.3801E+06    -14.6862E-03     27.3066E-03    -12.6204E-03     54.7254E-03    -14.6971E-03     27.1903E-03    -12.5657E-03     54.5521E-03
            1122     12.4404E-03     99.4945E-03    -5.95210E+06    -17.4283E+06     2.41750E+06    -15.0540E+06    -15.7003E-03     28.4371E-03    -12.7368E-03     63.0674E-03    -15.7320E-03     28.3788E-03    -12.6908E-03     62.8523E-03
            1123     13.3281E-03     99.5514E-03    -4.12300E+06    -25.4363E+06    -4.80460E+06    -16.6712E+06    -16.8949E-03     29.7707E-03    -12.8758E-03     69.8902E-03    -16.9144E-03     29.6992E-03    -12.8569E-03     69.6445E-03
            1124     14.2114E-03     99.6153E-03    -6.69563E+06    -31.2956E+06    -15.7542E+06    -18.5578E+06    -17.7655E-03     30.7944E-03    -13.0289E-03     76.5704E-03    -17.8082E-03     30.7478E-03    -13.0526E-03     76.2921E-03
            1125     15.1003E-03     99.6822E-03    -4.45194E+06    -14.0237E+06    -12.5360E+06    -17.9129E+06    -20.6695E-03     33.9296E-03    -13.2601E-03     102.175E-03    -20.9125E-03     34.1434E-03    -13.2960E-03     101.902E-03
            1126     15.9772E-03     99.7932E-03    -3.36048E+06     5.18437E+06    -28.0609E+06    -12.0668E+06    -19.0102E-03     32.2770E-03    -13.2668E-03     168.309E-03    -20.3816E-03     33.7348E-03    -13.4097E-03     168.703E-03
            1127     16.8966E-03     99.9862E-03    -4.05641E+06     78.1443E+06    -6.47076E+06    -10.1393E+06    -28.2835E-03     41.5900E-03    -13.3066E-03     270.612E-03    -37.2450E-03     50.8359E-03    -13.4463E-03     276.606E-03
            1128     889.104E-06     100.164E-03    -14.3373E+06    -26.4443E+06    -12.4504E+06     4.73872E+06    -11.7931E-03     23.9035E-03    -12.1105E-03     3.01707E-03    -11.8077E-03     23.8116E-03    -12.1136E-03     3.07820E-03
            1129     1.77844E-03     100.168E-03    -15.4934E+06    -23.7039E+06    -11.2085E+06     6.63655E+06    -11.8862E-03     23.8348E-03    -11.9486E-03     6.23602E-03    -11.9130E-03     23.7551E-03    -11.9478E-03     6.32138E-03
            1130     2.66802E-03     100.174E-03    -15.7651E+06    -19.6705E+06    -8.95267E+06     7.96515E+06    -11.8507E-03     23.7837E-03    -11.9330E-03     9.26851E-03    -11.8880E-03     23.7212E-03    -11.9264E-03     9.37087E-03
            1131     3.55747E-03     100.183E-03    -15.1630E+06    -15.8625E+06    -4.15524E+06     8.96014E+06    -11.9188E-03     23.8604E-03    -11.9416E-03     12.4483E-03    -11.9656E-03     23.8091E-03    -11.9174E-03     12.5634E-03
            1132     4.44663E-03     100.194E-03    -14.4561E+06    -14.2641E+06     2.18790E+06     8.58420E+06    -12.0068E-03     23.9848E-03    -11.9781E-03     16.0518E-03    -12.0617E-03     23.9315E-03    -11.9255E-03     16.1618E-03
            1133     5.33583E-03     100.209E-03    -13.8073E+06    -16.1022E+06     5.93912E+06     7.89723E+06    -12.1353E-03     24.1530E-03    -12.0177E-03     19.9222E-03    -12.1898E-03     24.0841E-03    -11.9446E-03     20.0231E-03
            1134     6.22483E-03     100.227E-03    -13.5160E+06    -16.6491E+06     6.21754E+06     6.91533E+06    -12.1023E-03     24.1375E-03    -12.0352E-03     23.8886E-03    -12.1552E-03     24.0653E-03    -11.9604E-03     23.9765E-03
            1135     7.11440E-03     100.247E-03    -12.9335E+06    -17.1731E+06     6.18389E+06     3.65102E+06    -12.0891E-03     24.1263E-03    -12.0372E-03     28.1283E-03    -12.1386E-03     24.0510E-03    -11.9626E-03     28.1736E-03
            1136     8.00364E-03     100.272E-03    -11.3760E+06    -16.2218E+06     6.89462E+06    -37.4977E+03    -12.3612E-03     24.4060E-03    -12.0448E-03     32.9136E-03    -12.4058E-03     24.3326E-03    -11.9703E-03     32.9106E-03
            1137     8.89275E-03     100.301E-03    -9.93830E+06    -16.4414E+06     7.58958E+06    -2.80792E+06    -12.6587E-03     24.7311E-03    -12.0724E-03     38.0827E-03    -12.6977E-03     24.6545E-03    -11.9962E-03     38.0429E-03
            1138     9.78140E-03     100.335E-03    -9.05009E+06    -14.7490E+06     7.98613E+06    -5.32374E+06    -12.9672E-03     25.0770E-03    -12.1098E-03     43.7422E-03    -13.0063E-03     25.0085E-03    -12.0354E-03     43.6682E-03
            1139     10.6704E-03     100.373E-03    -7.44871E+06    -21.1202E+06     6.44614E+06    -9.51213E+06    -13.6239E-03     25.7935E-03    -12.1696E-03     50.0650E-03    -13.6467E-03     25.6961E-03    -12.0959E-03     49.9340E-03
            1140     11.5577E-03     100.419E-03    -5.58386E+06    -23.3370E+06     3.41124E+06    -13.7810E+06    -14.4258E-03     26.6744E-03    -12.2486E-03     56.5008E-03    -14.4370E-03     26.5730E-03    -12.1897E-03     56.3103E-03
            1141     12.4464E-03     100.467E-03    -4.24722E+06    -14.6165E+06     5.69691E+06    -15.3091E+06    -15.4468E-03     27.8220E-03    -12.3751E-03     65.2138E-03    -15.4789E-03     27.7706E-03    -12.3193E-03     64.9962E-03
            1142     13.3317E-03     100.529E-03    -5.27017E+06    -22.8684E+06    -3.31407E+06    -16.7725E+06    -16.5948E-03     29.1067E-03    -12.5119E-03     71.9000E-03    -16.6255E-03     29.0471E-03    -12.4877E-03     71.6543E-03
            1143     14.2205E-03     100.589E-03    -4.64923E+06    -27.7380E+06    -10.5600E+06    -17.4228E+06    -18.0063E-03     30.7020E-03    -12.6957E-03     77.1680E-03    -18.0543E-03     30.6658E-03    -12.7015E-03     76.9029E-03
            1144     15.1029E-03     100.661E-03    -5.05830E+06    -16.8220E+06    -10.7599E+06    -17.9322E+06    -20.5758E-03     33.5210E-03    -12.9451E-03     103.364E-03    -20.8116E-03     33.7102E-03    -12.9672E-03     103.094E-03
            1145     15.9909E-03     100.776E-03    -1.36040E+06     3.02112E+06    -26.5996E+06    -18.8112E+06    -24.0518E-03     37.1887E-03    -13.1369E-03     152.726E-03    -25.3074E-03     38.5272E-03    -13.2723E-03     152.833E-03
            1146     16.8596E-03     100.934E-03    -832.216E+03     72.2361E+06    -9.08973E+06    -12.6523E+06    -34.5322E-03     48.0178E-03    -13.4856E-03     271.286E-03    -44.3006E-03     58.0685E-03    -13.6346E-03     277.079E-03
            1147     890.004E-06     101.135E-03    -17.0857E+06    -36.2347E+06    -17.2707E+06     5.62085E+06    -11.3884E-03     22.8270E-03    -11.4386E-03     3.58435E-03    -11.3956E-03     22.6971E-03    -11.4476E-03     3.65684E-03
            1148     1.77950E-03     101.139E-03    -17.0305E+06    -30.4923E+06    -14.2416E+06     9.13543E+06    -11.4474E-03     22.8725E-03    -11.4250E-03     6.23746E-03    -11.4676E-03     22.7654E-03    -11.4273E-03     6.35514E-03
            1149     2.66931E-03     101.145E-03    -17.9211E+06    -24.5074E+06    -9.98260E+06     11.2223E+06    -11.4325E-03     22.8809E-03    -11.4484E-03     9.49523E-03    -11.4721E-03     22.7988E-03    -11.4368E-03     9.63967E-03
            1150     3.55886E-03     101.154E-03    -17.8856E+06    -18.5632E+06    -4.96732E+06     11.0871E+06    -11.5244E-03     23.0024E-03    -11.4780E-03     12.6143E-03    -11.5798E-03     22.9427E-03    -11.4499E-03     12.7569E-03
            1151     4.44868E-03     101.165E-03    -16.2604E+06    -15.9569E+06     837.665E+03     10.9692E+06    -11.5558E-03     23.0757E-03    -11.5199E-03     16.2681E-03    -11.6153E-03     23.0184E-03    -11.4690E-03     16.4090E-03
            1152     5.33828E-03     101.180E-03    -14.7102E+06    -16.6013E+06     3.51188E+06     10.2109E+06    -11.5629E-03     23.1057E-03    -11.5428E-03     20.1847E-03    -11.6177E-03     23.0392E-03    -11.4798E-03     20.3156E-03
            1153     6.22818E-03     101.197E-03    -12.0707E+06    -14.9644E+06     5.82625E+06     7.69518E+06    -11.6162E-03     23.1697E-03    -11.5535E-03     24.0408E-03    -11.6637E-03     23.1043E-03    -11.4852E-03     24.1391E-03
            1154     7.11770E-03     101.218E-03    -8.93966E+06    -13.4907E+06     8.86860E+06     4.43733E+06    -11.8238E-03     23.3984E-03    -11.5746E-03     28.4526E-03    -11.8625E-03     23.3317E-03    -11.4977E-03     28.5083E-03
            1155     8.00719E-03     101.243E-03    -7.32851E+06    -12.4819E+06     9.78374E+06     720.671E+03    -12.0292E-03     23.6292E-03    -11.6000E-03     33.3165E-03    -12.0631E-03     23.5644E-03    -11.5224E-03     33.3236E-03
            1156     8.89646E-03     101.273E-03    -6.49196E+06    -13.8254E+06     9.34009E+06    -1.94474E+06    -12.2262E-03     23.8559E-03    -11.6296E-03     38.4480E-03    -12.2541E-03     23.7845E-03    -11.5535E-03     38.4198E-03
            1157     9.78620E-03     101.306E-03    -5.77103E+06    -11.2855E+06     10.1135E+06    -4.20860E+06    -12.6607E-03     24.3332E-03    -11.6724E-03     44.4177E-03    -12.6913E-03     24.2739E-03    -11.5971E-03     44.3587E-03
            1158     10.6745E-03     101.346E-03    -5.71872E+06    -13.3757E+06     9.79364E+06    -9.30213E+06    -13.3044E-03     25.0475E-03    -11.7431E-03     51.1361E-03    -13.3341E-03     24.9810E-03    -11.6664E-03     51.0086E-03
            1159     11.5638E-03     101.390E-03    -5.66980E+06    -18.8587E+06     6.06738E+06    -14.1219E+06    -14.2185E-03     26.0555E-03    -11.8370E-03     57.7324E-03    -14.2401E-03     25.9725E-03    -11.7711E-03     57.5382E-03
            1160     12.4505E-03     101.442E-03    -5.59769E+06    -14.1738E+06     6.60656E+06    -14.9714E+06    -15.3950E-03     27.3761E-03    -11.9811E-03     66.2815E-03    -15.4354E-03     27.3271E-03    -11.9194E-03     66.0689E-03
            1161     13.3389E-03     101.503E-03    -4.39333E+06    -17.0922E+06     324.184E+03    -16.5248E+06    -17.0775E-03     29.2369E-03    -12.1594E-03     72.5129E-03    -17.1178E-03     29.2000E-03    -12.1266E-03     72.2696E-03
            1162     14.2219E-03     101.567E-03    -3.48941E+06    -27.8738E+06    -8.78562E+06    -18.9743E+06    -19.4487E-03     31.8705E-03    -12.4219E-03     77.8099E-03    -19.4967E-03     31.8328E-03    -12.4203E-03     77.5195E-03
            1163     15.1063E-03     101.641E-03    -1.80918E+06    -14.9274E+06    -7.40496E+06    -18.3471E+06    -21.7952E-03     34.5640E-03    -12.7688E-03     101.801E-03    -22.0034E-03     34.7343E-03    -12.7815E-03     101.516E-03
            1164     15.9871E-03     101.752E-03    -3.80186E+06     3.31062E+06    -28.0522E+06    -19.0380E+06    -29.2991E-03     42.4156E-03    -13.1165E-03     159.652E-03    -30.6961E-03     43.8928E-03    -13.2560E-03     159.608E-03
            1165     16.8611E-03     101.943E-03    -5.73324E+06     58.3420E+06    -22.3139E+06    -15.7418E+06    -35.4761E-03     49.0328E-03    -13.5567E-03     279.421E-03    -45.0983E-03     58.9072E-03    -13.7445E-03     285.404E-03
            1166     890.220E-06     102.105E-03    -28.6028E+06    -45.3593E+06    -29.3407E+06     3.37497E+06    -10.9775E-03     21.7246E-03    -10.7471E-03     3.49650E-03    -11.0115E-03     21.5833E-03    -10.7866E-03     3.53999E-03
            1167     1.78059E-03     102.108E-03    -24.8269E+06    -39.6496E+06    -23.8796E+06     7.68005E+06    -10.9206E-03     21.8010E-03    -10.8805E-03     6.11452E-03    -10.9525E-03     21.6734E-03    -10.9064E-03     6.21348E-03
            1168     2.67068E-03     102.114E-03    -20.3732E+06    -30.9443E+06    -14.5011E+06     11.8375E+06    -10.9736E-03     21.9009E-03    -10.9273E-03     9.62451E-03    -11.0096E-03     21.7967E-03    -10.9254E-03     9.77696E-03
            1169     3.56090E-03     102.123E-03    -17.5302E+06    -21.2569E+06    -5.00600E+06     13.2719E+06    -11.0477E-03     22.0276E-03    -10.9799E-03     12.9421E-03    -11.0973E-03     21.9540E-03    -10.9486E-03     13.1130E-03
            1170     4.45072E-03     102.135E-03    -16.1599E+06    -18.3678E+06    -399.396E+03     12.5964E+06    -11.0819E-03     22.1014E-03    -11.0195E-03     16.4803E-03    -11.1356E-03     22.0336E-03    -10.9715E-03     16.6424E-03
            1171     5.34101E-03     102.149E-03    -13.4362E+06    -15.7503E+06     2.85024E+06     10.6140E+06    -11.0702E-03     22.1104E-03    -11.0402E-03     20.3444E-03    -11.1189E-03     22.0471E-03    -10.9836E-03     20.4807E-03
            1172     6.23108E-03     102.167E-03    -10.5211E+06    -12.5425E+06     7.37304E+06     7.20935E+06    -11.2458E-03     22.3129E-03    -11.0670E-03     24.2488E-03    -11.2913E-03     22.2551E-03    -10.9967E-03     24.3409E-03
            1173     7.12114E-03     102.188E-03    -7.61065E+06    -10.4448E+06     10.1528E+06     3.72467E+06    -11.4841E-03     22.5865E-03    -11.1023E-03     28.7175E-03    -11.5224E-03     22.5312E-03    -11.0254E-03     28.7643E-03
            1174     8.01080E-03     102.214E-03    -5.04890E+06    -9.31345E+06     11.0686E+06     1.23954E+06    -11.6259E-03     22.7630E-03    -11.1371E-03     33.5178E-03    -11.6547E-03     22.7087E-03    -11.0609E-03     33.5319E-03
            1175     8.90092E-03     102.242E-03    -3.65305E+06    -11.4914E+06     11.1491E+06    -980.099E+03    -11.8903E-03     23.0678E-03    -11.1776E-03     38.8258E-03    -11.9098E-03     23.0013E-03    -11.0999E-03     38.8104E-03
            1176     9.78996E-03     102.277E-03    -2.24880E+06    -7.58134E+06     12.9215E+06    -3.88391E+06    -12.3197E-03     23.5509E-03    -11.2313E-03     44.9691E-03    -12.3418E-03     23.5007E-03    -11.1524E-03     44.9147E-03
            1177     10.6800E-03     102.317E-03    -1.36465E+06    -6.07788E+06     14.3148E+06    -7.60740E+06    -13.0417E-03     24.3558E-03    -11.3140E-03     51.7477E-03    -13.0664E-03     24.3125E-03    -11.2316E-03     51.6427E-03
            1178     11.5678E-03     102.363E-03    -3.51952E+06    -15.3613E+06     9.42592E+06    -10.7721E+06    -14.2160E-03     25.6477E-03    -11.4317E-03     58.6115E-03    -14.2365E-03     25.5739E-03    -11.3572E-03     58.4609E-03
            1179     12.4561E-03     102.415E-03    -5.29455E+06    -10.2666E+06     9.28342E+06    -14.3199E+06    -15.7332E-03     27.3466E-03    -11.6134E-03     67.2834E-03    -15.7814E-03     27.3127E-03    -11.5444E-03     67.0792E-03
            1180     13.3412E-03     102.478E-03    -4.21652E+06    -13.0944E+06     3.35861E+06    -17.7729E+06    -17.9202E-03     29.7740E-03    -11.8538E-03     74.7175E-03    -17.9708E-03     29.7535E-03    -11.8119E-03     74.4565E-03
            1181     14.2265E-03     102.546E-03    -2.80399E+06    -24.6454E+06    -5.92066E+06    -19.7973E+06    -20.4929E-03     32.6808E-03    -12.1879E-03     80.9331E-03    -20.5480E-03     32.6557E-03    -12.1777E-03     80.6285E-03
            1182     15.1072E-03     102.621E-03    -1.92920E+06    -15.9867E+06    -7.76704E+06    -20.2388E+06    -23.2375E-03     35.8419E-03    -12.6044E-03     104.959E-03    -23.4525E-03     36.0160E-03    -12.6173E-03     104.636E-03
            1183     15.9884E-03     102.735E-03    -791.572E+03     2.75244E+06    -26.2299E+06    -18.8511E+06    -27.8072E-03     40.7501E-03    -12.9429E-03     168.512E-03    -29.2521E-03     42.2780E-03    -13.0769E-03     168.553E-03
            1184     16.8732E-03     102.930E-03     2.86890E+06     52.4684E+06    -14.7561E+06    -15.0136E+06    -34.2069E-03     47.5534E-03    -13.3464E-03     275.478E-03    -43.0643E-03     56.6500E-03    -13.5004E-03     281.141E-03
            1185     890.549E-06     103.073E-03    -41.9109E+06    -48.9985E+06    -41.5578E+06     174.401E+03    -10.4451E-03     20.7931E-03    -10.3481E-03     3.07067E-03    -10.5227E-03     20.6706E-03    -10.4240E-03     3.07289E-03
            1186     1.78127E-03     103.077E-03    -36.1912E+06    -45.9645E+06    -35.2245E+06     1.68249E+06    -10.3633E-03     20.7668E-03    -10.4035E-03     6.33457E-03    -10.4265E-03     20.6406E-03    -10.4605E-03     6.35612E-03
            1187     2.67197E-03     103.083E-03    -27.1579E+06    -38.7101E+06    -24.7928E+06     5.27752E+06    -10.4254E-03     20.8458E-03    -10.4204E-03     9.54886E-03    -10.4691E-03     20.7275E-03    -10.4488E-03     9.61673E-03
            1188     3.56265E-03     103.092E-03    -18.3432E+06    -27.5099E+06    -13.1019E+06     10.6599E+06    -10.4352E-03     20.8818E-03    -10.4466E-03     13.0415E-03    -10.4681E-03     20.7899E-03    -10.4456E-03     13.1788E-03
            1189     4.45336E-03     103.104E-03    -12.7492E+06    -19.7066E+06    -3.16106E+06     12.5187E+06    -10.5729E-03     21.0555E-03    -10.4826E-03     16.5413E-03    -10.6036E-03     20.9801E-03    -10.4513E-03     16.7024E-03
            1190     5.34375E-03     103.118E-03    -10.1222E+06    -14.7352E+06     4.95307E+06     10.4659E+06    -10.7382E-03     21.2748E-03    -10.5366E-03     20.4912E-03    -10.7748E-03     21.2088E-03    -10.4758E-03     20.6256E-03
            1191     6.23427E-03     103.136E-03    -8.04359E+06    -10.0473E+06     9.22485E+06     7.68051E+06    -10.9174E-03     21.5026E-03    -10.5852E-03     24.4973E-03    -10.9567E-03     21.4510E-03    -10.5129E-03     24.5956E-03
            1192     7.12427E-03     103.158E-03    -7.07169E+06    -6.90290E+06     10.8902E+06     4.15959E+06    -11.0634E-03     21.6933E-03    -10.6299E-03     28.8732E-03    -11.1051E-03     21.6538E-03    -10.5551E-03     28.9257E-03
            1193     8.01481E-03     103.183E-03    -5.61865E+06    -7.07762E+06     11.8327E+06     797.791E+03    -11.2707E-03     21.9482E-03    -10.6776E-03     33.6376E-03    -11.3066E-03     21.9048E-03    -10.6000E-03     33.6463E-03
            1194     8.90454E-03     103.213E-03    -2.06909E+06    -8.28128E+06     13.4001E+06    -2.14092E+06    -11.5728E-03     22.3062E-03    -10.7334E-03     39.0516E-03    -11.5922E-03     22.2500E-03    -10.6514E-03     39.0215E-03
            1195     9.79492E-03     103.247E-03     1.31359E+06    -4.23014E+06     15.7612E+06    -4.62737E+06    -12.0458E-03     22.8455E-03    -10.7997E-03     45.3978E-03    -12.0588E-03     22.8025E-03    -10.7167E-03     45.3343E-03
            1196     10.6837E-03     103.288E-03     1.71482E+06    -3.72036E+06     16.3500E+06    -5.15308E+06    -12.8959E-03     23.7930E-03    -10.8970E-03     52.5937E-03    -12.9112E-03     23.7537E-03    -10.8124E-03     52.5210E-03
            1197     11.5730E-03     103.335E-03     1.19243E+06    -10.3062E+06     14.7793E+06    -7.36738E+06    -14.1311E-03     25.1762E-03    -11.0451E-03     60.0011E-03    -14.1426E-03     25.1124E-03    -10.9580E-03     59.8953E-03
            1198     12.4598E-03     103.389E-03     642.776E+03    -3.99774E+06     16.0482E+06    -12.0028E+06    -15.9032E-03     27.1594E-03    -11.2562E-03     69.7144E-03    -15.9403E-03     27.1381E-03    -11.1711E-03     69.5406E-03
            1199     13.3466E-03     103.454E-03    -1.17757E+06    -8.04369E+06     8.52382E+06    -16.8310E+06    -18.2140E-03     29.7406E-03    -11.5265E-03     78.5515E-03    -18.2646E-03     29.7337E-03    -11.4705E-03     78.3026E-03
            1200     14.2295E-03     103.524E-03    -2.53159E+06    -21.2832E+06    -4.76555E+06    -20.0134E+06    -20.6870E-03     32.5605E-03    -11.8734E-03     85.5105E-03    -20.7482E-03     32.5510E-03    -11.8627E-03     85.2031E-03
            1201     15.1126E-03     103.602E-03    -3.05271E+06    -13.7950E+06    -6.12992E+06    -22.0385E+06    -23.8394E-03     36.1657E-03    -12.3264E-03     109.165E-03    -24.0777E-03     36.3621E-03    -12.3326E-03     108.814E-03
            1202     15.9942E-03     103.716E-03    -234.133E+03     2.12630E+06    -18.4144E+06    -23.1532E+06    -28.3158E-03     41.0529E-03    -12.7372E-03     169.017E-03    -29.6926E-03     42.4900E-03    -12.8320E-03     168.978E-03
            1203     16.8739E-03     103.911E-03     3.21952E+06     41.0476E+06    -11.1162E+06    -16.0682E+06    -35.5785E-03     48.7775E-03    -13.1990E-03     273.018E-03    -44.2038E-03     57.5923E-03    -13.3188E-03     278.341E-03
            1204     890.907E-06     104.040E-03    -51.4381E+06    -47.0300E+06    -50.8626E+06    -2.33746E+06    -9.93467E-03     19.7852E-03    -9.85050E-03     3.09682E-03    -10.0493E-03     19.6999E-03    -9.96204E-03     3.06661E-03
            1205     1.78214E-03     104.045E-03    -47.4605E+06    -45.1638E+06    -45.5025E+06    -4.22560E+06    -9.93496E-03     19.8508E-03    -9.91582E-03     6.62874E-03    -10.0407E-03     19.7598E-03    -10.0090E-03     6.57403E-03
            1206     2.67300E-03     104.051E-03    -40.3349E+06    -42.5916E+06    -38.6380E+06    -4.31114E+06    -9.93313E-03     19.8715E-03    -9.93834E-03     9.57973E-03    -10.0170E-03     19.7730E-03    -10.0113E-03     9.52390E-03
            1207     3.56427E-03     104.060E-03    -28.7952E+06    -34.9780E+06    -29.2465E+06    -540.997E+03    -9.90803E-03     19.8524E-03    -9.94441E-03     12.9804E-03    -9.95891E-03     19.7617E-03    -9.99817E-03     12.9731E-03
            1208     4.45551E-03     104.072E-03    -15.3653E+06    -23.6354E+06    -12.9421E+06     4.73788E+06    -10.0781E-03     20.0621E-03    -9.98397E-03     16.4253E-03    -10.1020E-03     19.9851E-03    -9.99212E-03     16.4860E-03
            1209     5.34650E-03     104.086E-03    -5.44832E+06    -15.7823E+06     2.69136E+06     7.88632E+06    -10.3470E-03     20.4072E-03    -10.0602E-03     20.2656E-03    -10.3554E-03     20.3324E-03    -10.0159E-03     20.3668E-03
            1210     6.23692E-03     104.105E-03    -1.44700E+06    -9.15334E+06     10.8729E+06     8.08638E+06    -10.4955E-03     20.6221E-03    -10.1266E-03     24.3846E-03    -10.5056E-03     20.5630E-03    -10.0569E-03     24.4882E-03
            1211     7.12793E-03     104.126E-03     -66.307E+03    -3.41249E+06     15.7215E+06     5.86206E+06    -10.6938E-03     20.8806E-03    -10.1868E-03     28.8475E-03    -10.7125E-03     20.8414E-03    -10.1032E-03     28.9221E-03
            1212     8.01809E-03     104.152E-03     622.707E+03    -3.07606E+06     17.8547E+06     1.52522E+06    -10.9847E-03     21.2368E-03    -10.2521E-03     33.7013E-03    -11.0039E-03     21.1955E-03    -10.1592E-03     33.7195E-03
            1213     8.90870E-03     104.181E-03     1.01205E+06    -3.94238E+06     17.8473E+06    -3.07542E+06    -11.3048E-03     21.6241E-03    -10.3193E-03     39.1247E-03    -11.3214E-03     21.5785E-03    -10.2258E-03     39.0829E-03
            1214     9.79845E-03     104.216E-03     1.79552E+06    -3.07246E+06     17.3870E+06    -4.82034E+06    -11.8008E-03     22.1955E-03    -10.3947E-03     45.7248E-03    -11.8152E-03     22.1549E-03    -10.3059E-03     45.6593E-03
            1215     10.6887E-03     104.258E-03     4.45149E+06    -3.02371E+06     18.3155E+06    -5.22370E+06    -12.5907E-03     23.0916E-03    -10.5009E-03     53.3723E-03    -12.5956E-03     23.0485E-03    -10.4114E-03     53.2995E-03
            1216     11.5771E-03     104.306E-03     6.50725E+06    -6.68779E+06     19.3088E+06    -6.12156E+06    -13.7685E-03     24.4239E-03    -10.6554E-03     61.5008E-03    -13.7641E-03     24.3629E-03    -10.5586E-03     61.4123E-03
            1217     12.4657E-03     104.362E-03     5.01607E+06     1.50956E+06     20.4760E+06    -8.18532E+06    -15.6082E-03     26.4719E-03    -10.8637E-03     72.2989E-03    -15.6366E-03     26.4642E-03    -10.7708E-03     72.1758E-03
            1218     13.3515E-03     104.430E-03     1.12351E+06    -1.66621E+06     12.8753E+06    -11.9971E+06    -17.9607E-03     29.0968E-03    -11.1361E-03     81.7701E-03    -18.0140E-03     29.1109E-03    -11.0709E-03     81.5853E-03
            1219     14.2368E-03     104.502E-03    -4.44529E+06    -15.8771E+06    -1.60975E+06    -16.8369E+06    -20.6930E-03     32.1862E-03    -11.4932E-03     89.0594E-03    -20.7748E-03     32.2007E-03    -11.4718E-03     88.7940E-03
            1220     15.1188E-03     104.582E-03    -6.62118E+06    -6.25499E+06    -1.87788E+06    -22.9480E+06    -25.1276E-03     37.1290E-03    -12.0014E-03     112.738E-03    -25.4050E-03     37.3664E-03    -11.9922E-03     112.364E-03
            1221     15.9963E-03     104.701E-03    -4.89479E+06     4.42798E+06    -11.5999E+06    -27.3807E+06    -30.5995E-03     43.1449E-03    -12.5454E-03     169.348E-03    -31.9361E-03     44.5136E-03    -12.6027E-03     169.163E-03
            1222     16.8750E-03     104.893E-03    -5.45858E+06     24.4842E+06    -12.2453E+06    -21.1587E+06    -37.8616E-03     50.9809E-03    -13.1194E-03     274.903E-03    -46.4469E-03     59.6694E-03    -13.2082E-03     279.768E-03
            1223     891.835E-06     105.007E-03    -50.6767E+06    -40.8810E+06    -50.6175E+06    -4.06709E+06    -9.55625E-03     18.9220E-03    -9.36571E-03     3.35366E-03    -9.67632E-03     18.8659E-03    -9.48604E-03     3.30099E-03
            1224     1.78275E-03     105.011E-03    -49.0536E+06    -39.5708E+06    -47.1038E+06    -7.00383E+06    -9.59427E-03     19.0916E-03    -9.49731E-03     6.37235E-03    -9.71378E-03     19.0332E-03    -9.60432E-03     6.28178E-03
            1225     2.67437E-03     105.018E-03    -46.3905E+06    -38.7510E+06    -43.8804E+06    -10.0761E+06    -9.56762E-03     19.1048E-03    -9.53723E-03     9.40096E-03    -9.67974E-03     19.0420E-03    -9.63318E-03     9.27069E-03
            1226     3.56552E-03     105.026E-03    -40.9969E+06    -36.3870E+06    -38.5968E+06    -11.7859E+06    -9.64388E-03     19.2073E-03    -9.56344E-03     12.7139E-03    -9.74018E-03     19.1408E-03    -9.64421E-03     12.5615E-03
            1227     4.45693E-03     105.039E-03    -30.7452E+06    -28.7785E+06    -28.7745E+06    -9.12353E+06    -9.74021E-03     19.3423E-03    -9.60205E-03     16.2550E-03    -9.81059E-03     19.2848E-03    -9.65962E-03     16.1368E-03
            1228     5.34806E-03     105.054E-03    -16.7807E+06    -20.6860E+06    -15.8303E+06    -3.44054E+06    -9.84764E-03     19.4995E-03    -9.65185E-03     19.7755E-03    -9.87878E-03     19.4435E-03    -9.67668E-03     19.7306E-03
            1229     6.23976E-03     105.072E-03    -2.82799E+06    -11.4395E+06     1.77208E+06     1.63585E+06    -10.0015E-03     19.7278E-03    -9.72635E-03     23.7859E-03    -10.0019E-03     19.6725E-03    -9.69681E-03     23.8063E-03
            1230     7.13051E-03     105.094E-03     6.49205E+06    -2.87993E+06     16.6048E+06     3.84454E+06    -10.2731E-03     20.0798E-03    -9.80664E-03     28.3320E-03    -10.2611E-03     20.0324E-03    -9.72885E-03     28.3806E-03
            1231     8.02164E-03     105.120E-03     9.39391E+06     437.978E+03     23.0462E+06     3.51663E+06    -10.5912E-03     20.4704E-03    -9.87924E-03     33.2675E-03    -10.5791E-03     20.4264E-03    -9.77826E-03     33.3115E-03
            1232     8.91195E-03     105.150E-03     8.17467E+06     1.57964E+06     24.6269E+06    -130.804E+03    -11.0442E-03     21.0008E-03    -9.95664E-03     38.9752E-03    -11.0426E-03     20.9625E-03    -9.84765E-03     38.9715E-03
            1233     9.80251E-03     105.185E-03     7.94724E+06    -1.30498E+06     23.4028E+06    -4.46342E+06    -11.6080E-03     21.6550E-03    -10.0470E-03     45.7316E-03    -11.6026E-03     21.6053E-03    -9.93961E-03     45.6711E-03
            1234     10.6920E-03     105.227E-03     8.22241E+06    -2.35294E+06     21.8721E+06    -5.51223E+06    -12.2057E-03     22.3567E-03    -10.1510E-03     53.5509E-03    -12.1971E-03     22.3055E-03    -10.0501E-03     53.4753E-03
            1235     11.5821E-03     105.277E-03     8.97797E+06    -4.55469E+06     22.3302E+06    -6.30404E+06    -13.2606E-03     23.5548E-03    -10.2942E-03     62.2554E-03    -13.2500E-03     23.4951E-03    -10.1889E-03     62.1662E-03
            1236     12.4702E-03     105.334E-03     10.3946E+06     1.74807E+06     24.2741E+06    -5.10035E+06    -15.1283E-03     25.6200E-03    -10.4917E-03     73.8874E-03    -15.1335E-03     25.5979E-03    -10.3879E-03     73.8062E-03
            1237     13.3576E-03     105.405E-03     7.95667E+06     4.46478E+06     20.5763E+06    -5.28470E+06    -17.6038E-03     28.3677E-03    -10.7639E-03     83.7204E-03    -17.6398E-03     28.3882E-03    -10.6791E-03     83.6246E-03
            1238     14.2419E-03     105.479E-03     4.33272E+06    -7.82489E+06     9.74432E+06    -10.8807E+06    -21.1047E-03     32.2553E-03    -11.1506E-03     91.8621E-03    -21.1680E-03     32.2781E-03    -11.0968E-03     91.6728E-03
            1239     15.1231E-03     105.565E-03    -607.819E+03     3.73041E+06     8.33351E+06    -17.7650E+06    -26.1317E-03     37.8358E-03    -11.7041E-03     117.120E-03    -26.4032E-03     38.0945E-03    -11.6670E-03     116.804E-03
            1240     16.0012E-03     105.688E-03    -4.89943E+06     12.3142E+06    -2.24067E+06    -26.9787E+06    -32.5493E-03     44.8896E-03    -12.3403E-03     171.626E-03    -33.8389E-03     46.2123E-03    -12.3623E-03     171.360E-03
            1241     16.8784E-03     105.877E-03    -2.81686E+06     7.30236E+06      869.42E+03    -24.3504E+06    -40.2965E-03     53.3760E-03    -13.0795E-03     274.842E-03    -48.5666E-03     61.6595E-03    -13.0816E-03     279.110E-03
            1242     891.460E-06     105.973E-03    -37.4574E+06    -32.7981E+06    -36.9402E+06    -4.44799E+06    -9.31665E-03     18.6231E-03    -9.30646E-03     3.42621E-03    -9.40218E-03     18.5685E-03    -9.38929E-03     3.36855E-03
            1243     1.78336E-03     105.977E-03    -37.1416E+06    -32.3580E+06    -36.0473E+06    -7.58608E+06    -9.33957E-03     18.6589E-03    -9.31929E-03     5.86111E-03    -9.42604E-03     18.6033E-03    -9.39876E-03     5.76295E-03
            1244     2.67476E-03     105.984E-03    -36.5746E+06    -31.1153E+06    -33.2584E+06    -11.0511E+06    -9.42059E-03     18.7681E-03    -9.34755E-03     8.93348E-03    -9.51013E-03     18.7139E-03    -9.41569E-03     8.79053E-03
            1245     3.56649E-03     105.993E-03    -35.9832E+06    -30.4673E+06    -30.0884E+06    -14.8452E+06    -9.56779E-03     18.9634E-03    -9.39565E-03     12.1272E-03    -9.65998E-03     18.9070E-03    -9.44974E-03     11.9351E-03
            1246     4.45765E-03     106.005E-03    -34.2153E+06    -28.5112E+06    -28.9134E+06    -17.0166E+06    -9.59883E-03     19.0307E-03    -9.43185E-03     15.5735E-03    -9.68681E-03     18.9798E-03    -9.48547E-03     15.3534E-03
            1247     5.34935E-03     106.020E-03    -28.1133E+06    -23.5127E+06    -25.7137E+06    -16.2157E+06    -9.59460E-03     19.0462E-03    -9.45156E-03     18.9470E-03    -9.66405E-03     19.0069E-03    -9.50527E-03     18.7370E-03
            1248     6.24050E-03     106.038E-03    -16.2067E+06    -15.3665E+06    -14.5359E+06    -13.1760E+06    -9.67018E-03     19.1587E-03    -9.48852E-03     22.7545E-03    -9.70822E-03     19.1268E-03    -9.51542E-03     22.5836E-03
            1249     7.13240E-03     106.061E-03    -1.58105E+06    -8.00017E+06     924.070E+03    -6.58380E+06    -9.79940E-03     19.3431E-03    -9.54372E-03     27.0828E-03    -9.79756E-03     19.3046E-03    -9.52521E-03     26.9969E-03
            1250     8.02351E-03     106.087E-03     10.2079E+06    -1.41580E+06     17.5165E+06    -224.688E+03    -10.0965E-03     19.7165E-03    -9.61999E-03     32.0030E-03    -10.0696E-03     19.6700E-03    -9.54515E-03     31.9988E-03
            1251     8.91499E-03     106.118E-03     15.9927E+06     4.85328E+06     28.8589E+06     1.63228E+06    -10.6248E-03     20.3304E-03    -9.70556E-03     37.9227E-03    -10.5949E-03     20.2908E-03    -9.59149E-03     37.9421E-03
            1252     9.80510E-03     106.154E-03     13.6909E+06     2.29193E+06     28.5423E+06    -32.4819E+03    -11.2476E-03     21.0377E-03    -9.79011E-03     44.8037E-03    -11.2258E-03     20.9899E-03    -9.67057E-03     44.8008E-03
            1253     10.6956E-03     106.196E-03     10.3599E+06    -38.4274E+03     26.0110E+06    -3.47790E+06    -11.8990E-03     21.7902E-03    -9.89120E-03     52.8513E-03    -11.8883E-03     21.7407E-03    -9.77612E-03     52.8027E-03
            1254     11.5851E-03     106.246E-03     10.7369E+06    -1.41007E+06     26.2165E+06    -6.76972E+06    -12.9334E-03     22.9631E-03    -10.0297E-03     62.1014E-03    -12.9227E-03     22.9095E-03    -9.91211E-03     62.0075E-03
            1255     12.4744E-03     106.305E-03     13.8934E+06    -1.57250E+06     28.4149E+06    -6.90675E+06    -14.6618E-03     24.8874E-03    -10.2256E-03     74.2611E-03    -14.6476E-03     24.8345E-03    -10.1014E-03     74.1590E-03
            1256     13.3616E-03     106.378E-03     19.6942E+06     5.39111E+06     31.2531E+06    -3.67658E+06    -17.2960E-03     27.7966E-03    -10.5005E-03     85.0755E-03    -17.2853E-03     27.7844E-03    -10.3806E-03     85.0034E-03
            1257     14.2467E-03     106.456E-03     20.3677E+06     716.289E+03     22.8244E+06    -5.53168E+06    -21.3480E-03     32.2356E-03    -10.8876E-03     95.1192E-03    -21.3578E-03     32.2542E-03    -10.8040E-03     94.9998E-03
            1258     15.1277E-03     106.547E-03     17.8043E+06     10.9248E+06     24.0331E+06    -10.4356E+06    -26.7271E-03     38.2067E-03    -11.4795E-03     120.324E-03    -26.9258E-03     38.4378E-03    -11.4010E-03     120.096E-03
            1259     16.0067E-03     106.674E-03     8.76059E+06     28.0840E+06     17.5246E+06    -18.1093E+06    -34.5003E-03     46.6974E-03    -12.1972E-03     173.940E-03    -35.6932E-03     47.9708E-03    -12.1630E-03     173.690E-03
            1260     16.8776E-03     106.870E-03    -591.464E+03    -1.49904E+06     13.5008E+06    -21.2838E+06    -42.9948E-03     56.0730E-03    -13.0782E-03     272.090E-03    -50.7711E-03     63.8028E-03    -13.0077E-03     275.753E-03
            1261     891.629E-06     106.940E-03    -20.8490E+06    -24.7149E+06    -20.6780E+06    -3.96636E+06    -9.41093E-03     18.8189E-03    -9.40799E-03     3.06485E-03    -9.44878E-03     18.7570E-03    -9.44531E-03     3.01328E-03
            1262     1.78317E-03     106.943E-03    -21.2401E+06    -25.1181E+06    -20.0025E+06    -6.98957E+06    -9.35558E-03     18.7571E-03    -9.40148E-03     5.49182E-03    -9.39635E-03     18.6914E-03    -9.43428E-03     5.40121E-03
            1263     2.67500E-03     106.950E-03    -21.2723E+06    -23.5075E+06    -17.7474E+06    -10.1737E+06    -9.53616E-03     18.9555E-03    -9.41937E-03     8.33719E-03    -9.58275E-03     18.8947E-03    -9.44318E-03     8.20540E-03
            1264     3.56613E-03     106.959E-03    -21.0463E+06    -22.5547E+06    -15.5391E+06    -13.6144E+06    -9.65768E-03     19.1303E-03    -9.47267E-03     11.2784E-03    -9.70780E-03     19.0708E-03    -9.48714E-03     11.1021E-03
            1265     4.45772E-03     106.971E-03    -21.1115E+06    -22.5472E+06    -14.9025E+06    -16.9719E+06    -9.69941E-03     19.2162E-03    -9.51676E-03     14.3210E-03    -9.75090E-03     19.1559E-03    -9.52797E-03     14.1011E-03
            1266     5.34890E-03     106.986E-03    -21.2263E+06    -19.9889E+06    -15.6692E+06    -20.0980E+06    -9.67946E-03     19.2147E-03    -9.53525E-03     17.5758E-03    -9.73424E-03     19.1686E-03    -9.55383E-03     17.3155E-03
            1267     6.24058E-03     107.005E-03    -20.9197E+06    -15.4352E+06    -16.0501E+06    -21.0698E+06    -9.64507E-03     19.1820E-03    -9.53694E-03     21.2436E-03    -9.70450E-03     19.1589E-03    -9.56448E-03     20.9706E-03
            1268     7.13172E-03     107.027E-03    -16.6964E+06    -13.6315E+06    -12.3410E+06    -18.6413E+06    -9.64073E-03     19.1872E-03    -9.54644E-03     25.2749E-03    -9.68719E-03     19.1617E-03    -9.56417E-03     25.0331E-03
            1269     8.02382E-03     107.053E-03    -5.72455E+06    -7.58299E+06    -826.422E+03    -12.4469E+06    -9.80741E-03     19.3863E-03    -9.57892E-03     29.9949E-03    -9.82466E-03     19.3587E-03    -9.56375E-03     29.8329E-03
            1270     8.91483E-03     107.085E-03     6.29958E+06     538.353E+03     14.9944E+06    -4.49539E+06    -10.1713E-03     19.8150E-03    -9.64376E-03     35.6262E-03    -10.1634E-03     19.7879E-03    -9.57870E-03     35.5666E-03
            1271     9.80652E-03     107.121E-03     15.6539E+06     2.81492E+06     27.5260E+06     514.851E+03    -10.7040E-03     20.4336E-03    -9.72960E-03     42.3220E-03    -10.6713E-03     20.3867E-03    -9.61875E-03     42.3266E-03
            1272     10.6968E-03     107.164E-03     18.3918E+06     4.34663E+06     32.9652E+06    -225.174E+03    -11.5111E-03     21.3355E-03    -9.82442E-03     50.6269E-03    -11.4760E-03     21.2856E-03    -9.69257E-03     50.6209E-03
            1273     11.5869E-03     107.215E-03     14.5537E+06     1.81969E+06     32.3875E+06    -3.08726E+06    -12.6707E-03     22.6213E-03    -9.95058E-03     60.5187E-03    -12.6530E-03     22.5678E-03    -9.81239E-03     60.4736E-03
            1274     12.4756E-03     107.276E-03     11.6742E+06     1.74035E+06     32.8084E+06    -8.03639E+06    -14.3021E-03     24.4366E-03    -10.1345E-03     73.2855E-03    -14.3066E-03     24.3936E-03    -9.98988E-03     73.1713E-03
            1275     13.3638E-03     107.350E-03     15.1734E+06     1.88942E+06     33.3252E+06    -10.6709E+06    -16.8655E-03     27.2593E-03    -10.3937E-03     85.5867E-03    -16.8693E-03     27.2270E-03    -10.2518E-03     85.4280E-03
            1276     14.2491E-03     107.433E-03     22.9081E+06     2.51656E+06     25.8619E+06    -6.73448E+06    -21.0724E-03     31.8216E-03    -10.7492E-03     97.3923E-03    -21.0672E-03     31.8319E-03    -10.6567E-03     97.2610E-03
            1277     15.1305E-03     107.529E-03     22.5021E+06     13.9247E+06     27.8131E+06    -4.90014E+06    -27.6223E-03     38.9771E-03    -11.3549E-03     123.243E-03    -27.7913E-03     39.1952E-03    -11.2686E-03     123.078E-03
            1278     16.0056E-03     107.661E-03     18.9587E+06     40.3187E+06     31.3396E+06    -6.62587E+06    -36.0495E-03     48.2078E-03    -12.1583E-03     176.624E-03    -37.1250E-03     49.4032E-03    -12.0876E-03     176.449E-03
            1279     16.8806E-03     107.863E-03     11.2785E+06     371.708E+03     29.7764E+06    -8.33857E+06    -44.9970E-03     58.1364E-03    -13.1393E-03     271.436E-03    -52.1023E-03     65.1968E-03    -13.0074E-03     274.546E-03
            1280     891.143E-06     107.905E-03    -6.72887E+06    -17.7456E+06    -6.21551E+06    -3.03680E+06    -9.78886E-03     19.4873E-03    -9.69841E-03     2.31990E-03    -9.78713E-03     19.4188E-03    -9.69400E-03     2.28021E-03
            1281     1.78291E-03     107.910E-03    -7.63243E+06    -18.6746E+06    -6.36001E+06    -5.54423E+06    -9.79417E-03     19.5503E-03    -9.75612E-03     4.98964E-03    -9.79604E-03     19.4773E-03    -9.74977E-03     4.91756E-03
            1282     2.67381E-03     107.916E-03    -9.07488E+06    -16.8083E+06    -6.59161E+06    -8.23745E+06    -9.89509E-03     19.6786E-03    -9.78350E-03     7.48026E-03    -9.90659E-03     19.6173E-03    -9.77893E-03     7.37327E-03
            1283     3.56532E-03     107.926E-03    -10.8328E+06    -15.4145E+06    -6.87373E+06    -11.3782E+06    -9.96313E-03     19.7830E-03    -9.81984E-03     10.1326E-03    -9.98514E-03     19.7317E-03    -9.81615E-03     9.98482E-03
            1284     4.45616E-03     107.938E-03    -12.0071E+06    -15.2832E+06    -6.54366E+06    -15.0413E+06    -10.0337E-03     19.8921E-03    -9.85835E-03     12.8716E-03    -10.0624E-03     19.8429E-03    -9.85149E-03     12.6764E-03
            1285     5.34742E-03     107.953E-03    -12.9791E+06    -13.6115E+06    -5.89286E+06    -18.1155E+06    -10.0487E-03     19.9387E-03    -9.89005E-03     15.7483E-03    -10.0857E-03     19.8984E-03    -9.88096E-03     15.5131E-03
            1286     6.23839E-03     107.971E-03    -14.4395E+06    -12.5615E+06    -5.95360E+06    -19.2938E+06    -10.0337E-03     19.9431E-03    -9.90941E-03     18.9576E-03    -10.0797E-03     19.9105E-03    -9.90003E-03     18.7070E-03
            1287     7.12999E-03     107.994E-03    -16.7677E+06    -12.2707E+06    -6.66127E+06    -20.2651E+06    -10.0701E-03     19.9917E-03    -9.92163E-03     22.5587E-03    -10.1273E-03     19.9651E-03    -9.91283E-03     22.2955E-03
            1288     8.02064E-03     108.020E-03    -17.3009E+06    -11.0516E+06    -7.94981E+06    -20.5997E+06    -10.0914E-03     20.0148E-03    -9.92344E-03     26.8847E-03    -10.1513E-03     19.9971E-03    -9.92207E-03     26.6170E-03
            1289     8.91240E-03     108.051E-03    -9.92352E+06    -6.60670E+06    -1.36339E+06    -16.3956E+06    -10.1352E-03     20.0779E-03    -9.94266E-03     32.0640E-03    -10.1745E-03     20.0624E-03    -9.92551E-03     31.8506E-03
            1290     9.80315E-03     108.088E-03     2.85104E+06    -1.17979E+06     13.9928E+06    -10.5581E+06    -10.3851E-03     20.3829E-03    -9.99779E-03     38.3810E-03    -10.3909E-03     20.3540E-03    -9.93025E-03     38.2427E-03
            1291     10.6947E-03     108.132E-03     14.6755E+06     1.41109E+06     29.7022E+06    -3.45244E+06    -11.0187E-03     21.0993E-03    -10.0806E-03     46.6041E-03    -10.9925E-03     21.0441E-03    -9.95545E-03     46.5571E-03
            1292     11.5849E-03     108.184E-03     21.8872E+06     4.89815E+06     39.4310E+06    -504.626E+03    -12.2053E-03     22.3904E-03    -10.1851E-03     56.8490E-03    -12.1640E-03     22.3299E-03    -10.0268E-03     56.8385E-03
            1293     12.4744E-03     108.246E-03     21.5133E+06     7.65179E+06     39.8969E+06    -2.91747E+06    -13.9161E-03     24.2386E-03    -10.3225E-03     70.1011E-03    -13.8864E-03     24.1968E-03    -10.1653E-03     70.0556E-03
            1294     13.3622E-03     108.322E-03     13.6109E+06     5.87963E+06     35.2337E+06    -7.59271E+06    -16.3711E-03     26.9115E-03    -10.5404E-03     83.9045E-03    -16.3840E-03     26.8915E-03    -10.3925E-03     83.7898E-03
            1295     14.2481E-03     108.409E-03     9.71139E+06     1.51440E+06     25.0062E+06    -13.3421E+06    -20.5521E-03     31.4216E-03    -10.8695E-03     98.0569E-03    -20.5972E-03     31.4343E-03    -10.7608E-03     97.8463E-03
            1296     15.1299E-03     108.511E-03     14.0080E+06     3.89159E+06     27.8070E+06    -3.85616E+06    -27.6214E-03     39.0802E-03    -11.4589E-03     126.350E-03    -27.7902E-03     39.2323E-03    -11.3458E-03     126.200E-03
            1297     16.0062E-03     108.652E-03     8.52340E+06     45.2757E+06     38.4937E+06     3.70720E+06    -36.8661E-03     49.1492E-03    -12.2831E-03     178.951E-03    -37.8448E-03     50.2077E-03    -12.1687E-03     178.849E-03
            1298     16.8769E-03     108.853E-03     2.10724E+06     6.19880E+06     25.5760E+06    -2.07457E+06    -45.3654E-03     58.5760E-03    -13.2107E-03     269.936E-03    -51.5351E-03     64.7010E-03    -13.0948E-03     272.365E-03
            1299     891.156E-06     108.873E-03    -215.466E+03    -12.7647E+06     34.3368E+03    -1.94175E+06    -10.3529E-03     20.7911E-03    -10.4382E-03     2.14135E-03    -10.3348E-03     20.7291E-03    -10.4192E-03     2.11590E-03
            1300     1.78126E-03     108.877E-03    -1.13876E+06    -13.4073E+06    -549.141E+03    -3.98896E+06    -10.5795E-03     21.0113E-03    -10.4318E-03     4.33520E-03    -10.5649E-03     20.9468E-03    -10.4135E-03     4.28309E-03
            1301     2.67230E-03     108.884E-03    -1.94427E+06    -11.4978E+06    -798.437E+03    -6.27509E+06    -10.5724E-03     21.0536E-03    -10.4811E-03     6.51387E-03    -10.5644E-03     21.0001E-03    -10.4656E-03     6.43197E-03
            1302     3.56261E-03     108.893E-03    -2.66543E+06    -9.15183E+06     447.749E+03    -8.95224E+06    -10.6498E-03     21.1674E-03    -10.5176E-03     8.71047E-03    -10.6507E-03     21.1250E-03    -10.4982E-03     8.59375E-03
            1303     4.45352E-03     108.906E-03    -3.88536E+06    -8.31519E+06     2.85302E+06    -12.2863E+06    -10.7405E-03     21.3077E-03    -10.5672E-03     10.9426E-03    -10.7524E-03     21.2679E-03    -10.5353E-03     10.7825E-03
            1304     5.34382E-03     108.921E-03    -5.87400E+06    -8.44055E+06     3.65592E+06    -14.6405E+06    -10.8584E-03     21.4752E-03    -10.6168E-03     13.2467E-03    -10.8813E-03     21.4366E-03    -10.5778E-03     13.0560E-03
            1305     6.23437E-03     108.939E-03    -7.84112E+06    -9.15377E+06     3.11368E+06    -15.8712E+06    -10.9715E-03     21.6363E-03    -10.6648E-03     15.8924E-03    -11.0027E-03     21.5980E-03    -10.6246E-03     15.6854E-03
            1306     7.12425E-03     108.961E-03    -9.08042E+06    -8.47894E+06     3.17271E+06    -16.5839E+06    -11.0496E-03     21.7618E-03    -10.7122E-03     18.9515E-03    -11.0883E-03     21.7288E-03    -10.6708E-03     18.7350E-03
            1307     8.01494E-03     108.988E-03    -11.1902E+06    -7.82972E+06     2.77967E+06    -18.0687E+06    -11.0258E-03     21.7758E-03    -10.7501E-03     22.5621E-03    -11.0756E-03     21.7500E-03    -10.7086E-03     22.3262E-03
            1308     8.90481E-03     109.018E-03    -14.3656E+06    -7.41909E+06     143.467E+03    -20.6358E+06    -10.8861E-03     21.6468E-03    -10.7607E-03     27.1246E-03    -10.9489E-03     21.6316E-03    -10.7284E-03     26.8556E-03
            1309     9.79609E-03     109.056E-03    -14.7369E+06    -6.28579E+06     2.46132E+06    -18.2332E+06    -10.8553E-03     21.6302E-03    -10.7749E-03     32.7494E-03    -10.9251E-03     21.6181E-03    -10.7321E-03     32.5113E-03
            1310     10.6864E-03     109.099E-03    -8.67425E+06    -4.36611E+06     14.6584E+06    -14.1618E+06    -11.0817E-03     21.9084E-03    -10.8267E-03     40.2051E-03    -11.1420E-03     21.8798E-03    -10.7345E-03     40.0196E-03
            1311     11.5774E-03     109.152E-03     2.35787E+06     1.33927E+06     28.1231E+06    -8.50042E+06    -11.7918E-03     22.6842E-03    -10.8924E-03     50.1592E-03    -11.8254E-03     22.6493E-03    -10.7571E-03     50.0464E-03
            1312     12.4669E-03     109.215E-03     10.0616E+06     6.41897E+06     34.2072E+06    -1.64674E+06    -13.1597E-03     24.1332E-03    -10.9736E-03     63.3545E-03    -13.1734E-03     24.1064E-03    -10.8265E-03     63.3281E-03
            1313     13.3555E-03     109.293E-03     11.3884E+06     11.0446E+06     36.9595E+06     482.519E+03    -15.5837E-03     26.7157E-03    -11.1320E-03     78.6281E-03    -15.6097E-03     26.7142E-03    -10.9797E-03     78.6227E-03
            1314     14.2418E-03     109.384E-03     3.52237E+06     12.1446E+06     35.0772E+06    -6.05891E+06    -19.7605E-03     31.1927E-03    -11.4322E-03     95.0513E-03    -19.8502E-03     31.2365E-03    -11.2795E-03     94.9431E-03
            1315     15.1240E-03     109.492E-03    -1.27067E+06    -10.9610E+06     31.4619E+06    -10.3350E+06    -26.8629E-03     38.8391E-03    -11.9762E-03     125.220E-03    -27.0490E-03     38.8909E-03    -11.8012E-03     124.998E-03
            1316     16.0017E-03     109.639E-03     9.76382E+06     34.9664E+06     37.5531E+06     2.98077E+06    -36.4664E-03     49.1622E-03    -12.6958E-03     177.120E-03    -37.2206E-03     49.9667E-03    -12.5729E-03     176.972E-03
            1317     16.8734E-03     109.848E-03     9.33574E+06     18.0347E+06     9.05852E+06     8.69274E+06    -42.7813E-03     56.1881E-03    -13.4068E-03     262.398E-03    -47.3851E-03     60.8628E-03    -13.4012E-03     264.161E-03
            1318     889.792E-06     109.842E-03     2.28633E+06    -9.08328E+06     1.95461E+06    -1.70829E+06    -11.3621E-03     22.9385E-03    -11.5764E-03     2.31767E-03    -11.3396E-03     22.8885E-03    -11.5568E-03     2.29534E-03
            1319     1.77984E-03     109.846E-03     2.28293E+06    -9.01099E+06     2.46923E+06    -3.59641E+06    -11.6786E-03     23.1907E-03    -11.5121E-03     3.45425E-03    -11.6578E-03     23.1389E-03    -11.4900E-03     3.40708E-03
            1320     2.66920E-03     109.853E-03     3.15703E+06    -6.90768E+06     5.07175E+06    -5.75591E+06    -11.7235E-03     23.3112E-03    -11.5876E-03     5.30962E-03    -11.7052E-03     23.2647E-03    -11.5568E-03     5.23420E-03
            1321     3.55913E-03     109.863E-03     3.45007E+06    -4.52675E+06     8.28082E+06    -7.34489E+06    -11.8860E-03     23.5433E-03    -11.6573E-03     6.99853E-03    -11.8744E-03     23.5038E-03    -11.6144E-03     6.90231E-03
            1322     4.44822E-03     109.875E-03     2.37321E+06    -3.34032E+06     10.7647E+06    -8.57444E+06    -12.0595E-03     23.7997E-03    -11.7402E-03     8.53845E-03    -12.0588E-03     23.7642E-03    -11.6850E-03     8.42597E-03
            1323     5.33774E-03     109.891E-03     201.421E+03    -4.38430E+06     11.5396E+06    -10.1646E+06    -12.2353E-03     24.0628E-03    -11.8275E-03     10.2202E-03    -12.2452E-03     24.0242E-03    -11.7638E-03     10.0867E-03
            1324     6.22659E-03     109.909E-03    -2.44531E+06    -5.80391E+06     10.9253E+06    -11.5089E+06    -12.4338E-03     24.3492E-03    -11.9154E-03     12.2676E-03    -12.4541E-03     24.3084E-03    -11.8489E-03     12.1163E-03
            1325     7.11584E-03     109.932E-03    -5.31899E+06    -5.70868E+06     10.2628E+06    -12.4144E+06    -12.5719E-03     24.5751E-03    -12.0032E-03     14.7039E-03    -12.6060E-03     24.5401E-03    -11.9359E-03     14.5405E-03
            1326     8.00425E-03     109.957E-03    -7.50583E+06    -3.68361E+06     10.6850E+06    -13.4851E+06    -12.6409E-03     24.7277E-03    -12.0868E-03     17.4368E-03    -12.6899E-03     24.7057E-03    -12.0172E-03     17.2591E-03
            1327     8.89363E-03     109.988E-03    -10.3734E+06    -3.15320E+06     10.4340E+06    -14.7630E+06    -12.6794E-03     24.8404E-03    -12.1610E-03     20.8383E-03    -12.7435E-03     24.8258E-03    -12.0892E-03     20.6437E-03
            1328     9.78199E-03     110.024E-03    -13.8141E+06    -7.78193E+06     7.65618E+06    -16.0201E+06    -12.6750E-03     24.8951E-03    -12.2201E-03     25.2042E-03    -12.7459E-03     24.8667E-03    -12.1505E-03     24.9932E-03
            1329     10.6714E-03     110.069E-03    -18.0570E+06    -5.65626E+06     8.70664E+06    -14.8826E+06    -12.6475E-03     24.9254E-03    -12.2779E-03     31.1164E-03    -12.7446E-03     24.9126E-03    -12.2000E-03     30.9199E-03
            1330     11.5603E-03     110.120E-03    -20.9985E+06    -2.83688E+06     11.7043E+06    -14.1444E+06    -12.6944E-03     25.0273E-03    -12.3329E-03     39.4081E-03    -12.8151E-03     25.0289E-03    -12.2398E-03     39.2213E-03
            1331     12.4501E-03     110.185E-03    -15.0465E+06    -1.36773E+06     19.1849E+06    -9.78260E+06    -13.1193E-03     25.5188E-03    -12.3995E-03     50.9796E-03    -13.2239E-03     25.5090E-03    -12.2797E-03     50.8489E-03
            1332     13.3393E-03     110.263E-03    -2.73859E+06     9.75683E+06     34.3934E+06    -4.65374E+06    -14.7228E-03     27.2426E-03    -12.5198E-03     66.3418E-03    -14.8073E-03     27.2521E-03    -12.3580E-03     66.2747E-03
            1333     14.2258E-03     110.359E-03     5.30281E+06     13.9438E+06     40.9827E+06     2.44388E+06    -18.5311E-03     31.2653E-03    -12.7342E-03     84.3167E-03    -18.6054E-03     31.2892E-03    -12.5572E-03     84.3289E-03
            1334     15.1090E-03     110.470E-03     560.807E+03     764.058E+03     36.7383E+06    -3.10302E+06    -25.8312E-03     38.9982E-03    -13.1669E-03     116.267E-03    -25.9822E-03     39.0477E-03    -12.9852E-03     116.157E-03
            1335     15.9847E-03     110.626E-03    -3.91614E+06     13.9392E+06     26.8842E+06    -11.2376E+06    -34.7790E-03     48.5696E-03    -13.7906E-03     166.797E-03    -35.3203E-03     49.0688E-03    -13.6707E-03     166.481E-03
            1336     16.8590E-03     110.836E-03    -890.475E+03     5.88874E+06     2.62649E+06     7.16032E+06    -32.3770E-03     46.5848E-03    -14.2078E-03     240.924E-03    -34.9816E-03     49.2018E-03    -14.2019E-03     241.932E-03
            1337     888.682E-06     110.814E-03     4.02940E+06    -5.59588E+06     4.60632E+06    -1.78937E+06    -13.1332E-03     26.2613E-03    -13.1281E-03     1.47646E-03    -13.1108E-03     26.2226E-03    -13.1028E-03     1.45349E-03
            1338     1.77671E-03     110.818E-03     5.03101E+06    -4.78725E+06     6.66221E+06    -3.68421E+06    -13.1627E-03     26.3110E-03    -13.1482E-03     2.56507E-03    -13.1405E-03     26.2702E-03    -13.1153E-03     2.51675E-03
            1339     2.66528E-03     110.825E-03     4.83611E+06    -3.23067E+06     8.71939E+06    -4.94298E+06    -13.5570E-03     26.7829E-03    -13.2259E-03     3.73385E-03    -13.5411E-03     26.7470E-03    -13.1846E-03     3.66889E-03
            1340     3.55300E-03     110.835E-03     4.20095E+06    -2.05799E+06     10.3378E+06    -5.40940E+06    -13.7489E-03     27.1014E-03    -13.3525E-03     4.65325E-03    -13.7402E-03     27.0700E-03    -13.3039E-03     4.58190E-03
            1341     4.44101E-03     110.848E-03     3.65627E+06    -944.525E+03     12.5596E+06    -5.50706E+06    -13.9571E-03     27.4354E-03    -13.4783E-03     5.63983E-03    -13.9560E-03     27.4072E-03    -13.4194E-03     5.56676E-03
            1342     5.32822E-03     110.863E-03     2.81978E+06    -1.44405E+06     15.7188E+06    -5.90248E+06    -14.2559E-03     27.8749E-03    -13.6191E-03     6.76425E-03    -14.2630E-03     27.8409E-03    -13.5425E-03     6.68554E-03
            1343     6.21573E-03     110.882E-03     1.41206E+06    -3.12620E+06     17.4931E+06    -6.72486E+06    -14.5483E-03     28.3156E-03    -13.7673E-03     7.99608E-03    -14.5628E-03     28.2728E-03    -13.6773E-03     7.90616E-03
            1344     7.10240E-03     110.904E-03    -240.432E+03    -3.50657E+06     17.9710E+06    -7.49526E+06    -14.8315E-03     28.7462E-03    -13.9147E-03     9.51669E-03    -14.8546E-03     28.7033E-03    -13.8194E-03     9.41621E-03
            1345     7.98954E-03     110.931E-03    -2.34930E+06    -397.971E+03     19.3713E+06    -8.84726E+06    -15.2274E-03     29.3013E-03    -14.0739E-03     11.2920E-03    -15.2678E-03     29.2752E-03    -13.9731E-03     11.1734E-03
            1346     8.87532E-03     110.962E-03    -4.08459E+06    -1.38210E+06     18.5892E+06    -9.26773E+06    -15.6901E-03     29.9365E-03    -14.2464E-03     13.3205E-03    -15.7371E-03     29.9093E-03    -14.1455E-03     13.1955E-03
            1347     9.76160E-03     110.999E-03    -7.20015E+06    -4.83220E+06     16.1031E+06    -9.34475E+06    -16.0718E-03     30.5021E-03    -14.4304E-03     15.9763E-03    -16.1261E-03     30.4661E-03    -14.3324E-03     15.8494E-03
            1348     10.6470E-03     111.041E-03    -9.01392E+06    -6.38271E+06     15.1788E+06    -9.87448E+06    -16.3295E-03     30.9513E-03    -14.6217E-03     19.6741E-03    -16.3900E-03     30.9118E-03    -14.5235E-03     19.5394E-03
            1349     11.5327E-03     111.094E-03    -8.94728E+06    -171.951E+03     16.4316E+06    -10.4193E+06    -16.4082E-03     31.2118E-03    -14.8037E-03     24.8236E-03    -16.4799E-03     31.2019E-03    -14.7083E-03     24.6811E-03
            1350     12.4182E-03     111.156E-03    -10.2959E+06    -4.30545E+06     17.5598E+06    -12.8757E+06    -16.3126E-03     31.2979E-03    -14.9853E-03     32.4040E-03    -16.3874E-03     31.2680E-03    -14.8763E-03     32.2295E-03
            1351     13.3044E-03     111.235E-03    -10.4672E+06     3.75414E+06     28.1085E+06    -10.5608E+06    -16.1469E-03     31.3174E-03    -15.1705E-03     44.0379E-03    -16.2504E-03     31.3136E-03    -15.0202E-03     43.8937E-03
            1352     14.1914E-03     111.330E-03    -6.67465E+06     1.87001E+06     30.0016E+06    -1.60521E+06    -17.7389E-03     33.0786E-03    -15.3397E-03     61.1796E-03    -17.8279E-03     33.0626E-03    -15.1827E-03     61.1471E-03
            1353     15.0740E-03     111.449E-03     1.11293E+06     15.4639E+06     36.2177E+06     1.61132E+06    -23.8535E-03     39.5138E-03    -15.6603E-03     94.0275E-03    -23.9701E-03     39.5841E-03    -15.5032E-03     94.0053E-03
            1354     15.9520E-03     111.609E-03    -6.74926E+06     10.4888E+06     33.6324E+06     2.03445E+06    -29.8319E-03     46.0042E-03    -16.1723E-03     141.362E-03    -30.1485E-03     46.2376E-03    -16.0096E-03     141.273E-03
            1355     16.8243E-03     111.820E-03    -10.2747E+06    -14.0132E+06     9.15586E+06     3.12783E+06    -13.5384E-03     29.6284E-03    -16.0900E-03     192.499E-03    -14.4500E-03     30.4342E-03    -16.0090E-03     192.860E-03
            1356     885.542E-06     111.788E-03     6.32593E+06    -2.26273E+06     7.27552E+06    -1.60462E+06    -15.5921E-03     30.9751E-03    -15.3831E-03     159.952E-06    -15.5665E-03     30.9464E-03    -15.3526E-03     140.771E-06
            1357     1.77341E-03     111.793E-03     6.25435E+06    -1.57031E+06     9.14348E+06    -2.45187E+06    -15.6440E-03     31.1804E-03    -15.5365E-03     1.22254E-03    -15.6241E-03     31.1501E-03    -15.4975E-03     1.19053E-03
            1358     2.65891E-03     111.801E-03     5.43144E+06    -1.32130E+06     10.0274E+06    -2.86972E+06    -16.0298E-03     31.6813E-03    -15.6516E-03     1.39016E-03    -16.0156E-03     31.6521E-03    -15.6074E-03     1.35231E-03
            1359     3.54462E-03     111.811E-03     4.88987E+06    -549.299E+03     12.0691E+06    -3.07991E+06    -16.2835E-03     32.0919E-03    -15.8084E-03     1.56084E-03    -16.2762E-03     32.0643E-03    -15.7543E-03     1.51995E-03
            1360     4.42999E-03     111.824E-03     4.44849E+06    -231.217E+03     15.2761E+06    -2.94471E+06    -16.5213E-03     32.4908E-03    -15.9694E-03     1.94073E-03    -16.5214E-03     32.4607E-03    -15.8992E-03     1.90120E-03
            1361     5.31548E-03     111.841E-03     4.30593E+06    -95.2186E+03     18.7917E+06    -2.73427E+06    -16.9401E-03     33.0849E-03    -16.1448E-03     2.42471E-03    -16.9462E-03     33.0507E-03    -16.0570E-03     2.38741E-03
            1362     6.19978E-03     111.860E-03     4.36090E+06    -1.47974E+06     22.5439E+06    -3.02731E+06    -17.5174E-03     33.8743E-03    -16.3569E-03     2.88505E-03    -17.5267E-03     33.8277E-03    -16.2484E-03     2.84340E-03
            1363     7.08431E-03     111.883E-03     4.39371E+06    -1.32282E+06     25.3276E+06    -4.04377E+06    -18.2135E-03     34.8163E-03    -16.6028E-03     3.31750E-03    -18.2272E-03     34.7663E-03    -16.4806E-03     3.26206E-03
            1364     7.96746E-03     111.909E-03     3.85442E+06     603.923E+03     25.8430E+06    -3.90753E+06    -19.0418E-03     35.9216E-03    -16.8798E-03     3.84249E-03    -19.0619E-03     35.8813E-03    -16.7570E-03     3.78794E-03
            1365     8.85037E-03     111.942E-03     1.46398E+06     374.906E+03     25.2607E+06    -4.12084E+06    -20.0817E-03     37.2904E-03    -17.2087E-03     4.38146E-03    -20.1128E-03     37.2532E-03    -17.0851E-03     4.32307E-03
            1366     9.73155E-03     111.978E-03    -109.388E+03    -4.39759E+06     23.8893E+06    -4.02338E+06    -21.2859E-03     38.8839E-03    -17.5980E-03     5.01337E-03    -21.3164E-03     38.8271E-03    -17.4720E-03     4.95474E-03
            1367     10.6119E-03     112.023E-03    -972.887E+03    -1.27231E+06     23.4660E+06    -6.92852E+06    -22.4343E-03     40.4691E-03    -18.0347E-03     5.95781E-03    -22.4737E-03     40.4297E-03    -17.9141E-03     5.86003E-03
            1368     11.4911E-03     112.074E-03    -2.67632E+06    -2.78895E+06     21.0869E+06    -6.76215E+06    -23.3943E-03     41.9055E-03    -18.5112E-03     7.34368E-03    -23.4372E-03     41.8644E-03    -18.3979E-03     7.24643E-03
            1369     12.3691E-03     112.138E-03    -5.32053E+06     3.11519E+06     23.2102E+06    -7.28532E+06    -23.7605E-03     42.7772E-03    -19.0167E-03     9.88530E-03    -23.8293E-03     42.7663E-03    -18.8974E-03     9.77978E-03
            1370     13.2468E-03     112.212E-03    -10.8899E+06    -4.96387E+06     21.4606E+06    -6.17414E+06    -23.2486E-03     42.7518E-03    -19.5032E-03     14.5513E-03    -23.3322E-03     42.7107E-03    -19.3729E-03     14.4593E-03
            1371     14.1258E-03     112.306E-03    -12.8918E+06    -334.165E+03     18.6625E+06    -6.25205E+06    -23.3915E-03     43.3400E-03    -19.9485E-03     23.8072E-03    -23.4900E-03     43.3286E-03    -19.8360E-03     23.7131E-03
            1372     15.0073E-03     112.424E-03    -11.7367E+06     7.36259E+06     25.6593E+06    -2.79871E+06    -25.8493E-03     46.3678E-03    -20.5185E-03     45.6387E-03    -25.9732E-03     46.3919E-03    -20.3838E-03     45.5794E-03
            1373     15.8812E-03     112.592E-03    -63.3435E+03     454.284E+03     36.4330E+06     10.1760E+06    -20.4330E-03     41.4337E-03    -21.0007E-03     75.0137E-03    -20.5432E-03     41.4353E-03    -20.8191E-03     75.1037E-03
            1374     16.7700E-03     112.782E-03     8.06962E+06     4.66674E+06     24.0864E+06     6.03830E+06     1.27820E-03     19.3203E-03    -20.5985E-03     88.3402E-03     1.16560E-03     19.3970E-03    -20.4965E-03     88.4418E-03
            1375     16.8601E-03     56.0579E-03    -1.63851E+06     123.763E+06     14.3299E+06    -1.47014E+06    -28.2513E-03     42.5553E-03    -14.3040E-03     276.864E-03    -38.0562E-03     52.7525E-03    -14.4094E-03     283.567E-03
            1376     15.9666E-03     55.8598E-03    -5.28929E+06     54.0830E+06    -15.3676E+06    -6.36967E+06    -19.4413E-03     33.6902E-03    -14.2490E-03     154.723E-03    -20.9610E-03     35.4278E-03    -14.3965E-03     155.109E-03
            1377     15.0830E-03     55.7578E-03    -5.31857E+06     27.1064E+06    -5.33517E+06    -7.04636E+06    -16.8869E-03     31.2104E-03    -14.3235E-03     87.0724E-03    -17.1532E-03     31.5695E-03    -14.3818E-03     86.9574E-03
            1378     14.1953E-03     55.6938E-03    -1.68934E+06    -3.28779E+06    -3.78250E+06    -3.09727E+06    -15.8634E-03     30.1923E-03    -14.3290E-03     60.1549E-03    -15.9279E-03     30.2502E-03    -14.3407E-03     60.0786E-03
            1379     13.3088E-03     55.6415E-03     521.996E+03    -17.1734E+06    -854.601E+03     1.41422E+06    -15.6801E-03     30.0004E-03    -14.3203E-03     55.5508E-03    -15.6892E-03     29.9529E-03    -14.3004E-03     55.5384E-03
            1380     12.4216E-03     55.5878E-03     11.6718E+03    -28.9697E+06      275.57E+03    -53.8143E+03    -15.4734E-03     29.7792E-03    -14.3058E-03     51.3410E-03    -15.4542E-03     29.6564E-03    -14.2624E-03     51.3173E-03
            1381     11.5349E-03     55.5432E-03    -477.992E+03    -43.0406E+06     196.398E+03    -477.544E+03    -15.2895E-03     29.5782E-03    -14.2887E-03     44.3817E-03    -15.2428E-03     29.3765E-03    -14.2246E-03     44.3583E-03
            1382     10.6480E-03     55.5035E-03    -532.626E+03    -48.0289E+06     632.744E+03    -8.22456E+03    -15.0358E-03     29.2988E-03    -14.2630E-03     40.1548E-03    -14.9778E-03     29.0665E-03    -14.1894E-03     40.1421E-03
            1383     9.76073E-03     55.4668E-03    -1.66418E+06    -54.5933E+06     1.39241E+06    -744.244E+03    -14.8322E-03     29.0820E-03    -14.2498E-03     35.7615E-03    -14.7685E-03     28.8145E-03    -14.1613E-03     35.7426E-03
            1384     8.87384E-03     55.4359E-03    -2.68197E+06    -56.4556E+06     2.71770E+06     72.8921E+03    -14.7189E-03     28.9536E-03    -14.2347E-03     31.5387E-03    -14.6577E-03     28.6746E-03    -14.1354E-03     31.5325E-03
            1385     7.98635E-03     55.4077E-03    -3.60195E+06    -55.6758E+06     2.41284E+06     570.119E+03    -14.5688E-03     28.7776E-03    -14.2088E-03     27.6329E-03    -14.5117E-03     28.5031E-03    -14.1108E-03     27.6349E-03
            1386     7.09933E-03     55.3839E-03    -3.90116E+06    -55.9614E+06     3.38436E+06     913.175E+03    -14.4357E-03     28.6301E-03    -14.1944E-03     23.9209E-03    -14.3804E-03     28.3525E-03    -14.0907E-03     23.9285E-03
            1387     6.21185E-03     55.3625E-03    -4.80795E+06    -57.0407E+06     3.24727E+06     510.843E+03    -14.3182E-03     28.5001E-03    -14.1819E-03     20.3918E-03    -14.2651E-03     28.2181E-03    -14.0760E-03     20.3950E-03
            1388     5.32465E-03     55.3453E-03    -6.32456E+06    -57.7191E+06     1.95364E+06    -285.957E+03    -14.2406E-03     28.4092E-03    -14.1686E-03     17.0817E-03    -14.1920E-03     28.1275E-03    -14.0660E-03     17.0753E-03
            1389     4.43717E-03     55.3302E-03    -7.31043E+06    -57.7952E+06    -862.206E+03    -490.171E+03    -14.1779E-03     28.3278E-03    -14.1499E-03     13.9632E-03    -14.1298E-03     28.0511E-03    -14.0598E-03     13.9548E-03
            1390     3.54974E-03     55.3189E-03    -8.29002E+06    -59.9750E+06    -3.68576E+06    -893.368E+03    -14.1685E-03     28.3028E-03    -14.1343E-03     10.9281E-03    -14.1178E-03     28.0205E-03    -14.0538E-03     10.9150E-03
            1391     2.66234E-03     55.3094E-03    -8.93580E+06    -61.4082E+06    -5.88121E+06    -756.464E+03    -14.1627E-03     28.2764E-03    -14.1136E-03     8.02777E-03    -14.1098E-03     27.9909E-03    -14.0411E-03     8.01683E-03
            1392     1.77507E-03     55.3034E-03    -9.19224E+06    -62.2353E+06    -7.98051E+06    -476.130E+03    -14.1195E-03     28.2079E-03    -14.0883E-03     5.28750E-03    -14.0634E-03     27.9215E-03    -14.0247E-03     5.28058E-03
            1393     887.315E-06     55.2992E-03    -10.1234E+06    -64.3039E+06    -9.44787E+06    -718.404E+03    -14.0770E-03     28.1550E-03    -14.0780E-03     2.68059E-03    -14.0187E-03     27.8645E-03    -14.0173E-03     2.67075E-03
            1394     16.8529E-03     55.0751E-03     1.29658E+06     123.137E+06     2.35366E+06    -842.084E+03    -28.3718E-03     42.5066E-03    -14.1347E-03     281.267E-03    -38.1999E-03     52.7697E-03    -14.3034E-03     288.083E-03
            1395     15.9746E-03     54.8879E-03     4.25384E+06     60.8487E+06    -21.1233E+06    -2.71608E+06    -20.5822E-03     34.6589E-03    -14.0768E-03     157.633E-03    -22.0493E-03     36.4184E-03    -14.2768E-03     158.055E-03
            1396     15.0826E-03     54.7802E-03      4.7951E+06     26.5723E+06    -3.81530E+06    -5.43534E+06    -16.4360E-03     30.6213E-03    -14.1853E-03     89.6974E-03    -16.6514E-03     30.9590E-03    -14.2499E-03     89.6084E-03
            1397     14.1970E-03     54.7187E-03     1.97056E+06    -10.0094E+06    -3.99424E+06    -3.33694E+06    -15.6261E-03     29.8477E-03    -14.2216E-03     61.3654E-03    -15.6611E-03     29.8657E-03    -14.2299E-03     61.2879E-03
            1398     13.3096E-03     54.6649E-03     1.92798E+06    -18.9795E+06    -1.24652E+06    -58.9076E+03    -15.4496E-03     29.6695E-03    -14.2199E-03     56.4366E-03    -15.4477E-03     29.6106E-03    -14.2014E-03     56.4066E-03
            1399     12.4231E-03     54.6121E-03     2.78564E+06    -27.2243E+06     1.73363E+06     1.59255E+06    -15.2906E-03     29.5079E-03    -14.2173E-03     51.8850E-03    -15.2617E-03     29.3872E-03    -14.1732E-03     51.8834E-03
            1400     11.5357E-03     54.5674E-03     1.44672E+06    -42.6347E+06    -1.28992E+06     336.582E+03    -15.0881E-03     29.2866E-03    -14.1985E-03     44.8582E-03    -15.0299E-03     29.0859E-03    -14.1452E-03     44.8461E-03
            1401     10.6488E-03     54.5275E-03     720.092E+03    -48.8410E+06    -943.783E+03     255.179E+03    -14.9237E-03     29.1066E-03    -14.1828E-03     40.2421E-03    -14.8558E-03     28.8706E-03    -14.1178E-03     40.2331E-03
            1402     9.76147E-03     54.4919E-03     69.0886E+03    -53.4267E+06     1.61271E+06     740.107E+03    -14.6878E-03     28.8689E-03    -14.1812E-03     35.7595E-03    -14.6173E-03     28.6043E-03    -14.0957E-03     35.7600E-03
            1403     8.87393E-03     54.4599E-03    -987.963E+03    -57.8730E+06     3.28460E+06     341.721E+03    -14.6162E-03     28.7942E-03    -14.1781E-03     31.3607E-03    -14.5452E-03     28.5048E-03    -14.0763E-03     31.3581E-03
            1404     7.98706E-03     54.4327E-03    -1.45979E+06    -55.2401E+06     5.11901E+06     701.406E+03    -14.5524E-03     28.7122E-03    -14.1598E-03     27.3588E-03    -14.4892E-03     28.4329E-03    -14.0520E-03     27.3623E-03
            1405     7.09964E-03     54.4081E-03    -2.23065E+06    -56.1559E+06     4.93035E+06     277.396E+03    -14.4121E-03     28.5488E-03    -14.1367E-03     23.7285E-03    -14.3504E-03     28.2656E-03    -14.0274E-03     23.7278E-03
            1406     6.21247E-03     54.3878E-03    -2.61725E+06    -56.4050E+06     5.55152E+06     388.900E+03    -14.2846E-03     28.4064E-03    -14.1217E-03     20.2881E-03    -14.2249E-03     28.1211E-03    -14.0084E-03     20.2897E-03
            1407     5.32488E-03     54.3697E-03    -3.64737E+06    -56.8349E+06     5.05890E+06    -145.192E+03    -14.1880E-03     28.2964E-03    -14.1084E-03     17.0018E-03    -14.1317E-03     28.0108E-03    -13.9954E-03     16.9973E-03
            1408     4.43749E-03     54.3555E-03     -5.5674E+06    -58.0371E+06     2.25693E+06    -587.209E+03    -14.1464E-03     28.2343E-03    -14.0879E-03     13.8849E-03    -14.0937E-03     27.9493E-03    -13.9844E-03     13.8753E-03
            1409     3.55003E-03     54.3433E-03    -7.34336E+06    -59.7128E+06    -2.16443E+06    -533.890E+03    -14.1186E-03     28.1754E-03    -14.0568E-03     10.9017E-03    -14.0657E-03     27.8908E-03    -13.9704E-03     10.8932E-03
            1410     2.66269E-03     54.3347E-03    -9.16287E+06    -62.1311E+06    -5.99344E+06    -800.522E+03    -14.0608E-03     28.0909E-03    -14.0301E-03     8.04896E-03    -14.0078E-03     27.8023E-03    -13.9567E-03     8.03747E-03
            1411     1.77499E-03     54.3281E-03    -10.6025E+06    -62.6729E+06    -9.01682E+06    -428.737E+03    -13.9844E-03     28.0051E-03    -14.0207E-03     5.31300E-03    -13.9331E-03     27.7201E-03    -13.9595E-03     5.30670E-03
            1412     887.594E-06     54.3248E-03    -10.9139E+06    -64.9384E+06    -11.4052E+06    -342.229E+03    -14.0333E-03     28.0496E-03    -14.0163E-03     2.71350E-03    -13.9751E-03     27.7600E-03    -13.9633E-03     2.70857E-03
            1413     16.8602E-03     54.0981E-03    -6.15288E+06     128.758E+06     16.1769E+06    -4.98858E+06    -28.8691E-03     43.0617E-03    -14.1926E-03     279.863E-03    -38.7130E-03     53.2940E-03    -14.2895E-03     286.446E-03
            1414     15.9672E-03     53.9101E-03    -2.03528E+06     60.6276E+06    -28.3206E+06    -9.56477E+06    -20.3081E-03     34.3302E-03    -14.0221E-03     157.467E-03    -21.7926E-03     36.1048E-03    -14.2487E-03     157.814E-03
            1415     15.0854E-03     53.8051E-03     2.83103E+06     22.3195E+06    -15.3276E+06    -4.99614E+06    -17.0456E-03     31.1409E-03    -14.0953E-03     90.1218E-03    -17.2523E-03     31.4813E-03    -14.2084E-03     90.0348E-03
            1416     14.1970E-03     53.7421E-03     4.64198E+06    -11.8317E+06    -5.83982E+06    -1.66204E+06    -15.5677E-03     29.7201E-03    -14.1524E-03     61.4130E-03    -15.5834E-03     29.7272E-03    -14.1711E-03     61.3575E-03
            1417     13.3106E-03     53.6895E-03     4.41612E+06    -22.2811E+06    -1.47384E+06    -249.862E+03    -15.3732E-03     29.5365E-03    -14.1633E-03     56.7247E-03    -15.3534E-03     29.4576E-03    -14.1448E-03     56.6927E-03
            1418     12.4230E-03     53.6360E-03     4.55912E+06    -27.2380E+06     2.93789E+06     1.34843E+06    -15.2494E-03     29.4149E-03    -14.1655E-03     51.9349E-03    -15.2132E-03     29.2897E-03    -14.1180E-03     51.9303E-03
            1419     11.5364E-03     53.5920E-03     5.82054E+06    -41.0378E+06     2.92355E+06     1.33659E+06    -15.0453E-03     29.2008E-03    -14.1555E-03     44.8617E-03    -14.9735E-03     28.9955E-03    -14.0898E-03     44.8626E-03
            1420     10.6489E-03     53.5518E-03     5.59889E+06    -49.9099E+06     3.65133E+06     1.24181E+06    -14.9372E-03     29.0799E-03    -14.1427E-03     40.0769E-03    -14.8500E-03     28.8248E-03    -14.0602E-03     40.0806E-03
            1421     9.76214E-03     53.5164E-03     4.76073E+06    -53.2200E+06     6.70970E+06     1.75821E+06    -14.7759E-03     28.9090E-03    -14.1331E-03     35.4903E-03    -14.6897E-03     28.6313E-03    -14.0293E-03     35.5037E-03
            1422     8.87497E-03     53.4848E-03     3.97216E+06    -56.6697E+06     6.90205E+06     1.02715E+06    -14.5797E-03     28.6929E-03    -14.1132E-03     31.2301E-03    -14.4909E-03     28.3970E-03    -14.0023E-03     31.2364E-03
            1423     7.98750E-03     53.4569E-03     3.53323E+06    -55.9352E+06     8.72803E+06     374.643E+03    -14.4377E-03     28.5376E-03    -14.0999E-03     27.2170E-03    -14.3537E-03     28.2423E-03    -13.9803E-03     27.2164E-03
            1424     7.10027E-03     53.4333E-03     2.76522E+06    -55.3534E+06     8.69145E+06     899.325E+03    -14.3384E-03     28.4188E-03    -14.0803E-03     23.6515E-03    -14.2584E-03     28.1268E-03    -13.9606E-03     23.6589E-03
            1425     6.21272E-03     53.4122E-03     1.14623E+06    -56.3001E+06     6.75962E+06     81.8333E+03    -14.2551E-03     28.3106E-03    -14.0555E-03     20.2478E-03    -14.1784E-03     28.0185E-03    -13.9417E-03     20.2455E-03
            1426     5.32542E-03     53.3950E-03     46.0115E+03    -56.4303E+06     7.47778E+06     152.809E+03    -14.1757E-03     28.2183E-03    -14.0426E-03     16.9497E-03    -14.1051E-03     27.9258E-03    -13.9234E-03     16.9490E-03
            1427     4.43787E-03     53.3800E-03    -1.65137E+06    -58.0470E+06     5.52233E+06     198.215E+03    -14.0958E-03     28.1174E-03    -14.0216E-03     13.8494E-03    -14.0282E-03     27.8219E-03    -13.9074E-03     13.8499E-03
            1428     3.55042E-03     53.3687E-03    -4.02237E+06    -59.8339E+06     2.00547E+06     124.448E+03    -13.9961E-03     27.9989E-03    -14.0028E-03     10.8994E-03    -13.9325E-03     27.7028E-03    -13.9002E-03     10.8994E-03
            1429     2.66264E-03     53.3594E-03    -6.31866E+06    -61.9305E+06    -2.42071E+06     224.828E+03    -13.9492E-03     27.9421E-03    -13.9929E-03     8.09083E-03    -13.8874E-03     27.6451E-03    -13.9060E-03     8.09261E-03
            1430     1.77521E-03     53.3536E-03    -8.24541E+06    -63.1263E+06    -6.59970E+06    -170.684E+03    -13.9717E-03     27.9569E-03    -13.9852E-03     5.32096E-03    -13.9115E-03     27.6627E-03    -13.9147E-03     5.31804E-03
            1431     887.430E-06     53.3494E-03    -9.42004E+06    -65.1386E+06    -8.88119E+06     246.718E+03    -14.0192E-03     27.9634E-03    -13.9441E-03     2.83217E-03    -13.9569E-03     27.6670E-03    -13.8804E-03     2.83486E-03
            1432     16.8578E-03     53.1265E-03     630.751E+03     136.615E+06     23.9436E+06    -1.49659E+06    -28.4196E-03     42.5999E-03    -14.1804E-03     278.532E-03    -38.1013E-03     52.6996E-03    -14.2597E-03     285.235E-03
            1433     15.9733E-03     52.9336E-03    -2.52712E+06     62.1332E+06    -23.9501E+06    -7.12248E+06    -20.2984E-03     34.3195E-03    -14.0211E-03     158.690E-03    -21.7879E-03     36.0900E-03    -14.2272E-03     159.059E-03
            1434     15.0837E-03     52.8275E-03    -6.75062E+06     14.8070E+06    -23.2454E+06    -9.06588E+06    -17.1096E-03     31.1683E-03    -14.0587E-03     89.5374E-03    -17.3396E-03     31.4942E-03    -14.1866E-03     89.3974E-03
            1435     14.1986E-03     52.7673E-03    -3.57569E+06    -15.4329E+06    -13.4778E+06    -3.44692E+06    -15.6928E-03     29.7926E-03    -14.0998E-03     61.5973E-03    -15.7331E-03     29.8045E-03    -14.1396E-03     61.5187E-03
            1436     13.3107E-03     52.7133E-03    -781.917E+03    -23.1434E+06    -3.72084E+06    -1.13101E+06    -15.4189E-03     29.5394E-03    -14.1205E-03     56.9874E-03    -15.4203E-03     29.4667E-03    -14.1044E-03     56.9442E-03
            1437     12.4243E-03     52.6606E-03     2.06257E+06    -28.4407E+06     1.63879E+06    -1.03758E+06    -15.2900E-03     29.4071E-03    -14.1171E-03     51.8494E-03    -15.2625E-03     29.2813E-03    -14.0707E-03     51.8141E-03
            1438     11.5368E-03     52.6162E-03     3.34730E+06    -41.9115E+06     4.20654E+06     833.357E+03    -15.0802E-03     29.1920E-03    -14.1119E-03     44.6973E-03    -15.0213E-03     28.9841E-03    -14.0349E-03     44.6917E-03
            1439     10.6502E-03     52.5764E-03     3.38194E+06    -49.8815E+06     4.96569E+06     1.89906E+06    -14.9151E-03     29.0062E-03    -14.0911E-03     39.9358E-03    -14.8410E-03     28.7526E-03    -13.9989E-03     39.9480E-03
            1440     9.76268E-03     52.5408E-03     3.43027E+06    -53.1998E+06     6.78897E+06     1.70307E+06    -14.7383E-03     28.8086E-03    -14.0702E-03     35.4371E-03    -14.6589E-03     28.5328E-03    -13.9641E-03     35.4499E-03
            1441     8.87562E-03     52.5095E-03     3.66050E+06    -54.9348E+06     7.15802E+06     1.03009E+06    -14.5197E-03     28.5647E-03    -14.0450E-03     31.2745E-03    -14.4354E-03     28.2776E-03    -13.9349E-03     31.2809E-03
            1442     7.98816E-03     52.4821E-03     3.08092E+06    -56.2017E+06     6.94876E+06     482.367E+03    -14.3250E-03     28.3519E-03    -14.0269E-03     27.3390E-03    -14.2403E-03     28.0585E-03    -13.9152E-03     27.3399E-03
            1443     7.10058E-03     52.4578E-03     2.52249E+06    -55.7573E+06     8.28007E+06     873.337E+03    -14.2503E-03     28.2688E-03    -14.0186E-03     23.6788E-03    -14.1702E-03     27.9758E-03    -13.9000E-03     23.6858E-03
            1444     6.21321E-03     52.4375E-03     1.68221E+06    -54.9982E+06     6.74227E+06     1.11092E+06    -14.1949E-03     28.1889E-03    -13.9940E-03     20.2480E-03    -14.1174E-03     27.9026E-03    -13.8830E-03     20.2590E-03
            1445     5.32566E-03     52.4196E-03    -68.0974E+03    -56.9166E+06     5.69338E+06     279.386E+03    -14.1118E-03     28.0886E-03    -13.9768E-03     17.0144E-03    -14.0385E-03     27.7965E-03    -13.8657E-03     17.0153E-03
            1446     4.43821E-03     52.4055E-03    -1.24308E+06    -57.9026E+06     5.68017E+06     641.642E+03    -13.9859E-03     27.9567E-03    -13.9708E-03     13.9391E-03    -13.9167E-03     27.6611E-03    -13.8566E-03     13.9453E-03
            1447     3.55043E-03     52.3936E-03    -2.78488E+06    -59.7993E+06     3.05113E+06     834.045E+03    -13.9083E-03     27.8767E-03    -13.9684E-03     10.9982E-03    -13.8401E-03     27.5775E-03    -13.8624E-03     11.0075E-03
            1448     2.66286E-03     52.3851E-03    -4.34035E+06    -61.2955E+06     182.869E+03     496.676E+03    -13.9181E-03     27.8904E-03    -13.9724E-03     8.17593E-03    -13.8511E-03     27.5900E-03    -13.8763E-03     8.18126E-03
            1449     1.77507E-03     52.3783E-03    -5.80063E+06    -63.0219E+06    -3.16096E+06     357.472E+03    -13.9590E-03     27.9263E-03    -13.9673E-03     5.37125E-03    -13.8917E-03     27.6242E-03    -13.8833E-03     5.37512E-03
            1450     887.794E-06     52.3751E-03    -7.20150E+06    -65.1798E+06    -6.26346E+06     245.726E+03    -13.9877E-03     27.9122E-03    -13.9245E-03     2.83482E-03    -13.9180E-03     27.6087E-03    -13.8508E-03     2.83753E-03
            1451     16.8575E-03     52.1484E-03     -4.2558E+06     137.874E+06     14.5781E+06    -1.72206E+06    -28.1738E-03     42.3362E-03    -14.1624E-03     279.591E-03    -37.8495E-03     52.4439E-03    -14.2832E-03     286.387E-03
            1452     15.9696E-03     51.9571E-03    -5.78081E+06     67.6228E+06    -27.7202E+06    -2.62572E+06    -21.1719E-03     35.1827E-03    -14.0108E-03     159.613E-03    -22.6931E-03     37.0038E-03    -14.2391E-03     160.024E-03
            1453     15.0853E-03     51.8516E-03      -6.248E+06     14.4151E+06    -21.7971E+06    -5.52916E+06    -17.1099E-03     31.1655E-03    -14.0556E-03     89.3227E-03    -17.3355E-03     31.4832E-03    -14.1764E-03     89.2280E-03
            1454     14.1973E-03     51.7909E-03    -8.58126E+06    -21.4360E+06    -18.4228E+06    -6.05119E+06    -15.8492E-03     29.9238E-03    -14.0746E-03     61.2709E-03    -15.8984E-03     29.9198E-03    -14.1231E-03     61.1584E-03
            1455     13.3117E-03     51.7377E-03    -6.38327E+06    -23.1721E+06    -8.29580E+06    -3.90026E+06    -15.6017E-03     29.6771E-03    -14.0754E-03     56.9638E-03    -15.6246E-03     29.6191E-03    -14.0740E-03     56.8846E-03
            1456     12.4241E-03     51.6847E-03    -5.66394E+06    -30.2528E+06    -4.40287E+06    -2.86277E+06    -15.3362E-03     29.3946E-03    -14.0583E-03     51.8396E-03    -15.3359E-03     29.2795E-03    -14.0283E-03     51.7809E-03
            1457     11.5377E-03     51.6406E-03    -4.45905E+06    -44.5245E+06    -3.29049E+06    -1.01471E+06    -15.0810E-03     29.1211E-03    -14.0401E-03     44.7656E-03    -15.0465E-03     28.9222E-03    -13.9855E-03     44.7363E-03
            1458     10.6503E-03     51.6009E-03    -2.32321E+06    -50.0871E+06     182.452E+03     496.412E+03    -14.8443E-03     28.8678E-03    -14.0235E-03     40.0317E-03    -14.7914E-03     28.6283E-03    -13.9466E-03     40.0260E-03
            1459     9.76340E-03     51.5656E-03    -939.605E+03    -52.7919E+06     2.94596E+06     551.575E+03    -14.5936E-03     28.6017E-03    -14.0081E-03     35.5409E-03    -14.5310E-03     28.3398E-03    -13.9155E-03     35.5390E-03
            1460     8.87579E-03     51.5343E-03    -939.239E+03    -54.6704E+06     4.29988E+06     856.941E+03    -14.4182E-03     28.4123E-03    -13.9941E-03     31.3432E-03    -14.3531E-03     28.1373E-03    -13.8920E-03     31.3474E-03
            1461     7.98848E-03     51.5070E-03    -1.37568E+06    -55.2674E+06     3.70564E+06     495.798E+03    -14.3043E-03     28.2771E-03    -13.9727E-03     27.4662E-03    -14.2386E-03     27.9995E-03    -13.8721E-03     27.4673E-03
            1462     7.10102E-03     51.4830E-03    -1.45342E+06    -56.5176E+06     4.78600E+06    -90.7391E+03    -14.1855E-03     28.1487E-03    -13.9632E-03     23.8275E-03    -14.1192E-03     27.8627E-03    -13.8552E-03     23.8222E-03
            1463     6.21344E-03     51.4623E-03    -989.125E+03    -55.0675E+06     6.07729E+06     600.277E+03    -14.0749E-03     28.0303E-03    -13.9553E-03     20.3702E-03    -14.0098E-03     27.7485E-03    -13.8437E-03     20.3747E-03
            1464     5.32589E-03     51.4450E-03    -1.24644E+06    -55.9799E+06     4.51060E+06     895.096E+03    -13.9756E-03     27.9213E-03    -13.9457E-03     17.1335E-03    -13.9077E-03     27.6372E-03    -13.8402E-03     17.1424E-03
            1465     4.43813E-03     51.4305E-03    -2.85169E+06    -58.4168E+06     3.74004E+06     417.931E+03    -13.9077E-03     27.8616E-03    -13.9539E-03     14.0504E-03    -13.8430E-03     27.5686E-03    -13.8464E-03     14.0538E-03
            1466     3.55047E-03     51.4192E-03    -3.67143E+06    -59.3295E+06     2.10904E+06     579.270E+03    -13.9129E-03     27.8718E-03    -13.9589E-03     11.1376E-03    -13.8484E-03     27.5776E-03    -13.8570E-03     11.1436E-03
            1467     2.66279E-03     51.4099E-03    -4.58887E+06    -60.9864E+06    -662.588E+03     403.926E+03    -13.9277E-03     27.8854E-03    -13.9577E-03     8.26124E-03    -13.8612E-03     27.5881E-03    -13.8659E-03     8.26535E-03
            1468     1.77532E-03     51.4039E-03    -6.01069E+06    -62.8217E+06    -3.06681E+06     361.929E+03    -13.9152E-03     27.8789E-03    -13.9637E-03     5.47401E-03    -13.8494E-03     27.5779E-03    -13.8792E-03     5.47792E-03
            1469     887.402E-06     51.3997E-03    -6.88590E+06    -64.6929E+06    -5.96571E+06     186.119E+03    -13.9685E-03     27.9240E-03    -13.9555E-03     2.86713E-03    -13.8984E-03     27.6220E-03    -13.8815E-03     2.86894E-03
            1470     16.8553E-03     51.1716E-03    -2.24173E+06     141.249E+06     19.9503E+06     15.1026E+03    -28.4237E-03     42.6250E-03    -14.2013E-03     279.270E-03    -38.0881E-03     52.7251E-03    -14.3031E-03     286.054E-03
            1471     15.9716E-03     50.9788E-03    -5.43277E+06     70.0394E+06    -25.0226E+06    -1.91294E+06    -21.4130E-03     35.4367E-03    -14.0238E-03     158.156E-03    -22.9513E-03     37.2770E-03    -14.2426E-03     158.575E-03
            1472     15.0843E-03     50.8753E-03    -5.70741E+06     16.1872E+06    -20.4769E+06    -3.23459E+06    -17.4667E-03     31.5060E-03    -14.0393E-03     87.6084E-03    -17.6894E-03     31.8253E-03    -14.1569E-03     87.5396E-03
            1473     14.1990E-03     50.8148E-03    -4.64596E+06    -21.2706E+06    -17.0102E+06    -4.78753E+06    -15.8893E-03     29.9295E-03    -14.0401E-03     60.6008E-03    -15.9206E-03     29.9181E-03    -14.0876E-03     60.5044E-03
            1474     13.3115E-03     50.7615E-03    -6.14533E+06    -26.5395E+06    -9.06119E+06    -4.55495E+06    -15.6202E-03     29.6560E-03    -14.0358E-03     56.3694E-03    -15.6357E-03     29.5817E-03    -14.0337E-03     56.2817E-03
            1475     12.4253E-03     50.7090E-03    -6.37060E+06    -30.6313E+06    -4.28024E+06    -2.74343E+06    -15.2953E-03     29.3127E-03    -14.0174E-03     51.4687E-03    -15.2980E-03     29.1964E-03    -13.9852E-03     51.4116E-03
            1476     11.5378E-03     50.6651E-03    -5.96050E+06    -46.1426E+06    -6.27246E+06    -3.22303E+06    -14.9889E-03     28.9766E-03    -13.9877E-03     44.5814E-03    -14.9551E-03     28.7761E-03    -13.9435E-03     44.5238E-03
            1477     10.6511E-03     50.6255E-03    -3.97361E+06    -51.6816E+06    -2.53004E+06    -2.23815E+06    -14.7342E-03     28.7114E-03    -13.9772E-03     39.9559E-03    -14.6832E-03     28.4702E-03    -13.9092E-03     39.9150E-03
            1478     9.76342E-03     50.5905E-03    -2.84325E+06    -53.6889E+06     2.23875E+06    -139.852E+03    -14.4963E-03     28.4730E-03    -13.9767E-03     35.4796E-03    -14.4409E-03     28.2104E-03    -13.8835E-03     35.4688E-03
            1479     8.87615E-03     50.5593E-03    -2.94822E+06    -54.5517E+06     3.45994E+06     368.253E+03    -14.3352E-03     28.3008E-03    -13.9656E-03     31.3729E-03    -14.2791E-03     28.0306E-03    -13.8649E-03     31.3708E-03
            1480     7.98858E-03     50.5319E-03    -3.17592E+06    -54.7860E+06     3.87842E+06     185.394E+03    -14.2303E-03     28.1835E-03    -13.9532E-03     27.5295E-03    -14.1745E-03     27.9107E-03    -13.8497E-03     27.5266E-03
            1481     7.10116E-03     50.5081E-03    -4.17995E+06    -55.8880E+06     3.39906E+06    -350.565E+03    -14.0936E-03     28.0370E-03    -13.9434E-03     23.9788E-03    -14.0398E-03     27.7601E-03    -13.8393E-03     23.9702E-03
            1482     6.21351E-03     50.4876E-03    -5.21241E+06    -56.0218E+06     2.89176E+06    -858.158E+03    -13.9446E-03     27.8878E-03    -13.9433E-03     20.6076E-03    -13.8945E-03     27.6120E-03    -13.8400E-03     20.5933E-03
            1483     5.32575E-03     50.4702E-03    -5.42561E+06    -56.2862E+06     2.83148E+06     167.707E+03    -13.8851E-03     27.8406E-03    -13.9555E-03     17.3338E-03    -13.8353E-03     27.5635E-03    -13.8518E-03     17.3334E-03
            1484     4.43804E-03     50.4560E-03    -5.67798E+06    -57.4847E+06     1.18868E+06     243.117E+03    -13.9185E-03     27.8809E-03    -13.9624E-03     14.2027E-03    -13.8655E-03     27.6003E-03    -13.8649E-03     14.2039E-03
            1485     3.55041E-03     50.4442E-03    -6.64221E+06    -59.7144E+06    -680.243E+03    -368.432E+03    -13.9358E-03     27.9018E-03    -13.9659E-03     11.2311E-03    -13.8815E-03     27.6139E-03    -13.8731E-03     11.2249E-03
            1486     2.66285E-03     50.4353E-03    -7.40901E+06    -60.8632E+06    -3.36783E+06     217.571E+03    -13.9191E-03     27.8838E-03    -13.9647E-03     8.34730E-03    -13.8630E-03     27.5951E-03    -13.8825E-03     8.34902E-03
            1487     1.77506E-03     50.4289E-03    -8.13395E+06    -62.7224E+06    -6.22931E+06     27.7321E+03    -13.9366E-03     27.9038E-03    -13.9672E-03     5.53302E-03    -13.8769E-03     27.6110E-03    -13.8956E-03     5.53261E-03
            1488     887.664E-06     50.4253E-03    -8.57054E+06    -64.2804E+06    -8.04992E+06    -1.37609E+03    -13.9710E-03     27.9368E-03    -13.9658E-03     2.89897E-03    -13.9069E-03     27.6424E-03    -13.9004E-03     2.89839E-03
            1489     16.8595E-03     50.1977E-03    -3.20655E+06     141.543E+06     22.8139E+06     583.452E+03    -29.2418E-03     43.4186E-03    -14.1768E-03     278.419E-03    -38.8646E-03     53.4664E-03    -14.2633E-03     285.116E-03
            1490     15.9702E-03     49.9999E-03    -1.92680E+06     72.4498E+06    -20.3520E+06    -3.71244E+03    -21.3965E-03     35.3666E-03    -13.9702E-03     157.025E-03    -22.9222E-03     37.2017E-03    -14.1742E-03     157.447E-03
            1491     15.0866E-03     49.8990E-03    -2.10967E+06     18.4761E+06    -16.9978E+06    -2.57380E+06    -17.1499E-03     31.1326E-03    -13.9827E-03     85.7219E-03    -17.3533E-03     31.4434E-03    -14.0914E-03     85.6626E-03
            1492     14.1990E-03     49.8387E-03    -2.51758E+06    -20.7427E+06    -14.5659E+06    -3.64216E+06    -15.8300E-03     29.8176E-03    -13.9876E-03     60.1190E-03    -15.8547E-03     29.8020E-03    -14.0267E-03     60.0377E-03
            1493     13.3130E-03     49.7857E-03    -2.07165E+06    -28.3524E+06    -6.95989E+06    -3.05139E+06    -15.4721E-03     29.4572E-03    -13.9851E-03     55.8981E-03    -15.4672E-03     29.3645E-03    -13.9758E-03     55.8303E-03
            1494     12.4254E-03     49.7334E-03    -2.33631E+06    -31.1166E+06    -1.60713E+06    -3.04621E+06    -15.1143E-03     29.0903E-03    -13.9760E-03     51.2230E-03    -15.0998E-03     28.9617E-03    -13.9355E-03     51.1624E-03
            1495     11.5387E-03     49.6897E-03    -2.21066E+06    -45.5165E+06    -3.21915E+06    -3.16310E+06    -14.8159E-03     28.7735E-03    -13.9576E-03     44.4292E-03    -14.7687E-03     28.5662E-03    -13.9045E-03     44.3725E-03
            1496     10.6510E-03     49.6504E-03    -3.75401E+06    -54.5248E+06    -3.22549E+06    -2.67192E+06    -14.5769E-03     28.5265E-03    -13.9496E-03     39.9367E-03    -14.5197E-03     28.2718E-03    -13.8813E-03     39.8904E-03
            1497     9.76387E-03     49.6154E-03    -4.27894E+06    -55.2058E+06     1.84381E+06    -1.03850E+06    -14.3957E-03     28.3560E-03    -13.9602E-03     35.5531E-03    -14.3447E-03     28.0885E-03    -13.8648E-03     35.5308E-03
            1498     8.87624E-03     49.5845E-03    -4.09151E+06    -54.5871E+06     3.94882E+06    -218.863E+03    -14.2300E-03     28.1891E-03    -13.9591E-03     31.5114E-03    -14.1802E-03     27.9196E-03    -13.8543E-03     31.5019E-03
            1499     7.98874E-03     49.5571E-03    -4.68818E+06    -54.4940E+06     3.41254E+06    -240.095E+03    -14.0725E-03     28.0277E-03    -13.9551E-03     27.7520E-03    -14.0240E-03     27.7592E-03    -13.8523E-03     27.7438E-03
            1500     7.10095E-03     49.5334E-03    -5.12619E+06    -55.2916E+06     3.34592E+06    -490.242E+03    -13.9742E-03     27.9375E-03    -13.9633E-03     24.1692E-03    -13.9259E-03     27.6650E-03    -13.8590E-03     24.1588E-03
            1501     6.21324E-03     49.5129E-03    -6.46404E+06    -56.2322E+06     2.45126E+06    -597.099E+03    -13.9008E-03     27.8774E-03    -13.9766E-03     20.7638E-03    -13.8560E-03     27.6030E-03    -13.8734E-03     20.7529E-03
            1502     5.32548E-03     49.4957E-03    -8.48962E+06    -57.2315E+06     1.02878E+06    -799.331E+03    -13.8982E-03     27.8906E-03    -13.9924E-03     17.5443E-03    -13.8597E-03     27.6159E-03    -13.8920E-03     17.5316E-03
            1503     4.43788E-03     49.4810E-03    -9.57375E+06    -56.9735E+06    -1.53460E+06    -623.399E+03    -13.9436E-03     27.9391E-03    -13.9954E-03     14.3958E-03    -13.9070E-03     27.6706E-03    -13.9066E-03     14.3858E-03
            1504     3.55033E-03     49.4695E-03    -10.5910E+06    -59.7096E+06    -4.61140E+06    -650.759E+03    -13.9579E-03     27.9527E-03    -13.9948E-03     11.3590E-03    -13.9177E-03     27.6763E-03    -13.9159E-03     11.3491E-03
            1505     2.66261E-03     49.4605E-03    -11.7953E+06    -61.6424E+06    -7.06520E+06    -673.624E+03    -13.9656E-03     27.9594E-03    -13.9939E-03     8.44544E-03    -13.9248E-03     27.6786E-03    -13.9227E-03     8.43565E-03
            1506     1.77518E-03     49.4541E-03    -12.4289E+06    -62.4013E+06    -10.4037E+06    -167.442E+03    -13.9814E-03     27.9621E-03    -13.9808E-03     5.57473E-03    -13.9376E-03     27.6832E-03    -13.9243E-03     5.57181E-03
            1507     887.539E-06     49.4502E-03    -13.2579E+06    -64.7269E+06    -12.8423E+06    -55.2466E+03    -14.0176E-03     27.9457E-03    -13.9281E-03     2.96207E-03    -13.9695E-03     27.6628E-03    -13.8793E-03     2.96074E-03
            1508     16.8569E-03     49.2182E-03    -3.54563E+06     141.201E+06     23.0296E+06     528.665E+03    -30.8796E-03     45.0129E-03    -14.1333E-03     278.959E-03    -40.6126E-03     55.1678E-03    -14.2177E-03     285.489E-03
            1509     15.9761E-03     49.0235E-03    -4.19268E+06     72.9937E+06    -20.0887E+06    -609.414E+03    -21.6219E-03     35.4969E-03    -13.8750E-03     154.697E-03    -23.1171E-03     37.2947E-03    -14.0752E-03     155.077E-03
            1510     15.0866E-03     48.9234E-03    -522.621E+03     20.4948E+06    -14.3699E+06    -1.50082E+06    -16.2895E-03     30.1894E-03    -13.8998E-03     85.7287E-03    -16.4858E-03     30.4981E-03    -14.0006E-03     85.6894E-03
            1511     14.2009E-03     48.8624E-03    -617.562E+03    -21.0522E+06    -12.7037E+06    -2.00884E+06    -15.6286E-03     29.5596E-03    -13.9310E-03     60.0623E-03    -15.6454E-03     29.5364E-03    -13.9631E-03     60.0029E-03
            1512     13.3133E-03     48.8105E-03    -1.50090E+06    -27.9552E+06    -6.94378E+06    -2.97026E+06    -15.2456E-03     29.1761E-03    -13.9305E-03     55.7942E-03    -15.2383E-03     29.0843E-03    -13.9225E-03     55.7280E-03
            1513     12.4265E-03     48.7580E-03    -708.988E+03    -31.5609E+06    -1.67932E+06    -3.29746E+06    -14.8684E-03     28.8025E-03    -13.9341E-03     51.3621E-03    -14.8448E-03     28.6692E-03    -13.8957E-03     51.2988E-03
            1514     11.5386E-03     48.7147E-03    -1.41799E+06    -46.7077E+06    -1.22301E+06    -2.06686E+06    -14.6008E-03     28.5445E-03    -13.9437E-03     44.4928E-03    -14.5507E-03     28.3271E-03    -13.8800E-03     44.4507E-03
            1515     10.6515E-03     48.6754E-03    -2.28173E+06    -55.3071E+06    -1.50079E+06    -1.02774E+06    -14.4151E-03     28.3622E-03    -13.9470E-03     40.0780E-03    -14.3519E-03     28.0988E-03    -13.8710E-03     40.0531E-03
            1516     9.76362E-03     48.6405E-03    -3.78440E+06     -56.424E+06     2.40430E+06    -1.17420E+06    -14.2370E-03     28.2053E-03    -13.9683E-03     35.8041E-03    -14.1825E-03     27.9301E-03    -13.8690E-03     35.7803E-03
            1517     8.87616E-03     48.6095E-03    -4.82227E+06    -54.9211E+06     3.74782E+06    -675.106E+03    -14.0848E-03     28.0648E-03    -13.9800E-03     31.7751E-03    -14.0379E-03     27.7949E-03    -13.8746E-03     31.7599E-03
            1518     7.98828E-03     48.5825E-03    -5.10878E+06    -54.1356E+06     2.73862E+06    -636.655E+03    -13.9675E-03     27.9560E-03    -13.9885E-03     28.0177E-03    -13.9206E-03     27.6908E-03    -13.8889E-03     28.0044E-03
            1519     7.10058E-03     48.5586E-03    -6.15965E+06    -55.4428E+06     3.10877E+06    -684.214E+03    -13.9117E-03     27.9272E-03    -14.0155E-03     24.4039E-03    -13.8680E-03     27.6558E-03    -13.9107E-03     24.3911E-03
            1520     6.21285E-03     48.5383E-03    -7.37924E+06    -56.4177E+06     2.54821E+06    -455.762E+03    -13.9389E-03     27.9777E-03    -14.0388E-03     20.9625E-03    -13.8986E-03     27.7035E-03    -13.9335E-03     20.9535E-03
            1521     5.32523E-03     48.5207E-03    -8.59163E+06    -57.0864E+06     1.30357E+06    -557.857E+03    -13.9637E-03     28.0186E-03    -14.0549E-03     17.7326E-03    -13.9263E-03     27.7443E-03    -13.9532E-03     17.7230E-03
            1522     4.43759E-03     48.5062E-03    -10.9120E+06    -57.3696E+06    -2.00971E+06    -744.670E+03    -13.9608E-03     28.0217E-03    -14.0609E-03     14.5492E-03    -13.9296E-03     27.7539E-03    -13.9719E-03     14.5376E-03
            1523     3.54991E-03     48.4945E-03    -13.0843E+06    -59.4605E+06    -6.83134E+06    -794.785E+03    -14.0183E-03     28.0750E-03    -14.0567E-03     11.4839E-03    -13.9877E-03     27.8067E-03    -13.9857E-03     11.4721E-03
            1524     2.66258E-03     48.4855E-03    -14.6906E+06    -62.5041E+06    -10.6691E+06    -866.240E+03    -14.0516E-03     28.0980E-03    -14.0463E-03     8.51925E-03    -14.0189E-03     27.8222E-03    -13.9877E-03     8.50695E-03
            1525     1.77500E-03     48.4791E-03    -16.2867E+06    -62.9832E+06    -13.5850E+06    -316.405E+03    -14.0106E-03     28.0479E-03    -14.0373E-03     5.66408E-03    -13.9807E-03     27.7763E-03    -13.9903E-03     5.65926E-03
            1526     887.510E-06     48.4754E-03    -16.8629E+06    -64.6994E+06    -16.5208E+06     86.5045E+03    -14.0655E-03     28.0634E-03    -13.9978E-03     3.09470E-03    -14.0303E-03     27.7912E-03    -13.9622E-03     3.09529E-03
            1527     16.8592E-03     48.2297E-03    -3.67522E+06     142.932E+06     24.8132E+06    -591.720E+03    -31.3769E-03     45.4569E-03    -14.0799E-03     276.833E-03    -41.0601E-03     55.5627E-03    -14.1578E-03     283.055E-03
            1528     15.9754E-03     48.0502E-03    -1.58924E+06     74.3490E+06    -17.5128E+06    -1.99701E+06    -20.8650E-03     34.6833E-03    -13.8184E-03     152.776E-03    -22.3092E-03     36.4367E-03    -14.0114E-03     153.160E-03
            1529     15.0887E-03     47.9475E-03    -1.34852E+06     19.1852E+06    -16.0218E+06    -606.587E+03    -16.4680E-03     30.3070E-03    -13.8390E-03     86.8472E-03    -16.6663E-03     30.6151E-03    -13.9450E-03     86.8184E-03
            1530     14.2007E-03     47.8868E-03    -2.04371E+06    -19.2802E+06    -13.4142E+06    -172.639E+03    -15.2202E-03     29.0975E-03    -13.8773E-03     60.0824E-03    -15.2441E-03     29.0847E-03    -13.9135E-03     60.0484E-03
            1531     13.3141E-03     47.8351E-03    -2.51684E+06    -26.1407E+06    -8.37816E+06    -2.37918E+06    -14.9180E-03     28.8115E-03    -13.8934E-03     55.9243E-03    -14.9158E-03     28.7318E-03    -13.8938E-03     55.8667E-03
            1532     12.4262E-03     47.7831E-03    -3.62662E+06    -32.5125E+06    -5.33745E+06    -3.35481E+06    -14.6442E-03     28.5545E-03    -13.9103E-03     51.6523E-03    -14.6283E-03     28.4258E-03    -13.8846E-03     51.5888E-03
            1533     11.5390E-03     47.7397E-03    -3.02944E+06    -48.9878E+06    -2.98537E+06    -2.07105E+06    -14.4148E-03     28.3592E-03    -13.9445E-03     44.8333E-03    -14.3667E-03     28.1351E-03    -13.8840E-03     44.7915E-03
            1534     10.6510E-03     47.7007E-03    -2.50467E+06    -55.7474E+06    -1.43577E+06    -835.216E+03    -14.2768E-03     28.2433E-03    -13.9665E-03     40.3577E-03    -14.2141E-03     27.9780E-03    -13.8892E-03     40.3355E-03
            1535     9.76353E-03     47.6657E-03    -2.48943E+06    -56.4281E+06     3.25416E+06    -391.955E+03    -14.0877E-03     28.0921E-03    -14.0044E-03     36.0404E-03    -14.0280E-03     27.8138E-03    -13.9027E-03     36.0268E-03
            1536     8.87548E-03     47.6349E-03    -3.31031E+06    -55.0781E+06     3.84631E+06    -872.977E+03    -13.9810E-03     28.0102E-03    -14.0292E-03     31.9993E-03    -13.9264E-03     27.7372E-03    -13.9253E-03     31.9816E-03
            1537     7.98786E-03     47.6076E-03    -4.43900E+06    -54.5189E+06     3.63221E+06    -580.786E+03    -13.9320E-03     27.9895E-03    -14.0575E-03     28.1924E-03    -13.8825E-03     27.7201E-03    -13.9538E-03     28.1799E-03
            1538     7.10001E-03     47.5840E-03    -5.91474E+06    -55.5759E+06     4.19902E+06    -141.092E+03    -13.9191E-03     28.0151E-03    -14.0960E-03     24.6283E-03    -13.8756E-03     27.7411E-03    -13.9858E-03     24.6226E-03
            1539     6.21229E-03     47.5633E-03    -7.65874E+06    -56.2774E+06     1.87967E+06    -510.126E+03    -13.9932E-03     28.1106E-03    -14.1173E-03     21.2396E-03    -13.9535E-03     27.8384E-03    -14.0152E-03     21.2299E-03
            1540     5.32477E-03     47.5458E-03    -9.45427E+06    -57.3305E+06     468.402E+03    -579.570E+03    -14.0393E-03     28.1761E-03    -14.1368E-03     17.8957E-03    -14.0046E-03     27.9030E-03    -14.0376E-03     17.8858E-03
            1541     4.43718E-03     47.5313E-03    -11.0898E+06    -57.4364E+06    -1.67914E+06    -271.512E+03    -14.0437E-03     28.1919E-03    -14.1482E-03     14.6907E-03    -14.0137E-03     27.9235E-03    -14.0572E-03     14.6853E-03
            1542     3.54976E-03     47.5194E-03    -13.2191E+06    -59.5338E+06    -6.63728E+06    -254.336E+03    -14.0729E-03     28.2208E-03    -14.1479E-03     11.6180E-03    -14.0431E-03     27.9520E-03    -14.0756E-03     11.6132E-03
            1543     2.66222E-03     47.5104E-03    -15.6444E+06    -62.6840E+06    -11.9322E+06    -247.763E+03    -14.0963E-03     28.2418E-03    -14.1455E-03     8.62823E-03    -14.0662E-03     27.9683E-03    -14.0915E-03     8.62395E-03
            1544     1.77483E-03     47.5042E-03    -17.2056E+06    -63.8438E+06    -15.2705E+06    -192.945E+03    -14.1266E-03     28.2703E-03    -14.1437E-03     5.75837E-03    -14.0976E-03     27.9981E-03    -14.1025E-03     5.75513E-03
            1545     887.338E-06     47.5003E-03    -18.7439E+06    -64.5483E+06    -17.6017E+06     226.340E+03    -14.1575E-03     28.2747E-03    -14.1172E-03     3.09265E-03    -14.1304E-03     28.0077E-03    -14.0844E-03     3.09500E-03
            1546     16.8651E-03     47.2600E-03    -530.139E+03     143.773E+06     28.2484E+06    -182.349E+03    -30.4438E-03     44.4800E-03    -14.0362E-03     274.927E-03    -39.9327E-03     54.3957E-03    -14.1026E-03     281.182E-03
            1547     15.9731E-03     47.0708E-03    -1.23201E+06     74.3843E+06    -16.9683E+06     83.2425E+03    -20.5056E-03     34.2972E-03    -13.7916E-03     151.957E-03    -21.9063E-03     36.0068E-03    -13.9825E-03     152.359E-03
            1548     15.0887E-03     46.9720E-03    -5.47626E+06     18.3794E+06    -17.5296E+06    -130.492E+03    -16.5712E-03     30.3842E-03    -13.8130E-03     85.6410E-03    -16.7837E-03     30.6933E-03    -13.9193E-03     85.6175E-03
            1549     14.2021E-03     46.9120E-03    -4.52604E+06    -18.3415E+06    -13.6780E+06    -858.508E+03    -14.9167E-03     28.7718E-03    -13.8550E-03     60.3706E-03    -14.9530E-03     28.7666E-03    -13.8903E-03     60.3293E-03
            1550     13.3136E-03     46.8600E-03    -3.19790E+06    -23.8168E+06    -7.83920E+06    -1.62536E+06    -14.6131E-03     28.5022E-03    -13.8891E-03     56.0972E-03    -14.6178E-03     28.4338E-03    -13.8891E-03     56.0504E-03
            1551     12.4264E-03     46.8083E-03    -2.67226E+06    -32.8813E+06    -5.44814E+06    -2.81960E+06    -14.4278E-03     28.3504E-03    -13.9226E-03     51.6735E-03    -14.4063E-03     28.2185E-03    -13.8983E-03     51.6174E-03
            1552     11.5381E-03     46.7650E-03    -3.21928E+06    -50.9615E+06    -3.91869E+06    -2.39082E+06    -14.2516E-03     28.2244E-03    -13.9728E-03     45.0692E-03    -14.2002E-03     27.9920E-03    -13.9138E-03     45.0235E-03
            1553     10.6507E-03     46.7258E-03    -3.20396E+06    -56.6246E+06    -1.84187E+06    -1.25864E+06    -14.1687E-03     28.1795E-03    -14.0108E-03     40.5341E-03    -14.1075E-03     27.9113E-03    -13.9333E-03     40.5066E-03
            1554     9.76268E-03     46.6912E-03    -3.18096E+06    -56.6758E+06     2.55699E+06    -768.756E+03    -14.0269E-03     28.0849E-03    -14.0580E-03     36.1467E-03    -13.9692E-03     27.8073E-03    -13.9584E-03     36.1283E-03
            1555     8.87504E-03     46.6602E-03    -3.80040E+06    -54.9395E+06     3.69693E+06    -317.563E+03    -13.9087E-03     28.0058E-03    -14.0971E-03     32.1478E-03    -13.8565E-03     27.7344E-03    -13.9934E-03     32.1373E-03
            1556     7.98706E-03     46.6330E-03    -5.10149E+06    -55.0108E+06     3.31993E+06    -398.019E+03    -13.9066E-03     28.0452E-03    -14.1386E-03     28.3858E-03    -13.8591E-03     27.7747E-03    -14.0349E-03     28.3757E-03
            1557     7.09935E-03     46.6091E-03    -5.96273E+06    -55.9537E+06     4.43515E+06    -171.574E+03    -13.9789E-03     28.1657E-03    -14.1868E-03     24.8336E-03    -13.9354E-03     27.8895E-03    -14.0748E-03     24.8275E-03
            1558     6.21174E-03     46.5883E-03    -7.28167E+06    -55.9163E+06     2.74242E+06     188.307E+03    -14.0355E-03     28.2510E-03    -14.2154E-03     21.4007E-03    -13.9957E-03     27.9788E-03    -14.1101E-03     21.4001E-03
            1559     5.32414E-03     46.5706E-03    -9.57193E+06    -57.2039E+06    -420.678E+03    -208.136E+03    -14.1000E-03     28.3347E-03    -14.2347E-03     18.0380E-03    -14.0648E-03     28.0637E-03    -14.1400E-03     18.0329E-03
            1560     4.43677E-03     46.5561E-03    -11.8087E+06    -58.0662E+06    -3.40045E+06    -220.960E+03    -14.1451E-03     28.3932E-03    -14.2482E-03     14.8459E-03    -14.1153E-03     28.1253E-03    -14.1638E-03     14.8412E-03
            1561     3.54928E-03     46.5442E-03    -13.7387E+06    -59.7778E+06    -6.79184E+06     441.357E+03    -14.1405E-03     28.4015E-03    -14.2610E-03     11.7327E-03    -14.1127E-03     28.1325E-03    -14.1884E-03     11.7370E-03
            1562     2.66184E-03     46.5353E-03    -15.5389E+06    -62.4513E+06    -11.3903E+06     444.108E+03    -14.1868E-03     28.4583E-03    -14.2714E-03     8.68887E-03    -14.1574E-03     28.1850E-03    -14.2153E-03     8.69353E-03
            1563     1.77448E-03     46.5287E-03    -17.2076E+06     -63.915E+06    -15.7114E+06     290.868E+03    -14.2655E-03     28.5333E-03    -14.2679E-03     5.77518E-03    -14.2357E-03     28.2615E-03    -14.2288E-03     5.77817E-03
            1564     887.405E-06     46.5250E-03    -18.1405E+06    -64.1745E+06    -17.7534E+06     333.162E+03    -14.2997E-03     28.5219E-03    -14.2222E-03     3.06638E-03    -14.2699E-03     28.2561E-03    -14.1916E-03     3.07002E-03
            1565     16.8559E-03     46.2773E-03    -4.21039E+06     141.433E+06     21.6631E+06     122.463E+03    -30.4876E-03     44.4955E-03    -14.0079E-03     273.737E-03    -39.9080E-03     54.3403E-03    -14.0986E-03     279.988E-03
            1566     15.9785E-03     46.0958E-03    -5.38173E+06     72.7374E+06    -20.9248E+06     1.49766E+06    -21.0212E-03     34.7761E-03    -13.7549E-03     149.696E-03    -22.3902E-03     36.4449E-03    -13.9572E-03     150.088E-03
            1567     15.0889E-03     45.9962E-03    -688.029E+03     20.2507E+06    -13.9980E+06     1.03662E+06    -15.9341E-03     29.7276E-03    -13.7935E-03     84.9680E-03    -16.1255E-03     30.0290E-03    -13.8919E-03     84.9641E-03
            1568     14.2009E-03     45.9373E-03    -905.332E+03    -17.6339E+06    -10.7656E+06    -382.481E+03    -14.7410E-03     28.5999E-03    -13.8589E-03     59.9845E-03    -14.7640E-03     28.5883E-03    -13.8859E-03     59.9500E-03
            1569     13.3140E-03     45.8851E-03    -1.48146E+06    -22.5411E+06    -6.17008E+06    -1.70658E+06    -14.3944E-03     28.2963E-03    -13.9019E-03     56.1911E-03    -14.3945E-03     28.2290E-03    -13.8979E-03     56.1439E-03
            1570     12.4256E-03     45.8338E-03    -2.16263E+06    -32.9393E+06    -4.22796E+06    -1.89898E+06    -14.2442E-03     28.1963E-03    -13.9521E-03     51.6531E-03    -14.2217E-03     28.0614E-03    -13.9223E-03     51.6091E-03
            1571     11.5381E-03     45.7903E-03    -2.82941E+06    -51.9368E+06    -3.51943E+06    -1.67744E+06    -14.0927E-03     28.1076E-03    -14.0149E-03     45.1025E-03    -14.0384E-03     27.8690E-03    -13.9531E-03     45.0663E-03
            1572     10.6498E-03     45.7512E-03    -3.36819E+06    -57.3995E+06    -2.07262E+06    -1.40546E+06    -14.0118E-03     28.0789E-03    -14.0670E-03     40.6402E-03    -13.9499E-03     27.8073E-03    -13.9893E-03     40.6111E-03
            1573     9.76229E-03     45.7163E-03    -3.97964E+06    -57.3990E+06     1.86920E+06    -688.671E+03    -13.9519E-03     28.0804E-03    -14.1285E-03     36.3445E-03    -13.8960E-03     27.8013E-03    -14.0302E-03     36.3273E-03
            1574     8.87423E-03     45.6856E-03    -4.96868E+06    -55.3520E+06     3.08788E+06     -233.04E+03    -13.9144E-03     28.0930E-03    -14.1786E-03     32.3765E-03    -13.8665E-03     27.8221E-03    -14.0757E-03     32.3672E-03
            1575     7.98639E-03     45.6581E-03    -5.64487E+06    -54.5306E+06     2.72492E+06    -331.524E+03    -13.9525E-03     28.1767E-03    -14.2242E-03     28.6032E-03    -13.9076E-03     27.9103E-03    -14.1234E-03     28.5941E-03
            1576     7.09869E-03     45.6340E-03    -6.96115E+06    -56.8672E+06     3.20928E+06    -303.400E+03    -14.0455E-03     28.3215E-03    -14.2760E-03     24.9874E-03    -14.0038E-03     28.0439E-03    -14.1674E-03     24.9797E-03
            1577     6.21112E-03     45.6132E-03    -8.48559E+06    -56.0659E+06     1.82177E+06     333.750E+03    -14.0934E-03     28.4029E-03    -14.3095E-03     21.4794E-03    -14.0580E-03     28.1330E-03    -14.2068E-03     21.4808E-03
            1578     5.32359E-03     45.5954E-03    -9.89398E+06    -56.6629E+06    -891.052E+03     567.486E+03    -14.1416E-03     28.4780E-03    -14.3364E-03     18.1258E-03    -14.1081E-03     28.2109E-03    -14.2444E-03     18.1307E-03
            1579     4.43613E-03     45.5806E-03    -12.1436E+06    -58.4231E+06    -4.72266E+06     453.258E+03    -14.2186E-03     28.5748E-03    -14.3562E-03     14.8616E-03    -14.1880E-03     28.3075E-03    -14.2775E-03     14.8656E-03
            1580     3.54883E-03     45.5689E-03    -14.1924E+06    -60.0898E+06    -8.00088E+06     482.285E+03    -14.2856E-03     28.6555E-03    -14.3699E-03     11.7088E-03    -14.2579E-03     28.3873E-03    -14.3022E-03     11.7136E-03
            1581     2.66158E-03     45.5596E-03    -15.5915E+06    -62.1805E+06    -11.6699E+06     806.504E+03    -14.3303E-03     28.7031E-03    -14.3729E-03     8.65976E-03    -14.3010E-03     28.4318E-03    -14.3185E-03     8.66908E-03
            1582     1.77444E-03     45.5533E-03    -16.7460E+06    -63.3825E+06    -15.3086E+06     679.834E+03    -14.3464E-03     28.7167E-03    -14.3703E-03     5.73250E-03    -14.3157E-03     28.4463E-03    -14.3307E-03     5.74046E-03
            1583     887.044E-06     45.5493E-03    -16.2911E+06    -63.4663E+06    -16.8829E+06     351.989E+03    -14.3853E-03     28.7441E-03    -14.3587E-03     3.00990E-03    -14.3486E-03     28.4779E-03    -14.3275E-03     3.01392E-03
            1584     16.8644E-03     45.2945E-03    -1.65441E+06     142.464E+06     24.4983E+06     570.491E+03    -30.8759E-03     44.8602E-03    -13.9843E-03     269.889E-03    -40.1013E-03     54.5147E-03    -14.0660E-03     275.848E-03
            1585     15.9748E-03     45.1203E-03    -2.79786E+06     73.1857E+06    -19.8825E+06    -396.749E+03    -20.1504E-03     33.8715E-03    -13.7211E-03     147.043E-03    -21.4703E-03     35.4990E-03    -13.9226E-03     147.428E-03
            1586     15.0893E-03     45.0211E-03    -1.42504E+06     20.6872E+06    -15.1728E+06     253.023E+03    -15.9986E-03     29.7656E-03    -13.7670E-03     84.2461E-03    -16.1922E-03     30.0716E-03    -13.8708E-03     84.2309E-03
            1587     14.2022E-03     44.9626E-03     523.963E+03    -15.5249E+06    -10.3837E+06    -116.915E+03    -14.3373E-03     28.1803E-03    -13.8431E-03     59.3088E-03    -14.3548E-03     28.1747E-03    -13.8733E-03     59.2791E-03
            1588     13.3132E-03     44.9108E-03     889.182E+03    -22.9033E+06    -4.65176E+06    -455.836E+03    -14.0895E-03     28.0060E-03    -13.9165E-03     56.1649E-03    -14.0787E-03     27.9305E-03    -13.9078E-03     56.1346E-03
            1589     12.4256E-03     44.8590E-03    -592.307E+03    -32.7582E+06    -1.46636E+06    -57.2542E+03    -14.0453E-03     28.0378E-03    -13.9924E-03     51.6918E-03    -14.0187E-03     27.8970E-03    -13.9514E-03     51.6721E-03
            1590     11.5373E-03     44.8159E-03    -2.21608E+06    -51.6484E+06    -2.61473E+06    -801.315E+03    -13.9141E-03     27.9785E-03    -14.0644E-03     45.2424E-03    -13.8581E-03     27.7389E-03    -13.9994E-03     45.2178E-03
            1591     10.6495E-03     44.7766E-03    -3.08661E+06    -58.1855E+06    -2.26446E+06    -823.510E+03    -13.8147E-03     27.9480E-03    -14.1333E-03     40.9086E-03    -13.7498E-03     27.6721E-03    -14.0558E-03     40.8873E-03
            1592     9.76102E-03     44.7418E-03    -3.93069E+06    -58.0307E+06     1.56615E+06    -318.334E+03    -13.8508E-03     28.0654E-03    -14.2146E-03     36.6785E-03    -13.7933E-03     27.7833E-03    -14.1169E-03     36.6663E-03
            1593     8.87333E-03     44.7106E-03    -4.47462E+06    -55.3231E+06     2.75087E+06    -317.312E+03    -14.0072E-03     28.2796E-03    -14.2723E-03     32.6710E-03    -13.9564E-03     28.0085E-03    -14.1719E-03     32.6606E-03
            1594     7.98569E-03     44.6832E-03    -5.60711E+06    -54.8242E+06     2.43104E+06    -113.367E+03    -14.1115E-03     28.4280E-03    -14.3165E-03     28.8161E-03    -14.0656E-03     28.1605E-03    -14.2167E-03     28.8098E-03
            1595     7.09804E-03     44.6588E-03    -7.35238E+06    -57.1854E+06     2.36457E+06     406.283E+03    -14.1503E-03     28.5121E-03    -14.3617E-03     25.0810E-03    -14.1089E-03     28.2347E-03    -14.2563E-03     25.0825E-03
            1596     6.21053E-03     44.6379E-03    -9.35200E+06    -56.4484E+06    -10.4121E+03     529.589E+03    -14.1990E-03     28.5878E-03    -14.3888E-03     21.4756E-03    -14.1647E-03     28.3200E-03    -14.2934E-03     21.4795E-03
            1597     5.32312E-03     44.6200E-03    -11.2829E+06    -56.7652E+06    -2.39382E+06     931.743E+03    -14.2435E-03     28.6578E-03    -14.4143E-03     18.0335E-03    -14.2147E-03     28.3943E-03    -14.3276E-03     18.0432E-03
            1598     4.43574E-03     44.6052E-03    -12.8514E+06    -57.9319E+06    -5.34672E+06     963.163E+03    -14.3077E-03     28.7410E-03    -14.4333E-03     14.7225E-03    -14.2805E-03     28.4780E-03    -14.3574E-03     14.7330E-03
            1599     3.54852E-03     44.5931E-03    -14.3736E+06    -59.9904E+06    -9.22508E+06     624.443E+03    -14.3973E-03     28.8350E-03    -14.4377E-03     11.5592E-03    -14.3689E-03     28.5694E-03    -14.3760E-03     11.5658E-03
            1600     2.66144E-03     44.5841E-03    -15.7115E+06    -62.1141E+06    -12.6316E+06     769.249E+03    -14.4332E-03     28.8636E-03    -14.4304E-03     8.53956E-03    -14.4032E-03     28.5941E-03    -14.3807E-03     8.54835E-03
            1601     1.77420E-03     44.5775E-03    -16.1613E+06    -62.4665E+06    -15.1488E+06     802.327E+03    -14.4250E-03     28.8421E-03    -14.4171E-03     5.61117E-03    -14.3929E-03     28.5752E-03    -14.3788E-03     5.62076E-03
            1602     887.222E-06     44.5737E-03    -16.5626E+06    -63.0416E+06    -16.2832E+06     161.604E+03    -14.4358E-03     28.8255E-03    -14.3897E-03     2.93704E-03    -14.4019E-03     28.5611E-03    -14.3557E-03     2.93862E-03
            1603     16.8633E-03     44.3229E-03    -1.58853E+06     143.135E+06     27.7649E+06     368.746E+03    -30.4739E-03     44.4405E-03    -13.9667E-03     267.179E-03    -39.4681E-03     53.8569E-03    -14.0331E-03     273.143E-03
            1604     15.9769E-03     44.1424E-03    -1.23645E+06     73.4663E+06    -18.9687E+06     872.248E+03    -20.3197E-03     34.0043E-03    -13.6845E-03     145.944E-03    -21.5991E-03     35.5951E-03    -13.8841E-03     146.322E-03
            1605     15.0904E-03     44.0459E-03    -2.80435E+06     20.8997E+06    -18.4780E+06    -471.970E+03    -15.7229E-03     29.4351E-03    -13.7122E-03     81.8350E-03    -15.9080E-03     29.7380E-03    -13.8308E-03     81.8101E-03
            1606     14.2015E-03     43.9890E-03    -2.41634E+06    -14.8992E+06    -12.3660E+06    -1.10289E+06    -13.7834E-03     27.5996E-03    -13.8162E-03     59.0112E-03    -13.8106E-03     27.6012E-03    -13.8529E-03     58.9708E-03
            1607     13.3138E-03     43.9363E-03    -1.49219E+06    -24.2689E+06    -6.96992E+06    -10.9712E+03    -13.6550E-03     27.5760E-03    -13.9211E-03     56.5446E-03    -13.6498E-03     27.4996E-03    -13.9186E-03     56.5214E-03
            1608     12.4248E-03     43.8849E-03    -1.03784E+06    -32.9164E+06    -3.23043E+06     900.868E+03    -13.7034E-03     27.7276E-03    -14.0243E-03     52.0121E-03    -13.6757E-03     27.5887E-03    -13.9912E-03     52.0055E-03
            1609     11.5368E-03     43.8413E-03    -1.64142E+06    -50.5102E+06    -3.72792E+06     903.903E+03    -13.6758E-03     27.7981E-03    -14.1223E-03     45.6341E-03    -13.6167E-03     27.5647E-03    -14.0653E-03     45.6320E-03
            1610     10.6482E-03     43.8024E-03    -3.19385E+06    -58.3664E+06    -3.69983E+06     94.3357E+03    -13.7714E-03     27.9818E-03    -14.2104E-03     41.3263E-03    -13.7046E-03     27.7072E-03    -14.1396E-03     41.3171E-03
            1611     9.76040E-03     43.7669E-03    -4.03787E+06    -58.3394E+06     289.742E+03     36.1512E+03    -13.8993E-03     28.2000E-03    -14.3008E-03     36.9603E-03    -13.8398E-03     27.9183E-03    -14.2089E-03     36.9527E-03
            1612     8.87236E-03     43.7356E-03    -5.39993E+06    -55.1472E+06     1.62569E+06     241.164E+03    -14.0798E-03     28.4430E-03    -14.3632E-03     32.8838E-03    -14.0321E-03     28.1757E-03    -14.2673E-03     32.8808E-03
            1613     7.98482E-03     43.7076E-03    -6.99649E+06    -55.6074E+06     865.986E+03     523.948E+03    -14.2807E-03     28.6848E-03    -14.4041E-03     28.9160E-03    -14.2383E-03     28.4176E-03    -14.3089E-03     28.9180E-03
            1614     7.09752E-03     43.6836E-03    -8.48272E+06    -57.3584E+06     456.088E+03     941.708E+03    -14.3654E-03     28.7987E-03    -14.4333E-03     25.0639E-03    -14.3266E-03     28.5248E-03    -14.3356E-03     25.0722E-03
            1615     6.21012E-03     43.6622E-03    -10.1205E+06    -56.4124E+06    -1.19834E+06     1.23332E+06    -14.3730E-03     28.8193E-03    -14.4463E-03     21.3659E-03    -14.3408E-03     28.5544E-03    -14.3558E-03     21.3788E-03
            1616     5.32288E-03     43.6445E-03    -11.7865E+06    -56.7557E+06    -3.76139E+06     1.10814E+06    -14.4077E-03     28.8599E-03    -14.4522E-03     17.8700E-03    -14.3794E-03     28.5992E-03    -14.3716E-03     17.8819E-03
            1617     4.43571E-03     43.6294E-03    -13.3080E+06    -57.5809E+06    -6.35334E+06     1.03505E+06    -14.4325E-03     28.8843E-03    -14.4519E-03     14.5412E-03    -14.4065E-03     28.6252E-03    -14.3808E-03     14.5527E-03
            1618     3.54853E-03     43.6174E-03    -14.8180E+06    -59.4045E+06    -10.0846E+06     1.00269E+06    -14.4374E-03     28.8793E-03    -14.4420E-03     11.3356E-03    -14.4107E-03     28.6185E-03    -14.3848E-03     11.3470E-03
            1619     2.66133E-03     43.6081E-03    -15.7693E+06    -61.8987E+06    -13.5458E+06     601.224E+03    -14.4552E-03     28.8818E-03    -14.4266E-03     8.32445E-03    -14.4245E-03     28.6147E-03    -14.3817E-03     8.33107E-03
            1620     1.77439E-03     43.6017E-03    -16.2670E+06    -61.9202E+06    -15.0443E+06     407.811E+03    -14.4539E-03     28.8572E-03    -14.4033E-03     5.47106E-03    -14.4232E-03     28.5930E-03    -14.3651E-03     5.47557E-03
            1621     887.124E-06     43.5978E-03    -16.9556E+06    -62.3515E+06    -16.1435E+06     214.018E+03    -14.4143E-03     28.7730E-03    -14.3586E-03     2.84830E-03    -14.3835E-03     28.5123E-03    -14.3243E-03     2.85056E-03
            1622     16.8590E-03     43.3395E-03    -3.33052E+06     141.840E+06     22.7462E+06     148.789E+03    -31.0689E-03     45.0197E-03    -13.9508E-03     265.687E-03    -40.0084E-03     54.3849E-03    -14.0379E-03     271.659E-03
            1623     15.9787E-03     43.1656E-03    -3.61737E+06     73.9931E+06    -22.5947E+06     541.460E+03    -21.4794E-03     35.0960E-03    -13.6166E-03     141.143E-03    -22.7097E-03     36.6417E-03    -13.8316E-03     141.453E-03
            1624     15.0909E-03     43.0720E-03    -161.450E+03     22.0368E+06    -17.8577E+06     417.491E+03    -14.5148E-03     28.1610E-03    -13.6463E-03     79.6288E-03    -14.6739E-03     28.4496E-03    -13.7673E-03     79.6200E-03
            1625     14.2027E-03     43.0154E-03    -425.056E+03    -15.4874E+06    -12.6365E+06     444.382E+03    -12.7357E-03     26.5500E-03    -13.8144E-03     59.7218E-03    -12.7502E-03     26.5448E-03    -13.8545E-03     59.7046E-03
            1626     13.3128E-03     42.9629E-03    -2.57016E+06    -25.1909E+06    -7.76828E+06     773.497E+03    -13.1258E-03     27.1023E-03    -13.9765E-03     58.3110E-03    -13.1238E-03     27.0243E-03    -13.9751E-03     58.2989E-03
            1627     12.4244E-03     42.9105E-03    -4.02260E+06    -33.7031E+06    -6.46008E+06     1.41278E+06    -13.4471E-03     27.5518E-03    -14.1047E-03     53.4005E-03    -13.4284E-03     27.4179E-03    -14.0823E-03     53.4009E-03
            1628     11.5353E-03     42.8676E-03    -4.66020E+06    -49.8567E+06    -7.15576E+06     1.76058E+06    -13.6737E-03     27.8917E-03    -14.2179E-03     46.7237E-03    -13.6256E-03     27.6708E-03    -14.1746E-03     46.7328E-03
            1629     10.6474E-03     42.8273E-03    -4.79442E+06    -57.3491E+06    -5.12972E+06     1.26804E+06    -13.9732E-03     28.2880E-03    -14.3148E-03     42.0620E-03    -13.9137E-03     28.0228E-03    -14.2504E-03     42.0678E-03
            1630     9.75935E-03     42.7923E-03    -6.04676E+06    -58.5101E+06    -2.47069E+06     630.422E+03    -14.1711E-03     28.5608E-03    -14.3897E-03     37.4264E-03    -14.1174E-03     28.2852E-03    -14.3085E-03     37.4265E-03
            1631     8.87174E-03     42.7602E-03    -7.35848E+06    -55.7121E+06    -585.088E+03     1.23258E+06    -14.3002E-03     28.7412E-03    -14.4409E-03     33.1011E-03    -14.2583E-03     28.4771E-03    -14.3524E-03     33.1109E-03
            1632     7.98420E-03     42.7323E-03    -8.98147E+06    -55.1980E+06    -1.86641E+06     1.35460E+06    -14.4630E-03     28.9274E-03    -14.4644E-03     28.8867E-03    -14.4271E-03     28.6691E-03    -14.3807E-03     28.8994E-03
            1633     7.09696E-03     42.7075E-03    -10.1896E+06    -57.6652E+06    -2.49261E+06     930.781E+03    -14.5898E-03     29.0655E-03    -14.4757E-03     24.8600E-03    -14.5548E-03     28.7969E-03    -14.3898E-03     24.8681E-03
            1634     6.21002E-03     42.6867E-03    -10.8841E+06    -56.4298E+06    -3.12527E+06     1.25910E+06    -14.5969E-03     29.0637E-03    -14.4668E-03     21.1597E-03    -14.5658E-03     28.8027E-03    -14.3849E-03     21.1728E-03
            1635     5.32283E-03     42.6685E-03    -11.9688E+06    -56.2912E+06    -4.76181E+06     1.43250E+06    -14.5729E-03     29.0207E-03    -14.4478E-03     17.6562E-03    -14.5447E-03     28.7640E-03    -14.3727E-03     17.6721E-03
            1636     4.43583E-03     42.6536E-03    -13.5270E+06    -57.3782E+06    -7.21244E+06     1.35182E+06    -14.5308E-03     28.9530E-03    -14.4222E-03     14.3075E-03    -14.5050E-03     28.6965E-03    -14.3555E-03     14.3230E-03
            1637     3.54873E-03     42.6415E-03    -14.8174E+06    -58.6908E+06    -10.3551E+06     1.04676E+06    -14.4695E-03     28.8609E-03    -14.3914E-03     11.1394E-03    -14.4435E-03     28.6040E-03    -14.3366E-03     11.1514E-03
            1638     2.66166E-03     42.6324E-03    -15.7501E+06    -61.0967E+06    -13.5029E+06     449.599E+03    -14.4090E-03     28.7733E-03    -14.3643E-03     8.15369E-03    -14.3794E-03     28.5101E-03    -14.3204E-03     8.15830E-03
            1639     1.77432E-03     42.6259E-03    -16.2908E+06    -61.8974E+06    -15.4798E+06     33.8760E+03    -14.3688E-03     28.7128E-03    -14.3440E-03     5.37222E-03    -14.3376E-03     28.4494E-03    -14.3080E-03     5.37186E-03
            1640     887.337E-06     42.6222E-03    -16.7310E+06    -61.6651E+06    -16.2582E+06     305.245E+03    -14.3581E-03     28.6712E-03    -14.3131E-03     2.71637E-03    -14.3269E-03     28.4138E-03    -14.2807E-03     2.71979E-03
            1641     16.8627E-03     42.3536E-03    -2.12544E+06     143.150E+06     26.6328E+06     695.943E+03    -32.5940E-03     46.4718E-03    -13.8778E-03     262.482E-03    -41.5912E-03     55.8924E-03    -13.9491E-03     268.087E-03
            1642     15.9804E-03     42.1883E-03    -2.07721E+06     74.6312E+06    -19.0370E+06    -947.633E+03    -19.5970E-03     33.1301E-03    -13.5331E-03     133.168E-03    -20.7120E-03     34.5580E-03    -13.7335E-03     133.435E-03
            1643     15.0932E-03     42.0999E-03    -3.87872E+06     20.6429E+06    -20.6890E+06     817.134E+03    -12.0538E-03     25.7010E-03    -13.6472E-03     79.9639E-03    -12.2154E-03     25.9821E-03    -13.7749E-03     79.9710E-03
            1644     14.2004E-03     42.0442E-03    -5.17208E+06    -15.2796E+06    -16.4749E+06     2.52068E+06    -11.4448E-03     25.3744E-03    -13.9296E-03     64.3050E-03    -11.4789E-03     25.3837E-03    -13.9823E-03     64.3173E-03
            1645     13.3109E-03     41.9886E-03    -6.06964E+06    -25.8242E+06    -10.5160E+06     2.46101E+06    -13.0603E-03     27.2168E-03    -14.1565E-03     62.0512E-03    -13.0727E-03     27.1465E-03    -14.1628E-03     62.0604E-03
            1646     12.4213E-03     41.9372E-03    -6.74020E+06    -33.3933E+06    -7.76176E+06     2.29323E+06    -13.8443E-03     28.1394E-03    -14.2951E-03     55.3705E-03    -13.8383E-03     28.0134E-03    -14.2758E-03     55.3817E-03
            1647     11.5335E-03     41.8922E-03    -6.54101E+06    -49.5446E+06    -9.28753E+06     1.65118E+06    -14.1793E-03     28.5647E-03    -14.3855E-03     48.1347E-03    -14.1381E-03     28.3515E-03    -14.3506E-03     48.1420E-03
            1648     10.6456E-03     41.8528E-03    -6.47159E+06    -56.9410E+06    -7.15389E+06     1.66406E+06    -14.5352E-03     28.9893E-03    -14.4541E-03     42.8967E-03    -14.4820E-03     28.7316E-03    -14.3979E-03     42.9073E-03
            1649     9.75814E-03     41.8164E-03    -6.81234E+06    -58.1725E+06    -4.62748E+06     1.77683E+06    -14.7202E-03     29.2108E-03    -14.4906E-03     37.6897E-03    -14.6679E-03     28.9412E-03    -14.4195E-03     37.7042E-03
            1650     8.87103E-03     41.7850E-03    -7.90451E+06    -56.3856E+06    -2.88554E+06     1.81959E+06    -14.7776E-03     29.2799E-03    -14.5023E-03     33.0663E-03    -14.7343E-03     29.0167E-03    -14.4235E-03     33.0833E-03
            1651     7.98395E-03     41.7562E-03    -8.56045E+06    -54.3021E+06    -3.21714E+06     1.91077E+06    -14.7597E-03     29.2517E-03    -14.4921E-03     28.6804E-03    -14.7211E-03     28.9993E-03    -14.4170E-03     28.6999E-03
            1652     7.09702E-03     41.7318E-03    -9.65638E+06    -57.0066E+06    -4.79867E+06     1.36169E+06    -14.7647E-03     29.2390E-03    -14.4742E-03     24.5645E-03    -14.7247E-03     28.9762E-03    -14.4016E-03     24.5780E-03
            1653     6.20991E-03     41.7105E-03    -10.8878E+06    -56.8751E+06    -5.05378E+06     1.10266E+06    -14.7745E-03     29.2205E-03    -14.4460E-03     20.8390E-03    -14.7400E-03     28.9601E-03    -14.3730E-03     20.8499E-03
            1654     5.32321E-03     41.6927E-03    -12.0168E+06    -56.1906E+06    -5.46072E+06     1.65796E+06    -14.6923E-03     29.0977E-03    -14.4055E-03     17.3520E-03    -14.6635E-03     28.8427E-03    -14.3339E-03     17.3707E-03
            1655     4.43608E-03     41.6777E-03    -13.2349E+06    -56.5048E+06    -6.96357E+06     1.44631E+06    -14.5630E-03     28.9230E-03    -14.3600E-03     14.0481E-03    -14.5374E-03     28.6700E-03    -14.2937E-03     14.0647E-03
            1656     3.54907E-03     41.6658E-03    -14.3855E+06    -57.9871E+06    -9.71157E+06     954.217E+03    -14.4481E-03     28.7624E-03    -14.3144E-03     10.9524E-03    -14.4218E-03     28.5075E-03    -14.2580E-03     10.9631E-03
            1657     2.66182E-03     41.6568E-03    -15.6155E+06    -60.3142E+06    -12.5281E+06     532.566E+03    -14.3439E-03     28.6213E-03    -14.2773E-03     8.01983E-03    -14.3162E-03     28.3604E-03    -14.2299E-03     8.02554E-03
            1658     1.77470E-03     41.6505E-03    -16.2033E+06    -61.5435E+06    -15.5869E+06    -86.9712E+03    -14.2607E-03     28.5127E-03    -14.2520E-03     5.27558E-03    -14.2294E-03     28.2510E-03    -14.2172E-03     5.27364E-03
            1659     887.112E-06     41.6467E-03    -15.2217E+06    -61.9881E+06    -15.8428E+06    -363.237E+03    -14.2716E-03     28.5059E-03    -14.2343E-03     2.69714E-03    -14.2328E-03     28.2441E-03    -14.2016E-03     2.69182E-03
            1660     16.8683E-03     41.3686E-03     1.47052E+06     142.354E+06     27.6403E+06    -1.16258E+06    -31.4135E-03     45.1621E-03    -13.7486E-03     257.957E-03    -40.2333E-03     54.4127E-03    -13.8189E-03     263.264E-03
            1661     15.9840E-03     41.2157E-03     1.06670E+06     70.7153E+06    -19.7438E+06     2.93492E+06    -14.2212E-03     27.7882E-03    -13.5670E-03     132.125E-03    -15.1903E-03     29.0694E-03    -13.7698E-03     132.482E-03
            1662     15.0874E-03     41.1320E-03    -3.92646E+06     20.0689E+06    -22.0052E+06     6.62424E+06    -9.68080E-03     23.5917E-03    -13.9109E-03     86.1597E-03    -9.83414E-03     23.8662E-03    -14.0444E-03     86.2505E-03
            1663     14.1953E-03     41.0721E-03    -8.99187E+06    -14.2674E+06    -21.3671E+06     5.04826E+06    -11.9083E-03     26.1748E-03    -14.2666E-03     71.3210E-03    -11.9612E-03     26.2072E-03    -14.3397E-03     71.3637E-03
            1664     13.3049E-03     41.0147E-03    -9.52630E+06    -24.6536E+06    -15.3648E+06     2.58519E+06    -14.4227E-03     28.8870E-03    -14.4643E-03     64.9462E-03    -14.4498E-03     28.8373E-03    -14.4916E-03     64.9536E-03
            1665     12.4182E-03     40.9611E-03    -7.89228E+06    -33.3748E+06    -11.2841E+06     1.88997E+06    -14.9573E-03     29.5038E-03    -14.5464E-03     55.9862E-03    -14.9525E-03     29.3851E-03    -14.5430E-03     55.9905E-03
            1666     11.5305E-03     40.9177E-03    -7.70035E+06    -48.5872E+06    -12.4057E+06     1.99694E+06    -15.1953E-03     29.7722E-03    -14.5769E-03     48.4775E-03    -15.1576E-03     29.5706E-03    -14.5573E-03     48.4878E-03
            1667     10.6437E-03     40.8759E-03    -7.73854E+06    -57.4982E+06    -10.7439E+06     1.83431E+06    -15.4042E-03     29.9884E-03    -14.5842E-03     42.5781E-03    -15.3517E-03     29.7355E-03    -14.5433E-03     42.5898E-03
            1668     9.75729E-03     40.8409E-03    -8.27326E+06    -58.0763E+06    -6.89226E+06     2.61934E+06    -15.3714E-03     29.9415E-03    -14.5701E-03     37.2389E-03    -15.3235E-03     29.6781E-03    -14.5084E-03     37.2634E-03
            1669     8.87059E-03     40.8081E-03    -8.69595E+06    -55.5529E+06    -5.54178E+06     1.98994E+06    -15.2676E-03     29.7964E-03    -14.5288E-03     32.5973E-03    -15.2257E-03     29.5425E-03    -14.4633E-03     32.6159E-03
            1670     7.98412E-03     40.7805E-03    -9.19354E+06    -54.6551E+06    -5.64176E+06     1.96950E+06    -15.0897E-03     29.5692E-03    -14.4796E-03     28.2463E-03    -15.0503E-03     29.3196E-03    -14.4152E-03     28.2662E-03
            1671     7.09709E-03     40.7555E-03    -9.81325E+06    -55.5114E+06    -6.44945E+06     2.07812E+06    -14.9549E-03     29.3840E-03    -14.4291E-03     24.1944E-03    -14.9155E-03     29.1314E-03    -14.3666E-03     24.2169E-03
            1672     6.21052E-03     40.7346E-03    -10.6811E+06    -56.9372E+06    -6.32236E+06     1.39807E+06    -14.8412E-03     29.2222E-03    -14.3810E-03     20.4304E-03    -14.8038E-03     28.9631E-03    -14.3146E-03     20.4450E-03
            1673     5.32340E-03     40.7166E-03    -11.2140E+06    -55.9872E+06    -5.21523E+06     1.14290E+06    -14.6983E-03     29.0294E-03    -14.3311E-03     16.9957E-03    -14.6662E-03     28.7739E-03    -14.2598E-03     17.0077E-03
            1674     4.43660E-03     40.7020E-03    -11.3828E+06    -55.7183E+06    -6.04705E+06     1.00039E+06    -14.5308E-03     28.8060E-03    -14.2751E-03     13.7767E-03    -14.4984E-03     28.5529E-03    -14.2081E-03     13.7874E-03
            1675     3.54932E-03     40.6903E-03    -11.9265E+06    -57.6373E+06    -8.30757E+06     961.632E+03    -14.3676E-03     28.5942E-03    -14.2265E-03     10.7650E-03    -14.3317E-03     28.3354E-03    -14.1672E-03     10.7758E-03
            1676     2.66218E-03     40.6813E-03    -12.6901E+06    -59.3657E+06    -10.3284E+06     759.812E+03    -14.2639E-03     28.4554E-03    -14.1915E-03     7.92501E-03    -14.2261E-03     28.1918E-03    -14.1386E-03     7.93366E-03
            1677     1.77470E-03     40.6752E-03    -13.2267E+06    -60.5937E+06    -12.8118E+06    -186.113E+03    -14.2064E-03     28.3658E-03    -14.1594E-03     5.23183E-03    -14.1656E-03     28.1005E-03    -14.1164E-03     5.22859E-03
            1678     887.582E-06     40.6713E-03    -13.5851E+06    -63.3871E+06    -13.7632E+06    -1.17380E+06    -14.1850E-03     28.3031E-03    -14.1181E-03     2.71429E-03    -14.1389E-03     28.0290E-03    -14.0753E-03     2.69849E-03
            1679     16.8719E-03     40.3949E-03     6.58972E+06     132.800E+06     23.4584E+06    -486.134E+03    -22.9459E-03     36.9148E-03    -13.9689E-03     265.455E-03    -31.6420E-03     46.0382E-03    -14.0537E-03     271.438E-03
            1680     15.9714E-03     40.2486E-03    -1.93250E+06     60.2956E+06    -25.4145E+06     10.8463E+06    -12.1783E-03     26.3097E-03    -14.1313E-03     140.397E-03    -13.0519E-03     27.4634E-03    -14.3430E-03     140.860E-03
            1681     15.0775E-03     40.1633E-03    -8.31852E+06     24.2631E+06    -24.6723E+06     13.4173E+06    -11.5765E-03     26.1078E-03    -14.5314E-03     95.4375E-03    -11.7701E-03     26.4293E-03    -14.6778E-03     95.6123E-03
            1682     14.1855E-03     40.0981E-03    -8.36453E+06    -9.53485E+06    -21.6615E+06     6.12241E+06    -15.8344E-03     30.5963E-03    -14.7619E-03     75.7838E-03    -15.9045E-03     30.6654E-03    -14.8442E-03     75.8280E-03
            1683     13.3014E-03     40.0359E-03    -6.56770E+06    -23.1738E+06    -14.9573E+06     2.99155E+06    -16.8368E-03     31.6290E-03    -14.7922E-03     63.3286E-03    -16.8538E-03     31.5838E-03    -14.8239E-03     63.3355E-03
            1684     12.4144E-03     39.9863E-03    -8.99384E+06    -32.8867E+06    -13.8828E+06     3.53476E+06    -16.3206E-03     31.0745E-03    -14.7539E-03     54.5493E-03    -16.3195E-03     30.9650E-03    -14.7626E-03     54.5721E-03
            1685     11.5287E-03     39.9390E-03    -10.5212E+06    -48.1195E+06    -15.2590E+06     2.48463E+06    -16.3414E-03     31.0442E-03    -14.7028E-03     46.8641E-03    -16.3154E-03     30.8543E-03    -14.6941E-03     46.8782E-03
            1686     10.6433E-03     39.9001E-03    -11.1522E+06     -57.173E+06    -14.0521E+06     2.51675E+06    -16.0411E-03     30.6840E-03    -14.6430E-03     41.2018E-03    -16.0018E-03     30.4430E-03    -14.6141E-03     41.2209E-03
            1687     9.75680E-03     39.8631E-03    -10.6027E+06    -57.8761E+06    -10.0345E+06     1.60685E+06    -15.8305E-03     30.4127E-03    -14.5822E-03     36.3282E-03    -15.7904E-03     30.1586E-03    -14.5331E-03     36.3388E-03
            1688     8.87090E-03     39.8321E-03    -9.72073E+06    -55.2035E+06    -7.91920E+06     2.05131E+06    -15.5862E-03     30.0905E-03    -14.5042E-03     31.7151E-03    -15.5468E-03     29.8435E-03    -14.4497E-03     31.7339E-03
            1689     7.98416E-03     39.8036E-03    -9.92188E+06    -54.4818E+06    -6.68572E+06     1.99141E+06    -15.3200E-03     29.7479E-03    -14.4280E-03     27.5770E-03    -15.2831E-03     29.5018E-03    -14.3680E-03     27.5968E-03
            1690     7.09800E-03     39.7796E-03    -10.1198E+06    -55.2211E+06    -5.58028E+06     1.90440E+06    -15.0669E-03     29.4247E-03    -14.3578E-03     23.6845E-03    -15.0308E-03     29.1728E-03    -14.2910E-03     23.7045E-03
            1691     6.21093E-03     39.7584E-03    -10.0973E+06    -55.2790E+06    -6.67396E+06     1.28288E+06    -14.8179E-03     29.1007E-03    -14.2829E-03     20.0843E-03    -14.7794E-03     28.8496E-03    -14.2215E-03     20.0973E-03
            1692     5.32423E-03     39.7409E-03    -10.1754E+06    -56.1717E+06    -6.52290E+06     490.869E+03    -14.6074E-03     28.8322E-03    -14.2248E-03     16.7061E-03    -14.5679E-03     28.5761E-03    -14.1612E-03     16.7096E-03
            1693     4.43688E-03     39.7263E-03    -10.7950E+06    -55.1808E+06    -6.79508E+06     648.190E+03    -14.4091E-03     28.5828E-03    -14.1737E-03     13.5446E-03    -14.3735E-03     28.3326E-03    -14.1120E-03     13.5508E-03
            1694     3.54980E-03     39.7149E-03    -11.2676E+06    -57.6093E+06    -8.03412E+06     479.694E+03    -14.2577E-03     28.3939E-03    -14.1362E-03     10.6216E-03    -14.2189E-03     28.1339E-03    -14.0765E-03     10.6262E-03
            1695     2.66223E-03     39.7061E-03    -11.0810E+06    -58.6307E+06    -9.36775E+06     370.705E+03    -14.1583E-03     28.2677E-03    -14.1094E-03     7.87601E-03    -14.1149E-03     28.0041E-03    -14.0552E-03     7.87966E-03
            1696     1.77502E-03     39.6998E-03    -11.2248E+06    -59.7460E+06    -11.3234E+06     71.0897E+03    -14.1148E-03     28.2051E-03    -14.0903E-03     5.21745E-03    -14.0674E-03     27.9390E-03    -14.0440E-03     5.21759E-03
            1697     887.344E-06     39.6963E-03    -11.4005E+06    -64.2088E+06    -12.2217E+06    -554.478E+03    -14.1508E-03     28.1869E-03    -14.0360E-03     2.80616E-03    -14.0947E-03     27.9035E-03    -13.9875E-03     2.79836E-03
            1698     16.8350E-03     39.4144E-03     14.8256E+06     129.027E+06     14.2822E+06     12.1296E+06    -17.5120E-03     31.9229E-03    -14.4109E-03     265.061E-03    -26.1291E-03     41.0069E-03    -14.5481E-03     271.202E-03
            1699     15.9532E-03     39.2766E-03    -14.4717E+06     54.6024E+06    -32.8758E+06     11.1750E+06    -10.6882E-03     25.5390E-03    -14.8508E-03     133.346E-03    -11.5527E-03     26.6395E-03    -15.0734E-03     133.858E-03
            1700     15.0608E-03     39.1918E-03    -16.1162E+06     33.2726E+06    -26.1332E+06     8.42703E+06    -17.2703E-03     32.4242E-03    -15.1539E-03     98.4462E-03    -17.5685E-03     32.8595E-03    -15.3095E-03     98.5306E-03
            1701     14.1814E-03     39.1112E-03    -11.7367E+06    -2.62324E+06    -23.0621E+06     4.03770E+06    -20.7656E-03     35.8521E-03    -15.0865E-03     69.3644E-03    -20.8729E-03     35.9754E-03    -15.1810E-03     69.3591E-03
            1702     13.2988E-03     39.0612E-03    -12.1403E+06    -23.9707E+06    -18.1208E+06     4.66797E+06    -18.1998E-03     33.1245E-03    -14.9248E-03     57.5913E-03    -18.2396E-03     33.0888E-03    -14.9630E-03     57.6152E-03
            1703     12.4138E-03     39.0056E-03    -11.7956E+06    -31.6638E+06    -14.8829E+06     3.98149E+06    -17.3444E-03     32.1497E-03    -14.8053E-03     51.7192E-03    -17.3598E-03     32.0540E-03    -14.8167E-03     51.7441E-03
            1704     11.5295E-03     38.9625E-03    -11.1781E+06    -47.0819E+06    -14.7035E+06     3.68692E+06    -16.7668E-03     31.4692E-03    -14.7024E-03     44.3307E-03    -16.7470E-03     31.2852E-03    -14.6914E-03     44.3588E-03
            1705     10.6431E-03     38.9219E-03    -10.8330E+06    -55.7227E+06    -13.1304E+06     1.79415E+06    -16.2956E-03     30.9055E-03    -14.6099E-03     39.7403E-03    -16.2586E-03     30.6703E-03    -14.5790E-03     39.7491E-03
            1706     9.75777E-03     38.8866E-03    -9.93317E+06    -57.3859E+06    -9.99836E+06     1.12200E+06    -15.9901E-03     30.5113E-03    -14.5212E-03     35.0935E-03    -15.9476E-03     30.2588E-03    -14.4736E-03     35.0972E-03
            1707     8.87130E-03     38.8548E-03    -9.98156E+06    -55.9317E+06    -7.31446E+06     1.34554E+06    -15.6538E-03     30.0840E-03    -14.4302E-03     30.7702E-03    -15.6156E-03     29.8330E-03    -14.3712E-03     30.7795E-03
            1708     7.98543E-03     38.8275E-03    -9.58572E+06    -53.8537E+06    -5.64173E+06     1.71148E+06    -15.3402E-03     29.6784E-03    -14.3382E-03     26.9003E-03    -15.3042E-03     29.4335E-03    -14.2744E-03     26.9162E-03
            1709     7.09841E-03     38.8032E-03    -9.37020E+06    -54.6563E+06    -4.92913E+06     991.356E+03    -15.0165E-03     29.2715E-03    -14.2550E-03     23.1967E-03    -14.9784E-03     29.0205E-03    -14.1868E-03     23.2048E-03
            1710     6.21188E-03     38.7828E-03    -9.05810E+06    -54.4741E+06    -6.07709E+06     711.909E+03    -14.7134E-03     28.8886E-03    -14.1751E-03     19.7340E-03    -14.6719E-03     28.6391E-03    -14.1134E-03     19.7396E-03
            1711     5.32452E-03     38.7652E-03    -9.34406E+06    -55.6062E+06    -7.24837E+06     542.493E+03    -14.4508E-03     28.5661E-03    -14.1154E-03     16.4836E-03    -14.4069E-03     28.3128E-03    -14.0575E-03     16.4878E-03
            1712     4.43751E-03     38.7511E-03    -9.59889E+06    -55.5118E+06    -7.35525E+06     353.148E+03    -14.2541E-03     28.3315E-03    -14.0774E-03     13.4116E-03    -14.2112E-03     28.0788E-03    -14.0197E-03     13.4141E-03
            1713     3.54987E-03     38.7397E-03    -9.97669E+06    -56.8202E+06    -7.68927E+06     225.679E+03    -14.1389E-03     28.1939E-03    -14.0550E-03     10.5603E-03    -14.0953E-03     27.9355E-03    -13.9966E-03     10.5616E-03
            1714     2.66267E-03     38.7310E-03    -10.7017E+06    -58.9774E+06    -9.28436E+06    -53.2373E+03    -14.0627E-03     28.1026E-03    -14.0399E-03     7.85120E-03    -14.0170E-03     27.8366E-03    -13.9853E-03     7.84946E-03
            1715     1.77487E-03     38.7249E-03    -10.3778E+06    -58.9585E+06    -11.3294E+06    -149.068E+03    -14.0177E-03     28.0519E-03    -14.0342E-03     5.22514E-03    -13.9672E-03     27.7886E-03    -13.9903E-03     5.22252E-03
            1716     887.565E-06     38.7211E-03    -8.58925E+06    -64.8073E+06    -9.34287E+06    -719.879E+03    -14.0854E-03     28.1250E-03    -14.0396E-03     2.80670E-03    -14.0184E-03     27.8305E-03    -13.9799E-03     2.79698E-03
            1717     16.8676E-03     38.4396E-03    -2.45579E+06     121.981E+06     14.3383E+06     11.2519E+06    -17.9889E-03     32.9048E-03    -14.9160E-03     255.731E-03    -26.1744E-03     41.4744E-03    -15.0176E-03     261.398E-03
            1718     15.9498E-03     38.3302E-03    -11.0404E+06     70.9074E+06    -20.7868E+06     14.8262E+06    -13.3119E-03     28.5768E-03    -15.2650E-03     143.636E-03    -14.4662E-03     30.0056E-03    -15.4557E-03     144.368E-03
            1719     15.0602E-03     38.1915E-03    -8.78387E+06     41.0985E+06    -22.3818E+06     8.25087E+06    -24.3323E-03     39.6191E-03    -15.2868E-03     93.2112E-03    -24.6600E-03     40.1275E-03    -15.4455E-03     93.2381E-03
            1720     14.1863E-03     38.1345E-03    -12.5093E+06     1.08245E+06    -19.4609E+06     5.51675E+06    -20.8844E-03     35.8971E-03    -15.0127E-03     57.5111E-03    -20.9999E-03     36.0285E-03    -15.0934E-03     57.5219E-03
            1721     13.3001E-03     38.0795E-03    -13.9036E+06    -24.7001E+06    -17.0111E+06     3.11480E+06    -18.1491E-03     32.9690E-03    -14.8200E-03     53.3187E-03    -18.1990E-03     32.9312E-03    -14.8490E-03     53.3210E-03
            1722     12.4168E-03     38.0281E-03    -11.4109E+06    -30.5066E+06    -12.8570E+06     3.27396E+06    -17.2311E-03     31.9204E-03    -14.6893E-03     48.9822E-03    -17.2495E-03     31.8273E-03    -14.6928E-03     48.9971E-03
            1723     11.5301E-03     37.9842E-03    -10.2575E+06    -45.9577E+06    -12.7386E+06     2.32308E+06    -16.5853E-03     31.1680E-03    -14.5827E-03     42.6108E-03    -16.5653E-03     30.9854E-03    -14.5649E-03     42.6211E-03
            1724     10.6453E-03     37.9449E-03    -8.84779E+06    -54.1585E+06    -9.94188E+06     1.86346E+06    -16.2245E-03     30.7157E-03    -14.4912E-03     38.3843E-03    -16.1846E-03     30.4809E-03    -14.4495E-03     38.3936E-03
            1725     9.75882E-03     37.9093E-03    -9.45344E+06    -56.6117E+06    -7.84368E+06     956.915E+03    -15.8067E-03     30.2053E-03    -14.3986E-03     34.1388E-03    -15.7661E-03     29.9529E-03    -14.3420E-03     34.1403E-03
            1726     8.87294E-03     37.8785E-03    -9.13039E+06    -56.6654E+06    -5.75457E+06     752.873E+03    -15.4682E-03     29.7783E-03    -14.3101E-03     30.1226E-03    -15.4269E-03     29.5202E-03    -14.2435E-03     30.1241E-03
            1727     7.98595E-03     37.8509E-03    -8.84455E+06    -53.0669E+06    -4.67121E+06     564.808E+03    -15.1484E-03     29.3677E-03    -14.2193E-03     26.4346E-03    -15.1112E-03     29.1242E-03    -14.1528E-03     26.4358E-03
            1728     7.09964E-03     37.8274E-03    -8.27027E+06    -54.2164E+06    -4.18334E+06     306.975E+03    -14.8616E-03     29.0026E-03    -14.1410E-03     22.8288E-03    -14.8197E-03     28.7510E-03    -14.0713E-03     22.8281E-03
            1729     6.21234E-03     37.8071E-03    -8.57758E+06    -54.4301E+06    -4.64825E+06     237.814E+03    -14.5421E-03     28.6147E-03    -14.0726E-03     19.4272E-03    -14.5002E-03     28.3627E-03    -14.0045E-03     19.4267E-03
            1730     5.32533E-03     37.7901E-03    -8.32312E+06    -55.0330E+06    -5.25534E+06     57.8818E+03    -14.2550E-03     28.2816E-03    -14.0266E-03     16.2856E-03    -14.2097E-03     28.0266E-03    -13.9610E-03     16.2836E-03
            1731     4.43761E-03     37.7759E-03    -8.04684E+06    -55.7600E+06    -6.87613E+06     74.3420E+03    -14.0988E-03     28.0968E-03    -13.9980E-03     13.3649E-03    -14.0485E-03     27.8399E-03    -13.9398E-03     13.3639E-03
            1732     3.55034E-03     37.7647E-03    -8.07361E+06    -56.6402E+06    -8.14585E+06     192.895E+03    -14.0422E-03     28.0252E-03    -13.9830E-03     10.5398E-03    -13.9887E-03     27.7656E-03    -13.9299E-03     10.5409E-03
            1733     2.66250E-03     37.7560E-03    -7.86844E+06    -58.6636E+06    -8.30337E+06     46.9522E+03    -14.0071E-03     27.9869E-03    -13.9797E-03     7.79777E-03    -13.9491E-03     27.7169E-03    -13.9248E-03     7.79737E-03
            1734     1.77523E-03     37.7500E-03    -7.43639E+06    -58.5191E+06    -8.51669E+06    -377.446E+03    -13.9892E-03     27.9664E-03    -13.9772E-03     5.20352E-03    -13.9286E-03     27.6968E-03    -13.9241E-03     5.19805E-03
            1735     887.420E-06     37.7462E-03    -7.44966E+06    -65.9068E+06    -8.58326E+06    -833.706E+03    -14.0110E-03     27.9889E-03    -13.9779E-03     2.78695E-03    -13.9376E-03     27.6863E-03    -13.9144E-03     2.77602E-03
            1736     16.8275E-03     37.5309E-03    -19.3309E+06     112.744E+06     579.153E+03     3.25132E+06    -20.0118E-03     35.3432E-03    -15.3314E-03     241.591E-03    -27.1666E-03     42.8295E-03    -15.4639E-03     247.695E-03
            1737     15.9308E-03     37.3161E-03    -3.75721E+06     76.8923E+06    -6.46323E+06     17.0636E+06    -26.0198E-03     41.3279E-03    -15.3081E-03     154.911E-03    -27.5516E-03     43.1405E-03    -15.4465E-03     155.526E-03
            1738     15.0799E-03     37.2134E-03    -3.37510E+06     43.1396E+06    -7.20904E+06     13.4917E+06    -25.0112E-03     39.9768E-03    -14.9655E-03     78.6702E-03    -25.3190E-03     40.4458E-03    -15.0592E-03     78.7527E-03
            1739     14.1868E-03     37.1527E-03    -1.32623E+06     3.59446E+06    -8.96324E+06     9.86873E+06    -17.6901E-03     32.3827E-03    -14.6926E-03     54.6197E-03    -17.7552E-03     32.4815E-03    -14.7407E-03     54.7032E-03
            1740     13.3057E-03     37.1014E-03    -4.32369E+06    -21.4217E+06    -7.71064E+06     6.11604E+06    -17.3580E-03     31.9572E-03    -14.5992E-03     51.3399E-03    -17.3772E-03     31.9073E-03    -14.6004E-03     51.3825E-03
            1741     12.4182E-03     37.0506E-03    -9.04376E+06    -29.2720E+06    -9.80312E+06     3.07202E+06    -16.5212E-03     31.0060E-03    -14.4848E-03     47.9279E-03    -16.5328E-03     30.9100E-03    -14.4783E-03     47.9419E-03
            1742     11.5335E-03     37.0067E-03    -9.19691E+06    -45.0508E+06    -11.7956E+06     2.17595E+06    -16.1703E-03     30.5653E-03    -14.3950E-03     41.9133E-03    -16.1474E-03     30.3840E-03    -14.3753E-03     41.9223E-03
            1743     10.6469E-03     36.9680E-03    -9.93715E+06    -53.0706E+06    -9.96927E+06     1.39517E+06    -15.8340E-03     30.1520E-03    -14.3180E-03     37.9385E-03    -15.8007E-03     29.9240E-03    -14.2765E-03     37.9424E-03
            1744     9.76083E-03     36.9329E-03    -8.81059E+06    -55.6891E+06    -6.87594E+06     511.547E+03    -15.5003E-03     29.7433E-03    -14.2430E-03     33.8043E-03    -15.4589E-03     29.4929E-03    -14.1839E-03     33.8005E-03
            1745     8.87387E-03     36.9022E-03    -8.43558E+06    -56.5094E+06    -4.84467E+06    -175.894E+03    -15.1841E-03     29.3527E-03    -14.1686E-03     29.8069E-03    -15.1407E-03     29.0928E-03    -14.0987E-03     29.7969E-03
            1746     7.98747E-03     36.8751E-03    -7.91974E+06    -52.9028E+06    -2.88439E+06    -233.387E+03    -14.8732E-03     28.9696E-03    -14.0965E-03     26.0970E-03    -14.8341E-03     28.7230E-03    -14.0227E-03     26.0882E-03
            1747     7.10006E-03     36.8517E-03     -8.4184E+06    -54.1151E+06    -2.97949E+06    -68.5879E+03    -14.5836E-03     28.6184E-03    -14.0348E-03     22.5951E-03    -14.5443E-03     28.3657E-03    -13.9590E-03     22.5898E-03
            1748     6.21320E-03     36.8318E-03    -8.50284E+06    -54.2376E+06    -3.17254E+06    -364.461E+03    -14.3304E-03     28.3159E-03    -13.9855E-03     19.2679E-03    -14.2905E-03     28.0625E-03    -13.9104E-03     19.2598E-03
            1749     5.32552E-03     36.8151E-03    -9.11948E+06    -55.1261E+06    -5.51224E+06    -411.938E+03    -14.1142E-03     28.0595E-03    -13.9453E-03     16.1903E-03    -14.0723E-03     27.8056E-03    -13.8797E-03     16.1825E-03
            1750     4.43813E-03     36.8012E-03    -9.54629E+06    -56.0728E+06    -7.36963E+06    -149.446E+03    -13.9972E-03     27.9205E-03    -13.9234E-03     13.3009E-03    -13.9531E-03     27.6649E-03    -13.8651E-03     13.2971E-03
            1751     3.55027E-03     36.7898E-03    -9.39578E+06    -56.2579E+06    -8.80746E+06    -125.835E+03    -13.9580E-03     27.8670E-03    -13.9090E-03     10.4340E-03    -13.9107E-03     27.6122E-03    -13.8578E-03     10.4311E-03
            1752     2.66299E-03     36.7813E-03    -8.57343E+06    -58.3860E+06    -9.53314E+06    -725.942E+03    -13.9594E-03     27.8570E-03    -13.8976E-03     7.70720E-03    -13.9036E-03     27.5912E-03    -13.8481E-03     7.69693E-03
            1753     1.77511E-03     36.7750E-03    -7.46969E+06    -59.3067E+06    -8.93191E+06    -126.853E+03    -13.9420E-03     27.8253E-03    -13.8833E-03     5.10465E-03    -13.8798E-03     27.5524E-03    -13.8311E-03     5.10265E-03
            1754     887.805E-06     36.7714E-03    -6.40285E+06    -65.7620E+06    -7.77157E+06     509.264E+03    -13.9349E-03     27.7869E-03    -13.8520E-03     2.70194E-03    -13.8573E-03     27.4825E-03    -13.7862E-03     2.70788E-03
            1755     16.8285E-03     36.5594E-03    -8.77984E+06     103.269E+06     3.53744E+06     1.87019E+06    -29.7267E-03     44.9689E-03    -15.2421E-03     233.703E-03    -36.9076E-03     52.4655E-03    -15.3614E-03     240.078E-03
            1756     15.9775E-03     36.3154E-03     17.9409E+06     77.2629E+06     25.6229E+06     15.8205E+06    -31.2748E-03     46.1531E-03    -14.8784E-03     145.024E-03    -32.7342E-03     47.8772E-03    -14.8883E-03     145.435E-03
            1757     15.0771E-03     36.2400E-03     9.56043E+06     46.7822E+06     7.79728E+06     18.3036E+06    -18.0200E-03     32.4840E-03    -14.4640E-03     73.0538E-03    -18.2370E-03     32.8778E-03    -14.5068E-03     73.2463E-03
            1758     14.1965E-03     36.1734E-03     4.85832E+06     8.50177E+06    -4.05646E+06     13.4406E+06    -16.2791E-03     30.6431E-03    -14.3640E-03     55.7350E-03    -16.3228E-03     30.7460E-03    -14.4037E-03     55.8711E-03
            1759     13.3069E-03     36.1252E-03     3.08337E+06    -15.2060E+06    -2.01946E+06     10.6518E+06    -15.9449E-03     30.2906E-03    -14.3456E-03     51.4793E-03    -15.9412E-03     30.2496E-03    -14.3382E-03     51.5852E-03
            1760     12.4225E-03     36.0727E-03     1.35490E+06    -27.7574E+06    -2.84423E+06     6.87429E+06    -16.0562E-03     30.3460E-03    -14.2898E-03     47.8929E-03    -16.0273E-03     30.2316E-03    -14.2658E-03     47.9573E-03
            1761     11.5350E-03     36.0310E-03    -3.32201E+06    -41.9204E+06    -7.78390E+06     4.97794E+06    -15.6209E-03     29.8357E-03    -14.2148E-03     42.0627E-03    -15.5782E-03     29.6550E-03    -14.1882E-03     42.1094E-03
            1762     10.6488E-03     35.9911E-03    -4.98421E+06    -51.6373E+06    -7.43421E+06     2.13543E+06    -15.4745E-03     29.6327E-03    -14.1581E-03     37.9639E-03    -15.4218E-03     29.4005E-03    -14.1132E-03     37.9783E-03
            1763     9.76197E-03     35.9571E-03    -6.79901E+06    -54.4880E+06    -5.10218E+06     755.423E+03    -15.2340E-03     29.3324E-03    -14.0985E-03     33.6616E-03    -15.1866E-03     29.0823E-03    -14.0351E-03     33.6615E-03
            1764     8.87545E-03     35.9262E-03    -7.35381E+06    -55.2749E+06    -3.60779E+06    -806.184E+03    -14.9274E-03     28.9615E-03    -14.0341E-03     29.6641E-03    -14.8820E-03     28.7043E-03    -13.9614E-03     29.6464E-03
            1765     7.98815E-03     35.8997E-03    -7.68533E+06    -54.1749E+06    -2.17934E+06    -714.187E+03    -14.5878E-03     28.5670E-03    -13.9792E-03     25.9207E-03    -14.5466E-03     28.3125E-03    -13.9004E-03     25.9061E-03
            1766     7.10114E-03     35.8765E-03    -7.61810E+06    -53.3873E+06    -2.53004E+06    -456.619E+03    -14.2960E-03     28.2292E-03    -13.9332E-03     22.4337E-03    -14.2543E-03     27.9783E-03    -13.8574E-03     22.4237E-03
            1767     6.21332E-03     35.8568E-03    -8.27630E+06    -54.4169E+06    -3.43024E+06    -682.756E+03    -14.1295E-03     28.0322E-03    -13.9027E-03     19.1264E-03    -14.0878E-03     27.7779E-03    -13.8290E-03     19.1145E-03
            1768     5.32601E-03     35.8403E-03    -8.65074E+06    -55.4416E+06    -4.66807E+06    -461.061E+03    -14.0889E-03     27.9610E-03    -13.8721E-03     16.0154E-03    -14.0455E-03     27.7036E-03    -13.8025E-03     16.0070E-03
            1769     4.43832E-03     35.8263E-03    -9.20169E+06    -56.4312E+06    -5.39021E+06    -343.244E+03    -13.9993E-03     27.8415E-03    -13.8422E-03     13.0569E-03    -13.9559E-03     27.5808E-03    -13.7740E-03     13.0506E-03
            1770     3.55093E-03     35.8152E-03    -9.48790E+06    -55.5016E+06    -6.76071E+06    -726.108E+03    -13.8932E-03     27.7049E-03    -13.8117E-03     10.2329E-03    -13.8504E-03     27.4510E-03    -13.7513E-03     10.2223E-03
            1771     2.66297E-03     35.8064E-03    -9.86879E+06    -58.7175E+06    -9.41169E+06    -944.235E+03    -13.8632E-03     27.6466E-03    -13.7834E-03     7.53622E-03    -13.8135E-03     27.3808E-03    -13.7310E-03     7.52320E-03
            1772     1.77566E-03     35.8004E-03    -9.45063E+06    -60.5962E+06    -11.2835E+06    -776.039E+03    -13.8253E-03     27.5764E-03    -13.7512E-03     4.96849E-03    -13.7676E-03     27.3034E-03    -13.7060E-03     4.95803E-03
            1773     887.613E-06     35.7968E-03    -7.52789E+06    -65.4491E+06    -8.43726E+06     47.5141E+03    -13.8337E-03     27.5232E-03    -13.6895E-03     2.59351E-03    -13.7607E-03     27.2232E-03    -13.6259E-03     2.59431E-03
            1774     16.8485E-03     35.5079E-03    -18.0117E+06     88.8426E+06     30.4453E+06    -4.19829E+06    -33.6360E-03     48.4454E-03    -14.8094E-03     253.255E-03    -42.0901E-03     57.0563E-03    -14.7599E-03     259.005E-03
            1775     15.9716E-03     35.3651E-03     3.23389E+06     56.7779E+06     24.2981E+06     10.6509E+06    -25.4539E-03     39.8603E-03    -14.4064E-03     142.021E-03    -26.8005E-03     41.3505E-03    -14.3720E-03     142.438E-03
            1776     15.0855E-03     35.2515E-03     15.8443E+06     54.2731E+06     21.2973E+06     22.5968E+06    -15.9931E-03     30.1810E-03    -14.1878E-03     79.9791E-03    -16.1889E-03     30.5645E-03    -14.1830E-03     80.2469E-03
            1777     14.1978E-03     35.2042E-03     13.1698E+06     16.8175E+06     2.56094E+06     17.8675E+06    -15.4652E-03     29.5956E-03    -14.1304E-03     55.7299E-03    -15.4861E-03     29.7156E-03    -14.1611E-03     55.9265E-03
            1778     13.3109E-03     35.1456E-03     10.6617E+06    -12.0511E+06    -1.73125E+06     12.2422E+06    -15.2559E-03     29.3827E-03    -14.1268E-03     53.6502E-03    -15.2169E-03     29.3439E-03    -14.1335E-03     53.7802E-03
            1779     12.4235E-03     35.0983E-03     8.31354E+06    -24.4295E+06     1.63625E+06     12.5359E+06    -15.5370E-03     29.6626E-03    -14.1256E-03     48.1293E-03    -15.4833E-03     29.5470E-03    -14.0940E-03     48.2685E-03
            1780     11.5371E-03     35.0537E-03     5.40182E+06    -37.7891E+06    -1.67320E+06     9.05067E+06    -15.4121E-03     29.4841E-03    -14.0720E-03     42.2363E-03    -15.3399E-03     29.3019E-03    -14.0334E-03     42.3364E-03
            1781     10.6503E-03     35.0160E-03     1.50101E+06    -47.7615E+06    -2.34931E+06     5.89811E+06    -15.1731E-03     29.1977E-03    -14.0246E-03     37.8997E-03    -15.1005E-03     28.9677E-03    -13.9693E-03     37.9634E-03
            1782     9.76339E-03     34.9807E-03    -1.05385E+06    -52.1604E+06    -1.18070E+06     2.35721E+06    -14.9679E-03     28.9448E-03    -13.9769E-03     33.6660E-03    -14.9006E-03     28.6920E-03    -13.9057E-03     33.6872E-03
            1783     8.87632E-03     34.9512E-03    -3.19927E+06    -53.6483E+06    -1.63524E+06     538.183E+03    -14.7148E-03     28.6337E-03    -13.9188E-03     29.5384E-03    -14.6537E-03     28.3755E-03    -13.8446E-03     29.5385E-03
            1784     7.98917E-03     34.9244E-03    -4.36393E+06    -54.4044E+06    -1.80040E+06    -1.02868E+06    -14.4065E-03     28.2768E-03    -13.8703E-03     25.7551E-03    -14.3488E-03     28.0156E-03    -13.7941E-03     25.7368E-03
            1785     7.10150E-03     34.9018E-03    -4.56440E+06    -53.6973E+06    -965.191E+03    -932.005E+03    -14.1776E-03     28.0152E-03    -13.8375E-03     22.1838E-03    -14.1224E-03     27.7559E-03    -13.7579E-03     22.1679E-03
            1786     6.21407E-03     34.8821E-03    -4.56410E+06    -54.4467E+06     38.2248E+03    -646.435E+03    -14.0830E-03     27.8969E-03    -13.8139E-03     18.8265E-03    -14.0276E-03     27.6320E-03    -13.7282E-03     18.8151E-03
            1787     5.32636E-03     34.8653E-03    -5.20610E+06    -55.7870E+06    -106.440E+03    -700.845E+03    -14.0518E-03     27.8330E-03    -13.7812E-03     15.6760E-03    -13.9972E-03     27.5622E-03    -13.6933E-03     15.6646E-03
            1788     4.43908E-03     34.8517E-03    -5.46203E+06    -56.1351E+06    -561.834E+03    -970.264E+03    -13.9882E-03     27.7236E-03    -13.7355E-03     12.7225E-03    -13.9334E-03     27.4519E-03    -13.6490E-03     12.7081E-03
            1789     3.55123E-03     34.8406E-03    -6.20200E+06    -56.0498E+06    -2.07244E+06    -792.118E+03    -13.8475E-03     27.5316E-03    -13.6841E-03     9.96607E-03    -13.7942E-03     27.2633E-03    -13.6042E-03     9.95451E-03
            1790     2.66378E-03     34.8320E-03    -7.34417E+06    -58.7716E+06    -5.36365E+06    -353.741E+03    -13.7215E-03     27.3608E-03    -13.6392E-03     7.33142E-03    -13.6649E-03     27.0850E-03    -13.5702E-03     7.32605E-03
            1791     1.77560E-03     34.8261E-03    -8.78344E+06    -61.0300E+06    -8.01735E+06    -582.976E+03    -13.6514E-03     27.2588E-03    -13.6075E-03     4.80879E-03    -13.5943E-03     26.9777E-03    -13.5463E-03     4.80081E-03
            1792     888.068E-06     34.8225E-03    -10.0027E+06    -66.4280E+06    -9.88227E+06    -352.610E+03    -13.6589E-03     27.1998E-03    -13.5408E-03     2.52705E-03    -13.5942E-03     26.9005E-03    -13.4794E-03     2.52280E-03
            1793     16.8614E-03     34.5489E-03     1.39594E+06     89.7617E+06     32.8612E+06     2.32564E+06    -31.0192E-03     45.3435E-03    -14.3243E-03     265.287E-03    -39.8009E-03     54.3547E-03    -14.2922E-03     270.818E-03
            1794     15.9676E-03     34.3703E-03    -14.3821E+06     21.3799E+06    -18.1043E+06    -3.20888E+06    -20.7961E-03     34.8147E-03    -14.0186E-03     134.887E-03    -22.0282E-03     36.1240E-03    -14.1192E-03     135.137E-03
            1795     15.0886E-03     34.2844E-03    -922.137E+03     47.6944E+06     13.5436E+06     10.2510E+06    -16.5834E-03     30.5908E-03    -14.0074E-03     77.1284E-03    -16.8365E-03     30.9707E-03    -14.0075E-03     77.2335E-03
            1796     14.1989E-03     34.2232E-03     8.04544E+06     23.1959E+06     1.04901E+06     18.7527E+06    -14.5415E-03     28.4804E-03    -13.9389E-03     56.3053E-03    -14.5923E-03     28.6391E-03    -13.9790E-03     56.5170E-03
            1797     13.3128E-03     34.1740E-03     7.43468E+06    -8.70423E+06    -4.46880E+06     16.7220E+06    -15.0714E-03     29.0255E-03    -13.9541E-03     53.7547E-03    -15.0488E-03     29.0114E-03    -13.9746E-03     53.9433E-03
            1798     12.4250E-03     34.1200E-03     4.96481E+06    -22.1106E+06    -1.63143E+06     14.1210E+06    -15.0836E-03     29.0468E-03    -13.9632E-03     48.5672E-03    -15.0441E-03     28.9511E-03    -13.9465E-03     48.7285E-03
            1799     11.5387E-03     34.0793E-03     4.74777E+06    -32.1016E+06    -850.210E+03     12.2078E+06    -15.1453E-03     29.0820E-03    -13.9368E-03     42.0834E-03    -15.0854E-03     28.9276E-03    -13.9014E-03     42.2250E-03
            1800     10.6515E-03     34.0395E-03     4.75006E+06    -43.3046E+06    -36.1288E+03     7.73873E+06    -14.9600E-03     28.8617E-03    -13.9017E-03     38.0458E-03    -14.8805E-03     28.6455E-03    -13.8460E-03     38.1339E-03
            1801     9.76444E-03     34.0062E-03     4.20175E+06    -48.3917E+06     3.16875E+06     4.77421E+06    -14.7599E-03     28.6313E-03    -13.8714E-03     33.5156E-03    -14.6778E-03     28.3831E-03    -13.7914E-03     33.5686E-03
            1802     8.87709E-03     33.9753E-03     3.46632E+06    -51.3983E+06     3.18308E+06     1.70723E+06    -14.5641E-03     28.3879E-03    -13.8238E-03     29.2860E-03    -14.4797E-03     28.1241E-03    -13.7384E-03     29.3016E-03
            1803     7.98986E-03     33.9499E-03     2.43265E+06    -53.3333E+06     3.09837E+06     319.221E+03    -14.3930E-03     28.1693E-03    -13.7763E-03     25.3376E-03    -14.3098E-03     27.8964E-03    -13.6870E-03     25.3367E-03
            1804     7.10241E-03     33.9268E-03     717.270E+03    -54.0909E+06     3.79684E+06    -572.355E+03    -14.2308E-03     27.9640E-03    -13.7332E-03     21.7990E-03    -14.1554E-03     27.6881E-03    -13.6368E-03     21.7878E-03
            1805     6.21494E-03     33.9074E-03    -804.717E+03    -54.8571E+06     4.91872E+06    -300.137E+03    -14.0988E-03     27.7907E-03    -13.6919E-03     18.4306E-03    -14.0311E-03     27.5112E-03    -13.5866E-03     18.4238E-03
            1806     5.32747E-03     33.8908E-03    -1.76937E+06    -54.7236E+06     3.62447E+06    -985.741E+03    -13.9541E-03     27.5908E-03    -13.6368E-03     15.3469E-03    -13.8892E-03     27.3149E-03    -13.5367E-03     15.3319E-03
            1807     4.43954E-03     33.8771E-03    -2.41507E+06    -56.7605E+06     1.65987E+06    -1.49423E+06    -13.8574E-03     27.4375E-03    -13.5801E-03     12.4140E-03    -13.7897E-03     27.1550E-03    -13.4860E-03     12.3930E-03
            1808     3.55213E-03     33.8662E-03    -3.09788E+06    -57.1401E+06     433.397E+03    -634.915E+03    -13.7415E-03     27.2633E-03    -13.5218E-03     9.69183E-03    -13.6747E-03     26.9814E-03    -13.4323E-03     9.68234E-03
            1809     2.66396E-03     33.8580E-03    -4.20381E+06    -59.0006E+06    -1.42131E+06       9.929E+03    -13.5916E-03     27.0599E-03    -13.4684E-03     7.13006E-03    -13.5246E-03     26.7728E-03    -13.3838E-03     7.12933E-03
            1810     1.77628E-03     33.8520E-03    -5.13932E+06    -61.1184E+06    -3.79973E+06     381.682E+03    -13.4772E-03     26.9037E-03    -13.4265E-03     4.64081E-03    -13.4079E-03     26.6108E-03    -13.3494E-03     4.64537E-03
            1811     887.909E-06     33.8486E-03    -6.80295E+06    -66.4573E+06    -6.24623E+06     902.076E+03    -13.4233E-03     26.8248E-03    -13.4016E-03     2.35193E-03    -13.3476E-03     26.5157E-03    -13.3266E-03     2.36347E-03
            1812     16.8605E-03     33.5712E-03     5.33480E+06     95.3105E+06     10.7301E+06     4.46335E+06    -33.0572E-03     47.0272E-03    -13.9699E-03     264.908E-03    -41.8968E-03     56.1932E-03    -14.0622E-03     270.504E-03
            1813     15.9838E-03     33.3957E-03     1.90607E+06     18.9435E+06    -27.9560E+06    -3.87389E+06    -20.3451E-03     34.0086E-03    -13.6635E-03     133.852E-03    -21.3831E-03     35.2019E-03    -13.8335E-03     134.064E-03
            1814     15.0898E-03     33.3082E-03    -2.35251E+06     30.1035E+06    -5.15047E+06     2.32290E+06    -14.2640E-03     27.9906E-03    -13.7265E-03     75.4863E-03    -14.4569E-03     28.2967E-03    -13.7925E-03     75.4994E-03
            1815     14.2036E-03     33.2505E-03    -895.365E+03     18.6632E+06    -4.45734E+06     14.4247E+06    -13.9788E-03     27.7688E-03    -13.7900E-03     58.3938E-03    -14.0588E-03     27.9248E-03    -13.8380E-03     58.5516E-03
            1816     13.3143E-03     33.1972E-03     1.16448E+06    -4.03873E+06    -4.55140E+06     19.2982E+06    -14.7310E-03     28.5676E-03    -13.8366E-03     55.0178E-03    -14.7463E-03     28.5859E-03    -13.8552E-03     55.2403E-03
            1817     12.4278E-03     33.1461E-03     1.28454E+06    -16.6935E+06    -2.57194E+06     14.5223E+06    -14.9360E-03     28.7814E-03    -13.8454E-03     49.7391E-03    -14.9208E-03     28.7190E-03    -13.8360E-03     49.9064E-03
            1818     11.5395E-03     33.1030E-03     2.74332E+06    -28.6973E+06    -410.851E+03     10.7756E+06    -14.9186E-03     28.7513E-03    -13.8326E-03     42.6659E-03    -14.8739E-03     28.6156E-03    -13.7971E-03     42.7897E-03
            1819     10.6527E-03     33.0649E-03     3.91682E+06    -37.9604E+06     1.86871E+06     8.56764E+06    -14.9356E-03     28.7368E-03    -13.8011E-03     38.0119E-03    -14.8706E-03     28.5455E-03    -13.7424E-03     38.1111E-03
            1820     9.76547E-03     33.0304E-03     4.29333E+06    -44.6950E+06     5.35270E+06     4.45653E+06    -14.7033E-03     28.4696E-03    -13.7663E-03     33.2980E-03    -14.6290E-03     28.2364E-03    -13.6810E-03     33.3472E-03
            1821     8.87830E-03     33.0009E-03     4.50992E+06    -49.0852E+06     6.53725E+06     2.64418E+06    -14.5168E-03     28.2352E-03    -13.7184E-03     28.9400E-03    -14.4353E-03     27.9765E-03    -13.6211E-03     28.9678E-03
            1822     7.99079E-03     32.9745E-03     3.72049E+06    -52.0395E+06     5.93659E+06     1.16040E+06    -14.4106E-03     28.0677E-03    -13.6571E-03     24.9396E-03    -14.3269E-03     27.7952E-03    -13.5573E-03     24.9497E-03
            1823     7.10361E-03     32.9524E-03     2.82957E+06    -54.2297E+06     6.67176E+06     1.04224E+06    -14.2685E-03     27.8635E-03    -13.5950E-03     21.3972E-03    -14.1865E-03     27.5797E-03    -13.4872E-03     21.4068E-03
            1824     6.21605E-03     32.9327E-03     1.35802E+06    -53.8210E+06     6.31040E+06     142.359E+03    -14.0535E-03     27.5778E-03    -13.5244E-03     18.1345E-03    -13.9785E-03     27.2983E-03    -13.4167E-03     18.1335E-03
            1825     5.32833E-03     32.9166E-03     110.318E+03    -54.3033E+06     4.48639E+06    -667.422E+03    -13.8685E-03     27.3199E-03    -13.4514E-03     15.0307E-03    -13.7961E-03     27.0420E-03    -13.3503E-03     15.0199E-03
            1826     4.44072E-03     32.9028E-03    -1.51923E+06    -56.7793E+06     1.57280E+06    -962.332E+03    -13.6714E-03     27.0548E-03    -13.3834E-03     12.1081E-03    -13.5990E-03     26.7709E-03    -13.2910E-03     12.0940E-03
            1827     3.55245E-03     32.8923E-03    -2.61504E+06    -58.6769E+06    -96.6514E+03    -829.578E+03    -13.5444E-03     26.8703E-03    -13.3259E-03     9.41746E-03    -13.4722E-03     26.5808E-03    -13.2375E-03     9.40547E-03
            1828     2.66479E-03     32.8840E-03    -3.07790E+06    -59.4282E+06    -487.054E+03     135.250E+03    -13.4345E-03     26.7058E-03    -13.2713E-03     6.86784E-03    -13.3627E-03     26.4136E-03    -13.1831E-03     6.86868E-03
            1829     1.77641E-03     32.8785E-03    -4.35581E+06    -61.6836E+06    -2.95240E+06     1.00913E+06    -13.2907E-03     26.5079E-03    -13.2171E-03     4.48590E-03    -13.2180E-03     26.2098E-03    -13.1362E-03     4.49845E-03
            1830     888.467E-06     32.8749E-03    -4.68759E+06    -64.3657E+06    -4.98190E+06     1.60631E+06    -13.1798E-03     26.3929E-03    -13.2131E-03     2.29170E-03    -13.0979E-03     26.0893E-03    -13.1379E-03     2.31244E-03
            1831     16.8639E-03     32.5776E-03    -1.75190E+06     100.982E+06    -2.58681E+06     1.36246E+06    -34.2090E-03     48.0131E-03    -13.8041E-03     261.949E-03    -43.0826E-03     57.2466E-03    -13.9609E-03     267.207E-03
            1832     15.9799E-03     32.4239E-03     1.42755E+06     22.7249E+06    -37.9306E+06    -1.44500E+06    -19.5530E-03     33.0386E-03    -13.4856E-03     131.121E-03    -20.4785E-03     34.1601E-03    -13.7103E-03     131.351E-03
            1833     15.0939E-03     32.3358E-03     5.22674E+06     14.6048E+06    -16.5588E+06     5.98775E+06    -13.0226E-03     26.6357E-03    -13.6131E-03     80.1851E-03    -13.1318E-03     26.8633E-03    -13.7246E-03     80.2519E-03
            1834     14.2017E-03     32.2768E-03    -1.68906E+06     10.8080E+06    -9.67021E+06     17.5893E+06    -13.5458E-03     27.3159E-03    -13.7701E-03     63.4362E-03    -13.6120E-03     27.4425E-03    -13.8317E-03     63.6364E-03
            1835     13.3149E-03     32.2219E-03    -4.99552E+06     1.08555E+06    -7.44194E+06     17.4037E+06    -15.0727E-03     28.8995E-03    -13.8267E-03     58.1982E-03    -15.1229E-03     28.9573E-03    -13.8583E-03     58.3959E-03
            1836     12.4268E-03     32.1709E-03    -1.88201E+06    -9.25984E+06    -2.49390E+06     12.8588E+06    -15.3473E-03     29.1656E-03    -13.8183E-03     51.0757E-03    -15.3585E-03     29.1445E-03    -13.8146E-03     51.2215E-03
            1837     11.5407E-03     32.1277E-03    -276.349E+03    -26.4572E+06    -97.8873E+03     9.16075E+06    -15.2908E-03     29.0734E-03    -13.7826E-03     43.6022E-03    -15.2646E-03     28.9526E-03    -13.7443E-03     43.7054E-03
            1838     10.6536E-03     32.0892E-03     1.70005E+06    -33.5277E+06     3.08715E+06     6.72013E+06    -15.1151E-03     28.8387E-03    -13.7235E-03     38.0830E-03    -15.0691E-03     28.6707E-03    -13.6619E-03     38.1586E-03
            1839     9.76659E-03     32.0556E-03     2.73256E+06    -41.1436E+06     5.31493E+06     4.55167E+06    -14.8484E-03     28.5077E-03    -13.6593E-03     33.2336E-03    -14.7868E-03     28.2943E-03    -13.5770E-03     33.2842E-03
            1840     8.87934E-03     32.0257E-03     2.30736E+06    -47.4346E+06     5.50574E+06     2.22258E+06    -14.6431E-03     28.2277E-03    -13.5846E-03     28.6621E-03    -14.5734E-03     27.9818E-03    -13.4916E-03     28.6846E-03
            1841     7.99219E-03     32.0001E-03     2.39536E+06    -51.0898E+06     5.99440E+06     1.69137E+06    -14.4140E-03     27.9196E-03    -13.5056E-03     24.6260E-03    -14.3383E-03     27.6536E-03    -13.4050E-03     24.6431E-03
            1842     7.10468E-03     31.9775E-03     2.30550E+06    -53.4569E+06     6.59482E+06     629.706E+03    -14.2202E-03     27.6447E-03    -13.4245E-03     21.0096E-03    -14.1417E-03     27.3655E-03    -13.3174E-03     21.0141E-03
            1843     6.21717E-03     31.9588E-03     2.74024E+06    -53.2918E+06     7.70175E+06     396.984E+03    -14.0074E-03     27.3480E-03    -13.3406E-03     17.7268E-03    -13.9282E-03     27.0670E-03    -13.2288E-03     17.7291E-03
            1844     5.32953E-03     31.9422E-03     1.19160E+06    -54.0054E+06     5.78976E+06     572.140E+03    -13.7429E-03     26.9941E-03    -13.2512E-03     14.5997E-03    -13.6673E-03     26.7143E-03    -13.1457E-03     14.6049E-03
            1845     4.44147E-03     31.9294E-03    -740.437E+03    -56.3730E+06     2.70307E+06     196.342E+03    -13.5108E-03     26.6812E-03    -13.1704E-03     11.7584E-03    -13.4367E-03     26.3965E-03    -13.0741E-03     11.7593E-03
            1846     3.55360E-03     31.9185E-03    -2.49046E+06    -59.1430E+06    -146.641E+03    -248.102E+03    -13.3213E-03     26.4249E-03    -13.1036E-03     9.14617E-03    -13.2476E-03     26.1329E-03    -13.0150E-03     9.14170E-03
            1847     2.66508E-03     31.9107E-03    -4.09334E+06    -60.6807E+06    -2.63663E+06     354.361E+03    -13.1772E-03     26.2255E-03    -13.0482E-03     6.63547E-03    -13.1055E-03     25.9315E-03    -12.9675E-03     6.63910E-03
            1848     1.77702E-03     31.9051E-03    -4.29316E+06    -61.4439E+06    -3.36395E+06     1.23840E+06    -13.0732E-03     26.0820E-03    -13.0088E-03     4.32711E-03    -12.9998E-03     25.7854E-03    -12.9303E-03     4.34256E-03
            1849     888.299E-06     31.9021E-03    -4.50096E+06    -62.3300E+06    -3.49081E+06     799.035E+03    -13.0179E-03     25.9874E-03    -12.9695E-03     2.26586E-03    -12.9399E-03     25.6913E-03    -12.8901E-03     2.27616E-03
            1850     16.8661E-03     31.5978E-03     9.46768E+06     98.6858E+06     4.34672E+06     397.538E+03    -31.4080E-03     45.0980E-03    -13.6899E-03     252.703E-03    -39.9606E-03     54.0219E-03    -13.8250E-03     257.838E-03
            1851     15.9812E-03     31.4477E-03     5.61465E+06     22.2883E+06    -34.7673E+06     6.50964E+06    -14.7173E-03     28.2537E-03    -13.5365E-03     126.008E-03    -15.4568E-03     29.1932E-03    -13.7508E-03     126.349E-03
            1852     15.0885E-03     31.3661E-03    -14.2933E+06     1.45003E+06    -32.3806E+06     14.8068E+06    -12.3063E-03     26.0869E-03    -13.7807E-03     86.5434E-03    -12.4768E-03     26.3059E-03    -13.9239E-03     86.7292E-03
            1853     14.1997E-03     31.3026E-03    -18.7175E+06     9.02469E+06    -18.3715E+06     17.9876E+06    -15.2563E-03     29.1980E-03    -13.9416E-03     68.7587E-03    -15.4009E-03     29.3613E-03    -14.0194E-03     68.9583E-03
            1854     13.3120E-03     31.2452E-03    -12.8082E+06     10.1815E+06    -7.97305E+06     13.4116E+06    -16.3316E-03     30.2579E-03    -13.9263E-03     58.8881E-03    -16.4336E-03     30.3737E-03    -13.9624E-03     59.0318E-03
            1855     12.4270E-03     31.1953E-03    -9.13117E+06    -6.35331E+06    -4.91223E+06     8.64112E+06    -16.1524E-03     30.0007E-03    -13.8483E-03     51.0705E-03    -16.2008E-03     30.0084E-03    -13.8504E-03     51.1607E-03
            1856     11.5402E-03     31.1513E-03    -4.85440E+06    -21.1995E+06     549.523E+03     5.80324E+06    -15.8661E-03     29.6339E-03    -13.7678E-03     43.4652E-03    -15.8714E-03     29.5451E-03    -13.7272E-03     43.5245E-03
            1857     10.6542E-03     31.1140E-03    -1.67295E+06    -32.6426E+06     3.25090E+06     3.55496E+06    -15.5111E-03     29.1778E-03    -13.6667E-03     37.8125E-03    -15.4834E-03     29.0189E-03    -13.6007E-03     37.8471E-03
            1858     9.76735E-03     31.0801E-03     968.077E+03    -38.4773E+06     5.83504E+06     2.91395E+06    -15.1721E-03     28.7312E-03    -13.5591E-03     32.7900E-03    -15.1240E-03     28.5330E-03    -13.4755E-03     32.8193E-03
            1859     8.88067E-03     31.0509E-03     2.37685E+06    -45.9968E+06     6.47471E+06     2.03523E+06    -14.8159E-03     28.2653E-03    -13.4494E-03     28.2019E-03    -14.7492E-03     28.0250E-03    -13.3538E-03     28.2220E-03
            1860     7.99349E-03     31.0253E-03     2.45829E+06    -50.1649E+06     7.68717E+06     855.251E+03    -14.4867E-03     27.8316E-03    -13.3449E-03     24.1612E-03    -14.4144E-03     27.5677E-03    -13.2373E-03     24.1676E-03
            1861     7.10607E-03     31.0035E-03     2.66509E+06    -52.2193E+06     7.88983E+06     100.029E+03    -14.1862E-03     27.4231E-03    -13.2369E-03     20.5383E-03    -14.1095E-03     27.1476E-03    -13.1256E-03     20.5360E-03
            1862     6.21857E-03     30.9842E-03     1.73396E+06    -54.0647E+06     8.23107E+06    -125.371E+03    -13.8917E-03     27.0280E-03    -13.1363E-03     17.2120E-03    -13.8171E-03     26.7438E-03    -13.0193E-03     17.2076E-03
            1863     5.33067E-03     30.9689E-03     1.55173E+06    -54.5182E+06     7.98041E+06     1.06847E+06    -13.5751E-03     26.6158E-03    -13.0407E-03     14.1492E-03    -13.5001E-03     26.3297E-03    -12.9240E-03     14.1609E-03
            1864     4.44265E-03     30.9557E-03     144.416E+03    -55.5193E+06     4.44212E+06     1.53840E+06    -13.3126E-03     26.2593E-03    -12.9468E-03     11.4101E-03    -13.2378E-03     25.9751E-03    -12.8443E-03     11.4283E-03
            1865     3.55425E-03     30.9457E-03    -2.10080E+06    -58.8702E+06     705.634E+03     1.27112E+06    -13.0888E-03     25.9624E-03    -12.8736E-03     8.86925E-03    -13.0148E-03     25.6699E-03    -12.7817E-03     8.88446E-03
            1866     2.66594E-03     30.9377E-03    -3.56287E+06    -60.7804E+06    -2.21480E+06     950.460E+03    -12.9179E-03     25.7396E-03    -12.8217E-03     6.46403E-03    -12.8438E-03     25.4436E-03    -12.7395E-03     6.47544E-03
            1867     1.77711E-03     30.9324E-03    -3.80030E+06    -60.7679E+06    -3.39947E+06     390.666E+03    -12.8406E-03     25.6288E-03    -12.7882E-03     4.17337E-03    -12.7656E-03     25.3349E-03    -12.7116E-03     4.17796E-03
            1868     888.797E-06     30.9291E-03    -3.56656E+06    -61.6094E+06    -3.27700E+06    -78.3767E+03    -12.8623E-03     25.5593E-03    -12.6970E-03     2.21239E-03    -12.7810E-03     25.2647E-03    -12.6189E-03     2.21176E-03
            1869     16.8741E-03     30.6166E-03     4.85224E+06     96.4074E+06    -5.95329E+06     2.22554E+06    -24.1178E-03     37.7380E-03    -13.6202E-03     247.621E-03    -32.2713E-03     46.2681E-03    -13.7967E-03     252.783E-03
            1870     15.9780E-03     30.4868E-03    -11.3686E+06     8.81898E+06    -35.3196E+06     17.7553E+06    -9.65640E-03     23.5453E-03    -13.8889E-03     133.759E-03    -10.3717E-03     24.3539E-03    -14.0618E-03     134.334E-03
            1871     15.0790E-03     30.3935E-03    -20.1286E+06     2.43875E+06    -23.3700E+06     23.6380E+06    -15.2797E-03     29.5238E-03    -14.2441E-03     97.5084E-03    -15.5337E-03     29.7830E-03    -14.3353E-03     97.7973E-03
            1872     14.1946E-03     30.3217E-03    -16.8173E+06     17.3140E+06    -7.39610E+06     11.7471E+06    -19.1552E-03     33.3734E-03    -14.2183E-03     67.6336E-03    -19.3259E-03     33.5674E-03    -14.2560E-03     67.7379E-03
            1873     13.3124E-03     30.2694E-03    -12.5118E+06     13.5996E+06    -1.68370E+06     8.25110E+06    -17.6879E-03     31.7159E-03    -14.0280E-03     56.9079E-03    -17.8024E-03     31.8391E-03    -14.0380E-03     56.9822E-03
            1874     12.4259E-03     30.2171E-03    -8.96837E+06     503.701E+03     3.33110E+06     4.41656E+06    -16.8933E-03     30.7749E-03    -13.8816E-03     49.6054E-03    -16.9633E-03     30.8052E-03    -13.8526E-03     49.6395E-03
            1875     11.5411E-03     30.1757E-03    -5.59896E+06    -19.7619E+06     4.67158E+06     217.324E+03    -16.3367E-03     30.0763E-03    -13.7396E-03     42.1229E-03    -16.3537E-03     29.9897E-03    -13.6795E-03     42.1096E-03
            1876     10.6546E-03     30.1374E-03    -1.37130E+06    -31.2124E+06     7.22635E+06    -379.878E+03    -15.9265E-03     29.5188E-03    -13.5924E-03     36.5958E-03    -15.9052E-03     29.3610E-03    -13.5090E-03     36.5790E-03
            1877     9.76886E-03     30.1048E-03     1.20644E+06    -39.6289E+06     7.90943E+06     33.4457E+03    -15.4033E-03     28.8426E-03    -13.4393E-03     31.6642E-03    -15.3553E-03     28.6353E-03    -13.3440E-03     31.6561E-03
            1878     8.88191E-03     30.0758E-03     2.25180E+06    -44.4998E+06     8.92859E+06     987.364E+03    -14.9093E-03     28.2064E-03    -13.2971E-03     27.3808E-03    -14.8489E-03     27.9702E-03    -13.1912E-03     27.3874E-03
            1879     7.99493E-03     30.0509E-03     2.56448E+06    -49.3216E+06     8.98134E+06     249.859E+03    -14.5316E-03     27.6916E-03    -13.1600E-03     23.4480E-03    -14.4618E-03     27.4297E-03    -13.0473E-03     23.4465E-03
            1880     7.10774E-03     30.0291E-03     1.75617E+06    -51.8804E+06     9.27209E+06    -110.316E+03    -14.1101E-03     27.1416E-03    -13.0315E-03     19.9359E-03    -14.0405E-03     26.8671E-03    -12.9124E-03     19.9310E-03
            1881     6.21990E-03     30.0109E-03     1.09655E+06    -54.1083E+06     7.76081E+06    -120.060E+03    -13.6966E-03     26.6064E-03    -12.9098E-03     16.7209E-03    -13.6244E-03     26.3235E-03    -12.7941E-03     16.7167E-03
            1882     5.33196E-03     29.9953E-03    -82.2001E+03    -56.2427E+06     6.67714E+06     295.537E+03    -13.3767E-03     26.1847E-03    -12.8079E-03     13.7521E-03    -13.3055E-03     25.8941E-03    -12.6929E-03     13.7539E-03
            1883     4.44363E-03     29.9830E-03    -465.263E+03    -55.5485E+06     5.27915E+06     1.96862E+06    -13.0724E-03     25.7898E-03    -12.7174E-03     11.0608E-03    -13.0018E-03     25.5050E-03    -12.6098E-03     11.0847E-03
            1884     3.55517E-03     29.9728E-03    -1.19825E+06    -57.6909E+06     2.25758E+06     2.15776E+06    -12.8463E-03     25.4912E-03    -12.6448E-03     8.59415E-03    -12.7717E-03     25.2010E-03    -12.5482E-03     8.62092E-03
            1885     2.66638E-03     29.9654E-03    -2.03597E+06    -59.7079E+06     114.868E+03     1.18631E+06    -12.6950E-03     25.2906E-03    -12.5956E-03     6.28736E-03    -12.6183E-03     24.9945E-03    -12.5055E-03     6.30192E-03
            1886     1.77783E-03     29.9599E-03    -3.20404E+06    -59.8853E+06    -2.06655E+06     423.034E+03    -12.5880E-03     25.1507E-03    -12.5628E-03     4.12899E-03    -12.5132E-03     24.8585E-03    -12.4817E-03     4.13416E-03
            1887     888.748E-06     29.9570E-03    -4.44386E+06    -61.5506E+06    -4.35934E+06     149.902E+03    -12.5997E-03     25.1036E-03    -12.5038E-03     2.19183E-03    -12.5213E-03     24.8117E-03    -12.4299E-03     2.19380E-03
            1888     16.8629E-03     29.6453E-03     13.2671E+06     79.3626E+06    -27.5830E+06     18.9560E+06    -15.8835E-03     30.0527E-03    -14.1692E-03     257.079E-03    -23.4081E-03     37.9852E-03    -14.4415E-03     262.987E-03
            1889     15.9562E-03     29.5335E-03    -11.4556E+06     14.1977E+06    -30.4727E+06     26.1732E+06    -17.0781E-03     31.7257E-03    -14.6476E-03     151.019E-03    -18.0946E-03     32.8414E-03    -14.8039E-03     151.784E-03
            1890     15.0719E-03     29.4009E-03    -6.96569E+06     17.3017E+06     4.04993E+06     15.6969E+06    -24.1822E-03     38.8605E-03    -14.6783E-03     95.6961E-03    -24.4760E-03     39.1801E-03    -14.6730E-03     95.8217E-03
            1891     14.1970E-03     29.3447E-03    -895.360E+03     24.5489E+06     10.7505E+06     10.9560E+06    -20.6178E-03     34.9296E-03    -14.3118E-03     59.9422E-03    -20.7416E-03     35.1061E-03    -14.2923E-03     60.0315E-03
            1892     13.3110E-03     29.2886E-03    -2.48627E+06     18.1762E+06     8.80400E+06     4.39996E+06    -18.4856E-03     32.4996E-03    -14.0140E-03     53.3083E-03    -18.5722E-03     32.6165E-03    -13.9927E-03     53.3303E-03
            1893     12.4283E-03     29.2410E-03     1.24875E+06     6.23838E+06     15.5334E+06    -477.565E+03    -17.2937E-03     31.1182E-03    -13.8245E-03     47.1512E-03    -17.3384E-03     31.1445E-03    -13.7577E-03     47.1214E-03
            1894     11.5418E-03     29.1980E-03     5.16642E+06    -18.0830E+06     12.8422E+06    -3.67614E+06    -16.6573E-03     30.2883E-03    -13.6310E-03     40.3193E-03    -16.6349E-03     30.1828E-03    -13.5480E-03     40.2551E-03
            1895     10.6571E-03     29.1615E-03     6.56213E+06    -33.3858E+06     12.2538E+06    -3.18848E+06    -16.0343E-03     29.4838E-03    -13.4494E-03     35.1133E-03    -15.9774E-03     29.2961E-03    -13.3493E-03     35.0601E-03
            1896     9.77034E-03     29.1292E-03     6.45546E+06    -40.5455E+06     12.2240E+06    -854.498E+03    -15.4419E-03     28.7160E-03    -13.2741E-03     30.4834E-03    -15.3725E-03     28.4901E-03    -13.1635E-03     30.4638E-03
            1897     8.88394E-03     29.1011E-03     6.20048E+06    -45.5736E+06     12.5127E+06    -16.5616E+03    -14.9128E-03     28.0232E-03    -13.1104E-03     26.4343E-03    -14.8363E-03     27.7707E-03    -12.9908E-03     26.4279E-03
            1898     7.99681E-03     29.0763E-03     5.18056E+06    -48.0938E+06     12.0134E+06     638.807E+03    -14.4168E-03     27.3701E-03    -12.9533E-03     22.7144E-03    -14.3400E-03     27.1061E-03    -12.8310E-03     22.7181E-03
            1899     7.10924E-03     29.0555E-03     3.64061E+06    -52.3526E+06     10.8594E+06     344.094E+03    -13.9561E-03     26.7670E-03    -12.8109E-03     19.2536E-03    -13.8786E-03     26.4851E-03    -12.6859E-03     19.2547E-03
            1900     6.22146E-03     29.0375E-03     1.39733E+06    -53.7688E+06     8.65794E+06     562.832E+03    -13.5030E-03     26.1821E-03    -12.6791E-03     16.1591E-03    -13.4311E-03     25.8991E-03    -12.5599E-03     16.1639E-03
            1901     5.33314E-03     29.0226E-03    -301.403E+03    -56.8136E+06     6.01910E+06     498.526E+03    -13.1319E-03     25.7006E-03    -12.5687E-03     13.3097E-03    -13.0599E-03     25.4085E-03    -12.4558E-03     13.3143E-03
            1902     4.44475E-03     29.0104E-03    -1.44578E+06    -56.7700E+06     5.16691E+06     827.450E+03    -12.8399E-03     25.3223E-03    -12.4824E-03     10.6991E-03    -12.7723E-03     25.0330E-03    -12.3722E-03     10.7083E-03
            1903     3.55592E-03     29.0008E-03    -1.40610E+06    -56.6935E+06     2.79701E+06     1.69344E+06    -12.5994E-03     25.0077E-03    -12.4083E-03     8.32701E-03    -12.5281E-03     24.7220E-03    -12.3100E-03     8.34782E-03
            1904     2.66719E-03     28.9932E-03    -2.18635E+06    -58.3761E+06     309.123E+03     1.46343E+06    -12.4256E-03     24.7885E-03    -12.3630E-03     6.12528E-03    -12.3519E-03     24.4990E-03    -12.2736E-03     6.14345E-03
            1905     1.77794E-03     28.9883E-03    -3.71179E+06    -59.3757E+06    -1.61832E+06     1.33174E+06    -12.3497E-03     24.6911E-03    -12.3414E-03     4.07921E-03    -12.2790E-03     24.4016E-03    -12.2580E-03     4.09592E-03
            1906     889.096E-06     28.9848E-03    -5.50525E+06    -60.1749E+06    -5.26342E+06     1.80535E+06    -12.3264E-03     24.6503E-03    -12.3238E-03     2.09832E-03    -12.2543E-03     24.3680E-03    -12.2549E-03     2.12181E-03
            1907     16.8239E-03     28.7214E-03    -17.2047E+06     67.1866E+06    -12.8714E+06     16.6131E+06    -21.5771E-03     36.7485E-03    -15.1715E-03     251.086E-03    -28.9858E-03     44.3713E-03    -15.3083E-03     257.528E-03
            1908     15.9386E-03     28.5119E-03    -8.29278E+06     22.8540E+06    -5.61673E+06     16.8592E+06    -30.5704E-03     45.6441E-03    -15.0736E-03     141.787E-03    -31.8584E-03     47.0016E-03    -15.1228E-03     142.203E-03
            1909     15.0869E-03     28.4259E-03     5.83690E+06     22.6153E+06     22.9143E+06     7.78949E+06    -26.3138E-03     40.9040E-03    -14.5902E-03     76.6603E-03    -26.5619E-03     41.1860E-03    -14.5169E-03     76.6667E-03
            1910     14.1957E-03     28.3596E-03     11.6512E+06     27.2475E+06     18.3516E+06     7.03433E+06    -19.3673E-03     33.4721E-03    -14.1049E-03     55.0711E-03    -19.4367E-03     33.6263E-03    -14.0695E-03     55.1156E-03
            1911     13.3165E-03     28.3124E-03     19.0485E+06     26.9286E+06     25.5452E+06     3.26977E+06    -18.1722E-03     32.0349E-03    -13.8627E-03     49.6575E-03    -18.1871E-03     32.1390E-03    -13.8017E-03     49.6650E-03
            1912     12.4292E-03     28.2621E-03     18.7990E+06     9.45137E+06     22.5895E+06    -3.00956E+06    -17.2866E-03     30.9224E-03    -13.6359E-03     45.3203E-03    -17.2581E-03     30.9288E-03    -13.5639E-03     45.2577E-03
            1913     11.5457E-03     28.2218E-03     17.4075E+06    -18.2423E+06     17.5143E+06    -3.25980E+06    -16.5383E-03     29.9733E-03    -13.4350E-03     38.8079E-03    -16.4609E-03     29.8421E-03    -13.3462E-03     38.7491E-03
            1914     10.6586E-03     28.1855E-03     14.1903E+06    -35.8155E+06     15.3010E+06    -1.51630E+06    -15.8827E-03     29.1342E-03    -13.2515E-03     34.1309E-03    -15.7882E-03     28.9186E-03    -13.1437E-03     34.0997E-03
            1915     9.77284E-03     28.1540E-03     11.7005E+06    -42.4654E+06     15.9449E+06     8.70588E+03    -15.3670E-03     28.4420E-03    -13.0750E-03     29.5832E-03    -15.2738E-03     28.1934E-03    -12.9507E-03     29.5748E-03
            1916     8.88586E-03     28.1264E-03     9.06618E+06    -45.9772E+06     15.7329E+06     1.29274E+06    -14.7921E-03     27.6912E-03    -12.8991E-03     25.6221E-03    -14.7052E-03     27.4276E-03    -12.7669E-03     25.6328E-03
            1917     7.99860E-03     28.1025E-03     6.72822E+06    -48.3546E+06     13.9270E+06     1.48894E+06    -14.2287E-03     26.9581E-03    -12.7294E-03     21.9942E-03    -14.1465E-03     26.6877E-03    -12.5994E-03     22.0091E-03
            1918     7.11099E-03     28.0820E-03     4.51103E+06    -51.6578E+06     11.3723E+06     1.77766E+06    -13.7509E-03     26.3257E-03    -12.5748E-03     18.5838E-03    -13.6708E-03     26.0452E-03    -12.4496E-03     18.6034E-03
            1919     6.22290E-03     28.0647E-03     2.64437E+06    -54.1326E+06     10.3482E+06     1.51657E+06    -13.3014E-03     25.7462E-03    -12.4448E-03     15.5389E-03    -13.2251E-03     25.4571E-03    -12.3184E-03     15.5560E-03
            1920     5.33457E-03     28.0502E-03     269.224E+03    -56.0525E+06     7.73685E+06     1.61001E+06    -12.8866E-03     25.2174E-03    -12.3308E-03     12.8225E-03    -12.8153E-03     24.9257E-03    -12.2112E-03     12.8414E-03
            1921     4.44570E-03     28.0384E-03    -1.98933E+06    -56.6880E+06     4.22623E+06     758.404E+03    -12.5794E-03     24.8142E-03    -12.2348E-03     10.3441E-03    -12.5132E-03     24.5275E-03    -12.1286E-03     10.3526E-03
            1922     3.55697E-03     28.0289E-03    -3.80179E+06    -57.1174E+06     2.18360E+06     756.607E+03    -12.3350E-03     24.5036E-03    -12.1686E-03     8.05579E-03    -12.2740E-03     24.2201E-03    -12.0694E-03     8.06457E-03
            1923     2.66757E-03     28.0219E-03    -5.03200E+06    -57.5851E+06     405.351E+03     1.70324E+06    -12.1785E-03     24.3041E-03    -12.1256E-03     5.95216E-03    -12.1202E-03     24.0224E-03    -12.0328E-03     5.97350E-03
            1924     1.77858E-03     28.0165E-03    -7.29914E+06    -58.9979E+06    -2.66929E+06     1.87968E+06    -12.1133E-03     24.2040E-03    -12.0907E-03     3.90315E-03    -12.0594E-03     23.9229E-03    -12.0079E-03     3.92695E-03
            1925     889.229E-06     28.0137E-03    -8.32825E+06    -56.9915E+06    -6.44901E+06     1.78618E+06    -12.0743E-03     24.1105E-03    -12.0363E-03     1.99500E-03    -12.0196E-03     23.8496E-03    -11.9738E-03     2.01820E-03
            1926     16.8318E-03     27.7168E-03    -10.4625E+06     62.8896E+06     22.9675E+06     371.407E+03    -34.2713E-03     49.3864E-03    -15.1151E-03     232.070E-03    -41.8971E-03     57.1247E-03    -15.0763E-03     237.765E-03
            1927     15.9852E-03     27.5274E-03     30.8206E+06     23.2012E+06     42.7560E+06     7.03211E+06    -29.0424E-03     43.6679E-03    -14.6255E-03     128.998E-03    -30.0639E-03     44.7553E-03    -14.4901E-03     129.269E-03
            1928     15.0819E-03     27.4408E-03     31.7382E+06     25.0744E+06     34.6288E+06     10.9365E+06    -20.2325E-03     34.3708E-03    -14.1383E-03     72.2494E-03    -20.3359E-03     34.5740E-03    -14.0475E-03     72.3384E-03
            1929     14.2075E-03     27.3840E-03     31.5716E+06     31.9254E+06     34.2867E+06     3.81053E+06    -18.4825E-03     32.3432E-03    -13.8607E-03     54.0005E-03    -18.4796E-03     32.4663E-03    -13.7814E-03     54.0062E-03
            1930     13.3166E-03     27.3331E-03     29.4477E+06     30.1369E+06     32.0447E+06     1.88967E+06    -17.3475E-03     30.9755E-03    -13.6279E-03     49.7274E-03    -17.3225E-03     31.0689E-03    -13.5541E-03     49.7200E-03
            1931     12.4346E-03     27.2854E-03     27.7038E+06     12.5545E+06     27.1359E+06     1.63881E+06    -17.0395E-03     30.4549E-03    -13.4154E-03     44.2614E-03    -16.9771E-03     30.4567E-03    -13.3381E-03     44.2592E-03
            1932     11.5468E-03     27.2456E-03     20.7529E+06    -20.2031E+06     18.8702E+06     1.70939E+06    -16.2194E-03     29.4384E-03    -13.2189E-03     38.0338E-03    -16.1237E-03     29.2899E-03    -13.1254E-03     38.0401E-03
            1933     10.6617E-03     27.2100E-03     16.2096E+06    -36.3914E+06     17.0999E+06     2.37028E+06    -15.7199E-03     28.7589E-03    -13.0390E-03     33.3243E-03    -15.6169E-03     28.5347E-03    -12.9243E-03     33.3435E-03
            1934     9.77469E-03     27.1790E-03     12.5453E+06    -43.1152E+06     16.6591E+06     2.44203E+06    -15.1893E-03     28.0433E-03    -12.8539E-03     28.8653E-03    -15.0918E-03     27.7889E-03    -12.7263E-03     28.8887E-03
            1935     8.88797E-03     27.1522E-03     10.6598E+06    -46.5727E+06     17.8977E+06     2.65793E+06    -14.6628E-03     27.3391E-03    -12.6763E-03     24.7716E-03    -14.5701E-03     27.0670E-03    -12.5347E-03     24.8000E-03
            1936     8.00063E-03     27.1290E-03     8.48919E+06    -48.2514E+06     16.7235E+06     3.49097E+06    -14.0530E-03     26.5522E-03    -12.4992E-03     21.1634E-03    -13.9662E-03     26.2757E-03    -12.3579E-03     21.2042E-03
            1937     7.11267E-03     27.1091E-03     6.17582E+06    -50.8149E+06     13.1258E+06     2.92912E+06    -13.5090E-03     25.8432E-03    -12.3342E-03     17.8970E-03    -13.4242E-03     25.5619E-03    -12.2038E-03     17.9317E-03
            1938     6.22451E-03     27.0923E-03     3.85698E+06    -53.8629E+06     10.9700E+06     2.88523E+06    -13.0573E-03     25.2569E-03    -12.1995E-03     14.9420E-03    -12.9763E-03     24.9665E-03    -12.0722E-03     14.9769E-03
            1939     5.33578E-03     27.0785E-03     1.78582E+06    -55.1721E+06     9.82376E+06     2.51985E+06    -12.6604E-03     24.7499E-03    -12.0895E-03     12.3399E-03    -12.5859E-03     24.4574E-03    -11.9630E-03     12.3707E-03
            1940     4.44701E-03     27.0668E-03    -639.625E+03    -55.4802E+06     6.57081E+06     2.16378E+06    -12.3150E-03     24.3094E-03    -11.9944E-03     9.96492E-03    -12.2473E-03     24.0234E-03    -11.8801E-03     9.99158E-03
            1941     3.55753E-03     27.0579E-03    -3.47246E+06    -56.8725E+06     2.84243E+06     1.24585E+06    -12.1157E-03     24.0358E-03    -11.9201E-03     7.75897E-03    -12.0545E-03     23.7521E-03    -11.8184E-03     7.77418E-03
            1942     2.66854E-03     27.0507E-03    -5.80956E+06    -58.0214E+06     1.04113E+06     1.18170E+06    -11.9846E-03     23.8468E-03    -11.8622E-03     5.70413E-03    -11.9306E-03     23.5633E-03    -11.7644E-03     5.71879E-03
            1943     1.77898E-03     27.0457E-03    -7.23188E+06    -57.3224E+06    -2.18123E+06     1.51074E+06    -11.8454E-03     23.6487E-03    -11.8033E-03     3.73968E-03    -11.7944E-03     23.3753E-03    -11.7206E-03     3.75893E-03
            1944     889.593E-06     27.0426E-03    -9.11513E+06    -54.9411E+06    -7.39158E+06     573.889E+03    -11.8231E-03     23.5118E-03    -11.6887E-03     1.95025E-03    -11.7745E-03     23.2634E-03    -11.6328E-03     1.95762E-03
            1945     16.8782E-03     26.7119E-03     877.498E+03     49.4565E+06     32.2610E+06    -5.30442E+06    -32.7857E-03     47.1600E-03    -14.3743E-03     244.354E-03    -40.4605E-03     54.9144E-03    -14.2860E-03     249.380E-03
            1946     15.9698E-03     26.5647E-03     17.5190E+06     14.1322E+06     33.3505E+06     3.92443E+06    -21.7259E-03     35.8208E-03    -14.0949E-03     141.656E-03    -22.7436E-03     36.8523E-03    -13.9740E-03     142.041E-03
            1947     15.0951E-03     26.4559E-03     28.5395E+06     34.5105E+06     44.1163E+06     6.80350E+06    -18.8105E-03     32.7276E-03    -13.9171E-03     78.6742E-03    -18.9470E-03     32.9603E-03    -13.7879E-03     78.7197E-03
            1948     14.2032E-03     26.4093E-03     25.3507E+06     34.9078E+06     37.5686E+06     4.29996E+06    -17.8121E-03     31.4911E-03    -13.6790E-03     54.1805E-03    -17.8463E-03     31.6303E-03    -13.5786E-03     54.1952E-03
            1949     13.3225E-03     26.3541E-03     24.8300E+06     29.7797E+06     31.7317E+06     2.37470E+06    -17.4155E-03     30.8510E-03    -13.4355E-03     50.3701E-03    -17.4116E-03     30.9489E-03    -13.3560E-03     50.3697E-03
            1950     12.4347E-03     26.3097E-03     21.7119E+06     11.2913E+06     27.4221E+06     5.93173E+06    -16.7169E-03     29.9402E-03    -13.2233E-03     43.6843E-03    -16.6819E-03     29.9428E-03    -13.1340E-03     43.7389E-03
            1951     11.5506E-03     26.2692E-03     19.6649E+06    -19.1776E+06     20.2028E+06     6.73216E+06    -16.1909E-03     29.2077E-03    -13.0168E-03     37.3351E-03    -16.1037E-03     29.0637E-03    -12.9165E-03     37.4066E-03
            1952     10.6635E-03     26.2352E-03     16.1713E+06    -35.9863E+06     19.3696E+06     6.13906E+06    -15.5436E-03     28.3745E-03    -12.8309E-03     32.6699E-03    -15.4443E-03     28.1487E-03    -12.7053E-03     32.7384E-03
            1953     9.77715E-03     26.2044E-03     13.7020E+06    -41.3078E+06     18.8693E+06     4.72433E+06    -15.0601E-03     27.6947E-03    -12.6346E-03     28.2054E-03    -14.9625E-03     27.4444E-03    -12.5002E-03     28.2586E-03
            1954     8.89010E-03     26.1783E-03     11.2403E+06    -47.0181E+06     17.5910E+06     4.06721E+06    -14.5014E-03     26.9411E-03    -12.4397E-03     24.0033E-03    -14.4046E-03     26.6663E-03    -12.2999E-03     24.0501E-03
            1955     8.00256E-03     26.1559E-03     9.77705E+06    -48.1655E+06     18.5846E+06     4.30577E+06    -13.8775E-03     26.1413E-03    -12.2638E-03     20.4376E-03    -13.7870E-03     25.8607E-03    -12.1152E-03     20.4890E-03
            1956     7.11462E-03     26.1366E-03     7.68209E+06    -49.9041E+06     15.0897E+06     4.99546E+06    -13.2827E-03     25.3751E-03    -12.0923E-03     17.2402E-03    -13.1946E-03     25.0933E-03    -11.9556E-03     17.3016E-03
            1957     6.22593E-03     26.1205E-03     5.13035E+06    -52.6506E+06     11.2328E+06     4.12040E+06    -12.8117E-03     24.7589E-03    -11.9472E-03     14.3750E-03    -12.7264E-03     24.4724E-03    -11.8222E-03     14.4259E-03
            1958     5.33725E-03     26.1068E-03     3.10706E+06    -53.9783E+06     10.4091E+06     3.38451E+06    -12.4204E-03     24.2580E-03    -11.8376E-03     11.8205E-03    -12.3419E-03     23.9687E-03    -11.7118E-03     11.8625E-03
            1959     4.44789E-03     26.0960E-03     1.24906E+06    -54.4864E+06     9.29103E+06     2.92876E+06    -12.1191E-03     23.8648E-03    -11.7457E-03     9.54172E-03    -12.0473E-03     23.5771E-03    -11.6220E-03     9.57832E-03
            1960     3.55880E-03     26.0868E-03    -746.504E+03    -55.5156E+06     5.21375E+06     2.61652E+06    -11.9131E-03     23.5672E-03    -11.6541E-03     7.44897E-03    -11.8438E-03     23.2830E-03    -11.5464E-03     7.48190E-03
            1961     2.66914E-03     26.0801E-03    -3.04795E+06    -57.0365E+06     1.09942E+06     1.29876E+06    -11.7381E-03     23.3111E-03    -11.5730E-03     5.46253E-03    -11.6719E-03     23.0284E-03    -11.4803E-03     5.47872E-03
            1962     1.77964E-03     26.0753E-03    -5.19539E+06    -56.6501E+06    -918.844E+03     539.602E+03    -11.5817E-03     23.0930E-03    -11.5113E-03     3.60696E-03    -11.5236E-03     22.8184E-03    -11.4262E-03     3.61353E-03
            1963     889.761E-06     26.0724E-03    -6.64200E+06    -53.6126E+06    -5.25431E+06     1.08557E+06    -11.5346E-03     22.9229E-03    -11.3883E-03     1.84396E-03    -11.4791E-03     22.6746E-03    -11.3272E-03     1.85812E-03
            1964     16.8522E-03     25.7702E-03     1.17422E+06     57.9967E+06     29.6686E+06    -7.55560E+06    -29.1161E-03     43.2974E-03    -14.1812E-03     254.358E-03    -36.7467E-03     51.0543E-03    -14.1187E-03     259.680E-03
            1965     15.9751E-03     25.5639E-03    -8.62591E+06     4.93784E+06    -6.66845E+06    -11.5159E+06    -23.0716E-03     36.9429E-03    -13.8713E-03     141.834E-03    -24.2134E-03     38.0921E-03    -13.8993E-03     141.908E-03
            1966     15.0903E-03     25.4892E-03    -1.53547E+06     24.8251E+06     26.8580E+06    -7.80864E+06    -19.1215E-03     32.8765E-03    -13.7550E-03     75.5502E-03    -19.3614E-03     33.1216E-03    -13.6545E-03     75.4067E-03
            1967     14.2088E-03     25.4244E-03     12.2064E+06     39.0957E+06     31.1153E+06    -1.64767E+06    -17.8583E-03     31.3536E-03    -13.4953E-03     53.7945E-03    -17.9528E-03     31.5402E-03    -13.4142E-03     53.7329E-03
            1968     13.3227E-03     25.3808E-03     17.8313E+06     24.6829E+06     27.7060E+06     1.05159E+06    -17.3415E-03     30.5953E-03    -13.2539E-03     48.5734E-03    -17.3583E-03     30.6828E-03    -13.1770E-03     48.5562E-03
            1969     12.4383E-03     25.3309E-03     19.5678E+06     7.05470E+06     27.6179E+06     6.46184E+06    -16.6246E-03     29.6693E-03    -13.0447E-03     43.2014E-03    -16.5936E-03     29.6527E-03    -12.9452E-03     43.2636E-03
            1970     11.5520E-03     25.2948E-03     18.1020E+06    -17.2905E+06     22.3395E+06     9.45110E+06    -16.1411E-03     28.9685E-03    -12.8274E-03     36.3467E-03    -16.0672E-03     28.8327E-03    -12.7168E-03     36.4535E-03
            1971     10.6660E-03     25.2598E-03     16.9016E+06    -33.9096E+06     20.7732E+06     7.72630E+06    -15.5391E-03     28.1570E-03    -12.6179E-03     31.9304E-03    -15.4409E-03     27.9382E-03    -12.4894E-03     32.0197E-03
            1972     9.77932E-03     25.2303E-03     15.2506E+06    -39.6697E+06     21.1018E+06     7.11609E+06    -14.8905E-03     27.3032E-03    -12.4128E-03     27.3556E-03    -14.7905E-03     27.0554E-03    -12.2718E-03     27.4400E-03
            1973     8.89204E-03     25.2047E-03     12.8123E+06    -45.3825E+06     18.7739E+06     5.82156E+06    -14.2902E-03     26.4984E-03    -12.2082E-03     23.2291E-03    -14.1895E-03     26.2277E-03    -12.0671E-03     23.2988E-03
            1974     8.00449E-03     25.1831E-03     9.99417E+06    -48.6135E+06     17.8075E+06     5.61270E+06    -13.6727E-03     25.6968E-03    -12.0241E-03     19.6569E-03    -13.5792E-03     25.4146E-03    -11.8791E-03     19.7254E-03
            1975     7.11613E-03     25.1647E-03     8.09647E+06    -48.9218E+06     16.7834E+06     5.89791E+06    -13.0974E-03     24.9540E-03    -11.8566E-03     16.6044E-03    -13.0110E-03     24.6741E-03    -11.7135E-03     16.6777E-03
            1976     6.22772E-03     25.1489E-03     6.85136E+06    -50.5400E+06     13.1759E+06     5.36091E+06    -12.6090E-03     24.3108E-03    -11.7018E-03     13.8242E-03    -12.5209E-03     24.0294E-03    -11.5726E-03     13.8912E-03
            1977     5.33844E-03     25.1361E-03     5.09904E+06    -52.6417E+06     10.8796E+06     4.10705E+06    -12.2243E-03     23.8017E-03    -11.5774E-03     11.3381E-03    -12.1384E-03     23.5155E-03    -11.4541E-03     11.3895E-03
            1978     4.44934E-03     25.1251E-03     3.26205E+06    -53.3068E+06     9.66395E+06     3.52190E+06    -11.9368E-03     23.4090E-03    -11.4721E-03     9.14724E-03    -11.8572E-03     23.1237E-03    -11.3513E-03     9.19153E-03
            1979     3.55964E-03     25.1167E-03     1.63412E+06    -54.1760E+06     6.43084E+06     3.06782E+06    -11.6758E-03     23.0465E-03    -11.3708E-03     7.11286E-03    -11.5982E-03     22.7638E-03    -11.2624E-03     7.15163E-03
            1980     2.67000E-03     25.1100E-03    -53.0566E+03    -54.7479E+06     3.19297E+06     2.41565E+06    -11.4533E-03     22.7408E-03    -11.2876E-03     5.18621E-03    -11.3784E-03     22.4622E-03    -11.1921E-03     5.21676E-03
            1981     1.78001E-03     25.1055E-03    -2.91941E+06    -55.9435E+06     1.39007E+06     1.06874E+06    -11.3017E-03     22.5325E-03    -11.2308E-03     3.41619E-03    -11.2365E-03     22.2548E-03    -11.1385E-03     3.42947E-03
            1982     890.171E-06     25.1027E-03    -6.11570E+06    -52.5623E+06    -2.68057E+06     674.589E+03    -11.2328E-03     22.3547E-03    -11.1218E-03     1.77038E-03    -11.1802E-03     22.1071E-03    -11.0502E-03     1.77909E-03
            1983     16.8576E-03     24.7548E-03    -10.3313E+06     64.8892E+06     11.6796E+06    -9.29806E+06    -31.2210E-03     45.3667E-03    -14.1457E-03     252.931E-03    -39.2218E-03     53.5280E-03    -14.1664E-03     258.252E-03
            1984     15.9851E-03     24.6032E-03    -3.42204E+06     8.39690E+06    -15.3677E+06    -17.6152E+06    -25.1838E-03     38.9182E-03    -13.7344E-03     137.017E-03    -26.2620E-03     40.0594E-03    -13.8184E-03     136.985E-03
            1985     15.0953E-03     24.5015E-03     845.640E+03     15.8853E+06     8.06638E+06    -18.2098E+06    -18.9633E-03     32.4834E-03    -13.5200E-03     77.2441E-03    -19.1471E-03     32.7031E-03    -13.5040E-03     76.9684E-03
            1986     14.2115E-03     24.4522E-03     9.09987E+06     30.7743E+06     20.8384E+06    -12.1426E+06    -18.0732E-03     31.3762E-03    -13.3030E-03     53.6338E-03    -18.1544E-03     31.5386E-03    -13.2566E-03     53.4375E-03
            1987     13.3259E-03     24.4005E-03     12.9024E+06     18.3358E+06     19.4576E+06    -1.81623E+06    -17.2267E-03     30.2846E-03    -13.0579E-03     48.4499E-03    -17.2455E-03     30.3580E-03    -13.0059E-03     48.3971E-03
            1988     12.4405E-03     24.3572E-03     14.1063E+06    -30.7992E+03     21.1926E+06     4.84784E+06    -16.7026E-03     29.5502E-03    -12.8477E-03     42.6148E-03    -16.6785E-03     29.5148E-03    -12.7621E-03     42.6567E-03
            1989     11.5543E-03     24.3179E-03     16.0475E+06    -16.5171E+06     20.4625E+06     9.07733E+06    -16.1291E-03     28.7477E-03    -12.6186E-03     35.6100E-03    -16.0633E-03     28.6209E-03    -12.5156E-03     35.7126E-03
            1990     10.6687E-03     24.2857E-03     15.9278E+06    -31.2473E+06     18.6834E+06     9.08694E+06    -15.5281E-03     27.9142E-03    -12.3861E-03     30.8324E-03    -15.4354E-03     27.7130E-03    -12.2704E-03     30.9394E-03
            1991     9.78150E-03     24.2564E-03     14.9491E+06    -38.3871E+06     19.8044E+06     7.54869E+06    -14.7171E-03     26.8902E-03    -12.1731E-03     26.4906E-03    -14.6184E-03     26.6509E-03    -12.0400E-03     26.5810E-03
            1992     8.89434E-03     24.2317E-03     14.0393E+06    -44.0521E+06     21.4833E+06     7.98201E+06    -14.0339E-03     26.0175E-03    -11.9836E-03     22.3475E-03    -13.9328E-03     25.7476E-03    -11.8326E-03     22.4454E-03
            1993     8.00621E-03     24.2109E-03     11.8730E+06    -47.1919E+06     19.9711E+06     7.21179E+06    -13.4428E-03     25.2386E-03    -11.7958E-03     18.8684E-03    -13.3451E-03     24.9576E-03    -11.6448E-03     18.9577E-03
            1994     7.11805E-03     24.1929E-03     10.0278E+06    -48.0867E+06     18.2124E+06     6.34517E+06    -12.8933E-03     24.5163E-03    -11.6230E-03     15.9347E-03    -12.8004E-03     24.2356E-03    -11.4768E-03     16.0138E-03
            1995     6.22896E-03     24.1781E-03     8.45718E+06    -48.4664E+06     15.1954E+06     5.89367E+06    -12.4335E-03     23.8964E-03    -11.4630E-03     13.2973E-03    -12.3432E-03     23.6201E-03    -11.3290E-03     13.3713E-03
            1996     5.34005E-03     24.1653E-03     6.89336E+06    -51.0109E+06     11.5901E+06     5.29193E+06    -12.0704E-03     23.3894E-03    -11.3191E-03     10.9148E-03    -11.9789E-03     23.1077E-03    -11.1972E-03     10.9816E-03
            1997     4.45038E-03     24.1551E-03     4.84884E+06    -51.7276E+06     9.26722E+06     4.45430E+06    -11.7275E-03     22.9222E-03    -11.1947E-03     8.77687E-03    -11.6417E-03     22.6431E-03    -11.0804E-03     8.83321E-03
            1998     3.56080E-03     24.1467E-03     2.89419E+06    -52.6106E+06     6.56732E+06     3.70440E+06    -11.4280E-03     22.5150E-03    -11.0870E-03     6.77697E-03    -11.3466E-03     22.2381E-03    -10.9821E-03     6.82393E-03
            1999     2.67075E-03     24.1406E-03     992.289E+03    -52.8733E+06     5.35722E+06     3.06605E+06    -11.1762E-03     22.1847E-03    -11.0085E-03     4.95121E-03    -11.1019E-03     21.9108E-03    -10.9065E-03     4.99018E-03
            2000     1.78065E-03     24.1360E-03    -1.21523E+06    -53.5991E+06     2.91213E+06     2.40470E+06    -10.9981E-03     21.9496E-03    -10.9516E-03     3.23868E-03    -10.9299E-03     21.6789E-03    -10.8575E-03     3.26931E-03
            2001     890.223E-06     24.1336E-03    -4.09699E+06    -51.2659E+06    -2.45118E+06     339.950E+03    -10.8982E-03     21.8094E-03    -10.9111E-03     1.73096E-03    -10.8379E-03     21.5650E-03    -10.8431E-03     1.73528E-03
            2002     16.8613E-03     23.7780E-03    -7.55928E+06     77.6284E+06     16.7533E+06    -4.40168E+06    -31.7263E-03     45.7675E-03    -14.0412E-03     257.412E-03    -39.9414E-03     54.1830E-03    -14.0591E-03     262.457E-03
            2003     15.9721E-03     23.6141E-03    -13.0627E+06     6.20792E+06    -26.6476E+06    -23.0717E+06    -23.9010E-03     37.5211E-03    -13.6200E-03     133.378E-03    -24.9439E-03     38.6168E-03    -13.7433E-03     133.291E-03
            2004     15.0970E-03     23.5283E-03    -988.343E+03     14.1191E+06    -4.26853E+06    -24.6222E+06    -20.1599E-03     33.5348E-03    -13.3749E-03     76.6730E-03    -20.3334E-03     33.7672E-03    -13.4153E-03     76.3079E-03
            2005     14.2106E-03     23.4710E-03    -291.953E+03     16.0781E+06     1.61581E+06    -17.2142E+06    -18.0272E-03     31.1393E-03    -13.1121E-03     52.8908E-03    -18.1039E-03     31.2674E-03    -13.1269E-03     52.6301E-03
            2006     13.3277E-03     23.4259E-03     2.98114E+06     7.06840E+06     7.37963E+06    -6.06214E+06    -17.5513E-03     30.4298E-03    -12.8785E-03     47.6416E-03    -17.5853E-03     30.4781E-03    -12.8561E-03     47.5338E-03
            2007     12.4419E-03     23.3796E-03     6.26120E+06    -5.15853E+06     12.4681E+06     2.17015E+06    -16.8889E-03     29.5305E-03    -12.6416E-03     41.6416E-03    -16.8835E-03     29.4928E-03    -12.5809E-03     41.6491E-03
            2008     11.5574E-03     23.3434E-03     8.34511E+06    -19.6895E+06     12.7811E+06     5.95906E+06    -16.0981E-03     28.4902E-03    -12.3921E-03     34.7429E-03    -16.0547E-03     28.3695E-03    -12.3117E-03     34.8056E-03
            2009     10.6703E-03     23.3107E-03     11.0298E+06    -28.6635E+06     15.0275E+06     8.11043E+06    -15.3313E-03     27.4883E-03    -12.1570E-03     30.0581E-03    -15.2612E-03     27.3121E-03    -12.0563E-03     30.1530E-03
            2010     9.78417E-03     23.2831E-03     11.3528E+06    -38.1012E+06     16.3898E+06     8.24803E+06    -14.5776E-03     26.5172E-03    -11.9397E-03     25.6634E-03    -14.4922E-03     26.2894E-03    -11.8189E-03     25.7631E-03
            2011     8.89615E-03     23.2592E-03     9.89693E+06    -42.8865E+06     18.1039E+06     8.20592E+06    -13.7980E-03     25.5424E-03    -11.7444E-03     21.7469E-03    -13.7143E-03     25.2891E-03    -11.6060E-03     21.8479E-03
            2012     8.00830E-03     23.2388E-03      9.4233E+06    -45.2152E+06     19.7846E+06     7.81601E+06    -13.2070E-03     24.7745E-03    -11.5675E-03     18.2446E-03    -13.1240E-03     24.5071E-03    -11.4167E-03     18.3418E-03
            2013     7.11944E-03     23.2219E-03     8.15765E+06    -46.1835E+06     16.5804E+06     6.82462E+06    -12.6918E-03     24.0751E-03    -11.3833E-03     15.3123E-03    -12.6087E-03     23.8089E-03    -11.2452E-03     15.3977E-03
            2014     6.23068E-03     23.2072E-03     6.94306E+06    -47.4603E+06     14.0447E+06     6.26242E+06    -12.2457E-03     23.4649E-03    -11.2191E-03     12.7612E-03    -12.1629E-03     23.1975E-03    -11.0902E-03     12.8400E-03
            2015     5.34115E-03     23.1953E-03     5.62752E+06    -49.2565E+06     11.1527E+06     6.06167E+06    -11.8662E-03     22.9346E-03    -11.0684E-03     10.4563E-03    -11.7830E-03     22.6642E-03    -10.9494E-03     10.5330E-03
            2016     4.45173E-03     23.1852E-03     4.33376E+06    -49.9291E+06     8.29009E+06     5.51406E+06    -11.4930E-03     22.4261E-03    -10.9331E-03     8.38608E-03    -11.4110E-03     22.1582E-03    -10.8255E-03     8.45612E-03
            2017     3.56162E-03     23.1776E-03     2.46266E+06    -50.2170E+06     6.54813E+06     4.66455E+06    -11.1562E-03     21.9840E-03    -10.8278E-03     6.52830E-03    -11.0805E-03     21.7198E-03    -10.7258E-03     6.58772E-03
            2018     2.67148E-03     23.1714E-03     600.241E+03    -50.9182E+06     4.77675E+06     3.48780E+06    -10.9146E-03     21.6631E-03    -10.7486E-03     4.79761E-03    -10.8444E-03     21.4006E-03    -10.6517E-03     4.84212E-03
            2019     1.78102E-03     23.1675E-03    -942.963E+03    -51.1813E+06     2.84449E+06     2.48676E+06    -10.7407E-03     21.4340E-03    -10.6933E-03     3.15331E-03    -10.6747E-03     21.1752E-03    -10.6035E-03     3.18522E-03
            2020     890.624E-06     23.1647E-03    -1.80608E+06    -48.4409E+06    -1.34229E+06     1.29151E+06    -10.6354E-03     21.3051E-03    -10.6697E-03     1.65746E-03    -10.5699E-03     21.0700E-03    -10.6036E-03     1.67411E-03
            2021     16.8639E-03     22.8007E-03     12.1310E+06     95.8479E+06     26.3402E+06    -39.6555E+03    -33.2959E-03     47.2018E-03    -13.9059E-03     253.984E-03    -41.3035E-03     55.5165E-03    -13.9308E-03     258.946E-03
            2022     15.9858E-03     22.6353E-03     3.67483E+06     21.2887E+06    -15.4981E+06    -17.8609E+06    -23.0952E-03     36.5588E-03    -13.4635E-03     130.185E-03    -24.0468E-03     37.6439E-03    -13.5772E-03     130.145E-03
            2023     15.0972E-03     22.5471E-03    -8.79641E+06     6.65299E+06    -11.3783E+06    -25.6670E+06    -19.7379E-03     32.9509E-03    -13.2130E-03     72.1539E-03    -19.9217E-03     33.1600E-03    -13.2668E-03     71.7744E-03
            2024     14.2159E-03     22.4953E-03    -8.62725E+06     4.96697E+06    -7.08978E+06    -19.3542E+06    -18.0948E-03     31.0360E-03    -12.9412E-03     51.1612E-03    -18.1831E-03     31.1319E-03    -12.9713E-03     50.8725E-03
            2025     13.3292E-03     22.4479E-03    -7.49482E+06    -5.79576E+06    -4.48328E+06    -10.3512E+06    -17.5575E-03     30.2385E-03    -12.6810E-03     46.4684E-03    -17.6071E-03     30.2539E-03    -12.6842E-03     46.3055E-03
            2026     12.4458E-03     22.4038E-03    -4.27403E+06    -11.3314E+06     3.15316E+06    -2.52317E+06    -16.8376E-03     29.2707E-03    -12.4331E-03     40.5512E-03    -16.8617E-03     29.2302E-03    -12.3947E-03     40.4987E-03
            2027     11.5588E-03     22.3684E-03    -975.106E+03    -22.9176E+06     5.37161E+06     2.61204E+06    -15.8945E-03     28.0734E-03    -12.1790E-03     33.9735E-03    -15.8817E-03     27.9603E-03    -12.1175E-03     33.9938E-03
            2028     10.6732E-03     22.3366E-03     914.348E+03    -29.5848E+06     8.14634E+06     4.80331E+06    -15.1081E-03     27.0501E-03    -11.9420E-03     29.3718E-03    -15.0770E-03     26.8936E-03    -11.8597E-03     29.4246E-03
            2029     9.78544E-03     22.3100E-03     3.31698E+06    -38.1178E+06     10.4205E+06     6.88435E+06    -14.3811E-03     26.1031E-03    -11.7220E-03     24.9112E-03    -14.3270E-03     25.8952E-03    -11.6194E-03     24.9936E-03
            2030     8.89831E-03     22.2869E-03     5.35284E+06    -41.6736E+06     13.0477E+06     7.09471E+06    -13.6850E-03     25.2014E-03    -11.5164E-03     21.0300E-03    -13.6183E-03     24.9680E-03    -11.3985E-03     21.1169E-03
            2031     8.00969E-03     22.2676E-03     6.01573E+06    -43.5548E+06     15.5709E+06     6.46106E+06    -13.0356E-03     24.3676E-03    -11.3320E-03     17.6315E-03    -12.9659E-03     24.1195E-03    -11.1997E-03     17.7115E-03
            2032     7.12130E-03     22.2508E-03     6.58715E+06    -45.0534E+06     16.1405E+06     6.47365E+06    -12.5234E-03     23.6802E-03    -11.1567E-03     14.6838E-03    -12.4492E-03     23.4226E-03    -11.0203E-03     14.7647E-03
            2033     6.23196E-03     22.2372E-03     5.63488E+06    -46.0852E+06     14.1412E+06     6.51073E+06    -12.0368E-03     23.0244E-03    -10.9877E-03     12.2374E-03    -11.9626E-03     22.7657E-03    -10.8583E-03     12.3195E-03
            2034     5.34264E-03     22.2253E-03     4.63955E+06    -47.8192E+06     11.8228E+06     6.02123E+06    -11.5967E-03     22.4358E-03    -10.8391E-03     10.0356E-03    -11.5215E-03     22.1730E-03    -10.7174E-03     10.1119E-03
            2035     4.45258E-03     22.2162E-03     3.74790E+06    -48.0651E+06     8.68552E+06     5.65944E+06    -11.2194E-03     21.9269E-03    -10.7075E-03     8.06540E-03    -11.1436E-03     21.6686E-03    -10.5998E-03     8.13738E-03
            2036     3.56250E-03     22.2086E-03     3.35807E+06    -47.6474E+06     6.96323E+06     4.87069E+06    -10.9161E-03     21.5218E-03    -10.6057E-03     6.30301E-03    -10.8402E-03     21.2686E-03    -10.5067E-03     6.36512E-03
            2037     2.67196E-03     22.2031E-03     2.83920E+06    -48.3935E+06     5.40979E+06     3.68620E+06    -10.6907E-03     21.2217E-03    -10.5310E-03     4.62796E-03    -10.6140E-03     20.9676E-03    -10.4379E-03     4.67505E-03
            2038     1.78147E-03     22.1990E-03     1.82153E+06    -48.5330E+06     4.47240E+06     2.37540E+06    -10.5421E-03     21.0228E-03    -10.4807E-03     3.05756E-03    -10.4686E-03     20.7709E-03    -10.3906E-03     3.08793E-03
            2039     890.645E-06     22.1968E-03    -347.559E+03    -45.8969E+06     2.37973E+06     1.35061E+06    -10.5070E-03     20.8867E-03    -10.3797E-03     1.65462E-03    -10.4435E-03     20.6568E-03    -10.3008E-03     1.67227E-03
            2040     16.8682E-03     21.8175E-03    -4.12281E+06     98.0006E+06     10.7335E+06    -6.12160E+06    -33.9117E-03     47.6691E-03    -13.7574E-03     251.053E-03    -41.7982E-03     55.8579E-03    -13.8399E-03     255.812E-03
            2041     15.9822E-03     21.6569E-03     924.162E+03     38.4943E+06    -16.2931E+06    -9.05349E+06    -23.7036E-03     37.0027E-03    -13.2991E-03     132.339E-03    -24.6699E-03     38.1563E-03    -13.4377E-03     132.397E-03
            2042     15.1030E-03     21.5688E-03     347.107E+03     8.50206E+06    -12.6728E+06    -17.8895E+06    -19.4389E-03     32.4815E-03    -13.0426E-03     73.3407E-03    -19.5679E-03     32.6786E-03    -13.1188E-03     73.0646E-03
            2043     14.2156E-03     21.5187E-03    -6.54035E+06    -6.46623E+06    -10.9797E+06    -18.1857E+06    -18.2195E-03     31.0077E-03    -12.7882E-03     51.5209E-03    -18.2733E-03     31.0472E-03    -12.8243E-03     51.2480E-03
            2044     13.3332E-03     21.4705E-03    -7.49922E+06    -13.9667E+06    -8.18284E+06    -11.5918E+06    -17.6087E-03     30.1228E-03    -12.5141E-03     46.5856E-03    -17.6395E-03     30.1012E-03    -12.5239E-03     46.4079E-03
            2045     12.4463E-03     21.4290E-03    -7.49730E+06    -19.2601E+06    -2.01882E+06    -5.67663E+06    -16.7119E-03     28.9668E-03    -12.2549E-03     39.8529E-03    -16.7320E-03     28.8978E-03    -12.2262E-03     39.7608E-03
            2046     11.5617E-03     21.3931E-03    -5.32163E+06    -25.7786E+06     1.12226E+06    -1.53707E+06    -15.8162E-03     27.8094E-03    -11.9932E-03     33.2286E-03    -15.8143E-03     27.6939E-03    -11.9425E-03     33.1960E-03
            2047     10.6744E-03     21.3637E-03    -1.95996E+06    -32.5398E+06     4.68884E+06     1.74923E+06    -14.9729E-03     26.7237E-03    -11.7508E-03     28.4320E-03    -14.9465E-03     26.5613E-03    -11.6773E-03     28.4458E-03
            2048     9.78779E-03     21.3368E-03     126.550E+03    -38.6420E+06     7.87687E+06     3.49484E+06    -14.2229E-03     25.7501E-03    -11.5272E-03     24.1244E-03    -14.1801E-03     25.5478E-03    -11.4320E-03     24.1634E-03
            2049     8.89968E-03     21.3153E-03     2.10783E+06    -41.2886E+06     9.43732E+06     4.41141E+06    -13.5733E-03     24.8809E-03    -11.3076E-03     20.2170E-03    -13.5181E-03     24.6592E-03    -11.2036E-03     20.2695E-03
            2050     8.01175E-03     21.2961E-03     3.72181E+06    -42.4222E+06     11.6123E+06     4.65131E+06    -12.9064E-03     24.0153E-03    -11.1089E-03     16.9829E-03    -12.8440E-03     23.7818E-03    -10.9947E-03     17.0397E-03
            2051     7.12261E-03     21.2807E-03     3.81496E+06    -45.2988E+06     13.0593E+06     5.10996E+06    -12.3171E-03     23.2518E-03    -10.9347E-03     14.1876E-03    -12.2518E-03     23.0014E-03    -10.8092E-03     14.2511E-03
            2052     6.23352E-03     21.2671E-03     3.94711E+06    -45.0991E+06     13.0868E+06     6.02137E+06    -11.8011E-03     22.5734E-03    -10.7723E-03     11.7719E-03    -11.7353E-03     22.3235E-03    -10.6472E-03     11.8478E-03
            2053     5.34357E-03     21.2564E-03     3.10473E+06    -45.7901E+06     10.6277E+06     5.80903E+06    -11.3262E-03     21.9529E-03    -10.6267E-03     9.65953E-03    -11.2598E-03     21.7042E-03    -10.5117E-03     9.73317E-03
            2054     4.45352E-03     21.2472E-03     2.58590E+06    -46.3480E+06     8.25689E+06     4.81762E+06    -10.9766E-03     21.4837E-03    -10.5070E-03     7.75361E-03    -10.9085E-03     21.2362E-03    -10.4023E-03     7.81476E-03
            2055     3.56305E-03     21.2404E-03     2.60135E+06    -45.4888E+06     6.23327E+06     4.04485E+06    -10.7046E-03     21.1123E-03    -10.4077E-03     6.02241E-03    -10.6345E-03     20.8720E-03    -10.3144E-03     6.07387E-03
            2056     2.67255E-03     21.2348E-03     2.47564E+06    -46.1472E+06     5.11599E+06     3.40300E+06    -10.4876E-03     20.8251E-03    -10.3375E-03     4.42983E-03    -10.4155E-03     20.5832E-03    -10.2486E-03     4.47323E-03
            2057     1.78168E-03     21.2312E-03     1.32623E+06    -45.4915E+06     4.48624E+06     2.44837E+06    -10.3483E-03     20.6372E-03    -10.2889E-03     2.94628E-03    -10.2816E-03     20.4012E-03    -10.2024E-03     2.97746E-03
            2058     891.011E-06     21.2286E-03    -322.535E+03    -43.8816E+06     1.68826E+06     971.031E+03    -10.3048E-03     20.5015E-03    -10.1967E-03     1.61853E-03    -10.2430E-03     20.2826E-03    -10.1242E-03     1.63082E-03
            2059     16.8621E-03     20.8333E-03    -488.223E+03     104.063E+06     10.0548E+06    -7.11375E+06    -33.5809E-03     47.2960E-03    -13.7151E-03     249.765E-03    -41.2910E-03     55.3446E-03    -13.8150E-03     254.403E-03
            2060     15.9867E-03     20.6759E-03    -2.70346E+06     42.1897E+06    -25.3476E+06    -13.3604E+06    -24.2951E-03     37.5110E-03    -13.2159E-03     128.360E-03    -25.2248E-03     38.6545E-03    -13.3999E-03     128.328E-03
            2061     15.0996E-03     20.5916E-03    -1.30593E+06     12.1490E+06    -20.2102E+06    -13.5093E+06    -19.8718E-03     32.7947E-03    -12.9228E-03     71.8379E-03    -19.9945E-03     33.0145E-03    -13.0396E-03     71.6161E-03
            2062     14.2189E-03     20.5399E-03    -1.59009E+06    -11.6569E+06    -14.3474E+06    -13.0098E+06    -18.5598E-03     31.2223E-03    -12.6625E-03     50.6442E-03    -18.5745E-03     31.2316E-03    -12.7150E-03     50.4380E-03
            2063     13.3328E-03     20.4948E-03    -5.79089E+06    -21.0720E+06    -12.2025E+06    -9.91886E+06    -17.7840E-03     30.1528E-03    -12.3688E-03     45.2546E-03    -17.7889E-03     30.0977E-03    -12.3908E-03     45.0990E-03
            2064     12.4495E-03     20.4524E-03    -6.00906E+06    -23.0674E+06    -4.89383E+06    -6.91614E+06    -16.7162E-03     28.8110E-03    -12.0949E-03     38.7200E-03    -16.7182E-03     28.7241E-03    -12.0772E-03     38.6127E-03
            2065     11.5627E-03     20.4196E-03    -4.95415E+06    -30.0255E+06    -2.11464E+06    -4.51431E+06    -15.7725E-03     27.5959E-03    -11.8234E-03     32.2929E-03    -15.7575E-03     27.4628E-03    -11.7832E-03     32.2224E-03
            2066     10.6770E-03     20.3894E-03    -4.00682E+06    -36.1387E+06     693.000E+03    -993.825E+03    -14.8980E-03     26.4689E-03    -11.5709E-03     27.5937E-03    -14.8706E-03     26.2969E-03    -11.5092E-03     27.5725E-03
            2067     9.78918E-03     20.3652E-03    -2.83387E+06    -39.2357E+06     3.87496E+06     1.27309E+06    -14.0929E-03     25.4300E-03    -11.3371E-03     23.4433E-03    -14.0581E-03     25.2346E-03    -11.2567E-03     23.4539E-03
            2068     8.90160E-03     20.3429E-03    -1.80232E+06    -41.7112E+06     4.48585E+06     1.74840E+06    -13.3951E-03     24.5053E-03    -11.1101E-03     19.6111E-03    -13.3515E-03     24.2942E-03    -11.0246E-03     19.6296E-03
            2069     8.01296E-03     20.3259E-03    -1.34413E+06    -43.1129E+06     6.01758E+06      3.2235E+06    -12.7344E-03     23.6420E-03    -10.9076E-03     16.3859E-03    -12.6882E-03     23.4205E-03    -10.8130E-03     16.4245E-03
            2070     7.12412E-03     20.3102E-03    -1.19691E+06    -44.8945E+06     6.82393E+06     3.96560E+06    -12.1127E-03     22.8397E-03    -10.7269E-03     13.7382E-03    -12.0640E-03     22.6075E-03    -10.6260E-03     13.7871E-03
            2071     6.23446E-03     20.2981E-03    -1.00947E+06    -45.2591E+06     6.95984E+06     4.15492E+06    -11.5794E-03     22.1469E-03    -10.5675E-03     11.3238E-03    -11.5292E-03     21.9122E-03    -10.4656E-03     11.3757E-03
            2072     5.34461E-03     20.2873E-03     20.8448E+03    -44.1393E+06     7.56389E+06     4.63625E+06    -11.1392E-03     21.5719E-03    -10.4327E-03     9.24299E-03    -11.0861E-03     21.3403E-03    -10.3309E-03     9.30159E-03
            2073     4.45427E-03     20.2791E-03         690.375    -44.3142E+06     6.31652E+06     4.03394E+06    -10.7802E-03     21.0969E-03    -10.3167E-03     7.39972E-03    -10.7251E-03     20.8661E-03    -10.2208E-03     7.45084E-03
            2074     3.56380E-03     20.2721E-03    -1.00873E+06    -44.0444E+06     4.34935E+06     3.34597E+06    -10.4952E-03     20.7166E-03    -10.2214E-03     5.72644E-03    -10.4425E-03     20.4914E-03    -10.1343E-03     5.76895E-03
            2075     2.67293E-03     20.2673E-03    -2.30420E+06    -44.5043E+06     2.21209E+06     3.07862E+06    -10.2920E-03     20.4397E-03    -10.1477E-03     4.20794E-03    -10.2420E-03     20.2172E-03    -10.0688E-03     4.24719E-03
            2076     1.78213E-03     20.2633E-03    -4.17010E+06    -42.7403E+06     957.404E+03     2.28790E+06    -10.1296E-03     20.2276E-03    -10.0980E-03     2.80690E-03    -10.0892E-03     20.0184E-03    -10.0252E-03     2.83605E-03
            2077     890.956E-06     20.2615E-03    -6.78224E+06    -41.5220E+06    -3.98261E+06     984.366E+03    -10.0424E-03     20.1046E-03    -10.0623E-03     1.54167E-03    -10.0080E-03     19.9153E-03    -10.0122E-03     1.55417E-03
            2078     16.8689E-03     19.8481E-03    -3.45175E+06     111.812E+06     15.1758E+06    -5.09427E+06    -35.1286E-03     48.8534E-03    -13.7248E-03     248.391E-03    -42.9047E-03     56.9701E-03    -13.8060E-03     252.855E-03
            2079     15.9840E-03     19.6959E-03    -4.57595E+06     46.6305E+06    -26.5201E+06    -11.5033E+06    -24.8488E-03     37.9811E-03    -13.1323E-03     122.924E-03    -25.7093E-03     39.0681E-03    -13.3259E-03     122.863E-03
            2080     15.1056E-03     19.6127E-03    -5.10717E+06     10.1945E+06    -25.3153E+06    -13.4496E+06    -19.8895E-03     32.6891E-03    -12.7995E-03     70.0837E-03    -20.0115E-03     32.9025E-03    -12.9335E-03     69.8632E-03
            2081     14.2187E-03     19.5628E-03    -6.58158E+06    -16.0362E+06    -20.2028E+06    -9.73313E+06    -18.7669E-03     31.2901E-03    -12.5232E-03     49.3391E-03    -18.7902E-03     31.2917E-03    -12.5915E-03     49.1752E-03
            2082     13.3369E-03     19.5172E-03    -5.95838E+06    -23.1495E+06    -15.2452E+06    -7.97531E+06    -17.6867E-03     29.9062E-03    -12.2195E-03     43.6686E-03    -17.6835E-03     29.8439E-03    -12.2535E-03     43.5390E-03
            2083     12.4501E-03     19.4783E-03    -6.00551E+06    -25.0836E+06    -10.3044E+06    -8.14635E+06    -16.5652E-03     28.4965E-03    -11.9313E-03     37.8505E-03    -16.5557E-03     28.4066E-03    -11.9378E-03     37.7282E-03
            2084     11.5652E-03     19.4443E-03    -5.57996E+06    -35.3085E+06    -6.03241E+06    -4.97279E+06    -15.6944E-03     27.3650E-03    -11.6706E-03     31.4038E-03    -15.6688E-03     27.2118E-03    -11.6415E-03     31.3279E-03
            2085     10.6778E-03     19.4172E-03    -5.92785E+06    -38.7529E+06    -3.81305E+06    -1.71590E+06    -14.8223E-03     26.2294E-03    -11.4071E-03     26.7491E-03    -14.7939E-03     26.0535E-03    -11.3614E-03     26.7190E-03
            2086     9.79099E-03     19.3921E-03    -5.56924E+06    -40.4240E+06    -1.03009E+06    -686.659E+03    -13.9840E-03     25.1484E-03    -11.1643E-03     22.6585E-03    -13.9539E-03     24.9580E-03    -11.1028E-03     22.6441E-03
            2087     8.90276E-03     19.3725E-03    -5.19079E+06    -42.5378E+06     236.941E+03     830.909E+03    -13.2114E-03     24.1505E-03    -10.9390E-03     18.9317E-03    -13.1773E-03     23.9462E-03    -10.8686E-03     18.9386E-03
            2088     8.01428E-03     19.3548E-03    -4.85357E+06    -44.3593E+06     1.51903E+06     1.64184E+06    -12.5687E-03     23.3051E-03    -10.7364E-03     15.7502E-03    -12.5316E-03     23.0889E-03    -10.6574E-03     15.7685E-03
            2089     7.12509E-03     19.3410E-03    -4.04915E+06    -44.6819E+06     3.70831E+06     2.50096E+06    -11.9660E-03     22.5237E-03    -10.5578E-03     13.1041E-03    -11.9272E-03     22.3013E-03    -10.4686E-03     13.1343E-03
            2090     6.23550E-03     19.3286E-03    -3.61014E+06    -44.8833E+06     3.41330E+06     2.61376E+06    -11.4297E-03     21.8222E-03    -10.3924E-03     10.7998E-03    -11.3879E-03     21.5982E-03    -10.3050E-03     10.8320E-03
            2091     5.34545E-03     19.3191E-03    -3.75189E+06    -43.9137E+06     3.67326E+06     2.66882E+06    -10.9882E-03     21.2420E-03    -10.2538E-03     8.80390E-03    -10.9487E-03     21.0226E-03    -10.1663E-03     8.83719E-03
            2092     4.45509E-03     19.3107E-03    -3.69327E+06    -42.8833E+06     3.56498E+06     3.06663E+06    -10.6093E-03     20.7469E-03    -10.1376E-03     7.03669E-03    -10.5707E-03     20.5327E-03    -10.0522E-03     7.07543E-03
            2093     3.56430E-03     19.3047E-03    -4.38411E+06    -43.1343E+06     1.83626E+06     3.04142E+06    -10.3214E-03     20.3620E-03    -10.0406E-03     5.43644E-03    -10.2834E-03     20.1500E-03    -9.96252E-03     5.47509E-03
            2094     2.67349E-03     19.2995E-03    -5.46737E+06    -42.6562E+06    -305.952E+03     2.63222E+06    -10.1130E-03     20.0746E-03    -9.96157E-03     3.98664E-03    -10.0778E-03     19.8695E-03    -9.89332E-03     4.02019E-03
            2095     1.78235E-03     19.2964E-03    -6.74539E+06    -40.5673E+06    -2.08902E+06     1.82702E+06    -9.94811E-03     19.8514E-03    -9.90333E-03     2.62249E-03    -9.91938E-03     19.6612E-03    -9.84517E-03     2.64588E-03
            2096     891.232E-06     19.2940E-03    -8.53746E+06    -39.4924E+06    -6.13932E+06     855.614E+03    -9.86262E-03     19.7196E-03    -9.85697E-03     1.44719E-03    -9.83672E-03     19.5463E-03    -9.81803E-03     1.45829E-03
            2097     16.8611E-03     18.8552E-03     498.427E+03     119.324E+06     18.9342E+06    -4.08631E+06    -35.4868E-03     49.1126E-03    -13.6258E-03     242.480E-03    -43.0865E-03     57.0830E-03    -13.7048E-03     246.614E-03
            2098     15.9915E-03     18.7163E-03    -3.03089E+06     52.2581E+06    -23.4680E+06    -7.62591E+06    -23.6426E-03     36.6793E-03    -13.0366E-03     118.101E-03    -24.4236E-03     37.7029E-03    -13.2254E-03     118.107E-03
            2099     15.1028E-03     18.6356E-03    -8.46546E+06     7.01406E+06    -28.7445E+06    -9.63824E+06    -20.2133E-03     32.9143E-03    -12.7010E-03     70.5638E-03    -20.3442E-03     33.1234E-03    -12.8427E-03     70.3919E-03
            2100     14.2231E-03     18.5831E-03    -8.77451E+06    -18.3952E+06    -23.3202E+06    -9.39966E+06    -18.7814E-03     31.1892E-03    -12.4077E-03     48.6987E-03    -18.8059E-03     31.1849E-03    -12.4849E-03     48.5398E-03
            2101     13.3366E-03     18.5428E-03    -7.78516E+06    -23.8226E+06    -17.8879E+06    -8.98205E+06    -17.5227E-03     29.6231E-03    -12.1005E-03     43.1175E-03    -17.5226E-03     29.5627E-03    -12.1441E-03     42.9760E-03
            2102     12.4526E-03     18.5019E-03    -6.60170E+06    -27.4373E+06    -11.8031E+06    -7.48259E+06    -16.5642E-03     28.3799E-03    -11.8157E-03     37.1750E-03    -16.5516E-03     28.2808E-03    -11.8254E-03     37.0617E-03
            2103     11.5658E-03     18.4714E-03    -6.94722E+06    -39.8545E+06    -8.93013E+06    -5.18649E+06    -15.6619E-03     27.2062E-03    -11.5443E-03     30.5329E-03    -15.6320E-03     27.0360E-03    -11.5211E-03     30.4547E-03
            2104     10.6799E-03     18.4432E-03    -5.40128E+06    -40.9894E+06    -4.78610E+06    -2.89890E+06    -14.7834E-03     26.0601E-03    -11.2768E-03     25.8338E-03    -14.7474E-03     25.8734E-03    -11.2334E-03     25.7887E-03
            2105     9.79210E-03     18.4210E-03    -4.88735E+06    -41.7115E+06    -1.35049E+06    -939.447E+03    -13.8991E-03     24.9284E-03    -11.0293E-03     21.7636E-03    -13.8631E-03     24.7309E-03    -10.9685E-03     21.7462E-03
            2106     8.90411E-03     18.4009E-03    -5.18167E+06    -44.0381E+06    -662.803E+03      7.8665E+03    -13.1340E-03     23.9306E-03    -10.7966E-03     18.0969E-03    -13.0963E-03     23.7201E-03    -10.7286E-03     18.0933E-03
            2107     8.01534E-03     18.3852E-03    -4.97112E+06    -44.3047E+06     302.805E+03     676.763E+03    -12.4444E-03     23.0299E-03    -10.5855E-03     14.9388E-03    -12.4061E-03     22.8159E-03    -10.5126E-03     14.9449E-03
            2108     7.12615E-03     18.3711E-03    -5.05645E+06    -45.5674E+06     2.50161E+06     912.856E+03    -11.8436E-03     22.2497E-03    -10.4061E-03     12.3548E-03    -11.8068E-03     22.0260E-03    -10.3202E-03     12.3646E-03
            2109     6.23645E-03     18.3603E-03    -5.30890E+06    -44.5167E+06     2.71044E+06     1.78328E+06    -11.3058E-03     21.5433E-03    -10.2375E-03     10.1552E-03    -11.2719E-03     21.3247E-03    -10.1517E-03     10.1767E-03
            2110     5.34626E-03     18.3505E-03    -5.66032E+06    -43.3932E+06     993.709E+03     1.58872E+06    -10.8443E-03     20.9285E-03    -10.0843E-03     8.26794E-03    -10.8112E-03     20.7184E-03    -10.0082E-03     8.28737E-03
            2111     4.45572E-03     18.3433E-03    -5.96874E+06    -42.9888E+06     499.324E+03     1.56405E+06    -10.4808E-03     20.4420E-03    -9.96118E-03     6.57227E-03    -10.4490E-03     20.2349E-03    -9.88769E-03     6.59167E-03
            2112     3.56498E-03     18.3370E-03    -5.91016E+06    -42.3668E+06    -311.248E+03     2.08860E+06    -10.1784E-03     20.0357E-03    -9.85730E-03     5.05010E-03    -10.1460E-03     19.8328E-03    -9.78885E-03     5.07651E-03
            2113     2.67387E-03     18.3327E-03    -6.21834E+06    -40.8330E+06    -1.69747E+06     1.70213E+06    -9.93593E-03     19.7094E-03    -9.77346E-03     3.69881E-03    -9.90507E-03     19.5165E-03    -9.71372E-03     3.72045E-03
            2114     1.78273E-03     18.3292E-03    -7.40321E+06    -39.5357E+06    -3.65276E+06     1.31368E+06    -9.78528E-03     19.4925E-03    -9.70719E-03     2.45200E-03    -9.75910E-03     19.3107E-03    -9.65739E-03     2.46882E-03
            2115     891.413E-06     18.3276E-03    -9.15737E+06    -37.4328E+06    -7.97419E+06     1.58741E+06    -9.71168E-03     19.3155E-03    -9.60380E-03     1.32723E-03    -9.68911E-03     19.1561E-03    -9.57612E-03     1.34795E-03
            2116     16.8813E-03     17.8756E-03    -1.61066E+06     119.962E+06     16.3773E+06    -2.16738E+06    -33.5527E-03     47.0850E-03    -13.5323E-03     238.385E-03    -40.5960E-03     54.5020E-03    -13.6220E-03     242.252E-03
            2117     15.9839E-03     17.7396E-03    -6.09625E+06     55.2470E+06    -22.9528E+06    -2.34442E+06    -22.6609E-03     35.6845E-03    -13.0236E-03     121.938E-03    -23.4593E-03     36.7235E-03    -13.2096E-03     122.047E-03
            2118     15.1075E-03     17.6527E-03    -7.90611E+06     11.6530E+06    -26.6075E+06    -5.73040E+06    -21.3358E-03     34.0248E-03    -12.6890E-03     69.4757E-03    -21.4765E-03     34.2562E-03    -12.8275E-03     69.3468E-03
            2119     14.2214E-03     17.6086E-03    -8.90840E+06    -18.4790E+06    -23.5974E+06    -9.34807E+06    -18.7269E-03     31.0837E-03    -12.3568E-03     47.9121E-03    -18.7487E-03     31.0767E-03    -12.4350E-03     47.7552E-03
            2120     13.3385E-03     17.5644E-03    -8.26113E+06    -25.8310E+06    -17.5664E+06     -9.3387E+06    -17.7478E-03     29.7933E-03    -12.0455E-03     42.4966E-03    -17.7471E-03     29.7225E-03    -12.0839E-03     42.3504E-03
            2121     12.4528E-03     17.5284E-03    -8.18911E+06    -30.6673E+06    -13.8905E+06    -7.22581E+06    -16.7556E-03     28.4875E-03    -11.7320E-03     36.2173E-03    -16.7427E-03     28.3770E-03    -11.7451E-03     36.1075E-03
            2122     11.5676E-03     17.4962E-03    -6.83579E+06    -41.4879E+06    -10.6385E+06     -6.0704E+06    -15.7306E-03     27.1714E-03    -11.4407E-03     29.6664E-03    -15.6949E-03     26.9949E-03    -11.4239E-03     29.5772E-03
            2123     10.6805E-03     17.4713E-03    -6.21857E+06    -44.7647E+06    -6.46219E+06    -4.16144E+06    -14.7815E-03     25.9479E-03    -11.1664E-03     24.8926E-03    -14.7415E-03     25.7457E-03    -11.1248E-03     24.8315E-03
            2124     9.79328E-03     17.4486E-03    -5.54985E+06    -43.5367E+06    -1.90046E+06    -1.42585E+06    -13.9192E-03     24.8292E-03    -10.9100E-03     20.8088E-03    -13.8829E-03     24.6241E-03    -10.8483E-03     20.7854E-03
            2125     8.90527E-03     17.4306E-03    -5.02224E+06    -44.4229E+06    -1.15392E+06    -512.622E+03    -13.1242E-03     23.7852E-03    -10.6610E-03     17.1329E-03    -13.0844E-03     23.5732E-03    -10.5950E-03     17.1226E-03
            2126     8.01659E-03     17.4148E-03    -4.83270E+06    -44.9079E+06    -606.271E+03    -301.568E+03    -12.3733E-03     22.8106E-03    -10.4374E-03     14.0448E-03    -12.3321E-03     22.5947E-03    -10.3683E-03     14.0383E-03
            2127     7.12723E-03     17.4023E-03    -4.87005E+06    -46.0346E+06     1.31242E+06     568.232E+03    -11.7320E-03     21.9815E-03    -10.2495E-03     11.5659E-03    -11.6918E-03     21.7568E-03    -10.1691E-03     11.5713E-03
            2128     6.23738E-03     17.3914E-03    -5.56611E+06    -45.1369E+06     2.37989E+06     993.143E+03    -11.2048E-03     21.2839E-03    -10.0791E-03     9.41524E-03    -11.1708E-03     21.0630E-03    -9.99368E-03     9.42668E-03
            2129     5.34717E-03     17.3830E-03    -6.35334E+06    -42.3925E+06     198.278E+03     1.28742E+06    -10.7364E-03     20.6484E-03    -9.91192E-03     7.58796E-03    -10.7071E-03     20.4454E-03    -9.84025E-03     7.60355E-03
            2130     4.45655E-03     17.3755E-03    -7.36804E+06    -42.8779E+06    -1.83129E+06     744.607E+03    -10.3452E-03     20.1183E-03    -9.77309E-03     6.01976E-03    -10.3172E-03     19.9172E-03    -9.70939E-03     6.02862E-03
            2131     3.56563E-03     17.3702E-03    -8.11959E+06    -42.1990E+06    -2.68858E+06     635.191E+03    -10.0218E-03     19.6820E-03    -9.66016E-03     4.60375E-03    -9.99719E-03     19.4865E-03    -9.60064E-03     4.61144E-03
            2132     2.67448E-03     17.3657E-03    -8.62645E+06    -40.0317E+06    -3.86013E+06     851.993E+03    -9.75494E-03     19.3220E-03    -9.56708E-03     3.36233E-03    -9.73412E-03     19.1397E-03    -9.51583E-03     3.37304E-03
            2133     1.78302E-03     17.3629E-03    -9.94930E+06    -39.1274E+06    -5.63888E+06     1.00739E+06    -9.57241E-03     19.0702E-03    -9.49775E-03     2.22243E-03    -9.55660E-03     18.8969E-03    -9.45478E-03     2.23526E-03
            2134     891.572E-06     17.3607E-03    -11.7186E+06    -35.3708E+06    -8.87717E+06     1.30103E+06    -9.48358E-03     18.8919E-03    -9.40832E-03     1.18606E-03    -9.47528E-03     18.7479E-03    -9.38443E-03     1.20300E-03
            2135     16.8612E-03     16.9130E-03    -4.05928E+06     121.111E+06     18.7493E+06    -514.242E+03    -32.5060E-03     46.1557E-03    -13.6496E-03     233.454E-03    -39.0661E-03     53.0778E-03    -13.7256E-03     237.533E-03
            2136     15.9858E-03     16.7470E-03    -2.91078E+06     63.4876E+06    -14.8020E+06     212.859E+03    -24.9383E-03     38.0417E-03    -13.1035E-03     122.441E-03    -25.7538E-03     39.1154E-03    -13.2653E-03     122.526E-03
            2137     15.1043E-03     16.6776E-03    -7.09979E+06     15.5418E+06    -23.2544E+06    -5.67530E+06    -21.3215E-03     34.0147E-03    -12.6932E-03     65.1008E-03    -21.4590E-03     34.2498E-03    -12.8217E-03     64.9718E-03
            2138     14.2228E-03     16.6281E-03    -6.11302E+06    -17.2737E+06    -21.1682E+06     -8.3981E+06    -19.0762E-03     31.4163E-03    -12.3401E-03     46.2921E-03    -19.0873E-03     31.4058E-03    -12.4120E-03     46.1472E-03
            2139     13.3382E-03     16.5899E-03    -6.09945E+06    -28.0034E+06    -17.1589E+06    -8.47550E+06    -17.9620E-03     29.9650E-03    -12.0030E-03     41.1128E-03    -17.9469E-03     29.8786E-03    -12.0394E-03     40.9779E-03
            2140     12.4539E-03     16.5515E-03    -5.50268E+06    -33.1009E+06    -13.3869E+06    -7.55648E+06    -16.9542E-03     28.6251E-03    -11.6710E-03     34.9070E-03    -16.9245E-03     28.4973E-03    -11.6819E-03     34.7931E-03
            2141     11.5681E-03     16.5235E-03    -5.84445E+06    -43.2948E+06    -10.3498E+06    -5.81071E+06    -15.8733E-03     27.2349E-03    -11.3616E-03     28.3751E-03    -15.8301E-03     27.0473E-03    -11.3421E-03     28.2893E-03
            2142     10.6817E-03     16.4977E-03    -6.41554E+06    -47.7647E+06    -6.55527E+06    -4.14174E+06    -14.9025E-03     25.9726E-03    -11.0701E-03     23.6711E-03    -14.8588E-03     25.7557E-03    -11.0243E-03     23.6104E-03
            2143     9.79451E-03     16.4774E-03    -6.14925E+06    -45.6994E+06    -2.56695E+06    -2.73819E+06    -13.9879E-03     24.7794E-03    -10.7915E-03     19.5837E-03    -13.9504E-03     24.5652E-03    -10.7291E-03     19.5434E-03
            2144     8.90640E-03     16.4593E-03    -5.21722E+06    -44.7781E+06    -1.51914E+06    -1.60598E+06    -13.1161E-03     23.6411E-03    -10.5249E-03     16.0133E-03    -13.0761E-03     23.4279E-03    -10.4600E-03     15.9890E-03
            2145     8.01772E-03     16.4454E-03    -4.92485E+06    -46.1143E+06    -1.46424E+06    -585.895E+03    -12.3496E-03     22.6355E-03    -10.2859E-03     13.0059E-03    -12.3058E-03     22.4148E-03    -10.2192E-03     12.9958E-03
            2146     7.12833E-03     16.4331E-03    -5.35781E+06    -46.5391E+06    -353.064E+03     112.746E+03    -11.6781E-03     21.7573E-03    -10.0792E-03     10.6289E-03    -11.6372E-03     21.5332E-03    -10.0057E-03     10.6286E-03
            2147     6.23848E-03     16.4234E-03    -5.48230E+06    -45.3713E+06     1.15964E+06     498.694E+03    -11.1063E-03     21.0034E-03    -9.89705E-03     8.57051E-03    -11.0697E-03     20.7829E-03    -9.81752E-03     8.57565E-03
            2148     5.34816E-03     16.4150E-03    -6.01760E+06    -42.5230E+06     505.074E+03     843.349E+03    -10.6208E-03     20.3460E-03    -9.72521E-03     6.84980E-03    -10.5899E-03     20.1414E-03    -9.65230E-03     6.85973E-03
            2149     4.45745E-03     16.4087E-03    -6.99500E+06    -41.7887E+06    -1.56172E+06     959.822E+03    -10.1897E-03     19.7634E-03    -9.57374E-03     5.40161E-03    -10.1617E-03     19.5668E-03    -9.51081E-03     5.41330E-03
            2150     3.56635E-03     16.4032E-03    -8.45406E+06    -42.0188E+06    -3.91730E+06     173.346E+03    -9.84042E-03     19.2883E-03    -9.44787E-03     4.12379E-03    -9.81592E-03     19.0960E-03    -9.39428E-03     4.12556E-03
            2151     2.67501E-03     16.3996E-03    -9.66744E+06    -40.3901E+06    -5.37308E+06     178.612E+03    -9.57053E-03     18.9168E-03    -9.34624E-03     3.01185E-03    -9.55216E-03     18.7363E-03    -9.30053E-03     3.01388E-03
            2152     1.78354E-03     16.3965E-03    -10.8931E+06    -38.4839E+06    -6.31775E+06     481.735E+03    -9.35772E-03     18.6278E-03    -9.27011E-03     1.98752E-03    -9.34651E-03     18.4601E-03    -9.23010E-03     1.99366E-03
            2153     891.761E-06     16.3952E-03    -12.4803E+06    -34.3514E+06    -10.2079E+06    -17.5843E+03    -9.24600E-03     18.4247E-03    -9.17865E-03     1.01079E-03    -9.24099E-03     18.2888E-03    -9.16178E-03     1.01034E-03
            2154     16.8660E-03     15.9119E-03    -10.3286E+06     121.469E+06     22.4966E+06    -1.79770E+06    -33.1959E-03     46.9531E-03    -13.7572E-03     230.420E-03    -39.7902E-03     53.8767E-03    -13.8059E-03     234.474E-03
            2155     15.9901E-03     15.7734E-03    -2.97141E+06     65.3687E+06    -7.11013E+06    -161.181E+03    -26.3888E-03     39.5390E-03    -13.1502E-03     116.962E-03    -27.1698E-03     40.5626E-03    -13.2762E-03     116.998E-03
            2156     15.1057E-03     15.6931E-03     2.60979E+06     18.9615E+06    -14.8861E+06    -2.25247E+06    -20.7918E-03     33.4827E-03    -12.6909E-03     63.6323E-03    -20.8859E-03     33.6966E-03    -12.7966E-03     63.5530E-03
            2157     14.2233E-03     15.6531E-03    -355.111E+03    -15.8034E+06    -16.0483E+06    -5.52634E+06    -19.4302E-03     31.7628E-03    -12.3326E-03     44.3847E-03    -19.4205E-03     31.7423E-03    -12.3894E-03     44.2765E-03
            2158     13.3393E-03     15.6113E-03    -2.98272E+06    -29.0521E+06    -15.6012E+06    -6.54567E+06    -18.1966E-03     30.1598E-03    -11.9632E-03     39.9375E-03    -18.1655E-03     30.0603E-03    -11.9948E-03     39.8279E-03
            2159     12.4546E-03     15.5774E-03    -5.31225E+06    -34.8598E+06    -12.7554E+06    -5.72152E+06    -17.1428E-03     28.7553E-03    -11.6125E-03     33.3167E-03    -17.1100E-03     28.6169E-03    -11.6180E-03     33.2266E-03
            2160     11.5691E-03     15.5485E-03    -6.70911E+06    -45.2906E+06    -11.7179E+06    -4.81166E+06    -16.1072E-03     27.3792E-03    -11.2721E-03     26.8092E-03    -16.0630E-03     27.1845E-03    -11.2553E-03     26.7364E-03
            2161     10.6829E-03     15.5255E-03    -6.21613E+06    -48.7882E+06    -7.39003E+06    -4.55351E+06    -15.0916E-03     26.0457E-03    -10.9540E-03     22.1219E-03    -15.0440E-03     25.8243E-03    -10.9112E-03     22.0560E-03
            2162     9.79562E-03     15.5052E-03    -5.15767E+06    -47.4278E+06    -2.90956E+06    -4.09473E+06    -14.0759E-03     24.7300E-03    -10.6541E-03     18.0877E-03    -14.0302E-03     24.5061E-03    -10.5924E-03     18.0300E-03
            2163     8.90782E-03     15.4892E-03    -4.59037E+06    -46.8367E+06    -1.91720E+06    -2.38332E+06    -13.1489E-03     23.5170E-03    -10.3681E-03     14.5110E-03    -13.1021E-03     23.2931E-03    -10.3031E-03     14.4769E-03
            2164     8.01897E-03     15.4755E-03    -4.54488E+06    -47.0262E+06    -1.41251E+06    -881.217E+03    -12.3413E-03     22.4520E-03    -10.1106E-03     11.6524E-03    -12.2943E-03     22.2260E-03    -10.0429E-03     11.6386E-03
            2165     7.12975E-03     15.4646E-03    -4.50691E+06    -47.1535E+06    -78.4522E+03    -275.396E+03    -11.6321E-03     21.5169E-03    -9.88479E-03     9.38469E-03    -11.5864E-03     21.2881E-03    -9.81027E-03     9.37944E-03
            2166     6.23977E-03     15.4552E-03    -5.04420E+06    -45.4402E+06     361.286E+03     16.0163E+03    -10.9695E-03     20.6518E-03    -9.68231E-03     7.53559E-03    -10.9294E-03     20.4315E-03    -9.60730E-03     7.53459E-03
            2167     5.34928E-03     15.4479E-03    -5.66443E+06    -43.1235E+06     143.463E+03     428.340E+03    -10.4295E-03     19.9355E-03    -9.50601E-03     6.00040E-03    -10.3955E-03     19.7279E-03    -9.43455E-03     6.00504E-03
            2168     4.45842E-03     15.4416E-03    -6.08530E+06    -41.3897E+06    -900.127E+03     779.770E+03    -9.99605E-03     19.3484E-03    -9.35239E-03     4.70568E-03    -9.96510E-03     19.1516E-03    -9.28805E-03     4.71511E-03
            2169     3.56718E-03     15.4372E-03    -6.66532E+06    -41.0086E+06    -2.76229E+06     418.994E+03    -9.63878E-03     18.8600E-03    -9.22126E-03     3.59651E-03    -9.60851E-03     18.6686E-03    -9.16595E-03     3.60149E-03
            2170     2.67566E-03     15.4333E-03    -8.01900E+06    -40.8058E+06    -4.76223E+06     22.9451E+03    -9.35397E-03     18.4689E-03    -9.11498E-03     2.60144E-03    -9.32770E-03     18.2832E-03    -9.06799E-03     2.60151E-03
            2171     1.78384E-03     15.4311E-03    -9.44579E+06    -38.2217E+06    -6.34121E+06     176.211E+03    -9.15132E-03     18.1778E-03    -9.02650E-03     1.73213E-03    -9.13332E-03     18.0094E-03    -8.98909E-03     1.73436E-03
            2172     892.045E-06     15.4292E-03    -11.5578E+06    -33.8003E+06    -10.1599E+06     388.763E+03    -9.05638E-03     17.9301E-03    -8.87373E-03     780.802E-06    -9.04786E-03     17.7958E-03    -8.85876E-03     785.775E-06
            2173     16.8631E-03     14.9227E-03    -3.66141E+06     121.077E+06     21.7473E+06    -33.8559E+03    -34.3863E-03     48.1216E-03    -13.7353E-03     234.069E-03    -41.0928E-03     55.1817E-03    -13.7968E-03     237.826E-03
            2174     15.9849E-03     14.7886E-03    -8.79290E+06     58.9414E+06    -19.5309E+06    -5.10638E+06    -25.8670E-03     38.9615E-03    -13.0946E-03     111.190E-03    -26.5900E-03     39.9194E-03    -13.2649E-03     111.151E-03
            2175     15.1059E-03     14.7158E-03    -1.83336E+06     22.5256E+06    -14.2780E+06    -2.29386E+06    -21.1912E-03     33.8645E-03    -12.6732E-03     61.6448E-03    -21.3091E-03     34.0972E-03    -12.7746E-03     61.5630E-03
            2176     14.2223E-03     14.6728E-03     602.880E+03    -14.4212E+06    -14.8097E+06    -2.66973E+06    -19.5073E-03     31.8008E-03    -12.2934E-03     42.1944E-03    -19.4946E-03     31.7820E-03    -12.3475E-03     42.1233E-03
            2177     13.3398E-03     14.6356E-03    -113.473E+03    -29.4408E+06    -13.1050E+06    -3.43195E+06    -18.5720E-03     30.4815E-03    -11.9095E-03     37.6824E-03    -18.5288E-03     30.3715E-03    -11.9322E-03     37.6125E-03
            2178     12.4553E-03     14.6011E-03    -1.55420E+06    -36.0861E+06    -8.83299E+06    -3.01211E+06    -17.4198E-03     28.9563E-03    -11.5365E-03     31.2576E-03    -17.3714E-03     28.7999E-03    -11.5260E-03     31.2027E-03
            2179     11.5705E-03     14.5747E-03    -2.31604E+06    -44.9219E+06    -8.31047E+06    -3.76888E+06    -16.3877E-03     27.5483E-03    -11.1606E-03     24.6700E-03    -16.3266E-03     27.3437E-03    -11.1337E-03     24.6108E-03
            2180     10.6843E-03     14.5522E-03    -2.72984E+06    -48.8199E+06    -5.85378E+06    -4.93202E+06    -15.3015E-03     26.1054E-03    -10.8039E-03     20.0615E-03    -15.2383E-03     25.8763E-03    -10.7585E-03     19.9909E-03
            2181     9.79753E-03     14.5339E-03    -2.90968E+06    -49.5559E+06    -2.75345E+06    -4.40035E+06    -14.2292E-03     24.7003E-03    -10.4711E-03     16.0047E-03    -14.1693E-03     24.4621E-03    -10.4087E-03     15.9432E-03
            2182     8.90950E-03     14.5185E-03    -3.49240E+06    -49.4600E+06    -1.13207E+06    -2.33562E+06    -13.1861E-03     23.3484E-03    -10.1623E-03     12.5724E-03    -13.1309E-03     23.1085E-03    -10.0912E-03     12.5391E-03
            2183     8.02097E-03     14.5063E-03    -4.11912E+06    -47.7416E+06    -182.948E+03    -1.03029E+06    -12.2724E-03     22.1553E-03    -9.88291E-03     9.97458E-03    -12.2238E-03     21.9232E-03    -9.80862E-03     9.95906E-03
            2184     7.13145E-03     14.4959E-03    -4.77299E+06    -47.8045E+06    -220.812E+03    -533.443E+03    -11.4684E-03     21.1040E-03    -9.63562E-03     7.91807E-03    -11.4228E-03     20.8724E-03    -9.56049E-03     7.90962E-03
            2185     6.24141E-03     14.4878E-03    -5.27736E+06    -45.6760E+06    -189.775E+03    -73.6659E+03    -10.7588E-03     20.1795E-03    -9.42078E-03     6.31652E-03    -10.7187E-03     19.9591E-03    -9.34785E-03     6.31448E-03
            2186     5.35072E-03     14.4808E-03    -5.84953E+06    -43.3330E+06    -916.746E+03    -52.4049E+03    -10.1636E-03     19.4016E-03    -9.23804E-03     5.03222E-03    -10.1286E-03     19.1947E-03    -9.17131E-03     5.03076E-03
            2187     4.45952E-03     14.4755E-03    -6.12471E+06    -41.4512E+06    -1.48402E+06    -90.6985E+03    -9.71463E-03     18.8029E-03    -9.08829E-03     3.94908E-03    -9.68293E-03     18.6066E-03    -9.02672E-03     3.94736E-03
            2188     3.56809E-03     14.4710E-03    -6.30665E+06    -40.7123E+06    -2.96390E+06     229.281E+03    -9.37456E-03     18.3352E-03    -8.96061E-03     3.00850E-03    -9.34262E-03     18.1449E-03    -8.90725E-03     3.01106E-03
            2189     2.67632E-03     14.4681E-03    -6.82985E+06    -40.4137E+06    -4.44947E+06     372.047E+03    -9.10339E-03     17.9591E-03    -8.85569E-03     2.17443E-03    -9.07221E-03     17.7732E-03    -8.80944E-03     2.17900E-03
            2190     1.78441E-03     14.4656E-03    -8.29671E+06    -38.6443E+06    -5.67356E+06     437.932E+03    -8.88933E-03     17.6616E-03    -8.77227E-03     1.44403E-03    -8.86595E-03     17.4884E-03    -8.73257E-03     1.44957E-03
            2191     892.254E-06     14.4645E-03    -9.74318E+06    -33.0518E+06    -8.30877E+06     853.344E+03    -8.81664E-03     17.4331E-03    -8.61650E-03     615.620E-06    -8.80282E-03     17.2972E-03    -8.59599E-03     626.685E-06
            2192     16.8680E-03     13.9384E-03     4.45988E+06     129.469E+06     31.6550E+06     3.31300E+06    -36.0040E-03     49.6918E-03    -13.6877E-03     227.501E-03    -42.4878E-03     56.5594E-03    -13.7237E-03     230.956E-03
            2193     15.9891E-03     13.8048E-03    -264.632E+03     60.5751E+06    -10.1198E+06    -4.45066E+06    -24.4213E-03     37.4463E-03    -13.0250E-03     104.965E-03    -25.0584E-03     38.3269E-03    -13.1630E-03     104.935E-03
            2194     15.1070E-03     13.7363E-03    -5.85279E+06     17.5983E+06    -15.0112E+06    -5.24057E+06    -21.1666E-03     33.7704E-03    -12.6038E-03     57.7824E-03    -21.2903E-03     33.9794E-03    -12.6959E-03     57.6609E-03
            2195     14.2252E-03     13.6944E-03    -5.27168E+06    -12.5914E+06    -14.8906E+06    -2.62542E+06    -19.6386E-03     31.8435E-03    -12.2049E-03     40.0469E-03    -19.6557E-03     31.8404E-03    -12.2534E-03     39.9762E-03
            2196     13.3413E-03     13.6583E-03    -4.06270E+06    -30.3543E+06    -14.5354E+06    -2.67732E+06    -18.8048E-03     30.5972E-03    -11.7923E-03     35.2247E-03    -18.7768E-03     30.4891E-03    -11.8151E-03     35.1645E-03
            2197     12.4576E-03     13.6254E-03    -2.35567E+06    -36.1025E+06    -8.14920E+06    -2.93578E+06    -17.7518E-03     29.1436E-03    -11.3917E-03     28.8697E-03    -17.7075E-03     28.9864E-03    -11.3767E-03     28.8159E-03
            2198     11.5725E-03     13.6002E-03    -1.39386E+06    -44.0799E+06    -6.30647E+06    -3.10749E+06    -16.6225E-03     27.6054E-03    -10.9830E-03     22.2413E-03    -16.5603E-03     27.4002E-03    -10.9485E-03     22.1910E-03
            2199     10.6868E-03     13.5793E-03    -1.71509E+06    -48.2480E+06    -3.66674E+06    -3.97563E+06    -15.5118E-03     26.1031E-03    -10.5913E-03     17.6132E-03    -15.4471E-03     25.8718E-03    -10.5372E-03     17.5552E-03
            2200     9.79993E-03     13.5621E-03    -2.98899E+06    -51.9537E+06    -2.27189E+06    -3.52567E+06    -14.3119E-03     24.5326E-03    -10.2207E-03     13.6265E-03    -14.2493E-03     24.2816E-03    -10.1524E-03     13.5766E-03
            2201     8.91229E-03     13.5485E-03    -3.98314E+06    -51.6150E+06    -821.481E+03    -1.96543E+06    -13.1384E-03     23.0211E-03    -9.88271E-03     10.4641E-03    -13.0828E-03     22.7706E-03    -9.80620E-03     10.4357E-03
            2202     8.02336E-03     13.5371E-03    -4.83435E+06    -48.7341E+06     291.487E+03    -645.486E+03    -12.0771E-03     21.6606E-03    -9.58350E-03     8.16222E-03    -12.0313E-03     21.4238E-03    -9.50437E-03     8.15185E-03
            2203     7.13378E-03     13.5282E-03    -5.80598E+06    -47.8245E+06    -887.114E+03    -324.202E+03    -11.1970E-03     20.5165E-03    -9.31946E-03     6.36748E-03    -11.1555E-03     20.2872E-03    -9.24613E-03     6.36189E-03
            2204     6.24336E-03     13.5205E-03    -6.39645E+06    -45.8962E+06    -1.27190E+06    -616.908E+03    -10.4593E-03     19.5568E-03    -9.09753E-03     5.00874E-03    -10.4229E-03     19.3385E-03    -9.02806E-03     4.99981E-03
            2205     5.35240E-03     13.5147E-03    -6.30843E+06    -43.2073E+06    -1.77342E+06    -599.360E+03    -9.85587E-03     18.7666E-03    -8.91071E-03     3.93914E-03    -9.82214E-03     18.5622E-03    -8.84778E-03     3.93072E-03
            2206     4.46099E-03     13.5096E-03    -6.60678E+06    -41.5871E+06    -3.20342E+06    -650.312E+03    -9.36916E-03     18.1266E-03    -8.75741E-03     3.05433E-03    -9.33716E-03     17.9328E-03    -8.70355E-03     3.04546E-03
            2207     3.56913E-03     13.5059E-03    -6.80494E+06    -41.3454E+06    -4.57726E+06    -430.720E+03    -9.01792E-03     17.6560E-03    -8.63805E-03     2.29914E-03    -8.98518E-03     17.4656E-03    -8.59112E-03     2.29320E-03
            2208     2.67710E-03     13.5029E-03    -6.74127E+06    -40.3815E+06    -4.23391E+06    -89.0577E+03    -8.77122E-03     17.3208E-03    -8.54954E-03     1.66452E-03    -8.73992E-03     17.1345E-03    -8.50238E-03     1.66312E-03
            2209     1.78485E-03     13.5011E-03    -6.96754E+06    -39.0235E+06    -3.48040E+06     202.510E+03    -8.56104E-03     17.0496E-03    -8.48859E-03     1.07227E-03    -8.53355E-03     16.8694E-03    -8.43930E-03     1.07468E-03
            2210     892.400E-06     13.4998E-03    -7.99322E+06    -32.0566E+06    -6.37983E+06     540.920E+03    -8.50062E-03     16.8761E-03    -8.37547E-03     516.418E-06    -8.48227E-03     16.7397E-03    -8.34930E-03     523.467E-06
            2211     16.8735E-03     12.9546E-03    -2.49568E+06     128.409E+06     28.1380E+06    -832.848E+03    -36.1981E-03     49.7977E-03    -13.5996E-03     222.286E-03    -42.3527E-03     56.3182E-03    -13.6415E-03     225.446E-03
            2212     15.9907E-03     12.8257E-03     1.51875E+06     65.2697E+06    -3.10696E+06     1.05194E+06    -24.3914E-03     37.3350E-03    -12.9437E-03     105.233E-03    -24.9969E-03     38.1868E-03    -13.0560E-03     105.264E-03
            2213     15.1089E-03     12.7551E-03     111.798E+03     16.9926E+06    -11.0840E+06    -1.09019E+06    -21.0533E-03     33.5621E-03    -12.5088E-03     56.8699E-03    -21.1428E-03     33.7445E-03    -12.5890E-03     56.8049E-03
            2214     14.2261E-03     12.7171E-03    -2.61250E+06    -13.6824E+06    -11.9793E+06    -2.33506E+06    -20.0167E-03     32.1118E-03    -12.0951E-03     38.8517E-03    -20.0209E-03     32.0929E-03    -12.1313E-03     38.7851E-03
            2215     13.3435E-03     12.6800E-03    -2.69448E+06    -29.2691E+06    -11.5265E+06    -2.65223E+06    -19.2748E-03     30.9189E-03    -11.6442E-03     33.6066E-03    -19.2441E-03     30.8083E-03    -11.6554E-03     33.5473E-03
            2216     12.4600E-03     12.6500E-03    -3.18668E+06    -36.7675E+06    -7.48469E+06    -3.10668E+06    -18.1877E-03     29.3794E-03    -11.1917E-03     26.5333E-03    -18.1466E-03     29.2182E-03    -11.1712E-03     26.4777E-03
            2217     11.5755E-03     12.6254E-03    -3.22233E+06    -43.5173E+06    -5.40866E+06    -3.33469E+06    -16.9343E-03     27.6710E-03    -10.7366E-03     19.8917E-03    -16.8828E-03     27.4693E-03    -10.6959E-03     19.8389E-03
            2218     10.6900E-03     12.6065E-03    -3.14572E+06    -48.6869E+06    -2.85611E+06    -3.05616E+06    -15.6276E-03     25.9317E-03    -10.3041E-03     15.0709E-03    -15.5702E-03     25.6987E-03    -10.2432E-03     15.0252E-03
            2219     9.80330E-03     12.5907E-03    -3.92867E+06    -53.2484E+06    -1.37169E+06    -2.38941E+06    -14.2569E-03     24.1599E-03    -9.90305E-03     11.2734E-03    -14.1982E-03     23.9023E-03    -9.82700E-03     11.2384E-03
            2220     8.91535E-03     12.5787E-03    -4.85303E+06    -53.2040E+06    -787.431E+03    -1.70208E+06    -12.9653E-03     22.5037E-03    -9.53845E-03     8.40009E-03    -12.9117E-03     22.2463E-03    -9.45820E-03     8.37537E-03
            2221     8.02642E-03     12.5688E-03    -5.09734E+06    -49.9168E+06     634.927E+03    -816.592E+03    -11.8177E-03     21.0414E-03    -9.22370E-03     6.40745E-03    -11.7719E-03     20.7985E-03    -9.14076E-03     6.39508E-03
            2222     7.13643E-03     12.5607E-03    -5.06827E+06    -47.3704E+06     425.263E+03    -390.639E+03    -10.8798E-03     19.8305E-03    -8.95068E-03     4.88135E-03    -10.8371E-03     19.6004E-03    -8.87251E-03     4.87505E-03
            2223     6.24580E-03     12.5543E-03    -5.43417E+06    -45.6469E+06    -758.171E+03    -958.327E+03    -10.1353E-03     18.8521E-03    -8.71683E-03     3.72419E-03    -10.0952E-03     18.6329E-03    -8.64656E-03     3.71094E-03
            2224     5.35455E-03     12.5489E-03    -6.25383E+06    -43.7203E+06    -2.25363E+06    -1.05451E+06    -9.50780E-03     18.0277E-03    -8.51986E-03     2.83437E-03    -9.47236E-03     17.8214E-03    -8.45866E-03     2.82014E-03
            2225     4.46278E-03     12.5447E-03    -6.62976E+06    -41.7061E+06    -3.65552E+06    -769.413E+03    -8.99762E-03     17.3579E-03    -8.36027E-03     2.14225E-03    -8.96491E-03     17.1642E-03    -8.30846E-03     2.13187E-03
            2226     3.57063E-03     12.5412E-03    -6.95272E+06    -41.6995E+06    -4.75582E+06    -955.154E+03    -8.61701E-03     16.8576E-03    -8.24064E-03     1.58208E-03    -8.58425E-03     16.6660E-03    -8.19387E-03     1.56941E-03
            2227     2.67815E-03     12.5387E-03    -7.18555E+06    -40.7759E+06    -4.21848E+06    -1.04083E+06    -8.34328E-03     16.5029E-03    -8.15961E-03     1.09562E-03    -8.31367E-03     16.3153E-03    -8.11116E-03     1.08190E-03
            2228     1.78553E-03     12.5369E-03    -8.06902E+06    -39.6431E+06    -3.93884E+06    -857.704E+03    -8.17136E-03     16.2746E-03    -8.10320E-03     643.278E-06    -8.14789E-03     16.0935E-03    -8.05371E-03     632.059E-06
            2229     892.808E-06     12.5361E-03    -9.32227E+06    -31.7673E+06    -7.02703E+06     71.5065E+03    -8.12731E-03     16.0964E-03    -7.96913E-03     289.014E-06    -8.11541E-03     15.9643E-03    -7.94469E-03     289.835E-06
            2230     16.8640E-03     11.9656E-03    -3.04239E+06     127.351E+06     25.0173E+06    -1.15943E+06    -36.0111E-03     49.6244E-03    -13.6133E-03     218.485E-03    -41.8333E-03     55.8155E-03    -13.6685E-03     221.487E-03
            2231     15.9909E-03     11.8429E-03    -6.79303E+06     63.4081E+06    -11.7163E+06    -1.52983E+06    -25.8403E-03     38.7405E-03    -12.9002E-03     100.903E-03    -26.4359E-03     39.5712E-03    -13.0409E-03     100.870E-03
            2232     15.1098E-03     11.7766E-03    -4.55059E+06     19.9648E+06    -15.2481E+06     123.564E+03    -21.7845E-03     34.1868E-03    -12.4023E-03     55.3859E-03    -21.8909E-03     34.3923E-03    -12.5009E-03     55.3347E-03
            2233     14.2282E-03     11.7370E-03    -2.29640E+06    -12.8292E+06    -14.2214E+06    -1.81468E+06    -20.7433E-03     32.6839E-03    -11.9406E-03     37.0165E-03    -20.7417E-03     32.6698E-03    -11.9898E-03     36.9562E-03
            2234     13.3461E-03     11.7028E-03    -1.46676E+06    -29.4763E+06    -12.4532E+06    -2.38139E+06    -19.9845E-03     31.4219E-03    -11.4374E-03     31.2280E-03    -19.9445E-03     31.3083E-03    -11.4548E-03     31.1723E-03
            2235     12.4631E-03     11.6731E-03    -1.00845E+06    -36.7262E+06    -5.77952E+06    -2.07911E+06    -18.7333E-03     29.6689E-03    -10.9356E-03     23.7525E-03    -18.6828E-03     29.5013E-03    -10.9098E-03     23.7106E-03
            2236     11.5793E-03     11.6513E-03    -1.86935E+06    -43.0893E+06    -3.09168E+06    -2.68205E+06    -17.1874E-03     27.6193E-03    -10.4319E-03     17.1391E-03    -17.1326E-03     27.4139E-03    -10.3822E-03     17.0953E-03
            2237     10.6938E-03     11.6334E-03    -2.97387E+06    -49.9900E+06    -2.55334E+06    -2.48941E+06    -15.5961E-03     25.5530E-03    -9.95698E-03     12.5532E-03    -15.5361E-03     25.3125E-03    -9.89295E-03     12.5153E-03
            2238     9.80705E-03     11.6201E-03    -3.83138E+06    -54.1177E+06    -340.718E+03    -1.50542E+06    -14.0688E-03     23.6050E-03    -9.53616E-03     8.98576E-03    -14.0097E-03     23.3412E-03    -9.45384E-03     8.96253E-03
            2239     8.91889E-03     11.6094E-03    -4.82377E+06    -53.5317E+06     267.404E+03    -1.31161E+06    -12.6805E-03     21.8369E-03    -9.15644E-03     6.50143E-03    -12.6277E-03     21.5762E-03    -9.07049E-03     6.48201E-03
            2240     8.02968E-03     11.6011E-03    -5.58248E+06    -50.8768E+06     74.1033E+03    -1.34160E+06    -11.5178E-03     20.3417E-03    -8.82390E-03     4.82489E-03    -11.4722E-03     20.0955E-03    -8.74166E-03     4.80591E-03
            2241     7.13946E-03     11.5942E-03    -5.85623E+06    -47.3534E+06    -276.497E+03    -1.12143E+06    -10.5513E-03     19.0892E-03    -8.53789E-03     3.61270E-03    -10.5115E-03     18.8613E-03    -8.46212E-03     3.59706E-03
            2242     6.24850E-03     11.5885E-03    -6.17963E+06    -45.4528E+06    -1.68983E+06    -935.716E+03    -9.77656E-03     18.0689E-03    -8.29233E-03     2.65534E-03    -9.73909E-03     17.8530E-03    -8.22591E-03     2.64242E-03
            2243     5.35693E-03     11.5841E-03    -6.49791E+06    -43.8982E+06    -2.54037E+06    -1.26705E+06    -9.13504E-03     17.2237E-03    -8.08867E-03     1.94950E-03    -9.10016E-03     17.0173E-03    -8.02830E-03     1.93255E-03
            2244     4.46480E-03     11.5804E-03    -6.81295E+06    -42.3343E+06    -3.34705E+06    -1.27391E+06    -8.61640E-03     16.5379E-03    -7.92151E-03     1.42765E-03    -8.58414E-03     16.3409E-03    -7.86698E-03     1.41076E-03
            2245     3.57230E-03     11.5775E-03    -7.15991E+06    -41.7989E+06    -4.57809E+06    -902.154E+03    -8.21033E-03     15.9986E-03    -7.78823E-03     1.00221E-03    -8.17875E-03     15.8065E-03    -7.74013E-03     990.226E-06
            2246     2.67948E-03     11.5753E-03    -8.13403E+06    -41.0793E+06    -5.81170E+06    -1.03569E+06    -7.89814E-03     15.5883E-03    -7.69021E-03     662.077E-06    -7.87055E-03     15.4030E-03    -7.64791E-03     648.439E-06
            2247     1.78639E-03     11.5738E-03    -10.2365E+06    -40.2238E+06    -6.37685E+06    -1.02284E+06    -7.71232E-03     15.3359E-03    -7.62356E-03     384.074E-06    -7.69538E-03     15.1587E-03    -7.58228E-03     370.668E-06
            2248     893.306E-06     11.5728E-03    -13.3037E+06    -32.9978E+06    -9.96822E+06    -961.518E+03    -7.64678E-03     15.1228E-03    -7.47601E-03     142.366E-06    -7.64894E-03     14.9944E-03    -7.45871E-03     130.020E-06
            2249     16.8710E-03     10.9748E-03    -3.56268E+06     129.245E+06     33.4703E+06     1.30518E+06    -36.8669E-03     50.5011E-03    -13.6342E-03     210.223E-03    -42.3820E-03     56.3658E-03    -13.6491E-03     212.919E-03
            2250     15.9911E-03     10.8608E-03    -4.93161E+06     64.1552E+06    -7.39875E+06     106.986E+03    -25.9960E-03     38.8414E-03    -12.8454E-03     94.3563E-03    -26.5305E-03     39.6078E-03    -12.9683E-03     94.3320E-03
            2251     15.1116E-03     10.7950E-03    -6.41092E+06     20.0570E+06    -16.1937E+06    -2.16945E+06    -22.7889E-03     35.0659E-03    -12.2770E-03     52.6560E-03    -22.8979E-03     35.2704E-03    -12.3778E-03     52.5721E-03
            2252     14.2310E-03     10.7579E-03    -5.67055E+06    -11.4314E+06    -15.9510E+06    -1.78529E+06    -21.6075E-03     33.3493E-03    -11.7417E-03     34.8974E-03    -21.6198E-03     33.3472E-03    -11.7967E-03     34.8371E-03
            2253     13.3496E-03     10.7240E-03    -5.71495E+06    -30.2299E+06    -16.1711E+06    -2.01040E+06    -20.6810E-03     31.8461E-03    -11.1651E-03     28.6014E-03    -20.6542E-03     31.7387E-03    -11.1938E-03     28.5507E-03
            2254     12.4676E-03     10.6967E-03    -5.55266E+06    -36.4288E+06    -9.67615E+06    -2.19196E+06    -19.0767E-03     29.6791E-03    -10.6024E-03     20.8063E-03    -19.0427E-03     29.5242E-03    -10.5899E-03     20.7637E-03
            2255     11.5835E-03     10.6767E-03    -4.73193E+06    -42.7457E+06    -5.83331E+06    -2.32519E+06    -17.1857E-03     27.2473E-03    -10.0616E-03     14.3707E-03    -17.1412E-03     27.0512E-03    -10.0219E-03     14.3322E-03
            2256     10.6981E-03     10.6615E-03    -4.42773E+06    -51.2940E+06    -4.48613E+06    -1.98617E+06    -15.3858E-03     24.9540E-03    -9.56813E-03     10.1195E-03    -15.3282E-03     24.7116E-03    -9.50976E-03     10.0885E-03
            2257     9.81095E-03     10.6497E-03    -4.90429E+06    -55.2656E+06    -1.04411E+06    -925.266E+03    -13.7222E-03     22.8643E-03    -9.14213E-03     6.90096E-03    -13.6656E-03     22.5972E-03    -9.06011E-03     6.88554E-03
            2258     8.92259E-03     10.6411E-03    -5.98204E+06    -53.0698E+06     701.418E+03    -641.702E+03    -12.2905E-03     21.0528E-03    -8.76229E-03     4.88144E-03    -12.2447E-03     20.7954E-03    -8.67316E-03     4.87085E-03
            2259     8.03291E-03     10.6339E-03    -7.17087E+06    -50.8001E+06    -779.678E+03    -1.30989E+06    -11.1463E-03     19.5677E-03    -8.42145E-03     3.59778E-03    -11.1075E-03     19.3254E-03    -8.34129E-03     3.57929E-03
            2260     7.14250E-03     10.6283E-03    -7.96276E+06    -47.8199E+06    -1.83318E+06    -1.64854E+06    -10.1920E-03     18.3199E-03    -8.12793E-03     2.65831E-03    -10.1598E-03     18.0951E-03    -8.05621E-03     2.63591E-03
            2261     6.25117E-03     10.6236E-03    -8.20436E+06    -45.5198E+06    -3.21644E+06    -1.47212E+06    -9.38952E-03     17.2656E-03    -7.87604E-03     1.96059E-03    -9.35985E-03     17.0545E-03    -7.81422E-03     1.94077E-03
            2262     5.35924E-03     10.6199E-03    -8.30616E+06    -43.7983E+06    -3.99526E+06    -1.58388E+06    -8.76202E-03     16.4275E-03    -7.66550E-03     1.41180E-03    -8.73420E-03     16.2263E-03    -7.60993E-03     1.39075E-03
            2263     4.46684E-03     10.6170E-03    -8.84481E+06    -43.2403E+06    -5.05097E+06    -1.55685E+06    -8.24163E-03     15.7301E-03    -7.48851E-03     1.01983E-03    -8.21573E-03     15.5340E-03    -7.43824E-03     999.270E-06
            2264     3.57398E-03     10.6146E-03    -9.58793E+06    -42.3116E+06    -6.61987E+06    -1.01267E+06    -7.81083E-03     15.1522E-03    -7.34133E-03     703.601E-06    -7.78767E-03     14.9640E-03    -7.29918E-03     690.197E-06
            2265     2.68076E-03     10.6128E-03    -10.3683E+06    -41.5743E+06    -8.06135E+06    -531.167E+03    -7.48519E-03     14.7127E-03    -7.22751E-03     460.382E-06    -7.46476E-03     14.5313E-03    -7.19250E-03     453.292E-06
            2266     1.78734E-03     10.6115E-03    -11.6126E+06    -40.5848E+06    -9.52781E+06    -418.525E+03    -7.24802E-03     14.3944E-03    -7.14633E-03     282.007E-06    -7.23283E-03     14.2218E-03    -7.11829E-03     276.402E-06
            2267     893.652E-06     10.6107E-03    -12.9204E+06     -34.151E+06    -12.2287E+06    -1.08839E+06    -7.13597E-03     14.1908E-03    -7.05484E-03     61.7101E-06    -7.13127E-03     14.0593E-03    -7.04773E-03     47.6713E-06
            2268     16.8706E-03     9.98989E-03    -3.22067E+06     127.985E+06     33.0793E+06     887.051E+03    -38.0909E-03     51.6539E-03    -13.5630E-03     204.262E-03    -43.2022E-03     57.1128E-03    -13.5786E-03     206.619E-03
            2269     15.9938E-03     9.87657E-03    -2.52923E+06     66.5071E+06    -6.60715E+06     1.08377E+06    -26.6508E-03     39.3541E-03    -12.7034E-03     90.4192E-03    -27.1257E-03     40.0756E-03    -12.8292E-03     90.3856E-03
            2270     15.1146E-03     9.81394E-03    -2.88208E+06     21.5513E+06    -14.9150E+06     375.610E+03    -23.4522E-03     35.5370E-03    -12.0848E-03     49.7734E-03    -23.5405E-03     35.7349E-03    -12.1865E-03     49.7213E-03
            2271     14.2343E-03     9.77724E-03    -5.35524E+06    -12.0698E+06    -16.2155E+06    -682.082E+03    -22.4392E-03     33.9273E-03    -11.4881E-03     32.6230E-03    -22.4465E-03     33.9199E-03    -11.5439E-03     32.5765E-03
            2272     13.3541E-03     9.74509E-03    -6.03708E+06    -29.3856E+06    -16.1207E+06    -788.413E+03    -21.2451E-03     32.0916E-03    -10.8465E-03     25.5665E-03    -21.2198E-03     31.9874E-03    -10.8757E-03     25.5321E-03
            2273     12.4719E-03     9.72027E-03    -6.80558E+06    -36.0448E+06    -10.7051E+06    -1.75220E+06    -19.1270E-03     29.3607E-03    -10.2337E-03     17.4840E-03    -19.0974E-03     29.2102E-03    -10.2251E-03     17.4480E-03
            2274     11.5881E-03     9.70295E-03    -7.71400E+06    -42.4919E+06    -7.51514E+06    -2.36786E+06    -16.8982E-03     26.5694E-03    -9.67120E-03     11.5229E-03    -16.8660E-03     26.3809E-03    -9.63598E-03     11.4846E-03
            2275     10.7023E-03     9.68981E-03    -8.27838E+06    -52.7057E+06    -5.69305E+06    -1.85951E+06    -14.9162E-03     24.0972E-03    -9.18108E-03     7.80714E-03    -14.8738E-03     23.8549E-03    -9.12111E-03     7.77820E-03
            2276     9.81490E-03     9.68044E-03    -8.50586E+06    -56.1196E+06    -2.63673E+06    -1.03428E+06    -13.1778E-03     21.9386E-03    -8.76088E-03     5.20997E-03    -13.1355E-03     21.6747E-03    -8.68036E-03     5.19339E-03
            2277     8.92586E-03     9.67328E-03    -8.32007E+06    -52.8066E+06    -290.819E+03    -928.859E+03    -11.7816E-03     20.1753E-03    -8.39372E-03     3.74090E-03    -11.7464E-03     19.9240E-03    -8.30654E-03     3.72673E-03
            2278     8.03598E-03     9.66767E-03    -8.45820E+06    -50.0777E+06    -369.326E+03    -1.32100E+06    -10.6802E-03     18.7502E-03    -8.06998E-03     2.86711E-03    -10.6495E-03     18.5128E-03    -7.98695E-03     2.84851E-03
            2279     7.14501E-03     9.66308E-03    -9.04306E+06    -48.0251E+06    -2.12415E+06    -1.84875E+06    -9.77211E-03     17.5564E-03    -7.78428E-03     2.20636E-03    -9.74465E-03     17.3325E-03    -7.71215E-03     2.18138E-03
            2280     6.25343E-03     9.65957E-03    -9.59155E+06    -45.8941E+06    -3.94774E+06    -2.08851E+06    -9.02444E-03     16.5615E-03    -7.53703E-03     1.74778E-03    -9.00012E-03     16.3516E-03    -7.47632E-03     1.72003E-03
            2281     5.36116E-03     9.65651E-03    -10.2685E+06    -44.1363E+06    -5.37256E+06    -1.88574E+06    -8.40286E-03     15.7301E-03    -7.32722E-03     1.34566E-03    -8.38237E-03     15.5320E-03    -7.27520E-03     1.32072E-03
            2282     4.46842E-03     9.65428E-03    -11.0437E+06    -43.9459E+06    -7.23549E+06    -1.53715E+06    -7.89948E-03     15.0484E-03    -7.14894E-03     1.03153E-03    -7.88040E-03     14.8551E-03    -7.10538E-03     1.01123E-03
            2283     3.57524E-03     9.65244E-03    -11.7995E+06    -43.2323E+06    -8.77992E+06    -1.18891E+06    -7.48493E-03     14.4857E-03    -7.00077E-03     785.178E-06    -7.46838E-03     14.2993E-03    -6.96488E-03     769.516E-06
            2284     2.68177E-03     9.65108E-03    -12.5886E+06    -42.1989E+06    -10.1002E+06    -467.115E+03    -7.15276E-03     14.0360E-03    -6.88328E-03     560.425E-06    -7.13955E-03     13.8577E-03    -6.85434E-03     554.197E-06
            2285     1.78798E-03     9.65012E-03    -13.4946E+06    -40.9289E+06    -11.4330E+06    -2.57616E+03    -6.90768E-03     13.7055E-03    -6.79786E-03     369.688E-06    -6.89865E-03     13.5368E-03    -6.77611E-03     369.506E-06
            2286     894.046E-06     9.64956E-03    -14.7422E+06    -34.5356E+06    -14.0737E+06     123.793E+03    -6.79247E-03     13.4907E-03    -6.69827E-03     130.664E-06    -6.79368E-03     13.3627E-03    -6.69719E-03     132.072E-06
            2287     16.8702E-03     8.99657E-03    -1.50286E+06     127.655E+06     33.8650E+06     1.24687E+06    -39.8886E-03     53.4023E-03    -13.5137E-03     195.024E-03    -44.5289E-03     58.3929E-03    -13.5273E-03     196.963E-03
            2288     15.9974E-03     8.89318E-03    -3.14837E+06     66.5098E+06    -6.08810E+06     1.21253E+06    -28.0275E-03     40.5710E-03    -12.5434E-03     85.0267E-03    -28.4612E-03     41.2475E-03    -12.6657E-03     84.9669E-03
            2289     15.1181E-03     8.83214E-03    -4.71112E+06     22.3277E+06    -16.6407E+06     1.96122E+06    -24.5080E-03     36.3335E-03    -11.8255E-03     47.2313E-03    -24.5981E-03     36.5345E-03    -11.9342E-03     47.1965E-03
            2290     14.2391E-03     8.79609E-03    -4.46560E+06    -11.0648E+06    -15.5392E+06     1.97998E+06    -23.2092E-03     34.3702E-03    -11.1610E-03     29.6020E-03    -23.2123E-03     34.3634E-03    -11.2162E-03     29.5895E-03
            2291     13.3590E-03     8.76589E-03    -5.85594E+06    -28.2692E+06    -13.2961E+06     472.213E+03    -21.3790E-03     31.8556E-03    -10.4767E-03     21.5475E-03    -21.3569E-03     31.7511E-03    -10.4937E-03     21.5303E-03
            2292     12.4774E-03     8.74446E-03    -6.40418E+06    -34.7025E+06    -7.66261E+06    -640.346E+03    -18.6930E-03     28.5383E-03    -9.84531E-03     13.7521E-03    -18.6670E-03     28.3887E-03    -9.82402E-03     13.7316E-03
            2293     11.5928E-03     8.72986E-03    -7.55959E+06    -42.5268E+06    -4.00068E+06    -1.21833E+06    -16.1632E-03     25.4631E-03    -9.29992E-03     8.84587E-03    -16.1350E-03     25.2688E-03    -9.24730E-03     8.82301E-03
            2294     10.7064E-03     8.71936E-03    -9.01648E+06    -53.0797E+06    -3.13096E+06    -1.44728E+06    -14.0959E-03     22.9339E-03    -8.83807E-03     5.95778E-03    -14.0602E-03     22.6870E-03    -8.76369E-03     5.93450E-03
            2295     9.81805E-03     8.71197E-03    -9.73236E+06    -56.6233E+06    -1.68914E+06    -1.61781E+06    -12.4290E-03     20.8775E-03    -8.44853E-03     4.16024E-03    -12.3935E-03     20.6114E-03    -8.36076E-03     4.13632E-03
            2296     8.92864E-03     8.70653E-03    -10.1996E+06    -52.6765E+06    -1.06863E+06    -1.73654E+06    -11.1354E-03     19.2451E-03    -8.10967E-03     3.28918E-03    -11.1087E-03     18.9983E-03    -8.02384E-03     3.26466E-03
            2297     8.03802E-03     8.70206E-03    -10.5102E+06    -49.8197E+06    -1.78523E+06    -2.04463E+06    -10.1180E-03     17.9356E-03    -7.81766E-03     2.78559E-03    -10.0958E-03     17.7045E-03    -7.73910E-03     2.75769E-03
            2298     7.14670E-03     8.69875E-03    -10.7830E+06    -47.9777E+06    -3.43567E+06    -2.19344E+06    -9.31920E-03     16.8831E-03    -7.56385E-03     2.39358E-03    -9.29863E-03     16.6639E-03    -7.49583E-03     2.36417E-03
            2299     6.25468E-03     8.69590E-03    -11.2569E+06    -46.3152E+06    -5.29857E+06    -2.40245E+06    -8.66667E-03     16.0098E-03    -7.34311E-03     2.09063E-03    -8.64813E-03     15.8022E-03    -7.28612E-03     2.05882E-03
            2300     5.36219E-03     8.69383E-03    -11.8188E+06    -44.9544E+06    -6.63648E+06    -2.12128E+06    -8.10249E-03     15.2591E-03    -7.15656E-03     1.79194E-03    -8.08675E-03     15.0610E-03    -7.10743E-03     1.76397E-03
            2301     4.46914E-03     8.69208E-03    -12.3751E+06    -44.5330E+06    -8.58071E+06    -1.64084E+06    -7.64836E-03     14.6465E-03    -6.99811E-03     1.52152E-03    -7.63315E-03     14.4541E-03    -6.95850E-03     1.49992E-03
            2302     3.57581E-03     8.69082E-03    -13.1404E+06    -44.2035E+06    -10.1428E+06    -1.16233E+06    -7.28657E-03     14.1555E-03    -6.86897E-03     1.24945E-03    -7.27337E-03     13.9682E-03    -6.83654E-03     1.23417E-03
            2303     2.68210E-03     8.68986E-03    -13.9165E+06    -43.1996E+06    -11.2685E+06    -585.021E+03    -6.99870E-03     13.7658E-03    -6.76708E-03     974.081E-06    -6.98903E-03     13.5861E-03    -6.74061E-03     966.355E-06
            2304     1.78821E-03     8.68922E-03    -15.0401E+06    -41.0148E+06    -11.1795E+06     35.3066E+03    -6.78924E-03     13.4842E-03    -6.69498E-03     672.668E-06    -6.78823E-03     13.3170E-03    -6.66960E-03     672.955E-06
            2305     894.152E-06     8.68876E-03    -16.9036E+06    -34.6220E+06    -13.9389E+06     150.382E+03    -6.69327E-03     13.2729E-03    -6.57968E-03     370.623E-06    -6.70530E-03     13.1475E-03    -6.57466E-03     372.260E-06
            2306     16.8754E-03     8.00588E-03    -3.07736E+06     125.323E+06     35.4038E+06     1.64007E+06    -41.6557E-03     55.1401E-03    -13.4845E-03     186.486E-03    -45.7906E-03     59.6073E-03    -13.4847E-03     187.985E-03
            2307     15.9987E-03     7.90741E-03    -6.20934E+06     65.1597E+06    -5.69355E+06     3.28260E+06    -30.2862E-03     42.6616E-03    -12.3754E-03     80.3229E-03    -30.6876E-03     43.2891E-03    -12.4893E-03     80.2580E-03
            2308     15.1234E-03     7.84894E-03    -6.76034E+06     23.0787E+06    -15.7491E+06     3.38638E+06    -26.3206E-03     37.8401E-03    -11.5195E-03     43.2161E-03    -26.4152E-03     38.0386E-03    -11.6219E-03     43.1951E-03
            2309     14.2453E-03     7.81461E-03    -8.03356E+06    -10.4503E+06    -14.3965E+06     3.18188E+06    -23.5966E-03     34.3638E-03    -10.7672E-03     26.0891E-03    -23.6176E-03     34.3611E-03    -10.8124E-03     26.0930E-03
            2310     13.3657E-03     7.78724E-03    -8.25563E+06    -25.1885E+06    -9.81330E+06     1.96365E+06    -20.7212E-03     30.7895E-03    -10.0683E-03     17.5545E-03    -20.7191E-03     30.6973E-03    -10.0688E-03     17.5586E-03
            2311     12.4825E-03     7.76993E-03    -9.28931E+06    -33.4512E+06    -5.28365E+06    -361.739E+03    -17.5124E-03     26.9794E-03    -9.46702E-03     10.8863E-03    -17.5054E-03     26.8361E-03    -9.43147E-03     10.8709E-03
            2312     11.5970E-03     7.75810E-03    -9.24120E+06    -42.3538E+06    -1.94525E+06    -1.08454E+06    -14.9290E-03     23.9094E-03    -8.98042E-03     7.20418E-03    -14.9123E-03     23.7153E-03    -8.91533E-03     7.18388E-03
            2313     10.7093E-03     7.75021E-03    -9.13694E+06    -52.7887E+06    -701.460E+03    -1.29754E+06    -12.9572E-03     21.5454E-03    -8.58820E-03     5.22502E-03    -12.9260E-03     21.2965E-03    -8.50191E-03     5.20414E-03
            2314     9.82025E-03     7.74462E-03    -9.95218E+06    -56.5308E+06    -891.891E+03    -1.72910E+06    -11.5104E-03     19.7705E-03    -8.26008E-03     4.18662E-03    -11.4774E-03     19.5041E-03    -8.16814E-03     4.16147E-03
            2315     8.92988E-03     7.74057E-03    -10.5886E+06    -52.5151E+06    -1.29491E+06    -2.28016E+06    -10.4132E-03     18.3919E-03    -7.97872E-03     3.73003E-03    -10.3884E-03     18.1468E-03    -7.89369E-03     3.69858E-03
            2316     8.03878E-03     7.73736E-03    -11.1206E+06    -49.8635E+06    -2.91568E+06    -2.59407E+06    -9.56661E-03     17.3055E-03    -7.73886E-03     3.47340E-03    -9.54586E-03     17.0767E-03    -7.66501E-03     3.43845E-03
            2317     7.14693E-03     7.73481E-03    -11.6918E+06    -48.1499E+06    -4.41997E+06    -2.80985E+06    -8.90245E-03     16.4398E-03    -7.53736E-03     3.21757E-03    -8.88479E-03     16.2226E-03    -7.47269E-03     3.18022E-03
            2318     6.25463E-03     7.73283E-03    -12.1443E+06    -46.7715E+06    -6.22648E+06    -2.65617E+06    -8.36177E-03     15.7269E-03    -7.36515E-03     2.96201E-03    -8.34569E-03     15.5198E-03    -7.31085E-03     2.92689E-03
            2319     5.36179E-03     7.73132E-03    -12.7806E+06    -46.0884E+06    -8.01748E+06    -2.29438E+06    -7.92546E-03     15.1467E-03    -7.22120E-03     2.66191E-03    -7.91090E-03     14.9464E-03    -7.17592E-03     2.63169E-03
            2320     4.46871E-03     7.73016E-03    -13.6082E+06    -45.4120E+06    -9.62414E+06    -1.68760E+06    -7.56601E-03     14.6695E-03    -7.10348E-03     2.34274E-03    -7.55421E-03     14.4761E-03    -7.06602E-03     2.32055E-03
            2321     3.57522E-03     7.72928E-03    -14.2588E+06    -44.7369E+06    -10.6378E+06    -1.36990E+06    -7.28859E-03     14.3008E-03    -7.01221E-03     1.96613E-03    -7.27952E-03     14.1132E-03    -6.97985E-03     1.94818E-03
            2322     2.68162E-03     7.72867E-03    -14.9827E+06    -44.3355E+06    -10.9592E+06    -1.01070E+06    -7.09525E-03     14.0395E-03    -6.94421E-03     1.55026E-03    -7.08977E-03     13.8552E-03    -6.91299E-03     1.53702E-03
            2323     1.78785E-03     7.72819E-03    -16.2538E+06    -41.3498E+06    -11.0732E+06    -573.025E+03    -6.94711E-03     13.8361E-03    -6.88894E-03     1.07825E-03    -6.95191E-03     13.6688E-03    -6.86079E-03     1.07067E-03
            2324     893.943E-06     7.72799E-03    -18.2538E+06    -35.0713E+06    -14.8077E+06    -932.190E+03    -6.85725E-03     13.6624E-03    -6.80512E-03     584.945E-06    -6.87420E-03     13.5381E-03    -6.80184E-03     572.475E-06
            2325     16.8689E-03     7.01308E-03    -2.49224E+06     123.302E+06     39.2132E+06     2.62744E+06    -45.7134E-03     59.1876E-03    -13.4742E-03     175.799E-03    -49.3199E-03     63.1101E-03    -13.4533E-03     176.804E-03
            2326     16.0029E-03     6.91532E-03    -6.01314E+06     63.7774E+06    -4.88104E+06     4.62538E+06    -33.4315E-03     45.5600E-03    -12.1285E-03     70.7878E-03    -33.7800E-03     46.1284E-03    -12.2366E-03     70.7001E-03
            2327     15.1297E-03     6.86581E-03    -7.66392E+06     23.9292E+06    -15.4488E+06     6.41683E+06    -27.1328E-03     38.2604E-03    -11.1276E-03     36.9033E-03    -27.2243E-03     38.4548E-03    -11.2284E-03     36.9216E-03
            2328     14.2521E-03     6.83251E-03    -10.2484E+06    -7.99279E+06    -13.6890E+06     4.89497E+06    -22.9324E-03     33.2755E-03    -10.3431E-03     22.4736E-03    -22.9665E-03     33.2848E-03    -10.3851E-03     22.5030E-03
            2329     13.3710E-03     6.81106E-03    -11.9823E+06    -22.1858E+06    -7.89169E+06     2.29209E+06    -19.1227E-03     28.8186E-03    -9.69589E-03     14.4778E-03    -19.1449E-03     28.7426E-03    -9.68581E-03     14.4896E-03
            2330     12.4865E-03     6.79686E-03    -12.0947E+06    -30.6145E+06    -3.43791E+06    -344.226E+03    -15.7369E-03     24.9206E-03    -9.18363E-03     9.37097E-03    -15.7503E-03     24.7924E-03    -9.13889E-03     9.35770E-03
            2331     11.5994E-03     6.78827E-03    -12.1710E+06    -42.1999E+06    -2.51686E+06    -2.41629E+06    -13.3071E-03     22.1024E-03    -8.79533E-03     6.92407E-03    -13.3044E-03     21.9140E-03    -8.72908E-03     6.88753E-03
            2332     10.7104E-03     6.78237E-03    -11.9422E+06    -53.3376E+06    -1.27652E+06    -2.07905E+06    -11.6752E-03     20.1831E-03    -8.50788E-03     5.86922E-03    -11.6565E-03     19.9364E-03    -8.41961E-03     5.83873E-03
            2333     9.82013E-03     6.77833E-03    -11.5823E+06    -55.5928E+06    -1.32582E+06    -2.39457E+06    -10.5798E-03     18.8481E-03    -8.26835E-03     5.29768E-03    -10.5556E-03     18.5894E-03    -8.17757E-03     5.26418E-03
            2334     8.92917E-03     6.77535E-03    -11.4250E+06    -52.5392E+06    -1.78017E+06    -3.09522E+06    -9.77864E-03     17.8438E-03    -8.06518E-03     4.98911E-03    -9.75733E-03     17.6006E-03    -7.98133E-03     4.94726E-03
            2335     8.03750E-03     6.77304E-03    -11.3205E+06    -49.9867E+06    -2.83375E+06    -3.25524E+06    -9.14669E-03     17.0418E-03    -7.89512E-03     4.76032E-03    -9.12691E-03     16.8126E-03    -7.82039E-03     4.71689E-03
            2336     7.14540E-03     6.77118E-03    -11.5205E+06    -48.6469E+06    -4.74049E+06    -3.30414E+06    -8.63422E-03     16.3881E-03    -7.75388E-03     4.47097E-03    -8.61453E-03     16.1686E-03    -7.69034E-03     4.42726E-03
            2337     6.25280E-03     6.76984E-03    -12.1450E+06    -47.7887E+06    -6.55533E+06    -2.79997E+06    -8.24434E-03     15.8855E-03    -7.64119E-03     4.13252E-03    -8.22632E-03     15.6738E-03    -7.58706E-03     4.09556E-03
            2338     5.36000E-03     6.76871E-03    -12.9042E+06    -46.9451E+06    -8.17062E+06    -2.20899E+06    -7.95649E-03     15.5075E-03    -7.55104E-03     3.69624E-03    -7.94111E-03     15.3034E-03    -7.50512E-03     3.66710E-03
            2339     4.46690E-03     6.76799E-03    -13.3713E+06    -46.2141E+06    -9.25734E+06    -2.08496E+06    -7.73433E-03     15.2152E-03    -7.48087E-03     3.20763E-03    -7.72072E-03     15.0169E-03    -7.44075E-03     3.18025E-03
            2340     3.57371E-03     6.76734E-03    -13.8285E+06    -45.5030E+06    -9.45809E+06    -1.85355E+06    -7.56659E-03     14.9975E-03    -7.43095E-03     2.67449E-03    -7.55598E-03     14.8037E-03    -7.39221E-03     2.65025E-03
            2341     2.68036E-03     6.76690E-03    -14.9509E+06    -45.3915E+06    -10.1585E+06    -1.31600E+06    -7.45065E-03     14.8444E-03    -7.39376E-03     2.07459E-03    -7.44466E-03     14.6537E-03    -7.35705E-03     2.05736E-03
            2342     1.78694E-03     6.76659E-03    -16.6533E+06    -41.6895E+06    -12.3239E+06    -1.24967E+06    -7.36394E-03     14.7206E-03    -7.35665E-03     1.45662E-03    -7.36847E-03     14.5541E-03    -7.33367E-03     1.44026E-03
            2343     893.529E-06     6.76639E-03    -18.3526E+06    -36.5183E+06    -16.7737E+06    -1.22089E+06    -7.32075E-03     14.6330E-03    -7.31222E-03     796.193E-06    -7.33326E-03     14.5045E-03    -7.31652E-03     780.372E-06
            2344     16.8777E-03     6.00719E-03    -2.93104E+06     121.534E+06     47.4274E+06     2.94920E+06    -51.1161E-03     64.4588E-03    -13.3427E-03     155.971E-03    -54.1363E-03     67.7650E-03    -13.2776E-03     156.284E-03
            2345     16.0121E-03     5.92610E-03    -4.30596E+06     62.7539E+06     1.92856E+06     8.04864E+06    -33.9074E-03     45.6832E-03    -11.7758E-03     59.4052E-03    -34.1943E-03     46.1730E-03    -11.8509E-03     59.3593E-03
            2346     15.1370E-03     5.88088E-03    -9.26161E+06     23.8126E+06    -17.3593E+06     9.82830E+06    -26.0616E-03     36.7790E-03    -10.7174E-03     32.1752E-03    -26.1491E-03     36.9689E-03    -10.8253E-03     32.2460E-03
            2347     14.2580E-03     5.85393E-03    -12.2276E+06    -2.34131E+06    -13.1652E+06     8.03622E+06    -20.9894E-03     30.9922E-03    -10.0027E-03     19.9075E-03    -21.0393E-03     31.0288E-03    -10.0474E-03     19.9838E-03
            2348     13.3746E-03     5.83628E-03    -14.2940E+06    -17.6100E+06    -5.54133E+06     2.65101E+06    -16.7703E-03     26.2553E-03    -9.48500E-03     13.3310E-03    -16.8129E-03     26.2008E-03    -9.46645E-03     13.3515E-03
            2349     12.4881E-03     5.82641E-03    -14.4432E+06    -26.9465E+06     61.2165E+03    -2.05510E+06    -13.6429E-03     22.7635E-03    -9.12055E-03     9.88267E-03    -13.6782E-03     22.6518E-03    -9.06022E-03     9.84914E-03
            2350     11.5989E-03     5.82007E-03    -13.6845E+06    -42.3800E+06    -987.654E+03    -3.53611E+06    -11.7357E-03     20.5954E-03    -8.85973E-03     8.45486E-03    -11.7424E-03     20.4060E-03    -8.78337E-03     8.40477E-03
            2351     10.7086E-03     5.81581E-03    -13.2291E+06    -53.9785E+06    -972.872E+03    -3.73954E+06    -10.6361E-03     19.3145E-03    -8.67836E-03     7.66727E-03    -10.6233E-03     19.0660E-03    -8.58577E-03     7.61583E-03
            2352     9.81760E-03     5.81264E-03    -12.4537E+06    -54.9164E+06    -876.776E+03    -4.01730E+06    -9.90384E-03     18.4327E-03    -8.52891E-03     7.08438E-03    -9.88570E-03     18.1780E-03    -8.43560E-03     7.03019E-03
            2353     8.92605E-03     5.81046E-03    -12.0344E+06    -52.9227E+06    -1.89498E+06    -4.26915E+06    -9.39516E-03     17.7969E-03    -8.40176E-03     6.66380E-03    -9.37617E-03     17.5528E-03    -8.31704E-03     6.60693E-03
            2354     8.03422E-03     5.80869E-03    -12.1178E+06    -50.3766E+06    -2.85964E+06    -4.24022E+06    -8.98332E-03     17.2825E-03    -8.29914E-03     6.22889E-03    -8.96692E-03     17.0525E-03    -8.22282E-03     6.17284E-03
            2355     7.14193E-03     5.80746E-03    -12.1583E+06    -49.6386E+06    -4.93095E+06    -3.89933E+06    -8.65052E-03     16.8668E-03    -8.21627E-03     5.74767E-03    -8.63231E-03     16.6435E-03    -8.15132E-03     5.69633E-03
            2356     6.24950E-03     5.80636E-03    -12.1445E+06    -48.9137E+06    -6.61016E+06    -3.36620E+06    -8.42108E-03     16.5761E-03    -8.15498E-03     5.22850E-03    -8.40135E-03     16.3587E-03    -8.09950E-03     5.18428E-03
            2357     5.35685E-03     5.80557E-03    -11.7544E+06    -47.6777E+06    -7.00444E+06    -2.98386E+06    -8.27587E-03     16.3885E-03    -8.11267E-03     4.58535E-03    -8.25538E-03     16.1774E-03    -8.06152E-03     4.54622E-03
            2358     4.46417E-03     5.80494E-03    -11.5806E+06    -46.8280E+06    -7.05713E+06    -2.72354E+06    -8.17453E-03     16.2569E-03    -8.08234E-03     3.88027E-03    -8.15429E-03     16.0497E-03    -8.03293E-03     3.84462E-03
            2359     3.57138E-03     5.80450E-03    -12.0479E+06    -47.0310E+06     -8.0772E+06    -2.10194E+06    -8.09384E-03     16.1520E-03    -8.05812E-03     3.17971E-03    -8.07412E-03     15.9459E-03    -8.01285E-03     3.15218E-03
            2360     2.67856E-03     5.80413E-03    -12.7222E+06    -46.1403E+06    -9.52964E+06    -1.57543E+06    -8.04082E-03     16.0797E-03    -8.03892E-03     2.44401E-03    -8.02352E-03     15.8811E-03    -8.00122E-03     2.42336E-03
            2361     1.78571E-03     5.80388E-03    -13.5584E+06    -42.4154E+06    -11.5194E+06    -1.43370E+06    -8.00334E-03     16.0258E-03    -8.02247E-03     1.66773E-03    -7.99250E-03     15.8500E-03    -7.99891E-03     1.64904E-03
            2362     892.747E-06     5.80373E-03    -14.6368E+06    -38.5132E+06    -14.0537E+06    -645.787E+03    -8.00708E-03     16.0126E-03    -8.00557E-03     919.128E-06    -8.00199E-03     15.8649E-03    -7.99877E-03     910.735E-06
            2363     16.8857E-03     5.00550E-03    -3.66952E+06     115.432E+06     47.5091E+06     4.25531E+06    -52.6946E-03     65.8128E-03    -13.1183E-03     135.394E-03    -54.9278E-03     68.3097E-03    -13.0428E-03     135.252E-03
            2364     16.0166E-03     4.93636E-03    -11.1964E+06     55.1402E+06     7.05633E+06     11.3984E+06    -32.4510E-03     43.9865E-03    -11.5355E-03     54.0804E-03    -32.7168E-03     44.3887E-03    -11.5639E-03     54.1028E-03
            2365     15.1413E-03     4.89911E-03    -15.0318E+06     25.8782E+06    -7.11372E+06     15.4317E+06    -24.1027E-03     34.6667E-03    -10.5640E-03     29.9584E-03    -24.2282E-03     34.8518E-03    -10.6153E-03     30.1138E-03
            2366     14.2596E-03     4.87721E-03    -19.4832E+06     6.67760E+06    -8.17605E+06     9.82071E+06    -18.1248E-03     28.0735E-03    -9.94878E-03     19.9860E-03    -18.2286E-03     28.1559E-03    -9.97109E-03     20.0931E-03
            2367     13.3739E-03     4.86486E-03    -18.5564E+06    -8.96956E+06    -2.79362E+06     95.1488E+03    -14.3084E-03     23.8927E-03    -9.58422E-03     15.0800E-03    -14.3882E-03     23.8829E-03    -9.55828E-03     15.0713E-03
            2368     12.4846E-03     4.85771E-03    -15.7638E+06    -25.3388E+06     3.44902E+06    -4.93677E+06    -12.0314E-03     21.4091E-03    -9.37772E-03     12.3021E-03    -12.0804E-03     21.3022E-03    -9.30088E-03     12.2329E-03
            2369     11.5945E-03     4.85304E-03    -14.3429E+06    -42.8710E+06     2.32468E+06    -5.44347E+06    -10.8635E-03     20.0940E-03    -9.23053E-03     10.9348E-03    -10.8775E-03     19.8982E-03    -9.13595E-03     10.8608E-03
            2370     10.7037E-03     4.84946E-03    -13.2673E+06    -53.9632E+06     9.97072E+03    -5.73487E+06    -10.1952E-03     19.3138E-03    -9.11862E-03     9.77673E-03    -10.1840E-03     19.0640E-03    -9.02108E-03     9.69998E-03
            2371     9.81243E-03     4.84716E-03    -12.5424E+06    -55.4354E+06    -1.24678E+06    -5.82420E+06    -9.71221E-03     18.7430E-03    -9.03075E-03     8.89432E-03    -9.69320E-03     18.4862E-03    -8.93841E-03     8.81710E-03
            2372     8.92084E-03     4.84521E-03    -11.9815E+06    -53.4107E+06    -2.67487E+06    -5.64075E+06    -9.39841E-03     18.3588E-03    -8.96044E-03     8.16139E-03    -9.37730E-03     18.1133E-03    -8.87899E-03     8.08701E-03
            2373     8.02901E-03     4.84392E-03    -11.5000E+06    -51.3607E+06    -3.25772E+06    -5.38504E+06    -9.18532E-03     18.0956E-03    -8.91031E-03     7.40564E-03    -9.16383E-03     17.8604E-03    -8.83545E-03     7.33494E-03
            2374     7.13712E-03     4.84287E-03    -11.2268E+06    -50.7567E+06    -4.50324E+06    -4.93987E+06    -9.03383E-03     17.9050E-03    -8.87117E-03     6.66074E-03    -9.00997E-03     17.6741E-03    -8.80381E-03     6.59607E-03
            2375     6.24503E-03     4.84205E-03    -10.5817E+06    -49.8280E+06    -5.64848E+06    -4.78391E+06    -8.92824E-03     17.7695E-03    -8.84127E-03     5.92516E-03    -8.90077E-03     17.5439E-03    -8.78192E-03     5.86273E-03
            2376     5.35294E-03     4.84125E-03    -9.84994E+06    -48.8220E+06    -5.86716E+06    -4.46785E+06    -8.86354E-03     17.6867E-03    -8.82316E-03     5.08895E-03    -8.83352E-03     17.4654E-03    -8.76742E-03     5.03073E-03
            2377     4.46081E-03     4.84074E-03    -9.57690E+06    -48.5228E+06    -5.90228E+06    -3.32175E+06    -8.81890E-03     17.6321E-03    -8.81324E-03     4.22033E-03    -8.78786E-03     17.4119E-03    -8.75851E-03     4.17699E-03
            2378     3.56865E-03     4.84034E-03    -9.84327E+06    -48.4290E+06    -6.88328E+06    -2.24873E+06    -8.80362E-03     17.6064E-03    -8.80275E-03     3.40608E-03    -8.77260E-03     17.3884E-03    -8.75267E-03     3.37663E-03
            2379     2.67648E-03     4.84001E-03    -10.2706E+06    -46.6254E+06    -8.14799E+06    -2.15766E+06    -8.79316E-03     17.5818E-03    -8.78859E-03     2.56020E-03    -8.76493E-03     17.3752E-03    -8.74683E-03     2.53203E-03
            2380     1.78431E-03     4.83974E-03    -10.4019E+06    -44.4599E+06    -8.63677E+06    -1.70090E+06    -8.77611E-03     17.5537E-03    -8.77755E-03     1.70953E-03    -8.75078E-03     17.3590E-03    -8.74118E-03     1.68743E-03
            2381     892.251E-06     4.83960E-03    -11.1250E+06    -39.7236E+06    -10.1938E+06    -95.8660E+03    -8.76801E-03     17.5186E-03    -8.75062E-03     972.494E-06    -8.74942E-03     17.3543E-03    -8.72786E-03     971.182E-06
            2382     16.8845E-03     4.00678E-03    -2.63396E+06     107.001E+06     50.4049E+06     9.48775E+06    -51.8380E-03     65.0227E-03    -13.1848E-03     116.387E-03    -53.3176E-03     66.7311E-03    -13.0841E-03     116.176E-03
            2383     16.0162E-03     3.94596E-03    -14.9522E+06     49.9174E+06     19.5099E+06     16.4357E+06    -31.7206E-03     43.3875E-03    -11.6669E-03     48.4639E-03    -31.9773E-03     43.7130E-03    -11.6200E-03     48.5703E-03
            2384     15.1398E-03     3.91926E-03    -19.3988E+06     30.0935E+06     12.0891E+06     16.7416E+06    -21.2315E-03     32.0507E-03    -10.8191E-03     28.3722E-03    -21.4053E-03     32.2280E-03    -10.7742E-03     28.5575E-03
            2385     14.2550E-03     3.90458E-03    -17.7797E+06     21.0721E+06     5.09941E+06     7.82855E+06    -15.5729E-03     25.8970E-03    -10.3241E-03     22.3707E-03    -15.7063E-03     26.0275E-03    -10.3034E-03     22.4583E-03
            2386     13.3663E-03     3.89459E-03    -15.5728E+06     194.056E+03     1.06904E+06    -3.94542E+06    -13.0200E-03     23.0846E-03    -10.0646E-03     17.8664E-03    -13.1030E-03     23.1099E-03    -10.0369E-03     17.8080E-03
            2387     12.4773E-03     3.88977E-03    -14.1928E+06    -26.3108E+06     4.24733E+06    -7.86182E+06    -11.6996E-03     21.6492E-03    -9.94960E-03     14.7291E-03    -11.7401E-03     21.5336E-03    -9.86963E-03     14.6230E-03
            2388     11.5870E-03     3.88547E-03    -13.4821E+06    -43.3071E+06     4.13503E+06    -7.48651E+06    -10.9253E-03     20.7862E-03    -9.86090E-03     12.9315E-03    -10.9369E-03     20.5842E-03    -9.75788E-03     12.8318E-03
            2389     10.6964E-03     3.88288E-03    -12.9817E+06    -54.2549E+06    -145.669E+03    -7.81627E+06    -10.4357E-03     20.2139E-03    -9.77826E-03     11.3143E-03    -10.4223E-03     19.9622E-03    -9.68150E-03     11.2112E-03
            2390     9.80542E-03     3.88078E-03    -11.8278E+06    -56.3500E+06    -2.30875E+06    -7.88440E+06    -10.1048E-03     19.8218E-03    -9.71702E-03     10.0705E-03    -10.0793E-03     19.5609E-03    -9.62970E-03     9.96701E-03
            2391     8.91421E-03     3.87926E-03    -10.3930E+06    -54.3771E+06    -3.74559E+06    -7.56867E+06    -9.88988E-03     19.5606E-03    -9.67071E-03     8.96217E-03    -9.85780E-03     19.3094E-03    -9.59552E-03     8.86319E-03
            2392     8.02287E-03     3.87799E-03    -9.05135E+06    -52.7424E+06    -4.50514E+06    -6.97045E+06    -9.77263E-03     19.4124E-03    -9.63977E-03     7.88630E-03    -9.73503E-03     19.1685E-03    -9.57269E-03     7.79530E-03
            2393     7.13148E-03     3.87707E-03    -7.94829E+06    -51.9909E+06    -4.64112E+06    -6.33595E+06    -9.72688E-03     19.3455E-03    -9.61858E-03     6.91102E-03    -9.68460E-03     19.1038E-03    -9.55488E-03     6.82845E-03
            2394     6.24016E-03     3.87629E-03    -7.49734E+06    -50.9902E+06    -4.58121E+06    -5.88223E+06    -9.68529E-03     19.2859E-03    -9.60064E-03     6.00100E-03    -9.64225E-03     19.0485E-03    -9.53874E-03     5.92449E-03
            2395     5.34875E-03     3.87556E-03    -7.63407E+06    -50.6624E+06    -5.41646E+06    -5.11782E+06    -9.61745E-03     19.2017E-03    -9.58428E-03     5.04408E-03    -9.57432E-03     18.9673E-03    -9.52683E-03     4.97755E-03
            2396     4.45728E-03     3.87513E-03    -7.67579E+06    -50.8113E+06    -6.16077E+06    -3.98385E+06    -9.58819E-03     19.1622E-03    -9.57400E-03     4.14126E-03    -9.54393E-03     18.9281E-03    -9.51999E-03     4.08944E-03
            2397     3.56582E-03     3.87466E-03    -7.42336E+06    -49.7972E+06    -5.49190E+06    -2.91667E+06    -9.59864E-03     19.1659E-03    -9.56724E-03     3.29579E-03    -9.55554E-03     18.9356E-03    -9.51173E-03     3.25781E-03
            2398     2.67444E-03     3.87433E-03    -7.45795E+06    -47.4988E+06    -5.74915E+06    -2.26328E+06    -9.58372E-03     19.1331E-03    -9.54936E-03     2.41703E-03    -9.54362E-03     18.9146E-03    -9.49842E-03     2.38757E-03
            2399     1.78301E-03     3.87415E-03    -8.63786E+06    -46.8902E+06    -6.59005E+06    -1.52117E+06    -9.54780E-03     19.0786E-03    -9.53077E-03     1.62380E-03    -9.51306E-03     18.8662E-03    -9.48320E-03     1.60403E-03
            2400     891.449E-06     3.87395E-03    -10.4431E+06    -40.4445E+06    -9.10092E+06     30.7798E+03    -9.49525E-03     19.0009E-03    -9.50569E-03     941.531E-06    -9.47378E-03     18.8304E-03    -9.47741E-03     942.064E-06
            2401     16.8742E-03     2.99630E-03    -5.23851E+06     96.8346E+06     55.7512E+06     13.5256E+06    -49.9122E-03     63.4281E-03    -13.5159E-03     90.4051E-03    -50.8633E-03     64.5471E-03    -13.3699E-03     90.2115E-03
            2402     16.0121E-03     2.95807E-03    -9.78660E+06     52.5574E+06     38.6944E+06     19.3994E+06    -28.6129E-03     40.7664E-03    -12.1535E-03     38.3650E-03    -28.8416E-03     41.0363E-03    -12.0221E-03     38.5399E-03
            2403     15.1296E-03     2.94407E-03    -10.8577E+06     38.9978E+06     28.5440E+06     12.7975E+06    -18.6533E-03     30.1101E-03    -11.4568E-03     27.8432E-03    -18.8157E-03     30.2899E-03    -11.3549E-03     27.9886E-03
            2404     14.2427E-03     2.93177E-03    -7.17333E+06     33.9407E+06     16.7067E+06     2.24541E+06    -14.9215E-03     25.9825E-03    -11.0611E-03     23.7950E-03    -15.0355E-03     26.1431E-03    -11.0163E-03     23.8142E-03
            2405     13.3556E-03     2.92451E-03    -5.52066E+06     6.56848E+06     3.90528E+06    -4.58942E+06    -13.3355E-03     24.1613E-03    -10.8258E-03     18.9717E-03    -13.3805E-03     24.1986E-03    -10.8077E-03     18.9069E-03
            2406     12.4665E-03     2.92004E-03    -8.19984E+06    -27.0950E+06     1.29907E+06    -7.60996E+06    -12.4749E-03     23.1901E-03    -10.7151E-03     15.5477E-03    -12.4797E-03     23.0656E-03    -10.6574E-03     15.4458E-03
            2407     11.5775E-03     2.91713E-03    -10.1206E+06    -43.6547E+06     261.216E+03    -8.57182E+06    -11.7655E-03     22.3902E-03    -10.6248E-03     13.3194E-03    -11.7538E-03     22.1868E-03    -10.5455E-03     13.2063E-03
            2408     10.6875E-03     2.91474E-03    -9.84344E+06    -54.1176E+06    -4.66099E+06    -9.54493E+06    -11.2798E-03     21.8151E-03    -10.5353E-03     11.5765E-03    -11.2441E-03     21.5659E-03    -10.4659E-03     11.4517E-03
            2409     9.79743E-03     2.91316E-03    -8.43678E+06    -57.5893E+06    -6.65310E+06    -10.2133E+06    -11.0303E-03     21.4995E-03    -10.4691E-03     10.0289E-03    -10.9796E-03     21.2335E-03    -10.4066E-03     9.89586E-03
            2410     8.90707E-03     2.91173E-03    -6.58990E+06    -56.0287E+06    -7.22556E+06    -9.58963E+06    -10.8124E-03     21.2272E-03    -10.4148E-03     8.65459E-03    -10.7538E-03     20.9672E-03    -10.3601E-03     8.52985E-03
            2411     8.01663E-03     2.91065E-03    -5.05841E+06    -54.6720E+06    -6.96945E+06    -8.51713E+06    -10.6667E-03     21.0427E-03    -10.3760E-03     7.42930E-03    -10.6026E-03     20.7868E-03    -10.3243E-03     7.31861E-03
            2412     7.12604E-03     2.90976E-03    -4.15281E+06    -54.0450E+06    -6.15166E+06    -7.10050E+06    -10.5911E-03     20.9385E-03    -10.3474E-03     6.33835E-03    -10.5246E-03     20.6832E-03    -10.2938E-03     6.24607E-03
            2413     6.23546E-03     2.90892E-03    -4.24091E+06    -52.7627E+06    -5.50417E+06    -5.64948E+06    -10.5063E-03     20.8277E-03    -10.3214E-03     5.35011E-03    -10.4430E-03     20.5779E-03    -10.2662E-03     5.27670E-03
            2414     5.34480E-03     2.90845E-03    -5.04955E+06    -52.6866E+06    -5.65354E+06    -4.56088E+06    -10.4301E-03     20.7280E-03    -10.2979E-03     4.43327E-03    -10.3707E-03     20.4800E-03    -10.2425E-03     4.37402E-03
            2415     4.45407E-03     2.90795E-03    -6.01829E+06    -52.5738E+06    -5.78106E+06    -3.82985E+06    -10.3831E-03     20.6598E-03    -10.2767E-03     3.60870E-03    -10.3285E-03     20.4139E-03    -10.2206E-03     3.55896E-03
            2416     3.56337E-03     2.90751E-03    -6.91855E+06    -51.5973E+06    -5.82387E+06    -3.06464E+06    -10.3247E-03     20.5804E-03    -10.2558E-03     2.83163E-03    -10.2759E-03     20.3408E-03    -10.2001E-03     2.79187E-03
            2417     2.67255E-03     2.90720E-03    -7.62167E+06    -49.0895E+06    -6.82116E+06    -1.90932E+06    -10.2673E-03     20.4991E-03    -10.2317E-03     2.07601E-03    -10.2242E-03     20.2744E-03    -10.1836E-03     2.05123E-03
            2418     1.78172E-03     2.90711E-03    -8.74990E+06    -48.7000E+06    -7.09276E+06    -781.684E+03    -10.2391E-03     20.4553E-03    -10.2162E-03     1.39833E-03    -10.2014E-03     20.2346E-03    -10.1684E-03     1.38814E-03
            2419     890.947E-06     2.90698E-03    -10.3240E+06    -41.2262E+06    -8.74521E+06    -4.99753E+03    -10.1735E-03     20.3743E-03    -10.2008E-03     803.537E-06    -10.1503E-03     20.1990E-03    -10.1697E-03     802.913E-06
            2420     16.8787E-03     1.99429E-03    -6.02707E+06     86.0711E+06     55.0672E+06     13.7901E+06    -43.3887E-03     57.4886E-03    -14.0999E-03     72.0663E-03    -43.9744E-03     58.2028E-03    -13.9406E-03     71.9681E-03
            2421     15.9968E-03     1.97695E-03    -3.93984E+06     56.0704E+06     48.7145E+06     15.0946E+06    -26.0510E-03     39.0548E-03    -13.0038E-03     34.1791E-03    -26.2482E-03     39.2958E-03    -12.8358E-03     34.3292E-03
            2422     15.1142E-03     1.96716E-03     3.73534E+06     51.6598E+06     43.2302E+06     6.34025E+06    -19.2260E-03     31.6244E-03    -12.3984E-03     26.3692E-03    -19.3510E-03     31.8206E-03    -12.2626E-03     26.4365E-03
            2423     14.2303E-03     1.95794E-03     5.83211E+06     40.0081E+06     21.3175E+06     -318.77E+03    -16.2862E-03     28.2452E-03    -11.9590E-03     22.5090E-03    -16.3485E-03     28.4083E-03    -11.9189E-03     22.4981E-03
            2424     13.3428E-03     1.95231E-03     2.76917E+06     8.26469E+06    -1.12413E+06    -1.79588E+06    -14.8631E-03     26.5172E-03    -11.6541E-03     17.3042E-03    -14.8607E-03     26.5572E-03    -11.6757E-03     17.2771E-03
            2425     12.4559E-03     1.94850E-03     79.9431E+03    -24.0497E+06    -6.68917E+06    -4.47273E+06    -13.8301E-03     25.3189E-03    -11.4888E-03     13.6431E-03    -13.7857E-03     25.2088E-03    -11.4875E-03     13.5827E-03
            2426     11.5676E-03     1.94671E-03    -1.38654E+06    -42.9844E+06    -9.12898E+06    -8.25268E+06    -13.0815E-03     24.4406E-03    -11.3592E-03     11.4026E-03    -13.0132E-03     24.2412E-03    -11.3405E-03     11.2944E-03
            2427     10.6790E-03     1.94500E-03    -1.63696E+06    -53.8731E+06    -14.2115E+06    -9.81072E+06    -12.5784E-03     23.8106E-03    -11.2322E-03     9.76189E-03    -12.4881E-03     23.5643E-03    -11.2227E-03     9.63415E-03
            2428     9.78993E-03     1.94349E-03    -1.72323E+06    -58.5072E+06    -15.6462E+06    -10.3261E+06    -12.1968E-03     23.3312E-03    -11.1343E-03     8.18679E-03    -12.0981E-03     23.0639E-03    -11.1252E-03     8.05270E-03
            2429     8.90077E-03     1.94254E-03    -1.72704E+06    -58.3513E+06    -13.9884E+06    -9.96456E+06    -11.8852E-03     22.9455E-03    -11.0604E-03     6.90733E-03    -11.7890E-03     22.6766E-03    -11.0432E-03     6.77810E-03
            2430     8.01114E-03     1.94165E-03    -1.73155E+06    -57.4731E+06    -12.0004E+06    -8.29556E+06    -11.6383E-03     22.6378E-03    -10.9995E-03     5.84653E-03    -11.5463E-03     22.3703E-03    -10.9736E-03     5.73897E-03
            2431     7.12152E-03     1.94082E-03    -2.43510E+06    -56.9849E+06    -10.0021E+06    -6.17542E+06    -11.4277E-03     22.3786E-03    -10.9509E-03     4.86681E-03    -11.3428E-03     22.1117E-03    -10.9147E-03     4.78669E-03
            2432     6.23160E-03     1.94032E-03    -3.37209E+06    -55.0432E+06    -8.41497E+06    -4.20642E+06    -11.2456E-03     22.1542E-03    -10.9086E-03     4.01669E-03    -11.1704E-03     21.8960E-03    -10.8659E-03     3.96205E-03
            2433     5.34155E-03     1.93979E-03    -4.16330E+06    -54.0201E+06    -7.44093E+06    -3.31557E+06    -11.1341E-03     22.0050E-03    -10.8709E-03     3.30416E-03    -11.0658E-03     21.7517E-03    -10.8238E-03     3.26108E-03
            2434     4.45156E-03     1.93944E-03    -5.08530E+06    -54.1289E+06    -6.35834E+06    -2.68705E+06    -11.0331E-03     21.8720E-03    -10.8389E-03     2.68164E-03    -10.9708E-03     21.6179E-03    -10.7848E-03     2.64676E-03
            2435     3.56134E-03     1.93912E-03    -6.19670E+06     -53.002E+06    -6.21141E+06    -1.99673E+06    -10.9083E-03     21.7166E-03    -10.8084E-03     2.08549E-03    -10.8533E-03     21.4695E-03    -10.7536E-03     2.05962E-03
            2436     2.67105E-03     1.93899E-03    -7.28524E+06    -50.9977E+06    -6.77098E+06    -1.36074E+06    -10.8180E-03     21.6038E-03    -10.7858E-03     1.53359E-03    -10.7705E-03     21.3690E-03    -10.7351E-03     1.51597E-03
            2437     1.78070E-03     1.93878E-03    -8.23492E+06    -49.8106E+06    -6.49214E+06    -458.726E+03    -10.7916E-03     21.5652E-03    -10.7736E-03     1.02661E-03    -10.7508E-03     21.3374E-03    -10.7219E-03     1.02071E-03
            2438     890.334E-06     1.93877E-03    -9.35629E+06    -41.5490E+06    -7.69750E+06    -387.424E+03    -10.7478E-03     21.4925E-03    -10.7447E-03     581.252E-06    -10.7198E-03     21.3134E-03    -10.7094E-03     575.693E-06
            2439     16.8403E-03     999.551E-06    -3.37968E+06     81.6459E+06     58.7811E+06     10.4156E+06    -42.9159E-03     58.1253E-03    -15.2094E-03     56.2383E-03    -43.3030E-03     58.6203E-03    -15.0290E-03     56.1668E-03
            2440     15.9755E-03     989.030E-06     7.28656E+06     66.3699E+06     55.6438E+06     4.33213E+06    -27.9875E-03     42.0816E-03    -14.0941E-03     25.7666E-03    -28.1390E-03     42.3329E-03    -13.9227E-03     25.7931E-03
            2441     15.0994E-03     987.821E-06     11.0701E+06     55.7605E+06     39.8788E+06    -1.23550E+06    -23.0049E-03     36.3496E-03    -13.3447E-03     19.9958E-03    -23.0905E-03     36.5567E-03    -13.2422E-03     19.9721E-03
            2442     14.2156E-03     981.028E-06     11.4657E+06     38.9476E+06      13.923E+06     1.81851E+06    -19.3697E-03     32.1134E-03    -12.7437E-03     15.9466E-03    -19.3897E-03     32.2719E-03    -12.7472E-03     15.9671E-03
            2443     13.3328E-03     976.819E-06     10.5600E+06     10.9221E+06    -7.58470E+06     1.68785E+06    -16.8129E-03     29.1390E-03    -12.3261E-03     11.0107E-03    -16.7653E-03     29.1896E-03    -12.3952E-03     11.0304E-03
            2444     12.4468E-03     975.380E-06     10.2468E+06    -19.6106E+06    -16.1653E+06    -2.64019E+06    -15.2863E-03     27.3601E-03    -12.0739E-03     8.32032E-03    -15.1833E-03     27.2708E-03    -12.1411E-03     8.28489E-03
            2445     11.5599E-03     973.995E-06     10.1142E+06    -41.4800E+06    -20.5573E+06    -5.35869E+06    -14.4129E-03     26.2983E-03    -11.8854E-03     6.76020E-03    -14.2724E-03     26.1061E-03    -11.9427E-03     6.69019E-03
            2446     10.6727E-03     973.119E-06     8.10297E+06    -54.0638E+06    -24.2059E+06    -6.43021E+06    -13.7722E-03     25.4940E-03    -11.7218E-03     5.64795E-03    -13.6182E-03     25.2470E-03    -11.7762E-03     5.56440E-03
            2447     9.78482E-03     972.291E-06     5.52747E+06    -58.9704E+06    -23.6508E+06    -6.75390E+06    -13.1934E-03     24.7879E-03    -11.5944E-03     4.68225E-03    -13.0460E-03     24.5192E-03    -11.6352E-03     4.59470E-03
            2448     8.89622E-03     971.770E-06     2.72464E+06    -60.2428E+06    -20.5417E+06    -6.51476E+06    -12.7460E-03     24.2427E-03    -11.4967E-03     3.86515E-03    -12.6152E-03     23.9672E-03    -11.5160E-03     3.78077E-03
            2449     8.00761E-03     971.160E-06     176.692E+03    -60.6261E+06    -17.1700E+06    -5.25539E+06    -12.3733E-03     23.7890E-03    -11.4157E-03     3.23364E-03    -12.2595E-03     23.5104E-03    -11.4139E-03     3.16558E-03
            2450     7.11842E-03     970.823E-06    -1.80066E+06    -59.6693E+06    -13.7793E+06    -3.33285E+06    -12.0450E-03     23.3934E-03    -11.3484E-03     2.62975E-03    -11.9474E-03     23.1175E-03    -11.3282E-03     2.58654E-03
            2451     6.22908E-03     970.442E-06    -3.23123E+06    -56.7636E+06    -10.7540E+06    -2.26209E+06    -11.7859E-03     23.0766E-03    -11.2907E-03     2.14676E-03    -11.7040E-03     22.8129E-03    -11.2575E-03     2.11737E-03
            2452     5.33958E-03     970.193E-06    -4.08742E+06    -54.8036E+06    -9.08782E+06    -1.68786E+06    -11.5823E-03     22.8219E-03    -11.2396E-03     1.76462E-03    -11.5099E-03     22.5668E-03    -11.1997E-03     1.74266E-03
            2453     4.44980E-03     969.917E-06    -4.60123E+06    -55.1336E+06    -7.79166E+06    -1.42297E+06    -11.4244E-03     22.6256E-03    -11.2012E-03     1.42152E-03    -11.3560E-03     22.3677E-03    -11.1535E-03     1.40305E-03
            2454     3.56000E-03     969.855E-06    -4.82652E+06    -54.0074E+06    -6.19171E+06    -1.08512E+06    -11.3057E-03     22.4777E-03    -11.1720E-03     1.10064E-03    -11.2423E-03     22.2234E-03    -11.1177E-03     1.08657E-03
            2455     2.67007E-03     969.726E-06    -5.32223E+06    -52.1770E+06    -4.86484E+06    -593.961E+03    -11.2190E-03     22.3681E-03    -11.1490E-03     809.066E-06    -11.1625E-03     22.1216E-03    -11.0900E-03     801.392E-06
            2456     1.78008E-03     969.669E-06    -6.52235E+06    -50.2358E+06    -4.36259E+06    -269.964E+03    -11.1565E-03     22.2844E-03    -11.1279E-03     532.658E-06    -11.1092E-03     22.0486E-03    -11.0674E-03     529.181E-06
            2457     890.091E-06     969.518E-06    -8.32042E+06    -41.8899E+06    -6.72172E+06    -501.478E+03    -11.0957E-03     22.1868E-03    -11.0911E-03     264.799E-06    -11.0620E-03     22.0030E-03    -11.0519E-03     259.827E-06


