********************************************************************************
Field Output Report, written Mon Aug 12 21:08:14 2024

Source 1
---------

   ODB: G:/Abaqus_calc_2019/1740/Vel_40/odb/zeides_2a_24_red_150_cal_100_vel_40_fric_0100.odb
   Step: Step-1
   Frame: Increment   1743045: Step Time =   0.2286

Loc 1 : Nodal values from source 1

Output sorted by column "Nodal Label".

Field Output reported at nodes for region: DIE_2A_24_D0_36-1.Region_1
   Computation algorithm: EXTRAPOLATE_COMPUTE_AVERAGE
   Averaged at nodes
   Averaging regions: ODB_REGIONS

      Node Label     COORD.COOR1     COORD.COOR2
                          @Loc 1          @Loc 1
-------------------------------------------------
               1     21.4163E-03     105.016E-03


Field Output reported at nodes for region: DIE_2A_24_D0_36-1.Region_2
   Computation algorithm: EXTRAPOLATE_COMPUTE_AVERAGE
   Averaged at nodes
   Averaging regions: ODB_REGIONS

      Node Label     COORD.COOR1     COORD.COOR2
                          @Loc 1          @Loc 1
-------------------------------------------------
               1     21.4163E-03     105.016E-03


Field Output reported at nodes for part: WIRE-1
   Computation algorithm: EXTRAPOLATE_COMPUTE_AVERAGE
   Averaged at nodes
   Averaging regions: ODB_REGIONS

      Node Label     COORD.COOR1     COORD.COOR2           S.S11           S.S22           S.S33           S.S12         PE.PE11         PE.PE22         PE.PE33         PE.PE12         LE.LE11         LE.LE22         LE.LE33         LE.LE12
                          @Loc 1          @Loc 1          @Loc 1          @Loc 1          @Loc 1          @Loc 1          @Loc 1          @Loc 1          @Loc 1          @Loc 1          @Loc 1          @Loc 1          @Loc 1          @Loc 1
-------------------------------------------------------------------------------------------------------------------------------------------------------------------------------------------------------------------------------------------------
               1    -12.5986E-09     56.3974E-03    -18.2668E+06    -74.3427E+06    -18.3012E+06     40.0580E+03    -15.8080E-03     31.6305E-03    -15.8225E-03     2.04099E-03    -15.7650E-03     31.3119E-03    -15.7798E-03     2.04120E-03
               2     17.7217E-03     57.3512E-03    -2.43409E+06     175.514E+06     102.428E+06     383.240E+03    -21.3525E-03     37.2257E-03    -15.8732E-03     200.297E-03    -25.2654E-03     41.4560E-03    -15.6121E-03     203.873E-03
               3     17.5309E-03     114.114E-03     2.95300E+06    -10.9024E+06     25.1461E+06     5.32016E+06     11.8471E-03     10.8890E-03    -22.7362E-03     2.99590E-03     11.8301E-03     10.7826E-03    -22.5989E-03     3.06453E-03
               4    -382.195E-09     113.037E-03     22.4776E+06    -82.0533E+03     23.0855E+06    -1.35052E+06    -18.6185E-03     37.7420E-03    -19.1234E-03    -291.756E-06    -18.5400E-03     37.6750E-03    -19.0405E-03    -309.321E-06
               5     566.268E-09     34.6945E-18    -10.6038E+06    -58.0457E+06    -10.0785E+06    -126.829E+03    -13.3441E-03     26.6110E-03    -13.2669E-03     386.154E-06    -13.2982E-03     26.3509E-03    -13.2177E-03     384.647E-06
               6     17.6538E-03     34.6945E-18     6.86627E+06     97.6780E+06     72.3803E+06     6.82509E+06    -41.9142E-03     60.2360E-03    -18.3218E-03     46.2560E-03    -42.1999E-03     60.6868E-03    -18.1115E-03     46.1737E-03
               7     885.916E-06     56.3993E-03    -18.0189E+06    -74.0112E+06    -17.4807E+06     47.2811E+03    -15.8170E-03     31.6398E-03    -15.8228E-03     3.45722E-03    -15.7744E-03     31.3213E-03    -15.7768E-03     3.45730E-03
               8     1.77184E-03     56.4038E-03    -17.2325E+06    -73.2003E+06    -15.2509E+06     79.5111E+03    -15.8247E-03     31.6529E-03    -15.8282E-03     6.41770E-03    -15.7827E-03     31.3341E-03    -15.7733E-03     6.41773E-03
               9     2.65774E-03     56.4112E-03    -16.0385E+06    -71.9806E+06    -12.1541E+06     114.570E+03    -15.8258E-03     31.6637E-03    -15.8379E-03     9.56990E-03    -15.7842E-03     31.3448E-03    -15.7710E-03     9.56987E-03
              10     3.54369E-03     56.4216E-03    -14.6409E+06    -70.7889E+06    -8.79811E+06     159.181E+03    -15.8366E-03     31.6837E-03    -15.8471E-03     12.8423E-03    -15.7947E-03     31.3641E-03    -15.7672E-03     12.8423E-03
              11     4.42961E-03     56.4351E-03    -13.1249E+06    -69.8867E+06    -5.82363E+06     215.154E+03    -15.8564E-03     31.7110E-03    -15.8545E-03     16.2419E-03    -15.8128E-03     31.3896E-03    -15.7633E-03     16.2420E-03
              12     5.31557E-03     56.4519E-03    -11.6705E+06    -68.9185E+06    -3.55311E+06     225.390E+03    -15.8846E-03     31.7431E-03    -15.8586E-03     19.7944E-03    -15.8387E-03     31.4215E-03    -15.7595E-03     19.7939E-03
              13     6.20150E-03     56.4720E-03    -10.3972E+06    -67.6428E+06    -1.93778E+06     222.020E+03    -15.9186E-03     31.7777E-03    -15.8590E-03     23.5132E-03    -15.8710E-03     31.4586E-03    -15.7556E-03     23.5116E-03
              14     7.08748E-03     56.4956E-03    -9.23168E+06    -66.6388E+06    -479.604E+03     273.790E+03    -15.9648E-03     31.8241E-03    -15.8593E-03     27.3913E-03    -15.9156E-03     31.5069E-03    -15.7516E-03     27.3892E-03
              15     7.97343E-03     56.5229E-03    -8.24984E+06    -64.5710E+06     479.888E+03     276.789E+03    -16.0148E-03     31.8704E-03    -15.8556E-03     31.4141E-03    -15.9661E-03     31.5618E-03    -15.7477E-03     31.4105E-03
              16     8.85942E-03     56.5541E-03    -7.34611E+06    -61.7481E+06     1.19344E+06     308.997E+03    -16.0659E-03     31.9152E-03    -15.8492E-03     35.5190E-03    -16.0194E-03     31.6199E-03    -15.7431E-03     35.5136E-03
              17     9.74541E-03     56.5890E-03    -6.45240E+06    -60.6354E+06     1.23370E+06     392.885E+03    -16.1354E-03     31.9768E-03    -15.8414E-03     39.6721E-03    -16.0885E-03     31.6882E-03    -15.7380E-03     39.6646E-03
              18     10.6314E-03     56.6279E-03    -5.94605E+06    -55.4854E+06    -1.65434E+06     382.407E+03    -16.2082E-03     32.0218E-03    -15.8136E-03     43.8177E-03    -16.1658E-03     31.7661E-03    -15.7328E-03     43.8061E-03
              19     11.5174E-03     56.6704E-03    -5.63844E+06    -43.2406E+06     311.894E+03     366.328E+03    -16.2494E-03     32.0482E-03    -15.7988E-03     48.3238E-03    -16.2323E-03     31.8566E-03    -15.7264E-03     48.3067E-03
              20     12.4035E-03     56.7178E-03    -5.07048E+06    -36.3441E+06     660.650E+03     365.561E+03    -16.3282E-03     32.1081E-03    -15.7799E-03     54.9795E-03    -16.3303E-03     31.9612E-03    -15.7165E-03     54.9556E-03
              21     13.2898E-03     56.7727E-03    -4.84360E+06    -33.9813E+06    -8.03438E+06     360.981E+03    -16.4211E-03     32.1432E-03    -15.7221E-03     57.6449E-03    -16.4292E-03     32.0368E-03    -15.7060E-03     57.6133E-03
              22     14.1756E-03     56.8251E-03    -5.15005E+06    -11.1067E+06    -8.40502E+06     452.147E+03    -16.4695E-03     32.1479E-03    -15.6784E-03     61.7557E-03    -16.5405E-03     32.1856E-03    -15.6969E-03     61.7210E-03
              23     15.0623E-03     56.8873E-03    -5.29779E+06     33.7498E+06    -9.01791E+06     507.574E+03    -17.3250E-03     32.9227E-03    -15.5977E-03     89.6333E-03    -17.6097E-03     33.3346E-03    -15.6841E-03     89.6148E-03
              24     15.9471E-03     56.9922E-03    -5.52852E+06     94.9107E+06    -6.27408E+06     355.334E+03    -19.7379E-03     35.2420E-03    -15.5041E-03     146.068E-03    -21.1434E-03     36.9830E-03    -15.6651E-03     146.457E-03
              25     16.8344E-03     57.1602E-03    -4.10573E+06     153.465E+06     51.9255E+06     310.385E+03    -21.3371E-03     37.0133E-03    -15.6762E-03     190.284E-03    -24.4782E-03     40.5341E-03    -15.6331E-03     192.462E-03
              26     17.7216E-03     58.3286E-03    -2.79397E+06     175.497E+06     102.332E+06    -52.7665E+03    -21.7067E-03     37.5695E-03    -15.8629E-03     199.281E-03    -25.5972E-03     41.7764E-03    -15.6016E-03     202.821E-03
              27     17.7217E-03     59.3066E-03    -2.38643E+06     176.115E+06     102.620E+06     356.702E+03    -21.7773E-03     37.6391E-03    -15.8617E-03     199.604E-03    -25.6743E-03     41.8551E-03    -15.6005E-03     203.148E-03
              28     17.7216E-03     60.2873E-03    -2.43681E+06     176.516E+06     102.748E+06     447.764E+03    -21.5416E-03     37.4132E-03    -15.8716E-03     200.719E-03    -25.4677E-03     41.6593E-03    -15.6103E-03     204.289E-03
              29     17.7216E-03     61.2625E-03    -2.42157E+06     176.811E+06     102.764E+06     319.547E+03    -21.1381E-03     37.0179E-03    -15.8797E-03     199.697E-03    -25.0354E-03     41.2362E-03    -15.6188E-03     203.270E-03
              30     17.7218E-03     62.2400E-03    -2.79622E+06     176.715E+06     102.727E+06    -79.7159E+03    -21.4817E-03     37.3499E-03    -15.8681E-03     198.281E-03    -25.3439E-03     41.5315E-03    -15.6067E-03     201.815E-03
              31     17.7215E-03     63.2179E-03    -3.20726E+06     176.813E+06     102.776E+06    -302.523E+03    -22.2344E-03     38.0843E-03    -15.8499E-03     197.226E-03    -26.0795E-03     42.2477E-03    -15.5878E-03     200.710E-03
              32     17.7217E-03     64.1976E-03    -2.48720E+06     178.094E+06     103.424E+06     499.564E+03    -22.0942E-03     37.9503E-03    -15.8561E-03     198.524E-03    -25.9729E-03     42.1524E-03    -15.5936E-03     202.044E-03
              33     17.7216E-03     65.1789E-03    -2.51254E+06     178.622E+06     103.526E+06     244.589E+03    -21.5543E-03     37.4296E-03    -15.8753E-03     200.478E-03    -25.4825E-03     41.6828E-03    -15.6131E-03     204.049E-03
              34     17.7214E-03     66.1529E-03    -2.37989E+06     179.163E+06     103.681E+06     416.862E+03    -21.1441E-03     37.0282E-03    -15.8841E-03     198.882E-03    -25.0287E-03     41.2396E-03    -15.6220E-03     202.450E-03
              35     17.7217E-03     67.1314E-03    -2.64971E+06     179.376E+06     103.403E+06     233.305E+03    -21.4707E-03     37.3394E-03    -15.8687E-03     198.222E-03    -25.3390E-03     41.5353E-03    -15.6080E-03     201.763E-03
              36     17.7216E-03     68.1101E-03    -3.17823E+06     179.389E+06     103.577E+06    -436.688E+03    -22.4112E-03     38.2602E-03    -15.8490E-03     198.382E-03    -26.2951E-03     42.4693E-03    -15.5866E-03     201.884E-03
              37     17.7213E-03     69.0898E-03    -1.83170E+06     181.087E+06     104.631E+06     882.478E+03    -22.0742E-03     37.9358E-03    -15.8617E-03     199.331E-03    -25.9779E-03     42.1724E-03    -15.5984E-03     202.871E-03
              38     17.7219E-03     70.0701E-03    -2.52917E+06     180.828E+06     103.772E+06     560.765E+03    -20.9483E-03     36.8350E-03    -15.8867E-03     200.145E-03    -24.8678E-03     41.0865E-03    -15.6264E-03     203.742E-03
              39     17.7212E-03     71.0422E-03    -3.27547E+06     180.156E+06     102.942E+06    -692.290E+03    -21.1251E-03     36.9964E-03    -15.8712E-03     197.359E-03    -24.9761E-03     41.1768E-03    -15.6130E-03     200.898E-03
              40     17.7222E-03     72.0211E-03    -2.93155E+06     180.904E+06     104.047E+06         831.406    -22.6426E-03     38.4785E-03    -15.8359E-03     196.652E-03    -26.4813E-03     42.6473E-03    -15.5737E-03     200.112E-03
              41     17.7208E-03     73.0057E-03    -2.00011E+06     182.063E+06     103.584E+06     332.820E+03    -22.1512E-03     37.9894E-03    -15.8382E-03     197.452E-03    -26.0184E-03     42.1955E-03    -15.5813E-03     200.959E-03
              42     17.7230E-03     73.9778E-03    -2.36148E+06     182.257E+06     103.135E+06    -330.163E+03    -21.7901E-03     37.6291E-03    -15.8389E-03     199.621E-03    -25.7158E-03     41.8944E-03    -15.5841E-03     203.189E-03
              43     17.7208E-03     74.9642E-03    -1.95168E+06     183.298E+06     105.160E+06     1.06882E+06    -22.4243E-03     38.2759E-03    -15.8516E-03     202.658E-03    -26.4266E-03     42.6172E-03    -15.5887E-03     206.235E-03
              44     17.7221E-03     75.9422E-03    -2.63586E+06     182.677E+06     103.627E+06     1.13123E+06    -20.7220E-03     36.6190E-03    -15.8970E-03     203.068E-03    -24.7233E-03     40.9593E-03    -15.6399E-03     206.719E-03
              45     17.7212E-03     76.9106E-03    -3.59052E+06     181.807E+06     103.266E+06    -372.008E+03    -21.2548E-03     37.1299E-03    -15.8751E-03     198.887E-03    -25.1449E-03     41.3533E-03    -15.6172E-03     202.442E-03
              46     17.7217E-03     77.8932E-03    -2.74018E+06     182.513E+06     104.318E+06    -743.987E+03    -23.0570E-03     38.8804E-03    -15.8234E-03     194.032E-03    -26.8330E-03     42.9921E-03    -15.5625E-03     197.423E-03
              47     17.7216E-03     78.8702E-03    -2.59071E+06     182.584E+06     102.870E+06    -182.659E+03    -22.3409E-03     38.1574E-03    -15.8165E-03     193.664E-03    -26.1079E-03     42.2651E-03    -15.5631E-03     197.106E-03
              48     17.7225E-03     79.8521E-03    -1.69190E+06     183.635E+06     103.992E+06    -903.888E+03    -21.9929E-03     37.8188E-03    -15.8258E-03     196.192E-03    -25.8389E-03     42.0091E-03    -15.5697E-03     199.694E-03
              49     17.7212E-03     80.8315E-03    -3.21210E+06     182.140E+06     103.335E+06    -667.056E+03    -22.7144E-03     38.5402E-03    -15.8258E-03     199.879E-03    -26.6737E-03     42.8350E-03    -15.5686E-03     203.416E-03
              50     17.7222E-03     81.8138E-03    -2.57241E+06     182.796E+06     103.201E+06     1.76554E+06    -22.3176E-03     38.1630E-03    -15.8453E-03     204.524E-03    -26.3730E-03     42.5588E-03    -15.5906E-03     208.152E-03
              51     17.7214E-03     82.7948E-03    -2.54386E+06     182.429E+06     103.108E+06     1.24449E+06    -21.0460E-03     36.9318E-03    -15.8858E-03     205.712E-03    -25.1154E-03     41.3408E-03    -15.6311E-03     209.385E-03
              52     17.7216E-03     83.7624E-03    -3.45720E+06     180.530E+06     101.660E+06    -578.192E+03    -20.7377E-03     36.6138E-03    -15.8761E-03     197.835E-03    -24.6075E-03     40.8175E-03    -15.6245E-03     201.408E-03
              53     17.7219E-03     84.7377E-03    -2.71211E+06     180.872E+06     102.460E+06    -980.240E+03    -22.6056E-03     38.4181E-03    -15.8125E-03     193.676E-03    -26.3686E-03     42.5165E-03    -15.5585E-03     197.102E-03
              54     17.7218E-03     85.7260E-03    -1.67717E+06     182.188E+06     102.849E+06     643.227E+03    -23.3508E-03     39.1376E-03    -15.7868E-03     197.124E-03    -27.1997E-03     43.3291E-03    -15.5343E-03     200.563E-03
              55     17.7225E-03     86.7041E-03    -2.38092E+06     183.014E+06     102.646E+06     685.072E+03    -21.5416E-03     37.3687E-03    -15.8271E-03     198.918E-03    -25.4458E-03     41.6166E-03    -15.5758E-03     202.488E-03
              56     17.7218E-03     87.6784E-03    -3.15988E+06     183.460E+06     102.525E+06    -284.186E+03    -21.1135E-03     36.9404E-03    -15.8269E-03     196.147E-03    -24.9666E-03     41.1363E-03    -15.5757E-03     199.711E-03
              57     17.7229E-03     88.6552E-03    -3.09662E+06     183.858E+06     102.343E+06     16.9356E+03    -23.0040E-03     38.7658E-03    -15.7618E-03     197.563E-03    -26.8916E-03     42.9984E-03    -15.5122E-03     201.047E-03
              58     17.7226E-03     89.6453E-03    -2.05888E+06     186.070E+06     104.222E+06     1.42409E+06    -23.3800E-03     39.1375E-03    -15.7575E-03     203.895E-03    -27.4218E-03     43.5305E-03    -15.5032E-03     207.441E-03
              59     17.7229E-03     90.6231E-03    -1.58289E+06     186.459E+06     103.856E+06     1.17115E+06    -20.3606E-03     36.1814E-03    -15.8208E-03     203.774E-03    -24.3942E-03     40.5704E-03    -15.5696E-03     207.476E-03
              60     17.7234E-03     91.5877E-03    -3.28997E+06     184.392E+06     102.780E+06    -779.544E+03    -20.3152E-03     36.1041E-03    -15.7889E-03     196.857E-03    -24.1700E-03     40.3039E-03    -15.5376E-03     200.453E-03
              61     17.7235E-03     92.5682E-03    -3.06045E+06     183.569E+06     103.362E+06    -1.23803E+06    -23.1537E-03     38.8389E-03    -15.6852E-03     191.730E-03    -26.8823E-03     42.9086E-03    -15.4301E-03     195.088E-03
              62     17.7245E-03     93.5514E-03    -4.17497E+06     182.338E+06     102.774E+06    -900.995E+03    -24.2209E-03     39.8622E-03    -15.6414E-03     196.042E-03    -28.0747E-03     44.0506E-03    -15.3858E-03     199.424E-03
              63     17.7242E-03     94.5377E-03    -1.67281E+06     183.725E+06     104.401E+06     625.478E+03    -23.0452E-03     38.7055E-03    -15.6603E-03     201.277E-03    -27.0274E-03     43.0313E-03    -15.4023E-03     204.808E-03
              64     17.7255E-03     95.5129E-03    -2.53778E+06     181.908E+06     103.113E+06    -21.5152E+03    -21.8689E-03     37.5281E-03    -15.6592E-03     202.386E-03    -25.8733E-03     41.8704E-03    -15.4037E-03     205.988E-03
              65     17.7253E-03     96.4895E-03    -2.31586E+06     179.519E+06     104.097E+06    -557.953E+03    -22.6306E-03     38.2487E-03    -15.6181E-03     198.765E-03    -26.5362E-03     42.4815E-03    -15.3546E-03     202.269E-03
              66     17.7259E-03     97.4685E-03    -2.61959E+06     177.379E+06     103.805E+06    -1.17654E+06    -22.9439E-03     38.5192E-03    -15.5754E-03     194.276E-03    -26.7345E-03     42.6292E-03    -15.3097E-03     197.674E-03
              67     17.7268E-03     98.4442E-03    -4.18747E+06     172.703E+06     102.878E+06    -2.51881E+06    -25.1591E-03     40.6535E-03    -15.4944E-03     193.633E-03    -28.9374E-03     44.7319E-03    -15.2244E-03     196.906E-03
              68     17.7263E-03     99.4331E-03    -3.61894E+06     171.307E+06     104.956E+06    -1.48099E+06    -27.1508E-03     42.5944E-03    -15.4436E-03     194.977E-03    -30.9714E-03     46.7062E-03    -15.1620E-03     198.167E-03
              69     17.7273E-03     100.419E-03    -1.44376E+06     169.398E+06     106.076E+06    -541.801E+03    -26.1057E-03     41.5702E-03    -15.4645E-03     198.860E-03    -30.0119E-03     45.7651E-03    -15.1777E-03     202.147E-03
              70     17.7271E-03     101.396E-03    -3.81933E+06     164.064E+06     104.587E+06    -2.07588E+06    -26.1882E-03     41.6303E-03    -15.4421E-03     196.646E-03    -30.0295E-03     45.7371E-03    -15.1515E-03     199.858E-03
              71     17.7279E-03     102.378E-03    -2.83502E+06     159.107E+06     104.500E+06    -1.72908E+06    -28.5036E-03     43.8631E-03    -15.3596E-03     195.420E-03    -32.2793E-03     47.8908E-03    -15.0637E-03     198.449E-03
              72     17.7284E-03     103.369E-03    -3.17870E+06     155.164E+06     105.211E+06    -1.75182E+06    -30.4740E-03     45.7635E-03    -15.2896E-03     198.148E-03    -34.2912E-03     49.8154E-03    -14.9839E-03     201.040E-03
              73     17.7291E-03     104.355E-03    -661.359E+03     151.217E+06     106.127E+06    -810.793E+03    -30.5877E-03     45.8334E-03    -15.2457E-03     198.714E-03    -34.3610E-03     49.8333E-03    -14.9334E-03     201.532E-03
              74     17.7307E-03     105.339E-03    -3.87134E+06     144.410E+06     105.640E+06    -2.36507E+06    -33.1995E-03     48.3371E-03    -15.1376E-03     199.684E-03    -36.9712E-03     52.3016E-03    -14.8131E-03     202.277E-03
              75     17.7308E-03     106.334E-03    -2.64899E+06     137.652E+06     105.748E+06    -3.41373E+06    -36.3677E-03     51.3787E-03    -15.0110E-03     201.681E-03    -40.1155E-03     55.2996E-03    -14.6780E-03     203.973E-03
              76     17.7332E-03     107.329E-03    -4.06227E+06     128.441E+06     102.643E+06    -4.66493E+06    -38.4953E-03     53.4056E-03    -14.9103E-03     208.680E-03    -42.2773E-03     57.3319E-03    -14.5774E-03     210.706E-03
              77     17.7327E-03     108.325E-03    -2.44800E+06     117.517E+06     93.8458E+06    -5.51262E+06    -40.5029E-03     55.2677E-03    -14.7648E-03     211.543E-03    -44.1595E-03     59.0609E-03    -14.4624E-03     213.196E-03
              78     17.7365E-03     109.319E-03     1.90216E+06     106.419E+06     84.3569E+06    -6.13246E+06    -40.5728E-03     55.2324E-03    -14.6596E-03     213.469E-03    -43.9686E-03     58.7685E-03    -14.3949E-03     214.740E-03
              79     17.7348E-03     110.316E-03    -17.9767E+06     79.9351E+06     48.6080E+06    -16.2331E+06    -34.5872E-03     49.2129E-03    -14.6256E-03     211.507E-03    -37.4611E-03     52.1663E-03    -14.4724E-03     212.348E-03
              80     17.7398E-03     111.288E-03     5.47957E+06     38.9703E+06     20.1502E+06    -22.5691E+06    -16.9496E-03     31.7972E-03    -14.8477E-03     193.446E-03    -18.4721E-03     33.4214E-03    -14.8114E-03     193.871E-03
              81     17.7379E-03     112.228E-03     10.5186E+06     9.23154E+06     11.2319E+06    -11.8879E+06     4.11160E-03     11.9076E-03    -16.0192E-03     139.313E-03     3.71876E-03     12.3429E-03    -15.9916E-03     139.435E-03
              82     17.6857E-03     113.155E-03    -5.11087E+06    -4.79675E+06     13.9551E+06     2.60727E+06     12.5769E-03     7.26886E-03    -19.8457E-03     50.2149E-03     12.5125E-03     7.24940E-03    -19.7616E-03     50.2648E-03
              83     16.6448E-03     113.967E-03     2.38544E+06     6.94249E+06     43.9507E+06     2.64601E+06     8.33620E-03     15.0316E-03    -23.3678E-03     11.1119E-03     8.27171E-03     14.9967E-03    -23.1616E-03     11.1459E-03
              84     15.7410E-03     113.840E-03    -3.07648E+06     8.45859E+06     56.9436E+06    -3.97861E+06    -7.89294E-03     32.0670E-03    -24.1741E-03     19.1463E-03    -8.00667E-03     32.0303E-03    -23.8972E-03     19.0886E-03
              85     14.8804E-03     113.697E-03    -3.41723E+06    -7.03964E+06     38.2739E+06    -6.41078E+06    -22.0527E-03     46.1432E-03    -24.0904E-03     13.0581E-03    -22.1263E-03     46.0499E-03    -23.8839E-03     12.9629E-03
              86     14.0189E-03     113.585E-03     2.78024E+06    -2.82614E+06     40.4424E+06    -4.17704E+06    -23.4451E-03     47.1775E-03    -23.7324E-03     4.74677E-03    -23.4929E-03     47.0954E-03    -23.5301E-03     4.68122E-03
              87     13.1506E-03     113.495E-03     6.14724E+06    -213.508E+03     53.5397E+06    -2.87774E+06    -24.7821E-03     48.2214E-03    -23.4393E-03     1.12333E-03    -24.8325E-03     48.1308E-03    -23.1802E-03     1.07564E-03
              88     12.2810E-03     113.422E-03     9.92765E+06     320.173E+03     51.1904E+06    -3.29208E+06    -27.0842E-03     50.0641E-03    -22.9800E-03    -737.934E-06    -27.1122E-03     49.9747E-03    -22.7389E-03    -790.905E-06
              89     11.4136E-03     113.355E-03     13.7032E+06    -2.38505E+06     49.0965E+06    -2.73253E+06    -27.7378E-03     50.1507E-03    -22.4130E-03    -1.15476E-03    -27.7395E-03     50.0456E-03    -22.1839E-03    -1.19973E-03
              90     10.5436E-03     113.299E-03     15.7253E+06    -94.3482E+03     49.1473E+06    -1.10856E+06    -26.9793E-03     48.8013E-03    -21.8220E-03    -1.01765E-03    -26.9737E-03     48.7051E-03    -21.5989E-03    -1.04011E-03
              91     9.67203E-03     113.250E-03     16.4271E+06    -225.453E+03     48.5445E+06    -1.20826E+06    -25.7243E-03     46.9889E-03    -21.2647E-03    -930.038E-06    -25.7138E-03     46.8923E-03    -21.0454E-03    -952.369E-06
              92     8.79838E-03     113.209E-03     16.9084E+06    -357.605E+03     46.8861E+06    -1.23677E+06    -24.2830E-03     45.0471E-03    -20.7641E-03    -723.488E-06    -24.2672E-03     44.9517E-03    -20.5537E-03    -744.814E-06
              93     7.92270E-03     113.173E-03     16.8988E+06     334.959E+03     44.0906E+06    -1.35877E+06    -23.0243E-03     43.3527E-03    -20.3284E-03    -479.255E-06    -23.0052E-03     43.2651E-03    -20.1329E-03    -500.995E-06
              94     7.04550E-03     113.143E-03     17.1002E+06    -389.298E+03     40.7409E+06    -1.55095E+06    -21.9239E-03     41.8831E-03    -19.9592E-03    -280.359E-06    -21.8978E-03     41.7966E-03    -19.7797E-03    -303.691E-06
              95     6.16699E-03     113.116E-03     17.6467E+06     45.0815E+03     37.2150E+06    -1.62767E+06    -21.0161E-03     40.6673E-03    -19.6513E-03    -144.142E-06    -20.9826E-03     40.5874E-03    -19.4909E-03    -167.768E-06
              96     5.28747E-03     113.095E-03     18.2443E+06    -352.928E+03     33.5556E+06    -1.59863E+06    -20.3087E-03     39.7103E-03    -19.4016E-03    -76.6344E-06    -20.2663E-03     39.6328E-03    -19.2597E-03    -99.3428E-06
              97     4.40716E-03     113.077E-03     19.0432E+06     197.286E+03     30.6591E+06    -1.71665E+06    -19.7544E-03     38.9603E-03    -19.2059E-03    -49.2558E-06    -19.7045E-03     38.8886E-03    -19.0805E-03    -73.0352E-06
              98     3.52630E-03     113.063E-03     20.0676E+06    -773.304E+03     26.8488E+06    -1.53463E+06    -19.3539E-03     38.4092E-03    -19.0553E-03    -53.5446E-06    -19.2919E-03     38.3368E-03    -18.9491E-03    -74.5869E-06
              99     2.64492E-03     113.051E-03     21.0406E+06     21.7088E+03     25.0707E+06    -1.12686E+06    -19.0855E-03     38.0401E-03    -18.9546E-03    -86.6270E-06    -19.0172E-03     37.9728E-03    -18.8597E-03    -102.064E-06
             100     1.76341E-03     113.044E-03     21.6857E+06    -840.844E+03     22.9179E+06    -965.706E+03    -18.9230E-03     37.8164E-03    -18.8934E-03    -136.698E-06    -18.8471E-03     37.7470E-03    -18.8090E-03    -149.748E-06
             101     881.469E-06     113.038E-03     22.2032E+06    -25.8245E+03     22.3482E+06    -1.04490E+06    -18.7389E-03     37.7354E-03    -18.9965E-03    -230.444E-06    -18.6607E-03     37.6702E-03    -18.9169E-03    -244.216E-06
             102    -56.7349E-09     112.051E-03     19.5272E+06    -1.04461E+06     18.6633E+06    -532.797E+03    -17.2393E-03     34.6130E-03    -17.3737E-03     277.523E-06    -17.1675E-03     34.5522E-03    -17.3072E-03     270.443E-06
             103     253.435E-09     111.074E-03     13.6170E+06    -3.97697E+06     13.8459E+06    -462.280E+03    -14.7594E-03     29.3937E-03    -14.6343E-03     925.843E-06    -14.7057E-03     29.3340E-03    -14.5791E-03     919.587E-06
             104    -224.521E-09     110.099E-03     7.59842E+06    -7.62350E+06     8.26378E+06    -1.40815E+06    -12.9096E-03     25.8013E-03    -12.8916E-03     1.17215E-03    -12.8726E-03     25.7401E-03    -12.8503E-03     1.15368E-03
             105     235.401E-09     109.128E-03    -1.99126E+06    -13.5947E+06    -2.04804E+06    -2.20001E+06    -11.6700E-03     23.3298E-03    -11.6599E-03     1.48272E-03    -11.6572E-03     23.2678E-03    -11.6475E-03     1.45409E-03
             106    -229.629E-09     108.158E-03    -15.1574E+06    -19.9953E+06    -15.0382E+06    -1.86065E+06    -10.9037E-03     21.8140E-03    -10.9102E-03     1.73635E-03    -10.9287E-03     21.7579E-03    -10.9345E-03     1.71216E-03
             107     212.353E-09     107.189E-03    -32.4523E+06    -26.9518E+06    -31.7830E+06    -2.38962E+06    -10.5314E-03     21.0765E-03    -10.5452E-03     1.95155E-03    -10.6084E-03     21.0350E-03    -10.6179E-03     1.92059E-03
             108    -213.705E-09     106.221E-03    -50.9650E+06    -35.2642E+06    -51.3287E+06    -2.67108E+06    -10.4668E-03     20.9559E-03    -10.4890E-03     2.11599E-03    -10.5961E-03     20.9280E-03    -10.6207E-03     2.08144E-03
             109     169.313E-09     105.253E-03    -71.1885E+06    -43.2327E+06    -70.9961E+06    -2.40601E+06    -10.6284E-03     21.2863E-03    -10.6579E-03     2.21752E-03    -10.8187E-03     21.2764E-03    -10.8470E-03     2.18641E-03
             110    -177.494E-09     104.284E-03    -74.9635E+06    -50.8402E+06    -75.4174E+06    -2.00122E+06    -11.0075E-03     22.0261E-03    -11.0186E-03     2.25386E-03    -11.1992E-03     21.9900E-03    -11.2133E-03     2.22799E-03
             111     158.510E-09     103.314E-03    -61.7321E+06    -54.2646E+06    -62.3409E+06    -157.436E+03    -11.5377E-03     23.0566E-03    -11.5189E-03     2.24831E-03    -11.6773E-03     22.9653E-03    -11.6624E-03     2.24623E-03
             112    -115.400E-09     102.343E-03    -47.1509E+06    -51.6755E+06    -47.7202E+06     1.79461E+06    -12.0853E-03     24.1595E-03    -12.0743E-03     2.25087E-03    -12.1769E-03     24.0388E-03    -12.1696E-03     2.27397E-03
             113     83.0976E-09     101.371E-03    -37.2487E+06    -43.7322E+06    -37.3682E+06     3.02165E+06    -12.6020E-03     25.2230E-03    -12.6210E-03     2.23308E-03    -12.6706E-03     25.1126E-03    -12.6904E-03     2.27199E-03
             114    -88.1828E-09     100.398E-03    -31.7439E+06    -34.3481E+06    -31.5061E+06     2.73479E+06    -13.0923E-03     26.2020E-03    -13.1098E-03     2.20766E-03    -13.1555E-03     26.1220E-03    -13.1715E-03     2.24285E-03
             115     62.6621E-09     99.4244E-03    -27.7980E+06    -25.8364E+06    -27.8293E+06     2.40278E+06    -13.5362E-03     27.0797E-03    -13.5436E-03     2.19379E-03    -13.5973E-03     27.0313E-03    -13.6050E-03     2.22468E-03
             116    -52.8642E-09     98.4498E-03    -24.7375E+06    -19.1213E+06    -24.3474E+06     1.67785E+06    -13.9263E-03     27.8544E-03    -13.9281E-03     2.18529E-03    -13.9870E-03     27.8301E-03    -13.9863E-03     2.20678E-03
             117     42.0932E-09     97.4743E-03    -20.1228E+06    -14.6819E+06    -20.0861E+06     974.535E+03    -14.2729E-03     28.5340E-03    -14.2611E-03     2.19065E-03    -14.3230E-03     28.5190E-03    -14.3111E-03     2.20304E-03
             118    -12.3142E-09     96.4984E-03    -16.5154E+06    -13.3395E+06    -15.8663E+06    -173.499E+03    -14.5660E-03     29.1148E-03    -14.5488E-03     2.19439E-03    -14.6063E-03     29.0952E-03    -14.5849E-03     2.19193E-03
             119     18.3209E-09     95.5217E-03    -13.1695E+06    -14.9446E+06    -13.4135E+06    -794.966E+03    -14.7949E-03     29.5874E-03    -14.7926E-03     2.17412E-03    -14.8196E-03     29.5513E-03    -14.8189E-03     2.16363E-03
             120    -25.1972E-09     94.5449E-03    -11.6574E+06    -17.7585E+06    -11.3937E+06    -919.032E+03    -14.9658E-03     29.9720E-03    -15.0062E-03     2.13464E-03    -14.9818E-03     29.9167E-03    -15.0205E-03     2.12253E-03
             121    -38.5990E-09     93.5676E-03    -10.1213E+06    -21.2727E+06    -10.2556E+06    -1.20696E+06    -15.1100E-03     30.2920E-03    -15.1819E-03     2.11514E-03    -15.1149E-03     30.2152E-03    -15.1877E-03     2.09930E-03
             122    -28.6381E-09     92.5901E-03    -10.6545E+06    -25.2724E+06    -10.5470E+06    -1.29272E+06    -15.2405E-03     30.5324E-03    -15.2919E-03     2.10199E-03    -15.2418E-03     30.4369E-03    -15.2925E-03     2.08503E-03
             123     4.02053E-09     91.6125E-03    -11.7227E+06    -29.5375E+06    -11.8493E+06    -1.30338E+06    -15.3589E-03     30.7093E-03    -15.3505E-03     2.11151E-03    -15.3575E-03     30.5959E-03    -15.3499E-03     2.09440E-03
             124     32.0312E-09     90.6346E-03    -12.9013E+06    -33.6540E+06    -12.8719E+06    -1.15071E+06    -15.4312E-03     30.8357E-03    -15.4045E-03     2.11492E-03    -15.4283E-03     30.7048E-03    -15.4013E-03     2.09977E-03
             125    -22.3355E-09     89.6568E-03    -13.8700E+06    -37.6672E+06    -13.8882E+06    -1.16261E+06    -15.4575E-03     30.9222E-03    -15.4647E-03     2.11092E-03    -15.4521E-03     30.7742E-03    -15.4594E-03     2.09561E-03
             126    -2.21489E-09     88.6788E-03    -15.1406E+06    -41.3899E+06    -15.2326E+06    -1.04601E+06    -15.4836E-03     30.9887E-03    -15.5051E-03     2.09919E-03    -15.4772E-03     30.8259E-03    -15.4993E-03     2.08537E-03
             127    -14.3279E-09     87.7009E-03    -16.5356E+06    -44.9075E+06    -16.4484E+06    -1.01199E+06    -15.5163E-03     31.0319E-03    -15.5156E-03     2.10360E-03    -15.5100E-03     30.8553E-03    -15.5088E-03     2.09022E-03
             128     31.0431E-09     86.7227E-03    -17.5362E+06    -48.0955E+06    -17.6481E+06    -962.458E+03    -15.5210E-03     31.0530E-03    -15.5320E-03     2.13207E-03    -15.5134E-03     30.8636E-03    -15.5250E-03     2.11932E-03
             129    -70.4877E-09     85.7449E-03    -18.6122E+06    -51.0897E+06    -18.5842E+06    -815.554E+03    -15.5120E-03     31.0638E-03    -15.5518E-03     2.09343E-03    -15.5041E-03     30.8624E-03    -15.5436E-03     2.08259E-03
             130     37.8341E-09     84.7668E-03    -19.2505E+06    -53.8961E+06    -19.2562E+06    -843.069E+03    -15.5384E-03     31.0857E-03    -15.5473E-03     2.05680E-03    -15.5285E-03     30.8721E-03    -15.5375E-03     2.04561E-03
             131    -23.0572E-09     83.7889E-03    -19.5540E+06    -56.5902E+06    -19.6454E+06    -745.238E+03    -15.5486E-03     31.1097E-03    -15.5611E-03     2.06425E-03    -15.5358E-03     30.8836E-03    -15.5489E-03     2.05433E-03
             132    -16.8710E-09     82.8107E-03    -19.8975E+06    -58.9609E+06    -19.8902E+06    -656.981E+03    -15.5552E-03     31.1327E-03    -15.5775E-03     2.07585E-03    -15.5403E-03     30.8956E-03    -15.5626E-03     2.06706E-03
             133     15.4630E-09     81.8328E-03    -20.1765E+06    -61.0093E+06    -20.2295E+06    -578.801E+03    -15.5943E-03     31.1489E-03    -15.5545E-03     2.09175E-03    -15.5774E-03     30.9025E-03    -15.5380E-03     2.08396E-03
             134     53.8340E-09     80.8546E-03    -20.4531E+06    -62.8083E+06    -20.3216E+06    -576.793E+03    -15.6153E-03     31.1578E-03    -15.5424E-03     2.11803E-03    -15.5970E-03     30.9029E-03    -15.5233E-03     2.11025E-03
             135     5.51372E-09     79.8768E-03    -20.3493E+06    -64.5306E+06    -20.4919E+06    -522.141E+03    -15.5993E-03     31.1715E-03    -15.5722E-03     2.12470E-03    -15.5778E-03     30.9082E-03    -15.5516E-03     2.11763E-03
             136    -20.5890E-09     78.8985E-03    -20.5319E+06    -65.9748E+06    -20.4742E+06    -334.201E+03    -15.5798E-03     31.1833E-03    -15.6035E-03     2.11488E-03    -15.5571E-03     30.9129E-03    -15.5804E-03     2.11024E-03
             137    -7.64880E-09     77.9207E-03    -20.4952E+06    -67.3634E+06    -20.5040E+06    -428.701E+03    -15.5939E-03     31.2002E-03    -15.6063E-03     2.07742E-03    -15.5690E-03     30.9229E-03    -15.5814E-03     2.07158E-03
             138     11.9408E-09     76.9425E-03    -20.3773E+06    -68.5889E+06    -20.4369E+06    -325.439E+03    -15.6270E-03     31.2376E-03    -15.6106E-03     2.05157E-03    -15.5998E-03     30.9539E-03    -15.5838E-03     2.04706E-03
             139     10.3252E-09     75.9645E-03    -20.3374E+06    -69.6404E+06    -20.2816E+06    -340.435E+03    -15.6479E-03     31.2842E-03    -15.6364E-03     2.06964E-03    -15.6192E-03     30.9950E-03    -15.6073E-03     2.06493E-03
             140    -13.5853E-09     74.9862E-03    -19.9512E+06    -70.5708E+06    -20.0467E+06    -260.018E+03    -15.6507E-03     31.3189E-03    -15.6683E-03     2.10618E-03    -15.6190E-03     31.0241E-03    -15.6373E-03     2.10250E-03
             141    -17.5033E-09     74.0082E-03    -19.8292E+06    -71.3201E+06    -19.7990E+06    -200.080E+03    -15.6356E-03     31.3393E-03    -15.7037E-03     2.11147E-03    -15.6026E-03     31.0402E-03    -15.6705E-03     2.10856E-03
             142    -73.7185E-09     73.0299E-03    -19.5072E+06    -71.9729E+06    -19.5850E+06    -165.909E+03    -15.6657E-03     31.3743E-03    -15.7086E-03     2.06283E-03    -15.6305E-03     31.0712E-03    -15.6738E-03     2.06038E-03
             143     86.2199E-09     72.0518E-03    -19.5322E+06    -72.5272E+06    -19.4688E+06    -160.188E+03    -15.7143E-03     31.4162E-03    -15.7019E-03     2.03891E-03    -15.6786E-03     31.1102E-03    -15.6657E-03     2.03654E-03
             144    -77.8663E-09     71.0735E-03    -19.3125E+06    -73.0288E+06    -19.3578E+06    -166.531E+03    -15.7344E-03     31.4526E-03    -15.7182E-03     2.01911E-03    -15.6970E-03     31.1436E-03    -15.6810E-03     2.01666E-03
             145     96.0116E-09     70.0953E-03    -19.2884E+06    -73.4320E+06    -19.2708E+06    -93.9252E+03    -15.7489E-03     31.4896E-03    -15.7407E-03     2.02005E-03    -15.7109E-03     31.1784E-03    -15.7026E-03     2.01854E-03
             146    -101.290E-09     69.1168E-03    -19.0784E+06    -73.7665E+06    -19.0875E+06    -107.990E+03    -15.7550E-03     31.5303E-03    -15.7753E-03     2.06449E-03    -15.7158E-03     31.2169E-03    -15.7361E-03     2.06278E-03
             147     68.5115E-09     68.1385E-03    -18.7980E+06    -74.0310E+06    -18.7955E+06    -85.5537E+03    -15.7715E-03     31.5598E-03    -15.7883E-03     2.12741E-03    -15.7309E-03     31.2443E-03    -15.7477E-03     2.12597E-03
             148    -67.4382E-09     67.1600E-03    -18.5987E+06    -74.2104E+06    -18.6564E+06     13.6700E+03    -15.7763E-03     31.5607E-03    -15.7845E-03     2.17285E-03    -15.7346E-03     31.2438E-03    -15.7432E-03     2.17268E-03
             149     48.9812E-09     66.1817E-03    -18.5502E+06    -74.3054E+06    -18.5055E+06    -19.6597E+03    -15.7739E-03     31.5704E-03    -15.7965E-03     2.15786E-03    -15.7321E-03     31.2527E-03    -15.7544E-03     2.15727E-03
             150    -72.0819E-09     65.2033E-03    -18.5324E+06    -74.4666E+06    -18.5704E+06    -4.80758E+03    -15.7936E-03     31.5862E-03    -15.7926E-03     2.10742E-03    -15.7513E-03     31.2677E-03    -15.7506E-03     2.10703E-03
             151     94.4121E-09     64.2250E-03    -18.5040E+06    -74.4563E+06    -18.4482E+06     3.89909E+03    -15.8219E-03     31.5980E-03    -15.7761E-03     2.07218E-03    -15.7797E-03     31.2794E-03    -15.7336E-03     2.07192E-03
             152    -36.9934E-09     63.2465E-03    -18.3870E+06    -74.6187E+06    -18.3996E+06    -51.6911E+03    -15.8170E-03     31.6183E-03    -15.8013E-03     2.07399E-03    -15.7741E-03     31.2986E-03    -15.7584E-03     2.07301E-03
             153     5.46548E-09     62.2681E-03    -18.2525E+06    -74.7178E+06    -18.2840E+06     11.3655E+03    -15.7900E-03     31.6352E-03    -15.8453E-03     2.07275E-03    -15.7464E-03     31.3147E-03    -15.8019E-03     2.07259E-03
             154    -74.2345E-09     61.2896E-03    -18.3057E+06    -74.7942E+06    -18.2944E+06    -11.5446E+03    -15.7915E-03     31.6374E-03    -15.8460E-03     2.04583E-03    -15.7480E-03     31.3166E-03    -15.8024E-03     2.04538E-03
             155     44.6828E-09     60.3113E-03    -18.2502E+06    -74.8335E+06    -18.2700E+06    -8.59896E+03    -15.8140E-03     31.6482E-03    -15.8342E-03     2.02959E-03    -15.7702E-03     31.3271E-03    -15.7906E-03     2.02917E-03
             156    -53.0569E-09     59.3328E-03    -18.2838E+06    -74.7266E+06    -18.2860E+06    -12.5142E+03    -15.8270E-03     31.6686E-03    -15.8416E-03     2.04986E-03    -15.7835E-03     31.3480E-03    -15.7982E-03     2.04939E-03
             157     33.5218E-09     58.3543E-03    -18.2896E+06    -74.5575E+06    -18.2980E+06     7.28503E+03    -15.8392E-03     31.6679E-03    -15.8287E-03     2.08036E-03    -15.7960E-03     31.3482E-03    -15.7855E-03     2.08013E-03
             158     2.55204E-09     57.3758E-03    -18.3463E+06    -74.4635E+06    -18.3310E+06     24.7995E+03    -15.8291E-03     31.6424E-03    -15.8134E-03     2.08364E-03    -15.7862E-03     31.3234E-03    -15.7704E-03     2.08364E-03
             159    -5.41908E-09     55.4190E-03    -18.2795E+06    -74.2576E+06    -18.2295E+06    -2.85434E+03    -15.8265E-03     31.6357E-03    -15.8092E-03     2.02331E-03    -15.7838E-03     31.3174E-03    -15.7661E-03     2.02297E-03
             160     52.8568E-09     54.4405E-03    -18.2075E+06    -74.2218E+06    -18.2650E+06     36.3277E+03    -15.8158E-03     31.6117E-03    -15.7958E-03     2.06974E-03    -15.7728E-03     31.2935E-03    -15.7531E-03     2.06989E-03
             161    -67.4876E-09     53.4621E-03    -18.2215E+06    -74.1226E+06    -18.1885E+06     36.5493E+03    -15.7838E-03     31.5735E-03    -15.7898E-03     2.07604E-03    -15.7410E-03     31.2558E-03    -15.7468E-03     2.07620E-03
             162     69.9437E-09     52.4837E-03    -18.1803E+06    -74.0690E+06    -18.1678E+06    -9.76292E+03    -15.7703E-03     31.5413E-03    -15.7710E-03     2.07738E-03    -15.7275E-03     31.2238E-03    -15.7281E-03     2.07694E-03
             163    -75.4678E-09     51.5054E-03    -18.1830E+06    -74.0345E+06    -18.1995E+06     11.6948E+03    -15.7314E-03     31.5011E-03    -15.7697E-03     2.08382E-03    -15.6886E-03     31.1838E-03    -15.7270E-03     2.08365E-03
             164     10.8571E-09     50.5271E-03    -18.1551E+06    -73.9612E+06    -18.1759E+06     39.2126E+03    -15.7131E-03     31.4556E-03    -15.7425E-03     2.06358E-03    -15.6703E-03     31.1385E-03    -15.6998E-03     2.06378E-03
             165    -536.852E-12     49.5488E-03    -18.1883E+06    -73.8634E+06    -18.1847E+06     29.2992E+03    -15.7141E-03     31.4051E-03    -15.6910E-03     2.06715E-03    -15.6716E-03     31.0886E-03    -15.6484E-03     2.06721E-03
             166     29.2868E-09     48.5707E-03    -18.1942E+06    -73.7511E+06    -18.2014E+06     52.3364E+03    -15.6895E-03     31.3526E-03    -15.6632E-03     2.07756E-03    -15.6471E-03     31.0367E-03    -15.6208E-03     2.07792E-03
             167    -13.4785E-09     47.5925E-03    -18.2886E+06    -73.5805E+06    -18.2496E+06     43.0536E+03    -15.6676E-03     31.2843E-03    -15.6167E-03     2.07211E-03    -15.6259E-03     30.9695E-03    -15.5747E-03     2.07235E-03
             168     86.4573E-09     46.6144E-03    -18.3125E+06    -73.3770E+06    -18.3208E+06     46.7461E+03    -15.6084E-03     31.2049E-03    -15.5964E-03     2.10321E-03    -15.5670E-03     30.8912E-03    -15.5551E-03     2.10348E-03
             169    -140.349E-09     45.6365E-03    -18.3149E+06    -73.1123E+06    -18.3097E+06     36.3031E+03    -15.5289E-03     31.1295E-03    -15.6006E-03     2.06864E-03    -15.4879E-03     30.8172E-03    -15.5596E-03     2.06879E-03
             170     65.3360E-09     44.6585E-03    -18.3646E+06    -73.0034E+06    -18.4087E+06     54.2799E+03    -15.5158E-03     31.0392E-03    -15.5234E-03     2.03246E-03    -15.4751E-03     30.7276E-03    -15.4829E-03     2.03285E-03
             171    -6.10344E-09     43.6807E-03    -18.4362E+06    -72.9043E+06    -18.3850E+06     52.1609E+03    -15.4903E-03     30.9313E-03    -15.4410E-03     2.02449E-03    -15.4501E-03     30.6202E-03    -15.4005E-03     2.02486E-03
             172     32.9605E-09     42.7031E-03    -18.4005E+06    -72.8108E+06    -18.4242E+06     11.4187E+03    -15.4053E-03     30.8260E-03    -15.4207E-03     1.96082E-03    -15.3650E-03     30.5154E-03    -15.3806E-03     1.96068E-03
             173    -89.2686E-09     41.7255E-03    -18.4819E+06    -72.6847E+06    -18.4939E+06     16.1332E+03    -15.3187E-03     30.7165E-03    -15.3978E-03     1.90218E-03    -15.2789E-03     30.4068E-03    -15.3581E-03     1.90212E-03
             174     3.67105E-09     40.7480E-03    -18.4837E+06    -72.5864E+06    -18.5619E+06     24.3591E+03    -15.2416E-03     30.5743E-03    -15.3327E-03     1.87601E-03    -15.2019E-03     30.2651E-03    -15.2934E-03     1.87606E-03
             175    -81.9683E-09     39.7707E-03    -18.6171E+06    -72.4739E+06    -18.6065E+06     28.1324E+03    -15.1713E-03     30.4146E-03    -15.2433E-03     1.85389E-03    -15.1323E-03     30.1063E-03    -15.2043E-03     1.85398E-03
             176     31.1956E-09     38.7935E-03    -18.5842E+06    -72.1836E+06    -18.6370E+06     6.62022E+03    -15.1157E-03     30.2481E-03    -15.1324E-03     1.84228E-03    -15.0770E-03     29.9413E-03    -15.0940E-03     1.84210E-03
             177    -12.1074E-09     37.8165E-03    -18.6768E+06    -71.9878E+06    -18.7281E+06     43.3503E+03    -15.0188E-03     30.0429E-03    -15.0241E-03     1.85865E-03    -14.9806E-03     29.7373E-03    -14.9863E-03     1.85894E-03
             178    -18.5596E-09     36.8398E-03    -18.7469E+06    -71.9702E+06    -18.7710E+06     34.7334E+03    -14.8793E-03     29.7986E-03    -14.9193E-03     1.81203E-03    -14.8415E-03     29.4932E-03    -14.8816E-03     1.81222E-03
             179    -23.5515E-09     35.8632E-03    -18.7649E+06    -71.8705E+06    -18.7988E+06     49.0483E+03    -14.7577E-03     29.5427E-03    -14.7851E-03     1.74762E-03    -14.7200E-03     29.2379E-03    -14.7476E-03     1.74801E-03
             180     15.3188E-09     34.8870E-03    -18.8490E+06    -71.7986E+06    -18.7894E+06     24.5205E+03    -14.6357E-03     29.2771E-03    -14.6414E-03     1.74318E-03    -14.5986E-03     28.9728E-03    -14.6039E-03     1.74326E-03
             181    -17.9193E-09     33.9108E-03    -18.7134E+06    -71.7616E+06    -18.7899E+06     5.20440E+03    -14.4714E-03     28.9618E-03    -14.4904E-03     1.74361E-03    -14.4336E-03     28.6574E-03    -14.4531E-03     1.74343E-03
             182    -15.4973E-09     32.9354E-03    -18.7215E+06    -71.6610E+06    -18.7814E+06     54.5932E+03    -14.2877E-03     28.6201E-03    -14.3323E-03     1.71786E-03    -14.2502E-03     28.3162E-03    -14.2952E-03     1.71832E-03
             183    -32.2790E-09     31.9598E-03    -18.6621E+06    -71.5645E+06    -18.6474E+06     -40.231E+03    -14.0981E-03     28.2448E-03    -14.1466E-03     1.65692E-03    -14.0606E-03     27.9411E-03    -14.1090E-03     1.65617E-03
             184    -7.10764E-09     30.9851E-03    -18.5114E+06    -71.7293E+06    -18.6467E+06    -16.2615E+03    -13.8890E-03     27.8200E-03    -13.9310E-03     1.62122E-03    -13.8505E-03     27.5153E-03    -13.8934E-03     1.62078E-03
             185    -30.9032E-09     30.0104E-03    -18.3682E+06    -71.6257E+06    -18.3622E+06     19.5362E+03    -13.6683E-03     27.3877E-03    -13.7194E-03     1.57802E-03    -13.6297E-03     27.0829E-03    -13.6807E-03     1.57804E-03
             186    -22.7794E-09     29.0366E-03    -18.0955E+06    -71.5051E+06    -18.2085E+06    -1.67586E+03    -13.4380E-03     26.9080E-03    -13.4700E-03     1.49874E-03    -13.3984E-03     26.6032E-03    -13.4311E-03     1.49849E-03
             187     17.3145E-09     28.0628E-03    -17.8913E+06    -71.1923E+06    -17.8391E+06     46.8947E+03    -13.2004E-03     26.3925E-03    -13.1922E-03     1.39112E-03    -13.1607E-03     26.0885E-03    -13.1522E-03     1.39152E-03
             188     2.38631E-09     27.0901E-03    -17.5595E+06    -70.7892E+06    -17.5626E+06     27.5217E+03    -12.9345E-03     25.8795E-03    -12.9450E-03     1.30673E-03    -12.8941E-03     25.5765E-03    -12.9047E-03     1.30689E-03
             189    -41.6697E-09     26.1171E-03    -17.1150E+06    -70.1433E+06    -17.3437E+06     297.868E+03    -12.6340E-03     25.3135E-03    -12.6794E-03     1.31844E-03    -12.5927E-03     25.0128E-03    -12.6396E-03     1.32211E-03
             190    -3.14027E-09     25.1454E-03    -16.5971E+06    -68.9448E+06    -16.6629E+06     454.210E+03    -12.3142E-03     24.6968E-03    -12.3826E-03     1.32681E-03    -12.2730E-03     24.4004E-03    -12.3419E-03     1.33249E-03
             191    -75.2543E-09     24.1738E-03    -15.7353E+06    -67.4428E+06    -15.7679E+06     448.135E+03    -12.0473E-03     24.1107E-03    -12.0634E-03     1.21459E-03    -12.0053E-03     23.8192E-03    -12.0216E-03     1.22020E-03
             192     124.122E-09     23.2033E-03    -15.7462E+06    -65.9614E+06    -15.5840E+06     389.473E+03    -11.7864E-03     23.5313E-03    -11.7449E-03     1.11110E-03    -11.7468E-03     23.2470E-03    -11.7044E-03     1.11597E-03
             193    -97.9653E-09     22.2328E-03    -15.5431E+06    -64.2334E+06    -15.4644E+06     509.852E+03    -11.4909E-03     22.9671E-03    -11.4762E-03     1.10041E-03    -11.4530E-03     22.6909E-03    -11.4378E-03     1.10684E-03
             194     98.3058E-09     21.2631E-03    -14.8398E+06    -62.5228E+06    -14.8121E+06     549.856E+03    -11.1984E-03     22.3865E-03    -11.1881E-03     1.05639E-03    -11.1604E-03     22.1170E-03    -11.1500E-03     1.06335E-03
             195    -80.5264E-09     20.2940E-03    -13.7114E+06    -60.6052E+06    -13.7738E+06     693.687E+03    -10.9300E-03     21.8412E-03    -10.9113E-03     993.446E-06    -10.8906E-03     21.5781E-03    -10.8724E-03     1.00227E-03
             196     94.8194E-09     19.3254E-03    -12.5075E+06    -58.4907E+06    -12.2807E+06     574.428E+03    -10.6994E-03     21.4052E-03    -10.7058E-03     909.235E-06    -10.6593E-03     21.1488E-03    -10.6643E-03     916.530E-06
             197    -118.422E-09     18.3569E-03    -10.2367E+06    -56.5335E+06    -10.4426E+06     672.768E+03    -10.4751E-03     20.9355E-03    -10.4605E-03     834.226E-06    -10.4291E-03     20.6829E-03    -10.4159E-03     842.794E-06
             198     165.370E-09     17.3892E-03    -7.43698E+06    -53.7937E+06    -7.40089E+06     844.092E+03    -10.2703E-03     20.5049E-03    -10.2347E-03     805.725E-06    -10.2187E-03     20.2575E-03    -10.1829E-03     816.517E-06
             199    -148.849E-09     16.4218E-03    -4.49222E+06    -51.4184E+06     -4.6923E+06     509.209E+03    -10.0266E-03     20.0910E-03    -10.0644E-03     693.752E-06    -9.96765E-03     19.8473E-03    -10.0068E-03     700.231E-06
             200     62.4459E-09     15.4546E-03    -3.68771E+06    -49.9634E+06    -3.71365E+06     549.452E+03    -9.72802E-03     19.5026E-03    -9.77456E-03     580.740E-06    -9.66858E-03     19.2636E-03    -9.71533E-03     587.749E-06
             201    -59.4839E-09     14.4885E-03    -4.70205E+06    -48.8944E+06    -4.52625E+06     267.561E+03    -9.38896E-03     18.7917E-03    -9.40271E-03     427.486E-06    -9.33496E-03     18.5606E-03    -9.34763E-03     430.875E-06
             202     33.8792E-09     13.5228E-03    -5.75041E+06    -48.1608E+06    -6.20161E+06    -66.4926E+03    -8.89670E-03     17.9311E-03    -9.03445E-03     261.499E-06    -8.84657E-03     17.7077E-03    -8.98729E-03     260.582E-06
             203    -259.329E-09     12.5581E-03    -8.32447E+06    -48.1510E+06    -8.70551E+06    -46.5937E+03    -8.35991E-03     16.8342E-03    -8.47429E-03     165.811E-06    -8.31902E-03     16.6182E-03    -8.43593E-03     165.151E-06
             204     276.334E-09     11.5943E-03    -11.7838E+06    -48.6003E+06    -11.6300E+06    -11.5502E+03    -7.85593E-03     15.5653E-03    -7.70934E-03     183.071E-06    -7.82743E-03     15.3563E-03    -7.67994E-03     182.867E-06
             205    -29.6502E-09     10.6322E-03    -15.3979E+06    -48.9499E+06    -14.9624E+06    -35.2771E+03    -7.24535E-03     14.2936E-03    -7.04825E-03     181.297E-06    -7.22958E-03     14.0929E-03    -7.02975E-03     180.779E-06
             206     140.142E-09     9.67110E-03    -18.1573E+06    -49.3691E+06    -17.7893E+06    -76.5378E+03    -6.73192E-03     13.3573E-03    -6.62537E-03     148.715E-06    -6.72521E-03     13.1627E-03    -6.61641E-03     147.659E-06
             207    -56.0384E-09     8.71071E-03    -19.0363E+06    -50.0405E+06    -18.8722E+06    -195.718E+03    -6.63310E-03     13.2673E-03    -6.63420E-03     327.107E-06    -6.62824E-03     13.0721E-03    -6.62840E-03     324.517E-06
             208    -28.3015E-09     7.74988E-03    -17.7441E+06    -50.7247E+06    -17.4644E+06    -238.477E+03    -7.10274E-03     14.2236E-03    -7.12085E-03     571.625E-06    -7.09248E-03     14.0211E-03    -7.10890E-03     568.487E-06
             209     83.2510E-09     6.78709E-03    -15.1037E+06    -51.5690E+06    -14.9862E+06    -351.249E+03    -7.94061E-03     15.8564E-03    -7.91584E-03     713.356E-06    -7.91952E-03     15.6423E-03    -7.89409E-03     708.765E-06
             210    -92.6618E-09     5.82378E-03    -11.8781E+06    -52.4096E+06    -11.9355E+06    -515.012E+03    -8.88291E-03     17.8415E-03    -8.95864E-03     687.384E-06    -8.84891E-03     17.6141E-03    -8.92510E-03     680.676E-06
             211    -33.5744E-09     4.85680E-03    -8.32034E+06    -53.4620E+06    -8.55137E+06    -411.935E+03    -10.0581E-03     20.1183E-03    -10.0602E-03     823.342E-06    -10.0097E-03     19.8755E-03    -10.0133E-03     817.985E-06
             212     153.386E-09     3.88891E-03    -5.61190E+06    -54.9858E+06    -5.48990E+06    -283.584E+03    -11.1033E-03     22.2039E-03    -11.1006E-03     733.365E-06    -11.0436E-03     21.9451E-03    -11.0401E-03     729.657E-06
             213    -266.845E-09     2.91833E-03    -3.72031E+06    -56.4846E+06    -3.54704E+06    -373.473E+03    -12.0094E-03     24.0189E-03    -12.0095E-03     648.430E-06    -11.9408E-03     23.7470E-03    -11.9399E-03     643.569E-06
             214     381.910E-09     1.94673E-03    -4.70575E+06    -57.2657E+06    -5.29317E+06    -137.454E+03    -12.7478E-03     25.4905E-03    -12.7427E-03     472.490E-06    -12.6805E-03     25.2188E-03    -12.6793E-03     470.681E-06
             215    -494.860E-09     973.414E-06    -8.95931E+06    -57.7876E+06    -8.68272E+06    -22.8789E+03    -13.1460E-03     26.3169E-03    -13.1709E-03     260.227E-06    -13.0942E-03     26.0537E-03    -13.1175E-03     259.958E-06
             216     887.715E-06     34.6945E-18    -10.4733E+06    -58.2993E+06    -10.3700E+06    -119.023E+03    -13.3520E-03     26.6465E-03    -13.2946E-03     200.794E-06    -13.3046E-03     26.3853E-03    -13.2467E-03     199.274E-06
             217     1.77656E-03     34.6945E-18    -10.2482E+06    -59.0300E+06    -11.0675E+06    -300.815E+03    -13.4193E-03     26.7588E-03    -13.3394E-03     342.035E-06    -13.3689E-03     26.4945E-03    -13.2943E-03     338.126E-06
             218     2.66353E-03     34.6945E-18    -10.2308E+06    -59.9200E+06    -12.5878E+06    -340.550E+03    -13.5266E-03     26.9012E-03    -13.3746E-03     573.375E-06    -13.4726E-03     26.6347E-03    -13.3358E-03     568.948E-06
             219     3.55236E-03     34.6945E-18    -10.3577E+06    -61.5149E+06    -14.6914E+06    -471.235E+03    -13.6947E-03     27.1149E-03    -13.4202E-03     771.984E-06    -13.6360E-03     26.8436E-03    -13.3894E-03     765.856E-06
             220     4.43900E-03     34.6945E-18    -10.2745E+06    -63.3261E+06    -17.4768E+06    -1.02950E+06    -13.8936E-03     27.3702E-03    -13.4766E-03     1.01459E-03    -13.8278E-03     27.0938E-03    -13.4573E-03     1.00123E-03
             221     5.32733E-03     34.6945E-18    -9.77102E+06    -64.6610E+06    -20.8121E+06    -1.25001E+06    -14.1500E-03     27.6929E-03    -13.5429E-03     1.23927E-03    -14.0749E-03     27.4139E-03    -13.5390E-03     1.22303E-03
             222     6.21390E-03     34.6945E-18    -8.89010E+06    -66.6346E+06    -24.4918E+06    -1.88269E+06    -14.4302E-03     28.0515E-03    -13.6213E-03     1.51666E-03    -14.3425E-03     27.7668E-03    -13.6343E-03     1.49228E-03
             223     7.10104E-03     34.6945E-18    -7.28599E+06    -68.4026E+06    -28.6144E+06    -2.62898E+06    -14.7557E-03     28.4641E-03    -13.7084E-03     1.80198E-03    -14.6515E-03     28.1742E-03    -13.7417E-03     1.76783E-03
             224     7.98806E-03     34.6945E-18    -4.86451E+06    -69.2554E+06    -32.7538E+06    -3.13992E+06    -15.1122E-03     28.9171E-03    -13.8049E-03     2.14672E-03    -14.9886E-03     28.6254E-03    -13.8612E-03     2.10604E-03
             225     8.87319E-03     34.6945E-18    -1.55828E+06    -68.4106E+06    -35.4596E+06    -4.02726E+06    -15.4991E-03     29.4153E-03    -13.9162E-03     2.47123E-03    -15.3563E-03     29.1269E-03    -13.9921E-03     2.41886E-03
             226     9.76132E-03     34.6945E-18     1.19245E+06    -63.1196E+06    -38.3856E+06    -3.63026E+06    -16.0376E-03     30.0750E-03    -14.0374E-03     3.02116E-03    -15.8845E-03     29.8133E-03    -14.1396E-03     2.97401E-03
             227     10.6433E-03     34.6945E-18     5.53011E+06    -53.1965E+06    -40.5410E+06    -4.16421E+06    -16.5717E-03     30.7446E-03    -14.1728E-03     3.59153E-03    -16.4082E-03     30.5294E-03    -14.3064E-03     3.53720E-03
             228     11.5324E-03     34.6945E-18     10.8442E+06    -37.7052E+06    -39.0493E+06    -7.06549E+06    -17.3586E-03     31.6999E-03    -14.3413E-03     4.14901E-03    -17.1932E-03     31.5523E-03    -14.4976E-03     4.05709E-03
             229     12.4119E-03     34.6945E-18     14.4774E+06    -11.2812E+06    -33.4922E+06    -2.20539E+06    -18.3297E-03     32.8825E-03    -14.5528E-03     5.15470E-03    -18.1924E-03     32.8537E-03    -14.7249E-03     5.12503E-03
             230     13.2986E-03     34.6945E-18     14.5913E+06     21.2394E+06    -19.6749E+06     347.378E+03    -19.8612E-03     34.7186E-03    -14.8574E-03     6.76256E-03    -19.7906E-03     34.8323E-03    -15.0077E-03     6.76573E-03
             231     14.1763E-03     34.6945E-18     16.4094E+06     48.7932E+06     4.01731E+06    -3.31455E+06    -22.1984E-03     37.5033E-03    -15.3049E-03     9.61217E-03    -22.1933E-03     37.7179E-03    -15.3793E-03     9.56682E-03
             232     15.0547E-03     34.6945E-18     16.7959E+06     69.1531E+06     38.8465E+06     1.16850E+06    -27.0615E-03     43.0508E-03    -15.9893E-03     17.5499E-03    -27.1345E-03     43.3164E-03    -15.9197E-03     17.5614E-03
             233     15.9228E-03     34.6945E-18     5.53363E+06     72.9158E+06     57.4955E+06     5.22770E+06    -31.4888E-03     48.3263E-03    -16.8375E-03     22.7756E-03    -31.6531E-03     48.6014E-03    -16.6637E-03     22.8294E-03
             234     16.7888E-03     34.6945E-18     2.17000E+06     82.8960E+06     63.9291E+06     5.90593E+06    -37.1031E-03     54.8951E-03    -17.7920E-03     34.1468E-03    -37.3446E-03     55.2541E-03    -17.5957E-03     34.1253E-03
             235     17.6792E-03     1.02322E-03    -4.37035E+06     101.162E+06     69.0363E+06     4.58234E+06    -49.2386E-03     66.7814E-03    -17.5428E-03     62.3729E-03    -49.6839E-03     67.3764E-03    -17.3380E-03     62.1634E-03
             236     17.6953E-03     2.06170E-03    -6.68208E+06     115.425E+06     75.2321E+06     7.59951E+06    -57.0884E-03     73.4257E-03    -16.3373E-03     87.0893E-03    -57.7814E-03     74.2942E-03    -16.1188E-03     86.7791E-03
             237     17.7099E-03     3.10320E-03     5.46409E+06     134.018E+06     89.0721E+06     8.11873E+06    -53.9139E-03     69.6653E-03    -15.7514E-03     110.737E-03    -54.9020E-03     70.8942E-03    -15.5083E-03     110.499E-03
             238     17.7141E-03     4.11866E-03    -802.269E+03     140.063E+06     91.2200E+06     2.00166E+06    -52.8081E-03     68.2983E-03    -15.4902E-03     129.860E-03    -54.1647E-03     69.8870E-03    -15.2360E-03     129.651E-03
             239     17.7132E-03     5.14318E-03    -1.90437E+06     143.211E+06     89.7229E+06     1.90977E+06    -51.4045E-03     66.7778E-03    -15.3733E-03     136.661E-03    -52.9689E-03     68.5846E-03    -15.1295E-03     136.626E-03
             240     17.7212E-03     6.14590E-03    -521.461E+03     146.829E+06     91.2149E+06    -1.10964E+06    -46.9316E-03     62.3244E-03    -15.3928E-03     144.135E-03    -48.6945E-03     64.3432E-03    -15.1489E-03     144.341E-03
             241     17.7131E-03     7.16278E-03     542.256E+03     151.189E+06     97.0576E+06     5.59110E+06    -45.0875E-03     60.6157E-03    -15.5281E-03     150.603E-03    -47.0656E-03     62.8523E-03    -15.2628E-03     151.101E-03
             242     17.7171E-03     8.16133E-03     5.00166E+06     152.891E+06     84.8967E+06     12.4723E+06    -39.7333E-03     55.2903E-03    -15.5570E-03     152.383E-03    -41.7976E-03     57.6682E-03    -15.3615E-03     153.248E-03
             243     17.7197E-03     9.14595E-03    -23.2046E+06     131.971E+06     65.5318E+06    -1.37229E+06    -38.4163E-03     53.9602E-03    -15.5439E-03     151.572E-03    -40.6616E-03     56.4019E-03    -15.3739E-03     152.421E-03
             244     17.7114E-03     10.1674E-03    -20.6184E+06     140.197E+06     80.1836E+06    -3.31990E+06    -40.5012E-03     56.1367E-03    -15.6355E-03     167.128E-03    -43.0694E-03     58.8969E-03    -15.4080E-03     168.041E-03
             245     17.7213E-03     11.1614E-03     13.5820E+06     166.703E+06     97.1702E+06    -648.845E+03    -38.3072E-03     53.8697E-03    -15.5625E-03     181.145E-03    -40.9733E-03     56.8932E-03    -15.3381E-03     182.230E-03
             246     17.7205E-03     12.1569E-03     9.01460E+06     164.963E+06     98.1609E+06    -5.34119E+06    -37.4532E-03     52.9726E-03    -15.5194E-03     179.597E-03    -40.1828E-03     56.0357E-03    -15.2809E-03     180.773E-03
             247     17.7174E-03     13.1574E-03    -3.73900E+06     158.779E+06     95.5668E+06    -158.604E+03    -36.7440E-03     52.3741E-03    -15.6301E-03     182.245E-03    -39.6412E-03     55.5446E-03    -15.3771E-03     183.722E-03
             248     17.7192E-03     14.1419E-03    -4.71694E+06     157.534E+06     93.1206E+06     2.81207E+06    -35.5830E-03     51.2251E-03    -15.6420E-03     183.648E-03    -38.5231E-03     54.4375E-03    -15.3980E-03     185.289E-03
             249     17.7194E-03     15.1394E-03    -2.76752E+06     160.318E+06     95.4546E+06     991.095E+03    -35.7331E-03     51.3390E-03    -15.6059E-03     183.031E-03    -38.7058E-03     54.5946E-03    -15.3571E-03     184.710E-03
             250     17.7196E-03     16.1314E-03    -2.11333E+06     161.659E+06     95.9766E+06     404.929E+03    -34.6720E-03     50.2839E-03    -15.6119E-03     184.971E-03    -37.7435E-03     53.6434E-03    -15.3634E-03     186.803E-03
             251     17.7206E-03     17.1219E-03    -2.56418E+06     162.192E+06     95.7967E+06     408.145E+03    -33.5996E-03     49.2143E-03    -15.6146E-03     186.938E-03    -36.7610E-03     52.6647E-03    -15.3671E-03     188.925E-03
             252     17.7202E-03     18.1145E-03    -2.22636E+06     163.227E+06     95.9808E+06     407.505E+03    -32.7324E-03     48.3504E-03    -15.6180E-03     187.971E-03    -35.9596E-03     51.8708E-03    -15.3715E-03     190.081E-03
             253     17.7212E-03     19.1007E-03    -2.38430E+06     163.903E+06     96.3027E+06     779.427E+03    -32.0824E-03     47.7088E-03    -15.6264E-03     189.703E-03    -35.3821E-03     51.3027E-03    -15.3791E-03     191.927E-03
             254     17.7203E-03     20.0937E-03    -2.41203E+06     164.790E+06     97.2753E+06     633.487E+03    -31.8006E-03     47.4401E-03    -15.6394E-03     189.634E-03    -35.1610E-03     51.0947E-03    -15.3885E-03     191.956E-03
             255     17.7208E-03     21.0761E-03    -2.12439E+06     166.154E+06     97.2269E+06     431.035E+03    -30.6655E-03     46.3270E-03    -15.6615E-03     189.002E-03    -34.0459E-03     50.0077E-03    -15.4132E-03     191.428E-03
             256     17.7209E-03     22.0680E-03    -2.22552E+06     166.354E+06     97.5067E+06     691.531E+03    -29.5804E-03     45.2730E-03    -15.6927E-03     191.289E-03    -33.0149E-03     49.0076E-03    -15.4431E-03     193.824E-03
             257     17.7205E-03     23.0527E-03    -3.00582E+06     165.976E+06     97.6431E+06    -154.450E+03    -28.4292E-03     44.1546E-03    -15.7254E-03     189.437E-03    -31.8470E-03     47.8675E-03    -15.4735E-03     192.038E-03
             258     17.7208E-03     24.0296E-03    -3.42911E+06     165.745E+06     97.3379E+06    -940.405E+03    -28.3401E-03     44.0496E-03    -15.7094E-03     184.523E-03    -31.6676E-03     47.6709E-03    -15.4581E-03     187.113E-03
             259     17.7210E-03     25.0205E-03    -3.15445E+06     166.915E+06     97.8028E+06    -772.027E+03    -29.0380E-03     44.7187E-03    -15.6807E-03     186.433E-03    -32.4332E-03     48.4120E-03    -15.4291E-03     189.064E-03
             260     17.7213E-03     26.0111E-03    -2.47680E+06     168.894E+06     99.0060E+06     779.618E+03    -27.8895E-03     43.6137E-03    -15.7242E-03     194.781E-03    -31.5070E-03     47.5351E-03    -15.4705E-03     197.626E-03
             261     17.7208E-03     26.9975E-03    -1.20230E+06     170.879E+06     99.9649E+06     1.53823E+06    -24.9082E-03     40.7135E-03    -15.8053E-03     199.150E-03    -28.6414E-03     44.7592E-03    -15.5515E-03     202.229E-03
             262     17.7218E-03     27.9712E-03    -2.99088E+06     169.204E+06     98.4728E+06    -629.499E+03    -24.2241E-03     40.0312E-03    -15.8072E-03     195.998E-03    -27.8921E-03     44.0039E-03    -15.5558E-03     199.087E-03
             263     17.7208E-03     28.9500E-03    -3.25241E+06     169.050E+06     99.1568E+06    -401.004E+03    -26.1805E-03     41.9363E-03    -15.7558E-03     191.966E-03    -29.7724E-03     45.8296E-03    -15.5004E-03     194.948E-03
             264     17.7216E-03     29.9410E-03    -1.56785E+06     171.190E+06     100.070E+06     1.06472E+06    -24.9753E-03     40.7565E-03    -15.7812E-03     194.659E-03    -28.6429E-03     44.7362E-03    -15.5268E-03     197.764E-03
             265     17.7217E-03     30.9182E-03    -3.01422E+06     170.557E+06     99.3326E+06    -471.296E+03    -23.9220E-03     39.7295E-03    -15.8075E-03     198.125E-03    -27.6849E-03     43.7992E-03    -15.5538E-03     201.343E-03
             266     17.7211E-03     31.8980E-03    -2.68896E+06     170.988E+06     100.237E+06     45.0171E+03    -24.6416E-03     40.4348E-03    -15.7933E-03     195.746E-03    -28.3601E-03     44.4601E-03    -15.5361E-03     198.923E-03
             267     17.7217E-03     32.8817E-03    -2.33164E+06     171.629E+06     100.189E+06     572.947E+03    -23.8105E-03     39.6191E-03    -15.8086E-03     196.818E-03    -27.5631E-03     43.6821E-03    -15.5531E-03     200.075E-03
             268     17.7216E-03     33.8601E-03    -2.65239E+06     171.817E+06     100.308E+06     -72.054E+03    -23.3408E-03     39.1605E-03    -15.8198E-03     197.907E-03    -27.1260E-03     43.2554E-03    -15.5635E-03     201.213E-03
             269     17.7215E-03     34.8404E-03    -2.79990E+06     171.743E+06     100.511E+06    -214.822E+03    -23.4875E-03     39.3067E-03    -15.8191E-03     196.659E-03    -27.2502E-03     43.3776E-03    -15.5615E-03     199.947E-03
             270     17.7214E-03     35.8193E-03    -2.83305E+06     171.919E+06     100.486E+06    -152.529E+03    -23.3005E-03     39.1225E-03    -15.8220E-03     196.018E-03    -27.0581E-03     43.1889E-03    -15.5647E-03     199.329E-03
             271     17.7217E-03     36.7997E-03    -2.75511E+06     172.272E+06     100.700E+06    -29.5355E+03    -23.1925E-03     39.0152E-03    -15.8227E-03     196.614E-03    -26.9699E-03     43.1024E-03    -15.5650E-03     199.954E-03
             272     17.7215E-03     37.7806E-03    -2.66439E+06     172.560E+06     100.777E+06     37.3430E+03    -23.0284E-03     38.8552E-03    -15.8268E-03     198.072E-03    -26.8461E-03     42.9838E-03    -15.5693E-03     201.444E-03
             273     17.7218E-03     38.7600E-03    -2.75905E+06     172.677E+06     100.778E+06     28.3029E+03    -22.8993E-03     38.7310E-03    -15.8317E-03     199.410E-03    -26.7584E-03     42.9010E-03    -15.5742E-03     202.821E-03
             274     17.7214E-03     39.7402E-03    -2.35807E+06     173.202E+06     101.241E+06     400.426E+03    -22.4689E-03     38.3149E-03    -15.8460E-03     199.896E-03    -26.3414E-03     42.5003E-03    -15.5875E-03     203.348E-03
             275     17.7217E-03     40.7182E-03    -2.28565E+06     173.387E+06     101.268E+06     287.596E+03    -21.8685E-03     37.7278E-03    -15.8592E-03     199.502E-03    -25.7318E-03     41.9048E-03    -15.6010E-03     202.981E-03
             276     17.7216E-03     41.6944E-03    -2.90541E+06     172.746E+06     100.868E+06    -418.059E+03    -22.3391E-03     38.1822E-03    -15.8431E-03     198.023E-03    -26.1720E-03     42.3256E-03    -15.5850E-03     201.463E-03
             277     17.7217E-03     42.6748E-03    -2.63391E+06     173.114E+06     101.275E+06    -29.2807E+03    -22.8317E-03     38.6636E-03    -15.8319E-03     197.893E-03    -26.6657E-03     42.8091E-03    -15.5727E-03     201.316E-03
             278     17.7216E-03     43.6559E-03    -2.26744E+06     173.784E+06     101.537E+06     388.386E+03    -22.2109E-03     38.0614E-03    -15.8505E-03     199.761E-03    -26.0922E-03     42.2571E-03    -15.5915E-03     203.247E-03
             279     17.7217E-03     44.6331E-03    -2.60415E+06     173.619E+06     101.344E+06      27.648E+03    -21.7486E-03     37.6107E-03    -15.8621E-03     199.861E-03    -25.6334E-03     41.8087E-03    -15.6033E-03     203.373E-03
             280     17.7215E-03     45.6101E-03    -2.68471E+06     173.352E+06     101.334E+06    -221.799E+03    -22.0137E-03     37.8660E-03    -15.8522E-03     198.400E-03    -25.8628E-03     42.0270E-03    -15.5930E-03     201.880E-03
             281     17.7218E-03     46.5895E-03    -2.71841E+06     173.311E+06     101.374E+06    -211.683E+03    -22.1854E-03     38.0323E-03    -15.8470E-03     198.019E-03    -26.0282E-03     42.1868E-03    -15.5874E-03     201.488E-03
             282     17.7215E-03     47.5684E-03    -2.65266E+06     173.350E+06     101.341E+06    -185.640E+03    -22.0575E-03     37.9079E-03    -15.8504E-03     198.674E-03    -25.9202E-03     42.0826E-03    -15.5912E-03     202.164E-03
             283     17.7219E-03     48.5470E-03    -2.70147E+06     173.392E+06     101.476E+06     75.1158E+03    -22.1727E-03     38.0242E-03    -15.8515E-03     199.803E-03    -26.0664E-03     42.2295E-03    -15.5916E-03     203.310E-03
             284     17.7213E-03     49.5273E-03    -2.25130E+06     173.954E+06     101.742E+06     403.879E+03    -21.6354E-03     37.5013E-03    -15.8659E-03     200.015E-03    -25.5324E-03     41.7128E-03    -15.6062E-03     203.551E-03
             285     17.7220E-03     50.5027E-03    -2.81974E+06     173.389E+06     101.224E+06    -344.407E+03    -21.5685E-03     37.4327E-03    -15.8642E-03     199.553E-03    -25.4539E-03     41.6301E-03    -15.6054E-03     203.085E-03
             286     17.7213E-03     51.4809E-03    -2.81323E+06     173.583E+06     101.693E+06     26.5197E+03    -22.3414E-03     38.1885E-03    -15.8471E-03     198.634E-03    -26.2097E-03     42.3682E-03    -15.5863E-03     202.125E-03
             287     17.7219E-03     52.4626E-03    -2.16060E+06     174.621E+06     102.159E+06     579.086E+03    -21.7485E-03     37.6121E-03    -15.8636E-03     199.909E-03    -25.6480E-03     41.8277E-03    -15.6029E-03     203.447E-03
             288     17.7215E-03     53.4385E-03    -2.92869E+06     174.198E+06     101.653E+06    -124.676E+03    -21.3258E-03     37.2000E-03    -15.8743E-03     200.340E-03    -25.2358E-03     41.4232E-03    -15.6143E-03     203.904E-03
             289     17.7217E-03     54.4156E-03    -2.62233E+06     174.500E+06     101.949E+06     137.880E+03    -21.7145E-03     37.5772E-03    -15.8628E-03     198.999E-03    -25.5921E-03     41.7693E-03    -15.6022E-03     202.529E-03
             290     17.7217E-03     55.3956E-03    -2.63692E+06     174.651E+06     101.965E+06     68.0648E+03    -21.8267E-03     37.6866E-03    -15.8599E-03     199.685E-03    -25.7242E-03     41.8990E-03    -15.5995E-03     203.221E-03
             291     17.7216E-03     56.3733E-03    -2.22500E+06     175.187E+06     102.296E+06     299.251E+03    -21.4464E-03     37.3169E-03    -15.8705E-03     200.013E-03    -25.3509E-03     41.5388E-03    -15.6098E-03     203.579E-03
             292     885.923E-06     57.3778E-03    -18.0293E+06    -74.1136E+06    -17.4855E+06     47.6851E+03    -15.8302E-03     31.6514E-03    -15.8211E-03     3.47267E-03    -15.7876E-03     31.3323E-03    -15.7750E-03     3.47275E-03
             293     1.77180E-03     57.3823E-03    -17.2110E+06    -73.2799E+06    -15.2376E+06     61.3828E+03    -15.8298E-03     31.6637E-03    -15.8339E-03     6.41331E-03    -15.7876E-03     31.3445E-03    -15.7789E-03     6.41311E-03
             294     2.65774E-03     57.3897E-03    -16.0409E+06    -72.1219E+06    -12.1617E+06     111.509E+03    -15.8316E-03     31.6751E-03    -15.8434E-03     9.57538E-03    -15.7898E-03     31.3555E-03    -15.7764E-03     9.57531E-03
             295     3.54365E-03     57.4001E-03    -14.6447E+06    -70.8941E+06    -8.83490E+06     164.803E+03    -15.8413E-03     31.6936E-03    -15.8524E-03     12.8514E-03    -15.7992E-03     31.3735E-03    -15.7725E-03     12.8514E-03
             296     4.42960E-03     57.4136E-03    -13.1684E+06    -69.9546E+06    -5.86176E+06     155.189E+03    -15.8597E-03     31.7193E-03    -15.8595E-03     16.2538E-03    -15.8162E-03     31.3976E-03    -15.7683E-03     16.2531E-03
             297     5.31553E-03     57.4303E-03    -11.7287E+06    -68.9856E+06    -3.61779E+06     191.793E+03    -15.8861E-03     31.7491E-03    -15.8630E-03     19.8073E-03    -15.8403E-03     31.4273E-03    -15.7641E-03     19.8063E-03
             298     6.20150E-03     57.4504E-03    -10.3924E+06    -67.6427E+06    -1.93943E+06     193.716E+03    -15.9216E-03     31.7849E-03    -15.8633E-03     23.5247E-03    -15.8740E-03     31.4659E-03    -15.7598E-03     23.5228E-03
             299     7.08743E-03     57.4740E-03    -9.23123E+06    -66.8226E+06    -519.645E+03     269.214E+03    -15.9653E-03     31.8285E-03    -15.8632E-03     27.4052E-03    -15.9158E-03     31.5105E-03    -15.7555E-03     27.4030E-03
             300     7.97342E-03     57.5014E-03    -8.21809E+06    -64.5567E+06     502.438E+03     347.071E+03    -16.0146E-03     31.8737E-03    -15.8591E-03     31.4221E-03    -15.9657E-03     31.5650E-03    -15.7511E-03     31.4194E-03
             301     8.85939E-03     57.5325E-03    -7.35271E+06    -61.7685E+06     1.24545E+06     266.541E+03    -16.0706E-03     31.9234E-03    -15.8528E-03     35.5258E-03    -16.0241E-03     31.6279E-03    -15.7463E-03     35.5198E-03
             302     9.74536E-03     57.5675E-03    -6.59782E+06    -60.8271E+06     1.11163E+06     324.242E+03    -16.1353E-03     31.9798E-03    -15.8445E-03     39.6784E-03    -16.0886E-03     31.6905E-03    -15.7412E-03     39.6700E-03
             303     10.6314E-03     57.6062E-03    -5.94791E+06    -55.5880E+06    -1.63227E+06     371.518E+03    -16.2066E-03     32.0233E-03    -15.8167E-03     43.8306E-03    -16.1641E-03     31.7671E-03    -15.7356E-03     43.8188E-03
             304     11.5174E-03     57.6490E-03    -5.45652E+06    -43.1973E+06     473.603E+03     346.563E+03    -16.2446E-03     32.0462E-03    -15.8016E-03     48.3408E-03    -16.2268E-03     31.8544E-03    -15.7287E-03     48.3235E-03
             305     12.4034E-03     57.6960E-03    -5.13938E+06    -36.2543E+06     637.536E+03     376.523E+03    -16.3618E-03     32.1447E-03    -15.7829E-03     54.9571E-03    -16.3644E-03     31.9985E-03    -15.7197E-03     54.9333E-03
             306     13.2895E-03     57.7510E-03    -5.12675E+06    -34.2295E+06    -8.17129E+06     346.613E+03    -16.4016E-03     32.1273E-03    -15.7257E-03     57.6888E-03    -16.4106E-03     32.0202E-03    -15.7095E-03     57.6570E-03
             307     14.1758E-03     57.8033E-03    -5.09468E+06    -11.1772E+06    -8.25615E+06      411.94E+03    -16.4243E-03     32.1047E-03    -15.6804E-03     61.8196E-03    -16.4952E-03     32.1418E-03    -15.6981E-03     61.7846E-03
             308     15.0612E-03     57.8659E-03     -5.0964E+06     33.4647E+06    -9.00964E+06     572.045E+03    -17.1860E-03     32.7794E-03    -15.5934E-03     89.7634E-03    -17.4693E-03     33.1896E-03    -15.6796E-03     89.7470E-03
             309     15.9494E-03     57.9699E-03    -5.20903E+06     95.0493E+06    -5.94351E+06     649.505E+03    -19.5547E-03     35.0455E-03    -15.4908E-03     146.476E-03    -20.9611E-03     36.7881E-03    -15.6508E-03     146.872E-03
             310     16.8353E-03     58.1392E-03    -4.00294E+06     153.975E+06     52.3831E+06     304.605E+03    -21.4832E-03     37.1457E-03    -15.6625E-03     190.048E-03    -24.6150E-03     40.6579E-03    -15.6180E-03     192.214E-03
             311     885.884E-06     58.3562E-03    -18.0083E+06    -74.2358E+06    -17.4729E+06     19.8312E+03    -15.8318E-03     31.6637E-03    -15.8318E-03     3.47212E-03    -15.7889E-03     31.3440E-03    -15.7855E-03     3.47185E-03
             312     1.77183E-03     58.3607E-03    -17.2232E+06    -73.3894E+06    -15.2400E+06     60.7200E+03    -15.8279E-03     31.6663E-03    -15.8384E-03     6.41941E-03    -15.7856E-03     31.3465E-03    -15.7832E-03     6.41920E-03
             313     2.65772E-03     58.3681E-03    -16.0712E+06    -72.2674E+06    -12.1815E+06     106.992E+03    -15.8342E-03     31.6805E-03    -15.8463E-03     9.58389E-03    -15.7923E-03     31.3603E-03    -15.7791E-03     9.58377E-03
             314     3.54366E-03     58.3786E-03    -14.6864E+06    -70.9594E+06    -8.90842E+06     142.379E+03    -15.8425E-03     31.6972E-03    -15.8546E-03     12.8609E-03    -15.8005E-03     31.3769E-03    -15.7750E-03     12.8607E-03
             315     4.42958E-03     58.3920E-03    -13.2505E+06    -69.9769E+06    -5.94082E+06     156.116E+03    -15.8592E-03     31.7206E-03    -15.8614E-03     16.2664E-03    -15.8160E-03     31.3991E-03    -15.7704E-03     16.2657E-03
             316     5.31554E-03     58.4088E-03    -11.8529E+06    -69.0434E+06    -3.72791E+06     142.676E+03    -15.8869E-03     31.7514E-03    -15.8645E-03     19.8198E-03    -15.8415E-03     31.4296E-03    -15.7658E-03     19.8181E-03
             317     6.20147E-03     58.4289E-03    -10.5893E+06    -67.6890E+06    -2.07270E+06     188.132E+03    -15.9221E-03     31.7867E-03    -15.8646E-03     23.5396E-03    -15.8752E-03     31.4680E-03    -15.7615E-03     23.5376E-03
             318     7.08744E-03     58.4525E-03    -9.40131E+06    -66.9371E+06    -556.699E+03     215.314E+03    -15.9653E-03     31.8303E-03    -15.8650E-03     27.4109E-03    -15.9164E-03     31.5120E-03    -15.7571E-03     27.4081E-03
             319     7.97340E-03     58.4798E-03    -8.26028E+06    -64.6570E+06     399.307E+03     287.438E+03    -16.0153E-03     31.8755E-03    -15.8603E-03     31.4361E-03    -15.9664E-03     31.5666E-03    -15.7525E-03     31.4325E-03
             320     8.85936E-03     58.5110E-03    -7.30456E+06    -61.7239E+06     1.27882E+06     328.533E+03    -16.0691E-03     31.9232E-03    -15.8541E-03     35.5282E-03    -16.0225E-03     31.6278E-03    -15.7476E-03     35.5230E-03
             321     9.74539E-03     58.5458E-03    -6.56613E+06    -60.9254E+06     1.12694E+06     299.692E+03    -16.1371E-03     31.9829E-03    -15.8458E-03     39.6783E-03    -16.0901E-03     31.6931E-03    -15.7423E-03     39.6696E-03
             322     10.6313E-03     58.5847E-03    -6.07913E+06    -55.6809E+06    -1.81121E+06     325.115E+03    -16.1990E-03     32.0159E-03    -15.8169E-03     43.8408E-03    -16.1568E-03     31.7597E-03    -15.7364E-03     43.8284E-03
             323     11.5174E-03     58.6272E-03    -5.65096E+06    -43.2776E+06     363.501E+03     358.151E+03    -16.2277E-03     32.0290E-03    -15.8013E-03     48.3221E-03    -16.2106E-03     31.8372E-03    -15.7285E-03     48.3050E-03
             324     12.4035E-03     58.6745E-03    -5.16650E+06    -36.3805E+06     646.325E+03     391.324E+03    -16.3718E-03     32.1545E-03    -15.7827E-03     54.9718E-03    -16.3744E-03     32.0078E-03    -15.7193E-03     54.9481E-03
             325     13.2896E-03     58.7293E-03    -5.11593E+06    -34.0206E+06    -8.03791E+06     397.596E+03    -16.4182E-03     32.1447E-03    -15.7265E-03     57.6690E-03    -16.4277E-03     32.0386E-03    -15.7100E-03     57.6378E-03
             326     14.1755E-03     58.7815E-03    -5.44012E+06    -11.3550E+06    -8.45513E+06     364.919E+03    -16.3072E-03     31.9849E-03    -15.6777E-03     61.7786E-03    -16.3790E-03     32.0216E-03    -15.6956E-03     61.7435E-03
             327     15.0627E-03     58.8442E-03    -5.60653E+06     33.1985E+06    -9.46579E+06     376.536E+03    -17.2345E-03     32.8231E-03    -15.5886E-03     89.3291E-03    -17.5189E-03     33.2329E-03    -15.6759E-03     89.3096E-03
             328     15.9480E-03     58.9473E-03    -5.74288E+06     95.0222E+06    -6.03572E+06     399.814E+03    -19.5766E-03     35.0688E-03    -15.4922E-03     145.593E-03    -20.9801E-03     36.8067E-03    -15.6518E-03     145.987E-03
             329     16.8349E-03     59.1179E-03    -4.11586E+06     154.183E+06     52.6330E+06     362.305E+03    -21.3743E-03     37.0390E-03    -15.6647E-03     189.769E-03    -24.5057E-03     40.5505E-03    -15.6191E-03     191.936E-03
             330     885.910E-06     59.3347E-03    -18.0146E+06    -74.3503E+06    -17.4761E+06     1.91316E+03    -15.8257E-03     31.6641E-03    -15.8384E-03     3.46419E-03    -15.7827E-03     31.3438E-03    -15.7918E-03     3.46368E-03
             331     1.77180E-03     59.3392E-03    -17.2480E+06    -73.5091E+06    -15.2619E+06     43.5656E+03    -15.8280E-03     31.6665E-03    -15.8385E-03     6.43043E-03    -15.7856E-03     31.3461E-03    -15.7832E-03     6.43000E-03
             332     2.65774E-03     59.3466E-03    -16.0835E+06    -72.3479E+06    -12.1841E+06     65.8439E+03    -15.8334E-03     31.6797E-03    -15.8463E-03     9.58933E-03    -15.7914E-03     31.3591E-03    -15.7790E-03     9.58867E-03
             333     3.54365E-03     59.3570E-03    -14.6806E+06    -71.0305E+06    -8.90565E+06     91.2954E+03    -15.8411E-03     31.6954E-03    -15.8543E-03     12.8676E-03    -15.7989E-03     31.3748E-03    -15.7746E-03     12.8667E-03
             334     4.42960E-03     59.3705E-03    -13.1651E+06    -69.9998E+06    -5.90198E+06     120.894E+03    -15.8590E-03     31.7199E-03    -15.8609E-03     16.2746E-03    -15.8153E-03     31.3981E-03    -15.7698E-03     16.2734E-03
             335     5.31553E-03     59.3872E-03    -11.7448E+06    -69.1043E+06    -3.57644E+06     160.208E+03    -15.8873E-03     31.7519E-03    -15.8646E-03     19.8278E-03    -15.8415E-03     31.4295E-03    -15.7653E-03     19.8264E-03
             336     6.20148E-03     59.4073E-03    -10.4879E+06    -67.7825E+06    -1.96897E+06     213.423E+03    -15.9218E-03     31.7864E-03    -15.8646E-03     23.5453E-03    -15.8745E-03     31.4669E-03    -15.7609E-03     23.5436E-03
             337     7.08744E-03     59.4309E-03    -9.36380E+06    -66.8966E+06    -550.445E+03     190.117E+03    -15.9675E-03     31.8320E-03    -15.8645E-03     27.4188E-03    -15.9184E-03     31.5138E-03    -15.7567E-03     27.4156E-03
             338     7.97339E-03     59.4583E-03    -8.34021E+06    -64.7962E+06     331.174E+03     187.698E+03    -16.0129E-03     31.8727E-03    -15.8599E-03     31.4392E-03    -15.9640E-03     31.5633E-03    -15.7522E-03     31.4344E-03
             339     8.85941E-03     59.4893E-03    -7.35153E+06    -61.8142E+06     1.12543E+06     293.857E+03    -16.0672E-03     31.9201E-03    -15.8529E-03     35.5377E-03    -16.0204E-03     31.6246E-03    -15.7470E-03     35.5320E-03
             340     9.74533E-03     59.5243E-03    -6.54228E+06    -60.8912E+06     1.13352E+06     340.339E+03    -16.1385E-03     31.9837E-03    -15.8452E-03     39.6727E-03    -16.0915E-03     31.6940E-03    -15.7417E-03     39.6646E-03
             341     10.6314E-03     59.5630E-03    -6.04817E+06    -55.7098E+06    -1.82351E+06     326.758E+03    -16.1991E-03     32.0155E-03    -15.8164E-03     43.8119E-03    -16.1567E-03     31.7591E-03    -15.7360E-03     43.7995E-03
             342     11.5174E-03     59.6057E-03    -5.64567E+06    -43.2277E+06     322.656E+03     300.875E+03    -16.2351E-03     32.0361E-03    -15.8010E-03     48.2799E-03    -16.2181E-03     31.8446E-03    -15.7285E-03     48.2619E-03
             343     12.4034E-03     59.6527E-03    -5.11753E+06    -36.5994E+06     545.341E+03     366.081E+03    -16.3502E-03     32.1322E-03    -15.7820E-03     54.9203E-03    -16.3521E-03     31.9844E-03    -15.7188E-03     54.8964E-03
             344     13.2896E-03     59.7078E-03    -5.08346E+06    -34.1439E+06    -8.11197E+06     508.695E+03    -16.3820E-03     32.1060E-03    -15.7240E-03     57.6024E-03    -16.3909E-03     31.9992E-03    -15.7077E-03     57.5728E-03
             345     14.1758E-03     59.7597E-03    -5.40033E+06    -11.1683E+06    -8.34789E+06     446.327E+03    -16.4042E-03     32.0821E-03    -15.6778E-03     61.5687E-03    -16.4763E-03     32.1196E-03    -15.6956E-03     61.5343E-03
             346     15.0616E-03     59.8219E-03    -5.76903E+06     33.0547E+06    -9.70363E+06     246.289E+03    -17.3700E-03     32.9645E-03    -15.5945E-03     89.4698E-03    -17.6557E-03     33.3752E-03    -15.6826E-03     89.4479E-03
             347     15.9479E-03     59.9270E-03    -5.69365E+06     94.8295E+06    -6.54701E+06     278.685E+03    -19.6653E-03     35.1676E-03    -15.5022E-03     145.610E-03    -21.0660E-03     36.9036E-03    -15.6642E-03     146.001E-03
             348     16.8349E-03     60.0934E-03    -3.87713E+06     154.377E+06     52.4483E+06     428.549E+03    -21.3157E-03     36.9911E-03    -15.6754E-03     190.040E-03    -24.4574E-03     40.5150E-03    -15.6314E-03     192.220E-03
             349     885.897E-06     60.3131E-03    -18.0053E+06    -74.4255E+06    -17.4577E+06     4.02023E+03    -15.8214E-03     31.6534E-03    -15.8320E-03     3.45947E-03    -15.7782E-03     31.3327E-03    -15.7853E-03     3.45900E-03
             350     1.77183E-03     60.3177E-03    -17.2384E+06    -73.5512E+06    -15.2428E+06     3.25236E+03    -15.8290E-03     31.6634E-03    -15.8344E-03     6.43936E-03    -15.7865E-03     31.3428E-03    -15.7790E-03     6.43841E-03
             351     2.65772E-03     60.3251E-03    -16.0818E+06    -72.4076E+06    -12.1914E+06     28.9106E+03    -15.8311E-03     31.6746E-03    -15.8435E-03     9.59524E-03    -15.7891E-03     31.3537E-03    -15.7761E-03     9.59411E-03
             352     3.54367E-03     60.3355E-03    -14.7113E+06    -71.0640E+06    -8.91714E+06     43.5932E+03    -15.8394E-03     31.6911E-03    -15.8517E-03     12.8723E-03    -15.7973E-03     31.3704E-03    -15.7719E-03     12.8708E-03
             353     4.42960E-03     60.3489E-03    -13.2729E+06    -70.0713E+06    -5.97647E+06     73.1653E+03    -15.8578E-03     31.7163E-03    -15.8584E-03     16.2809E-03    -15.8145E-03     31.3944E-03    -15.7675E-03     16.2791E-03
             354     5.31555E-03     60.3657E-03    -11.8618E+06    -69.2071E+06    -3.71236E+06     152.587E+03    -15.8852E-03     31.7473E-03    -15.8621E-03     19.8328E-03    -15.8397E-03     31.4247E-03    -15.7631E-03     19.8313E-03
             355     6.20149E-03     60.3857E-03    -10.5439E+06    -67.8209E+06    -2.07611E+06     184.046E+03    -15.9202E-03     31.7823E-03    -15.8621E-03     23.5507E-03    -15.8729E-03     31.4628E-03    -15.7588E-03     23.5486E-03
             356     7.08745E-03     60.4094E-03    -9.36791E+06    -66.8939E+06    -631.313E+03     198.211E+03    -15.9655E-03     31.8275E-03    -15.8620E-03     27.4272E-03    -15.9164E-03     31.5095E-03    -15.7546E-03     27.4241E-03
             357     7.97343E-03     60.4367E-03    -8.34094E+06    -64.7838E+06     317.820E+03     173.131E+03    -16.0142E-03     31.8721E-03    -15.8579E-03     31.4348E-03    -15.9654E-03     31.5628E-03    -15.7502E-03     31.4298E-03
             358     8.85937E-03     60.4678E-03    -7.41609E+06    -61.9597E+06     1.03026E+06     179.032E+03    -16.0677E-03     31.9188E-03    -15.8511E-03     35.5377E-03    -16.0209E-03     31.6228E-03    -15.7454E-03     35.5306E-03
             359     9.74544E-03     60.5027E-03    -6.52191E+06    -60.9046E+06     1.07698E+06     256.665E+03    -16.1374E-03     31.9808E-03    -15.8434E-03     39.6606E-03    -16.0902E-03     31.6911E-03    -15.7402E-03     39.6514E-03
             360     10.6313E-03     60.5414E-03    -5.87661E+06    -55.6902E+06    -1.73778E+06     262.211E+03    -16.2022E-03     32.0175E-03    -15.8153E-03     43.8052E-03    -16.1591E-03     31.7608E-03    -15.7347E-03     43.7920E-03
             361     11.5174E-03     60.5840E-03    -5.54047E+06    -43.3758E+06     268.849E+03     328.545E+03    -16.2391E-03     32.0389E-03    -15.7997E-03     48.3040E-03    -16.2212E-03     31.8465E-03    -15.7275E-03     48.2865E-03
             362     12.4035E-03     60.6311E-03    -5.20640E+06     -36.753E+06     442.788E+03     417.265E+03    -16.3433E-03     32.1241E-03    -15.7808E-03     54.8869E-03    -16.3452E-03     31.9758E-03    -15.7178E-03     54.8636E-03
             363     13.2896E-03     60.6859E-03    -4.84117E+06    -34.4802E+06    -8.15230E+06     520.061E+03    -16.3672E-03     32.0896E-03    -15.7223E-03     57.5177E-03    -16.3743E-03     31.9807E-03    -15.7061E-03     57.4883E-03
             364     14.1758E-03     60.7379E-03    -4.99697E+06    -11.0522E+06    -8.31660E+06     588.274E+03    -16.4301E-03     32.1059E-03    -15.6757E-03     61.7894E-03    -16.5006E-03     32.1435E-03    -15.6941E-03     61.7567E-03
             365     15.0618E-03     60.8008E-03    -5.55158E+06     33.3869E+06    -9.68721E+06     395.862E+03    -17.3371E-03     32.9288E-03    -15.5917E-03     89.7114E-03    -17.6221E-03     33.3406E-03    -15.6805E-03     89.6922E-03
             366     15.9488E-03     60.9040E-03    -6.00602E+06     94.6864E+06    -6.62146E+06     159.553E+03    -19.8202E-03     35.3239E-03    -15.5036E-03     145.592E-03    -21.2256E-03     37.0632E-03    -15.6653E-03     145.976E-03
             367     16.8341E-03     61.0736E-03    -4.31746E+06     154.387E+06     52.4181E+06     195.047E+03    -21.3330E-03     37.0158E-03    -15.6829E-03     189.531E-03    -24.4662E-03     40.5298E-03    -15.6384E-03     191.704E-03
             368     885.935E-06     61.2916E-03    -18.0052E+06    -74.4302E+06    -17.4685E+06    -11.3983E+03    -15.8080E-03     31.6433E-03    -15.8354E-03     3.46157E-03    -15.7648E-03     31.3227E-03    -15.7887E-03     3.46090E-03
             369     1.77182E-03     61.2961E-03    -17.2510E+06    -73.5466E+06    -15.2620E+06    -9.35840E+03    -15.8238E-03     31.6530E-03    -15.8293E-03     6.43466E-03    -15.7813E-03     31.3325E-03    -15.7739E-03     6.43354E-03
             370     2.65776E-03     61.3035E-03    -16.1196E+06    -72.4336E+06    -12.2194E+06    -10.5390E+03    -15.8272E-03     31.6657E-03    -15.8385E-03     9.59817E-03    -15.7852E-03     31.3448E-03    -15.7712E-03     9.59653E-03
             371     3.54367E-03     61.3139E-03    -14.7385E+06    -71.0973E+06    -8.95429E+06     26.4963E+03    -15.8381E-03     31.6853E-03    -15.8473E-03     12.8772E-03    -15.7960E-03     31.3645E-03    -15.7676E-03     12.8755E-03
             372     4.42962E-03     61.3274E-03    -13.2880E+06    -70.1259E+06    -6.03103E+06     59.0807E+03    -15.8559E-03     31.7104E-03    -15.8545E-03     16.2850E-03    -15.8125E-03     31.3883E-03    -15.7637E-03     16.2830E-03
             373     5.31556E-03     61.3441E-03    -11.8574E+06    -69.2849E+06    -3.83603E+06     83.2054E+03    -15.8831E-03     31.7411E-03    -15.8580E-03     19.8373E-03    -15.8372E-03     31.4183E-03    -15.7596E-03     19.8349E-03
             374     6.20151E-03     61.3642E-03    -10.5546E+06    -67.8689E+06    -2.17283E+06     138.414E+03    -15.9184E-03     31.7767E-03    -15.8583E-03     23.5546E-03    -15.8710E-03     31.4572E-03    -15.7555E-03     23.5520E-03
             375     7.08748E-03     61.3878E-03    -9.39159E+06    -66.9009E+06    -667.288E+03     157.102E+03    -15.9625E-03     31.8211E-03    -15.8587E-03     27.4263E-03    -15.9134E-03     31.5032E-03    -15.7514E-03     27.4228E-03
             376     7.97343E-03     61.4151E-03    -8.31657E+06    -64.7878E+06     299.207E+03     138.576E+03    -16.0150E-03     31.8697E-03    -15.8547E-03     31.4372E-03    -15.9660E-03     31.5604E-03    -15.7472E-03     31.4317E-03
             377     8.85944E-03     61.4462E-03    -7.38720E+06    -61.9876E+06     1.03903E+06     145.086E+03    -16.0674E-03     31.9159E-03    -15.8485E-03     35.5366E-03    -16.0205E-03     31.6197E-03    -15.7427E-03     35.5290E-03
             378     9.74536E-03     61.4811E-03    -6.56594E+06    -61.0882E+06     915.397E+03     141.388E+03    -16.1258E-03     31.9657E-03    -15.8399E-03     39.6706E-03    -16.0783E-03     31.6754E-03    -15.7373E-03     39.6599E-03
             379     10.6315E-03     61.5198E-03    -6.04764E+06    -55.7275E+06    -1.86552E+06     240.256E+03    -16.1953E-03     32.0067E-03    -15.8114E-03     43.8213E-03    -16.1528E-03     31.7503E-03    -15.7311E-03     43.8078E-03
             380     11.5175E-03     61.5624E-03    -5.59136E+06    -43.4547E+06     338.995E+03     320.170E+03    -16.2194E-03     32.0154E-03    -15.7960E-03     48.3026E-03    -16.2017E-03     31.8226E-03    -15.7232E-03     48.2849E-03
             381     12.4035E-03     61.6094E-03    -5.00983E+06    -36.9979E+06     471.675E+03     306.290E+03    -16.3297E-03     32.1055E-03    -15.7758E-03     54.9027E-03    -16.3303E-03     31.9556E-03    -15.7126E-03     54.8780E-03
             382     13.2896E-03     61.6642E-03    -4.79889E+06    -34.4598E+06    -8.21917E+06     324.850E+03    -16.3972E-03     32.1146E-03    -15.7174E-03     57.5860E-03    -16.4041E-03     32.0060E-03    -15.7016E-03     57.5540E-03
             383     14.1757E-03     61.7162E-03    -4.79972E+06    -11.3239E+06    -8.37536E+06     470.316E+03    -16.3598E-03     32.0300E-03    -15.6701E-03     61.7540E-03    -16.4287E-03     32.0659E-03    -15.6886E-03     61.7201E-03
             384     15.0625E-03     61.7787E-03    -5.36137E+06     33.4251E+06    -9.26457E+06     731.992E+03    -17.2195E-03     32.8023E-03    -15.5828E-03     89.6717E-03    -17.5032E-03     33.2126E-03    -15.6698E-03     89.6570E-03
             385     15.9475E-03     61.8831E-03    -5.78781E+06     95.1858E+06    -6.37359E+06     531.876E+03    -19.7703E-03     35.2574E-03    -15.4870E-03     146.525E-03    -21.1866E-03     37.0094E-03    -15.6485E-03     146.919E-03
             386     16.8346E-03     62.0514E-03    -4.22013E+06     154.504E+06     52.2147E+06     73.1066E+03    -21.4802E-03     37.1458E-03    -15.6656E-03     189.711E-03    -24.6060E-03     40.6536E-03    -15.6224E-03     191.871E-03
             387     885.890E-06     62.2700E-03    -18.0260E+06    -74.3582E+06    -17.4923E+06    -22.1734E+03    -15.8024E-03     31.6354E-03    -15.8330E-03     3.47646E-03    -15.7594E-03     31.3152E-03    -15.7865E-03     3.47564E-03
             388     1.77185E-03     62.2746E-03    -17.2698E+06    -73.5314E+06    -15.2855E+06    -28.3176E+03    -15.8162E-03     31.6409E-03    -15.8247E-03     6.43452E-03    -15.7739E-03     31.3205E-03    -15.7694E-03     6.43316E-03
             389     2.65775E-03     62.2819E-03    -16.1297E+06    -72.4030E+06    -12.2270E+06    -23.3996E+03    -15.8222E-03     31.6555E-03    -15.8333E-03     9.59922E-03    -15.7803E-03     31.3347E-03    -15.7660E-03     9.59741E-03
             390     3.54371E-03     62.2924E-03    -14.7462E+06    -71.1326E+06    -9.01932E+06    -28.1140E+03    -15.8341E-03     31.6761E-03    -15.8420E-03     12.8785E-03    -15.7920E-03     31.3553E-03    -15.7626E-03     12.8760E-03
             391     4.42964E-03     62.3058E-03    -13.2516E+06    -70.1582E+06    -6.10636E+06     9.00441E+03    -15.8531E-03     31.7025E-03    -15.8493E-03     16.2855E-03    -15.8094E-03     31.3803E-03    -15.7589E-03     16.2829E-03
             392     5.31559E-03     62.3226E-03    -11.8341E+06    -69.2949E+06    -3.84214E+06     14.3850E+03    -15.8812E-03     31.7348E-03    -15.8536E-03     19.8390E-03    -15.8352E-03     31.4119E-03    -15.7552E-03     19.8358E-03
             393     6.20155E-03     62.3426E-03    -10.4897E+06    -67.9427E+06    -2.21494E+06     37.2905E+03    -15.9165E-03     31.7706E-03    -15.8541E-03     23.5554E-03    -15.8686E-03     31.4506E-03    -15.7514E-03     23.5515E-03
             394     7.08749E-03     62.3663E-03    -9.27050E+06    -66.9424E+06    -694.130E+03     107.234E+03    -15.9598E-03     31.8143E-03    -15.8545E-03     27.4258E-03    -15.9101E-03     31.4960E-03    -15.7475E-03     27.4216E-03
             395     7.97349E-03     62.3935E-03    -8.23459E+06    -64.8311E+06     314.043E+03     117.174E+03    -16.0079E-03     31.8586E-03    -15.8507E-03     31.4439E-03    -15.9585E-03     31.5489E-03    -15.7432E-03     31.4381E-03
             396     8.85943E-03     62.4246E-03    -7.31183E+06    -62.0452E+06     1.04441E+06     117.079E+03    -16.0543E-03     31.8981E-03    -15.8438E-03     35.5358E-03    -16.0069E-03     31.6014E-03    -15.7380E-03     35.5278E-03
             397     9.74552E-03     62.4594E-03    -6.61626E+06    -61.1458E+06     914.156E+03     147.747E+03    -16.1215E-03     31.9564E-03    -15.8350E-03     39.6704E-03    -16.0742E-03     31.6659E-03    -15.7321E-03     39.6598E-03
             398     10.6315E-03     62.4982E-03    -6.00597E+06    -55.8722E+06    -1.85743E+06     186.701E+03    -16.1796E-03     31.9856E-03    -15.8061E-03     43.8122E-03    -16.1366E-03     31.7284E-03    -15.7256E-03     43.7981E-03
             399     11.5175E-03     62.5408E-03    -5.45847E+06    -43.6557E+06     317.041E+03     237.765E+03    -16.1825E-03     31.9714E-03    -15.7889E-03     48.2699E-03    -16.1638E-03     31.7774E-03    -15.7161E-03     48.2513E-03
             400     12.4037E-03     62.5876E-03    -5.14750E+06    -36.8578E+06     443.127E+03     234.923E+03    -16.3076E-03     32.0745E-03    -15.7670E-03     54.9193E-03    -16.3090E-03     31.9256E-03    -15.7039E-03     54.8938E-03
             401     13.2899E-03     62.6426E-03    -5.12062E+06    -34.4761E+06    -8.32327E+06     179.255E+03    -16.4074E-03     32.1163E-03    -15.7089E-03     57.5909E-03    -16.4158E-03     32.0083E-03    -15.6931E-03     57.5570E-03
             402     14.1760E-03     62.6944E-03    -5.30585E+06    -11.6231E+06    -8.51685E+06     378.173E+03    -16.3689E-03     32.0323E-03    -15.6634E-03     61.6821E-03    -16.4398E-03     32.0678E-03    -15.6814E-03     61.6469E-03
             403     15.0617E-03     62.7569E-03    -4.82193E+06     32.9164E+06    -9.01929E+06     703.619E+03    -16.9552E-03     32.5254E-03    -15.5702E-03     89.5611E-03    -17.2348E-03     32.9309E-03    -15.6560E-03     89.5481E-03
             404     15.9501E-03     62.8605E-03    -4.50679E+06     95.4399E+06    -5.35395E+06     883.919E+03    -19.4667E-03     34.9269E-03    -15.4602E-03     146.837E-03    -20.8775E-03     36.6760E-03    -15.6188E-03     147.240E-03
             405     16.8360E-03     63.0309E-03    -3.97949E+06     155.242E+06     53.0020E+06     334.122E+03    -21.8118E-03     37.4513E-03    -15.6395E-03     189.560E-03    -24.9291E-03     40.9519E-03    -15.5938E-03     191.702E-03
             406     885.945E-06     63.2485E-03    -18.1009E+06    -74.2486E+06    -17.5635E+06    -32.5520E+03    -15.8139E-03     31.6215E-03    -15.8076E-03     3.48103E-03    -15.7713E-03     31.3021E-03    -15.7615E-03     3.48007E-03
             407     1.77183E-03     63.2530E-03    -17.3447E+06    -73.4751E+06    -15.3561E+06    -37.6465E+03    -15.8126E-03     31.6310E-03    -15.8184E-03     6.43753E-03    -15.7706E-03     31.3112E-03    -15.7635E-03     6.43605E-03
             408     2.65779E-03     63.2604E-03    -16.1825E+06    -72.3856E+06    -12.3508E+06    -40.6154E+03    -15.8174E-03     31.6450E-03    -15.8275E-03     9.60161E-03    -15.7757E-03     31.3246E-03    -15.7609E-03     9.59958E-03
             409     3.54371E-03     63.2708E-03    -14.8075E+06    -71.0734E+06    -9.11977E+06    -63.4806E+03    -15.8284E-03     31.6647E-03    -15.8364E-03     12.8815E-03    -15.7865E-03     31.3444E-03    -15.7574E-03     12.8786E-03
             410     4.42967E-03     63.2843E-03    -13.3715E+06    -70.2039E+06    -6.22884E+06    -60.8283E+03    -15.8485E-03     31.6924E-03    -15.8439E-03     16.2863E-03    -15.8051E-03     31.3704E-03    -15.7538E-03     16.2828E-03
             411     5.31561E-03     63.3010E-03    -11.9528E+06    -69.2469E+06    -4.00086E+06    -35.5893E+03    -15.8771E-03     31.7251E-03    -15.8480E-03     19.8425E-03    -15.8315E-03     31.4029E-03    -15.7503E-03     19.8385E-03
             412     6.20156E-03     63.3211E-03    -10.6424E+06    -67.9274E+06    -2.35298E+06    -97.0445E+03    -15.9111E-03     31.7599E-03    -15.8488E-03     23.5582E-03    -15.8637E-03     31.4404E-03    -15.7466E-03     23.5525E-03
             413     7.08755E-03     63.3447E-03    -9.36859E+06    -67.1395E+06    -872.214E+03    -28.5684E+03    -15.9531E-03     31.8022E-03    -15.8491E-03     27.4305E-03    -15.9033E-03     31.4833E-03    -15.7425E-03     27.4245E-03
             414     7.97350E-03     63.3720E-03    -8.25695E+06    -64.8411E+06     219.215E+03     93.0021E+03    -15.9966E-03     31.8414E-03    -15.8449E-03     31.4429E-03    -15.9471E-03     31.5319E-03    -15.7378E-03     31.4369E-03
             415     8.85955E-03     63.4030E-03    -7.30475E+06    -62.0966E+06     1.05980E+06     56.8009E+03    -16.0484E-03     31.8866E-03    -15.8382E-03     35.5145E-03    -16.0009E-03     31.5897E-03    -15.7323E-03     35.5057E-03
             416     9.74550E-03     63.4378E-03    -6.46378E+06    -61.1741E+06     984.841E+03     110.619E+03    -16.1108E-03     31.9400E-03    -15.8292E-03     39.6532E-03    -16.0628E-03     31.6490E-03    -15.7262E-03     39.6421E-03
             417     10.6315E-03     63.4766E-03    -5.96973E+06    -55.9900E+06    -1.83078E+06     150.199E+03    -16.1566E-03     31.9561E-03    -15.7995E-03     43.7823E-03    -16.1133E-03     31.6982E-03    -15.7188E-03     43.7676E-03
             418     11.5177E-03     63.5190E-03    -5.67669E+06    -43.8117E+06     244.146E+03     123.114E+03    -16.1951E-03     31.9776E-03    -15.7825E-03     48.1928E-03    -16.1772E-03     31.7833E-03    -15.7095E-03     48.1727E-03
             419     12.4038E-03     63.5660E-03    -5.11366E+06    -36.7239E+06     611.000E+03     268.769E+03    -16.3171E-03     32.0796E-03    -15.7625E-03     54.7639E-03    -16.3189E-03     31.9311E-03    -15.6988E-03     54.7387E-03
             420     13.2899E-03     63.6207E-03    -5.07315E+06    -34.4246E+06    -8.08580E+06     259.428E+03    -16.3454E-03     32.0492E-03    -15.7038E-03     57.5004E-03    -16.3539E-03     31.9409E-03    -15.6869E-03     57.4677E-03
             421     14.1759E-03     63.6728E-03    -5.31753E+06    -12.1149E+06    -8.66623E+06     236.577E+03    -16.2762E-03     31.9292E-03    -15.6530E-03     61.5519E-03    -16.3458E-03     31.9620E-03    -15.6711E-03     61.5154E-03
             422     15.0630E-03     63.7347E-03    -5.41867E+06     32.8145E+06    -9.63812E+06     466.525E+03    -17.2666E-03     32.8321E-03    -15.5655E-03     88.9127E-03    -17.5485E-03     33.2392E-03    -15.6534E-03     88.8941E-03
             423     15.9484E-03     63.8377E-03    -5.89621E+06     95.2234E+06    -6.24464E+06     464.350E+03    -19.6028E-03     35.0749E-03    -15.4721E-03     145.459E-03    -21.0097E-03     36.8170E-03    -15.6329E-03     145.856E-03
             424     16.8355E-03     64.0095E-03    -4.32599E+06     155.303E+06     52.8645E+06     413.700E+03    -21.5224E-03     37.1747E-03    -15.6523E-03     189.334E-03    -24.6486E-03     40.6836E-03    -15.6069E-03     191.491E-03
             425     885.908E-06     64.2268E-03    -18.2160E+06    -74.1455E+06    -17.6587E+06    -22.1475E+03    -15.8150E-03     31.6061E-03    -15.7911E-03     3.47918E-03    -15.7730E-03     31.2875E-03    -15.7455E-03     3.47836E-03
             426     1.77187E-03     64.2314E-03    -17.4062E+06    -73.4210E+06    -15.4617E+06    -32.6007E+03    -15.8082E-03     31.6195E-03    -15.8114E-03     6.43796E-03    -15.7664E-03     31.3002E-03    -15.7570E-03     6.43655E-03
             427     2.65778E-03     64.2388E-03    -16.2450E+06    -72.3035E+06    -12.4331E+06    -82.4075E+03    -15.8118E-03     31.6330E-03    -15.8212E-03     9.60591E-03    -15.7703E-03     31.3132E-03    -15.7550E-03     9.60334E-03
             428     3.54375E-03     64.2492E-03    -14.8497E+06    -71.0297E+06    -9.18814E+06    -92.4121E+03    -15.8229E-03     31.6531E-03    -15.8303E-03     12.8872E-03    -15.7811E-03     31.3332E-03    -15.7517E-03     12.8839E-03
             429     4.42968E-03     64.2627E-03    -13.4003E+06    -70.1661E+06    -6.25343E+06    -77.2604E+03    -15.8432E-03     31.6812E-03    -15.8381E-03     16.2909E-03    -15.7999E-03     31.3595E-03    -15.7482E-03     16.2872E-03
             430     5.31564E-03     64.2794E-03    -11.9873E+06    -69.2055E+06    -4.07896E+06    -111.772E+03    -15.8698E-03     31.7117E-03    -15.8419E-03     19.8471E-03    -15.8244E-03     31.3898E-03    -15.7445E-03     19.8422E-03
             431     6.20161E-03     64.2995E-03    -10.6931E+06    -67.8331E+06    -2.42649E+06    -136.440E+03    -15.9037E-03     31.7461E-03    -15.8424E-03     23.5621E-03    -15.8566E-03     31.4273E-03    -15.7406E-03     23.5559E-03
             432     7.08757E-03     64.3231E-03    -9.55937E+06    -67.2391E+06    -985.287E+03    -171.152E+03    -15.9454E-03     31.7882E-03    -15.8429E-03     27.4283E-03    -15.8962E-03     31.4693E-03    -15.7364E-03     27.4204E-03
             433     7.97359E-03     64.3503E-03    -8.44133E+06    -64.9692E+06    -1.31089E+03    -50.2806E+03    -15.9907E-03     31.8288E-03    -15.8381E-03     31.4335E-03    -15.9416E-03     31.5191E-03    -15.7317E-03     31.4256E-03
             434     8.85954E-03     64.3814E-03    -7.47009E+06    -62.0493E+06     894.086E+03     12.5252E+03    -16.0447E-03     31.8764E-03    -15.8317E-03     35.5137E-03    -15.9979E-03     31.5802E-03    -15.7264E-03     35.5043E-03
             435     9.74558E-03     64.4162E-03    -6.66437E+06    -61.3982E+06     732.353E+03     20.9050E+03    -16.0970E-03     31.9195E-03    -15.8225E-03     39.6134E-03    -16.0493E-03     31.6281E-03    -15.7202E-03     39.6012E-03
             436     10.6317E-03     64.4548E-03    -6.13284E+06    -55.9753E+06    -2.05938E+06     145.277E+03    -16.1677E-03     31.9607E-03    -15.7930E-03     43.7248E-03    -16.1250E-03     31.7034E-03    -15.7132E-03     43.7100E-03
             437     11.5176E-03     64.4974E-03    -5.73446E+06    -43.7265E+06     147.683E+03     162.820E+03    -16.2096E-03     31.9875E-03    -15.7779E-03     48.1488E-03    -16.1920E-03     31.7939E-03    -15.7055E-03     48.1291E-03
             438     12.4037E-03     64.5443E-03    -5.40432E+06    -37.2025E+06     104.954E+03     185.625E+03    -16.3199E-03     32.0779E-03    -15.7580E-03     54.7819E-03    -16.3217E-03     31.9281E-03    -15.6957E-03     54.7557E-03
             439     13.2899E-03     64.5989E-03    -5.14982E+06    -34.3912E+06    -8.29411E+06     380.483E+03    -16.3101E-03     32.0091E-03    -15.6989E-03     57.3883E-03    -16.3185E-03     31.9012E-03    -15.6831E-03     57.3573E-03
             440     14.1764E-03     64.6508E-03    -5.73453E+06    -12.0409E+06    -8.93160E+06     285.421E+03    -16.4061E-03     32.0578E-03    -15.6518E-03     61.2692E-03    -16.4774E-03     32.0919E-03    -15.6707E-03     61.2328E-03
             441     15.0621E-03     64.7127E-03    -6.15665E+06     32.4932E+06    -10.1722E+06     200.000E+03    -17.5357E-03     33.1112E-03    -15.5755E-03     89.1743E-03    -17.8221E-03     33.5206E-03    -15.6646E-03     89.1509E-03
             442     15.9474E-03     64.8179E-03    -5.54150E+06     95.1569E+06    -6.79463E+06     569.539E+03    -19.8696E-03     35.3629E-03    -15.4933E-03     145.895E-03    -21.2782E-03     37.1093E-03    -15.6572E-03     146.289E-03
             443     16.8343E-03     64.9842E-03    -3.89313E+06     155.517E+06     52.3976E+06     519.025E+03    -21.4256E-03     37.0995E-03    -15.6740E-03     190.364E-03    -24.5760E-03     40.6363E-03    -15.6318E-03     192.546E-03
             444     885.961E-06     65.2053E-03    -18.2485E+06    -74.0925E+06    -17.7188E+06    -18.5912E+03    -15.7965E-03     31.5926E-03    -15.7961E-03     3.49393E-03    -15.7547E-03     31.2743E-03    -15.7507E-03     3.49315E-03
             445     1.77185E-03     65.2098E-03    -17.4447E+06    -73.3236E+06    -15.4899E+06    -81.2864E+03    -15.8005E-03     31.6049E-03    -15.8044E-03     6.43874E-03    -15.7591E-03     31.2862E-03    -15.7503E-03     6.43670E-03
             446     2.65783E-03     65.2172E-03    -16.2666E+06    -72.1798E+06    -12.4647E+06    -111.805E+03    -15.8056E-03     31.6197E-03    -15.8142E-03     9.61012E-03    -15.7644E-03     31.3007E-03    -15.7482E-03     9.60716E-03
             447     3.54375E-03     65.2276E-03    -14.9041E+06    -70.9905E+06    -9.23948E+06    -134.732E+03    -15.8166E-03     31.6401E-03    -15.8235E-03     12.8903E-03    -15.7751E-03     31.3205E-03    -15.7451E-03     12.8865E-03
             448     4.42972E-03     65.2411E-03    -13.4236E+06    -70.1424E+06    -6.33031E+06    -116.071E+03    -15.8350E-03     31.6660E-03    -15.8311E-03     16.2961E-03    -15.7917E-03     31.3445E-03    -15.7415E-03     16.2919E-03
             449     5.31568E-03     65.2578E-03    -11.9981E+06    -69.0722E+06    -4.11415E+06    -154.123E+03    -15.8616E-03     31.6962E-03    -15.8346E-03     19.8503E-03    -15.8163E-03     31.3751E-03    -15.7376E-03     19.8448E-03
             450     6.20165E-03     65.2779E-03    -10.6944E+06    -67.8180E+06    -2.50386E+06    -196.097E+03    -15.8955E-03     31.7304E-03    -15.8349E-03     23.5654E-03    -15.8483E-03     31.4117E-03    -15.7336E-03     23.5585E-03
             451     7.08764E-03     65.3015E-03     -9.5359E+06    -67.1592E+06    -1.01467E+06    -171.553E+03    -15.9407E-03     31.7763E-03    -15.8355E-03     27.4263E-03    -15.8915E-03     31.4578E-03    -15.7294E-03     27.4184E-03
             452     7.97360E-03     65.3287E-03    -8.56148E+06    -65.1109E+06    -172.871E+03    -167.561E+03    -15.9861E-03     31.8170E-03    -15.8309E-03     31.4317E-03    -15.9372E-03     31.5071E-03    -15.7249E-03     31.4222E-03
             453     8.85964E-03     65.3598E-03    -7.65153E+06    -62.0991E+06     621.607E+03    -52.1523E+03    -16.0297E-03     31.8533E-03    -15.8236E-03     35.5121E-03    -15.9833E-03     31.5575E-03    -15.7194E-03     35.5020E-03
             454     9.74566E-03     65.3946E-03    -6.81833E+06     -61.345E+06     594.890E+03    -55.6560E+03    -16.1142E-03     31.9299E-03    -15.8157E-03     39.6000E-03    -16.0671E-03     31.6392E-03    -15.7139E-03     39.5867E-03
             455     10.6316E-03     65.4332E-03    -6.23672E+06    -56.1631E+06    -2.43698E+06     52.9027E+03    -16.1775E-03     31.9645E-03    -15.7870E-03     43.7265E-03    -16.1345E-03     31.7070E-03    -15.7087E-03     43.7105E-03
             456     11.5177E-03     65.4758E-03    -5.72365E+06    -43.9412E+06    -218.272E+03     191.936E+03    -16.1869E-03     31.9586E-03    -15.7717E-03     48.1429E-03    -16.1684E-03     31.7644E-03    -15.7008E-03     48.1237E-03
             457     12.4040E-03     65.5224E-03    -5.31224E+06    -37.2642E+06    -18.8672E+03     258.210E+03    -16.3165E-03     32.0685E-03    -15.7520E-03     54.7422E-03    -16.3175E-03     31.9184E-03    -15.6903E-03     54.7169E-03
             458     13.2900E-03     65.5774E-03    -5.54037E+06    -34.9338E+06    -8.89242E+06     248.192E+03    -16.4343E-03     32.1307E-03    -15.6964E-03     57.2453E-03    -16.4431E-03     32.0216E-03    -15.6821E-03     57.2123E-03
             459     14.1759E-03     65.6286E-03    -5.43357E+06    -11.7657E+06    -8.94064E+06     487.472E+03    -16.4824E-03     32.1386E-03    -15.6562E-03     61.5373E-03    -16.5531E-03     32.1742E-03    -15.6759E-03     61.5032E-03
             460     15.0617E-03     65.6923E-03    -5.60852E+06     32.8395E+06    -9.99278E+06     208.723E+03    -17.3128E-03     32.8881E-03    -15.5753E-03     89.5664E-03    -17.5966E-03     33.2976E-03    -15.6647E-03     89.5451E-03
             461     15.9497E-03     65.7942E-03    -6.10928E+06     94.5450E+06    -6.90968E+06     25.0313E+03    -19.9994E-03     35.4906E-03    -15.4912E-03     145.983E-03    -21.4164E-03     37.2416E-03    -15.6540E-03     146.362E-03
             462     16.8346E-03     65.9660E-03    -4.19689E+06     155.780E+06     52.7116E+06     452.726E+03    -21.5269E-03     37.2072E-03    -15.6803E-03     189.650E-03    -24.6653E-03     40.7308E-03    -15.6365E-03     191.819E-03
             463     885.912E-06     66.1836E-03    -18.2660E+06    -74.0052E+06    -17.7256E+06    -57.4678E+03    -15.7836E-03     31.5778E-03    -15.7942E-03     3.51845E-03    -15.7419E-03     31.2600E-03    -15.7490E-03     3.51717E-03
             464     1.77190E-03     66.1882E-03    -17.5030E+06    -73.1733E+06    -15.5555E+06    -118.453E+03    -15.7938E-03     31.5907E-03    -15.7969E-03     6.43940E-03    -15.7527E-03     31.2728E-03    -15.7432E-03     6.43687E-03
             465     2.65781E-03     66.1956E-03    -16.3592E+06    -72.0675E+06    -12.5637E+06    -177.194E+03    -15.7972E-03     31.6038E-03    -15.8066E-03     9.61250E-03    -15.7565E-03     31.2856E-03    -15.7412E-03     9.60870E-03
             466     3.54380E-03     66.2060E-03    -14.9586E+06    -70.9386E+06    -9.33413E+06    -171.214E+03    -15.8070E-03     31.6226E-03    -15.8156E-03     12.8946E-03    -15.7657E-03     31.3034E-03    -15.7377E-03     12.8903E-03
             467     4.42974E-03     66.2195E-03    -13.5080E+06    -70.0902E+06    -6.45831E+06    -192.588E+03    -15.8250E-03     31.6476E-03    -15.8226E-03     16.3011E-03    -15.7821E-03     31.3267E-03    -15.7337E-03     16.2959E-03
             468     5.31573E-03     66.2362E-03    -12.0743E+06    -68.9679E+06    -4.29694E+06    -213.179E+03    -15.8519E-03     31.6774E-03    -15.8255E-03     19.8568E-03    -15.8069E-03     31.3572E-03    -15.7295E-03     19.8506E-03
             469     6.20170E-03     66.2563E-03    -10.7915E+06    -67.7236E+06    -2.63649E+06    -251.202E+03    -15.8876E-03     31.7136E-03    -15.8260E-03     23.5689E-03    -15.8408E-03     31.3958E-03    -15.7254E-03     23.5612E-03
             470     7.08769E-03     66.2799E-03    -9.57622E+06    -67.1785E+06    -1.15572E+06    -266.986E+03    -15.9321E-03     31.7588E-03    -15.8267E-03     27.4342E-03    -15.8829E-03     31.4405E-03    -15.7212E-03     27.4251E-03
             471     7.97369E-03     66.3071E-03    -8.44910E+06    -65.1023E+06    -189.382E+03    -203.176E+03    -15.9769E-03     31.7992E-03    -15.8223E-03     31.4311E-03    -15.9274E-03     31.4892E-03    -15.7166E-03     31.4212E-03
             472     8.85969E-03     66.3381E-03    -7.55719E+06    -62.2486E+06     559.951E+03    -105.254E+03    -16.0314E-03     31.8469E-03    -15.8155E-03     35.5058E-03    -15.9843E-03     31.5503E-03    -15.7115E-03     35.4949E-03
             473     9.74573E-03     66.3729E-03    -6.83582E+06    -61.1859E+06     569.267E+03    -76.4502E+03    -16.1076E-03     31.9155E-03    -15.8079E-03     39.6367E-03    -16.0609E-03     31.6256E-03    -15.7064E-03     39.6232E-03
             474     10.6317E-03     66.4116E-03    -6.28147E+06    -56.4120E+06    -2.43739E+06    -96.7501E+03    -16.1669E-03     31.9467E-03    -15.7798E-03     43.7206E-03    -16.1237E-03     31.6880E-03    -15.7011E-03     43.7027E-03
             475     11.5179E-03     66.4538E-03    -5.79152E+06    -43.9886E+06    -186.987E+03     102.733E+03    -16.2159E-03     31.9816E-03    -15.7657E-03     48.1437E-03    -16.1977E-03     31.7872E-03    -15.6944E-03     48.1232E-03
             476     12.4038E-03     66.5010E-03    -5.18104E+06    -37.2617E+06     165.121E+03     116.159E+03    -16.3539E-03     32.1032E-03    -15.7493E-03     54.6630E-03    -16.3545E-03     31.9527E-03    -15.6869E-03     54.6358E-03
             477     13.2900E-03     66.5553E-03    -4.89211E+06    -35.3363E+06    -8.81790E+06     162.675E+03    -16.4374E-03     32.1318E-03    -15.6944E-03     57.4385E-03    -16.4427E-03     32.0199E-03    -15.6801E-03     57.4042E-03
             478     14.1758E-03     66.6078E-03    -4.94593E+06    -11.7689E+06    -8.75399E+06     258.290E+03    -16.4007E-03     32.0525E-03    -15.6518E-03     61.5766E-03    -16.4692E-03     32.0870E-03    -15.6713E-03     61.5399E-03
             479     15.0631E-03     66.6690E-03    -5.15971E+06     33.0254E+06    -9.52656E+06     477.828E+03    -17.3762E-03     32.9478E-03    -15.5716E-03     89.4705E-03    -17.6590E-03     33.3571E-03    -15.6596E-03     89.4514E-03
             480     15.9471E-03     66.7745E-03    -6.04767E+06     94.6148E+06    -6.72185E+06     381.327E+03    -19.8923E-03     35.3774E-03    -15.4851E-03     146.475E-03    -21.3142E-03     37.1332E-03    -15.6471E-03     146.871E-03
             481     16.8341E-03     66.9427E-03    -4.67242E+06     155.675E+06     52.4540E+06     105.605E+03    -21.4448E-03     37.1124E-03    -15.6675E-03     189.635E-03    -24.5807E-03     40.6321E-03    -15.6242E-03     191.801E-03
             482     885.985E-06     67.1621E-03    -18.3418E+06    -73.8368E+06    -17.8262E+06    -65.1987E+03    -15.7797E-03     31.5647E-03    -15.7849E-03     3.52311E-03    -15.7386E-03     31.2480E-03    -15.7404E-03     3.52172E-03
             483     1.77187E-03     67.1666E-03    -17.5680E+06    -73.0058E+06    -15.6513E+06    -165.551E+03    -15.7831E-03     31.5725E-03    -15.7894E-03     6.43921E-03    -15.7425E-03     31.2557E-03    -15.7364E-03     6.43608E-03
             484     2.65787E-03     67.1740E-03    -16.4261E+06    -71.9164E+06    -12.6428E+06    -208.505E+03    -15.7860E-03     31.5839E-03    -15.7979E-03     9.61814E-03    -15.7457E-03     31.2667E-03    -15.7331E-03     9.61394E-03
             485     3.54380E-03     67.1844E-03    -15.0358E+06    -70.8438E+06    -9.44435E+06    -280.576E+03    -15.7955E-03     31.6017E-03    -15.8062E-03     12.9004E-03    -15.7546E-03     31.2833E-03    -15.7288E-03     12.8947E-03
             486     4.42980E-03     67.1979E-03    -13.4952E+06    -70.0013E+06    -6.56869E+06    -301.199E+03    -15.8145E-03     31.6271E-03    -15.8126E-03     16.3078E-03    -15.7715E-03     31.3068E-03    -15.7244E-03     16.3012E-03
             487     5.31576E-03     67.2146E-03    -12.0693E+06    -68.9144E+06    -4.39818E+06    -307.014E+03    -15.8418E-03     31.6573E-03    -15.8155E-03     19.8632E-03    -15.7967E-03     31.3374E-03    -15.7200E-03     19.8558E-03
             488     6.20177E-03     67.2347E-03    -10.7576E+06    -67.6109E+06    -2.74579E+06    -311.364E+03    -15.8772E-03     31.6928E-03    -15.8156E-03     23.5779E-03    -15.8303E-03     31.3757E-03    -15.7157E-03     23.5695E-03
             489     7.08775E-03     67.2582E-03    -9.64421E+06    -67.1289E+06    -1.26470E+06    -337.987E+03    -15.9199E-03     31.7363E-03    -15.8164E-03     27.4386E-03    -15.8710E-03     31.4185E-03    -15.7114E-03     27.4286E-03
             490     7.97376E-03     67.2855E-03    -8.65601E+06    -65.1785E+06    -348.223E+03    -292.005E+03    -15.9700E-03     31.7821E-03    -15.8122E-03     31.4322E-03    -15.9212E-03     31.4723E-03    -15.7069E-03     31.4211E-03
             491     8.85979E-03     67.3165E-03    -7.63560E+06    -62.2979E+06     524.721E+03    -208.245E+03    -16.0304E-03     31.8368E-03    -15.8063E-03     35.5224E-03    -15.9836E-03     31.5401E-03    -15.7023E-03     35.5102E-03
             492     9.74577E-03     67.3513E-03    -6.71347E+06    -61.2255E+06     595.639E+03    -150.828E+03    -16.0860E-03     31.8846E-03    -15.7986E-03     39.6262E-03    -16.0386E-03     31.5943E-03    -15.6971E-03     39.6118E-03
             493     10.6319E-03     67.3899E-03    -6.21912E+06    -56.4460E+06    -2.29292E+06    -112.611E+03    -16.1639E-03     31.9347E-03    -15.7709E-03     43.7140E-03    -16.1206E-03     31.6756E-03    -15.6915E-03     43.6959E-03
             494     11.5178E-03     67.4323E-03    -5.76201E+06    -44.1904E+06    -217.883E+03    -28.8437E+03    -16.2208E-03     31.9777E-03    -15.7569E-03     48.2080E-03    -16.2022E-03     31.7823E-03    -15.6855E-03     48.1858E-03
             495     12.4041E-03     67.4792E-03    -5.32580E+06    -37.3315E+06    -62.0727E+03     51.6679E+03    -16.3460E-03     32.0859E-03    -15.7399E-03     54.8104E-03    -16.3471E-03     31.9357E-03    -15.6784E-03     54.7824E-03
             496     13.2899E-03     67.5338E-03    -5.16373E+06    -34.9503E+06    -8.76894E+06    -40.4144E+03    -16.4118E-03     32.0971E-03    -15.6852E-03     57.5225E-03    -16.4191E-03     31.9874E-03    -15.6709E-03     57.4857E-03
             497     14.1766E-03     67.5855E-03    -5.01063E+06    -11.9583E+06    -8.75607E+06    -111.821E+03    -16.4810E-03     32.1262E-03    -15.6452E-03     61.4689E-03    -16.5496E-03     32.1600E-03    -15.6644E-03     61.4270E-03
             498     15.0613E-03     67.6481E-03    -5.01957E+06     31.8105E+06    -9.83275E+06     572.458E+03    -17.2153E-03     32.7779E-03    -15.5626E-03     89.6832E-03    -17.4961E-03     33.1823E-03    -15.6506E-03     89.6671E-03
             499     15.9498E-03     67.7522E-03    -4.52223E+06     94.8330E+06    -6.45930E+06     1.19757E+06    -19.4834E-03     34.9412E-03    -15.4578E-03     147.070E-03    -20.8940E-03     36.6911E-03    -15.6210E-03     147.482E-03
             500     16.8365E-03     67.9216E-03    -3.58360E+06     156.595E+06     53.0119E+06     339.828E+03    -21.7774E-03     37.4150E-03    -15.6376E-03     190.006E-03    -24.9111E-03     40.9382E-03    -15.5944E-03     192.163E-03
             501     885.904E-06     68.1404E-03    -18.5205E+06    -73.6285E+06    -18.0152E+06    -107.364E+03    -15.7664E-03     31.5492E-03    -15.7828E-03     3.50691E-03    -15.7262E-03     31.2341E-03    -15.7393E-03     3.50498E-03
             502     1.77193E-03     68.1450E-03    -17.7561E+06    -72.7991E+06    -15.8263E+06    -193.032E+03    -15.7665E-03     31.5464E-03    -15.7800E-03     6.44817E-03    -15.7268E-03     31.2312E-03    -15.7278E-03     6.44469E-03
             503     2.65786E-03     68.1523E-03    -16.5803E+06    -71.7725E+06    -12.8185E+06    -262.709E+03    -15.7740E-03     31.5606E-03    -15.7866E-03     9.62334E-03    -15.7344E-03     31.2445E-03    -15.7226E-03     9.61844E-03
             504     3.54387E-03     68.1628E-03    -15.1759E+06    -70.5915E+06    -9.59812E+06    -358.642E+03    -15.7837E-03     31.5783E-03    -15.7946E-03     12.9067E-03    -15.7436E-03     31.2616E-03    -15.7182E-03     12.9000E-03
             505     4.42983E-03     68.1762E-03    -13.6717E+06    -69.8795E+06    -6.74459E+06    -493.652E+03    -15.8028E-03     31.6039E-03    -15.8011E-03     16.3147E-03    -15.7606E-03     31.2846E-03    -15.7137E-03     16.3056E-03
             506     5.31584E-03     68.1930E-03    -12.1267E+06    -68.8765E+06    -4.56464E+06    -461.920E+03    -15.8302E-03     31.6340E-03    -15.8038E-03     19.8706E-03    -15.7852E-03     31.3147E-03    -15.7092E-03     19.8612E-03
             507     6.20182E-03     68.2130E-03    -10.7430E+06    -67.4958E+06    -2.81962E+06    -475.642E+03    -15.8642E-03     31.6683E-03    -15.8041E-03     23.5838E-03    -15.8173E-03     31.3518E-03    -15.7047E-03     23.5733E-03
             508     7.08785E-03     68.2366E-03    -9.49815E+06    -67.1957E+06    -1.14952E+06    -360.760E+03    -15.9118E-03     31.7177E-03    -15.8058E-03     27.4375E-03    -15.8622E-03     31.3991E-03    -15.7004E-03     27.4272E-03
             509     7.97385E-03     68.2638E-03    -8.52032E+06    -65.1834E+06    -210.448E+03    -250.752E+03    -15.9675E-03     31.7697E-03    -15.8022E-03     31.4358E-03    -15.9183E-03     31.4594E-03    -15.6964E-03     31.4253E-03
             510     8.85985E-03     68.2948E-03    -7.64201E+06    -62.1564E+06     441.759E+03    -411.555E+03    -16.0152E-03     31.8106E-03    -15.7954E-03     35.5130E-03    -15.9684E-03     31.5148E-03    -15.6920E-03     35.4982E-03
             511     9.74595E-03     68.3296E-03    -6.71963E+06    -61.4813E+06     398.007E+03    -325.002E+03    -16.0830E-03     31.8708E-03    -15.7878E-03     39.6092E-03    -16.0350E-03     31.5795E-03    -15.6869E-03     39.5925E-03
             512     10.6319E-03     68.3682E-03    -6.01123E+06    -56.4525E+06    -2.35351E+06    -158.862E+03    -16.1517E-03     31.9119E-03    -15.7603E-03     43.7288E-03    -16.1073E-03     31.6526E-03    -15.6815E-03     43.7101E-03
             513     11.5181E-03     68.4106E-03    -5.70453E+06    -44.5291E+06    -504.976E+03    -122.561E+03    -16.1744E-03     31.9187E-03    -15.7443E-03     48.1815E-03    -16.1545E-03     31.7220E-03    -15.6740E-03     48.1583E-03
             514     12.4041E-03     68.4574E-03    -5.23943E+06     -37.405E+06    -262.245E+03     24.1581E+03    -16.3538E-03     32.0805E-03    -15.7267E-03     54.7702E-03    -16.3540E-03     31.9301E-03    -15.6662E-03     54.7418E-03
             515     13.2905E-03     68.5120E-03    -5.09965E+06    -34.3046E+06    -8.54711E+06     53.2578E+03    -16.5000E-03     32.1772E-03    -15.6772E-03     57.4026E-03    -16.5084E-03     32.0705E-03    -15.6628E-03     57.3668E-03
             516     14.1757E-03     68.5641E-03    -5.92378E+06    -12.2990E+06    -9.35687E+06    -44.0352E+03    -16.4387E-03     32.0769E-03    -15.6382E-03     61.4703E-03    -16.5105E-03     32.1112E-03    -15.6586E-03     61.4295E-03
             517     15.0634E-03     68.6261E-03    -5.65374E+06     31.3163E+06    -10.6995E+06    -78.0628E+03    -17.3438E-03     32.9020E-03    -15.5582E-03     88.9554E-03    -17.6250E-03     33.3053E-03    -15.6489E-03     88.9300E-03
             518     15.9489E-03     68.7290E-03    -5.49601E+06     94.0546E+06    -7.16984E+06     206.792E+03    -19.6584E-03     35.1273E-03    -15.4689E-03     145.036E-03    -21.0598E-03     36.8639E-03    -15.6332E-03     145.426E-03
             519     16.8353E-03     68.9004E-03    -3.97057E+06     156.765E+06     53.0403E+06     703.095E+03    -21.5567E-03     37.2111E-03    -15.6544E-03     189.297E-03    -24.6926E-03     40.7356E-03    -15.6108E-03     191.462E-03
             520     885.992E-06     69.1188E-03    -18.8107E+06    -73.3836E+06    -18.2899E+06    -154.632E+03    -15.7522E-03     31.5218E-03    -15.7696E-03     3.48311E-03    -15.7133E-03     31.2087E-03    -15.7273E-03     3.48058E-03
             521     1.77191E-03     69.1233E-03    -18.0252E+06    -72.5580E+06    -16.1032E+06    -242.200E+03    -15.7530E-03     31.5193E-03    -15.7663E-03     6.45686E-03    -15.7147E-03     31.2061E-03    -15.7155E-03     6.45273E-03
             522     2.65793E-03     69.1307E-03    -16.8399E+06    -71.5452E+06    -13.0746E+06    -368.572E+03    -15.7605E-03     31.5336E-03    -15.7731E-03     9.62640E-03    -15.7222E-03     31.2195E-03    -15.7103E-03     9.62013E-03
             523     3.54388E-03     69.1411E-03    -15.3976E+06    -70.3608E+06    -9.85543E+06    -462.209E+03    -15.7706E-03     31.5516E-03    -15.7810E-03     12.9119E-03    -15.7316E-03     31.2368E-03    -15.7060E-03     12.9038E-03
             524     4.42990E-03     69.1546E-03    -13.9274E+06    -69.5647E+06    -6.92549E+06    -581.575E+03    -15.7896E-03     31.5775E-03    -15.7879E-03     16.3207E-03    -15.7489E-03     31.2605E-03    -15.7015E-03     16.3105E-03
             525     5.31588E-03     69.1712E-03    -12.4992E+06    -68.8319E+06    -4.83729E+06    -702.601E+03    -15.8165E-03     31.6073E-03    -15.7908E-03     19.8770E-03    -15.7731E-03     31.2892E-03    -15.6971E-03     19.8645E-03
             526     6.20192E-03     69.1914E-03    -11.1547E+06    -67.4124E+06    -3.20761E+06    -612.469E+03    -15.8522E-03     31.6428E-03    -15.7906E-03     23.5888E-03    -15.8069E-03     31.3279E-03    -15.6927E-03     23.5765E-03
             527     7.08791E-03     69.2149E-03    -9.93075E+06    -67.2814E+06    -1.53326E+06    -567.172E+03    -15.9031E-03     31.6962E-03    -15.7930E-03     27.4450E-03    -15.8550E-03     31.3784E-03    -15.6887E-03     27.4320E-03
             528     7.97394E-03     69.2422E-03    -8.52868E+06    -65.1631E+06    -521.133E+03    -507.915E+03    -15.9559E-03     31.7452E-03    -15.7893E-03     31.4497E-03    -15.9063E-03     31.4355E-03    -15.6850E-03     31.4359E-03
             529     8.85997E-03     69.2731E-03    -7.44813E+06    -61.9661E+06     252.553E+03    -444.488E+03    -16.0092E-03     31.7919E-03    -15.7827E-03     35.5075E-03    -15.9615E-03     31.4971E-03    -15.6808E-03     35.4923E-03
             530     9.74598E-03     69.3079E-03    -6.73962E+06    -61.6722E+06     94.3009E+03    -507.580E+03    -16.0765E-03     31.8523E-03    -15.7758E-03     39.6111E-03    -16.0279E-03     31.5605E-03    -15.6761E-03     39.5920E-03
             531     10.6321E-03     69.3465E-03    -6.11478E+06    -56.7034E+06    -2.77174E+06    -365.976E+03    -16.1405E-03     31.8885E-03    -15.7480E-03     43.7113E-03    -16.0956E-03     31.6287E-03    -15.6708E-03     43.6900E-03
             532     11.5181E-03     69.3888E-03    -5.54774E+06    -44.6190E+06    -629.274E+03    -220.143E+03    -16.1913E-03     31.9253E-03    -15.7340E-03     48.1089E-03    -16.1704E-03     31.7281E-03    -15.6644E-03     48.0843E-03
             533     12.4044E-03     69.4356E-03    -5.07088E+06    -37.4401E+06    -263.779E+03    -69.1517E+03    -16.3823E-03     32.1014E-03    -15.7191E-03     54.8193E-03    -16.3816E-03     31.9506E-03    -15.6588E-03     54.7897E-03
             534     13.2899E-03     69.4906E-03    -5.15106E+06    -34.6724E+06    -8.67948E+06     194.934E+03    -16.4739E-03     32.1441E-03    -15.6702E-03     57.4837E-03    -16.4818E-03     32.0358E-03    -15.6559E-03     57.4499E-03
             535     14.1768E-03     69.5421E-03    -5.24106E+06    -12.2333E+06    -9.10486E+06     279.465E+03    -16.5181E-03     32.1516E-03    -15.6334E-03     61.3152E-03    -16.5868E-03     32.1846E-03    -15.6536E-03     61.2783E-03
             536     15.0618E-03     69.6041E-03    -6.23022E+06     31.7578E+06    -10.7348E+06    -1.09902E+03    -17.6602E-03     33.2244E-03    -15.5642E-03     89.4964E-03    -17.9472E-03     33.6332E-03    -15.6549E-03     89.4699E-03
             537     15.9467E-03     69.7093E-03    -6.55071E+06     94.0118E+06    -8.36948E+06    -135.241E+03    -20.2362E-03     35.7289E-03    -15.4927E-03     145.939E-03    -21.6537E-03     37.4811E-03    -15.6614E-03     146.320E-03
             538     16.8337E-03     69.8754E-03    -4.15215E+06     156.443E+06     51.7239E+06     275.863E+03    -21.3688E-03     37.0524E-03    -15.6836E-03     189.919E-03    -24.5204E-03     40.5946E-03    -15.6458E-03     192.106E-03
             539     885.944E-06     70.0970E-03    -18.9955E+06    -73.0440E+06    -18.4715E+06    -178.727E+03    -15.7449E-03     31.4889E-03    -15.7440E-03     3.46073E-03    -15.7072E-03     31.1781E-03    -15.7029E-03     3.45790E-03
             540     1.77197E-03     70.1016E-03    -18.2103E+06    -72.2637E+06    -16.3135E+06    -321.142E+03    -15.7418E-03     31.4926E-03    -15.7508E-03     6.45848E-03    -15.7045E-03     31.1814E-03    -15.7012E-03     6.45333E-03
             541     2.65793E-03     70.1090E-03    -17.0597E+06    -71.2216E+06    -13.3214E+06    -457.617E+03    -15.7458E-03     31.5042E-03    -15.7584E-03     9.62939E-03    -15.7087E-03     31.1924E-03    -15.6970E-03     9.62197E-03
             542     3.54396E-03     70.1194E-03    -15.6650E+06    -70.1123E+06    -10.1195E+06    -607.130E+03    -15.7557E-03     31.5221E-03    -15.7664E-03     12.9148E-03    -15.7180E-03     31.2092E-03    -15.6926E-03     12.9048E-03
             543     4.42994E-03     70.1328E-03    -14.1687E+06    -69.3188E+06     -7.2121E+06    -656.022E+03    -15.7745E-03     31.5475E-03    -15.7731E-03     16.3260E-03    -15.7349E-03     31.2325E-03    -15.6881E-03     16.3148E-03
             544     5.31598E-03     70.1496E-03    -12.7997E+06    -68.5139E+06    -5.01685E+06    -766.300E+03    -15.8035E-03     31.5801E-03    -15.7766E-03     19.8804E-03    -15.7618E-03     31.2642E-03    -15.6837E-03     19.8670E-03
             545     6.20198E-03     70.1696E-03    -11.5306E+06    -67.5316E+06    -3.65682E+06    -774.483E+03    -15.8401E-03     31.6162E-03    -15.7760E-03     23.5976E-03    -15.7959E-03     31.3018E-03    -15.6797E-03     23.5832E-03
             546     7.08802E-03     70.1933E-03    -10.2499E+06    -66.9776E+06    -2.14072E+06    -799.410E+03    -15.8883E-03     31.6653E-03    -15.7771E-03     27.4651E-03    -15.8413E-03     31.3504E-03    -15.6758E-03     27.4491E-03
             547     7.97404E-03     70.2204E-03    -9.10353E+06    -65.1553E+06    -1.14735E+06    -981.233E+03    -15.9368E-03     31.7106E-03    -15.7737E-03     31.4643E-03    -15.8892E-03     31.4026E-03    -15.6718E-03     31.4444E-03
             548     8.86009E-03     70.2515E-03    -7.79560E+06    -62.1803E+06    -282.263E+03    -769.301E+03    -15.9945E-03     31.7618E-03    -15.7673E-03     35.5412E-03    -15.9474E-03     31.4672E-03    -15.6673E-03     35.5218E-03
             549     9.74614E-03     70.2861E-03    -6.79450E+06    -61.4410E+06    -77.5159E+03    -617.523E+03    -16.0795E-03     31.8413E-03    -15.7618E-03     39.6359E-03    -16.0313E-03     31.5511E-03    -15.6632E-03     39.6154E-03
             550     10.6322E-03     70.3248E-03    -6.19995E+06    -56.8593E+06    -3.11146E+06    -615.590E+03    -16.1679E-03     31.9040E-03    -15.7361E-03     43.6993E-03    -16.1228E-03     31.6440E-03    -15.6602E-03     43.6747E-03
             551     11.5183E-03     70.3671E-03    -5.47122E+06    -44.5314E+06    -855.221E+03    -531.270E+03    -16.2180E-03     31.9429E-03    -15.7249E-03     48.1146E-03    -16.1965E-03     31.7464E-03    -15.6567E-03     48.0859E-03
             552     12.4041E-03     70.4140E-03    -4.84143E+06    -37.8199E+06    -334.397E+03    -284.276E+03    -16.3252E-03     32.0360E-03    -15.7107E-03     54.8958E-03    -16.3228E-03     31.8830E-03    -15.6505E-03     54.8635E-03
             553     13.2909E-03     70.4688E-03    -4.52508E+06    -35.3059E+06    -8.82963E+06     62.4305E+03    -16.4571E-03     32.1160E-03    -15.6589E-03     57.5708E-03    -16.4606E-03     32.0037E-03    -15.6453E-03     57.5354E-03
             554     14.1760E-03     70.5205E-03    -4.78969E+06    -12.5134E+06    -9.10744E+06     452.719E+03    -16.5408E-03     32.1636E-03    -15.6228E-03     61.5805E-03    -16.6072E-03     32.1950E-03    -15.6433E-03     61.5459E-03
             555     15.0626E-03     70.5832E-03    -4.95340E+06     31.9469E+06    -9.96404E+06     802.053E+03    -17.3243E-03     32.8701E-03    -15.5458E-03     90.1750E-03    -17.6060E-03     33.2765E-03    -15.6348E-03     90.1617E-03
             556     15.9505E-03     70.6869E-03    -5.54812E+06     94.6975E+06    -6.89660E+06     427.979E+03    -20.2154E-03     35.6797E-03    -15.4643E-03     147.447E-03    -21.6453E-03     37.4460E-03    -15.6280E-03     147.832E-03
             557     16.8341E-03     70.8577E-03     -4.7793E+06     156.422E+06     52.0485E+06    -343.168E+03    -21.7492E-03     37.4106E-03    -15.6614E-03     189.597E-03    -24.8843E-03     40.9331E-03    -15.6210E-03     191.750E-03
             558     886.019E-06     71.0754E-03    -19.0705E+06    -72.6490E+06    -18.5836E+06    -213.311E+03    -15.7315E-03     31.4560E-03    -15.7244E-03     3.45850E-03    -15.6946E-03     31.1474E-03    -15.6844E-03     3.45522E-03
             559     1.77197E-03     71.0799E-03    -18.3181E+06    -71.8862E+06    -16.4234E+06    -363.117E+03    -15.7286E-03     31.4636E-03    -15.7350E-03     6.45731E-03    -15.6922E-03     31.1546E-03    -15.6863E-03     6.45162E-03
             560     2.65799E-03     71.0873E-03    -17.1582E+06    -70.8644E+06    -13.4533E+06    -535.932E+03    -15.7307E-03     31.4739E-03    -15.7432E-03     9.63116E-03    -15.6944E-03     31.1641E-03    -15.6828E-03     9.62272E-03
             561     3.54399E-03     71.0976E-03    -15.8072E+06    -69.7731E+06    -10.2878E+06    -677.774E+03    -15.7401E-03     31.4910E-03    -15.7510E-03     12.9176E-03    -15.7034E-03     31.1804E-03    -15.6783E-03     12.9068E-03
             562     4.43002E-03     71.1112E-03    -14.3606E+06    -69.0962E+06    -7.48373E+06    -805.401E+03    -15.7593E-03     31.5166E-03    -15.7573E-03     16.3293E-03    -15.7206E-03     31.2033E-03    -15.6737E-03     16.3162E-03
             563     5.31604E-03     71.1278E-03    -12.9015E+06    -68.2463E+06    -5.34813E+06    -826.529E+03    -15.7878E-03     31.5481E-03    -15.7603E-03     19.8878E-03    -15.7465E-03     31.2342E-03    -15.6693E-03     19.8737E-03
             564     6.20208E-03     71.1480E-03    -11.5370E+06    -67.3062E+06    -3.78730E+06    -983.318E+03    -15.8257E-03     31.5863E-03    -15.7606E-03     23.6071E-03    -15.7816E-03     31.2733E-03    -15.6652E-03     23.5900E-03
             565     7.08811E-03     71.1714E-03    -10.2335E+06    -66.8019E+06    -2.39917E+06    -1.09706E+06    -15.8685E-03     31.6292E-03    -15.7607E-03     27.4779E-03    -15.8213E-03     31.3155E-03    -15.6610E-03     27.4581E-03
             566     7.97417E-03     71.1988E-03    -9.09239E+06    -64.8387E+06    -1.19511E+06    -1.13424E+06    -15.9190E-03     31.6768E-03    -15.7577E-03     31.4748E-03    -15.8717E-03     31.3705E-03    -15.6565E-03     31.4529E-03
             567     8.86022E-03     71.2296E-03    -8.20005E+06    -62.4464E+06    -564.468E+03    -1.22606E+06    -15.9793E-03     31.7309E-03    -15.7516E-03     35.5514E-03    -15.9335E-03     31.4359E-03    -15.6520E-03     35.5261E-03
             568     9.74632E-03     71.2645E-03    -7.13351E+06    -61.4068E+06    -347.385E+03    -967.072E+03    -16.0842E-03     31.8307E-03    -15.7465E-03     39.6743E-03    -16.0373E-03     31.5415E-03    -15.6489E-03     39.6492E-03
             569     10.6323E-03     71.3030E-03    -6.29439E+06    -56.6616E+06    -2.96232E+06    -892.417E+03    -16.1787E-03     31.9029E-03    -15.7242E-03     43.7455E-03    -16.1346E-03     31.6439E-03    -15.6477E-03     43.7174E-03
             570     11.5182E-03     71.3455E-03     -5.7752E+06    -44.8121E+06    -1.17590E+06    -972.096E+03    -16.2229E-03     31.9361E-03    -15.7132E-03     48.1945E-03    -16.2021E-03     31.7391E-03    -15.6457E-03     48.1602E-03
             571     12.4047E-03     71.3921E-03    -4.93779E+06    -37.9481E+06    -564.168E+03    -830.746E+03    -16.3696E-03     32.0711E-03    -15.7015E-03     54.7838E-03    -16.3671E-03     31.9180E-03    -15.6422E-03     54.7443E-03
             572     13.2903E-03     71.4470E-03    -4.30755E+06    -36.3741E+06    -9.11686E+06    -213.636E+03    -16.3947E-03     32.0452E-03    -15.6505E-03     57.5235E-03    -16.3952E-03     31.9277E-03    -15.6371E-03     57.4846E-03
             573     14.1769E-03     71.4992E-03    -4.15300E+06    -12.7806E+06    -9.01917E+06     409.114E+03    -16.3630E-03     31.9706E-03    -15.6076E-03     61.4950E-03    -16.4256E-03     31.9992E-03    -15.6281E-03     61.4604E-03
             574     15.0633E-03     71.5604E-03    -4.85257E+06     31.7993E+06    -9.97562E+06     443.804E+03    -17.3727E-03     32.9013E-03    -15.5286E-03     89.4444E-03    -17.6529E-03     33.3061E-03    -15.6176E-03     89.4254E-03
             575     15.9483E-03     71.6655E-03    -4.87352E+06     94.4044E+06    -7.32891E+06     620.198E+03    -19.6200E-03     35.0523E-03    -15.4322E-03     146.941E-03    -21.0413E-03     36.8127E-03    -15.5987E-03     147.350E-03
             576     16.8366E-03     71.8366E-03    -3.55361E+06     157.346E+06     52.5658E+06     413.964E+03    -21.7835E-03     37.4025E-03    -15.6190E-03     189.256E-03    -24.9042E-03     40.9168E-03    -15.5792E-03     191.397E-03
             577     885.979E-06     72.0536E-03    -19.2136E+06    -72.1963E+06    -18.6701E+06    -252.997E+03    -15.7138E-03     31.4216E-03    -15.7078E-03     3.46755E-03    -15.6781E-03     31.1156E-03    -15.6686E-03     3.46376E-03
             578     1.77202E-03     72.0582E-03    -18.4093E+06    -71.4617E+06     -16.524E+06    -425.048E+03    -15.7126E-03     31.4307E-03    -15.7181E-03     6.45741E-03    -15.6772E-03     31.1242E-03    -15.6704E-03     6.45092E-03
             579     2.65802E-03     72.0655E-03    -17.2746E+06    -70.4495E+06    -13.5892E+06    -609.918E+03    -15.7151E-03     31.4416E-03    -15.7265E-03     9.63365E-03    -15.6798E-03     31.1343E-03    -15.6673E-03     9.62426E-03
             580     3.54406E-03     72.0760E-03    -15.8885E+06    -69.4057E+06    -10.4672E+06    -772.596E+03    -15.7246E-03     31.4590E-03    -15.7343E-03     12.9207E-03    -15.6886E-03     31.1505E-03    -15.6630E-03     12.9086E-03
             581     4.43008E-03     72.0894E-03    -14.4320E+06    -68.7391E+06    -7.68122E+06    -922.035E+03    -15.7429E-03     31.4835E-03    -15.7406E-03     16.3336E-03    -15.7048E-03     31.1724E-03    -15.6584E-03     16.3190E-03
             582     5.31613E-03     72.1061E-03    -12.9412E+06    -68.0038E+06    -5.60118E+06    -1.09883E+06    -15.7704E-03     31.5136E-03    -15.7432E-03     19.8953E-03    -15.7293E-03     31.2014E-03    -15.6538E-03     19.8776E-03
             583     6.20218E-03     72.1261E-03    -11.5220E+06    -66.9214E+06    -3.91448E+06    -1.20094E+06    -15.8063E-03     31.5498E-03    -15.7435E-03     23.6150E-03    -15.7625E-03     31.2389E-03    -15.6493E-03     23.5951E-03
             584     7.08822E-03     72.1498E-03    -10.3312E+06    -66.5691E+06    -2.43712E+06    -1.33775E+06    -15.8521E-03     31.5963E-03    -15.7442E-03     27.4777E-03    -15.8057E-03     31.2839E-03    -15.6449E-03     27.4549E-03
             585     7.97431E-03     72.1769E-03    -9.18792E+06    -64.6925E+06    -1.42273E+06    -1.37469E+06    -15.9043E-03     31.6449E-03    -15.7406E-03     31.4756E-03    -15.8574E-03     31.3398E-03    -15.6405E-03     31.4506E-03
             586     8.86037E-03     72.2080E-03    -8.10032E+06    -62.1514E+06    -400.495E+03    -1.38455E+06    -15.9865E-03     31.7236E-03    -15.7371E-03     35.5528E-03    -15.9409E-03     31.4297E-03    -15.6372E-03     35.5254E-03
             587     9.74641E-03     72.2426E-03    -7.21207E+06    -61.6976E+06    -522.896E+03    -1.40224E+06    -16.0658E-03     31.7981E-03    -15.7323E-03     39.6839E-03    -16.0186E-03     31.5078E-03    -15.6350E-03     39.6532E-03
             588     10.6324E-03     72.2815E-03    -6.55559E+06    -56.6706E+06    -3.27093E+06    -1.16931E+06    -16.1269E-03     31.8343E-03    -15.7075E-03     43.7607E-03    -16.0835E-03     31.5760E-03    -15.6321E-03     43.7291E-03
             589     11.5187E-03     72.3234E-03    -6.15250E+06    -44.5852E+06    -1.20035E+06    -1.06973E+06    -16.2549E-03     31.9529E-03    -15.6980E-03     48.3019E-03    -16.2363E-03     31.7577E-03    -15.6305E-03     48.2662E-03
             590     12.4043E-03     72.3708E-03    -5.92281E+06    -38.4266E+06    -1.15853E+06    -1.08284E+06    -16.4325E-03     32.1223E-03    -15.6899E-03     54.8758E-03    -16.4335E-03     31.9693E-03    -15.6314E-03     54.8329E-03
             591     13.2906E-03     72.4251E-03    -5.24340E+06    -36.8661E+06     -9.5356E+06    -887.962E+03    -16.3649E-03     32.0067E-03    -15.6418E-03     57.4427E-03    -16.3687E-03     31.8887E-03    -15.6285E-03     57.3952E-03
             592     14.1769E-03     72.4768E-03    -4.72721E+06    -13.7164E+06    -9.79721E+06    -104.052E+03    -16.4533E-03     32.0531E-03    -15.5998E-03     61.4810E-03    -16.5165E-03     32.0792E-03    -15.6220E-03     61.4394E-03
             593     15.0626E-03     72.5395E-03    -4.84657E+06     31.8695E+06    -9.70424E+06     361.693E+03    -17.3693E-03     32.8959E-03    -15.5266E-03     89.5951E-03    -17.6508E-03     33.3015E-03    -15.6143E-03     89.5758E-03
             594     15.9493E-03     72.6438E-03    -5.33663E+06     94.5153E+06    -7.22094E+06     637.747E+03    -19.7585E-03     35.1931E-03    -15.4346E-03     146.561E-03    -21.1749E-03     36.9470E-03    -15.6000E-03     146.965E-03
             595     16.8367E-03     72.8118E-03    -3.89447E+06     157.156E+06     51.4209E+06     707.922E+03    -21.8131E-03     37.4340E-03    -15.6209E-03     189.178E-03    -24.9414E-03     40.9573E-03    -15.5860E-03     191.339E-03
             596     886.044E-06     73.0319E-03    -19.2828E+06    -71.6517E+06    -18.7929E+06    -285.890E+03    -15.6813E-03     31.3827E-03    -15.7014E-03     3.48019E-03    -15.6465E-03     31.0797E-03    -15.6635E-03     3.47597E-03
             597     1.77203E-03     73.0363E-03    -18.5289E+06    -70.9765E+06    -16.6548E+06    -512.232E+03    -15.6969E-03     31.3962E-03    -15.6993E-03     6.45843E-03    -15.6626E-03     31.0925E-03    -15.6528E-03     6.45082E-03
             598     2.65808E-03     73.0438E-03    -17.3612E+06    -69.9724E+06    -13.7439E+06    -711.323E+03    -15.6991E-03     31.4077E-03    -15.7086E-03     9.63444E-03    -15.6647E-03     31.1031E-03    -15.6507E-03     9.62375E-03
             599     3.54410E-03     73.0541E-03    -15.9630E+06    -68.9394E+06    -10.6295E+06    -941.450E+03    -15.7076E-03     31.4243E-03    -15.7166E-03     12.9231E-03    -15.6724E-03     31.1185E-03    -15.6467E-03     12.9088E-03
             600     4.43016E-03     73.0677E-03    -14.4154E+06    -68.3581E+06    -7.79401E+06    -1.12346E+06    -15.7261E-03     31.4493E-03    -15.7232E-03     16.3370E-03    -15.6884E-03     31.1403E-03    -15.6421E-03     16.3198E-03
             601     5.31621E-03     73.0843E-03    -12.9604E+06    -67.5212E+06    -5.63632E+06    -1.33314E+06    -15.7533E-03     31.4793E-03    -15.7260E-03     19.8983E-03    -15.7129E-03     31.1696E-03    -15.6375E-03     19.8776E-03
             602     6.20227E-03     73.1044E-03    -11.5804E+06    -66.6691E+06    -4.02811E+06    -1.51813E+06    -15.7892E-03     31.5155E-03    -15.7263E-03     23.6139E-03    -15.7459E-03     31.2061E-03    -15.6330E-03     23.5900E-03
             603     7.08837E-03     73.1279E-03    -10.2683E+06    -66.2657E+06    -2.42298E+06    -1.51399E+06    -15.8413E-03     31.5691E-03    -15.7277E-03     27.4740E-03    -15.7950E-03     31.2581E-03    -15.6289E-03     27.4488E-03
             604     7.97440E-03     73.1552E-03    -9.18415E+06    -64.4520E+06    -1.40760E+06    -1.62534E+06    -15.9076E-03     31.6332E-03    -15.7256E-03     31.4655E-03    -15.8610E-03     31.3293E-03    -15.6259E-03     31.4372E-03
             605     8.86051E-03     73.1860E-03    -8.17310E+06    -62.0081E+06    -590.189E+03    -1.65311E+06    -15.9810E-03     31.7038E-03    -15.7228E-03     35.5715E-03    -15.9357E-03     31.4110E-03    -15.6240E-03     35.5407E-03
             606     9.74649E-03     73.2211E-03    -7.21501E+06    -61.7031E+06    -678.213E+03    -1.60649E+06    -16.0384E-03     31.7565E-03    -15.7181E-03     39.6381E-03    -15.9910E-03     31.4664E-03    -15.6216E-03     39.6048E-03
             607     10.6327E-03     73.2593E-03    -6.52314E+06    -56.9639E+06    -3.55145E+06    -1.45859E+06    -16.1329E-03     31.8261E-03    -15.6932E-03     43.7315E-03    -16.0885E-03     31.5666E-03    -15.6189E-03     43.6961E-03
             608     11.5186E-03     73.3021E-03    -6.10746E+06    -44.4152E+06    -1.18202E+06    -1.06894E+06    -16.2192E-03     31.9037E-03    -15.6845E-03     48.3026E-03    -16.2006E-03     31.7092E-03    -15.6171E-03     48.2670E-03
             609     12.4049E-03     73.3489E-03    -5.73029E+06    -38.6388E+06    -1.21115E+06    -976.925E+03    -16.3501E-03     32.0232E-03    -15.6731E-03     54.8612E-03    -16.3497E-03     31.8688E-03    -15.6148E-03     54.8199E-03
             610     13.2909E-03     73.4034E-03    -6.08787E+06    -36.9842E+06    -10.5667E+06    -1.06541E+06    -16.5575E-03     32.1835E-03    -15.6260E-03     57.4433E-03    -16.5641E-03     32.0679E-03    -15.6164E-03     57.3930E-03
             611     14.1767E-03     73.4551E-03    -6.30345E+06    -14.0753E+06    -10.5204E+06    -977.807E+03    -16.5341E-03     32.1307E-03    -15.5966E-03     61.5589E-03    -16.6039E-03     32.1587E-03    -15.6196E-03     61.5058E-03
             612     15.0630E-03     73.5180E-03    -5.38457E+06     30.5205E+06    -10.8618E+06     153.412E+03    -17.4028E-03     32.9283E-03    -15.5255E-03     89.1643E-03    -17.6821E-03     33.3284E-03    -15.6163E-03     89.1416E-03
             613     15.9502E-03     73.6203E-03    -5.47570E+06     94.3603E+06    -7.33852E+06     1.16518E+06    -19.9850E-03     35.4290E-03    -15.4441E-03     146.376E-03    -21.4026E-03     37.1835E-03    -15.6096E-03     146.774E-03
             614     16.8325E-03     73.7944E-03    -4.24174E+06     157.799E+06     52.2750E+06     401.472E+03    -21.6889E-03     37.3228E-03    -15.6339E-03     190.615E-03    -24.8522E-03     40.8796E-03    -15.5952E-03     192.794E-03
             615     886.026E-06     74.0100E-03    -19.5046E+06    -71.0165E+06    -19.0014E+06    -340.662E+03    -15.6566E-03     31.3466E-03    -15.6899E-03     3.50067E-03    -15.6237E-03     31.0474E-03    -15.6537E-03     3.49573E-03
             616     1.77208E-03     74.0146E-03    -18.6853E+06    -70.3566E+06    -16.8456E+06    -621.485E+03    -15.6781E-03     31.3592E-03    -15.6811E-03     6.45327E-03    -15.6452E-03     31.0590E-03    -15.6362E-03     6.44426E-03
             617     2.65811E-03     74.0219E-03    -17.4792E+06    -69.4214E+06    -13.9048E+06    -886.111E+03    -15.6807E-03     31.3710E-03    -15.6903E-03     9.63375E-03    -15.6475E-03     31.0696E-03    -15.6338E-03     9.62080E-03
             618     3.54418E-03     74.0324E-03    -16.0363E+06    -68.3505E+06    -10.7356E+06    -1.13979E+06    -15.6902E-03     31.3887E-03    -15.6985E-03     12.9237E-03    -15.6560E-03     31.0861E-03    -15.6298E-03     12.9069E-03
             619     4.43023E-03     74.0458E-03    -14.4998E+06    -67.8533E+06    -7.86519E+06    -1.42455E+06    -15.7101E-03     31.4156E-03    -15.7056E-03     16.3372E-03    -15.6733E-03     31.1094E-03    -15.6255E-03     16.3161E-03
             620     5.31630E-03     74.0625E-03    -12.9616E+06    -67.0868E+06    -5.69345E+06    -1.57444E+06    -15.7387E-03     31.4475E-03    -15.7088E-03     19.8950E-03    -15.6988E-03     31.1400E-03    -15.6212E-03     19.8712E-03
             621     6.20239E-03     74.0825E-03    -11.6356E+06    -66.1762E+06    -4.02856E+06    -1.77120E+06    -15.7802E-03     31.4903E-03    -15.7101E-03     23.6083E-03    -15.7379E-03     31.1835E-03    -15.6174E-03     23.5810E-03
             622     7.08843E-03     74.1062E-03    -10.3407E+06    -66.1303E+06    -2.60405E+06    -1.91031E+06    -15.8374E-03     31.5499E-03    -15.7124E-03     27.4688E-03    -15.7915E-03     31.2400E-03    -15.6146E-03     27.4385E-03
             623     7.97456E-03     74.1333E-03    -9.08813E+06    -64.1702E+06    -1.53588E+06    -1.81020E+06    -15.9109E-03     31.6225E-03    -15.7117E-03     31.4801E-03    -15.8640E-03     31.3201E-03    -15.6131E-03     31.4495E-03
             624     8.86052E-03     74.1644E-03    -8.18220E+06    -61.8131E+06    -731.950E+03    -1.86265E+06    -15.9621E-03     31.6717E-03    -15.7096E-03     35.5477E-03    -15.9168E-03     31.3801E-03    -15.6118E-03     35.5141E-03
             625     9.74675E-03     74.1990E-03    -7.33981E+06    -61.6232E+06    -927.631E+03    -1.89189E+06    -16.0463E-03     31.7516E-03    -15.7053E-03     39.6032E-03    -15.9993E-03     31.4625E-03    -15.6100E-03     39.5662E-03
             626     10.6327E-03     74.2377E-03    -6.66799E+06    -57.2776E+06    -3.82481E+06    -1.71487E+06    -16.1630E-03     31.8464E-03    -15.6835E-03     43.7591E-03    -16.1186E-03     31.5861E-03    -15.6099E-03     43.7203E-03
             627     11.5188E-03     74.2802E-03    -6.18203E+06    -44.8496E+06    -1.57252E+06    -1.22542E+06    -16.1943E-03     31.8696E-03    -15.6753E-03     48.2213E-03    -16.1749E-03     31.6735E-03    -15.6091E-03     48.1838E-03
             628     12.4049E-03     74.3270E-03    -5.67124E+06    -38.2647E+06    -1.33005E+06    -1.04963E+06    -16.4023E-03     32.0679E-03    -15.6656E-03     54.6352E-03    -16.4021E-03     31.9155E-03    -15.6085E-03     54.5928E-03
             629     13.2911E-03     74.3817E-03    -5.66614E+06    -37.3217E+06    -10.6011E+06    -969.833E+03    -16.5409E-03     32.1622E-03    -15.6214E-03     57.3496E-03    -16.5448E-03     32.0443E-03    -15.6120E-03     57.3005E-03
             630     14.1765E-03     74.4341E-03    -5.97158E+06    -14.3955E+06    -10.7982E+06    -1.05316E+06    -16.6581E-03     32.2525E-03    -15.5944E-03     61.3661E-03    -16.7254E-03     32.2788E-03    -15.6189E-03     61.3116E-03
             631     15.0633E-03     74.4948E-03    -6.64241E+06     29.3991E+06    -12.4124E+06    -621.510E+03    -18.0555E-03     33.5983E-03    -15.5428E-03     89.3270E-03    -18.3422E-03     34.0018E-03    -15.6379E-03     89.2897E-03
             632     15.9464E-03     74.6019E-03    -5.59418E+06     93.3563E+06    -9.58620E+06     192.623E+03    -19.6423E-03     35.1104E-03    -15.4681E-03     144.710E-03    -21.0396E-03     36.8470E-03    -15.6433E-03     145.113E-03
             633     16.8396E-03     74.7672E-03    -2.96365E+06     158.703E+06     52.3802E+06     642.037E+03    -21.2266E-03     36.8739E-03    -15.6473E-03     190.083E-03    -24.4010E-03     40.4493E-03    -15.6112E-03     192.281E-03
             634     886.053E-06     74.9883E-03    -19.7159E+06    -70.2398E+06    -19.2504E+06    -425.062E+03    -15.6513E-03     31.3158E-03    -15.6645E-03     3.50047E-03    -15.6201E-03     31.0211E-03    -15.6303E-03     3.49445E-03
             635     1.77209E-03     74.9927E-03    -18.9167E+06    -69.5992E+06    -17.0750E+06    -767.576E+03    -15.6550E-03     31.3192E-03    -15.6642E-03     6.45635E-03    -15.6240E-03     31.0235E-03    -15.6212E-03     6.44545E-03
             636     2.65817E-03     75.0002E-03    -17.6862E+06    -68.7000E+06    -14.0925E+06    -1.10946E+06    -15.6622E-03     31.3342E-03    -15.6720E-03     9.63368E-03    -15.6307E-03     31.0370E-03    -15.6172E-03     9.61785E-03
             637     3.54422E-03     75.0105E-03    -16.2106E+06    -67.7091E+06    -10.9048E+06    -1.39801E+06    -15.6738E-03     31.3543E-03    -15.6806E-03     12.9224E-03    -15.6412E-03     31.0555E-03    -15.6134E-03     12.9023E-03
             638     4.43030E-03     75.0240E-03    -14.6806E+06    -67.1625E+06    -8.00801E+06    -1.67562E+06    -15.6952E-03     31.3834E-03    -15.6882E-03     16.3346E-03    -15.6602E-03     31.0811E-03    -15.6095E-03     16.3102E-03
             639     5.31639E-03     75.0406E-03    -13.1821E+06    -66.6602E+06    -5.90809E+06    -1.92691E+06    -15.7293E-03     31.4217E-03    -15.6924E-03     19.8915E-03    -15.6908E-03     31.1169E-03    -15.6062E-03     19.8631E-03
             640     6.20245E-03     75.0608E-03    -11.7312E+06    -65.6577E+06    -4.28798E+06    -2.02889E+06    -15.7744E-03     31.4688E-03    -15.6944E-03     23.6067E-03    -15.7330E-03     31.1650E-03    -15.6036E-03     23.5761E-03
             641     7.08856E-03     75.0842E-03    -10.5085E+06    -65.7286E+06    -2.82962E+06    -2.22970E+06    -15.8377E-03     31.5363E-03    -15.6986E-03     27.4741E-03    -15.7928E-03     31.2290E-03    -15.6022E-03     27.4396E-03
             642     7.97457E-03     75.1116E-03    -9.31396E+06    -64.1931E+06    -2.08952E+06    -2.26954E+06    -15.8965E-03     31.5942E-03    -15.6977E-03     31.4922E-03    -15.8500E-03     31.2927E-03    -15.6015E-03     31.4556E-03
             643     8.86074E-03     75.1425E-03    -8.07846E+06    -61.5232E+06    -1.05011E+06    -2.09865E+06    -15.9645E-03     31.6609E-03    -15.6964E-03     35.5234E-03    -15.9188E-03     31.3711E-03    -15.6007E-03     35.4868E-03
             644     9.74670E-03     75.1773E-03    -7.22828E+06    -61.4730E+06    -1.07456E+06    -2.12674E+06    -16.0723E-03     31.7676E-03    -15.6954E-03     39.6333E-03    -16.0248E-03     31.4793E-03    -15.6011E-03     39.5933E-03
             645     10.6328E-03     75.2160E-03    -6.71364E+06    -57.4110E+06    -4.32923E+06    -2.03123E+06    -16.1664E-03     31.8407E-03    -15.6743E-03     43.7426E-03    -16.1213E-03     31.5805E-03    -15.6029E-03     43.6997E-03
             646     11.5189E-03     75.2583E-03    -6.05590E+06    -45.4937E+06    -2.29349E+06    -1.63043E+06    -16.2473E-03     31.9153E-03    -15.6680E-03     48.1925E-03    -16.2253E-03     31.7170E-03    -15.6048E-03     48.1496E-03
             647     12.4048E-03     75.3054E-03    -5.30121E+06    -38.3682E+06    -1.73471E+06    -1.30537E+06    -16.4485E-03     32.1107E-03    -15.6622E-03     54.9233E-03    -16.4458E-03     31.9580E-03    -15.6076E-03     54.8776E-03
             648     13.2903E-03     75.3603E-03    -5.01258E+06    -36.6678E+06    -10.2944E+06    -1.04826E+06    -16.5453E-03     32.1667E-03    -15.6214E-03     57.3775E-03    -16.5474E-03     32.0507E-03    -15.6124E-03     57.3274E-03
             649     14.1777E-03     75.4114E-03    -5.78340E+06    -15.3077E+06    -11.3410E+06    -457.971E+03    -16.7727E-03     32.3688E-03    -15.5961E-03     61.7093E-03    -16.8375E-03     32.3916E-03    -15.6223E-03     61.6620E-03
             650     15.0613E-03     75.4759E-03    -6.01008E+06     29.0293E+06    -12.4339E+06    -615.634E+03    -17.8776E-03     33.4191E-03    -15.5414E-03     90.7303E-03    -18.1628E-03     33.8220E-03    -15.6370E-03     90.6961E-03
             651     15.9491E-03     75.5792E-03    -6.18441E+06     93.7374E+06    -8.74854E+06    -1.08726E+06    -20.4770E-03     35.9644E-03    -15.4874E-03     145.011E-03    -21.8850E-03     37.7085E-03    -15.6581E-03     145.371E-03
             652     16.8299E-03     75.7438E-03    -4.73782E+06     158.041E+06     51.6938E+06     62.5824E+03    -21.4891E-03     37.1810E-03    -15.6919E-03     189.739E-03    -24.6741E-03     40.7603E-03    -15.6557E-03     191.938E-03
             653     886.047E-06     75.9663E-03    -19.9899E+06    -69.3395E+06    -19.4684E+06    -508.145E+03    -15.6405E-03     31.2803E-03    -15.6398E-03     3.48526E-03    -15.6117E-03     30.9909E-03    -15.6076E-03     3.47817E-03
             654     1.77214E-03     75.9709E-03    -19.1459E+06    -68.6479E+06    -17.2838E+06    -914.248E+03    -15.6371E-03     31.2837E-03    -15.6466E-03     6.45931E-03    -15.6083E-03     30.9933E-03    -15.6057E-03     6.44651E-03
             655     2.65820E-03     75.9782E-03    -17.9281E+06    -67.8376E+06    -14.2975E+06    -1.31791E+06    -15.6454E-03     31.3001E-03    -15.6547E-03     9.63196E-03    -15.6162E-03     31.0078E-03    -15.6018E-03     9.61344E-03
             656     3.54428E-03     75.9887E-03    -16.4591E+06    -66.9326E+06    -11.1513E+06    -1.66863E+06    -15.6585E-03     31.3220E-03    -15.6635E-03     12.9200E-03    -15.6279E-03     31.0277E-03    -15.5984E-03     12.8964E-03
             657     4.43037E-03     76.0021E-03    -14.8871E+06    -66.4801E+06    -8.31934E+06    -1.94023E+06    -15.6839E-03     31.3555E-03    -15.6716E-03     16.3333E-03    -15.6504E-03     31.0573E-03    -15.5952E-03     16.3055E-03
             658     5.31645E-03     76.0188E-03    -13.4016E+06    -65.9874E+06    -6.20528E+06    -2.19939E+06    -15.7212E-03     31.3982E-03    -15.6769E-03     19.8925E-03    -15.6844E-03     31.0975E-03    -15.5929E-03     19.8606E-03
             659     6.20255E-03     76.0388E-03    -12.0123E+06    -65.2302E+06    -4.74914E+06    -2.43603E+06    -15.7696E-03     31.4493E-03    -15.6797E-03     23.6139E-03    -15.7295E-03     31.1488E-03    -15.5915E-03     23.5781E-03
             660     7.08860E-03     76.0625E-03    -10.6172E+06    -65.1944E+06    -3.18190E+06    -2.54191E+06    -15.8293E-03     31.5143E-03    -15.6850E-03     27.4899E-03    -15.7852E-03     31.2103E-03    -15.5910E-03     27.4514E-03
             661     7.97472E-03     76.0897E-03    -9.44054E+06    -63.9190E+06    -2.36041E+06    -2.71341E+06    -15.8887E-03     31.5740E-03    -15.6852E-03     31.4846E-03    -15.8429E-03     31.2745E-03    -15.5907E-03     31.4423E-03
             662     8.86075E-03     76.1207E-03    -8.28546E+06    -61.5583E+06    -1.73766E+06    -2.69434E+06    -15.9696E-03     31.6529E-03    -15.6834E-03     35.5614E-03    -15.9238E-03     31.3642E-03    -15.5908E-03     35.5171E-03
             663     9.74686E-03     76.1555E-03    -7.07761E+06    -61.2883E+06    -1.44983E+06    -2.48166E+06    -16.0835E-03     31.7681E-03    -15.6846E-03     39.6783E-03    -16.0350E-03     31.4811E-03    -15.5927E-03     39.6337E-03
             664     10.6329E-03     76.1942E-03    -6.18805E+06    -57.2587E+06    -4.23323E+06    -2.44519E+06    -16.1869E-03     31.8541E-03    -15.6672E-03     43.7716E-03    -16.1395E-03     31.5938E-03    -15.5964E-03     43.7234E-03
             665     11.5188E-03     76.2366E-03    -5.36766E+06    -45.9072E+06    -2.43100E+06    -2.33946E+06    -16.2260E-03     31.8866E-03    -15.6606E-03     48.3034E-03    -16.1998E-03     31.6854E-03    -15.5984E-03     48.2514E-03
             666     12.4050E-03     76.2837E-03    -4.68748E+06    -38.9646E+06    -1.85670E+06    -1.66600E+06    -16.3789E-03     32.0309E-03    -15.6519E-03     55.0710E-03    -16.3719E-03     31.8743E-03    -15.5979E-03     55.0209E-03
             667     13.2917E-03     76.3385E-03    -4.91347E+06    -36.4890E+06    -10.0620E+06    -1.16043E+06    -16.6653E-03     32.2793E-03    -15.6140E-03     57.7311E-03    -16.6679E-03     32.1641E-03    -15.6043E-03     57.6791E-03
             668     14.1755E-03     76.3907E-03    -4.59826E+06    -15.7473E+06    -10.7545E+06    -797.373E+03    -16.6112E-03     32.1998E-03    -15.5886E-03     62.0555E-03    -16.6706E-03     32.2181E-03    -15.6128E-03     62.0044E-03
             669     15.0644E-03     76.4531E-03    -5.17918E+06     28.4111E+06    -12.3731E+06    -1.22181E+03    -17.3312E-03     32.8425E-03    -15.5113E-03     90.7766E-03    -17.6069E-03     33.2366E-03    -15.6069E-03     90.7530E-03
             670     15.9492E-03     76.5586E-03    -6.54124E+06     94.0235E+06    -9.06042E+06    -279.300E+03    -20.5113E-03     35.9488E-03    -15.4375E-03     147.302E-03    -21.9463E-03     37.7206E-03    -15.6096E-03     147.671E-03
             671     16.8357E-03     76.7283E-03    -5.09246E+06     157.896E+06     51.5380E+06    -664.091E+03    -22.0209E-03     37.6757E-03    -15.6548E-03     189.963E-03    -25.1795E-03     41.2273E-03    -15.6186E-03     192.111E-03
             672     886.085E-06     76.9445E-03    -20.1515E+06    -68.2684E+06    -19.6562E+06    -574.945E+03    -15.6254E-03     31.2428E-03    -15.6174E-03     3.47747E-03    -15.5987E-03     30.9593E-03    -15.5875E-03     3.46952E-03
             673     1.77215E-03     76.9489E-03    -19.3831E+06    -67.5897E+06    -17.5075E+06    -1.03005E+06    -15.6245E-03     31.2535E-03    -15.6290E-03     6.46009E-03    -15.5981E-03     30.9691E-03    -15.5904E-03     6.44579E-03
             674     2.65824E-03     76.9564E-03    -18.1758E+06    -66.8267E+06    -14.5451E+06    -1.49332E+06    -15.6304E-03     31.2689E-03    -15.6385E-03     9.63140E-03    -15.6035E-03     30.9824E-03    -15.5880E-03     9.61061E-03
             675     3.54433E-03     76.9667E-03    -16.7246E+06    -66.0388E+06    -11.4557E+06    -1.89664E+06    -15.6464E-03     31.2943E-03    -15.6479E-03     12.9196E-03    -15.6180E-03     31.0053E-03    -15.5851E-03     12.8930E-03
             676     4.43042E-03     76.9803E-03    -15.1590E+06    -65.6716E+06    -8.72261E+06    -2.27055E+06    -15.6737E-03     31.3300E-03    -15.6564E-03     16.3351E-03    -15.6421E-03     31.0369E-03    -15.5828E-03     16.3031E-03
             677     5.31652E-03     76.9969E-03    -13.5670E+06    -65.3070E+06    -6.62028E+06    -2.53630E+06    -15.7122E-03     31.3747E-03    -15.6625E-03     19.8980E-03    -15.6766E-03     31.0783E-03    -15.5812E-03     19.8618E-03
             678     6.20260E-03     77.0170E-03    -12.1373E+06    -64.5455E+06    -5.04563E+06    -2.78809E+06    -15.7608E-03     31.4271E-03    -15.6664E-03     23.6270E-03    -15.7219E-03     31.1307E-03    -15.5804E-03     23.5866E-03
             679     7.08871E-03     77.0405E-03    -10.8124E+06    -64.6861E+06    -3.63081E+06    -3.07739E+06    -15.8165E-03     31.4879E-03    -15.6714E-03     27.5017E-03    -15.7735E-03     31.1874E-03    -15.5801E-03     27.4564E-03
             680     7.97477E-03     77.0679E-03    -9.44412E+06    -63.4263E+06    -2.57444E+06    -3.15729E+06    -15.8846E-03     31.5575E-03    -15.6729E-03     31.5051E-03    -15.8392E-03     31.2608E-03    -15.5801E-03     31.4571E-03
             681     8.86087E-03     77.0988E-03    -8.31091E+06    -61.3371E+06    -1.90647E+06     -3.2519E+06    -15.9634E-03     31.6356E-03    -15.6722E-03     35.6057E-03    -15.9179E-03     31.3483E-03    -15.5807E-03     35.5543E-03
             682     9.74692E-03     77.1338E-03    -7.21513E+06    -61.2344E+06    -1.78284E+06    -3.22014E+06    -16.0729E-03     31.7460E-03    -15.6731E-03     39.7608E-03    -16.0246E-03     31.4599E-03    -15.5828E-03     39.7067E-03
             683     10.6329E-03     77.1724E-03    -6.14454E+06    -57.1047E+06    -4.45864E+06    -3.05097E+06    -16.1728E-03     31.8284E-03    -15.6555E-03     43.8544E-03    -16.1252E-03     31.5691E-03    -15.5861E-03     43.7984E-03
             684     11.5191E-03     77.2148E-03    -5.47786E+06    -45.9373E+06    -2.46254E+06    -2.86546E+06    -16.2158E-03     31.8659E-03    -15.6501E-03     48.2896E-03    -16.1901E-03     31.6648E-03    -15.5879E-03     48.2308E-03
             685     12.4053E-03     77.2617E-03    -4.83622E+06    -39.6247E+06    -1.90852E+06    -2.32115E+06    -16.4112E-03     32.0551E-03    -15.6439E-03     55.0651E-03    -16.4041E-03     31.8957E-03    -15.5890E-03     55.0063E-03
             686     13.2905E-03     77.3170E-03    -4.17136E+06     -37.672E+06    -9.91527E+06    -1.52556E+06    -16.4422E-03     32.0429E-03    -15.6007E-03     57.8796E-03    -16.4394E-03     31.9203E-03    -15.5896E-03     57.8236E-03
             687     14.1784E-03     77.3691E-03    -4.91036E+06    -16.1133E+06    -11.1467E+06    -1.09279E+06    -16.5114E-03     32.0747E-03    -15.5633E-03     61.9923E-03    -16.5710E-03     32.0921E-03    -15.5886E-03     61.9377E-03
             688     15.0622E-03     77.4306E-03    -4.62245E+06     28.0997E+06    -11.6248E+06    -531.089E+03    -17.2149E-03     32.7009E-03    -15.4860E-03     90.4534E-03    -17.4878E-03     33.0909E-03    -15.5782E-03     90.4237E-03
             689     15.9500E-03     77.5372E-03    -3.95628E+06     93.5991E+06    -8.76565E+06     662.942E+03    -19.6477E-03     35.0280E-03    -15.3803E-03     148.021E-03    -21.0725E-03     36.7964E-03    -15.5541E-03     148.430E-03
             690     16.8369E-03     77.7057E-03    -3.64964E+06     158.242E+06     50.8694E+06     297.488E+03    -22.3276E-03     37.9090E-03    -15.5814E-03     188.400E-03    -25.4261E-03     41.4088E-03    -15.5512E-03     190.507E-03
             691     886.091E-06     77.9225E-03    -20.2101E+06    -67.0648E+06    -19.7152E+06    -633.521E+03    -15.6030E-03     31.2101E-03    -15.6071E-03     3.48673E-03    -15.5783E-03     30.9328E-03    -15.5791E-03     3.47802E-03
             692     1.77218E-03     77.9271E-03    -19.4479E+06    -66.4320E+06    -17.6090E+06    -1.13214E+06    -15.6126E-03     31.2260E-03    -15.6134E-03     6.45617E-03    -15.5881E-03     30.9477E-03    -15.5769E-03     6.44056E-03
             693     2.65827E-03     77.9344E-03    -18.2924E+06    -65.7085E+06    -14.7270E+06    -1.65096E+06    -15.6197E-03     31.2438E-03    -15.6241E-03     9.63110E-03    -15.5948E-03     30.9633E-03    -15.5759E-03     9.60827E-03
             694     3.54437E-03     77.9449E-03    -16.8585E+06    -65.0037E+06    -11.6764E+06    -2.13706E+06    -15.6366E-03     31.2709E-03    -15.6343E-03     12.9208E-03    -15.6100E-03     30.9876E-03    -15.5740E-03     12.8911E-03
             695     4.43047E-03     77.9583E-03    -15.3271E+06    -64.6859E+06    -8.99867E+06    -2.57463E+06    -15.6632E-03     31.3065E-03    -15.6433E-03     16.3381E-03    -15.6336E-03     31.0189E-03    -15.5723E-03     16.3022E-03
             696     5.31656E-03     77.9751E-03    -13.7970E+06    -64.4931E+06    -7.01465E+06    -2.99359E+06    -15.7008E-03     31.3502E-03    -15.6494E-03     19.9076E-03    -15.6670E-03     31.0588E-03    -15.5709E-03     19.8655E-03
             697     6.20268E-03     77.9951E-03    -12.2564E+06    -63.8365E+06    -5.45887E+06    -3.25211E+06    -15.7465E-03     31.3995E-03    -15.6530E-03     23.6391E-03    -15.7086E-03     31.1073E-03    -15.5700E-03     23.5927E-03
             698     7.08876E-03     78.0188E-03    -10.8988E+06    -63.9001E+06    -3.85481E+06    -3.50595E+06    -15.8045E-03     31.4631E-03    -15.6586E-03     27.5128E-03    -15.7627E-03     31.1670E-03    -15.5694E-03     27.4620E-03
             699     7.97488E-03     78.0459E-03    -9.65803E+06    -62.9417E+06    -2.90151E+06    -3.81131E+06    -15.8726E-03     31.5327E-03    -15.6601E-03     31.5333E-03    -15.8284E-03     31.2392E-03    -15.5694E-03     31.4769E-03
             700     8.86095E-03     78.0771E-03    -8.31228E+06    -60.8956E+06    -2.01578E+06    -3.83324E+06    -15.9557E-03     31.6162E-03    -15.6604E-03     35.6361E-03    -15.9106E-03     31.3312E-03    -15.5702E-03     35.5772E-03
             701     9.74704E-03     78.1118E-03    -7.24043E+06    -60.9547E+06    -1.84558E+06    -3.84976E+06    -16.0409E-03     31.7019E-03    -15.6611E-03     39.7939E-03    -15.9931E-03     31.4174E-03    -15.5714E-03     39.7317E-03
             702     10.6332E-03     78.1507E-03    -6.63212E+06    -57.1831E+06    -5.00142E+06    -3.67973E+06    -16.1538E-03     31.7949E-03    -15.6411E-03     43.8856E-03    -16.1077E-03     31.5367E-03    -15.5736E-03     43.8215E-03
             703     11.5191E-03     78.1929E-03    -5.92721E+06    -46.0478E+06    -2.98361E+06    -3.39777E+06    -16.2659E-03     31.9039E-03    -15.6380E-03     48.2963E-03    -16.2417E-03     31.7038E-03    -15.5775E-03     48.2305E-03
             704     12.4050E-03     78.2402E-03    -4.96206E+06    -39.9579E+06    -2.28393E+06    -3.02550E+06    -16.3769E-03     32.0105E-03    -15.6337E-03     55.1729E-03    -16.3694E-03     31.8502E-03    -15.5799E-03     55.1051E-03
             705     13.2919E-03     78.2951E-03    -4.49904E+06    -39.0778E+06    -11.0505E+06    -2.25699E+06    -16.3775E-03     31.9633E-03    -15.5858E-03     57.6408E-03    -16.3724E-03     31.8356E-03    -15.5779E-03     57.5755E-03
             706     14.1769E-03     78.3464E-03    -4.39093E+06    -16.3588E+06    -11.1644E+06    -991.939E+03    -16.3507E-03     31.8958E-03    -15.5451E-03     61.8661E-03    -16.4068E-03     31.9106E-03    -15.5708E-03     61.8134E-03
             707     15.0644E-03     78.4108E-03    -5.03901E+06     27.9104E+06    -11.6658E+06    -695.775E+03    -17.2073E-03     32.6734E-03    -15.4661E-03     89.7871E-03    -17.4804E-03     33.0615E-03    -15.5576E-03     89.7555E-03
             708     15.9512E-03     78.5116E-03    -5.95599E+06     92.5334E+06    -9.58141E+06    -84.1094E+03    -20.0754E-03     35.4497E-03    -15.3743E-03     147.577E-03    -21.5137E-03     37.2231E-03    -15.5478E-03     147.965E-03
             709     16.8362E-03     78.6886E-03    -4.34879E+06     158.327E+06     50.3282E+06     433.899E+03    -22.2378E-03     37.8208E-03    -15.5831E-03     188.660E-03    -25.3434E-03     41.3271E-03    -15.5547E-03     190.779E-03
             710     886.100E-06     78.9006E-03    -20.2233E+06    -65.7150E+06    -19.7053E+06    -681.674E+03    -15.5881E-03     31.1884E-03    -15.6003E-03     3.50083E-03    -15.5654E-03     30.9177E-03    -15.5742E-03     3.49150E-03
             711     1.77220E-03     78.9051E-03    -19.3892E+06    -65.1789E+06    -17.6223E+06    -1.25973E+06    -15.6004E-03     31.2025E-03    -15.6021E-03     6.45000E-03    -15.5774E-03     30.9304E-03    -15.5676E-03     6.43274E-03
             712     2.65829E-03     78.9125E-03    -18.2184E+06    -64.4675E+06    -14.7661E+06    -1.81851E+06    -15.6105E-03     31.2231E-03    -15.6126E-03     9.63034E-03    -15.5869E-03     30.9488E-03    -15.5665E-03     9.60535E-03
             713     3.54440E-03     78.9229E-03    -16.8210E+06    -63.8265E+06    -11.7539E+06    -2.38447E+06    -15.6265E-03     31.2496E-03    -15.6231E-03     12.9219E-03    -15.6014E-03     30.9723E-03    -15.5650E-03     12.8891E-03
             714     4.43050E-03     78.9364E-03    -15.3002E+06    -63.5962E+06    -9.09171E+06    -2.87904E+06    -15.6525E-03     31.2847E-03    -15.6322E-03     16.3428E-03    -15.6242E-03     31.0026E-03    -15.5632E-03     16.3029E-03
             715     5.31663E-03     78.9531E-03    -13.7927E+06    -63.3750E+06    -7.10880E+06    -3.39186E+06    -15.6884E-03     31.3264E-03    -15.6380E-03     19.9139E-03    -15.6560E-03     31.0407E-03    -15.5617E-03     19.8666E-03
             716     6.20272E-03     78.9732E-03    -12.3497E+06    -63.0662E+06    -5.64648E+06    -3.82351E+06    -15.7326E-03     31.3741E-03    -15.6415E-03     23.6455E-03    -15.6960E-03     31.0862E-03    -15.5604E-03     23.5917E-03
             717     7.08886E-03     78.9968E-03    -10.8874E+06    -63.1261E+06    -4.04623E+06    -4.02475E+06    -15.7922E-03     31.4387E-03    -15.6466E-03     27.5250E-03    -15.7512E-03     31.1468E-03    -15.5595E-03     27.4675E-03
             718     7.97494E-03     79.0241E-03    -9.59317E+06    -62.0922E+06    -2.85733E+06    -4.31377E+06    -15.8660E-03     31.5152E-03    -15.6493E-03     31.5418E-03    -15.8228E-03     31.2258E-03    -15.5596E-03     31.4789E-03
             719     8.86106E-03     79.0551E-03    -8.44945E+06    -60.5361E+06    -2.28336E+06    -4.55682E+06    -15.9417E-03     31.5907E-03    -15.6490E-03     35.6486E-03    -15.8974E-03     31.3082E-03    -15.5604E-03     35.5803E-03
             720     9.74713E-03     79.0901E-03    -7.33331E+06    -60.5659E+06    -2.19788E+06    -4.40132E+06    -16.0331E-03     31.6822E-03    -15.6491E-03     39.7644E-03    -15.9858E-03     31.4003E-03    -15.5616E-03     39.6951E-03
             721     10.6332E-03     79.1286E-03    -6.41355E+06    -57.1826E+06    -4.97546E+06    -4.26275E+06    -16.1347E-03     31.7655E-03    -15.6309E-03     43.9061E-03    -16.0875E-03     31.5070E-03    -15.5635E-03     43.8345E-03
             722     11.5193E-03     79.1715E-03    -5.76216E+06    -46.2208E+06    -3.21321E+06    -3.93971E+06    -16.2413E-03     31.8669E-03    -15.6257E-03     48.4133E-03    -16.2156E-03     31.6660E-03    -15.5664E-03     48.3406E-03
             723     12.4055E-03     79.2180E-03    -5.30884E+06    -40.3298E+06    -2.85561E+06    -3.48238E+06    -16.3542E-03     31.9740E-03    -15.6198E-03     55.0162E-03    -16.3470E-03     31.8130E-03    -15.5679E-03     54.9426E-03
             724     13.2911E-03     79.2733E-03    -4.95925E+06    -39.6392E+06    -11.7513E+06    -2.90029E+06    -16.4752E-03     32.0503E-03    -15.5751E-03     57.7625E-03    -16.4708E-03     31.9216E-03    -15.5692E-03     57.6887E-03
             725     14.1777E-03     79.3253E-03    -4.61585E+06    -17.9155E+06    -11.9108E+06    -1.90640E+06    -16.4924E-03     32.0360E-03    -15.5436E-03     61.4203E-03    -16.5462E-03     32.0443E-03    -15.5705E-03     61.3554E-03
             726     15.0641E-03     79.3866E-03    -4.76154E+06     26.8146E+06    -11.8969E+06     141.457E+03    -17.5693E-03     33.0507E-03    -15.4814E-03     89.0645E-03    -17.8391E-03     33.4332E-03    -15.5729E-03     89.0402E-03
             727     15.9484E-03     79.4932E-03    -6.26829E+06     92.0944E+06    -11.0682E+06     800.386E+03    -20.2039E-03     35.6009E-03    -15.3970E-03     147.518E-03    -21.6419E-03     37.3756E-03    -15.5768E-03     147.922E-03
             728     16.8351E-03     79.6638E-03    -4.55712E+06     158.002E+06     49.2606E+06    -471.452E+03    -21.8522E-03     37.4499E-03    -15.5977E-03     189.807E-03    -24.9975E-03     40.9971E-03    -15.5739E-03     191.958E-03
             729     886.099E-06     79.8786E-03    -20.0935E+06    -64.2551E+06    -19.6902E+06    -781.158E+03    -15.5933E-03     31.1743E-03    -15.5811E-03     3.50864E-03    -15.5720E-03     30.9108E-03    -15.5572E-03     3.49801E-03
             730     1.77220E-03     79.8832E-03    -19.3095E+06    -63.7587E+06    -17.5839E+06    -1.41743E+06    -15.5908E-03     31.1852E-03    -15.5944E-03     6.45340E-03    -15.5695E-03     30.9200E-03    -15.5619E-03     6.43410E-03
             731     2.65832E-03     79.8905E-03    -18.0785E+06    -63.1184E+06    -14.7411E+06    -2.04524E+06    -15.5998E-03     31.2036E-03    -15.6039E-03     9.63194E-03    -15.5775E-03     30.9358E-03    -15.5598E-03     9.60402E-03
             732     3.54442E-03     79.9010E-03    -16.6290E+06    -62.5019E+06    -11.6773E+06    -2.64439E+06    -15.6161E-03     31.2300E-03    -15.6139E-03     12.9252E-03    -15.5920E-03     30.9589E-03    -15.5576E-03     12.8890E-03
             733     4.43055E-03     79.9144E-03    -15.0770E+06    -62.3667E+06    -8.96787E+06    -3.24159E+06    -15.6420E-03     31.2649E-03    -15.6229E-03     16.3464E-03    -15.6146E-03     30.9885E-03    -15.5554E-03     16.3019E-03
             734     5.31665E-03     79.9312E-03    -13.5698E+06    -62.1608E+06    -6.95179E+06    -3.74768E+06    -15.6773E-03     31.3058E-03    -15.6286E-03     19.9176E-03    -15.6458E-03     31.0257E-03    -15.5535E-03     19.8657E-03
             735     6.20279E-03     79.9512E-03    -12.2104E+06    -61.9570E+06    -5.47170E+06    -4.26288E+06    -15.7231E-03     31.3553E-03    -15.6322E-03     23.6461E-03    -15.6877E-03     31.0725E-03    -15.5520E-03     23.5867E-03
             736     7.08889E-03     79.9749E-03    -10.8927E+06    -62.3828E+06    -4.15254E+06    -4.65281E+06    -15.7846E-03     31.4213E-03    -15.6367E-03     27.5333E-03    -15.7446E-03     31.1333E-03    -15.5513E-03     27.4676E-03
             737     7.97503E-03     80.0021E-03    -9.56291E+06    -61.2163E+06    -3.04266E+06    -4.82628E+06    -15.8583E-03     31.4972E-03    -15.6390E-03     31.5579E-03    -15.8160E-03     31.2125E-03    -15.5515E-03     31.4884E-03
             738     8.86109E-03     80.0333E-03    -8.43476E+06    -59.8810E+06    -2.28312E+06    -5.06421E+06    -15.9424E-03     31.5830E-03    -15.6405E-03     35.6408E-03    -15.8991E-03     31.3037E-03    -15.5529E-03     35.5659E-03
             739     9.74725E-03     80.0680E-03    -7.36538E+06    -60.3093E+06    -2.43299E+06    -5.11878E+06    -16.0374E-03     31.6784E-03    -15.6411E-03     39.7617E-03    -15.9903E-03     31.3981E-03    -15.5551E-03     39.6830E-03
             740     10.6332E-03     80.1070E-03    -6.56246E+06    -57.0052E+06    -5.28300E+06    -4.90094E+06    -16.1286E-03     31.7519E-03    -15.6233E-03     43.8724E-03    -16.0820E-03     31.4949E-03    -15.5575E-03     43.7926E-03
             741     11.5195E-03     80.1492E-03    -5.88368E+06    -46.5590E+06    -3.34195E+06    -4.52397E+06    -16.1804E-03     31.7982E-03    -15.6178E-03     48.3483E-03    -16.1546E-03     31.5959E-03    -15.5585E-03     48.2682E-03
             742     12.4053E-03     80.1968E-03    -5.22693E+06    -40.6651E+06    -2.92417E+06    -3.90023E+06    -16.4355E-03     32.0487E-03    -15.6132E-03     54.9374E-03    -16.4275E-03     31.8863E-03    -15.5613E-03     54.8581E-03
             743     13.2919E-03     80.2508E-03    -5.01979E+06    -40.0843E+06    -11.8036E+06    -3.31080E+06    -16.5947E-03     32.1709E-03    -15.5763E-03     57.5221E-03    -16.5900E-03     32.0404E-03    -15.5699E-03     57.4426E-03
             744     14.1775E-03     80.3040E-03    -5.37698E+06    -19.4294E+06    -12.7512E+06    -2.47144E+06    -16.7355E-03     32.2903E-03    -15.5549E-03     61.3670E-03    -16.7902E-03     32.2940E-03    -15.5826E-03     61.2937E-03
             745     15.0621E-03     80.3656E-03    -5.13401E+06     23.5858E+06    -13.5149E+06    -464.844E+03    -17.8103E-03     33.3133E-03    -15.5030E-03     89.9210E-03    -18.0804E-03     33.6881E-03    -15.5973E-03     89.8880E-03
             746     15.9499E-03     80.4710E-03    -3.05371E+06     92.6072E+06    -10.2777E+06     1.00599E+06    -19.7937E-03     35.2068E-03    -15.4131E-03     147.541E-03    -21.2054E-03     36.9663E-03    -15.5944E-03     147.955E-03
             747     16.8366E-03     80.6423E-03    -2.41125E+06     159.907E+06     50.5437E+06     187.806E+03    -21.8220E-03     37.4226E-03    -15.6006E-03     190.946E-03    -24.9987E-03     41.0119E-03    -15.5763E-03     193.128E-03
             748     886.106E-06     80.8567E-03    -20.0939E+06    -62.6509E+06    -19.6014E+06    -921.598E+03    -15.5983E-03     31.1611E-03    -15.5628E-03     3.50538E-03    -15.5795E-03     30.9054E-03    -15.5408E-03     3.49295E-03
             749     1.77222E-03     80.8611E-03    -19.2261E+06    -62.1615E+06    -17.5526E+06    -1.60017E+06    -15.5825E-03     31.1698E-03    -15.5873E-03     6.45609E-03    -15.5631E-03     30.9124E-03    -15.5570E-03     6.43444E-03
             750     2.65832E-03     80.8686E-03    -18.0175E+06    -61.5931E+06    -14.6896E+06    -2.33376E+06    -15.5898E-03     31.1860E-03    -15.5962E-03     9.63760E-03    -15.5695E-03     30.9257E-03    -15.5542E-03     9.60596E-03
             751     3.54446E-03     80.8790E-03    -16.5090E+06    -61.0560E+06    -11.6364E+06    -2.99539E+06    -15.6057E-03     31.2112E-03    -15.6055E-03     12.9316E-03    -15.5832E-03     30.9470E-03    -15.5512E-03     12.8908E-03
             752     4.43056E-03     80.8925E-03    -14.9349E+06    -60.9359E+06    -8.85603E+06    -3.63202E+06    -15.6324E-03     31.2467E-03    -15.6143E-03     16.3521E-03    -15.6064E-03     30.9771E-03    -15.5486E-03     16.3025E-03
             753     5.31671E-03     80.9092E-03    -13.3888E+06    -60.9516E+06    -6.82589E+06    -4.17962E+06    -15.6688E-03     31.2890E-03    -15.6202E-03     19.9203E-03    -15.6383E-03     31.0144E-03    -15.5466E-03     19.8629E-03
             754     6.20282E-03     80.9294E-03    -11.9705E+06    -60.6834E+06    -5.33958E+06    -4.63790E+06    -15.7182E-03     31.3421E-03    -15.6239E-03     23.6514E-03    -15.6837E-03     31.0651E-03    -15.5452E-03     23.5871E-03
             755     7.08896E-03     80.9529E-03    -10.7257E+06    -61.3291E+06    -4.03146E+06    -5.12723E+06    -15.7808E-03     31.4100E-03    -15.6292E-03     27.5386E-03    -15.7417E-03     31.1268E-03    -15.5449E-03     27.4668E-03
             756     7.97504E-03     80.9803E-03     -9.5577E+06    -60.5443E+06    -3.25147E+06    -5.40260E+06    -15.8532E-03     31.4840E-03    -15.6308E-03     31.5696E-03    -15.8115E-03     31.2029E-03    -15.5455E-03     31.4926E-03
             757     8.86121E-03     81.0113E-03    -8.44455E+06    -58.9508E+06    -2.43205E+06    -5.55148E+06    -15.9458E-03     31.5787E-03    -15.6329E-03     35.6655E-03    -15.9036E-03     31.3043E-03    -15.5474E-03     35.5843E-03
             758     9.74716E-03     81.0464E-03    -7.51552E+06    -60.0198E+06    -2.74701E+06    -5.70614E+06    -16.0494E-03     31.6844E-03    -15.6350E-03     39.7578E-03    -16.0030E-03     31.4063E-03    -15.5508E-03     39.6715E-03
             759     10.6334E-03     81.0848E-03    -6.64963E+06    -56.7762E+06    -5.75931E+06    -5.53755E+06    -16.1398E-03     31.7577E-03    -15.6179E-03     43.8701E-03    -16.0934E-03     31.5027E-03    -15.5547E-03     43.7820E-03
             760     11.5192E-03     81.1278E-03    -5.96944E+06    -46.4694E+06    -3.83844E+06    -5.07933E+06    -16.2226E-03     31.8373E-03    -15.6148E-03     48.2975E-03    -16.1966E-03     31.6364E-03    -15.5579E-03     48.2101E-03
             761     12.4058E-03     81.1742E-03    -5.23475E+06    -41.4393E+06    -3.74639E+06    -4.47239E+06    -16.4701E-03     32.0825E-03    -15.6123E-03     55.0372E-03    -16.4599E-03     31.9174E-03    -15.5634E-03     54.9505E-03
             762     13.2908E-03     81.2305E-03    -5.33848E+06    -41.0318E+06    -12.7853E+06    -3.49723E+06    -16.7022E-03     32.2816E-03    -15.5794E-03     57.7152E-03    -16.6966E-03     32.1485E-03    -15.5761E-03     57.6329E-03
             763     14.1768E-03     81.2811E-03    -5.85160E+06    -20.4855E+06    -13.5201E+06    -2.48520E+06    -16.7325E-03     32.2945E-03    -15.5619E-03     61.6772E-03    -16.7874E-03     32.2951E-03    -15.5913E-03     61.6038E-03
             764     15.0644E-03     81.3451E-03    -5.58866E+06     22.6077E+06    -14.6772E+06    -1.99168E+06    -18.0563E-03     33.5705E-03    -15.5141E-03     90.0350E-03    -18.3285E-03     33.9457E-03    -15.6122E-03     89.9808E-03
             765     15.9481E-03     81.4490E-03    -5.40828E+06     91.4197E+06    -12.0165E+06    -1.29196E+06    -19.9923E-03     35.4342E-03    -15.4419E-03     145.072E-03    -21.3896E-03     37.1717E-03    -15.6267E-03     145.444E-03
             766     16.8356E-03     81.6187E-03    -3.96465E+06     159.584E+06     49.7053E+06     555.634E+03    -21.4625E-03     37.0941E-03    -15.6316E-03     190.968E-03    -24.6697E-03     40.7096E-03    -15.6087E-03     193.174E-03
             767     886.108E-06     81.8346E-03    -19.9318E+06    -60.7919E+06    -19.4386E+06    -1.00811E+06    -15.5819E-03     31.1476E-03    -15.5657E-03     3.49311E-03    -15.5653E-03     30.9008E-03    -15.5459E-03     3.47956E-03
             768     1.77221E-03     81.8393E-03    -19.1248E+06    -60.4116E+06    -17.3953E+06    -1.83356E+06    -15.5727E-03     31.1529E-03    -15.5802E-03     6.45966E-03    -15.5556E-03     30.9039E-03    -15.5519E-03     6.43500E-03
             769     2.65835E-03     81.8466E-03    -17.9036E+06    -59.8457E+06    -14.5745E+06    -2.60935E+06    -15.5812E-03     31.1693E-03    -15.5882E-03     9.64466E-03    -15.5630E-03     30.9174E-03    -15.5483E-03     9.60947E-03
             770     3.54446E-03     81.8571E-03    -16.4613E+06    -59.4042E+06    -11.5702E+06    -3.40494E+06    -15.5973E-03     31.1947E-03    -15.5974E-03     12.9399E-03    -15.5770E-03     30.9386E-03    -15.5452E-03     12.8938E-03
             771     4.43061E-03     81.8705E-03    -14.8725E+06    -59.4208E+06    -8.89627E+06    -4.05173E+06    -15.6238E-03     31.2295E-03    -15.6058E-03     16.3601E-03    -15.5996E-03     30.9674E-03    -15.5425E-03     16.3051E-03
             772     5.31672E-03     81.8873E-03    -13.3423E+06    -59.5421E+06    -6.88035E+06    -4.65765E+06    -15.6633E-03     31.2752E-03    -15.6119E-03     19.9294E-03    -15.6346E-03     31.0077E-03    -15.5406E-03     19.8658E-03
             773     6.20287E-03     81.9073E-03    -11.8606E+06    -59.4623E+06    -5.45375E+06    -5.16237E+06    -15.7137E-03     31.3294E-03    -15.6157E-03     23.6658E-03    -15.6802E-03     31.0586E-03    -15.5396E-03     23.5948E-03
             774     7.08897E-03     81.9311E-03    -10.5593E+06    -60.1317E+06    -4.07721E+06    -5.50812E+06    -15.7805E-03     31.4023E-03    -15.6218E-03     27.5515E-03    -15.7422E-03     31.1249E-03    -15.5397E-03     27.4747E-03
             775     7.97512E-03     81.9582E-03    -9.47921E+06    -59.6157E+06    -3.33061E+06    -5.88425E+06    -15.8540E-03     31.4786E-03    -15.6245E-03     31.5858E-03    -15.8132E-03     31.2021E-03    -15.5410E-03     31.5026E-03
             776     8.86115E-03     81.9896E-03    -8.42113E+06    -58.1845E+06    -2.75360E+06    -6.09383E+06    -15.9350E-03     31.5607E-03    -15.6257E-03     35.6990E-03    -15.8934E-03     31.2906E-03    -15.5429E-03     35.6109E-03
             777     9.74739E-03     82.0243E-03    -7.39697E+06    -59.3338E+06    -2.97438E+06    -6.27272E+06    -16.0546E-03     31.6830E-03    -15.6284E-03     39.8189E-03    -16.0084E-03     31.4085E-03    -15.5465E-03     39.7254E-03
             778     10.6331E-03     82.0633E-03    -6.51670E+06    -56.8582E+06    -6.17793E+06    -6.24365E+06    -16.1649E-03     31.7777E-03    -15.6128E-03     43.9013E-03    -16.1171E-03     31.5228E-03    -15.5518E-03     43.8040E-03
             779     11.5197E-03     82.1055E-03    -5.73603E+06    -46.6213E+06    -4.31715E+06    -5.74967E+06    -16.3017E-03     31.9149E-03    -15.6132E-03     48.4377E-03    -16.2738E-03     31.7137E-03    -15.5589E-03     48.3415E-03
             780     12.4048E-03     82.1533E-03    -5.19014E+06    -42.0154E+06    -4.31805E+06    -4.99177E+06    -16.4980E-03     32.1127E-03    -15.6147E-03     55.1332E-03    -16.4859E-03     31.9456E-03    -15.5678E-03     55.0398E-03
             781     13.2921E-03     82.2077E-03    -4.85105E+06    -42.1355E+06    -13.0885E+06    -3.86767E+06    -16.5521E-03     32.1308E-03    -15.5787E-03     57.8655E-03    -16.5417E-03     31.9916E-03    -15.5760E-03     57.7790E-03
             782     14.1775E-03     82.2611E-03    -4.68192E+06    -20.7417E+06    -13.2409E+06    -2.85110E+06    -16.9816E-03     32.5454E-03    -15.5638E-03     62.0068E-03    -17.0317E-03     32.5436E-03    -15.5932E-03     61.9277E-03
             783     15.0618E-03     82.3219E-03    -5.34536E+06     22.6887E+06    -14.6571E+06    -2.25971E+06    -18.2866E-03     33.8146E-03    -15.5279E-03     90.8006E-03    -18.5582E-03     34.1902E-03    -15.6264E-03     90.7422E-03
             784     15.9476E-03     82.4315E-03    -6.56496E+06     90.0487E+06    -15.0110E+06    -1.62643E+06    -20.4705E-03     35.9330E-03    -15.4624E-03     145.221E-03    -21.8718E-03     37.6742E-03    -15.6585E-03     145.578E-03
             785     16.8333E-03     82.5918E-03    -4.84560E+06     158.007E+06     46.7455E+06    -12.6519E+03    -21.4344E-03     37.0972E-03    -15.6628E-03     191.071E-03    -24.6523E-03     40.7233E-03    -15.6511E-03     193.285E-03
             786     886.105E-06     82.8128E-03    -19.5873E+06    -58.7120E+06    -19.1134E+06    -1.10307E+06    -15.5578E-03     31.1306E-03    -15.5728E-03     3.48846E-03    -15.5429E-03     30.8932E-03    -15.5548E-03     3.47369E-03
             787     1.77225E-03     82.8172E-03    -18.7856E+06    -58.3711E+06    -17.0027E+06    -2.03251E+06    -15.5647E-03     31.1368E-03    -15.5721E-03     6.46587E-03    -15.5494E-03     30.8970E-03    -15.5453E-03     6.43863E-03
             788     2.65835E-03     82.8247E-03    -17.5925E+06    -57.9622E+06    -14.2543E+06    -2.91744E+06    -15.5747E-03     31.1551E-03    -15.5804E-03     9.65005E-03    -15.5581E-03     30.9116E-03    -15.5421E-03     9.61088E-03
             789     3.54451E-03     82.8350E-03    -16.1551E+06    -57.4698E+06    -11.3500E+06    -3.75516E+06    -15.5902E-03     31.1795E-03    -15.5893E-03     12.9471E-03    -15.5716E-03     30.9324E-03    -15.5393E-03     12.8966E-03
             790     4.43061E-03     82.8486E-03    -14.6218E+06    -57.8175E+06    -8.80442E+06    -4.53232E+06    -15.6180E-03     31.2157E-03    -15.5977E-03     16.3697E-03    -15.5951E-03     30.9612E-03    -15.5367E-03     16.3085E-03
             791     5.31678E-03     82.8652E-03    -13.0737E+06    -57.9673E+06    -6.90999E+06    -5.13023E+06    -15.6579E-03     31.2614E-03    -15.6035E-03     19.9462E-03    -15.6301E-03     31.0014E-03    -15.5350E-03     19.8765E-03
             792     6.20287E-03     82.8855E-03    -11.6615E+06    -58.0367E+06    -5.47081E+06    -5.75739E+06    -15.7113E-03     31.3194E-03    -15.6081E-03     23.6844E-03    -15.6789E-03     31.0554E-03    -15.5343E-03     23.6056E-03
             793     7.08904E-03     82.9090E-03    -10.2116E+06    -59.1251E+06    -4.13776E+06    -6.11782E+06    -15.7783E-03     31.3930E-03    -15.6147E-03     27.5809E-03    -15.7396E-03     31.1202E-03    -15.5349E-03     27.4963E-03
             794     7.97508E-03     82.9365E-03    -8.95746E+06    -58.4653E+06    -3.23754E+06    -6.28635E+06    -15.8517E-03     31.4696E-03    -15.6179E-03     31.6179E-03    -15.8101E-03     31.1980E-03    -15.5363E-03     31.5295E-03
             795     8.86130E-03     82.9674E-03    -7.91473E+06    -57.2983E+06    -2.64492E+06    -6.66396E+06    -15.9269E-03     31.5463E-03    -15.6194E-03     35.7360E-03    -15.8841E-03     31.2797E-03    -15.5381E-03     35.6405E-03
             796     9.74723E-03     83.0027E-03    -6.88178E+06    -58.5038E+06    -2.81431E+06    -6.90191E+06    -16.0280E-03     31.6491E-03    -15.6211E-03     39.8885E-03    -15.9806E-03     31.3777E-03    -15.5403E-03     39.7868E-03
             797     10.6336E-03     83.0412E-03    -6.11674E+06    -56.4971E+06    -6.09086E+06    -7.04235E+06    -16.1885E-03     31.7945E-03    -15.6060E-03     44.0270E-03    -16.1394E-03     31.5408E-03    -15.5457E-03     43.9194E-03
             798     11.5190E-03     83.0841E-03    -5.59165E+06    -47.2282E+06    -4.53849E+06    -6.46122E+06    -16.2983E-03     31.9059E-03    -15.6076E-03     48.6531E-03    -16.2685E-03     31.7017E-03    -15.5537E-03     48.5478E-03
             799     12.4059E-03     83.1312E-03    -5.10014E+06    -42.4992E+06    -4.27192E+06    -5.36424E+06    -16.5260E-03     32.1369E-03    -15.6109E-03     55.3932E-03    -16.5130E-03     31.9674E-03    -15.5633E-03     55.2948E-03
             800     13.2904E-03     83.1865E-03    -4.38006E+06    -42.8864E+06    -13.0236E+06    -4.68127E+06    -16.6083E-03     32.1859E-03    -15.5776E-03     57.7847E-03    -16.5946E-03     32.0422E-03    -15.5742E-03     57.6875E-03
             801     14.1776E-03     83.2381E-03    -4.00464E+06    -21.8758E+06    -13.4009E+06    -3.42572E+06    -16.8247E-03     32.3825E-03    -15.5578E-03     62.9788E-03    -16.8700E-03     32.3749E-03    -15.5873E-03     62.8927E-03
             802     15.0629E-03     83.3044E-03    -4.83983E+06     20.8101E+06    -14.6846E+06    -1.58321E+06    -17.6528E-03     33.1521E-03    -15.4993E-03     91.6757E-03    -17.9151E-03     33.5137E-03    -15.5959E-03     91.6304E-03
             803     15.9498E-03     83.4058E-03    -5.72655E+06     89.7352E+06    -14.5994E+06    -901.876E+03    -20.7454E-03     36.1625E-03    -15.4170E-03     147.879E-03    -22.1804E-03     37.9380E-03    -15.6118E-03     148.238E-03
             804     16.8337E-03     83.5781E-03    -4.65232E+06     158.218E+06     46.4178E+06    -827.258E+03    -22.0482E-03     37.6834E-03    -15.6352E-03     190.097E-03    -25.2077E-03     41.2536E-03    -15.6258E-03     192.250E-03
             805     886.131E-06     83.7907E-03    -19.2975E+06    -56.3635E+06    -18.8686E+06    -1.23536E+06    -15.5514E-03     31.1111E-03    -15.5597E-03     3.48387E-03    -15.5388E-03     30.8846E-03    -15.5443E-03     3.46739E-03
             806     1.77224E-03     83.7953E-03    -18.4959E+06    -56.0861E+06    -16.7669E+06    -2.23591E+06    -15.5582E-03     31.1211E-03    -15.5629E-03     6.46782E-03    -15.5451E-03     30.8919E-03    -15.5386E-03     6.43796E-03
             807     2.65839E-03     83.8026E-03    -17.2526E+06    -55.8087E+06    -13.9598E+06    -3.24920E+06    -15.5677E-03     31.1400E-03    -15.5723E-03     9.65364E-03    -15.5530E-03     30.9064E-03    -15.5361E-03     9.61018E-03
             808     3.54449E-03     83.8131E-03    -15.7772E+06    -55.4585E+06    -11.1404E+06    -4.14663E+06    -15.5829E-03     31.1639E-03    -15.5810E-03     12.9532E-03    -15.5655E-03     30.9259E-03    -15.5334E-03     12.8976E-03
             809     4.43068E-03     83.8265E-03    -14.2219E+06    -55.8712E+06    -8.58472E+06    -5.00033E+06    -15.6118E-03     31.2014E-03    -15.5896E-03     16.3828E-03    -15.5900E-03     30.9557E-03    -15.5309E-03     16.3155E-03
             810     5.31676E-03     83.8434E-03    -12.6780E+06    -56.3973E+06    -6.79966E+06    -5.71686E+06    -15.6526E-03     31.2481E-03    -15.5955E-03     19.9632E-03    -15.6252E-03     30.9952E-03    -15.5293E-03     19.8860E-03
             811     6.20296E-03     83.8634E-03    -11.2293E+06    -56.3364E+06    -5.37487E+06    -6.29115E+06    -15.7043E-03     31.3040E-03    -15.5997E-03     23.7151E-03    -15.6723E-03     31.0477E-03    -15.5286E-03     23.6295E-03
             812     7.08900E-03     83.8872E-03    -9.87996E+06    -57.9255E+06    -4.04619E+06    -6.90565E+06    -15.7689E-03     31.3759E-03    -15.6070E-03     27.6157E-03    -15.7305E-03     31.1085E-03    -15.5289E-03     27.5210E-03
             813     7.97524E-03     83.9144E-03    -8.35355E+06    -57.6283E+06    -3.22658E+06    -7.06624E+06    -15.8397E-03     31.4489E-03    -15.6092E-03     31.6725E-03    -15.7963E-03     31.1806E-03    -15.5297E-03     31.5741E-03
             814     8.86121E-03     83.9458E-03    -7.06743E+06    -56.1178E+06    -2.25637E+06    -7.18180E+06    -15.9145E-03     31.5255E-03    -15.6109E-03     35.7832E-03    -15.8698E-03     31.2630E-03    -15.5306E-03     35.6810E-03
             815     9.74754E-03     83.9805E-03    -6.14821E+06    -57.6370E+06    -2.34241E+06    -7.55869E+06    -16.0211E-03     31.6343E-03    -15.6132E-03     39.9563E-03    -15.9719E-03     31.3655E-03    -15.5324E-03     39.8462E-03
             816     10.6333E-03     84.0196E-03    -5.68846E+06    -55.9953E+06    -5.37367E+06    -7.35892E+06    -16.1531E-03     31.7521E-03    -15.5990E-03     44.1404E-03    -16.1035E-03     31.4992E-03    -15.5364E-03     44.0288E-03
             817     11.5199E-03     84.0621E-03    -5.49837E+06    -47.6037E+06    -4.08607E+06    -6.83911E+06    -16.2805E-03     31.8799E-03    -15.5995E-03     48.7056E-03    -16.2503E-03     31.6731E-03    -15.5429E-03     48.5954E-03
             818     12.4051E-03     84.1096E-03    -4.69091E+06    -43.1278E+06    -4.37027E+06    -6.19548E+06    -16.4474E-03     32.0444E-03    -15.5971E-03     55.5305E-03    -16.4311E-03     31.8711E-03    -15.5496E-03     55.4217E-03
             819     13.2924E-03     84.1650E-03    -4.68809E+06    -43.2768E+06    -13.3747E+06    -5.32820E+06    -16.6957E-03     32.2593E-03    -15.5636E-03     58.2358E-03    -16.6831E-03     32.1152E-03    -15.5609E-03     58.1299E-03
             820     14.1767E-03     84.2167E-03    -5.05298E+06    -23.7744E+06    -14.2910E+06    -4.32404E+06    -16.5229E-03     32.0615E-03    -15.5386E-03     62.9906E-03    -16.5688E-03     32.0465E-03    -15.5682E-03     62.8942E-03
             821     15.0646E-03     84.2812E-03    -4.27628E+06     17.9952E+06    -14.7299E+06    -2.34600E+06    -17.1871E-03     32.6502E-03    -15.4632E-03     90.7157E-03    -17.4395E-03     32.9940E-03    -15.5567E-03     90.6620E-03
             822     15.9507E-03     84.3850E-03    -4.32252E+06     88.9852E+06    -14.7763E+06    -271.883E+03    -20.1168E-03     35.4633E-03    -15.3464E-03     148.697E-03    -21.5515E-03     37.2414E-03    -15.5431E-03     149.086E-03
             823     16.8362E-03     84.5596E-03    -3.82060E+06     158.774E+06     46.1339E+06    -285.631E+03    -22.3352E-03     37.8905E-03    -15.5553E-03     189.491E-03    -25.4483E-03     41.4199E-03    -15.5493E-03     191.602E-03
             824     886.114E-06     84.7688E-03    -18.9770E+06    -53.7676E+06    -18.5440E+06    -1.35526E+06    -15.5441E-03     31.0921E-03    -15.5480E-03     3.48175E-03    -15.5342E-03     30.8778E-03    -15.5352E-03     3.46373E-03
             825     1.77227E-03     84.7732E-03    -18.1895E+06    -53.5508E+06    -16.5691E+06    -2.45703E+06    -15.5515E-03     31.1049E-03    -15.5534E-03     6.47264E-03    -15.5408E-03     30.8876E-03    -15.5322E-03     6.43992E-03
             826     2.65837E-03     84.7807E-03    -16.9952E+06    -53.3935E+06    -13.8444E+06    -3.57844E+06    -15.5580E-03     31.1209E-03    -15.5629E-03     9.66001E-03    -15.5457E-03     30.8988E-03    -15.5301E-03     9.61230E-03
             827     3.54456E-03     84.7911E-03    -15.5328E+06    -53.2817E+06    -10.9988E+06    -4.58752E+06    -15.5747E-03     31.1467E-03    -15.5720E-03     12.9649E-03    -15.5596E-03     30.9191E-03    -15.5272E-03     12.9036E-03
             828     4.43065E-03     84.8046E-03    -13.9886E+06    -53.7258E+06    -8.50710E+06    -5.48771E+06    -15.6022E-03     31.1824E-03    -15.5802E-03     16.3979E-03    -15.5824E-03     30.9470E-03    -15.5246E-03     16.3243E-03
             829     5.31686E-03     84.8213E-03    -12.4397E+06    -54.4959E+06    -6.68774E+06    -6.35064E+06    -15.6418E-03     31.2280E-03    -15.5862E-03     19.9887E-03    -15.6162E-03     30.9842E-03    -15.5226E-03     19.9033E-03
             830     6.20292E-03     84.8415E-03    -10.9332E+06    -54.7546E+06    -5.44027E+06    -6.97241E+06    -15.6878E-03     31.2770E-03    -15.5892E-03     23.7486E-03    -15.6566E-03     31.0283E-03    -15.5211E-03     23.6542E-03
             831     7.08917E-03     84.8651E-03    -9.56540E+06    -56.2221E+06    -3.87743E+06    -7.52424E+06    -15.7513E-03     31.3475E-03    -15.5962E-03     27.6613E-03    -15.7140E-03     31.0879E-03    -15.5202E-03     27.5586E-03
             832     7.97517E-03     84.8926E-03    -8.35500E+06    -56.7456E+06    -3.22875E+06    -8.03189E+06    -15.8162E-03     31.4143E-03    -15.5980E-03     31.7187E-03    -15.7741E-03     31.1504E-03    -15.5198E-03     31.6079E-03
             833     8.86150E-03     84.9236E-03    -6.89574E+06    -55.1692E+06    -2.39407E+06    -8.09791E+06    -15.8990E-03     31.4968E-03    -15.5978E-03     35.8544E-03    -15.8547E-03     31.2391E-03    -15.5197E-03     35.7405E-03
             834     9.74739E-03     84.9588E-03    -5.91004E+06    -56.8395E+06    -2.06082E+06    -7.85720E+06    -16.0202E-03     31.6226E-03    -15.6024E-03     40.0287E-03    -15.9715E-03     31.3570E-03    -15.5217E-03     39.9148E-03
             835     10.6338E-03     84.9975E-03    -5.80291E+06    -56.1530E+06    -5.15841E+06    -7.25635E+06    -16.1419E-03     31.7320E-03    -15.5901E-03     44.1927E-03    -16.0930E-03     31.4781E-03    -15.5261E-03     44.0824E-03
             836     11.5193E-03     85.0404E-03    -5.37015E+06    -47.0338E+06    -3.83760E+06    -7.24223E+06    -16.2420E-03     31.8302E-03    -15.5882E-03     48.7858E-03    -16.2125E-03     31.6257E-03    -15.5314E-03     48.6705E-03
             837     12.4061E-03     85.0879E-03    -4.65217E+06    -43.2047E+06    -4.51942E+06    -7.30784E+06    -16.4386E-03     32.0226E-03    -15.5840E-03     55.4557E-03    -16.4219E-03     31.8491E-03    -15.5372E-03     55.3325E-03
             838     13.2913E-03     85.1427E-03    -3.98301E+06    -44.2915E+06    -13.1983E+06    -6.19054E+06    -16.5963E-03     32.1460E-03    -15.5498E-03     58.2404E-03    -16.5789E-03     31.9956E-03    -15.5458E-03     58.1237E-03
             839     14.1783E-03     85.1963E-03    -3.96356E+06    -24.3500E+06    -13.7916E+06    -4.83137E+06    -16.6538E-03     32.1813E-03    -15.5275E-03     62.1836E-03    -16.6936E-03     32.1606E-03    -15.5554E-03     62.0802E-03
             840     15.0634E-03     85.2572E-03    -4.32496E+06     15.1160E+06    -15.4212E+06    -3.49821E+06    -17.5631E-03     33.0305E-03    -15.4674E-03     90.2525E-03    -17.8137E-03     33.3641E-03    -15.5601E-03     90.1823E-03
             841     15.9497E-03     85.3651E-03    -3.97633E+06     86.0770E+06    -16.6039E+06    -952.352E+03    -19.5415E-03     34.8850E-03    -15.3435E-03     147.035E-03    -20.9384E-03     36.6215E-03    -15.5455E-03     147.435E-03
             842     16.8392E-03     85.5338E-03    -2.64481E+06     159.231E+06     45.2783E+06     748.716E+03    -22.0087E-03     37.5404E-03    -15.5317E-03     189.085E-03    -25.1267E-03     41.0830E-03    -15.5324E-03     191.226E-03
             843     886.155E-06     85.7467E-03    -18.3131E+06    -50.9535E+06    -17.8706E+06    -1.43718E+06    -15.5276E-03     31.0731E-03    -15.5454E-03     3.50060E-03    -15.5194E-03     30.8708E-03    -15.5343E-03     3.48151E-03
             844     1.77225E-03     85.7513E-03    -17.5445E+06    -50.8252E+06    -15.9907E+06    -2.64899E+06    -15.5432E-03     31.0870E-03    -15.5438E-03     6.47468E-03    -15.5341E-03     30.8816E-03    -15.5246E-03     6.43949E-03
             845     2.65843E-03     85.7587E-03    -16.4416E+06    -50.7395E+06    -13.3888E+06    -3.85361E+06    -15.5493E-03     31.1025E-03    -15.5532E-03     9.66737E-03    -15.5387E-03     30.8923E-03    -15.5227E-03     9.61611E-03
             846     3.54453E-03     85.7691E-03    -15.0887E+06    -50.8275E+06    -10.6478E+06    -4.99150E+06    -15.5637E-03     31.1257E-03    -15.5620E-03     12.9763E-03    -15.5503E-03     30.9092E-03    -15.5197E-03     12.9098E-03
             847     4.43074E-03     85.7826E-03    -13.5808E+06    -51.4465E+06    -8.27074E+06    -5.99160E+06    -15.5884E-03     31.1578E-03    -15.5694E-03     16.4181E-03    -15.5703E-03     30.9329E-03    -15.5165E-03     16.3380E-03
             848     5.31683E-03     85.7994E-03    -12.1306E+06    -52.3004E+06    -6.54956E+06    -6.90220E+06    -15.6224E-03     31.1964E-03    -15.5741E-03     20.0162E-03    -15.5986E-03     30.9629E-03    -15.5134E-03     19.9237E-03
             849     6.20308E-03     85.8195E-03    -10.7389E+06    -53.0112E+06    -5.35721E+06    -7.68629E+06    -15.6669E-03     31.2431E-03    -15.5762E-03     23.7830E-03    -15.6373E-03     31.0027E-03    -15.5105E-03     23.6794E-03
             850     7.08914E-03     85.8432E-03    -9.46788E+06    -54.6941E+06    -3.97377E+06    -8.10083E+06    -15.7230E-03     31.3043E-03    -15.5812E-03     27.7065E-03    -15.6873E-03     31.0523E-03    -15.5081E-03     27.5964E-03
             851     7.97544E-03     85.8705E-03    -8.35416E+06    -55.1027E+06    -3.00307E+06    -8.60740E+06    -15.7931E-03     31.3764E-03    -15.5833E-03     31.7597E-03    -15.7537E-03     31.1204E-03    -15.5063E-03     31.6414E-03
             852     8.86142E-03     85.9017E-03    -7.51141E+06    -54.4225E+06    -2.81551E+06    -8.96562E+06    -15.8805E-03     31.4620E-03    -15.5814E-03     35.9331E-03    -15.8397E-03     31.2094E-03    -15.5057E-03     35.8080E-03
             853     9.74780E-03     85.9368E-03    -6.53964E+06    -56.8158E+06    -2.62984E+06    -8.25554E+06    -16.0046E-03     31.5908E-03    -15.5862E-03     40.1151E-03    -15.9582E-03     31.3271E-03    -15.5075E-03     39.9961E-03
             854     10.6336E-03     85.9757E-03    -5.56816E+06    -55.8630E+06    -5.31430E+06    -7.71038E+06    -16.1382E-03     31.7128E-03    -15.5746E-03     44.3099E-03    -16.0883E-03     31.4603E-03    -15.5121E-03     44.1938E-03
             855     11.5201E-03     86.0186E-03    -4.71246E+06    -45.9624E+06    -4.01851E+06    -7.95897E+06    -16.2242E-03     31.7950E-03    -15.5708E-03     48.8790E-03    -16.1926E-03     31.5951E-03    -15.5174E-03     48.7545E-03
             856     12.4057E-03     86.0658E-03    -4.00321E+06    -43.0603E+06    -4.65871E+06    -8.01087E+06    -16.4668E-03     32.0358E-03    -15.5690E-03     55.6688E-03    -16.4469E-03     31.8624E-03    -15.5241E-03     55.5364E-03
             857     13.2921E-03     86.1216E-03    -3.73779E+06    -45.8538E+06    -14.3569E+06    -7.04764E+06    -16.6332E-03     32.1683E-03    -15.5351E-03     58.4382E-03    -16.6105E-03     32.0112E-03    -15.5350E-03     58.3106E-03
             858     14.1775E-03     86.1733E-03    -3.41485E+06    -25.3135E+06    -14.2113E+06    -5.32892E+06    -16.7628E-03     32.2824E-03    -15.5196E-03     62.4406E-03    -16.7980E-03     32.2568E-03    -15.5490E-03     62.3306E-03
             859     15.0636E-03     86.2378E-03    -3.82281E+06     13.3891E+06    -15.3875E+06    -3.51634E+06    -17.7601E-03     33.2312E-03    -15.4711E-03     90.7412E-03    -18.0066E-03     33.5562E-03    -15.5619E-03     90.6705E-03
             860     15.9495E-03     86.3411E-03    -4.91961E+06     83.1928E+06    -18.4967E+06    -1.31629E+06    -20.4215E-03     35.7909E-03    -15.3694E-03     147.294E-03    -21.8244E-03     37.5253E-03    -15.5754E-03     147.664E-03
             861     16.8331E-03     86.5124E-03    -3.90411E+06     158.345E+06     43.6561E+06     313.735E+03    -21.9013E-03     37.4752E-03    -15.5739E-03     190.024E-03    -25.0554E-03     41.0510E-03    -15.5796E-03     192.199E-03
             862     886.123E-06     86.7248E-03    -17.3008E+06    -47.9672E+06    -16.9285E+06    -1.56090E+06    -15.5243E-03     31.0554E-03    -15.5311E-03     3.51731E-03    -15.5168E-03     30.8653E-03    -15.5211E-03     3.49662E-03
             863     1.77230E-03     86.7292E-03    -16.5573E+06    -47.8800E+06    -14.9920E+06    -2.84327E+06    -15.5313E-03     31.0658E-03    -15.5345E-03     6.47553E-03    -15.5230E-03     30.8723E-03    -15.5160E-03     6.43784E-03
             864     2.65841E-03     86.7367E-03    -15.4455E+06    -47.9562E+06    -12.4564E+06    -4.09174E+06    -15.5375E-03     31.0804E-03    -15.5429E-03     9.67537E-03    -15.5273E-03     30.8812E-03    -15.5132E-03     9.62105E-03
             865     3.54461E-03     86.7471E-03    -14.1587E+06    -48.0867E+06    -9.87968E+06    -5.30850E+06    -15.5484E-03     31.0986E-03    -15.5501E-03     12.9915E-03    -15.5355E-03     30.8933E-03    -15.5093E-03     12.9209E-03
             866     4.43073E-03     86.7606E-03    -12.7785E+06    -48.9860E+06    -7.70204E+06    -6.45248E+06    -15.5686E-03     31.1244E-03    -15.5558E-03     16.4402E-03    -15.5509E-03     30.9097E-03    -15.5047E-03     16.3542E-03
             867     5.31697E-03     86.7773E-03    -11.4127E+06    -50.0538E+06    -6.11349E+06    -7.33826E+06    -15.5992E-03     31.1579E-03    -15.5586E-03     20.0434E-03    -15.5758E-03     30.9339E-03    -15.5000E-03     19.9453E-03
             868     6.20308E-03     86.7975E-03    -10.3327E+06    -51.0238E+06    -5.02061E+06    -8.07229E+06    -15.6401E-03     31.1996E-03    -15.5595E-03     23.8187E-03    -15.6119E-03     30.9681E-03    -15.4956E-03     23.7102E-03
             869     7.08936E-03     86.8212E-03    -9.29729E+06    -53.1750E+06    -3.95866E+06    -8.64213E+06    -15.6934E-03     31.2557E-03    -15.5624E-03     27.7443E-03    -15.6590E-03     31.0111E-03    -15.4916E-03     27.6272E-03
             870     7.97543E-03     86.8485E-03    -8.30787E+06    -53.4625E+06    -3.15501E+06    -8.99676E+06    -15.7663E-03     31.3287E-03    -15.5624E-03     31.8293E-03    -15.7288E-03     31.0810E-03    -15.4886E-03     31.7061E-03
             871     8.86177E-03     86.8797E-03    -7.52558E+06    -53.3550E+06    -2.79092E+06    -9.21419E+06    -15.8611E-03     31.4229E-03    -15.5618E-03     36.0056E-03    -15.8219E-03     31.1757E-03    -15.4875E-03     35.8773E-03
             872     9.74771E-03     86.9148E-03    -6.58300E+06    -56.7998E+06    -3.12925E+06    -9.25663E+06    -15.9742E-03     31.5391E-03    -15.5649E-03     40.2312E-03    -15.9273E-03     31.2762E-03    -15.4886E-03     40.0993E-03
             873     10.6341E-03     86.9539E-03    -5.20740E+06    -55.1576E+06    -5.42018E+06    -8.92595E+06    -16.1025E-03     31.6547E-03    -15.5522E-03     44.4489E-03    -16.0517E-03     31.4053E-03    -15.4918E-03     44.3173E-03
             874     11.5198E-03     86.9965E-03    -4.39136E+06    -45.3513E+06    -3.94376E+06    -8.64034E+06    -16.2241E-03     31.7734E-03    -15.5493E-03     49.0440E-03    -16.1919E-03     31.5760E-03    -15.4969E-03     48.9108E-03
             875     12.4063E-03     87.0443E-03    -3.91607E+06    -42.9270E+06    -4.55882E+06    -8.54168E+06    -16.4440E-03     31.9930E-03    -15.5490E-03     55.8664E-03    -16.4240E-03     31.8200E-03    -15.5039E-03     55.7273E-03
             876     13.2921E-03     87.0993E-03    -3.68928E+06    -46.5838E+06    -14.5207E+06    -7.82608E+06    -16.6396E-03     32.1550E-03    -15.5154E-03     58.6436E-03    -16.6154E-03     31.9944E-03    -15.5152E-03     58.5059E-03
             877     14.1781E-03     87.1527E-03    -3.99916E+06    -27.7968E+06    -15.2275E+06    -6.12573E+06    -16.6562E-03     32.1528E-03    -15.4967E-03     62.8329E-03    -16.6893E-03     32.1173E-03    -15.5267E-03     62.7132E-03
             878     15.0643E-03     87.2148E-03    -4.18560E+06     11.1949E+06    -15.4639E+06    -3.33215E+06    -17.6457E-03     33.0915E-03    -15.4458E-03     91.2307E-03    -17.8908E-03     33.4063E-03    -15.5333E-03     91.1625E-03
             879     15.9501E-03     87.3212E-03    -5.10925E+06     81.3602E+06    -19.6505E+06    -856.779E+03    -20.9209E-03     36.2655E-03    -15.3446E-03     149.311E-03    -22.3462E-03     38.0185E-03    -15.5534E-03     149.676E-03
             880     16.8360E-03     87.4931E-03    -4.51681E+06     157.546E+06     42.1669E+06    -190.458E+03    -22.1538E-03     37.7162E-03    -15.5624E-03     190.429E-03    -25.3056E-03     41.2890E-03    -15.5735E-03     192.590E-03
             881     886.163E-06     87.7027E-03    -16.2385E+06    -44.7617E+06    -15.8009E+06    -1.68263E+06    -15.5143E-03     31.0309E-03    -15.5166E-03     3.51109E-03    -15.5077E-03     30.8536E-03    -15.5072E-03     3.48884E-03
             882     1.77228E-03     87.7073E-03    -15.5100E+06    -44.7503E+06    -13.9924E+06    -3.02124E+06    -15.5135E-03     31.0343E-03    -15.5208E-03     6.48952E-03    -15.5059E-03     30.8534E-03    -15.5034E-03     6.44954E-03
             883     2.65849E-03     87.7147E-03    -14.4247E+06    -44.9942E+06    -11.5309E+06    -4.37937E+06    -15.5184E-03     31.0457E-03    -15.5273E-03     9.69033E-03    -15.5087E-03     30.8585E-03    -15.4988E-03     9.63230E-03
             884     3.54463E-03     87.7251E-03    -13.0820E+06    -45.2130E+06    -9.06471E+06    -5.65512E+06    -15.5264E-03     31.0589E-03    -15.5326E-03     13.0115E-03    -15.5134E-03     30.8653E-03    -15.4934E-03     12.9365E-03
             885     4.43086E-03     87.7386E-03    -11.7547E+06    -46.3305E+06    -6.90543E+06    -6.79853E+06    -15.5431E-03     31.0800E-03    -15.5369E-03     16.4641E-03    -15.5252E-03     30.8759E-03    -15.4872E-03     16.3737E-03
             886     5.31700E-03     87.7553E-03    -10.5850E+06    -47.8853E+06    -5.50809E+06    -7.67205E+06    -15.5708E-03     31.1089E-03    -15.5381E-03     20.0766E-03    -15.5471E-03     30.8937E-03    -15.4809E-03     19.9742E-03
             887     6.20328E-03     87.7754E-03    -9.52546E+06    -49.0171E+06    -4.52199E+06    -8.26835E+06    -15.6076E-03     31.1446E-03    -15.5370E-03     23.8572E-03    -15.5789E-03     30.9212E-03    -15.4747E-03     23.7462E-03
             888     7.08942E-03     87.7991E-03    -8.63084E+06    -51.2859E+06    -3.48811E+06    -8.95599E+06    -15.6630E-03     31.2017E-03    -15.5387E-03     27.7978E-03    -15.6287E-03     30.9649E-03    -15.4693E-03     27.6768E-03
             889     7.97575E-03     87.8265E-03    -7.71549E+06    -52.1435E+06    -2.96351E+06    -9.38352E+06    -15.7357E-03     31.2729E-03    -15.5372E-03     31.9102E-03    -15.6974E-03     31.0307E-03    -15.4652E-03     31.7821E-03
             890     8.86181E-03     87.8577E-03    -6.78708E+06    -52.1015E+06    -2.43983E+06    -9.55417E+06    -15.8279E-03     31.3641E-03    -15.5362E-03     36.1121E-03    -15.7873E-03     31.1216E-03    -15.4630E-03     35.9795E-03
             891     9.74817E-03     87.8928E-03    -5.97538E+06    -55.6932E+06    -2.59073E+06    -9.96846E+06    -15.9400E-03     31.4795E-03    -15.5395E-03     40.3334E-03    -15.8924E-03     31.2205E-03    -15.4630E-03     40.1925E-03
             892     10.6341E-03     87.9317E-03    -5.37226E+06    -55.0343E+06    -5.53065E+06      -9.967E+06    -16.0513E-03     31.5758E-03    -15.5245E-03     44.5973E-03    -16.0012E-03     31.3274E-03    -15.4646E-03     44.4523E-03
             893     11.5206E-03     87.9749E-03    -4.62726E+06    -44.7462E+06    -3.60734E+06    -9.43776E+06    -16.2098E-03     31.7324E-03    -15.5226E-03     49.2510E-03    -16.1801E-03     31.5378E-03    -15.4690E-03     49.1076E-03
             894     12.4064E-03     88.0221E-03    -4.02425E+06    -42.2782E+06    -3.87148E+06    -9.00764E+06    -16.4896E-03     32.0164E-03    -15.5267E-03     55.9789E-03    -16.4723E-03     31.8459E-03    -15.4790E-03     55.8338E-03
             895     13.2924E-03     88.0781E-03    -4.04869E+06    -47.2776E+06    -14.2606E+06     -8.2839E+06    -16.6093E-03     32.1049E-03    -15.4956E-03     58.6696E-03    -16.5864E-03     31.9412E-03    -15.4925E-03     58.5260E-03
             896     14.1787E-03     88.1301E-03    -4.32183E+06    -29.9209E+06    -15.1713E+06    -6.90918E+06    -16.5898E-03     32.0665E-03    -15.4767E-03     62.4461E-03    -16.6210E-03     32.0202E-03    -15.5029E-03     62.3164E-03
             897     15.0647E-03     88.1937E-03    -4.49046E+06     7.36959E+06    -16.3590E+06    -4.07442E+06    -17.8122E-03     33.2403E-03    -15.4281E-03     90.9379E-03    -18.0542E-03     33.5400E-03    -15.5141E-03     90.8582E-03
             898     15.9510E-03     88.2990E-03    -4.53310E+06     79.0880E+06    -20.6240E+06    -943.362E+03    -20.0533E-03     35.3591E-03    -15.3059E-03     149.119E-03    -21.4602E-03     37.0906E-03    -15.5171E-03     149.509E-03
             899     16.8360E-03     88.4737E-03    -3.86166E+06     157.688E+06     41.7970E+06     93.6580E+03    -22.0554E-03     37.5536E-03    -15.4982E-03     190.837E-03    -25.2071E-03     41.1302E-03    -15.5122E-03     192.989E-03
             900     886.150E-06     88.6808E-03    -14.9536E+06    -41.3013E+06    -14.5913E+06    -1.76710E+06    -15.4867E-03     30.9871E-03    -15.5004E-03     3.51536E-03    -15.4804E-03     30.8235E-03    -15.4918E-03     3.49202E-03
             901     1.77236E-03     88.6852E-03    -14.2904E+06    -41.4571E+06    -12.8666E+06    -3.21375E+06    -15.4909E-03     30.9893E-03    -15.4984E-03     6.50220E-03    -15.4837E-03     30.8215E-03    -15.4819E-03     6.45974E-03
             902     2.65851E-03     88.6927E-03    -13.2428E+06    -41.7599E+06    -10.5653E+06    -4.68862E+06    -15.4922E-03     30.9956E-03    -15.5034E-03     9.70672E-03    -15.4827E-03     30.8215E-03    -15.4764E-03     9.64472E-03
             903     3.54474E-03     88.7030E-03    -11.9989E+06    -42.2361E+06    -8.18598E+06    -6.06630E+06    -15.4958E-03     31.0031E-03    -15.5073E-03     13.0324E-03    -15.4830E-03     30.8215E-03    -15.4696E-03     12.9521E-03
             904     4.43093E-03     88.7165E-03    -10.7033E+06    -43.6993E+06    -6.07932E+06    -7.12960E+06    -15.5096E-03     31.0197E-03    -15.5102E-03     16.4934E-03    -15.4915E-03     30.8261E-03    -15.4617E-03     16.3987E-03
             905     5.31720E-03     88.7332E-03    -9.55896E+06    -45.7040E+06    -4.66609E+06    -7.89653E+06    -15.5340E-03     31.0445E-03    -15.5105E-03     20.1129E-03    -15.5096E-03     30.8374E-03    -15.4537E-03     20.0076E-03
             906     6.20339E-03     88.7533E-03    -8.59119E+06    -47.0568E+06    -3.91330E+06    -8.53215E+06    -15.5675E-03     31.0743E-03    -15.5069E-03     23.9087E-03    -15.5378E-03     30.8585E-03    -15.4457E-03     23.7944E-03
             907     7.08973E-03     88.7770E-03    -7.66565E+06    -49.2173E+06    -2.86873E+06    -9.15737E+06    -15.6253E-03     31.1322E-03    -15.5069E-03     27.8754E-03    -15.5901E-03     30.9034E-03    -15.4388E-03     27.7518E-03
             908     7.97587E-03     88.8043E-03    -6.90694E+06    -50.7410E+06    -2.30797E+06    -9.66336E+06    -15.6956E-03     31.2011E-03    -15.5056E-03     32.0046E-03    -15.6561E-03     30.9638E-03    -15.4335E-03     31.8729E-03
             909     8.86224E-03     88.8356E-03    -6.21799E+06    -50.8250E+06    -1.92766E+06    -9.90683E+06    -15.7763E-03     31.2790E-03    -15.5028E-03     36.2405E-03    -15.7354E-03     31.0412E-03    -15.4297E-03     36.1035E-03
             910     9.74834E-03     88.8707E-03    -5.70345E+06    -54.2520E+06    -1.99688E+06    -10.1675E+06    -15.9039E-03     31.4094E-03    -15.5055E-03     40.4785E-03    -15.8579E-03     31.1563E-03    -15.4285E-03     40.3351E-03
             911     10.6347E-03     88.9098E-03    -5.31030E+06    -54.3097E+06    -5.31593E+06    -10.5177E+06    -16.0531E-03     31.5443E-03    -15.4913E-03     44.6959E-03    -16.0041E-03     31.2991E-03    -15.4314E-03     44.5439E-03
             912     11.5207E-03     88.9525E-03    -4.71241E+06    -44.5722E+06    -3.80244E+06    -10.2498E+06    -16.1829E-03     31.6726E-03    -15.4897E-03     49.4253E-03    -16.1535E-03     31.4793E-03    -15.4373E-03     49.2715E-03
             913     12.4068E-03     89.0009E-03    -4.38824E+06    -42.2222E+06    -3.93086E+06    -9.38516E+06    -16.4785E-03     31.9742E-03    -15.4957E-03     56.2628E-03    -16.4630E-03     31.8046E-03    -15.4477E-03     56.1129E-03
             914     13.2929E-03     89.0556E-03    -4.79295E+06    -48.3624E+06    -14.6620E+06    -8.09298E+06    -16.6601E-03     32.1282E-03    -15.4681E-03     58.8250E-03    -16.6388E-03     31.9607E-03    -15.4643E-03     58.6838E-03
             915     14.1784E-03     89.1092E-03    -5.41447E+06    -31.2179E+06    -15.8293E+06    -7.03287E+06    -16.9674E-03     32.4307E-03    -15.4632E-03     62.6544E-03    -17.0024E-03     32.3815E-03    -15.4893E-03     62.5216E-03
             916     15.0646E-03     89.1708E-03    -5.72217E+06     4.96918E+06    -17.2611E+06    -5.69483E+06    -18.3679E-03     33.8115E-03    -15.4436E-03     90.9204E-03    -18.6147E-03     34.1057E-03    -15.5288E-03     90.8174E-03
             917     15.9490E-03     89.2797E-03    -4.75637E+06     74.8510E+06    -23.2771E+06    -2.53058E+06    -19.5825E-03     34.9059E-03    -15.3233E-03     145.865E-03    -20.9416E-03     36.5812E-03    -15.5414E-03     146.244E-03
             918     16.8406E-03     89.4455E-03    -2.87211E+06     156.778E+06     40.8060E+06     467.911E+03    -21.5693E-03     37.0667E-03    -15.4974E-03     190.961E-03    -24.7488E-03     40.6743E-03    -15.5166E-03     193.149E-03
             919     886.210E-06     89.6587E-03    -13.6418E+06    -37.6223E+06    -13.3204E+06    -1.88084E+06    -15.4592E-03     30.9231E-03    -15.4639E-03     3.52185E-03    -15.4536E-03     30.7742E-03    -15.4562E-03     3.49706E-03
             920     1.77238E-03     89.6632E-03    -12.9941E+06    -37.8566E+06    -11.7142E+06    -3.45202E+06    -15.4584E-03     30.9240E-03    -15.4656E-03     6.51121E-03    -15.4516E-03     30.7707E-03    -15.4505E-03     6.46569E-03
             921     2.65862E-03     89.6705E-03    -11.9908E+06    -38.3273E+06    -9.50131E+06    -5.03140E+06    -15.4540E-03     30.9234E-03    -15.4694E-03     9.72423E-03    -15.4448E-03     30.7631E-03    -15.4439E-03     9.65783E-03
             922     3.54484E-03     89.6809E-03    -10.8666E+06    -39.1604E+06    -7.19015E+06    -6.36577E+06    -15.4549E-03     30.9268E-03    -15.4719E-03     13.0587E-03    -15.4423E-03     30.7575E-03    -15.4353E-03     12.9745E-03
             923     4.43111E-03     89.6944E-03    -9.74897E+06    -41.0765E+06    -5.22574E+06    -7.44546E+06    -15.4650E-03     30.9383E-03    -15.4733E-03     16.5292E-03    -15.4471E-03     30.7552E-03    -15.4258E-03     16.4305E-03
             924     5.31735E-03     89.7110E-03    -8.59762E+06    -43.5575E+06    -3.93623E+06    -8.19758E+06    -15.4848E-03     30.9565E-03    -15.4718E-03     20.1597E-03    -15.4597E-03     30.7578E-03    -15.4158E-03     20.0506E-03
             925     6.20369E-03     89.7311E-03    -7.58422E+06    -45.0425E+06    -3.20230E+06    -8.77063E+06    -15.5186E-03     30.9850E-03    -15.4663E-03     23.9760E-03    -15.4879E-03     30.7767E-03    -15.4061E-03     23.8587E-03
             926     7.08993E-03     89.7548E-03    -6.84453E+06    -47.2945E+06    -2.29633E+06    -9.32386E+06    -15.5699E-03     31.0342E-03    -15.4644E-03     27.9715E-03    -15.5341E-03     30.8129E-03    -15.3973E-03     27.8459E-03
             927     7.97631E-03     89.7822E-03    -6.22267E+06    -49.1828E+06    -1.59700E+06    -9.72100E+06    -15.6386E-03     31.1012E-03    -15.4626E-03     32.1204E-03    -15.5991E-03     30.8696E-03    -15.3902E-03     31.9881E-03
             928     8.86251E-03     89.8133E-03    -5.75555E+06    -49.4998E+06    -1.42503E+06    -9.99362E+06    -15.7203E-03     31.1781E-03    -15.4578E-03     36.3795E-03    -15.6797E-03     30.9455E-03    -15.3848E-03     36.2415E-03
             929     9.74893E-03     89.8486E-03    -5.21452E+06    -52.8140E+06    -1.51498E+06    -10.3198E+06    -15.8647E-03     31.3243E-03    -15.4597E-03     40.6789E-03    -15.8189E-03     31.0770E-03    -15.3831E-03     40.5337E-03
             930     10.6350E-03     89.8876E-03    -4.86367E+06    -52.9614E+06    -4.96351E+06    -10.7210E+06    -16.0561E-03     31.5029E-03    -15.4468E-03     44.9665E-03    -16.0073E-03     31.2632E-03    -15.3878E-03     44.8119E-03
             931     11.5211E-03     89.9309E-03    -4.71422E+06    -44.6882E+06    -4.21434E+06    -10.6131E+06    -16.1747E-03     31.6216E-03    -15.4469E-03     49.6782E-03    -16.1445E-03     31.4282E-03    -15.3963E-03     49.5199E-03
             932     12.4076E-03     89.9782E-03    -4.51010E+06    -43.3200E+06    -4.16433E+06    -9.60298E+06    -16.4300E-03     31.8856E-03    -15.4557E-03     56.5912E-03    -16.4129E-03     31.7109E-03    -15.4071E-03     56.4388E-03
             933     13.2932E-03     90.0350E-03    -4.82068E+06    -48.8670E+06    -14.4935E+06    -8.11072E+06    -16.7894E-03     32.2231E-03    -15.4337E-03     59.0191E-03    -16.7677E-03     32.0528E-03    -15.4283E-03     58.8775E-03
             934     14.1797E-03     90.0862E-03    -5.50300E+06    -31.5198E+06    -15.7189E+06    -6.82684E+06    -17.2712E-03     32.7141E-03    -15.4429E-03     63.5062E-03    -17.3077E-03     32.6648E-03    -15.4678E-03     63.3751E-03
             935     15.0633E-03     90.1527E-03    -6.03961E+06     3.71125E+06    -16.7537E+06    -6.12515E+06    -18.3225E-03     33.7560E-03    -15.4335E-03     92.3435E-03    -18.5700E-03     34.0438E-03    -15.5139E-03     92.2366E-03
             936     15.9495E-03     90.2561E-03    -6.62937E+06     71.0134E+06    -25.3220E+06    -4.23960E+06    -21.0434E-03     36.3866E-03    -15.3431E-03     146.352E-03    -22.4181E-03     38.0632E-03    -15.5631E-03     146.660E-03
             937     16.8318E-03     90.4225E-03    -4.31346E+06     154.149E+06     38.0763E+06    -700.842E+03    -21.7113E-03     37.2647E-03    -15.5534E-03     190.847E-03    -24.9031E-03     40.8781E-03    -15.5803E-03     193.050E-03
             938     886.218E-06     90.6366E-03    -12.6273E+06    -33.6644E+06    -12.2965E+06    -2.00632E+06    -15.4217E-03     30.8331E-03    -15.4114E-03     3.52914E-03    -15.4182E-03     30.7010E-03    -15.4057E-03     3.50274E-03
             939     1.77248E-03     90.6410E-03    -11.9309E+06    -33.9753E+06    -10.7130E+06    -3.70335E+06    -15.4077E-03     30.8271E-03    -15.4194E-03     6.52458E-03    -15.4027E-03     30.6901E-03    -15.4064E-03     6.47584E-03
             940     2.65872E-03     90.6484E-03    -10.9906E+06    -34.7575E+06    -8.51342E+06    -5.31379E+06    -15.4010E-03     30.8225E-03    -15.4215E-03     9.74687E-03    -15.3934E-03     30.6772E-03    -15.3977E-03     9.67686E-03
             941     3.54502E-03     90.6587E-03    -9.89852E+06    -36.1024E+06    -6.24676E+06    -6.60172E+06    -15.3992E-03     30.8220E-03    -15.4228E-03     13.0913E-03    -15.3876E-03     30.6652E-03    -15.3874E-03     13.0041E-03
             942     4.43131E-03     90.6721E-03    -8.80928E+06    -38.3529E+06    -4.36574E+06    -7.63180E+06    -15.4049E-03     30.8274E-03    -15.4225E-03     16.5737E-03    -15.3876E-03     30.6553E-03    -15.3759E-03     16.4727E-03
             943     5.31765E-03     90.6888E-03    -7.80764E+06    -41.3055E+06    -3.25645E+06    -8.50756E+06    -15.4228E-03     30.8419E-03    -15.4190E-03     20.2210E-03    -15.3981E-03     30.6522E-03    -15.3641E-03     20.1079E-03
             944     6.20397E-03     90.7088E-03    -6.91898E+06    -43.2254E+06    -2.72481E+06    -8.98681E+06    -15.4510E-03     30.8625E-03    -15.4115E-03     24.0656E-03    -15.4203E-03     30.6616E-03    -15.3524E-03     23.9456E-03
             945     7.09038E-03     90.7325E-03    -6.23348E+06    -45.4695E+06    -1.80919E+06    -9.33629E+06    -15.4952E-03     30.9025E-03    -15.4073E-03     28.0840E-03    -15.4597E-03     30.6887E-03    -15.3414E-03     27.9583E-03
             946     7.97670E-03     90.7598E-03    -5.72145E+06    -47.7421E+06    -1.10047E+06    -9.68515E+06    -15.5615E-03     30.9653E-03    -15.4038E-03     32.2713E-03    -15.5221E-03     30.7394E-03    -15.3318E-03     32.1396E-03
             947     8.86312E-03     90.7912E-03    -5.18336E+06    -47.9295E+06    -795.263E+03    -10.0010E+06    -15.6567E-03     31.0547E-03    -15.3980E-03     36.5689E-03    -15.6164E-03     30.8281E-03    -15.3250E-03     36.4310E-03
             948     9.74938E-03     90.8262E-03    -4.67681E+06    -51.2584E+06    -757.416E+03    -10.5209E+06    -15.7993E-03     31.1991E-03    -15.3997E-03     40.9682E-03    -15.7542E-03     30.9575E-03    -15.3224E-03     40.8206E-03
             949     10.6357E-03     90.8657E-03    -4.31333E+06    -51.6666E+06    -4.00628E+06    -10.8113E+06    -15.9779E-03     31.3647E-03    -15.3868E-03     45.3198E-03    -15.9295E-03     31.1292E-03    -15.3257E-03     45.1644E-03
             950     11.5220E-03     90.9084E-03    -4.26129E+06    -44.1233E+06    -3.17454E+06    -10.5755E+06    -16.1934E-03     31.5836E-03    -15.3902E-03     50.0686E-03    -16.1634E-03     31.3910E-03    -15.3359E-03     49.9109E-03
             951     12.4076E-03     90.9568E-03    -4.06602E+06    -44.3412E+06    -3.37378E+06    -9.76838E+06    -16.4845E-03     31.8907E-03    -15.4061E-03     56.9604E-03    -16.4649E-03     31.7090E-03    -15.3528E-03     56.8059E-03
             952     13.2943E-03     91.0122E-03    -3.78865E+06    -50.1320E+06    -13.8853E+06    -8.53481E+06    -16.8773E-03     32.2670E-03    -15.3897E-03     59.7938E-03    -16.8499E-03     32.0884E-03    -15.3809E-03     59.6466E-03
             953     14.1785E-03     91.0665E-03    -4.03781E+06    -31.6747E+06    -14.2162E+06    -6.95261E+06    -16.9652E-03     32.3610E-03    -15.3958E-03     64.3350E-03    -16.9958E-03     32.3061E-03    -15.4151E-03     64.2038E-03
             954     15.0663E-03     91.1296E-03    -4.66922E+06     2.85527E+06    -14.7544E+06    -5.72080E+06    -17.8666E-03     33.2354E-03    -15.3688E-03     92.9503E-03    -18.1059E-03     33.5111E-03    -15.4400E-03     92.8504E-03
             955     15.9523E-03     91.2362E-03    -5.77312E+06     68.3598E+06    -23.3625E+06    -4.21345E+06    -21.6135E-03     36.8924E-03    -15.2789E-03     150.086E-03    -23.0295E-03     38.5983E-03    -15.4865E-03     150.387E-03
             956     16.8349E-03     91.4084E-03    -4.87631E+06     151.665E+06     38.7471E+06    -1.88494E+06    -22.3191E-03     37.8308E-03    -15.5117E-03     190.709E-03    -25.4683E-03     41.3889E-03    -15.5308E-03     192.849E-03
             957     886.288E-06     91.6144E-03    -11.5348E+06    -29.4682E+06    -11.2619E+06    -2.14091E+06    -15.3515E-03     30.7033E-03    -15.3519E-03     3.53423E-03    -15.3501E-03     30.5891E-03    -15.3487E-03     3.50610E-03
             958     1.77258E-03     91.6188E-03    -10.9291E+06    -29.9307E+06    -9.62225E+06    -3.86740E+06    -15.3400E-03     30.6943E-03    -15.3544E-03     6.54317E-03    -15.3373E-03     30.5745E-03    -15.3432E-03     6.49234E-03
             959     2.65890E-03     91.6262E-03    -10.0553E+06    -31.1548E+06    -7.43468E+06    -5.42780E+06    -15.3314E-03     30.6874E-03    -15.3560E-03     9.77535E-03    -15.3259E-03     30.5572E-03    -15.3335E-03     9.70391E-03
             960     3.54524E-03     91.6364E-03    -9.07856E+06    -32.9892E+06    -5.30134E+06    -6.73423E+06    -15.3251E-03     30.6813E-03    -15.3562E-03     13.1316E-03    -15.3153E-03     30.5375E-03    -15.3217E-03     13.0428E-03
             961     4.43161E-03     91.6498E-03    -8.02729E+06    -35.6333E+06    -3.60752E+06    -7.78790E+06    -15.3261E-03     30.6797E-03    -15.3536E-03     16.6293E-03    -15.3099E-03     30.5189E-03    -15.3083E-03     16.5263E-03
             962     5.31800E-03     91.6664E-03    -7.13511E+06    -38.9675E+06    -2.51739E+06    -8.55588E+06    -15.3398E-03     30.6885E-03    -15.3486E-03     20.3019E-03    -15.3162E-03     30.5085E-03    -15.2944E-03     20.1884E-03
             963     6.20443E-03     91.6865E-03    -6.49489E+06    -41.5134E+06    -2.17287E+06    -9.05701E+06    -15.3603E-03     30.6993E-03    -15.3390E-03     24.1704E-03    -15.3306E-03     30.5055E-03    -15.2803E-03     24.0496E-03
             964     7.09087E-03     91.7100E-03    -5.90501E+06    -43.8457E+06    -1.53623E+06    -9.33262E+06    -15.3973E-03     30.7281E-03    -15.3308E-03     28.2314E-03    -15.3629E-03     30.5216E-03    -15.2664E-03     28.1060E-03
             965     7.97734E-03     91.7375E-03    -5.40674E+06    -46.2827E+06    -588.053E+03    -9.57163E+06    -15.4614E-03     30.7874E-03    -15.3260E-03     32.4578E-03    -15.4233E-03     30.5675E-03    -15.2540E-03     32.3278E-03
             966     8.86378E-03     91.7686E-03    -5.05805E+06    -46.3730E+06    -141.504E+03    -9.92917E+06    -15.5608E-03     30.8796E-03    -15.3188E-03     36.8394E-03    -15.5230E-03     30.6596E-03    -15.2449E-03     36.7027E-03
             967     9.75022E-03     91.8040E-03    -4.80410E+06    -49.3591E+06     81.1648E+03    -10.4786E+06    -15.6932E-03     31.0124E-03    -15.3192E-03     41.2691E-03    -15.6525E-03     30.7792E-03    -15.2403E-03     41.1224E-03
             968     10.6366E-03     91.8431E-03    -4.54869E+06    -50.5081E+06    -3.00228E+06    -10.8979E+06    -15.8974E-03     31.2045E-03    -15.3071E-03     45.7205E-03    -15.8532E-03     30.9736E-03    -15.2423E-03     45.5643E-03
             969     11.5227E-03     91.8867E-03    -4.26868E+06    -43.5846E+06    -2.29706E+06    -10.8142E+06    -16.1261E-03     31.4367E-03    -15.3106E-03     50.5445E-03    -16.0979E-03     31.2453E-03    -15.2527E-03     50.3840E-03
             970     12.4093E-03     91.9345E-03    -3.70514E+06    -44.3874E+06    -2.36443E+06    -10.2048E+06    -16.4960E-03     31.8263E-03    -15.3303E-03     57.6013E-03    -16.4762E-03     31.6426E-03    -15.2724E-03     57.4412E-03
             971     13.2944E-03     91.9910E-03    -3.21092E+06    -52.1005E+06    -13.6599E+06    -8.86812E+06    -16.7258E-03     32.0374E-03    -15.3116E-03     60.7575E-03    -16.6931E-03     31.8479E-03    -15.2997E-03     60.6068E-03
             972     14.1817E-03     92.0445E-03    -3.56307E+06    -32.8641E+06    -13.6356E+06    -7.27681E+06    -16.8638E-03     32.1780E-03    -15.3142E-03     64.6153E-03    -16.8907E-03     32.1152E-03    -15.3296E-03     64.4803E-03
             973     15.0666E-03     92.1074E-03    -3.82006E+06     2.47292E+06    -12.3298E+06    -5.94139E+06    -17.9990E-03     33.2993E-03    -15.3003E-03     92.7906E-03    -18.2384E-03     33.5696E-03    -15.3599E-03     92.6866E-03
             974     15.9518E-03     92.2156E-03    -4.42933E+06     65.6393E+06    -20.8150E+06    -3.93317E+06    -20.4684E-03     35.6578E-03    -15.1895E-03     150.752E-03    -21.8779E-03     37.3450E-03    -15.3823E-03     151.105E-03
             975     16.8406E-03     92.3876E-03    -4.12088E+06     149.413E+06     40.0909E+06    -1.91510E+06    -22.5703E-03     37.9698E-03    -15.3995E-03     188.729E-03    -25.6510E-03     41.4500E-03    -15.4097E-03     190.801E-03
             976     886.357E-06     92.5920E-03    -10.4647E+06    -25.2579E+06    -10.0747E+06    -2.14368E+06    -15.2478E-03     30.5260E-03    -15.2782E-03     3.53767E-03    -15.2489E-03     30.4295E-03    -15.2768E-03     3.50953E-03
             977     1.77273E-03     92.5965E-03    -10.0391E+06    -25.9273E+06    -8.57220E+06    -3.78237E+06    -15.2501E-03     30.5160E-03    -15.2658E-03     6.56449E-03    -15.2504E-03     30.4134E-03    -15.2565E-03     6.51479E-03
             978     2.65912E-03     92.6037E-03    -9.36721E+06    -27.5720E+06    -6.43347E+06    -5.32861E+06    -15.2391E-03     30.5068E-03    -15.2677E-03     9.80945E-03    -15.2368E-03     30.3920E-03    -15.2463E-03     9.73934E-03
             979     3.54554E-03     92.6140E-03    -8.51193E+06    -29.8151E+06    -4.41003E+06    -6.64506E+06    -15.2275E-03     30.4944E-03    -15.2669E-03     13.1805E-03    -15.2207E-03     30.3643E-03    -15.2334E-03     13.0929E-03
             980     4.43200E-03     92.6273E-03    -7.70601E+06    -32.9071E+06    -2.87093E+06    -7.71980E+06    -15.2228E-03     30.4855E-03    -15.2627E-03     16.7011E-03    -15.2099E-03     30.3368E-03    -15.2182E-03     16.5991E-03
             981     5.31849E-03     92.6439E-03    -6.94600E+06    -36.7700E+06    -1.97860E+06    -8.46602E+06    -15.2270E-03     30.4821E-03    -15.2552E-03     20.3983E-03    -15.2063E-03     30.3120E-03    -15.2017E-03     20.2861E-03
             982     6.20501E-03     92.6639E-03    -6.31537E+06    -39.7201E+06    -1.64496E+06    -8.89779E+06    -15.2426E-03     30.4856E-03    -15.2431E-03     24.2995E-03    -15.2154E-03     30.2998E-03    -15.1845E-03     24.1809E-03
             983     7.09156E-03     92.6875E-03    -5.91038E+06    -42.3139E+06    -1.18106E+06    -9.22864E+06    -15.2713E-03     30.5028E-03    -15.2315E-03     28.4006E-03    -15.2396E-03     30.3033E-03    -15.1675E-03     28.2767E-03
             984     7.97815E-03     92.7148E-03    -5.52998E+06    -44.9432E+06    -190.098E+03    -9.39077E+06    -15.3338E-03     30.5581E-03    -15.2242E-03     32.6905E-03    -15.2988E-03     30.3444E-03    -15.1520E-03     32.5631E-03
             985     8.86470E-03     92.7461E-03    -5.28899E+06    -44.9058E+06     514.663E+03    -9.59011E+06    -15.4274E-03     30.6427E-03    -15.2153E-03     37.1329E-03    -15.3937E-03     30.4293E-03    -15.1399E-03     37.0009E-03
             986     9.75128E-03     92.7813E-03    -5.18403E+06    -47.5341E+06     934.683E+03    -10.0686E+06    -15.5792E-03     30.7937E-03    -15.2146E-03     41.6061E-03    -15.5441E-03     30.5688E-03    -15.1335E-03     41.4650E-03
             987     10.6377E-03     92.8208E-03    -5.33809E+06    -49.2474E+06    -2.28355E+06    -10.7175E+06    -15.8048E-03     31.0080E-03    -15.2032E-03     46.1833E-03    -15.7672E-03     30.7833E-03    -15.1355E-03     46.0297E-03
             988     11.5242E-03     92.8642E-03    -5.07883E+06    -42.8402E+06    -1.92934E+06    -11.2968E+06    -16.0250E-03     31.2312E-03    -15.2061E-03     51.0092E-03    -16.0024E-03     31.0440E-03    -15.1463E-03     50.8429E-03
             989     12.4100E-03     92.9125E-03    -4.11649E+06    -44.4332E+06    -1.78111E+06    -10.9535E+06    -16.3669E-03     31.5932E-03    -15.2262E-03     58.1472E-03    -16.3498E-03     31.4089E-03    -15.1647E-03     57.9780E-03
             990     13.2970E-03     92.9691E-03    -3.99971E+06    -53.3252E+06    -13.6831E+06    -9.30715E+06    -16.7896E-03     32.0005E-03    -15.2109E-03     60.9295E-03    -16.7587E-03     31.8058E-03    -15.1962E-03     60.7732E-03
             991     14.1819E-03     93.0221E-03    -4.25362E+06    -33.3771E+06    -13.0890E+06    -7.91758E+06    -17.2265E-03     32.4612E-03    -15.2347E-03     64.6367E-03    -17.2578E-03     32.3969E-03    -15.2456E-03     64.4923E-03
             992     15.0676E-03     93.0876E-03    -3.58774E+06     1.01954E+06    -10.7190E+06    -6.79323E+06    -18.2960E-03     33.5473E-03    -15.2513E-03     92.4244E-03    -18.5355E-03     33.8088E-03    -15.3012E-03     92.3087E-03
             993     15.9546E-03     93.1921E-03    -3.23153E+06     62.5479E+06    -19.1489E+06    -3.90173E+06    -20.2295E-03     35.3799E-03    -15.1504E-03     149.225E-03    -21.6083E-03     37.0249E-03    -15.3322E-03     149.581E-03
             994     16.8393E-03     93.3662E-03    -3.81729E+06     147.371E+06     40.7947E+06    -1.35299E+06    -22.7859E-03     38.1429E-03    -15.3571E-03     189.933E-03    -25.9017E-03     41.6501E-03    -15.3612E-03     192.025E-03
             995     886.455E-06     93.5695E-03    -10.1682E+06    -21.3590E+06    -9.67699E+06    -1.89135E+06    -15.1230E-03     30.2872E-03    -15.1642E-03     3.55480E-03    -15.1288E-03     30.2092E-03    -15.1668E-03     3.52994E-03
             996     1.77293E-03     93.5739E-03    -9.91198E+06    -22.1793E+06    -8.01632E+06    -3.41435E+06    -15.1304E-03     30.2785E-03    -15.1481E-03     6.59221E-03    -15.1362E-03     30.1937E-03    -15.1417E-03     6.54731E-03
             997     2.65942E-03     93.5812E-03    -9.27687E+06    -24.0353E+06     -5.7678E+06    -4.96302E+06    -15.1154E-03     30.2660E-03    -15.1506E-03     9.84995E-03    -15.1188E-03     30.1678E-03    -15.1311E-03     9.78463E-03
             998     3.54596E-03     93.5914E-03    -8.54293E+06    -26.7731E+06    -3.61767E+06    -6.26118E+06    -15.0998E-03     30.2498E-03    -15.1500E-03     13.2409E-03    -15.0987E-03     30.1339E-03    -15.1169E-03     13.1584E-03
             999     4.43252E-03     93.6047E-03    -7.86077E+06    -30.2203E+06    -2.12228E+06    -7.26911E+06    -15.0874E-03     30.2318E-03    -15.1444E-03     16.7839E-03    -15.0803E-03     30.0956E-03    -15.0998E-03     16.6878E-03
            1000     5.31912E-03     93.6212E-03    -7.30982E+06    -34.4703E+06    -1.47928E+06    -8.15262E+06    -15.0839E-03     30.2177E-03    -15.1338E-03     20.5096E-03    -15.0691E-03     30.0589E-03    -15.0806E-03     20.4016E-03
            1001     6.20577E-03     93.6411E-03    -6.88115E+06    -38.1615E+06    -1.43079E+06    -8.57485E+06    -15.0899E-03     30.2084E-03    -15.1185E-03     24.4482E-03    -15.0681E-03     30.0308E-03    -15.0603E-03     24.3339E-03
            1002     7.09246E-03     93.6646E-03    -6.56840E+06    -40.5790E+06    -980.184E+03    -8.85440E+06    -15.1158E-03     30.2192E-03    -15.1034E-03     28.5960E-03    -15.0901E-03     30.0290E-03    -15.0400E-03     28.4772E-03
            1003     7.97917E-03     93.6919E-03    -6.32361E+06    -43.8430E+06    -95.4407E+03    -9.10275E+06    -15.1766E-03     30.2704E-03    -15.0938E-03     32.9509E-03    -15.1471E-03     30.0631E-03    -15.0215E-03     32.8275E-03
            1004     8.86590E-03     93.7232E-03    -6.03396E+06    -43.5761E+06     776.911E+03    -9.13650E+06    -15.2684E-03     30.3510E-03    -15.0826E-03     37.4506E-03    -15.2406E-03     30.1448E-03    -15.0068E-03     37.3248E-03
            1005     9.75255E-03     93.7586E-03    -5.83079E+06    -45.9176E+06     1.38384E+06    -9.59585E+06    -15.4601E-03     30.5416E-03    -15.0815E-03     42.0408E-03    -15.4312E-03     30.3249E-03    -14.9995E-03     41.9062E-03
            1006     10.6392E-03     93.7980E-03    -5.66645E+06    -47.3407E+06    -1.00526E+06    -10.3783E+06    -15.7119E-03     30.7873E-03    -15.0754E-03     46.6273E-03    -15.6805E-03     30.5706E-03    -15.0036E-03     46.4786E-03
            1007     11.5254E-03     93.8418E-03    -5.57891E+06    -41.0138E+06    -642.179E+03    -11.3435E+06    -15.9728E-03     31.0557E-03    -15.0829E-03     51.4620E-03    -15.9571E-03     30.8765E-03    -15.0186E-03     51.2954E-03
            1008     12.4122E-03     93.8901E-03    -5.44930E+06    -44.9821E+06    -1.51988E+06    -11.3453E+06    -16.4572E-03     31.5698E-03    -15.1126E-03     58.4384E-03    -16.4462E-03     31.3842E-03    -15.0471E-03     58.2642E-03
            1009     13.2976E-03     93.9469E-03    -5.34386E+06    -54.7348E+06    -13.9736E+06    -10.0223E+06    -17.0421E-03     32.1567E-03    -15.1146E-03     61.3765E-03    -17.0158E-03     31.9577E-03    -15.0973E-03     61.2105E-03
            1010     14.1831E-03     94.0017E-03    -5.02695E+06    -33.4370E+06    -12.6738E+06    -8.69493E+06    -17.4615E-03     32.6213E-03    -15.1598E-03     65.2619E-03    -17.4979E-03     32.5579E-03    -15.1674E-03     65.1069E-03
            1011     15.0686E-03     94.0651E-03    -5.02080E+06    -519.459E+03    -10.3784E+06    -7.65269E+06    -18.8172E-03     34.0223E-03    -15.2051E-03     92.7434E-03    -19.0645E-03     34.2801E-03    -15.2489E-03     92.6130E-03
            1012     15.9521E-03     94.1723E-03    -5.17544E+06     57.3803E+06    -19.7586E+06    -4.90347E+06    -21.1801E-03     36.3325E-03    -15.1525E-03     147.612E-03    -22.5466E-03     37.9417E-03    -15.3270E-03     147.925E-03
            1013     16.8406E-03     94.3412E-03    -3.29738E+06     145.073E+06     41.5021E+06    -1.01636E+06    -22.7019E-03     38.0858E-03    -15.3840E-03     190.815E-03    -25.8653E-03     41.6323E-03    -15.3820E-03     192.948E-03
            1014     886.601E-06     94.5467E-03    -11.3178E+06    -18.0274E+06    -10.5172E+06    -1.54113E+06    -14.9750E-03     29.9741E-03    -14.9991E-03     3.57830E-03    -14.9902E-03     29.9157E-03    -15.0092E-03     3.55799E-03
            1015     1.77319E-03     94.5512E-03    -10.7508E+06    -18.8548E+06    -8.34284E+06    -2.84824E+06    -14.9738E-03     29.9685E-03    -14.9947E-03     6.62365E-03    -14.9882E-03     29.9020E-03    -14.9935E-03     6.58610E-03
            1016     2.65982E-03     94.5583E-03    -10.1422E+06    -20.7623E+06    -5.60072E+06    -4.25693E+06    -14.9540E-03     29.9532E-03    -14.9992E-03     9.89780E-03    -14.9667E-03     29.8724E-03    -14.9824E-03     9.84168E-03
            1017     3.54648E-03     94.5685E-03    -9.45102E+06    -23.9402E+06    -3.14164E+06    -5.49227E+06    -14.9337E-03     29.9331E-03    -14.9994E-03     13.3103E-03    -14.9420E-03     29.8320E-03    -14.9667E-03     13.2378E-03
            1018     4.43319E-03     94.5817E-03    -8.80254E+06    -27.6678E+06    -1.62616E+06    -6.51645E+06    -14.9150E-03     29.9072E-03    -14.9923E-03     16.8789E-03    -14.9170E-03     29.7845E-03    -14.9475E-03     16.7927E-03
            1019     5.31994E-03     94.5982E-03    -8.36280E+06    -32.1492E+06    -1.04205E+06    -7.37209E+06    -14.9045E-03     29.8839E-03    -14.9793E-03     20.6374E-03    -14.8989E-03     29.7375E-03    -14.9258E-03     20.5396E-03
            1020     6.20674E-03     94.6180E-03    -8.12012E+06    -36.5996E+06    -1.21577E+06    -7.94946E+06    -14.9043E-03     29.8656E-03    -14.9613E-03     24.6115E-03    -14.8911E-03     29.6973E-03    -14.9026E-03     24.5056E-03
            1021     7.09360E-03     94.6415E-03    -8.00950E+06    -39.0673E+06    -1.23839E+06    -8.18406E+06    -14.9262E-03     29.8676E-03    -14.9414E-03     28.8264E-03    -14.9095E-03     29.6873E-03    -14.8793E-03     28.7165E-03
            1022     7.98047E-03     94.6687E-03    -7.92930E+06    -42.3553E+06    -354.807E+03    -8.54909E+06    -14.9873E-03     29.9167E-03    -14.9294E-03     33.2394E-03    -14.9675E-03     29.7194E-03    -14.8582E-03     33.1235E-03
            1023     8.86732E-03     94.7000E-03    -7.64980E+06    -42.6247E+06     356.251E+03    -8.81285E+06    -15.1010E-03     30.0180E-03    -14.9170E-03     37.8268E-03    -15.0819E-03     29.8193E-03    -14.8423E-03     37.7056E-03
            1024     9.75422E-03     94.7355E-03    -7.20055E+06    -43.9972E+06     1.44910E+06    -9.19985E+06    -15.3195E-03     30.2369E-03    -14.9175E-03     42.5479E-03    -15.3001E-03     30.0316E-03    -14.8360E-03     42.4188E-03
            1025     10.6407E-03     94.7753E-03    -6.91058E+06    -45.4803E+06    -214.306E+03    -10.0466E+06    -15.6094E-03     30.5276E-03    -14.9182E-03     47.1845E-03    -15.5879E-03     30.3207E-03    -14.8433E-03     47.0405E-03
            1026     11.5274E-03     94.8190E-03    -6.66417E+06    -38.9194E+06     443.301E+03    -10.9557E+06    -16.0291E-03     30.9656E-03    -14.9365E-03     52.1679E-03    -16.0234E-03     30.7968E-03    -14.8682E-03     52.0066E-03
            1027     12.4132E-03     94.8679E-03    -6.52461E+06    -44.6929E+06    -892.772E+03    -11.4683E+06    -16.6504E-03     31.6355E-03    -14.9851E-03     59.2464E-03    -16.6464E-03     31.4523E-03    -14.9153E-03     59.0704E-03
            1028     13.2991E-03     94.9253E-03    -6.16642E+06    -56.0165E+06    -14.2796E+06    -10.5959E+06    -17.1855E-03     32.1884E-03    -15.0029E-03     62.4245E-03    -17.1615E-03     31.9851E-03    -14.9841E-03     62.2511E-03
            1029     14.1848E-03     94.9798E-03    -5.99969E+06    -33.6219E+06    -12.4884E+06    -9.52194E+06    -17.7182E-03     32.7852E-03    -15.0670E-03     66.1620E-03    -17.7602E-03     32.7228E-03    -15.0720E-03     65.9957E-03
            1030     15.0694E-03     95.0452E-03    -6.12873E+06    -1.92631E+06    -9.47857E+06    -8.24371E+06    -19.3171E-03     34.4603E-03    -15.1432E-03     93.8631E-03    -19.5726E-03     34.7147E-03    -15.1790E-03     93.7219E-03
            1031     15.9549E-03     95.1521E-03    -6.08945E+06     53.8833E+06    -19.2086E+06    -5.42312E+06    -22.1698E-03     37.3031E-03    -15.1333E-03     148.702E-03    -23.5511E-03     38.9097E-03    -15.2986E-03     148.985E-03
            1032     16.8353E-03     95.3209E-03    -4.37402E+06     141.798E+06     40.8273E+06    -1.83141E+06    -22.8177E-03     38.2044E-03    -15.3867E-03     191.571E-03    -26.0035E-03     41.7597E-03    -15.3819E-03     193.712E-03
            1033     886.744E-06     95.5237E-03    -13.1297E+06    -15.3405E+06    -12.4516E+06    -1.22192E+06    -14.7900E-03     29.5855E-03    -14.7955E-03     3.60561E-03    -14.8154E-03     29.5460E-03    -14.8164E-03     3.58945E-03
            1034     1.77352E-03     95.5280E-03    -12.7037E+06    -16.3110E+06    -9.81085E+06    -2.10090E+06    -14.7731E-03     29.5747E-03    -14.8016E-03     6.65259E-03    -14.7988E-03     29.5259E-03    -14.8086E-03     6.62475E-03
            1035     2.66031E-03     95.5352E-03    -12.0816E+06    -18.0947E+06    -6.36453E+06    -3.08094E+06    -14.7478E-03     29.5548E-03    -14.8071E-03     9.95065E-03    -14.7728E-03     29.4913E-03    -14.7952E-03     9.90980E-03
            1036     3.54715E-03     95.5453E-03    -11.4725E+06    -21.3143E+06    -3.31343E+06    -4.24848E+06    -14.7226E-03     29.5308E-03    -14.8082E-03     13.3875E-03    -14.7445E-03     29.4460E-03    -14.7773E-03     13.3312E-03
            1037     4.43403E-03     95.5585E-03    -10.9066E+06    -25.3359E+06    -1.53318E+06    -5.30783E+06    -14.6991E-03     29.4999E-03    -14.8008E-03     16.9867E-03    -14.7151E-03     29.3917E-03    -14.7559E-03     16.9163E-03
            1038     5.32096E-03     95.5748E-03    -10.5421E+06    -30.0201E+06    -1.03206E+06    -6.16557E+06    -14.6818E-03     29.4672E-03    -14.7854E-03     20.7799E-03    -14.6901E-03     29.3345E-03    -14.7317E-03     20.6979E-03
            1039     6.20796E-03     95.5946E-03    -10.4150E+06    -34.8407E+06    -1.39842E+06    -6.86731E+06    -14.6821E-03     29.4469E-03    -14.7648E-03     24.8025E-03    -14.6826E-03     29.2908E-03    -14.7062E-03     24.7108E-03
            1040     7.09499E-03     95.6179E-03    -10.3381E+06    -37.7505E+06    -1.81482E+06    -7.30737E+06    -14.7002E-03     29.4416E-03    -14.7413E-03     29.0823E-03    -14.6961E-03     29.2720E-03    -14.6807E-03     28.9840E-03
            1041     7.98206E-03     95.6452E-03    -10.2176E+06    -40.7523E+06    -1.11455E+06    -7.70591E+06    -14.7661E-03     29.4922E-03    -14.7261E-03     33.5755E-03    -14.7588E-03     29.3072E-03    -14.6578E-03     33.4709E-03
            1042     8.86914E-03     95.6765E-03    -10.0397E+06    -41.2597E+06    -106.624E+03    -8.30198E+06    -14.9215E-03     29.6376E-03    -14.7161E-03     38.3001E-03    -14.9155E-03     29.4498E-03    -14.6423E-03     38.1859E-03
            1043     9.75600E-03     95.7122E-03    -9.64185E+06    -42.4270E+06     904.939E+03    -8.86544E+06    -15.1420E-03     29.8602E-03    -14.7183E-03     43.1234E-03    -15.1360E-03     29.6668E-03    -14.6382E-03     42.9992E-03
            1044     10.6430E-03     95.7520E-03    -9.00369E+06    -43.2891E+06     142.414E+03    -9.87459E+06    -15.5125E-03     30.2395E-03    -14.7270E-03     47.9079E-03    -15.5049E-03     30.0459E-03    -14.6504E-03     47.7666E-03
            1045     11.5293E-03     95.7962E-03    -8.35427E+06    -37.2319E+06     969.187E+03    -10.8283E+06    -16.0334E-03     30.7902E-03    -14.7567E-03     53.1827E-03    -16.0393E-03     30.6314E-03    -14.6858E-03     53.0233E-03
            1046     12.4156E-03     95.8460E-03    -7.62291E+06    -43.0764E+06     53.6060E+03    -11.5187E+06    -16.7038E-03     31.5242E-03    -14.8204E-03     60.3591E-03    -16.7091E-03     31.3494E-03    -14.7466E-03     60.1827E-03
            1047     13.3014E-03     95.9029E-03    -7.21694E+06    -56.8490E+06    -14.4499E+06    -11.2356E+06    -17.4392E-03     32.2947E-03    -14.8555E-03     63.5819E-03    -17.4195E-03     32.0895E-03    -14.8349E-03     63.3999E-03
            1048     14.1860E-03     95.9595E-03    -7.20622E+06    -34.0763E+06    -12.6827E+06    -10.1319E+06    -18.0377E-03     32.9819E-03    -14.9442E-03     67.4288E-03    -18.0860E-03     32.9204E-03    -14.9478E-03     67.2537E-03
            1049     15.0711E-03     96.0240E-03    -6.37269E+06    -2.70872E+06    -7.84521E+06    -9.17806E+06    -19.5661E-03     34.6160E-03    -15.0499E-03     95.2531E-03    -19.8275E-03     34.8679E-03    -15.0759E-03     95.0984E-03
            1050     15.9543E-03     96.1329E-03    -5.17649E+06     49.7199E+06    -18.0032E+06    -6.20710E+06    -22.3855E-03     37.4410E-03    -15.0556E-03     149.931E-03    -23.7709E-03     39.0368E-03    -15.2102E-03     150.203E-03
            1051     16.8422E-03     96.3020E-03    -3.51170E+06     138.490E+06     42.0572E+06    -2.24168E+06    -23.2857E-03     38.6163E-03    -15.3306E-03     190.236E-03    -26.4268E-03     42.1146E-03    -15.3161E-03     192.328E-03
            1052     886.957E-06     96.5002E-03    -16.2884E+06    -13.7415E+06    -14.9274E+06    -425.834E+03    -14.5532E-03     29.1084E-03    -14.5552E-03     3.62854E-03    -14.5930E-03     29.0850E-03    -14.5863E-03     3.62269E-03
            1053     1.77391E-03     96.5045E-03    -15.9042E+06    -14.7409E+06    -12.2559E+06    -942.722E+03    -14.5254E-03     29.0895E-03    -14.5641E-03     6.68847E-03    -14.5659E-03     29.0567E-03    -14.5810E-03     6.67565E-03
            1054     2.66093E-03     96.5116E-03    -15.2843E+06    -16.3246E+06    -8.34358E+06    -1.57253E+06    -14.4938E-03     29.0627E-03    -14.5689E-03     10.0073E-03    -14.5345E-03     29.0154E-03    -14.5648E-03     9.98600E-03
            1055     3.54797E-03     96.5217E-03    -14.5680E+06    -19.1207E+06    -4.40373E+06    -2.46988E+06    -14.4621E-03     29.0331E-03    -14.5710E-03     13.4700E-03    -14.5011E-03     28.9652E-03    -14.5442E-03     13.4368E-03
            1056     4.43507E-03     96.5347E-03    -14.0464E+06    -23.3032E+06    -1.93389E+06    -3.50235E+06    -14.4339E-03     28.9986E-03    -14.5647E-03     17.1006E-03    -14.4679E-03     28.9056E-03    -14.5202E-03     17.0537E-03
            1057     5.32223E-03     96.5510E-03    -13.7353E+06    -28.0254E+06    -1.37862E+06    -4.47542E+06    -14.4148E-03     28.9622E-03    -14.5474E-03     20.9354E-03    -14.4415E-03     28.8446E-03    -14.4938E-03     20.8755E-03
            1058     6.20944E-03     96.5707E-03    -13.6006E+06    -33.0557E+06    -1.94736E+06    -5.37128E+06    -14.4155E-03     28.9398E-03    -14.5243E-03     25.0174E-03    -14.4337E-03     28.7980E-03    -14.4663E-03     24.9452E-03
            1059     7.09669E-03     96.5940E-03    -13.5868E+06    -36.2538E+06    -2.58858E+06    -6.12009E+06    -14.4365E-03     28.9353E-03    -14.4988E-03     29.3601E-03    -14.4495E-03     28.7789E-03    -14.4395E-03     29.2775E-03
            1060     7.98400E-03     96.6212E-03    -13.3134E+06    -39.0701E+06    -2.10141E+06    -6.92306E+06    -14.5235E-03     29.0054E-03    -14.4819E-03     33.9726E-03    -14.5326E-03     28.8347E-03    -14.4165E-03     33.8785E-03
            1061     8.87122E-03     96.6526E-03    -12.8680E+06    -39.8870E+06    -821.079E+03    -7.46870E+06    -14.6841E-03     29.1584E-03    -14.4743E-03     38.8356E-03    -14.6930E-03     28.9824E-03    -14.4019E-03     38.7327E-03
            1062     9.75843E-03     96.6884E-03    -12.3726E+06    -40.3050E+06     432.847E+03    -8.50901E+06    -14.9566E-03     29.4358E-03    -14.4793E-03     43.7882E-03    -14.9664E-03     29.2574E-03    -14.4007E-03     43.6691E-03
            1063     10.6453E-03     96.7284E-03    -11.5845E+06    -40.9982E+06     116.260E+03    -9.91542E+06    -15.4133E-03     29.9107E-03    -14.4974E-03     48.8566E-03    -15.4217E-03     29.7321E-03    -14.4205E-03     48.7153E-03
            1064     11.5319E-03     96.7736E-03    -10.3985E+06    -35.2236E+06     1.41798E+06    -11.2396E+06    -15.9624E-03     30.5019E-03    -14.5395E-03     54.1895E-03    -15.9818E-03     30.3553E-03    -14.4663E-03     54.0254E-03
            1065     12.4182E-03     96.8230E-03    -8.96791E+06    -41.5048E+06     738.970E+03    -12.0980E+06    -16.7629E-03     31.3808E-03    -14.6178E-03     61.4601E-03    -16.7783E-03     31.2149E-03    -14.5410E-03     61.2764E-03
            1066     13.3035E-03     96.8821E-03    -8.13579E+06    -57.1244E+06    -14.1200E+06    -12.1419E+06    -17.6381E-03     32.3114E-03    -14.6734E-03     64.9051E-03    -17.6235E-03     32.1061E-03    -14.6493E-03     64.7112E-03
            1067     14.1888E-03     96.9378E-03    -7.06632E+06    -34.1654E+06    -12.2391E+06    -11.4172E+06    -18.3115E-03     33.0960E-03    -14.7846E-03     68.7884E-03    -18.3609E-03     33.0346E-03    -14.7860E-03     68.5959E-03
            1068     15.0731E-03     97.0045E-03    -5.91999E+06    -3.45337E+06    -6.27430E+06    -9.81431E+06    -19.8672E-03     34.7870E-03    -14.9198E-03     96.5116E-03    -20.1310E-03     35.0357E-03    -14.9376E-03     96.3475E-03
            1069     15.9582E-03     97.1129E-03    -6.83058E+06     45.2315E+06    -17.3676E+06    -7.22135E+06    -22.9854E-03     37.9444E-03    -14.9590E-03     150.636E-03    -24.3852E-03     39.5309E-03    -15.1015E-03     150.889E-03
            1070     16.8390E-03     97.2821E-03    -5.31922E+06     134.157E+06     41.5672E+06    -3.30392E+06    -23.9069E-03     39.1765E-03    -15.2696E-03     188.145E-03    -27.0027E-03     42.6092E-03    -15.2486E-03     190.169E-03
            1071     887.181E-06     97.4762E-03    -20.2980E+06    -14.1969E+06    -18.7322E+06     1.01931E+06    -14.2582E-03     28.5246E-03    -14.2664E-03     3.64261E-03    -14.3120E-03     28.5103E-03    -14.3101E-03     3.65545E-03
            1072     1.77442E-03     97.4805E-03    -20.1353E+06    -14.1878E+06    -15.3048E+06     815.773E+03    -14.2297E-03     28.5053E-03    -14.2756E-03     6.73011E-03    -14.2877E-03     28.4858E-03    -14.3023E-03     6.74006E-03
            1073     2.66165E-03     97.4876E-03    -19.4698E+06    -15.4440E+06    -10.9769E+06     303.685E+03    -14.1951E-03     28.4768E-03    -14.2817E-03     10.0695E-03    -14.2543E-03     28.4438E-03    -14.2859E-03     10.0725E-03
            1074     3.54896E-03     97.4975E-03    -18.6626E+06    -17.7896E+06    -6.54924E+06    -312.395E+03    -14.1534E-03     28.4373E-03    -14.2839E-03     13.5548E-03    -14.2116E-03     28.3851E-03    -14.2638E-03     13.5496E-03
            1075     4.43632E-03     97.5105E-03    -17.9727E+06    -21.6580E+06    -3.19172E+06    -1.16297E+06    -14.1193E-03     28.3982E-03    -14.2789E-03     17.2154E-03    -14.1735E-03     28.3209E-03    -14.2374E-03     17.1988E-03
            1076     5.32374E-03     97.5267E-03    -17.5975E+06    -26.2251E+06    -2.00718E+06    -2.23032E+06    -14.1016E-03     28.3641E-03    -14.2625E-03     21.0990E-03    -14.1493E-03     28.2620E-03    -14.2090E-03     21.0683E-03
            1077     6.21121E-03     97.5463E-03    -17.4518E+06    -31.1466E+06    -2.57056E+06    -3.45883E+06    -14.1025E-03     28.3403E-03    -14.2378E-03     25.2376E-03    -14.1417E-03     28.2145E-03    -14.1802E-03     25.1905E-03
            1078     7.09874E-03     97.5695E-03    -17.2239E+06    -34.4800E+06    -3.30056E+06    -4.68587E+06    -14.1420E-03     28.3537E-03    -14.2117E-03     29.6651E-03    -14.1747E-03     28.2123E-03    -14.1532E-03     29.6014E-03
            1079     7.98626E-03     97.5967E-03    -16.9054E+06    -36.9598E+06    -3.03278E+06    -5.97855E+06    -14.2411E-03     28.4355E-03    -14.1944E-03     34.4084E-03    -14.2697E-03     28.2816E-03    -14.1315E-03     34.3269E-03
            1080     8.87375E-03     97.6282E-03    -16.0389E+06    -38.4308E+06    -1.76417E+06    -7.15023E+06    -14.4154E-03     28.6044E-03    -14.1890E-03     39.3825E-03    -14.4406E-03     28.4413E-03    -14.1188E-03     39.2842E-03
            1081     9.76117E-03     97.6641E-03    -14.6188E+06    -37.8297E+06     56.5523E+03    -8.26591E+06    -14.7585E-03     28.9570E-03    -14.1985E-03     44.5751E-03    -14.7824E-03     28.7945E-03    -14.1222E-03     44.4597E-03
            1082     10.6482E-03     97.7049E-03    -13.4353E+06    -38.0945E+06     443.237E+03    -10.0731E+06    -15.2776E-03     29.5052E-03    -14.2277E-03     49.8366E-03    -15.2997E-03     29.3431E-03    -14.1507E-03     49.6939E-03
            1083     11.5350E-03     97.7500E-03    -12.3513E+06    -32.9272E+06     1.68494E+06    -11.7098E+06    -15.9246E-03     30.2081E-03    -14.2835E-03     55.3428E-03    -15.9574E-03     30.0752E-03    -14.2094E-03     55.1732E-03
            1084     12.4209E-03     97.8009E-03    -10.7697E+06    -39.5281E+06     1.05985E+06    -13.2381E+06    -16.8173E-03     31.1968E-03    -14.3795E-03     62.8525E-03    -16.8453E-03     31.0432E-03    -14.3013E-03     62.6544E-03
            1085     13.3069E-03     97.8598E-03    -8.72348E+06    -56.8047E+06    -13.9919E+06    -13.8691E+06    -17.7849E-03     32.2399E-03    -14.4549E-03     66.3221E-03    -17.7744E-03     32.0373E-03    -14.4299E-03     66.1058E-03
            1086     14.1912E-03     97.9175E-03    -7.15826E+06    -33.8672E+06    -11.8211E+06    -13.3898E+06    -18.6919E-03     33.2861E-03    -14.5942E-03     70.1261E-03    -18.7445E-03     33.2273E-03    -14.5938E-03     69.9069E-03
            1087     15.0757E-03     97.9839E-03    -5.74063E+06    -6.61910E+06    -5.60616E+06    -11.1531E+06    -20.2732E-03     35.0405E-03    -14.7673E-03     97.2943E-03    -20.5342E-03     35.2740E-03    -14.7774E-03     97.1106E-03
            1088     15.9586E-03     98.0937E-03    -4.10060E+06     41.4572E+06    -15.3202E+06    -6.52048E+06    -23.1294E-03     37.9577E-03    -14.8284E-03     152.873E-03    -24.5281E-03     39.5334E-03    -14.9591E-03     153.138E-03
            1089     16.8429E-03     98.2660E-03    -3.74516E+06     131.451E+06     43.1927E+06    -3.28138E+06    -25.0169E-03     40.1835E-03    -15.1666E-03     189.924E-03    -28.1120E-03     43.6068E-03    -15.1358E-03     191.898E-03
            1090     887.508E-06     98.4515E-03    -24.5542E+06    -17.4465E+06    -23.0374E+06     2.45575E+06    -13.9122E-03     27.8396E-03    -13.9273E-03     3.65523E-03    -13.9763E-03     27.8214E-03    -13.9816E-03     3.68665E-03
            1091     1.77499E-03     98.4559E-03    -24.4174E+06    -15.1254E+06    -19.2242E+06     3.16508E+06    -13.8829E-03     27.8143E-03    -13.9314E-03     6.77222E-03    -13.9553E-03     27.8020E-03    -13.9702E-03     6.81256E-03
            1092     2.66255E-03     98.4629E-03    -24.0518E+06    -15.3796E+06    -14.0941E+06     2.80936E+06    -13.8476E-03     27.7884E-03    -13.9408E-03     10.1356E-03    -13.9253E-03     27.7669E-03    -13.9541E-03     10.1711E-03
            1093     3.55013E-03     98.4728E-03    -23.2689E+06    -17.4064E+06    -9.19222E+06     2.25383E+06    -13.8033E-03     27.7488E-03    -13.9454E-03     13.6441E-03    -13.8813E-03     27.7090E-03    -13.9324E-03     13.6721E-03
            1094     4.43779E-03     98.4857E-03    -22.4677E+06    -20.6472E+06    -5.27492E+06     1.54629E+06    -13.7638E-03     27.7056E-03    -13.9418E-03     17.3355E-03    -13.8388E-03     27.6429E-03    -13.9057E-03     17.3541E-03
            1095     5.32552E-03     98.5018E-03    -21.8829E+06    -24.7108E+06    -3.19394E+06     461.601E+03    -13.7423E-03     27.6702E-03    -13.9279E-03     21.2612E-03    -13.8118E-03     27.5835E-03    -13.8763E-03     21.2654E-03
            1096     6.21329E-03     98.5213E-03    -21.4842E+06    -28.9161E+06    -3.16042E+06    -1.19647E+06    -13.7548E-03     27.6594E-03    -13.9046E-03     25.4603E-03    -13.8165E-03     27.5513E-03    -13.8474E-03     25.4427E-03
            1097     7.10110E-03     98.5445E-03    -21.0158E+06    -32.2375E+06    -3.92824E+06    -3.17183E+06    -13.8108E-03     27.6902E-03    -13.8794E-03     29.9889E-03    -13.8647E-03     27.5664E-03    -13.8218E-03     29.9451E-03
            1098     7.98889E-03     98.5717E-03    -20.1182E+06    -34.4126E+06    -3.68672E+06    -5.09159E+06    -13.9242E-03     27.7874E-03    -13.8631E-03     34.8368E-03    -13.9715E-03     27.6517E-03    -13.8025E-03     34.7672E-03
            1099     8.87668E-03     98.6032E-03    -18.8847E+06    -35.9848E+06    -2.38338E+06    -7.06749E+06    -14.1500E-03     28.0121E-03    -13.8621E-03     39.9659E-03    -14.1920E-03     27.8661E-03    -13.7944E-03     39.8692E-03
            1100     9.76422E-03     98.6395E-03    -17.0919E+06    -35.3938E+06    -669.334E+03    -8.89705E+06    -14.5357E-03     28.4136E-03    -13.8780E-03     45.4051E-03    -14.5742E-03     28.2677E-03    -13.8052E-03     45.2823E-03
            1101     10.6516E-03     98.6806E-03    -15.0553E+06    -35.4904E+06     310.241E+03    -10.2778E+06    -15.1175E-03     29.0358E-03    -13.9183E-03     50.8598E-03    -15.1510E-03     28.8890E-03    -13.8435E-03     50.7151E-03
            1102     11.5382E-03     98.7266E-03    -13.4702E+06    -29.6581E+06     2.25921E+06    -12.1320E+06    -15.8635E-03     29.8531E-03    -13.9896E-03     56.5962E-03    -15.9073E-03     29.7373E-03    -13.9158E-03     56.4216E-03
            1103     12.4248E-03     98.7779E-03    -11.7478E+06    -36.4714E+06     1.59633E+06    -14.3898E+06    -16.8948E-03     30.9997E-03    -14.1049E-03     64.2400E-03    -16.9330E-03     30.8621E-03    -14.0270E-03     64.0271E-03
            1104     13.3097E-03     98.8383E-03    -10.1037E+06    -55.8328E+06    -14.1372E+06    -15.8500E+06    -18.1072E-03     32.3166E-03    -14.2094E-03     67.7859E-03    -18.1056E-03     32.1220E-03    -14.1845E-03     67.5435E-03
            1105     14.1947E-03     98.8965E-03    -8.51605E+06    -33.6848E+06    -11.9596E+06    -15.8422E+06    -19.1382E-03     33.5247E-03    -14.3865E-03     71.5029E-03    -19.1995E-03     33.4709E-03    -14.3852E-03     71.2506E-03
            1106     15.0779E-03     98.9650E-03    -6.56366E+06    -10.6363E+06    -6.10448E+06    -13.2905E+06    -20.9294E-03     35.5350E-03    -14.6056E-03     98.0149E-03    -21.1918E-03     35.7541E-03    -14.6111E-03     97.7988E-03
            1107     15.9625E-03     99.0734E-03    -4.96735E+06     34.9560E+06    -16.7522E+06    -8.00476E+06    -23.4025E-03     38.1057E-03    -14.7032E-03     151.346E-03    -24.7683E-03     39.6265E-03    -14.8305E-03     151.582E-03
            1108     16.8482E-03     99.2462E-03    -4.02869E+06     128.260E+06     43.4823E+06    -3.12871E+06    -25.8426E-03     40.9273E-03    -15.0848E-03     188.936E-03    -28.9287E-03     44.3285E-03    -15.0475E-03     190.858E-03
            1109     887.803E-06     99.4263E-03    -27.9993E+06    -23.4591E+06    -26.7701E+06     3.75701E+06    -13.5231E-03     27.0626E-03    -13.5395E-03     3.67679E-03    -13.5903E-03     27.0247E-03    -13.5987E-03     3.72506E-03
            1110     1.77570E-03     99.4305E-03    -28.1617E+06    -18.5319E+06    -23.3287E+06     5.77678E+06    -13.4880E-03     27.0242E-03    -13.5362E-03     6.81428E-03    -13.5682E-03     27.0062E-03    -13.5851E-03     6.88841E-03
            1111     2.66356E-03     99.4375E-03    -28.1318E+06    -16.2984E+06    -17.7988E+06     6.04252E+06    -13.4477E-03     26.9915E-03    -13.5438E-03     10.1989E-03    -13.5391E-03     26.9767E-03    -13.5683E-03     10.2762E-03
            1112     3.55151E-03     99.4473E-03    -27.6472E+06    -17.7505E+06    -11.9987E+06     5.31735E+06    -13.4115E-03     26.9650E-03    -13.5536E-03     13.7396E-03    -13.5068E-03     26.9339E-03    -13.5477E-03     13.8073E-03
            1113     4.43948E-03     99.4602E-03    -26.6839E+06    -20.2909E+06    -7.38818E+06     4.47643E+06    -13.3767E-03     26.9313E-03    -13.5546E-03     17.4644E-03    -13.4702E-03     26.8795E-03    -13.5234E-03     17.5210E-03
            1114     5.32754E-03     99.4761E-03    -25.6228E+06    -23.4600E+06    -4.47313E+06     3.19562E+06    -13.3594E-03     26.9047E-03    -13.5453E-03     21.4251E-03    -13.4474E-03     26.8314E-03    -13.4965E-03     21.4648E-03
            1115     6.21565E-03     99.4956E-03    -24.6009E+06    -26.3433E+06    -3.57604E+06     1.07794E+06    -13.3805E-03     26.9066E-03    -13.5261E-03     25.6903E-03    -13.4608E-03     26.8164E-03    -13.4701E-03     25.7024E-03
            1116     7.10375E-03     99.5188E-03    -23.5979E+06    -29.2762E+06    -3.95262E+06    -1.63201E+06    -13.4534E-03     26.9580E-03    -13.5046E-03     30.2990E-03    -13.5242E-03     26.8526E-03    -13.4477E-03     30.2754E-03
            1117     7.99189E-03     99.5460E-03    -22.3770E+06    -31.1917E+06    -3.89129E+06    -4.47778E+06    -13.6002E-03     27.0917E-03    -13.4915E-03     35.2646E-03    -13.6630E-03     26.9755E-03    -13.4333E-03     35.2034E-03
            1118     8.87986E-03     99.5777E-03    -20.5721E+06    -32.7352E+06    -2.57438E+06    -7.16741E+06    -13.8736E-03     27.3705E-03    -13.4969E-03     40.5802E-03    -13.9281E-03     27.2433E-03    -13.4325E-03     40.4827E-03
            1119     9.76774E-03     99.6142E-03    -18.7359E+06    -32.4332E+06    -935.331E+03    -9.43371E+06    -14.3045E-03     27.8269E-03    -13.5224E-03     46.2387E-03    -14.3548E-03     27.6983E-03    -13.4528E-03     46.1095E-03
            1120     10.6551E-03     99.6559E-03    -16.7292E+06    -33.1987E+06    -80.4461E+03    -11.2108E+06    -14.9433E-03     28.5179E-03    -13.5746E-03     51.9532E-03    -14.9877E-03     28.3852E-03    -13.5026E-03     51.7971E-03
            1121     11.5423E-03     99.7025E-03    -14.2239E+06    -26.2515E+06     2.38138E+06    -12.7895E+06    -15.8282E-03     29.4899E-03    -13.6618E-03     57.9239E-03    -15.8807E-03     29.3919E-03    -13.5912E-03     57.7414E-03
            1122     12.4281E-03     99.7552E-03    -12.3283E+06    -32.4886E+06     2.17527E+06    -15.4017E+06    -17.0518E-03     30.8550E-03    -13.8032E-03     65.7146E-03    -17.0998E-03     30.7376E-03    -13.7273E-03     65.4888E-03
            1123     13.3139E-03     99.8163E-03    -10.6855E+06    -53.7446E+06    -13.6486E+06    -17.5747E+06    -18.4621E-03     32.4058E-03    -13.9438E-03     69.5816E-03    -18.4681E-03     32.2228E-03    -13.9186E-03     69.3163E-03
            1124     14.1971E-03     99.8767E-03    -9.31047E+06    -33.2511E+06    -11.8218E+06    -18.0578E+06    -19.7836E-03     33.9497E-03    -14.1660E-03     73.1221E-03    -19.8518E-03     33.9010E-03    -14.1634E-03     72.8390E-03
            1125     15.0812E-03     99.9449E-03    -7.40680E+06    -14.4014E+06    -6.54623E+06    -15.6883E+06    -22.0391E-03     36.4885E-03    -14.4495E-03     99.0003E-03    -22.3044E-03     36.6955E-03    -14.4506E-03     98.7452E-03
            1126     15.9616E-03     100.056E-03    -6.39784E+06     27.5926E+06    -18.5979E+06    -9.82908E+06    -25.2902E-03     39.9273E-03    -14.6371E-03     150.825E-03    -26.6397E-03     41.4059E-03    -14.7608E-03     150.983E-03
            1127     16.8413E-03     100.225E-03    -4.14337E+06     123.095E+06     42.6440E+06    -3.46845E+06    -26.5137E-03     41.6024E-03    -15.0888E-03     189.961E-03    -29.6269E-03     45.0142E-03    -15.0480E-03     191.872E-03
            1128     888.255E-06     100.400E-03    -31.4897E+06    -31.8670E+06    -30.3254E+06     4.78034E+06    -13.0834E-03     26.1868E-03    -13.1034E-03     3.70408E-03    -13.1507E-03     26.1171E-03    -13.1632E-03     3.76559E-03
            1129     1.77644E-03     100.404E-03    -31.3119E+06    -24.9299E+06    -26.8560E+06     8.20994E+06    -13.0496E-03     26.1445E-03    -13.0948E-03     6.86127E-03    -13.1311E-03     26.1042E-03    -13.1476E-03     6.96688E-03
            1130     2.66475E-03     100.411E-03    -31.2692E+06    -18.8489E+06    -21.2609E+06     9.55750E+06    -13.0051E-03     26.1025E-03    -13.0974E-03     10.2625E-03    -13.1033E-03     26.0845E-03    -13.1311E-03     10.3853E-03
            1131     3.55305E-03     100.421E-03    -30.8606E+06    -18.4693E+06    -14.7417E+06     8.78428E+06    -12.9765E-03     26.0863E-03    -13.1099E-03     13.8350E-03    -13.0828E-03     26.0602E-03    -13.1120E-03     13.9476E-03
            1132     4.44142E-03     100.434E-03    -29.8339E+06    -20.4018E+06    -9.15157E+06     7.46304E+06    -12.9629E-03     26.0820E-03    -13.1191E-03     17.5971E-03    -13.0694E-03     26.0368E-03    -13.0921E-03     17.6924E-03
            1133     5.32982E-03     100.450E-03    -28.2764E+06    -22.0642E+06    -5.48239E+06     5.61311E+06    -12.9648E-03     26.0821E-03    -13.1172E-03     21.6016E-03    -13.0667E-03     26.0210E-03    -13.0716E-03     21.6728E-03
            1134     6.21824E-03     100.469E-03    -26.5068E+06    -23.5688E+06    -3.81419E+06     2.89895E+06    -12.9958E-03     26.1012E-03    -13.1054E-03     25.9169E-03    -13.0892E-03     26.0279E-03    -13.0519E-03     25.9527E-03
            1135     7.10673E-03     100.492E-03    -24.8349E+06    -25.7196E+06    -3.67008E+06    -295.763E+03    -13.0884E-03     26.1794E-03    -13.0910E-03     30.5996E-03    -13.1709E-03     26.0931E-03    -13.0361E-03     30.5937E-03
            1136     7.99509E-03     100.520E-03    -23.2188E+06    -26.9852E+06    -3.48761E+06    -3.91536E+06    -13.2706E-03     26.3554E-03    -13.0847E-03     35.6952E-03    -13.3441E-03     26.2607E-03    -13.0294E-03     35.6417E-03
            1137     8.88345E-03     100.552E-03    -21.4894E+06    -28.9594E+06    -2.46742E+06    -7.35059E+06    -13.5856E-03     26.6846E-03    -13.0990E-03     41.1969E-03    -13.6502E-03     26.5773E-03    -13.0382E-03     41.0976E-03
            1138     9.77143E-03     100.588E-03    -19.2616E+06    -28.9431E+06    -656.471E+03    -10.0223E+06    -14.0682E-03     27.2048E-03    -13.1366E-03     47.0632E-03    -14.1264E-03     27.0937E-03    -13.0699E-03     46.9270E-03
            1139     10.6592E-03     100.631E-03    -16.8686E+06    -30.1243E+06     337.171E+03    -12.2495E+06    -14.7781E-03     27.9813E-03    -13.2033E-03     53.0574E-03    -14.8279E-03     27.8633E-03    -13.1334E-03     52.8887E-03
            1140     11.5461E-03     100.678E-03    -14.6611E+06    -23.4573E+06     2.21851E+06    -14.0543E+06    -15.7907E-03     29.0971E-03    -13.3065E-03     59.4666E-03    -15.8490E-03     29.0137E-03    -13.2401E-03     59.2684E-03
            1141     12.4326E-03     100.732E-03    -12.2519E+06    -28.1029E+06     3.04148E+06    -16.3061E+06    -17.2079E-03     30.6837E-03    -13.4757E-03     67.5581E-03    -17.2634E-03     30.5871E-03    -13.4020E-03     67.3207E-03
            1142     13.3170E-03     100.795E-03    -10.8269E+06    -50.5492E+06    -12.2437E+06    -18.9635E+06    -18.8111E-03     32.4664E-03    -13.6553E-03     71.6691E-03    -18.8253E-03     32.2983E-03    -13.6276E-03     71.3853E-03
            1143     14.2018E-03     100.856E-03    -9.63097E+06    -32.3797E+06    -10.9390E+06    -19.7919E+06    -20.4666E-03     34.3906E-03    -13.9240E-03     75.5448E-03    -20.5413E-03     34.3480E-03    -13.9177E-03     75.2367E-03
            1144     15.0824E-03     100.928E-03    -8.21220E+06    -18.3135E+06    -6.96077E+06    -17.7750E+06    -23.0782E-03     37.3448E-03    -14.2666E-03     101.746E-03    -23.3489E-03     37.5416E-03    -14.2630E-03     101.456E-03
            1145     15.9649E-03     101.039E-03    -6.86090E+06     20.3468E+06    -20.3346E+06    -11.3912E+06    -26.8301E-03     41.3528E-03    -14.5227E-03     153.903E-03    -28.1875E-03     42.8172E-03    -14.6440E-03     153.999E-03
            1146     16.8463E-03     101.211E-03    -4.88696E+06     117.390E+06     41.1103E+06    -4.41756E+06    -27.5220E-03     42.5605E-03    -15.0385E-03     190.463E-03    -30.6079E-03     45.9266E-03    -14.9961E-03     192.299E-03
            1147     888.611E-06     101.373E-03    -36.6256E+06    -41.4120E+06    -35.8259E+06     4.89710E+06    -12.5954E-03     25.2104E-03    -12.6151E-03     3.73660E-03    -12.6665E-03     25.1084E-03    -12.6811E-03     3.79966E-03
            1148     1.77736E-03     101.377E-03     -35.071E+06    -34.0444E+06    -31.4038E+06     9.28176E+06    -12.5685E-03     25.1763E-03    -12.6078E-03     6.91135E-03    -12.6490E-03     25.1025E-03    -12.6646E-03     7.03086E-03
            1149     2.66602E-03     101.384E-03    -33.8206E+06    -23.8785E+06    -24.7412E+06     12.4333E+06    -12.5273E-03     25.1362E-03    -12.6089E-03     10.3274E-03    -12.6259E-03     25.1018E-03    -12.6490E-03     10.4875E-03
            1150     3.55479E-03     101.394E-03    -32.9278E+06    -19.5309E+06    -17.1665E+06     12.1679E+06    -12.5099E-03     25.1330E-03    -12.6230E-03     13.9261E-03    -12.6215E-03     25.1080E-03    -12.6328E-03     14.0826E-03
            1151     4.44354E-03     101.407E-03    -31.2325E+06    -20.2817E+06    -10.5110E+06     9.97103E+06    -12.5248E-03     25.1658E-03    -12.6411E-03     17.7330E-03    -12.6365E-03     25.1251E-03    -12.6189E-03     17.8609E-03
            1152     5.33230E-03     101.423E-03    -28.9221E+06    -20.6038E+06    -5.99534E+06     7.52480E+06    -12.5581E-03     25.2074E-03    -12.6493E-03     21.7781E-03    -12.6645E-03     25.1553E-03    -12.6074E-03     21.8741E-03
            1153     6.22110E-03     101.442E-03    -26.8462E+06    -20.4870E+06    -3.58881E+06     4.45826E+06    -12.6162E-03     25.2652E-03    -12.6490E-03     26.1355E-03    -12.7160E-03     25.2074E-03    -12.5983E-03     26.1917E-03
            1154     7.10984E-03     101.465E-03    -24.7956E+06    -21.6030E+06    -3.00769E+06     533.588E+03    -12.7298E-03     25.3755E-03    -12.6457E-03     30.8909E-03    -12.8189E-03     25.3086E-03    -12.5935E-03     30.8959E-03
            1155     7.99863E-03     101.493E-03    -22.7704E+06    -22.3730E+06    -2.64952E+06    -3.41794E+06    -12.9378E-03     25.5876E-03    -12.6498E-03     36.1102E-03    -13.0168E-03     25.5140E-03    -12.5976E-03     36.0635E-03
            1156     8.88713E-03     101.525E-03    -21.0049E+06    -24.4485E+06    -1.55395E+06    -7.17350E+06    -13.2933E-03     25.9693E-03    -12.6760E-03     41.7932E-03    -13.3631E-03     25.8822E-03    -12.6179E-03     41.6966E-03
            1157     9.77553E-03     101.562E-03    -19.1665E+06    -24.9520E+06    -108.325E+03    -10.6489E+06    -13.8104E-03     26.5358E-03    -12.7254E-03     47.9016E-03    -13.8744E-03     26.4435E-03    -12.6619E-03     47.7580E-03
            1158     10.6633E-03     101.605E-03    -16.6082E+06    -26.6643E+06     945.054E+03    -13.4488E+06    -14.6026E-03     27.4097E-03    -12.8071E-03     54.2757E-03    -14.6567E-03     27.3074E-03    -12.7396E-03     54.0921E-03
            1159     11.5508E-03     101.653E-03    -13.8944E+06    -20.2897E+06     3.13828E+06    -15.1235E+06    -15.7096E-03     28.6386E-03    -12.9290E-03     61.1181E-03    -15.7697E-03     28.5682E-03    -12.8637E-03     60.9069E-03
            1160     12.4366E-03     101.709E-03    -12.2392E+06    -24.1229E+06     4.11502E+06    -17.2132E+06    -17.2608E-03     30.3814E-03    -13.1207E-03     69.6457E-03    -17.3234E-03     30.3031E-03    -13.0474E-03     69.3972E-03
            1161     13.3222E-03     101.773E-03    -10.9989E+06    -46.3981E+06    -9.68019E+06    -20.0515E+06    -19.2031E-03     32.5440E-03    -13.3409E-03     74.1771E-03    -19.2288E-03     32.3941E-03    -13.3061E-03     73.8786E-03
            1162     14.2044E-03     101.837E-03    -9.79228E+06    -30.9963E+06    -8.79869E+06    -21.6089E+06    -21.0530E-03     34.7094E-03    -13.6564E-03     78.1513E-03    -21.1361E-03     34.6733E-03    -13.6412E-03     77.8175E-03
            1163     15.0881E-03     101.910E-03    -7.76273E+06    -21.6468E+06    -6.31065E+06    -19.6538E+06    -24.0034E-03     38.0550E-03    -14.0516E-03     103.955E-03    -24.2737E-03     38.2393E-03    -14.0405E-03     103.633E-03
            1164     15.9672E-03     102.024E-03    -6.99158E+06     12.4827E+06    -21.7200E+06    -13.5088E+06    -27.4658E-03     41.8203E-03    -14.3545E-03     155.024E-03    -28.7949E-03     43.2319E-03    -14.4711E-03     155.076E-03
            1165     16.8454E-03     102.196E-03    -5.27658E+06     109.875E+06     39.2574E+06    -5.66302E+06    -28.6666E-03     43.5867E-03    -14.9200E-03     190.028E-03    -31.6947E-03     46.8722E-03    -14.8754E-03     191.743E-03
            1166     889.163E-06     102.345E-03    -45.7433E+06    -49.5408E+06    -45.5204E+06     3.34773E+06    -12.0747E-03     24.1520E-03    -12.0774E-03     3.76295E-03    -12.1655E-03     24.0367E-03    -12.1668E-03     3.80605E-03
            1167     1.77821E-03     102.349E-03    -41.8249E+06    -43.5255E+06    -39.6496E+06     7.11055E+06    -12.0523E-03     24.1347E-03    -12.0824E-03     6.95854E-03    -12.1409E-03     24.0352E-03    -12.1569E-03     7.05009E-03
            1168     2.66744E-03     102.356E-03    -36.7276E+06    -31.9629E+06    -30.5393E+06     11.8181E+06    -12.0250E-03     24.1130E-03    -12.0880E-03     10.3859E-03    -12.1180E-03     24.0507E-03    -12.1411E-03     10.5381E-03
            1169     3.55660E-03     102.366E-03    -32.7987E+06    -21.9458E+06    -19.9905E+06     13.9325E+06    -12.0232E-03     24.1289E-03    -12.1057E-03     14.0014E-03    -12.1265E-03     24.0958E-03    -12.1263E-03     14.1807E-03
            1170     4.44579E-03     102.379E-03    -30.4167E+06    -19.4694E+06    -11.5374E+06     11.9431E+06    -12.0683E-03     24.2007E-03    -12.1323E-03     17.8479E-03    -12.1756E-03     24.1643E-03    -12.1177E-03     18.0014E-03
            1171     5.33497E-03     102.394E-03    -27.8493E+06    -19.0008E+06    -6.08875E+06     8.65927E+06    -12.1424E-03     24.2959E-03    -12.1535E-03     21.9306E-03    -12.2455E-03     24.2504E-03    -12.1161E-03     22.0414E-03
            1172     6.22409E-03     102.414E-03    -24.8773E+06    -17.4820E+06    -2.63983E+06     5.45298E+06    -12.2392E-03     24.4070E-03    -12.1678E-03     26.3231E-03    -12.3348E-03     24.3599E-03    -12.1196E-03     26.3923E-03
            1173     7.11322E-03     102.437E-03    -22.7568E+06    -16.9512E+06    -1.28393E+06     1.51998E+06    -12.3844E-03     24.5643E-03    -12.1799E-03     31.1397E-03    -12.4725E-03     24.5152E-03    -12.1288E-03     31.1577E-03
            1174     8.00218E-03     102.465E-03    -21.0271E+06    -17.4559E+06    -914.949E+03    -3.05166E+06    -12.6184E-03     24.8167E-03    -12.1983E-03     36.4766E-03    -12.6982E-03     24.7625E-03    -12.1470E-03     36.4349E-03
            1175     8.89115E-03     102.497E-03    -18.9432E+06    -19.6947E+06     18.6830E+03    -7.09020E+06    -12.9802E-03     25.2163E-03    -12.2361E-03     42.3332E-03    -13.0487E-03     25.1475E-03    -12.1800E-03     42.2382E-03
            1176     9.77960E-03     102.535E-03    -17.0329E+06    -20.1174E+06     1.73053E+06    -10.7139E+06    -13.5334E-03     25.8314E-03    -12.2980E-03     48.6982E-03    -13.5960E-03     25.7571E-03    -12.2355E-03     48.5544E-03
            1177     10.6680E-03     102.578E-03    -15.2533E+06    -22.0486E+06     2.80375E+06    -14.3971E+06    -14.4019E-03     26.7966E-03    -12.3947E-03     55.4925E-03    -14.4581E-03     26.7122E-03    -12.3266E-03     55.2975E-03
            1178     11.5550E-03     102.628E-03    -13.0849E+06    -18.3259E+06     4.29344E+06    -16.2692E+06    -15.5804E-03     28.1140E-03    -12.5336E-03     62.7413E-03    -15.6404E-03     28.0501E-03    -12.4666E-03     62.5161E-03
            1179     12.4419E-03     102.685E-03    -10.9554E+06    -19.4600E+06     6.46044E+06    -17.7354E+06    -17.2995E-03     30.0466E-03    -12.7471E-03     71.8365E-03    -17.3657E-03     29.9861E-03    -12.6707E-03     71.5819E-03
            1180     13.3262E-03     102.752E-03    -9.82031E+06    -41.8905E+06    -6.34146E+06    -21.2497E+06    -19.4713E-03     32.4733E-03    -13.0020E-03     76.8709E-03    -19.5030E-03     32.3399E-03    -12.9587E-03     76.5567E-03
            1181     14.2101E-03     102.818E-03    -8.46083E+06    -29.2147E+06    -5.97251E+06    -22.8497E+06    -21.7600E-03     35.1236E-03    -13.3636E-03     81.0279E-03    -21.8456E-03     35.0929E-03    -13.3388E-03     80.6753E-03
            1182     15.0896E-03     102.892E-03    -6.53862E+06    -23.9482E+06    -5.00472E+06    -21.8295E+06    -25.1196E-03     38.9391E-03    -13.8195E-03     107.099E-03    -25.3905E-03     39.1165E-03    -13.8004E-03     106.739E-03
            1183     15.9691E-03     103.010E-03    -4.47910E+06     1.98188E+06    -23.4633E+06    -15.2231E+06    -28.3859E-03     42.5657E-03    -14.1798E-03     155.555E-03    -29.6403E-03     43.8793E-03    -14.2935E-03     155.551E-03
            1184     16.8524E-03     103.178E-03    -3.21779E+06     102.078E+06     38.0537E+06    -5.49970E+06    -29.9793E-03     44.7870E-03    -14.8077E-03     190.270E-03    -32.9555E-03     48.0038E-03    -14.7607E-03     191.892E-03
            1185     889.506E-06     103.316E-03    -59.8354E+06    -53.1539E+06    -59.9880E+06     137.908E+03    -11.5320E-03     23.0586E-03    -11.5265E-03     3.77397E-03    -11.6671E-03     22.9666E-03    -11.6626E-03     3.77566E-03
            1186     1.77920E-03     103.320E-03    -54.2909E+06    -49.1535E+06    -53.3197E+06     1.39700E+06    -11.5228E-03     23.0631E-03    -11.5403E-03     6.98619E-03    -11.6457E-03     22.9734E-03    -11.6569E-03     7.00405E-03
            1187     2.66875E-03     103.327E-03    -45.2832E+06    -40.1742E+06    -42.5183E+06     4.71614E+06    -11.5165E-03     23.0707E-03    -11.5542E-03     10.4198E-03    -11.6230E-03     22.9972E-03    -11.6429E-03     10.4804E-03
            1188     3.55846E-03     103.337E-03    -35.1402E+06    -27.8863E+06    -28.5497E+06     9.64609E+06    -11.5256E-03     23.1019E-03    -11.5763E-03     14.0074E-03    -11.6195E-03     23.0548E-03    -11.6276E-03     14.1315E-03
            1189     4.44810E-03     103.349E-03    -28.1884E+06    -20.0205E+06    -15.3165E+06     11.8639E+06    -11.5895E-03     23.2011E-03    -11.6116E-03     17.8517E-03    -11.6793E-03     23.1642E-03    -11.6183E-03     18.0043E-03
            1190     5.33766E-03     103.366E-03    -25.0893E+06    -16.8530E+06    -6.45408E+06     9.67689E+06    -11.7087E-03     23.3583E-03    -11.6496E-03     21.9822E-03    -11.8006E-03     23.3200E-03    -11.6211E-03     22.1064E-03
            1191     6.22718E-03     103.385E-03    -22.6951E+06    -14.3444E+06    -1.62105E+06     5.71882E+06    -11.8551E-03     23.5361E-03    -11.6811E-03     26.4178E-03    -11.9458E-03     23.5001E-03    -11.6354E-03     26.4905E-03
            1192     7.11658E-03     103.408E-03    -19.4930E+06    -12.6226E+06     1.04253E+06     1.79156E+06    -12.0429E-03     23.7535E-03    -11.7105E-03     31.2854E-03    -12.1243E-03     23.7178E-03    -11.6588E-03     31.3071E-03
            1193     8.00596E-03     103.436E-03    -17.3549E+06    -12.4201E+06     2.02463E+06    -2.13925E+06    -12.3001E-03     24.0448E-03    -11.7448E-03     36.7197E-03    -12.3729E-03     24.0061E-03    -11.6915E-03     36.6901E-03
            1194     8.89498E-03     103.469E-03    -16.3602E+06    -14.2193E+06     2.48814E+06    -6.76332E+06    -12.6683E-03     24.4624E-03    -11.7942E-03     42.7175E-03    -12.7351E-03     24.4134E-03    -11.7374E-03     42.6272E-03
            1195     9.78409E-03     103.507E-03    -14.3417E+06    -14.8563E+06     4.29432E+06    -11.2353E+06    -13.2507E-03     25.1193E-03    -11.8686E-03     49.3717E-03    -13.3108E-03     25.0633E-03    -11.8048E-03     49.2219E-03
            1196     10.6722E-03     103.552E-03    -12.4286E+06    -17.1447E+06     5.68546E+06    -14.4918E+06    -14.1382E-03     26.1163E-03    -11.9781E-03     56.5730E-03    -14.1910E-03     26.0476E-03    -11.9068E-03     56.3778E-03
            1197     11.5602E-03     103.602E-03    -11.4748E+06    -16.1361E+06     6.34522E+06    -16.5362E+06    -15.4073E-03     27.5379E-03    -12.1306E-03     64.3168E-03    -15.4648E-03     27.4790E-03    -12.0588E-03     64.0893E-03
            1198     12.4463E-03     103.661E-03    -9.70147E+06    -15.2322E+06     8.47116E+06    -18.5833E+06    -17.2433E-03     29.6005E-03    -12.3572E-03     74.2324E-03    -17.3115E-03     29.5556E-03    -12.2787E-03     73.9679E-03
            1199     13.3317E-03     103.730E-03    -8.08610E+06    -36.3790E+06    -2.39566E+06    -21.7544E+06    -19.6590E-03     32.3016E-03    -12.6426E-03     79.9586E-03    -19.6956E-03     32.1873E-03    -12.5901E-03     79.6383E-03
            1200     14.2138E-03     103.798E-03    -7.26756E+06    -27.3010E+06    -3.32137E+06    -23.8250E+06    -22.3520E-03     35.3941E-03    -13.0422E-03     84.6338E-03    -22.4401E-03     35.3693E-03    -13.0086E-03     84.2666E-03
            1201     15.0954E-03     103.877E-03    -6.22677E+06    -24.8498E+06    -3.97279E+06    -23.0769E+06    -26.0706E-03     39.6201E-03    -13.5495E-03     110.624E-03    -26.3432E-03     39.7941E-03    -13.5243E-03     110.240E-03
            1202     15.9740E-03     103.995E-03    -6.91381E+06    -8.77269E+06    -26.0004E+06    -17.3635E+06    -30.4043E-03     44.4022E-03    -13.9979E-03     156.660E-03    -31.6139E-03     45.6316E-03    -14.1051E-03     156.552E-03
            1203     16.8478E-03     104.164E-03    -4.39553E+06     91.6251E+06     35.0831E+06    -6.69434E+06    -31.4882E-03     46.2072E-03    -14.7190E-03     190.105E-03    -34.3983E-03     49.3252E-03    -14.6701E-03     191.599E-03
            1204     890.059E-06     104.286E-03    -73.6160E+06    -50.5637E+06    -73.3886E+06     -2.9864E+06    -11.0158E-03     22.0378E-03    -11.0220E-03     3.76170E-03    -11.2041E-03     21.9981E-03    -11.2089E-03     3.72308E-03
            1205     1.77994E-03     104.290E-03    -69.4332E+06    -48.2145E+06    -68.2173E+06    -4.87608E+06    -11.0253E-03     22.0566E-03    -11.0313E-03     6.95608E-03    -11.2037E-03     22.0152E-03    -11.2018E-03     6.89300E-03
            1206     2.67003E-03     104.297E-03    -61.9524E+06    -42.9496E+06    -59.9417E+06    -5.27518E+06    -11.0324E-03     22.0792E-03    -11.0468E-03     10.3857E-03    -11.1930E-03     22.0412E-03    -11.1944E-03     10.3174E-03
            1207     3.56001E-03     104.306E-03    -50.1045E+06    -34.4899E+06    -46.8570E+06    -2.27475E+06    -11.0529E-03     22.1250E-03    -11.0721E-03     13.9344E-03    -11.1855E-03     22.0932E-03    -11.1837E-03     13.9047E-03
            1208     4.45015E-03     104.319E-03    -35.4896E+06    -24.7292E+06    -29.8823E+06     3.13037E+06    -11.1123E-03     22.2238E-03    -11.1115E-03     17.6903E-03    -11.2107E-03     22.1950E-03    -11.1736E-03     17.7302E-03
            1209     5.34023E-03     104.336E-03    -23.6926E+06    -16.9133E+06    -13.2552E+06     6.46619E+06    -11.2393E-03     22.4031E-03    -11.1638E-03     21.7786E-03    -11.3143E-03     22.3723E-03    -11.1712E-03     21.8613E-03
            1210     6.23010E-03     104.355E-03    -18.0575E+06    -11.6119E+06    -1.86790E+06     5.69125E+06    -11.4396E-03     22.6573E-03    -11.2176E-03     26.2691E-03    -11.5108E-03     22.6285E-03    -11.1839E-03     26.3416E-03
            1211     7.11988E-03     104.379E-03    -16.3689E+06    -8.49424E+06     3.18713E+06     2.22630E+06    -11.6842E-03     22.9497E-03    -11.2655E-03     31.2074E-03    -11.7590E-03     22.9269E-03    -11.2135E-03     31.2349E-03
            1212     8.00944E-03     104.407E-03    -14.4016E+06    -7.85094E+06     4.95770E+06    -1.85512E+06    -11.9691E-03     23.2829E-03    -11.3138E-03     36.6965E-03    -12.0379E-03     23.2583E-03    -11.2567E-03     36.6708E-03
            1213     8.89903E-03     104.440E-03    -12.0435E+06    -8.15028E+06     6.32718E+06    -6.12685E+06    -12.3691E-03     23.7438E-03    -11.3747E-03     42.8515E-03    -12.4285E-03     23.7131E-03    -11.3138E-03     42.7698E-03
            1214     9.78790E-03     104.479E-03    -11.5214E+06    -9.49632E+06     7.43275E+06    -10.5465E+06    -12.9444E-03     24.4031E-03    -11.4587E-03     49.7757E-03    -13.0024E-03     24.3649E-03    -11.3911E-03     49.6353E-03
            1215     10.6770E-03     104.524E-03    -10.8410E+06    -12.6346E+06     8.29488E+06    -14.3037E+06    -13.8124E-03     25.3877E-03    -11.5752E-03     57.3769E-03    -13.8669E-03     25.3347E-03    -11.4997E-03     57.1851E-03
            1216     11.5645E-03     104.576E-03    -9.37899E+06    -13.2573E+06     8.99596E+06    -16.2163E+06    -15.1214E-03     26.8559E-03    -11.7345E-03     65.7475E-03    -15.1753E-03     26.8033E-03    -11.6566E-03     65.5255E-03
            1217     12.4518E-03     104.636E-03    -8.61158E+06    -10.9184E+06     10.6517E+06    -18.2401E+06    -17.0461E-03     29.0108E-03    -11.9647E-03     76.4136E-03    -17.1168E-03     28.9813E-03    -11.8831E-03     76.1552E-03
            1218     13.3368E-03     104.707E-03    -8.53646E+06    -30.3883E+06     1.32625E+06    -21.9217E+06    -19.6685E-03     31.9392E-03    -12.2707E-03     83.1707E-03    -19.7200E-03     31.8488E-03    -12.2077E-03     82.8496E-03
            1219     14.2196E-03     104.780E-03    -8.15184E+06    -24.5921E+06    -786.792E+03    -24.4457E+06    -22.8808E-03     35.5820E-03    -12.7011E-03     88.4798E-03    -22.9816E-03     35.5689E-03    -12.6576E-03     88.1029E-03
            1220     15.0992E-03     104.860E-03    -6.45604E+06    -25.5211E+06    -2.15373E+06    -24.5026E+06    -27.1744E-03     40.4408E-03    -13.2664E-03     113.845E-03    -27.4473E-03     40.6066E-03    -13.2308E-03     113.432E-03
            1221     15.9760E-03     104.984E-03    -5.30661E+06    -18.3564E+06    -26.8223E+06    -18.2989E+06    -31.5181E-03     45.2923E-03    -13.7743E-03     160.047E-03    -32.6581E-03     46.4262E-03    -13.8741E-03     159.883E-03
            1222     16.8535E-03     105.154E-03    -4.56136E+06     80.3899E+06     32.1551E+06    -7.57442E+06    -33.2539E-03     47.8126E-03    -14.5588E-03     192.672E-03    -36.0981E-03     50.8329E-03    -14.5079E-03     194.017E-03
            1223     890.261E-06     105.254E-03    -70.4876E+06    -43.3308E+06    -69.8044E+06    -4.39542E+06    -10.6434E-03     21.3000E-03    -10.6566E-03     3.68317E-03    -10.8317E-03     21.2868E-03    -10.8406E-03     3.62635E-03
            1224     1.78072E-03     105.259E-03    -68.8427E+06    -41.8342E+06    -66.9274E+06    -8.03610E+06    -10.6655E-03     21.3268E-03    -10.6613E-03     6.80144E-03    -10.8520E-03     21.3145E-03    -10.8354E-03     6.69756E-03
            1225     2.67096E-03     105.266E-03    -66.0450E+06    -38.7688E+06    -62.5482E+06    -11.1982E+06    -10.6852E-03     21.3619E-03    -10.6767E-03     10.1669E-03    -10.8686E-03     21.3546E-03    -10.8375E-03     10.0221E-03
            1226     3.56135E-03     105.276E-03    -60.8801E+06    -35.1845E+06    -55.9958E+06    -12.5720E+06    -10.7124E-03     21.4100E-03    -10.6976E-03     13.6652E-03    -10.8847E-03     21.4036E-03    -10.8383E-03     13.5025E-03
            1227     4.45163E-03     105.288E-03    -51.4452E+06    -29.1657E+06    -46.7937E+06    -10.7064E+06    -10.7415E-03     21.4604E-03    -10.7189E-03     17.3407E-03    -10.8888E-03     21.4572E-03    -10.8359E-03     17.2020E-03
            1228     5.34202E-03     105.305E-03     -37.308E+06    -20.7810E+06    -33.1430E+06    -6.12183E+06    -10.8100E-03     21.5599E-03    -10.7499E-03     21.3032E-03    -10.9187E-03     21.5584E-03    -10.8314E-03     21.2235E-03
            1229     6.23250E-03     105.325E-03    -22.7856E+06    -13.1929E+06    -15.1593E+06    -1.10765E+06    -10.9822E-03     21.7915E-03    -10.8093E-03     25.6972E-03    -11.0553E-03     21.7809E-03    -10.8329E-03     25.6821E-03
            1230     7.12264E-03     105.349E-03    -13.4453E+06    -6.22037E+06     690.218E+03     943.420E+03    -11.2575E-03     22.1405E-03    -10.8830E-03     30.6400E-03    -11.3173E-03     22.1285E-03    -10.8510E-03     30.6511E-03
            1231     8.01263E-03     105.377E-03    -10.1407E+06    -2.99308E+06     7.95772E+06    -1.63821E+06    -11.6170E-03     22.5661E-03    -10.9491E-03     36.2259E-03    -11.6758E-03     22.5552E-03    -10.8903E-03     36.2032E-03
            1232     8.90219E-03     105.410E-03    -8.98518E+06    -3.12507E+06     9.73272E+06    -5.71393E+06    -12.0414E-03     23.0574E-03    -11.0161E-03     42.5163E-03    -12.0975E-03     23.0423E-03    -10.9498E-03     42.4403E-03
            1233     9.79192E-03     105.449E-03    -7.61564E+06    -4.54643E+06     11.3289E+06    -8.90902E+06    -12.6082E-03     23.7123E-03    -11.1041E-03     49.6377E-03    -12.6590E-03     23.6870E-03    -11.0298E-03     49.5191E-03
            1234     10.6806E-03     105.495E-03    -7.71242E+06    -7.19865E+06     12.1566E+06    -12.5245E+06    -13.4415E-03     24.6622E-03    -11.2207E-03     57.6480E-03    -13.4928E-03     24.6254E-03    -11.1383E-03     57.4802E-03
            1235     11.5693E-03     105.549E-03    -8.03220E+06    -10.5056E+06     11.9448E+06    -15.7577E+06    -14.7246E-03     26.1029E-03    -11.3783E-03     66.6423E-03    -14.7784E-03     26.0563E-03    -11.2917E-03     66.4280E-03
            1236     12.4562E-03     105.610E-03    -7.65853E+06    -7.72431E+06     13.3972E+06    -16.7182E+06    -16.7162E-03     28.3198E-03    -11.6037E-03     78.1897E-03    -16.7881E-03     28.2984E-03    -11.5144E-03     77.9532E-03
            1237     13.3417E-03     105.685E-03    -8.14205E+06    -22.4014E+06      6.6726E+06    -20.5209E+06    -19.5344E-03     31.4536E-03    -11.9192E-03     86.0698E-03    -19.6003E-03     31.3919E-03    -11.8416E-03     85.7690E-03
            1238     14.2248E-03     105.760E-03    -7.63500E+06    -20.5641E+06     3.75978E+06    -25.3194E+06    -23.1020E-03     35.4688E-03    -12.3669E-03     92.6285E-03    -23.2101E-03     35.4661E-03    -12.3072E-03     92.2407E-03
            1239     15.1038E-03     105.847E-03    -6.95419E+06    -26.6511E+06     41.8711E+03    -24.8149E+06    -27.9200E-03     40.8839E-03    -12.9639E-03     118.610E-03    -28.1957E-03     41.0404E-03    -12.9149E-03     118.185E-03
            1240     15.9812E-03     105.970E-03    -7.38192E+06    -27.9986E+06    -27.1030E+06    -19.5677E+06    -32.4217E-03     45.9454E-03    -13.5237E-03     161.585E-03    -33.4697E-03     46.9466E-03    -13.6079E-03     161.355E-03
            1241     16.8594E-03     106.142E-03    -5.11986E+06     68.1344E+06     30.3031E+06    -9.49172E+06    -35.2098E-03     49.5908E-03    -14.3810E-03     192.852E-03    -37.9444E-03     52.4615E-03    -14.3209E-03     193.987E-03
            1242     890.634E-06     106.223E-03    -51.2042E+06    -34.6929E+06    -50.8083E+06    -4.40203E+06    -10.4809E-03     20.9683E-03    -10.4874E-03     3.51363E-03    -10.6129E-03     20.9428E-03    -10.6169E-03     3.45668E-03
            1243     1.78104E-03     106.227E-03    -51.1190E+06    -33.3220E+06    -49.0443E+06    -8.16125E+06    -10.5121E-03     21.0073E-03    -10.4952E-03     6.48722E-03    -10.6483E-03     20.9860E-03    -10.6180E-03     6.38163E-03
            1244     2.67164E-03     106.234E-03    -50.7698E+06    -31.2478E+06    -46.6140E+06    -11.7394E+06    -10.5503E-03     21.0653E-03    -10.5150E-03     9.70251E-03    -10.6913E-03     21.0504E-03    -10.6292E-03     9.55060E-03
            1245     3.56204E-03     106.244E-03    -50.3776E+06    -29.8000E+06    -44.2995E+06    -14.8401E+06    -10.5903E-03     21.1269E-03    -10.5366E-03     13.0564E-03    -10.7349E-03     21.1153E-03    -10.6418E-03     12.8643E-03
            1246     4.45258E-03     106.257E-03    -48.8449E+06    -27.1399E+06    -41.7436E+06    -17.1866E+06    -10.6220E-03     21.1761E-03    -10.5540E-03     16.5982E-03    -10.7666E-03     21.1719E-03    -10.6526E-03     16.3756E-03
            1247     5.34305E-03     106.273E-03    -44.4982E+06    -22.5669E+06    -37.8194E+06    -17.3777E+06    -10.6467E-03     21.2134E-03    -10.5668E-03     20.4119E-03    -10.7819E-03     21.2203E-03    -10.6586E-03     20.1868E-03
            1248     6.23351E-03     106.293E-03    -35.1361E+06    -17.4453E+06    -29.2542E+06    -14.2071E+06    -10.6892E-03     21.2783E-03    -10.5890E-03     24.6152E-03    -10.7977E-03     21.2849E-03    -10.6591E-03     24.4308E-03
            1249     7.12420E-03     106.317E-03    -21.5772E+06     -8.7165E+06    -14.6143E+06    -9.01153E+06    -10.8393E-03     21.4703E-03    -10.6310E-03     29.4078E-03    -10.9140E-03     21.4798E-03    -10.6601E-03     29.2903E-03
            1250     8.01459E-03     106.346E-03    -9.87984E+06    -1.43156E+06     1.95677E+06    -5.13113E+06    -11.1747E-03     21.8763E-03    -10.7016E-03     34.9706E-03    -11.2257E-03     21.8815E-03    -10.6754E-03     34.9029E-03
            1251     8.90474E-03     106.380E-03    -4.71603E+06     799.310E+03     12.2367E+06    -5.31855E+06    -11.6513E-03     22.4339E-03    -10.7826E-03     41.3510E-03    -11.6952E-03     22.4284E-03    -10.7157E-03     41.2804E-03
            1252     9.79423E-03     106.420E-03    -4.17825E+06    -1.38054E+06     14.7051E+06    -7.32478E+06    -12.2278E-03     23.0922E-03    -10.8645E-03     48.6642E-03    -12.2704E-03     23.0725E-03    -10.7829E-03     48.5666E-03
            1253     10.6840E-03     106.466E-03    -4.63520E+06    -1.83897E+06     16.3267E+06    -9.61037E+06    -13.0023E-03     23.9722E-03    -10.9698E-03     57.0035E-03    -13.0511E-03     23.9506E-03    -10.8788E-03     56.8745E-03
            1254     11.5723E-03     106.520E-03    -5.37096E+06    -5.46457E+06     16.9523E+06    -13.7206E+06    -14.2797E-03     25.3985E-03    -11.1188E-03     66.6786E-03    -14.3329E-03     25.3640E-03    -11.0183E-03     66.4924E-03
            1255     12.4602E-03     106.584E-03    -5.07295E+06    -7.00508E+06     17.4109E+06    -15.6476E+06    -16.3070E-03     27.6396E-03    -11.3326E-03     79.0070E-03    -16.3694E-03     27.6086E-03    -11.2280E-03     78.7871E-03
            1256     13.3465E-03     106.661E-03    -4.96103E+06    -13.0147E+06     14.5762E+06    -18.1596E+06    -19.0564E-03     30.6952E-03    -11.6389E-03     88.2942E-03    -19.1262E-03     30.6590E-03    -11.5399E-03     88.0277E-03
            1257     14.2288E-03     106.741E-03    -5.96785E+06    -14.2619E+06     10.2135E+06    -24.2559E+06    -22.8918E-03     34.9659E-03    -12.0741E-03     96.4309E-03    -23.0046E-03     34.9775E-03    -11.9937E-03     96.0594E-03
            1258     15.1103E-03     106.830E-03    -6.90476E+06    -28.0059E+06     4.05286E+06    -25.4216E+06    -28.4527E-03     41.1404E-03    -12.6877E-03     121.950E-03    -28.7188E-03     41.2711E-03    -12.6168E-03     121.511E-03
            1259     15.9857E-03     106.962E-03    -6.14404E+06    -35.4798E+06    -19.1295E+06    -20.0557E+06    -33.9575E-03     47.2929E-03    -13.3354E-03     162.836E-03    -34.9018E-03     48.1451E-03    -13.3707E-03     162.519E-03
            1260     16.8564E-03     107.130E-03    -4.37180E+06     54.2197E+06     33.1149E+06    -10.6539E+06    -37.3457E-03     51.6124E-03    -14.2668E-03     196.403E-03    -39.9954E-03     54.3433E-03    -14.1735E-03     197.323E-03
            1261     890.485E-06     107.191E-03    -32.1180E+06    -26.5488E+06    -31.4200E+06    -3.95994E+06    -10.5474E-03     21.0942E-03    -10.5469E-03     3.25069E-03    -10.6239E-03     21.0537E-03    -10.6189E-03     3.19938E-03
            1262     1.78118E-03     107.195E-03    -32.0358E+06    -25.1001E+06    -30.4827E+06    -7.21839E+06    -10.5871E-03     21.1449E-03    -10.5578E-03     6.01321E-03    -10.6667E-03     21.1101E-03    -10.6274E-03     5.91967E-03
            1263     2.67158E-03     107.202E-03    -32.1179E+06    -23.7505E+06    -28.7700E+06    -10.4554E+06    -10.6432E-03     21.2255E-03    -10.5824E-03     8.99274E-03    -10.7277E-03     21.1952E-03    -10.6452E-03     8.85722E-03
            1264     3.56213E-03     107.213E-03    -31.8150E+06    -22.5691E+06    -26.0782E+06    -13.5705E+06    -10.7128E-03     21.3290E-03    -10.6162E-03     12.0913E-03    -10.8016E-03     21.3003E-03    -10.6677E-03     11.9154E-03
            1265     4.45248E-03     107.225E-03    -31.5784E+06    -20.9500E+06    -23.2831E+06    -16.5713E+06    -10.7793E-03     21.4311E-03    -10.6518E-03     15.3722E-03    -10.8733E-03     21.4062E-03    -10.6921E-03     15.1572E-03
            1266     5.34283E-03     107.242E-03    -31.6484E+06    -19.0463E+06    -21.4205E+06    -18.7942E+06    -10.8128E-03     21.4927E-03    -10.6799E-03     18.9260E-03    -10.9128E-03     21.4749E-03    -10.7135E-03     18.6822E-03
            1267     6.23327E-03     107.262E-03    -30.9659E+06    -16.7451E+06    -20.7149E+06    -20.4206E+06    -10.8086E-03     21.5007E-03    -10.6920E-03     22.8656E-03    -10.9098E-03     21.4925E-03    -10.7264E-03     22.6006E-03
            1268     7.12369E-03     107.286E-03    -27.0532E+06    -11.8943E+06    -17.9834E+06    -19.4455E+06    -10.7920E-03     21.4868E-03    -10.6948E-03     27.3566E-03    -10.8847E-03     21.4934E-03    -10.7283E-03     27.1040E-03
            1269     8.01439E-03     107.315E-03    -18.2468E+06    -4.68953E+06    -8.83186E+06    -15.0931E+06    -10.8657E-03     21.5782E-03    -10.7125E-03     32.6230E-03    -10.9384E-03     21.5950E-03    -10.7234E-03     32.4265E-03
            1270     8.90491E-03     107.349E-03    -7.80884E+06     145.775E+03     4.02280E+06    -9.92877E+06    -11.1753E-03     21.9325E-03    -10.7572E-03     38.8946E-03    -11.2217E-03     21.9400E-03    -10.7259E-03     38.7646E-03
            1271     9.79523E-03     107.389E-03    -804.648E+03     302.526E+03     14.7300E+06    -7.67348E+06    -11.7403E-03     22.5673E-03    -10.8271E-03     46.3345E-03    -11.7680E-03     22.5506E-03    -10.7527E-03     46.2330E-03
            1272     10.6846E-03     107.436E-03     2.26925E+06     871.816E+03     21.2294E+06    -8.07656E+06    -12.5398E-03     23.4558E-03    -10.9160E-03     54.9917E-03    -12.5640E-03     23.4296E-03    -10.8144E-03     54.8836E-03
            1273     11.5742E-03     107.492E-03     1.35832E+06    -630.613E+03     24.1337E+06    -8.99403E+06    -13.8218E-03     24.8670E-03    -11.0452E-03     65.2359E-03    -13.8565E-03     24.8343E-03    -10.9256E-03     65.1126E-03
            1274     12.4620E-03     107.557E-03    -2.37165E+06    -3.49568E+06     23.8674E+06    -12.3138E+06    -15.7653E-03     27.0010E-03    -11.2357E-03     78.3564E-03    -15.8240E-03     26.9697E-03    -11.1079E-03     78.1829E-03
            1275     13.3480E-03     107.636E-03    -4.59615E+06    -7.49159E+06     21.2845E+06    -15.4026E+06    -18.3324E-03     29.8423E-03    -11.5099E-03     88.6892E-03    -18.4104E-03     29.8158E-03    -11.3859E-03     88.4634E-03
            1276     14.2339E-03     107.719E-03    -7.30135E+06    -4.46562E+06     17.5535E+06    -19.7679E+06    -22.6821E-03     34.6030E-03    -11.9209E-03     98.7034E-03    -22.8168E-03     34.6453E-03    -11.8161E-03     98.3937E-03
            1277     15.1114E-03     107.818E-03    -8.30997E+06    -25.8802E+06     9.42570E+06    -26.0769E+06    -28.4277E-03     40.9590E-03    -12.5313E-03     124.429E-03    -28.6828E-03     41.0657E-03    -12.4346E-03     123.983E-03
            1278     15.9877E-03     107.949E-03    -6.94354E+06    -45.0179E+06    -12.9263E+06    -22.6563E+06    -34.2314E-03     47.4336E-03    -13.2023E-03     165.355E-03    -35.0663E-03     48.1217E-03    -13.1915E-03     164.958E-03
            1279     16.8660E-03     108.123E-03    -4.77932E+06     41.0952E+06     32.2593E+06    -11.0757E+06    -38.8495E-03     52.9861E-03    -14.1366E-03     199.643E-03    -41.3517E-03     55.5240E-03    -14.0280E-03     200.329E-03
            1280     890.392E-06     108.160E-03    -15.3680E+06    -19.2260E+06    -15.0376E+06    -3.40264E+06    -10.9205E-03     21.8336E-03    -10.9131E-03     2.90149E-03    -10.9477E-03     21.7816E-03    -10.9381E-03     2.85729E-03
            1281     1.78052E-03     108.164E-03    -15.5022E+06    -17.9530E+06    -14.4158E+06    -6.34494E+06    -10.9687E-03     21.8970E-03    -10.9283E-03     5.37107E-03    -10.9993E-03     21.8507E-03    -10.9519E-03     5.28865E-03
            1282     2.67086E-03     108.171E-03    -15.6326E+06    -16.9684E+06    -12.7108E+06    -9.15107E+06    -11.0434E-03     22.0036E-03    -10.9602E-03     8.01991E-03    -11.0786E-03     21.9599E-03    -10.9765E-03     7.90098E-03
            1283     3.56093E-03     108.181E-03    -16.0605E+06    -16.0652E+06    -10.6633E+06    -11.8000E+06    -11.1334E-03     22.1351E-03    -11.0017E-03     10.7796E-03    -11.1752E-03     22.0938E-03    -11.0084E-03     10.6262E-03
            1284     4.45105E-03     108.195E-03    -16.7568E+06    -14.7082E+06    -8.74083E+06    -14.1994E+06    -11.2213E-03     22.2674E-03    -11.0462E-03     13.7027E-03    -11.2715E-03     22.2312E-03    -11.0442E-03     13.5180E-03
            1285     5.34107E-03     108.211E-03    -17.0952E+06    -13.5594E+06    -6.54718E+06    -16.5770E+06    -11.2954E-03     22.3869E-03    -11.0915E-03     16.8553E-03    -11.3523E-03     22.3539E-03    -11.0798E-03     16.6395E-03
            1286     6.23102E-03     108.231E-03    -17.4080E+06    -11.7900E+06    -4.03666E+06    -18.6880E+06    -11.3288E-03     22.4613E-03    -11.1324E-03     20.3673E-03    -11.3937E-03     22.4342E-03    -11.1103E-03     20.1240E-03
            1287     7.12102E-03     108.255E-03    -18.2763E+06    -10.2590E+06    -2.96612E+06    -20.3476E+06    -11.2824E-03     22.4380E-03    -11.1556E-03     24.4085E-03    -11.3556E-03     22.4185E-03    -11.1290E-03     24.1435E-03
            1288     8.01108E-03     108.283E-03    -18.3635E+06    -6.52244E+06    -3.41632E+06    -20.2766E+06    -11.1558E-03     22.3040E-03    -11.1481E-03     29.1839E-03    -11.2345E-03     22.3042E-03    -11.1291E-03     28.9199E-03
            1289     8.90162E-03     108.318E-03    -14.9083E+06    -3.76811E+06    -320.670E+03    -17.2781E+06    -11.0983E-03     22.2358E-03    -11.1375E-03     34.9229E-03    -11.1684E-03     22.2404E-03    -11.1120E-03     34.6975E-03
            1290     9.79216E-03     108.358E-03    -8.09655E+06    -1.00723E+06     8.15223E+06    -12.9474E+06    -11.3096E-03     22.4563E-03    -11.1468E-03     42.0007E-03    -11.3622E-03     22.4529E-03    -11.0928E-03     41.8311E-03
            1291     10.6826E-03     108.406E-03    -2.09736E+06     762.705E+03     17.9638E+06    -9.88008E+06    -11.9908E-03     23.1800E-03    -11.1892E-03     50.7958E-03    -12.0310E-03     23.1634E-03    -11.0975E-03     50.6651E-03
            1292     11.5718E-03     108.462E-03     2.01295E+06    -897.452E+03     26.2032E+06    -7.04460E+06    -13.2874E-03     24.5725E-03    -11.2851E-03     61.6251E-03    -13.3191E-03     24.5322E-03    -11.1557E-03     61.5289E-03
            1293     12.4603E-03     108.529E-03     2.43115E+06     1.90059E+06     30.8843E+06    -6.44762E+06    -15.0411E-03     26.4754E-03    -11.4343E-03     75.0392E-03    -15.0885E-03     26.4486E-03    -11.2861E-03     74.9453E-03
            1294     13.3483E-03     108.610E-03    -774.250E+03    -2.67240E+06     28.4765E+06    -10.1145E+06    -17.7325E-03     29.3952E-03    -11.6627E-03     86.7804E-03    -17.8002E-03     29.3682E-03    -11.5153E-03     86.6281E-03
            1295     14.2308E-03     108.698E-03    -4.59857E+06     2.65793E+06     25.1727E+06    -13.1226E+06    -21.7610E-03     33.7812E-03    -12.0202E-03     99.5381E-03    -21.8876E-03     33.8281E-03    -11.8915E-03     99.3231E-03
            1296     15.1130E-03     108.802E-03    -9.80502E+06    -15.3826E+06     15.5705E+06    -21.0513E+06    -27.1397E-03     39.6923E-03    -12.5526E-03     125.492E-03    -27.3847E-03     39.8030E-03    -12.4382E-03     125.122E-03
            1297     15.9917E-03     108.935E-03    -11.7823E+06    -52.2758E+06    -12.5624E+06    -26.5341E+06    -33.9674E-03     47.1403E-03    -13.1730E-03     166.704E-03    -34.6748E-03     47.6571E-03    -13.1429E-03     166.222E-03
            1298     16.8606E-03     109.117E-03    -4.32530E+06     23.8275E+06     26.7445E+06    -15.4533E+06    -39.1379E-03     53.2068E-03    -14.0689E-03     201.944E-03    -41.3892E-03     55.4501E-03    -13.9635E-03     202.347E-03
            1299     889.593E-06     109.129E-03    -1.94710E+06    -12.8715E+06    -1.79242E+06    -3.18186E+06    -11.6900E-03     23.3599E-03    -11.6700E-03     2.47576E-03    -11.6785E-03     23.3010E-03    -11.6574E-03     2.43431E-03
            1300     1.77939E-03     109.134E-03    -2.24112E+06    -11.8493E+06    -924.951E+03    -5.35285E+06    -11.7486E-03     23.4458E-03    -11.6973E-03     4.57120E-03    -11.7414E-03     23.3912E-03    -11.6815E-03     4.50139E-03
            1301     2.66885E-03     109.141E-03    -2.79333E+06    -11.2745E+06     162.908E+03    -7.55369E+06    -11.8372E-03     23.5728E-03    -11.7356E-03     6.81634E-03    -11.8352E-03     23.5203E-03    -11.7144E-03     6.71775E-03
            1302     3.55841E-03     109.151E-03    -3.37639E+06    -10.5426E+06     1.40271E+06    -9.65647E+06    -11.9453E-03     23.7282E-03    -11.7829E-03     9.15024E-03    -11.9492E-03     23.6785E-03    -11.7557E-03     9.02409E-03
            1303     4.44776E-03     109.164E-03    -3.90222E+06    -9.58262E+06     3.35584E+06    -11.6662E+06    -12.0660E-03     23.9056E-03    -11.8396E-03     11.6089E-03    -12.0769E-03     23.8588E-03    -11.8032E-03     11.4563E-03
            1304     5.33703E-03     109.181E-03    -5.00973E+06    -8.39305E+06     5.56347E+06    -13.5397E+06    -12.1776E-03     24.0791E-03    -11.9015E-03     14.2685E-03    -12.1992E-03     24.0369E-03    -11.8542E-03     14.0913E-03
            1305     6.22622E-03     109.201E-03    -6.65144E+06    -7.42472E+06     7.21194E+06    -15.0845E+06    -12.2467E-03     24.2066E-03    -11.9599E-03     17.2438E-03    -12.2806E-03     24.1695E-03    -11.9034E-03     17.0463E-03
            1306     7.11539E-03     109.225E-03    -8.21531E+06    -6.01502E+06     9.16242E+06    -16.4172E+06    -12.2552E-03     24.2660E-03    -12.0108E-03     20.6721E-03    -12.3020E-03     24.2357E-03    -11.9444E-03     20.4570E-03
            1307     8.00468E-03     109.253E-03    -9.87127E+06    -4.80277E+06     10.7764E+06    -17.3360E+06    -12.1754E-03     24.2211E-03    -12.0457E-03     24.7175E-03    -12.2350E-03     24.1972E-03    -11.9705E-03     24.4903E-03
            1308     8.89398E-03     109.287E-03    -11.9292E+06    -4.70408E+06     10.6754E+06    -17.1809E+06    -11.9768E-03     24.0288E-03    -12.0520E-03     29.6162E-03    -12.0470E-03     24.0088E-03    -11.9745E-03     29.3909E-03
            1309     9.78378E-03     109.327E-03    -12.9661E+06    -3.36898E+06     10.6862E+06    -15.6047E+06    -11.7953E-03     23.8272E-03    -12.0318E-03     35.7347E-03    -11.8728E-03     23.8155E-03    -11.9547E-03     35.5299E-03
            1310     10.6739E-03     109.375E-03    -10.7845E+06    -1.27364E+06     15.6852E+06    -12.7638E+06    -11.9760E-03     24.0000E-03    -12.0240E-03     43.7611E-03    -12.0533E-03     23.9889E-03    -11.9281E-03     43.5930E-03
            1311     11.5641E-03     109.432E-03    -5.56813E+06    -2.80699E+06     23.9604E+06    -10.7236E+06    -12.7953E-03     24.8541E-03    -12.0589E-03     54.3906E-03    -12.8573E-03     24.8169E-03    -11.9269E-03     54.2481E-03
            1312     12.4528E-03     109.501E-03     1.17374E+06     69.1568E+03     31.9411E+06    -6.62056E+06    -14.2337E-03     26.3719E-03    -12.1382E-03     67.8309E-03    -14.2812E-03     26.3313E-03    -11.9803E-03     67.7385E-03
            1313     13.3397E-03     109.583E-03     3.67146E+06     2.00131E+06     35.5186E+06    -4.32043E+06    -16.5115E-03     28.7980E-03    -12.2865E-03     81.5326E-03    -16.5639E-03     28.7677E-03    -12.1171E-03     81.4622E-03
            1314     14.2266E-03     109.676E-03     579.356E+03     4.95543E+06     33.5778E+06    -6.33148E+06    -19.9977E-03     32.5369E-03    -12.5392E-03     95.8167E-03    -20.0931E-03     32.5547E-03    -12.3793E-03     95.7022E-03
            1315     15.1091E-03     109.782E-03    -3.34293E+06    -191.935E+03     30.0406E+06    -11.7587E+06    -25.5857E-03     38.5546E-03    -12.9689E-03     122.124E-03    -25.7904E-03     38.6599E-03    -12.8136E-03     121.890E-03
            1316     15.9858E-03     109.924E-03    -7.96851E+06    -42.7322E+06     1.23038E+06    -23.8382E+06    -32.9324E-03     46.4501E-03    -13.5177E-03     163.238E-03    -33.4769E-03     46.8111E-03    -13.4380E-03     162.777E-03
            1317     16.8658E-03     110.106E-03    -14.3846E+06     3.00752E+06     11.6731E+06    -23.6881E+06    -35.6688E-03     49.8782E-03    -14.2094E-03     198.776E-03    -37.5118E-03     51.6472E-03    -14.1345E-03     198.901E-03
            1318     888.718E-06     110.101E-03     7.27972E+06    -7.48870E+06     8.15718E+06    -2.38931E+06    -12.9329E-03     25.8401E-03    -12.9072E-03     1.96693E-03    -12.8975E-03     25.7802E-03    -12.8661E-03     1.93561E-03
            1319     1.77713E-03     110.105E-03     6.84656E+06    -7.15758E+06     8.34244E+06    -4.10765E+06    -13.0040E-03     25.9463E-03    -12.9423E-03     3.62840E-03    -12.9716E-03     25.8884E-03    -12.9001E-03     3.57447E-03
            1320     2.66572E-03     110.113E-03     6.33755E+06    -6.62044E+06     9.14162E+06    -5.79436E+06    -13.1120E-03     26.1004E-03    -12.9884E-03     5.38528E-03    -13.0842E-03     26.0448E-03    -12.9423E-03     5.30911E-03
            1321     3.55403E-03     110.123E-03     5.58739E+06    -6.16095E+06     10.4085E+06    -7.46857E+06    -13.2471E-03     26.2956E-03    -13.0484E-03     7.21047E-03    -13.2257E-03     26.2417E-03    -12.9956E-03     7.11218E-03
            1322     4.44229E-03     110.137E-03     4.43747E+06    -5.51837E+06     11.8856E+06    -8.89472E+06    -13.3996E-03     26.5189E-03    -13.1193E-03     9.14342E-03    -13.3871E-03     26.4679E-03    -13.0583E-03     9.02617E-03
            1323     5.33037E-03     110.153E-03     3.20557E+06    -4.70066E+06     13.6868E+06    -9.97438E+06    -13.5563E-03     26.7549E-03    -13.1986E-03     11.2263E-03    -13.5540E-03     26.7074E-03    -13.1280E-03     11.0945E-03
            1324     6.21834E-03     110.174E-03     2.07357E+06    -3.79738E+06     16.4127E+06    -11.1376E+06    -13.7162E-03     27.0029E-03    -13.2868E-03     13.5299E-03    -13.7250E-03     26.9578E-03    -13.2022E-03     13.3826E-03
            1325     7.10618E-03     110.197E-03     646.805E+03    -3.07424E+06     19.3411E+06    -11.9659E+06    -13.8557E-03     27.2343E-03    -13.3787E-03     16.1512E-03    -13.8773E-03     27.1910E-03    -13.2785E-03     15.9925E-03
            1326     7.99388E-03     110.226E-03    -1.33917E+06    -2.50265E+06     21.7214E+06    -12.1415E+06    -13.9324E-03     27.3982E-03    -13.4657E-03     19.2338E-03    -13.9686E-03     27.3574E-03    -13.3516E-03     19.0722E-03
            1327     8.88165E-03     110.259E-03    -3.06404E+06    -3.11510E+06     23.1592E+06    -12.3185E+06    -13.9174E-03     27.4566E-03    -13.5392E-03     22.9597E-03    -13.9639E-03     27.4135E-03    -13.4144E-03     22.7954E-03
            1328     9.76953E-03     110.299E-03    -3.81605E+06    -3.00495E+06     24.5300E+06    -12.6051E+06    -13.8144E-03     27.4076E-03    -13.5932E-03     27.7212E-03    -13.8672E-03     27.3646E-03    -13.4607E-03     27.5530E-03
            1329     10.6575E-03     110.346E-03    -4.11966E+06    -2.78984E+06     26.1994E+06    -11.9691E+06    -13.6616E-03     27.2895E-03    -13.6279E-03     34.0982E-03    -13.7191E-03     27.2460E-03    -13.4869E-03     33.9383E-03
            1330     11.5459E-03     110.403E-03    -4.43869E+06    -3.33993E+06     28.2591E+06    -10.9811E+06    -13.6434E-03     27.2930E-03    -13.6495E-03     42.8854E-03    -13.7052E-03     27.2446E-03    -13.4970E-03     42.7384E-03
            1331     12.4348E-03     110.472E-03    -2.76536E+06    -4.80105E+06     30.9939E+06    -9.88523E+06    -13.8671E-03     27.5328E-03    -13.6657E-03     54.8158E-03    -13.9231E-03     27.4718E-03    -13.4998E-03     54.6829E-03
            1332     13.3238E-03     110.555E-03     4.25355E+06    -214.583E+03     37.9394E+06    -5.70665E+06    -14.9424E-03     28.6476E-03    -13.7052E-03     68.8485E-03    -14.9834E-03     28.5929E-03    -13.5213E-03     68.7670E-03
            1333     14.2102E-03     110.650E-03     9.95490E+06     7.03470E+06     45.1191E+06    -2.76832E+06    -17.9206E-03     31.7532E-03    -13.8326E-03     84.3340E-03    -17.9683E-03     31.7307E-03    -13.6316E-03     84.2786E-03
            1334     15.0934E-03     110.762E-03     9.74147E+06     8.20317E+06     48.3438E+06    -3.66080E+06    -23.5691E-03     37.7044E-03    -14.1353E-03     111.962E-03    -23.6919E-03     37.7510E-03    -13.9196E-03     111.854E-03
            1335     15.9749E-03     110.907E-03     564.136E+03    -20.5866E+06     27.8467E+06    -11.6169E+06    -30.0863E-03     44.6531E-03    -14.5668E-03     152.743E-03    -30.4540E-03     44.8694E-03    -14.3985E-03     152.463E-03
            1336     16.8446E-03     111.094E-03    -1.13412E+06    -5.39410E+06     12.9132E+06    -20.7519E+06    -24.9835E-03     39.8027E-03    -14.8192E-03     183.800E-03    -26.0192E-03     40.7793E-03    -14.7452E-03     183.806E-03
            1337     886.966E-06     111.075E-03     13.4715E+06    -3.74077E+06     14.1181E+06    -1.19022E+06    -14.7820E-03     29.4686E-03    -14.6866E-03     1.41497E-03    -14.7298E-03     29.4097E-03    -14.6301E-03     1.39909E-03
            1338     1.77412E-03     111.080E-03     13.0611E+06    -3.45448E+06     14.6805E+06    -2.80506E+06    -14.8556E-03     29.6229E-03    -14.7673E-03     2.46080E-03    -14.8068E-03     29.5652E-03    -14.7078E-03     2.42359E-03
            1339     2.66090E-03     111.087E-03     12.6121E+06    -3.29637E+06     15.7518E+06    -4.08191E+06    -14.9788E-03     29.8094E-03    -14.8306E-03     3.60762E-03    -14.9341E-03     29.7517E-03    -14.7654E-03     3.55340E-03
            1340     3.54769E-03     111.098E-03     11.9469E+06    -2.92342E+06     17.3078E+06    -5.06933E+06    -15.1408E-03     30.0478E-03    -14.9070E-03     4.82426E-03    -15.1023E-03     29.9908E-03    -14.8335E-03     4.75674E-03
            1341     4.43423E-03     111.112E-03     11.1746E+06    -2.69952E+06     19.1245E+06    -5.95113E+06    -15.3479E-03     30.3468E-03    -14.9989E-03     6.11054E-03    -15.3163E-03     30.2894E-03    -14.9156E-03     6.03103E-03
            1342     5.32061E-03     111.129E-03     10.4626E+06    -2.05813E+06     22.0592E+06    -6.84049E+06    -15.6140E-03     30.7262E-03    -15.1122E-03     7.48019E-03    -15.5913E-03     30.6689E-03    -15.0141E-03     7.38852E-03
            1343     6.20669E-03     111.149E-03     9.53801E+06    -1.50580E+06     25.6715E+06    -7.31391E+06    -15.9410E-03     31.1896E-03    -15.2486E-03     8.96465E-03    -15.9292E-03     31.1314E-03    -15.1319E-03     8.86610E-03
            1344     7.09242E-03     111.173E-03     8.35051E+06    -1.26691E+06     28.9376E+06    -7.45200E+06    -16.3020E-03     31.7053E-03    -15.4033E-03     10.6137E-03    -16.3015E-03     31.6454E-03    -15.2689E-03     10.5126E-03
            1345     7.97785E-03     111.202E-03     7.51479E+06    -1.21796E+06     31.9171E+06    -7.46977E+06    -16.6698E-03     32.2423E-03    -15.5725E-03     12.5164E-03    -16.6782E-03     32.1798E-03    -15.4221E-03     12.4140E-03
            1346     8.86293E-03     111.235E-03     6.68567E+06    -1.25522E+06     34.5209E+06    -7.70407E+06    -17.0446E-03     32.7979E-03    -15.7532E-03     14.8273E-03    -17.0614E-03     32.7329E-03    -15.5885E-03     14.7209E-03
            1347     9.74754E-03     111.275E-03     5.34032E+06    -1.45103E+06     36.1464E+06    -8.14209E+06    -17.3557E-03     33.2946E-03    -15.9389E-03     17.8550E-03    -17.3818E-03     33.2286E-03    -15.7638E-03     17.7419E-03
            1348     10.6321E-03     111.322E-03     4.39271E+06    -2.61827E+06     37.1409E+06    -8.31668E+06    -17.4967E-03     33.6177E-03    -16.1210E-03     21.9580E-03    -17.5280E-03     33.5462E-03    -15.9379E-03     21.8418E-03
            1349     11.5167E-03     111.377E-03     4.40349E+06    -3.60858E+06     37.2876E+06    -7.56446E+06    -17.1938E-03     33.4679E-03    -16.2740E-03     27.5996E-03    -17.2244E-03     33.3915E-03    -16.0888E-03     27.4930E-03
            1350     12.4017E-03     111.445E-03     5.39470E+06    -4.52011E+06     38.2071E+06    -8.44899E+06    -16.3507E-03     32.7266E-03    -16.3759E-03     35.2737E-03    -16.3768E-03     32.6432E-03    -16.1862E-03     35.1564E-03
            1351     13.2885E-03     111.526E-03     7.14900E+06    -3.15415E+06     41.9557E+06    -9.73645E+06    -15.4293E-03     31.8492E-03    -16.4199E-03     45.8796E-03    -15.4545E-03     31.7654E-03    -16.2159E-03     45.7466E-03
            1352     14.1761E-03     111.625E-03     12.5985E+06     3.72459E+06     50.2416E+06    -5.76141E+06    -15.7207E-03     32.1607E-03    -16.4399E-03     61.0055E-03    -15.7447E-03     32.0964E-03    -16.2124E-03     60.9208E-03
            1353     15.0623E-03     111.737E-03     16.8219E+06     7.06593E+06     54.7130E+06     127.992E+03    -20.0187E-03     36.5537E-03    -16.5350E-03     90.6521E-03    -20.0638E-03     36.5256E-03    -16.2961E-03     90.6201E-03
            1354     15.9399E-03     111.890E-03     17.1214E+06    -3.28567E+06     50.5189E+06    -2.58282E+06    -23.2933E-03     40.0094E-03    -16.7162E-03     129.336E-03    -23.4321E-03     40.0520E-03    -16.4836E-03     129.230E-03
            1355     16.8285E-03     112.072E-03     14.0562E+06    -1.42209E+06     29.4679E+06    -9.83399E+06    -9.42545E-03     25.8432E-03    -16.4178E-03     143.298E-03    -9.72621E-03     26.1063E-03    -16.2888E-03     143.263E-03
            1356     885.021E-06     112.054E-03     19.2746E+06    -1.24209E+06     18.9989E+06    -949.452E+03    -17.3105E-03     34.6663E-03    -17.3558E-03     454.095E-06    -17.2402E-03     34.6043E-03    -17.2870E-03     441.437E-06
            1357     1.76956E-03     112.059E-03     18.7440E+06    -1.25178E+06     20.3136E+06    -1.51867E+06    -17.4374E-03     34.8050E-03    -17.3676E-03     831.132E-06    -17.3717E-03     34.7417E-03    -17.2914E-03     810.728E-06
            1358     2.65427E-03     112.067E-03     18.1551E+06    -1.05357E+06     21.9147E+06    -2.18933E+06    -17.5803E-03     35.0158E-03    -17.4355E-03     1.26017E-03    -17.5202E-03     34.9521E-03    -17.3508E-03     1.23069E-03
            1359     3.53867E-03     112.077E-03     17.5940E+06    -1.12879E+06     23.7486E+06    -2.68311E+06    -17.8025E-03     35.3307E-03    -17.5282E-03     1.71494E-03    -17.7478E-03     35.2648E-03    -17.4333E-03     1.67864E-03
            1360     4.42292E-03     112.091E-03     16.9956E+06     -759.36E+03     26.9246E+06    -3.17437E+06    -18.1277E-03     35.7844E-03    -17.6567E-03     2.17768E-03    -18.0812E-03     35.7166E-03    -17.5456E-03     2.13453E-03
            1361     5.30674E-03     112.108E-03     16.2003E+06    -548.416E+03     30.3761E+06    -3.46706E+06    -18.5739E-03     36.3969E-03    -17.8230E-03     2.65125E-03    -18.5368E-03     36.3263E-03    -17.6938E-03     2.60373E-03
            1362     6.19008E-03     112.130E-03     15.3941E+06    -475.115E+03     33.7163E+06    -3.47873E+06    -19.1422E-03     37.1714E-03    -18.0291E-03     3.13375E-03    -19.1142E-03     37.0975E-03    -17.8822E-03     3.08539E-03
            1363     7.07285E-03     112.154E-03     14.8842E+06    -398.817E+03     37.3491E+06    -3.41124E+06    -19.8434E-03     38.1231E-03    -18.2797E-03     3.62880E-03    -19.8235E-03     38.0450E-03    -18.1139E-03     3.58049E-03
            1364     7.95485E-03     112.183E-03     14.2664E+06    -267.779E+03     40.5057E+06    -3.45061E+06    -20.6755E-03     39.2500E-03    -18.5744E-03     4.15672E-03    -20.6637E-03     39.1690E-03    -18.3922E-03     4.10686E-03
            1365     8.83594E-03     112.217E-03     13.6099E+06    -362.544E+03     43.0877E+06    -3.34410E+06    -21.6049E-03     40.5193E-03    -18.9144E-03     4.83496E-03    -21.6003E-03     40.4350E-03    -18.7182E-03     4.78525E-03
            1366     9.71623E-03     112.258E-03     13.1644E+06    -482.435E+03     45.0553E+06    -3.31339E+06    -22.6181E-03     41.9167E-03    -19.2986E-03     5.77678E-03    -22.6188E-03     41.8296E-03    -19.0917E-03     5.72606E-03
            1367     10.5952E-03     112.305E-03     12.2012E+06    -1.22271E+06     45.5933E+06    -3.77414E+06    -23.4676E-03     43.1834E-03    -19.7158E-03     7.11377E-03    -23.4734E-03     43.0932E-03    -19.5038E-03     7.05569E-03
            1368     11.4733E-03     112.361E-03     11.3065E+06    -2.93729E+06     45.4681E+06    -4.40050E+06    -23.7305E-03     43.8699E-03    -20.1394E-03     8.90283E-03    -23.7389E-03     43.7726E-03    -19.9242E-03     8.83556E-03
            1369     12.3517E-03     112.426E-03     10.2888E+06    -1.55613E+06     47.3200E+06    -5.19112E+06    -22.9174E-03     43.4420E-03    -20.5245E-03     11.7396E-03    -22.9362E-03     43.3503E-03    -20.3006E-03     11.6619E-03
            1370     13.2298E-03     112.505E-03     7.67306E+06    -1.40764E+06     49.8203E+06    -6.38217E+06    -20.6818E-03     41.4882E-03    -20.8064E-03     16.5181E-03    -20.7181E-03     41.3974E-03    -20.5664E-03     16.4258E-03
            1371     14.1121E-03     112.596E-03     4.79660E+06    -1.73557E+06     44.5998E+06    -6.83008E+06    -19.0535E-03     39.9955E-03    -20.9419E-03     25.0077E-03    -19.0977E-03     39.9142E-03    -20.7234E-03     24.9100E-03
            1372     14.9974E-03     112.711E-03     6.87792E+06    -1.04709E+06     45.9146E+06    -2.81945E+06    -19.8973E-03     41.0024E-03    -21.1051E-03     44.8494E-03    -19.9425E-03     40.9264E-03    -20.8840E-03     44.7969E-03
            1373     15.8829E-03     112.866E-03     11.6599E+06     5.30950E+06     57.8592E+06    -3.15596E+06    -13.1691E-03     34.3217E-03    -21.1526E-03     65.7299E-03    -13.2349E-03     34.2783E-03    -20.8879E-03     65.6670E-03
            1374     16.7699E-03     113.031E-03     4.07934E+06     3.85643E+06     38.2384E+06    -2.18023E+06     3.56302E-03     16.8934E-03    -20.4564E-03     61.2688E-03     3.48808E-03     16.8844E-03    -20.2767E-03     61.2377E-03
            1375     16.8343E-03     56.1830E-03    -3.91942E+06     153.467E+06     52.1122E+06     320.408E+03    -21.3290E-03     37.0032E-03    -15.6742E-03     189.992E-03    -24.4631E-03     40.5170E-03    -15.6305E-03     192.165E-03
            1376     15.9492E-03     56.0129E-03    -5.51983E+06     94.7593E+06    -6.30530E+06     348.586E+03    -19.7067E-03     35.2080E-03    -15.5014E-03     145.818E-03    -21.1094E-03     36.9458E-03    -15.6623E-03     146.207E-03
            1377     15.0617E-03     55.9100E-03    -5.45861E+06     33.5418E+06    -9.32342E+06     418.183E+03    -17.3585E-03     32.9516E-03    -15.5931E-03     89.6810E-03    -17.6438E-03     33.3636E-03    -15.6805E-03     89.6614E-03
            1378     14.1757E-03     55.8462E-03    -5.23698E+06    -10.7919E+06    -8.29864E+06     473.458E+03    -16.4220E-03     32.0973E-03    -15.6753E-03     61.8238E-03    -16.4940E-03     32.1365E-03    -15.6936E-03     61.7895E-03
            1379     13.2897E-03     55.7947E-03    -5.04768E+06    -33.8372E+06    -8.02571E+06     480.568E+03    -16.4135E-03     32.1340E-03    -15.7206E-03     57.6782E-03    -16.4228E-03     32.0286E-03    -15.7043E-03     57.6481E-03
            1380     12.4036E-03     55.7394E-03    -5.21188E+06    -36.3179E+06     529.888E+03     449.434E+03    -16.3739E-03     32.1502E-03    -15.7763E-03     55.1230E-03    -16.3767E-03     32.0041E-03    -15.7134E-03     55.1001E-03
            1381     11.5175E-03     55.6922E-03    -5.52811E+06    -43.2041E+06     313.407E+03     384.153E+03    -16.2443E-03     32.0383E-03    -15.7940E-03     48.3462E-03    -16.2266E-03     31.8467E-03    -15.7217E-03     48.3294E-03
            1382     10.6314E-03     55.6494E-03    -5.99338E+06    -55.4864E+06    -1.70679E+06     374.052E+03    -16.2071E-03     32.0157E-03    -15.8086E-03     43.8062E-03    -16.1649E-03     31.7602E-03    -15.7280E-03     43.7944E-03
            1383     9.74548E-03     55.6106E-03    -6.52740E+06     -60.607E+06     1.22417E+06     393.332E+03    -16.1333E-03     31.9697E-03    -15.8364E-03     39.6698E-03    -16.0867E-03     31.6813E-03    -15.7329E-03     39.6624E-03
            1384     8.85945E-03     55.5757E-03    -7.22959E+06    -61.5822E+06     1.29805E+06     366.552E+03    -16.0654E-03     31.9093E-03    -15.8439E-03     35.5138E-03    -16.0186E-03     31.6145E-03    -15.7376E-03     35.5091E-03
            1385     7.97349E-03     55.5445E-03    -8.18803E+06    -64.5117E+06     495.210E+03     271.821E+03    -16.0126E-03     31.8623E-03    -15.8496E-03     31.3988E-03    -15.9637E-03     31.5538E-03    -15.7418E-03     31.3950E-03
            1386     7.08751E-03     55.5172E-03    -9.24649E+06    -66.6022E+06    -454.317E+03     258.469E+03    -15.9610E-03     31.8140E-03    -15.8531E-03     27.3769E-03    -15.9119E-03     31.4970E-03    -15.7454E-03     27.3746E-03
            1387     6.20156E-03     55.4935E-03    -10.4036E+06    -67.5299E+06    -1.93399E+06     244.301E+03    -15.9160E-03     31.7681E-03    -15.8521E-03     23.5005E-03    -15.8686E-03     31.4497E-03    -15.7488E-03     23.4992E-03
            1388     5.31559E-03     55.4734E-03    -11.7409E+06    -68.9270E+06    -3.59030E+06     225.116E+03    -15.8792E-03     31.7304E-03    -15.8512E-03     19.7810E-03    -15.8336E-03     31.4088E-03    -15.7522E-03     19.7805E-03
            1389     4.42966E-03     55.4567E-03    -13.1551E+06    -69.7594E+06    -5.81987E+06     222.095E+03    -15.8494E-03     31.6963E-03    -15.8468E-03     16.2309E-03    -15.8062E-03     31.3755E-03    -15.7557E-03     16.2311E-03
            1390     3.54370E-03     55.4432E-03    -14.6086E+06    -70.6592E+06    -8.78446E+06     154.029E+03    -15.8286E-03     31.6678E-03    -15.8393E-03     12.8329E-03    -15.7868E-03     31.3488E-03    -15.7595E-03     12.8328E-03
            1391     2.65778E-03     55.4328E-03    -16.0160E+06    -71.8934E+06    -12.0802E+06     120.954E+03    -15.8178E-03     31.6483E-03    -15.8305E-03     9.56502E-03    -15.7763E-03     31.3297E-03    -15.7634E-03     9.56507E-03
            1392     1.77183E-03     55.4254E-03    -17.1761E+06    -73.1146E+06    -15.1658E+06     95.7731E+03    -15.8119E-03     31.6346E-03    -15.8227E-03     6.41449E-03    -15.7699E-03     31.3160E-03    -15.7676E-03     6.41473E-03
            1393     885.913E-06     55.4208E-03    -17.9721E+06    -73.9238E+06    -17.4065E+06     37.8512E+03    -15.8178E-03     31.6320E-03    -15.8142E-03     3.44648E-03    -15.7752E-03     31.3137E-03    -15.7680E-03     3.44644E-03
            1394     16.8357E-03     55.2044E-03    -3.89659E+06     153.233E+06     52.0587E+06     310.400E+03    -21.4106E-03     37.0725E-03    -15.6619E-03     190.187E-03    -24.5434E-03     40.5844E-03    -15.6181E-03     192.353E-03
            1395     15.9473E-03     55.0357E-03    -5.33600E+06     94.8320E+06    -6.15919E+06     493.370E+03    -19.5796E-03     35.0711E-03    -15.4916E-03     146.248E-03    -20.9843E-03     36.8114E-03    -15.6521E-03     146.644E-03
            1396     15.0621E-03     54.9307E-03    -5.31246E+06     33.5971E+06    -9.14077E+06     428.672E+03    -17.3054E-03     32.8946E-03    -15.5892E-03     89.5807E-03    -17.5897E-03     33.3058E-03    -15.6759E-03     89.5610E-03
            1397     14.1760E-03     54.8687E-03    -5.06981E+06    -10.7251E+06    -8.08290E+06     500.175E+03    -16.3721E-03     32.0465E-03    -15.6745E-03     61.8613E-03    -16.4436E-03     32.0854E-03    -15.6920E-03     61.8276E-03
            1398     13.2895E-03     54.8161E-03    -4.97621E+06    -33.7825E+06    -7.96530E+06     480.594E+03    -16.4487E-03     32.1682E-03    -15.7195E-03     57.7741E-03    -16.4580E-03     32.0630E-03    -15.7031E-03     57.7439E-03
            1399     12.4036E-03     54.7611E-03    -5.01394E+06    -36.0613E+06     709.740E+03     429.624E+03    -16.4260E-03     32.1980E-03    -15.7721E-03     54.9765E-03    -16.4284E-03     32.0526E-03    -15.7090E-03     54.9531E-03
            1400     11.5175E-03     54.7137E-03    -5.43408E+06    -43.0654E+06     398.619E+03     387.343E+03    -16.2355E-03     32.0230E-03    -15.7875E-03     48.3271E-03    -16.2177E-03     31.8319E-03    -15.7152E-03     48.3103E-03
            1401     10.6316E-03     54.6711E-03    -5.89402E+06    -55.5910E+06    -1.65632E+06     356.592E+03    -16.1973E-03     31.9999E-03    -15.8026E-03     43.8189E-03    -16.1544E-03     31.7436E-03    -15.7217E-03     43.8070E-03
            1402     9.74549E-03     54.6322E-03    -6.41969E+06    -60.5135E+06     1.33541E+06     396.063E+03    -16.1392E-03     31.9692E-03    -15.8300E-03     39.6649E-03    -16.0924E-03     31.6809E-03    -15.7262E-03     39.6575E-03
            1403     8.85955E-03     54.5972E-03    -7.23525E+06    -61.4661E+06     1.30754E+06     342.210E+03    -16.0671E-03     31.9031E-03    -15.8360E-03     35.5015E-03    -16.0205E-03     31.6089E-03    -15.7299E-03     35.4964E-03
            1404     7.97355E-03     54.5661E-03    -8.11751E+06    -64.3949E+06     593.689E+03     308.716E+03    -16.0071E-03     31.8485E-03    -15.8415E-03     31.3846E-03    -15.9581E-03     31.5404E-03    -15.7333E-03     31.3813E-03
            1405     7.08758E-03     54.5388E-03    -9.15489E+06    -66.5417E+06    -397.900E+03     250.921E+03    -15.9569E-03     31.8012E-03    -15.8443E-03     27.3618E-03    -15.9076E-03     31.4843E-03    -15.7365E-03     27.3594E-03
            1406     6.20161E-03     54.5151E-03    -10.3183E+06    -67.4877E+06    -1.81355E+06     252.134E+03    -15.9105E-03     31.7535E-03    -15.8431E-03     23.4821E-03    -15.8629E-03     31.4350E-03    -15.7393E-03     23.4809E-03
            1407     5.31566E-03     54.4950E-03    -11.6143E+06    -68.8490E+06    -3.45374E+06     254.318E+03    -15.8713E-03     31.7129E-03    -15.8417E-03     19.7656E-03    -15.8253E-03     31.3914E-03    -15.7423E-03     19.7655E-03
            1408     4.42969E-03     54.4783E-03    -13.0720E+06    -69.6689E+06    -5.76865E+06     201.939E+03    -15.8398E-03     31.6766E-03    -15.8368E-03     16.2175E-03    -15.7963E-03     31.3561E-03    -15.7456E-03     16.2174E-03
            1409     3.54375E-03     54.4648E-03    -14.5835E+06    -70.5361E+06    -8.75687E+06     174.162E+03    -15.8195E-03     31.6484E-03    -15.8289E-03     12.8218E-03    -15.7778E-03     31.3299E-03    -15.7492E-03     12.8219E-03
            1410     2.65779E-03     54.4544E-03    -16.0044E+06    -71.8258E+06    -12.0493E+06     119.914E+03    -15.8084E-03     31.6282E-03    -15.8198E-03     9.55263E-03    -15.7670E-03     31.3100E-03    -15.7527E-03     9.55267E-03
            1411     1.77187E-03     54.4470E-03    -17.1823E+06    -73.0326E+06    -15.1386E+06     90.3499E+03    -15.8014E-03     31.6129E-03    -15.8115E-03     6.39835E-03    -15.7596E-03     31.2947E-03    -15.7564E-03     6.39852E-03
            1412     885.917E-06     54.4424E-03    -17.9549E+06    -73.8474E+06    -17.4272E+06     58.1406E+03    -15.8071E-03     31.6089E-03    -15.8017E-03     3.46012E-03    -15.7646E-03     31.2910E-03    -15.7558E-03     3.46034E-03
            1413     16.8345E-03     54.2276E-03    -4.23233E+06     152.878E+06     52.1773E+06     130.582E+03    -21.5199E-03     37.1828E-03    -15.6629E-03     190.001E-03    -24.6491E-03     40.6884E-03    -15.6175E-03     192.156E-03
            1414     15.9493E-03     54.0569E-03    -5.31452E+06     94.7898E+06    -5.71528E+06     390.961E+03    -19.6527E-03     35.1408E-03    -15.4881E-03     146.444E-03    -21.0618E-03     36.8841E-03    -15.6464E-03     146.834E-03
            1415     15.0622E-03     53.9530E-03    -5.02550E+06     33.7963E+06    -8.82720E+06     572.839E+03    -17.1921E-03     32.7780E-03    -15.5859E-03     89.7368E-03    -17.4749E-03     33.1886E-03    -15.6718E-03     89.7196E-03
            1416     14.1754E-03     53.8903E-03    -5.19524E+06    -10.8523E+06    -8.20113E+06     406.575E+03    -16.4541E-03     32.1250E-03    -15.6709E-03     61.9115E-03    -16.5262E-03     32.1639E-03    -15.6886E-03     61.8763E-03
            1417     13.2899E-03     53.8377E-03    -4.88375E+06    -33.6398E+06    -7.88815E+06     410.247E+03    -16.5059E-03     32.2172E-03    -15.7113E-03     57.6880E-03    -16.5150E-03     32.1124E-03    -15.6949E-03     57.6568E-03
            1418     12.4038E-03     53.7826E-03    -4.94809E+06    -35.9153E+06     840.661E+03     464.067E+03    -16.3766E-03     32.1399E-03    -15.7633E-03     54.9206E-03    -16.3790E-03     31.9948E-03    -15.6999E-03     54.8979E-03
            1419     11.5177E-03     53.7355E-03    -5.50032E+06    -42.9535E+06     354.942E+03     433.851E+03    -16.2239E-03     32.0035E-03    -15.7796E-03     48.3406E-03    -16.2064E-03     31.8130E-03    -15.7076E-03     48.3245E-03
            1420     10.6315E-03     53.6927E-03    -5.83905E+06    -55.5633E+06    -1.72011E+06     348.191E+03    -16.2009E-03     31.9952E-03    -15.7943E-03     43.8567E-03    -16.1577E-03     31.7390E-03    -15.7139E-03     43.8446E-03
            1421     9.74565E-03     53.6538E-03    -6.29167E+06    -60.5101E+06     1.40177E+06     385.529E+03    -16.1466E-03     31.9677E-03    -15.8211E-03     39.6381E-03    -16.0992E-03     31.6791E-03    -15.7172E-03     39.6306E-03
            1422     8.85961E-03     53.6188E-03    -7.14107E+06    -61.3005E+06     1.37303E+06     421.346E+03    -16.0617E-03     31.8877E-03    -15.8260E-03     35.4837E-03    -16.0150E-03     31.5940E-03    -15.7199E-03     35.4796E-03
            1423     7.97364E-03     53.5877E-03    -8.15371E+06    -64.2991E+06     540.744E+03     310.077E+03    -16.0047E-03     31.8351E-03    -15.8304E-03     31.3701E-03    -15.9560E-03     31.5276E-03    -15.7226E-03     31.3669E-03
            1424     7.08766E-03     53.5604E-03    -9.24615E+06    -66.4379E+06    -389.208E+03     290.900E+03    -15.9503E-03     31.7830E-03    -15.8327E-03     27.3430E-03    -15.9016E-03     31.4667E-03    -15.7249E-03     27.3412E-03
            1425     6.20169E-03     53.5367E-03    -10.4458E+06    -67.4357E+06    -1.91011E+06     233.709E+03    -15.9001E-03     31.7307E-03    -15.8306E-03     23.4650E-03    -15.8531E-03     31.4128E-03    -15.7272E-03     23.4636E-03
            1426     5.31572E-03     53.5166E-03    -11.7138E+06    -68.7960E+06    -3.51884E+06     227.407E+03    -15.8605E-03     31.6894E-03    -15.8289E-03     19.7481E-03    -15.8151E-03     31.3684E-03    -15.7298E-03     19.7475E-03
            1427     4.42975E-03     53.4999E-03    -13.1278E+06    -69.5662E+06    -5.78392E+06     246.974E+03    -15.8287E-03     31.6523E-03    -15.8237E-03     16.2017E-03    -15.7856E-03     31.3325E-03    -15.7327E-03     16.2022E-03
            1428     3.54379E-03     53.4864E-03    -14.6239E+06    -70.4215E+06    -8.77070E+06     174.839E+03    -15.8076E-03     31.6229E-03    -15.8153E-03     12.8084E-03    -15.7663E-03     31.3050E-03    -15.7358E-03     12.8086E-03
            1429     2.65784E-03     53.4760E-03    -16.0113E+06    -71.7564E+06    -12.0667E+06     121.130E+03    -15.7956E-03     31.6014E-03    -15.8057E-03     9.54382E-03    -15.7543E-03     31.2835E-03    -15.7388E-03     9.54388E-03
            1430     1.77188E-03     53.4686E-03    -17.1713E+06    -72.9668E+06    -15.1299E+06     71.6710E+03    -15.7901E-03     31.5864E-03    -15.7964E-03     6.39747E-03    -15.7483E-03     31.2685E-03    -15.7413E-03     6.39740E-03
            1431     885.954E-06     53.4640E-03    -17.9428E+06    -73.7885E+06    -17.3497E+06     38.2347E+03    -15.7861E-03     31.5770E-03    -15.7908E-03     3.46529E-03    -15.7437E-03     31.2593E-03    -15.7446E-03     3.46525E-03
            1432     16.8353E-03     53.2484E-03    -4.10004E+06     152.854E+06     51.9993E+06     125.882E+03    -21.4927E-03     37.1695E-03    -15.6768E-03     190.780E-03    -24.6379E-03     40.6920E-03    -15.6325E-03     192.949E-03
            1433     15.9480E-03     53.0791E-03    -5.79949E+06     94.6014E+06    -6.22864E+06     342.032E+03    -19.9165E-03     35.4141E-03    -15.4977E-03     146.681E-03    -21.3295E-03     37.1605E-03    -15.6576E-03     147.065E-03
            1434     15.0617E-03     52.9751E-03    -5.77979E+06     33.7133E+06    -9.30104E+06     375.947E+03    -17.4132E-03     32.9961E-03    -15.5829E-03     89.8500E-03    -17.7004E-03     33.4094E-03    -15.6699E-03     89.8294E-03
            1435     14.1763E-03     52.9115E-03    -5.20439E+06    -10.5620E+06    -8.21945E+06     433.221E+03    -16.5145E-03     32.1743E-03    -15.6598E-03     61.8325E-03    -16.5869E-03     32.2145E-03    -15.6780E-03     61.7974E-03
            1436     13.2899E-03     52.8596E-03    -5.00194E+06    -33.7010E+06    -8.05060E+06     448.846E+03    -16.4162E-03     32.1167E-03    -15.7005E-03     57.7330E-03    -16.4254E-03     32.0118E-03    -15.6846E-03     57.7026E-03
            1437     12.4038E-03     52.8043E-03    -4.93096E+06    -35.9848E+06     754.242E+03     444.715E+03    -16.3527E-03     32.1089E-03    -15.7562E-03     55.0411E-03    -16.3548E-03     31.9635E-03    -15.6931E-03     55.0182E-03
            1438     11.5176E-03     52.7572E-03    -5.36887E+06    -42.7506E+06     465.783E+03     435.709E+03    -16.2596E-03     32.0316E-03    -15.7720E-03     48.3470E-03    -16.2420E-03     31.8418E-03    -15.6999E-03     48.3309E-03
            1439     10.6318E-03     52.7143E-03    -5.91310E+06    -55.4129E+06    -1.81640E+06     391.294E+03    -16.2193E-03     32.0024E-03    -15.7831E-03     43.8377E-03    -16.1765E-03     31.7472E-03    -15.7033E-03     43.8262E-03
            1440     9.74570E-03     52.6754E-03    -6.44330E+06    -60.6585E+06     1.21220E+06     353.912E+03    -16.1316E-03     31.9404E-03    -15.8088E-03     39.6157E-03    -16.0845E-03     31.6516E-03    -15.7055E-03     39.6078E-03
            1441     8.85974E-03     52.6404E-03    -7.14330E+06    -61.1942E+06     1.43009E+06     432.948E+03    -16.0604E-03     31.8743E-03    -15.8139E-03     35.4653E-03    -16.0139E-03     31.5811E-03    -15.7077E-03     35.4614E-03
            1442     7.97374E-03     52.6093E-03    -8.05731E+06    -64.1495E+06     625.073E+03     407.118E+03    -15.9990E-03     31.8163E-03    -15.8173E-03     31.3504E-03    -15.9501E-03     31.5092E-03    -15.7094E-03     31.3484E-03
            1443     7.08776E-03     52.5820E-03    -9.15589E+06    -66.3455E+06    -298.161E+03     315.570E+03    -15.9423E-03     31.7611E-03    -15.8189E-03     27.3215E-03    -15.8934E-03     31.4451E-03    -15.7109E-03     27.3200E-03
            1444     6.20179E-03     52.5583E-03    -10.3408E+06    -67.2824E+06    -1.78244E+06     259.215E+03    -15.8897E-03     31.7059E-03    -15.8161E-03     23.4444E-03    -15.8426E-03     31.3883E-03    -15.7125E-03     23.4434E-03
            1445     5.31580E-03     52.5382E-03    -11.7113E+06    -68.8136E+06    -3.48027E+06     234.185E+03    -15.8490E-03     31.6628E-03    -15.8138E-03     19.7279E-03    -15.8036E-03     31.3416E-03    -15.7144E-03     19.7275E-03
            1446     4.42983E-03     52.5215E-03    -13.1569E+06    -69.4341E+06    -5.73906E+06     224.109E+03    -15.8158E-03     31.6235E-03    -15.8077E-03     16.1842E-03    -15.7732E-03     31.3043E-03    -15.7166E-03     16.1844E-03
            1447     3.54385E-03     52.5080E-03    -14.5881E+06    -70.3112E+06    -8.71247E+06     157.501E+03    -15.7919E-03     31.5906E-03    -15.7988E-03     12.7939E-03    -15.7506E-03     31.2732E-03    -15.7192E-03     12.7939E-03
            1448     2.65787E-03     52.4976E-03    -15.9615E+06    -71.6987E+06    -12.0105E+06     101.327E+03    -15.7789E-03     31.5681E-03    -15.7892E-03     9.53246E-03    -15.7375E-03     31.2503E-03    -15.7222E-03     9.53227E-03
            1449     1.77192E-03     52.4902E-03    -17.1154E+06    -72.9086E+06    -15.0968E+06     62.3778E+03    -15.7732E-03     31.5530E-03    -15.7798E-03     6.38924E-03    -15.7312E-03     31.2353E-03    -15.7248E-03     6.38906E-03
            1450     885.943E-06     52.4857E-03    -17.9060E+06    -73.7592E+06    -17.3439E+06     14.5607E+03    -15.7711E-03     31.5443E-03    -15.7732E-03     3.46222E-03    -15.7285E-03     31.2267E-03    -15.7270E-03     3.46188E-03
            1451     16.8332E-03     52.2692E-03    -4.27642E+06     152.619E+06     52.0202E+06     270.425E+03    -21.4242E-03     37.0893E-03    -15.6651E-03     189.696E-03    -24.5539E-03     40.5948E-03    -15.6201E-03     191.855E-03
            1452     15.9481E-03     52.1009E-03    -6.04241E+06     94.4398E+06    -6.33443E+06    -39.8039E+03    -19.7377E-03     35.2244E-03    -15.4866E-03     145.540E-03    -21.1393E-03     36.9581E-03    -15.6465E-03     145.924E-03
            1453     15.0626E-03     51.9960E-03    -5.60260E+06     33.7194E+06    -9.46751E+06     161.247E+03    -17.4340E-03     33.0056E-03    -15.5715E-03     89.5467E-03    -17.7196E-03     33.4184E-03    -15.6596E-03     89.5226E-03
            1454     14.1761E-03     51.9338E-03    -5.17715E+06    -10.6430E+06    -8.31337E+06     415.138E+03    -16.4085E-03     32.0594E-03    -15.6509E-03     61.9794E-03    -16.4803E-03     32.0992E-03    -15.6695E-03     61.9445E-03
            1455     13.2899E-03     51.8811E-03    -4.83216E+06    -33.4908E+06    -7.89021E+06     432.952E+03    -16.4141E-03     32.1096E-03    -15.6955E-03     57.8352E-03    -16.4231E-03     32.0054E-03    -15.6794E-03     57.8045E-03
            1456     12.4039E-03     51.8262E-03    -5.09320E+06    -36.0120E+06     580.922E+03     391.921E+03    -16.4013E-03     32.1496E-03    -15.7482E-03     55.0123E-03    -16.4039E-03     32.0046E-03    -15.6857E-03     54.9886E-03
            1457     11.5179E-03     51.7786E-03    -5.52853E+06    -42.7631E+06     427.241E+03     406.741E+03    -16.2877E-03     32.0488E-03    -15.7611E-03     48.3160E-03    -16.2709E-03     31.8593E-03    -15.6890E-03     48.2994E-03
            1458     10.6319E-03     51.7360E-03    -5.90974E+06    -55.2277E+06    -1.67249E+06     454.733E+03    -16.2162E-03     31.9867E-03    -15.7706E-03     43.7827E-03    -16.1739E-03     31.7323E-03    -15.6903E-03     43.7720E-03
            1459     9.74587E-03     51.6971E-03    -6.48093E+06    -60.5496E+06     1.17721E+06     354.381E+03    -16.1231E-03     31.9180E-03    -15.7949E-03     39.6295E-03    -16.0763E-03     31.6298E-03    -15.6918E-03     39.6216E-03
            1460     8.85986E-03     51.6621E-03    -7.24181E+06    -61.2593E+06     1.38282E+06     317.911E+03    -16.0556E-03     31.8550E-03    -15.7995E-03     35.4462E-03    -16.0094E-03     31.5617E-03    -15.6932E-03     35.4409E-03
            1461     7.97386E-03     51.6309E-03    -8.07727E+06    -64.0307E+06     673.540E+03     406.026E+03    -15.9913E-03     31.7933E-03    -15.8019E-03     31.3298E-03    -15.9428E-03     31.4868E-03    -15.6940E-03     31.3278E-03
            1462     7.08788E-03     51.6036E-03    -9.06120E+06    -66.1790E+06    -251.001E+03     321.058E+03    -15.9320E-03     31.7345E-03    -15.8025E-03     27.3004E-03    -15.8830E-03     31.4191E-03    -15.6946E-03     27.2989E-03
            1463     6.20188E-03     51.5800E-03    -10.2615E+06    -67.2541E+06    -1.62249E+06     301.448E+03    -15.8797E-03     31.6792E-03    -15.7996E-03     23.4208E-03    -15.8324E-03     31.3615E-03    -15.6953E-03     23.4203E-03
            1464     5.31590E-03     51.5599E-03    -11.6131E+06    -68.7038E+06    -3.32147E+06     315.431E+03    -15.8360E-03     31.6321E-03    -15.7961E-03     19.7065E-03    -15.7905E-03     31.3111E-03    -15.6962E-03     19.7071E-03
            1465     4.42991E-03     51.5431E-03    -13.0876E+06    -69.3027E+06    -5.67573E+06     204.831E+03    -15.7995E-03     31.5883E-03    -15.7888E-03     16.1666E-03    -15.7567E-03     31.2695E-03    -15.6977E-03     16.1665E-03
            1466     3.54392E-03     51.5297E-03    -14.5645E+06    -70.2386E+06    -8.65813E+06     141.209E+03    -15.7741E-03     31.5537E-03    -15.7796E-03     12.7784E-03    -15.7329E-03     31.2365E-03    -15.6999E-03     12.7781E-03
            1467     2.65794E-03     51.5193E-03    -15.9488E+06    -71.6387E+06    -12.0003E+06     109.759E+03    -15.7598E-03     31.5293E-03    -15.7695E-03     9.52170E-03    -15.7185E-03     31.2118E-03    -15.7025E-03     9.52161E-03
            1468     1.77195E-03     51.5119E-03    -17.1106E+06    -72.8629E+06    -15.1151E+06     74.8988E+03    -15.7536E-03     31.5134E-03    -15.7598E-03     6.38222E-03    -15.7117E-03     31.1959E-03    -15.7049E-03     6.38220E-03
            1469     885.986E-06     51.5073E-03    -17.8897E+06    -73.7020E+06    -17.3643E+06     40.0768E+03    -15.7416E-03     31.5041E-03    -15.7625E-03     3.46226E-03    -15.6990E-03     31.1868E-03    -15.7165E-03     3.46225E-03
            1470     16.8382E-03     51.2939E-03    -3.68065E+06     152.883E+06     52.3935E+06     313.220E+03    -21.7367E-03     37.3778E-03    -15.6411E-03     190.023E-03    -24.8575E-03     40.8764E-03    -15.5955E-03     192.163E-03
            1471     15.9493E-03     51.1222E-03    -4.62783E+06     94.9363E+06    -5.54206E+06     455.786E+03    -19.5425E-03     35.0051E-03    -15.4626E-03     146.686E-03    -20.9470E-03     36.7463E-03    -15.6213E-03     147.078E-03
            1472     15.0623E-03     51.0184E-03    -4.76239E+06     33.6606E+06    -8.81802E+06     331.273E+03    -17.1959E-03     32.7590E-03    -15.5631E-03     89.8326E-03    -17.4774E-03     33.1686E-03    -15.6491E-03     89.8122E-03
            1473     14.1760E-03     50.9553E-03    -5.03055E+06    -10.8631E+06    -8.09710E+06     295.465E+03    -16.4433E-03     32.0908E-03    -15.6475E-03     61.9812E-03    -16.5146E-03     32.1292E-03    -15.6650E-03     61.9445E-03
            1474     13.2901E-03     50.9029E-03    -5.10032E+06    -33.6010E+06    -7.93601E+06     318.930E+03    -16.4887E-03     32.1759E-03    -15.6871E-03     57.7260E-03    -16.4989E-03     32.0717E-03    -15.6707E-03     57.6936E-03
            1475     12.4041E-03     50.8477E-03    -5.21684E+06    -35.7872E+06     658.878E+03     391.649E+03    -16.4156E-03     32.1515E-03    -15.7359E-03     55.0053E-03    -16.4193E-03     32.0077E-03    -15.6731E-03     54.9816E-03
            1476     11.5180E-03     50.8003E-03    -5.56550E+06    -42.9490E+06     410.355E+03     373.276E+03    -16.2652E-03     32.0133E-03    -15.7481E-03     48.3161E-03    -16.2482E-03     31.8229E-03    -15.6757E-03     48.2991E-03
            1477     10.6320E-03     50.7577E-03    -5.87174E+06    -55.0719E+06    -1.46837E+06     433.962E+03    -16.2082E-03     31.9665E-03    -15.7582E-03     43.7817E-03    -16.1663E-03     31.7124E-03    -15.6772E-03     43.7708E-03
            1478     9.74601E-03     50.7187E-03    -6.44340E+06    -60.2911E+06     1.23026E+06     405.377E+03    -16.1354E-03     31.9156E-03    -15.7801E-03     39.6288E-03    -16.0889E-03     31.6285E-03    -15.6772E-03     39.6216E-03
            1479     8.86000E-03     50.6837E-03    -7.23218E+06    -61.3064E+06     1.28771E+06     295.108E+03    -16.0494E-03     31.8322E-03    -15.7827E-03     35.4337E-03    -16.0030E-03     31.5387E-03    -15.6769E-03     35.4281E-03
            1480     7.97401E-03     50.6526E-03    -8.14554E+06    -63.9867E+06     598.892E+03     312.604E+03    -15.9836E-03     31.7678E-03    -15.7842E-03     31.3058E-03    -15.9354E-03     31.4617E-03    -15.6766E-03     31.3027E-03
            1481     7.08800E-03     50.6253E-03    -9.17883E+06    -66.0366E+06    -329.134E+03     320.733E+03    -15.9214E-03     31.7049E-03    -15.7835E-03     27.2774E-03    -15.8730E-03     31.3904E-03    -15.6760E-03     27.2759E-03
            1482     6.20202E-03     50.6016E-03    -10.3387E+06    -67.2704E+06    -1.66406E+06     305.440E+03    -15.8666E-03     31.6465E-03    -15.7799E-03     23.3956E-03    -15.8196E-03     31.3288E-03    -15.6757E-03     23.3952E-03
            1483     5.31601E-03     50.5815E-03    -11.6170E+06    -68.5951E+06    -3.26132E+06     321.083E+03    -15.8197E-03     31.5954E-03    -15.7757E-03     19.6836E-03    -15.7745E-03     31.2749E-03    -15.6757E-03     19.6843E-03
            1484     4.43000E-03     50.5648E-03    -13.0283E+06    -69.1266E+06    -5.61999E+06     264.708E+03    -15.7804E-03     31.5480E-03    -15.7676E-03     16.1470E-03    -15.7377E-03     31.2299E-03    -15.6766E-03     16.1477E-03
            1485     3.54400E-03     50.5514E-03    -14.5280E+06    -70.1753E+06    -8.63954E+06     174.312E+03    -15.7537E-03     31.5116E-03    -15.7580E-03     12.7636E-03    -15.7124E-03     31.1947E-03    -15.6784E-03     12.7638E-03
            1486     2.65799E-03     50.5410E-03    -15.9319E+06    -71.5623E+06    -11.9735E+06     139.762E+03    -15.7390E-03     31.4866E-03    -15.7476E-03     9.51314E-03    -15.6977E-03     31.1694E-03    -15.6806E-03     9.51344E-03
            1487     1.77199E-03     50.5336E-03    -17.1037E+06    -72.7726E+06    -15.0832E+06     98.0328E+03    -15.7320E-03     31.4695E-03    -15.7375E-03     6.37588E-03    -15.6902E-03     31.1524E-03    -15.6826E-03     6.37616E-03
            1488     885.982E-06     50.5290E-03    -17.8941E+06    -73.6176E+06    -17.3371E+06     54.4073E+03    -15.7213E-03     31.4590E-03    -15.7377E-03     3.44811E-03    -15.6789E-03     31.1421E-03    -15.6917E-03     3.44828E-03
            1489     16.8326E-03     50.3137E-03    -4.18713E+06     152.321E+06     51.7029E+06    -68.7545E+03    -21.6898E-03     37.3510E-03    -15.6611E-03     190.497E-03    -24.8233E-03     40.8604E-03    -15.6174E-03     192.645E-03
            1490     15.9486E-03     50.1447E-03    -5.59856E+06     94.9952E+06    -5.93867E+06     459.186E+03    -19.9531E-03     35.4290E-03    -15.4759E-03     146.901E-03    -21.3660E-03     37.1765E-03    -15.6352E-03     147.283E-03
            1491     15.0624E-03     50.0402E-03    -5.60683E+06     33.8955E+06    -9.10622E+06     485.940E+03    -17.3629E-03     32.9239E-03    -15.5610E-03     90.0697E-03    -17.6495E-03     33.3374E-03    -15.6476E-03     90.0505E-03
            1492     14.1764E-03     49.9769E-03    -5.19888E+06    -10.8119E+06    -8.33932E+06     302.834E+03    -16.5407E-03     32.1776E-03    -15.6369E-03     61.9732E-03    -16.6126E-03     32.2168E-03    -15.6554E-03     61.9363E-03
            1493     13.2903E-03     49.9247E-03    -4.75631E+06    -33.4366E+06    -7.86341E+06     334.573E+03    -16.4961E-03     32.1693E-03    -15.6732E-03     57.7314E-03    -16.5048E-03     32.0652E-03    -15.6571E-03     57.6993E-03
            1494     12.4043E-03     49.8693E-03    -4.87028E+06    -35.7963E+06     835.645E+03     384.235E+03    -16.3898E-03     32.1124E-03    -15.7226E-03     55.0201E-03    -16.3919E-03     31.9677E-03    -15.6594E-03     54.9964E-03
            1495     11.5182E-03     49.8221E-03    -5.40958E+06    -42.9072E+06     351.386E+03     387.387E+03    -16.2430E-03     31.9778E-03    -15.7347E-03     48.3325E-03    -16.2251E-03     31.7873E-03    -15.6629E-03     48.3158E-03
            1496     10.6321E-03     49.7793E-03    -5.85544E+06    -55.1645E+06    -1.63102E+06     342.718E+03    -16.2258E-03     31.9697E-03    -15.7439E-03     43.7910E-03    -16.1834E-03     31.7154E-03    -15.6635E-03     43.7789E-03
            1497     9.74616E-03     49.7404E-03    -6.36042E+06    -60.1032E+06     1.32074E+06     424.719E+03    -16.1434E-03     31.9076E-03    -15.7641E-03     39.5756E-03    -16.0969E-03     31.6212E-03    -15.6611E-03     39.5686E-03
            1498     8.86017E-03     49.7054E-03    -7.22774E+06    -61.1784E+06     1.20984E+06     366.047E+03    -16.0457E-03     31.8099E-03    -15.7642E-03     35.4126E-03    -15.9994E-03     31.5172E-03    -15.6590E-03     35.4079E-03
            1499     7.97415E-03     49.6743E-03    -8.15990E+06    -63.9881E+06     540.294E+03     281.894E+03    -15.9770E-03     31.7414E-03    -15.7645E-03     31.2790E-03    -15.9287E-03     31.4355E-03    -15.6572E-03     31.2754E-03
            1500     7.08817E-03     49.6470E-03    -9.18500E+06    -65.9695E+06    -331.063E+03     321.570E+03    -15.9106E-03     31.6732E-03    -15.7626E-03     27.2468E-03    -15.8623E-03     31.3590E-03    -15.6553E-03     27.2454E-03
            1501     6.20214E-03     49.6233E-03    -10.3598E+06    -67.2179E+06    -1.70236E+06     303.874E+03    -15.8503E-03     31.6081E-03    -15.7578E-03     23.3688E-03    -15.8035E-03     31.2908E-03    -15.6538E-03     23.3684E-03
            1502     5.31613E-03     49.6033E-03    -11.6591E+06    -68.5544E+06    -3.30470E+06     283.000E+03    -15.8009E-03     31.5538E-03    -15.7528E-03     19.6580E-03    -15.7559E-03     31.2335E-03    -15.6530E-03     19.6582E-03
            1503     4.43011E-03     49.5866E-03    -13.0542E+06    -69.0046E+06    -5.62869E+06     271.449E+03    -15.7591E-03     31.5032E-03    -15.7441E-03     16.1252E-03    -15.7167E-03     31.1858E-03    -15.6533E-03     16.1260E-03
            1504     3.54407E-03     49.5731E-03    -14.5047E+06    -70.0409E+06    -8.62256E+06     219.702E+03    -15.7318E-03     31.4658E-03    -15.7340E-03     12.7449E-03    -15.6906E-03     31.1495E-03    -15.6545E-03     12.7457E-03
            1505     2.65806E-03     49.5627E-03    -15.9209E+06    -71.4427E+06    -11.9340E+06     157.428E+03    -15.7159E-03     31.4391E-03    -15.7233E-03     9.49769E-03    -15.6748E-03     31.1225E-03    -15.6563E-03     9.49823E-03
            1506     1.77203E-03     49.5553E-03    -17.1150E+06    -72.6430E+06    -15.0634E+06     114.346E+03    -15.7075E-03     31.4202E-03    -15.7128E-03     6.36631E-03    -15.6659E-03     31.1038E-03    -15.6580E-03     6.36680E-03
            1507     886.027E-06     49.5508E-03    -17.9036E+06    -73.5164E+06    -17.3464E+06     57.5749E+03    -15.7096E-03     31.4090E-03    -15.6994E-03     3.44677E-03    -15.6674E-03     31.0926E-03    -15.6536E-03     3.44699E-03
            1508     16.8359E-03     49.3347E-03    -4.30327E+06     152.308E+06     51.8535E+06     65.7226E+03    -21.5574E-03     37.2220E-03    -15.6645E-03     189.629E-03    -24.6841E-03     40.7237E-03    -15.6199E-03     191.777E-03
            1509     15.9484E-03     49.1663E-03    -6.15611E+06     94.3242E+06    -6.42078E+06    -73.8220E+03    -19.9629E-03     35.4393E-03    -15.4764E-03     145.663E-03    -21.3636E-03     37.1715E-03    -15.6363E-03     146.038E-03
            1510     15.0626E-03     49.0616E-03    -5.50737E+06     33.9996E+06    -9.30852E+06     287.252E+03    -17.5110E-03     33.0639E-03    -15.5529E-03     89.8405E-03    -17.7975E-03     33.4785E-03    -15.6407E-03     89.8176E-03
            1511     14.1764E-03     48.9987E-03    -5.05791E+06    -10.3373E+06    -8.26617E+06     355.179E+03    -16.5014E-03     32.1270E-03    -15.6256E-03     62.0005E-03    -16.5731E-03     32.1680E-03    -15.6446E-03     61.9645E-03
            1512     13.2905E-03     48.9462E-03    -5.02278E+06    -33.6842E+06    -8.21954E+06     323.573E+03    -16.4948E-03     32.1569E-03    -15.6621E-03     57.8395E-03    -16.5040E-03     32.0524E-03    -15.6470E-03     57.8073E-03
            1513     12.4044E-03     48.8911E-03    -5.07574E+06    -35.9489E+06     539.061E+03     388.718E+03    -16.4166E-03     32.1265E-03    -15.7099E-03     55.0206E-03    -16.4191E-03     31.9818E-03    -15.6477E-03     54.9969E-03
            1514     11.5183E-03     48.8438E-03    -5.40221E+06    -42.5441E+06     381.197E+03     405.253E+03    -16.2687E-03     31.9884E-03    -15.7197E-03     48.3191E-03    -16.2514E-03     31.7997E-03    -15.6483E-03     48.3026E-03
            1515     10.6323E-03     48.8009E-03    -5.90809E+06    -55.2230E+06    -1.80078E+06     344.058E+03    -16.2248E-03     31.9510E-03    -15.7262E-03     43.7442E-03    -16.1823E-03     31.6968E-03    -15.6466E-03     43.7321E-03
            1516     9.74635E-03     48.7621E-03    -6.44425E+06    -60.2484E+06     1.23593E+06     369.717E+03    -16.1356E-03     31.8815E-03    -15.7459E-03     39.5367E-03    -16.0892E-03     31.5947E-03    -15.6430E-03     39.5290E-03
            1517     8.86033E-03     48.7271E-03    -7.18109E+06    -60.8972E+06     1.35612E+06     430.702E+03    -16.0462E-03     31.7909E-03    -15.7447E-03     35.3783E-03    -16.0002E-03     31.4993E-03    -15.6392E-03     35.3745E-03
            1518     7.97434E-03     48.6960E-03    -8.16258E+06    -63.9147E+06     495.417E+03     319.636E+03    -15.9676E-03     31.7102E-03    -15.7427E-03     31.2431E-03    -15.9193E-03     31.4047E-03    -15.6357E-03     31.2401E-03
            1519     7.08832E-03     48.6687E-03    -9.20656E+06    -65.9541E+06    -376.855E+03     289.416E+03    -15.8962E-03     31.6358E-03    -15.7396E-03     27.2151E-03    -15.8480E-03     31.3218E-03    -15.6325E-03     27.2133E-03
            1520     6.20230E-03     48.6451E-03    -10.3322E+06    -67.1627E+06    -1.71070E+06     314.577E+03    -15.8332E-03     31.5670E-03    -15.7338E-03     23.3391E-03    -15.7863E-03     31.2499E-03    -15.6300E-03     23.3388E-03
            1521     5.31626E-03     48.6250E-03    -11.6331E+06    -68.4917E+06    -3.32248E+06     284.947E+03    -15.7807E-03     31.5086E-03    -15.7279E-03     19.6307E-03    -15.7356E-03     31.1887E-03    -15.6283E-03     19.6310E-03
            1522     4.43022E-03     48.6083E-03    -13.0824E+06    -68.9229E+06    -5.65511E+06     252.675E+03    -15.7384E-03     31.4567E-03    -15.7183E-03     16.1001E-03    -15.6962E-03     31.1398E-03    -15.6276E-03     16.1007E-03
            1523     3.54418E-03     48.5949E-03    -14.5819E+06    -69.9024E+06    -8.66621E+06     223.287E+03    -15.7088E-03     31.4158E-03    -15.7070E-03     12.7225E-03    -15.6681E-03     31.1003E-03    -15.6278E-03     12.7234E-03
            1524     2.65813E-03     48.5845E-03    -15.9894E+06    -71.2820E+06    -12.0008E+06     167.887E+03    -15.6901E-03     31.3852E-03    -15.6951E-03     9.47907E-03    -15.6495E-03     31.0696E-03    -15.6286E-03     9.47975E-03
            1525     1.77208E-03     48.5771E-03    -17.1417E+06    -72.5091E+06    -15.1007E+06     104.402E+03    -15.6784E-03     31.3629E-03    -15.6845E-03     6.35383E-03    -15.6372E-03     31.0472E-03    -15.6300E-03     6.35420E-03
            1526     886.030E-06     48.5726E-03    -17.9185E+06    -73.3874E+06    -17.3596E+06     68.7024E+03    -15.6816E-03     31.3531E-03    -15.6715E-03     3.44887E-03    -15.6396E-03     31.0374E-03    -15.6259E-03     3.44923E-03
            1527     16.8349E-03     48.3574E-03    -3.79442E+06     152.540E+06     52.1471E+06     305.244E+03    -21.7417E-03     37.3881E-03    -15.6464E-03     190.175E-03    -24.8672E-03     40.8905E-03    -15.6013E-03     192.316E-03
            1528     15.9490E-03     48.1877E-03    -5.23190E+06     94.6201E+06    -6.03532E+06     231.620E+03    -19.8442E-03     35.3026E-03    -15.4584E-03     146.225E-03    -21.2435E-03     37.0368E-03    -15.6182E-03     146.605E-03
            1529     15.0629E-03     48.0834E-03    -5.41152E+06     33.8913E+06    -9.23578E+06     113.610E+03    -17.4535E-03     32.9942E-03    -15.5407E-03     89.7059E-03    -17.7388E-03     33.4074E-03    -15.6281E-03     89.6809E-03
            1530     14.1766E-03     48.0205E-03    -5.22490E+06    -10.4450E+06    -8.22609E+06     382.688E+03    -16.4750E-03     32.0902E-03    -15.6152E-03     61.9855E-03    -16.5474E-03     32.1308E-03    -15.6336E-03     61.9499E-03
            1531     13.2904E-03     47.9679E-03    -5.08716E+06    -33.7690E+06    -8.21026E+06     362.430E+03    -16.5024E-03     32.1534E-03    -15.6511E-03     57.7807E-03    -16.5117E-03     32.0486E-03    -15.6358E-03     57.7490E-03
            1532     12.4045E-03     47.9128E-03    -5.23082E+06    -35.8514E+06     547.910E+03     300.775E+03    -16.4587E-03     32.1547E-03    -15.6959E-03     54.9045E-03    -16.4622E-03     32.0107E-03    -15.6336E-03     54.8796E-03
            1533     11.5186E-03     47.8654E-03    -5.68166E+06    -42.4876E+06     318.588E+03     381.281E+03    -16.2869E-03     31.9889E-03    -15.7019E-03     48.2734E-03    -16.2710E-03     31.8010E-03    -15.6305E-03     48.2566E-03
            1534     10.6326E-03     47.8226E-03    -5.98092E+06    -55.0600E+06    -1.79693E+06     364.800E+03    -16.2051E-03     31.9119E-03    -15.7068E-03     43.7371E-03    -16.1632E-03     31.6585E-03    -15.6273E-03     43.7254E-03
            1535     9.74650E-03     47.7838E-03    -6.46673E+06    -60.3226E+06     1.18420E+06     322.956E+03    -16.1307E-03     31.8564E-03    -15.7258E-03     39.5211E-03    -16.0841E-03     31.5693E-03    -15.6230E-03     39.5129E-03
            1536     8.86055E-03     47.7488E-03    -7.20667E+06    -60.8702E+06     1.39222E+06     391.493E+03    -16.0421E-03     31.7654E-03    -15.7233E-03     35.3304E-03    -15.9963E-03     31.4739E-03    -15.6176E-03     35.3261E-03
            1537     7.97452E-03     47.7177E-03    -8.08340E+06    -63.7201E+06     565.723E+03     393.965E+03    -15.9552E-03     31.6747E-03    -15.7195E-03     31.2074E-03    -15.9070E-03     31.3699E-03    -15.6125E-03     31.2054E-03
            1538     7.08850E-03     47.6904E-03    -9.17971E+06    -65.9396E+06    -441.655E+03     310.167E+03    -15.8815E-03     31.5963E-03    -15.7148E-03     27.1819E-03    -15.8331E-03     31.2825E-03    -15.6081E-03     27.1804E-03
            1539     6.20245E-03     47.6669E-03    -10.3753E+06    -67.1402E+06    -1.80988E+06     298.349E+03    -15.8158E-03     31.5234E-03    -15.7076E-03     23.3031E-03    -15.7690E-03     31.2067E-03    -15.6043E-03     23.3026E-03
            1540     5.31640E-03     47.6468E-03    -11.6764E+06    -68.3966E+06    -3.38295E+06     293.086E+03    -15.7614E-03     31.4619E-03    -15.7005E-03     19.5984E-03    -15.7165E-03     31.1426E-03    -15.6013E-03     19.5988E-03
            1541     4.43035E-03     47.6302E-03    -13.1170E+06    -68.8292E+06    -5.68042E+06     265.191E+03    -15.7169E-03     31.4065E-03    -15.6896E-03     16.0690E-03    -15.6749E-03     31.0902E-03    -15.5992E-03     16.0698E-03
            1542     3.54428E-03     47.6167E-03    -14.6123E+06    -69.7675E+06    -8.69644E+06     230.198E+03    -15.6836E-03     31.3605E-03    -15.6769E-03     12.6957E-03    -15.6433E-03     31.0458E-03    -15.5980E-03     12.6967E-03
            1543     2.65821E-03     47.6064E-03    -16.0194E+06    -71.1163E+06    -12.0436E+06     160.269E+03    -15.6618E-03     31.3256E-03    -15.6638E-03     9.45837E-03    -15.6215E-03     31.0109E-03    -15.5976E-03     9.45896E-03
            1544     1.77214E-03     47.5990E-03    -17.1985E+06    -72.3847E+06    -15.1631E+06     103.775E+03    -15.6482E-03     31.3003E-03    -15.6521E-03     6.33652E-03    -15.6074E-03     30.9854E-03    -15.5980E-03     6.33688E-03
            1545     886.071E-06     47.5945E-03    -18.0004E+06    -73.2354E+06    -17.4248E+06     64.3918E+03    -15.6552E-03     31.2869E-03    -15.6317E-03     3.43826E-03    -15.6138E-03     30.9722E-03    -15.5866E-03     3.43857E-03
            1546     16.8356E-03     47.3792E-03    -4.18874E+06     152.068E+06     51.7944E+06     3.08732E+03    -21.8089E-03     37.4516E-03    -15.6426E-03     189.724E-03    -24.9220E-03     40.9394E-03    -15.5981E-03     191.850E-03
            1547     15.9490E-03     47.2093E-03    -5.54402E+06     94.7638E+06    -5.93278E+06     419.622E+03    -19.9175E-03     35.3685E-03    -15.4510E-03     146.311E-03    -21.3201E-03     37.1050E-03    -15.6100E-03     146.691E-03
            1548     15.0628E-03     47.1051E-03    -5.57715E+06     34.0198E+06    -9.09749E+06     359.720E+03    -17.4391E-03     32.9703E-03    -15.5312E-03     89.6752E-03    -17.7250E-03     33.3835E-03    -15.6180E-03     89.6535E-03
            1549     14.1768E-03     47.0423E-03    -5.41567E+06    -10.5933E+06    -8.32792E+06     221.929E+03    -16.5392E-03     32.1418E-03    -15.6026E-03     61.9976E-03    -16.6123E-03     32.1823E-03    -15.6211E-03     61.9597E-03
            1550     13.2909E-03     46.9896E-03    -4.97024E+06    -33.4153E+06    -7.93816E+06     365.448E+03    -16.5177E-03     32.1535E-03    -15.6358E-03     57.8079E-03    -16.5274E-03     32.0499E-03    -15.6198E-03     57.7762E-03
            1551     12.4049E-03     46.9344E-03    -5.20501E+06    -35.7533E+06     605.986E+03     356.011E+03    -16.4280E-03     32.1075E-03    -15.6796E-03     54.9400E-03    -16.4314E-03     31.9638E-03    -15.6172E-03     54.9159E-03
            1552     11.5187E-03     46.8871E-03    -5.65334E+06    -42.6028E+06     273.536E+03     333.650E+03    -16.2842E-03     31.9696E-03    -15.6854E-03     48.3063E-03    -16.2678E-03     31.7812E-03    -15.6141E-03     48.2889E-03
            1553     10.6327E-03     46.8444E-03    -5.93708E+06    -54.9050E+06    -1.68000E+06     361.493E+03    -16.2321E-03     31.9204E-03    -15.6884E-03     43.7377E-03    -16.1903E-03     31.6675E-03    -15.6085E-03     43.7259E-03
            1554     9.74677E-03     46.8055E-03    -6.46100E+06    -60.1517E+06     1.11259E+06     330.174E+03    -16.1309E-03     31.8343E-03    -15.7034E-03     39.4880E-03    -16.0844E-03     31.5481E-03    -15.6013E-03     39.4799E-03
            1555     8.86073E-03     46.7706E-03    -7.26552E+06    -61.0235E+06     1.19360E+06     339.211E+03    -16.0258E-03     31.7253E-03    -15.6995E-03     35.2887E-03    -15.9798E-03     31.4334E-03    -15.5945E-03     35.2838E-03
            1556     7.97472E-03     46.7395E-03    -8.14880E+06    -63.6214E+06     502.424E+03     406.099E+03    -15.9459E-03     31.6405E-03    -15.6947E-03     31.1689E-03    -15.8980E-03     31.3364E-03    -15.5881E-03     31.1671E-03
            1557     7.08868E-03     46.7123E-03    -9.15731E+06    -65.8520E+06    -462.450E+03     360.524E+03    -15.8699E-03     31.5582E-03    -15.6883E-03     27.1362E-03    -15.8214E-03     31.2448E-03    -15.5818E-03     27.1354E-03
            1558     6.20263E-03     46.6887E-03    -10.3318E+06    -67.0861E+06    -1.81734E+06     316.351E+03    -15.7997E-03     31.4791E-03    -15.6794E-03     23.2579E-03    -15.7528E-03     31.1626E-03    -15.5762E-03     23.2577E-03
            1559     5.31657E-03     46.6687E-03    -11.6632E+06    -68.3155E+06    -3.40958E+06     293.033E+03    -15.7425E-03     31.4128E-03    -15.6704E-03     19.5567E-03    -15.6976E-03     31.0940E-03    -15.5714E-03     19.5571E-03
            1560     4.43048E-03     46.6520E-03    -13.1144E+06    -68.7335E+06    -5.68992E+06     271.780E+03    -15.6927E-03     31.3505E-03    -15.6578E-03     16.0297E-03    -15.6509E-03     31.0346E-03    -15.5676E-03     16.0306E-03
            1561     3.54440E-03     46.6386E-03    -14.5986E+06    -69.6098E+06    -8.69487E+06     224.826E+03    -15.6553E-03     31.2989E-03    -15.6436E-03     12.6613E-03    -15.6151E-03     30.9849E-03    -15.5650E-03     12.6622E-03
            1562     2.65830E-03     46.6283E-03    -16.0098E+06    -70.9642E+06    -12.0499E+06     168.741E+03    -15.6299E-03     31.2593E-03    -15.6294E-03     9.43228E-03    -15.5898E-03     30.9453E-03    -15.5635E-03     9.43298E-03
            1563     1.77220E-03     46.6209E-03    -17.2046E+06    -72.2515E+06    -15.1622E+06     120.608E+03    -15.6161E-03     31.2325E-03    -15.6165E-03     6.32124E-03    -15.5754E-03     30.9183E-03    -15.5626E-03     6.32183E-03
            1564     886.104E-06     46.6164E-03    -18.0183E+06    -73.0668E+06    -17.4504E+06     72.7575E+03    -15.6102E-03     31.2137E-03    -15.6034E-03     3.44871E-03    -15.5691E-03     30.8998E-03    -15.5586E-03     3.44911E-03
            1565     16.8352E-03     46.4006E-03    -4.16983E+06     151.995E+06     52.0277E+06    -37.9542E+03    -21.8538E-03     37.4919E-03    -15.6381E-03     189.372E-03    -24.9568E-03     40.9688E-03    -15.5923E-03     191.488E-03
            1566     15.9493E-03     46.2311E-03    -5.41737E+06      94.269E+06    -5.80018E+06     305.401E+03    -19.8790E-03     35.3242E-03    -15.4452E-03     146.296E-03    -21.2798E-03     37.0573E-03    -15.6031E-03     146.675E-03
            1567     15.0631E-03     46.1268E-03    -5.14123E+06     34.2186E+06    -8.88447E+06     496.286E+03    -17.4416E-03     32.9668E-03    -15.5252E-03     89.8061E-03    -17.7256E-03     33.3798E-03    -15.6118E-03     89.7861E-03
            1568     14.1770E-03     46.0639E-03    -5.26505E+06    -10.1194E+06    -8.23239E+06     361.478E+03    -16.5918E-03     32.1861E-03    -15.5943E-03     62.1541E-03    -16.6652E-03     32.2287E-03    -15.6131E-03     62.1178E-03
            1569     13.2909E-03     46.0112E-03    -5.20718E+06    -33.5406E+06    -8.33376E+06     281.020E+03    -16.5494E-03     32.1727E-03    -15.6233E-03     57.9259E-03    -16.5594E-03     32.0694E-03    -15.6088E-03     57.8930E-03
            1570     12.4048E-03     45.9562E-03    -4.99953E+06    -35.6296E+06     613.782E+03     344.779E+03    -16.4451E-03     32.1109E-03    -15.6658E-03     54.9977E-03    -16.4476E-03     31.9675E-03    -15.6039E-03     54.9735E-03
            1571     11.5189E-03     45.9088E-03    -5.44581E+06    -42.4622E+06     319.885E+03     358.398E+03    -16.3136E-03     31.9827E-03    -15.6691E-03     48.2560E-03    -16.2964E-03     31.7945E-03    -15.5981E-03     48.2389E-03
            1572     10.6330E-03     45.8660E-03    -6.01573E+06    -55.0052E+06    -1.90163E+06     367.864E+03    -16.2517E-03     31.9197E-03    -15.6680E-03     43.6825E-03    -16.2098E-03     31.6667E-03    -15.5890E-03     43.6708E-03
            1573     9.74696E-03     45.8272E-03    -6.51258E+06    -60.1102E+06     1.01945E+06     376.033E+03    -16.1326E-03     31.8133E-03    -15.6807E-03     39.4401E-03    -16.0863E-03     31.5275E-03    -15.5790E-03     39.4325E-03
            1574     8.86096E-03     45.7923E-03    -7.29703E+06    -60.9474E+06     1.05897E+06     348.280E+03    -16.0199E-03     31.6943E-03    -15.6743E-03     35.2519E-03    -15.9740E-03     31.4030E-03    -15.5701E-03     35.2472E-03
            1575     7.97491E-03     45.7613E-03    -8.18511E+06    -63.6662E+06     412.909E+03     355.916E+03    -15.9388E-03     31.6067E-03    -15.6679E-03     31.1149E-03    -15.8909E-03     31.3025E-03    -15.5616E-03     31.1124E-03
            1576     7.08888E-03     45.7341E-03    -9.19088E+06    -65.7216E+06    -472.990E+03     384.629E+03    -15.8575E-03     31.5168E-03    -15.6594E-03     27.0755E-03    -15.8093E-03     31.2041E-03    -15.5531E-03     27.0750E-03
            1577     6.20282E-03     45.7106E-03    -10.3818E+06    -66.9879E+06    -1.86087E+06     338.845E+03    -15.7840E-03     31.4321E-03    -15.6481E-03     23.2071E-03    -15.7374E-03     31.1162E-03    -15.5452E-03     23.2072E-03
            1578     5.31674E-03     45.6906E-03    -11.6893E+06    -68.2133E+06    -3.45542E+06     303.119E+03    -15.7213E-03     31.3581E-03    -15.6368E-03     19.5056E-03    -15.6766E-03     31.0398E-03    -15.5382E-03     19.5061E-03
            1579     4.43065E-03     45.6740E-03    -13.1311E+06    -68.6218E+06    -5.73795E+06     258.237E+03    -15.6648E-03     31.2872E-03    -15.6224E-03     15.9843E-03    -15.6232E-03     30.9720E-03    -15.5325E-03     15.9850E-03
            1580     3.54453E-03     45.6606E-03    -14.6333E+06    -69.4874E+06    -8.74108E+06     219.341E+03    -15.6225E-03     31.2294E-03    -15.6069E-03     12.6250E-03    -15.5825E-03     30.9161E-03    -15.5286E-03     12.6259E-03
            1581     2.65841E-03     45.6503E-03    -16.0473E+06     -70.823E+06    -12.0822E+06     176.567E+03    -15.5952E-03     31.1869E-03    -15.5917E-03     9.40402E-03    -15.5554E-03     30.8737E-03    -15.5261E-03     9.40483E-03
            1582     1.77227E-03     45.6429E-03    -17.2231E+06    -72.1068E+06    -15.1814E+06     127.942E+03    -15.5783E-03     31.1564E-03    -15.5781E-03     6.30229E-03    -15.5380E-03     30.8430E-03    -15.5245E-03     6.30298E-03
            1583     886.136E-06     45.6384E-03    -18.0259E+06    -72.8642E+06    -17.4607E+06     71.7942E+03    -15.5503E-03     31.1365E-03    -15.5862E-03     3.42401E-03    -15.5095E-03     30.8237E-03    -15.5417E-03     3.42441E-03
            1584     16.8359E-03     45.4225E-03    -4.02281E+06     151.847E+06     51.9022E+06    -23.8165E+03    -21.8612E-03     37.5046E-03    -15.6434E-03     189.544E-03    -24.9661E-03     40.9837E-03    -15.5982E-03     191.662E-03
            1585     15.9492E-03     45.2527E-03    -5.45747E+06     94.0306E+06    -6.08982E+06     251.878E+03    -20.0009E-03     35.4484E-03    -15.4474E-03     146.419E-03    -21.4012E-03     37.1807E-03    -15.6063E-03     146.793E-03
            1586     15.0629E-03     45.1487E-03    -5.25432E+06     34.1203E+06    -9.08894E+06     462.755E+03    -17.5103E-03     33.0332E-03    -15.5229E-03     89.9672E-03    -17.7947E-03     33.4464E-03    -15.6102E-03     89.9462E-03
            1587     14.1768E-03     45.0853E-03    -4.98418E+06    -9.90903E+06    -8.06453E+06     474.345E+03    -16.6400E-03     32.2293E-03    -15.5892E-03     62.0811E-03    -16.7125E-03     32.2722E-03    -15.6080E-03     62.0461E-03
            1588     13.2910E-03     45.0331E-03    -4.94819E+06    -33.1679E+06    -8.12027E+06     304.317E+03    -16.6104E-03     32.2245E-03    -15.6141E-03     57.7862E-03    -16.6199E-03     32.1223E-03    -15.5995E-03     57.7535E-03
            1589     12.4051E-03     44.9777E-03    -5.26253E+06    -35.7750E+06     363.489E+03     270.384E+03    -16.5195E-03     32.1695E-03    -15.6501E-03     54.8834E-03    -16.5228E-03     32.0261E-03    -15.5887E-03     54.8581E-03
            1590     11.5192E-03     44.9306E-03    -5.74437E+06    -42.4385E+06     53.6301E+03     406.669E+03    -16.3290E-03     31.9773E-03    -15.6482E-03     48.1748E-03    -16.3130E-03     31.7900E-03    -15.5781E-03     48.1584E-03
            1591     10.6331E-03     44.8877E-03    -6.00840E+06    -54.9361E+06    -2.01671E+06     414.274E+03    -16.2375E-03     31.8830E-03    -15.6455E-03     43.6198E-03    -16.1955E-03     31.6305E-03    -15.5672E-03     43.6088E-03
            1592     9.74720E-03     44.8490E-03    -6.51976E+06    -60.1424E+06     988.181E+03     381.147E+03    -16.1337E-03     31.7909E-03    -15.6572E-03     39.3679E-03    -16.0873E-03     31.5050E-03    -15.5556E-03     39.3605E-03
            1593     8.86117E-03     44.8142E-03    -7.30466E+06    -60.7349E+06     1.07112E+06     399.830E+03    -16.0291E-03     31.6768E-03    -15.6477E-03     35.1902E-03    -15.9835E-03     31.3866E-03    -15.5437E-03     35.1861E-03
            1594     7.97517E-03     44.7831E-03    -8.24168E+06    -63.6718E+06     270.438E+03     331.118E+03    -15.9303E-03     31.5681E-03    -15.6378E-03     31.0459E-03    -15.8825E-03     31.2642E-03    -15.5322E-03     31.0431E-03
            1595     7.08911E-03     44.7560E-03    -9.24445E+06    -65.6588E+06    -525.252E+03     356.815E+03    -15.8428E-03     31.4701E-03    -15.6273E-03     27.0136E-03    -15.7950E-03     31.1579E-03    -15.5213E-03     27.0127E-03
            1596     6.20303E-03     44.7325E-03    -10.3802E+06    -66.8636E+06    -1.84494E+06     357.208E+03    -15.7673E-03     31.3811E-03    -15.6137E-03     23.1430E-03    -15.7209E-03     31.0657E-03    -15.5110E-03     23.1434E-03
            1597     5.31694E-03     44.7125E-03    -11.7167E+06    -68.0784E+06    -3.47288E+06     305.487E+03    -15.6957E-03     31.2956E-03    -15.6000E-03     19.4448E-03    -15.6513E-03     30.9781E-03    -15.5016E-03     19.4454E-03
            1598     4.43081E-03     44.6960E-03    -13.1653E+06    -68.5054E+06    -5.78946E+06     263.194E+03    -15.6333E-03     31.2170E-03    -15.5837E-03     15.9320E-03    -15.5919E-03     30.9025E-03    -15.4942E-03     15.9328E-03
            1599     3.54467E-03     44.6826E-03    -14.6543E+06    -69.3904E+06    -8.76920E+06     223.090E+03    -15.5877E-03     31.1546E-03    -15.5669E-03     12.5811E-03    -15.5480E-03     30.8419E-03    -15.4888E-03     12.5820E-03
            1600     2.65851E-03     44.6723E-03    -16.0722E+06    -70.6952E+06    -12.1005E+06     182.685E+03    -15.5582E-03     31.1084E-03    -15.5502E-03     9.36904E-03    -15.5187E-03     30.7959E-03    -15.4849E-03     9.36994E-03
            1601     1.77234E-03     44.6650E-03    -17.2860E+06    -71.9404E+06    -15.2405E+06     129.313E+03    -15.5383E-03     31.0731E-03    -15.5348E-03     6.27193E-03    -15.4984E-03     30.7607E-03    -15.4816E-03     6.27263E-03
            1602     886.172E-06     44.6605E-03    -18.0944E+06    -72.7000E+06    -17.5521E+06     76.3787E+03    -15.5225E-03     31.0479E-03    -15.5254E-03     3.39116E-03    -15.4822E-03     30.7362E-03    -15.4815E-03     3.39163E-03
            1603     16.8342E-03     44.4426E-03    -4.18541E+06     151.637E+06     51.6400E+06    -1.60522E+03    -21.8399E-03     37.4940E-03    -15.6540E-03     189.629E-03    -24.9537E-03     40.9814E-03    -15.6096E-03     191.754E-03
            1604     15.9490E-03     44.2748E-03    -5.82209E+06     93.8992E+06    -6.48344E+06     166.607E+03    -20.2129E-03     35.6644E-03    -15.4515E-03     145.804E-03    -21.6055E-03     37.3885E-03    -15.6116E-03     146.169E-03
            1605     15.0631E-03     44.1698E-03    -5.67519E+06     34.0350E+06    -9.40435E+06     256.925E+03    -17.6448E-03     33.1607E-03    -15.5159E-03     89.7945E-03    -17.9308E-03     33.5747E-03    -15.6040E-03     89.7699E-03
            1606     14.1773E-03     44.1072E-03    -5.18931E+06    -9.85926E+06    -8.15138E+06     299.747E+03    -16.7015E-03     32.2774E-03    -15.5760E-03     61.8536E-03    -16.7746E-03     32.3208E-03    -15.5949E-03     61.8161E-03
            1607     13.2912E-03     44.0544E-03    -4.95390E+06    -33.0699E+06    -8.10678E+06     440.907E+03    -16.6436E-03     32.2401E-03    -15.5966E-03     57.6426E-03    -16.6533E-03     32.1384E-03    -15.5820E-03     57.6116E-03
            1608     12.4054E-03     43.9994E-03    -5.18034E+06    -35.8128E+06     312.635E+03     392.659E+03    -16.5129E-03     32.1427E-03    -15.6298E-03     54.7805E-03    -16.5156E-03     31.9990E-03    -15.5688E-03     54.7569E-03
            1609     11.5193E-03     43.9522E-03    -5.59550E+06    -42.3473E+06     222.350E+03     391.787E+03    -16.3283E-03     31.9558E-03    -15.6275E-03     48.1502E-03    -16.3118E-03     31.7685E-03    -15.5569E-03     48.1336E-03
            1610     10.6335E-03     43.9095E-03    -6.05989E+06    -54.7630E+06    -1.92697E+06     446.634E+03    -16.2490E-03     31.8712E-03    -15.6222E-03     43.5499E-03    -16.2077E-03     31.6195E-03    -15.5436E-03     43.5392E-03
            1611     9.74741E-03     43.8708E-03    -6.62151E+06    -60.0917E+06     841.061E+03     397.207E+03    -16.1361E-03     31.7661E-03    -15.6300E-03     39.2987E-03    -16.0901E-03     31.4808E-03    -15.5291E-03     39.2915E-03
            1612     8.86146E-03     43.8359E-03    -7.33458E+06    -60.7324E+06     1.04190E+06     403.640E+03    -16.0262E-03     31.6444E-03    -15.6183E-03     35.0993E-03    -15.9807E-03     31.3543E-03    -15.5144E-03     35.0953E-03
            1613     7.97541E-03     43.8050E-03    -8.24500E+06    -63.4827E+06     239.742E+03     395.075E+03    -15.9223E-03     31.5274E-03    -15.6052E-03     30.9672E-03    -15.8747E-03     31.2245E-03    -15.5000E-03     30.9653E-03
            1614     7.08935E-03     43.7779E-03    -9.33151E+06    -65.6449E+06    -675.311E+03     316.066E+03    -15.8308E-03     31.4223E-03    -15.5915E-03     26.9432E-03    -15.7832E-03     31.1105E-03    -15.4861E-03     26.9418E-03
            1615     6.20328E-03     43.7545E-03    -10.4710E+06    -66.7595E+06    -1.90806E+06     324.855E+03    -15.7441E-03     31.3197E-03    -15.5756E-03     23.0661E-03    -15.6982E-03     31.0051E-03    -15.4731E-03     23.0660E-03
            1616     5.31715E-03     43.7346E-03    -11.7545E+06    -67.9784E+06    -3.48702E+06     319.992E+03    -15.6665E-03     31.2264E-03    -15.5598E-03     19.3763E-03    -15.6225E-03     30.9094E-03    -15.4617E-03     19.3771E-03
            1617     4.43100E-03     43.7180E-03    -13.2080E+06    -68.3706E+06    -5.79260E+06     275.058E+03    -15.6013E-03     31.1427E-03    -15.5415E-03     15.8694E-03    -15.5603E-03     30.8290E-03    -15.4522E-03     15.8703E-03
            1618     3.54482E-03     43.7047E-03    -14.6967E+06    -69.2845E+06    -8.80089E+06     215.622E+03    -15.5517E-03     31.0741E-03    -15.5224E-03     12.5270E-03    -15.5123E-03     30.7621E-03    -15.4446E-03     12.5278E-03
            1619     2.65864E-03     43.6944E-03    -16.0990E+06    -70.5720E+06    -12.1389E+06     179.350E+03    -15.5164E-03     31.0201E-03    -15.5037E-03     9.32555E-03    -15.4772E-03     30.7084E-03    -15.4387E-03     9.32641E-03
            1620     1.77243E-03     43.6871E-03    -17.2905E+06    -71.7878E+06    -15.2481E+06     133.601E+03    -15.4948E-03     30.9811E-03    -15.4863E-03     6.24140E-03    -15.4551E-03     30.6694E-03    -15.4333E-03     6.24217E-03
            1621     886.227E-06     43.6827E-03    -18.1251E+06    -72.5853E+06    -17.5314E+06     74.9147E+03    -15.4890E-03     30.9484E-03    -15.4594E-03     3.37540E-03    -15.4490E-03     30.6372E-03    -15.4155E-03     3.37586E-03
            1622     16.8355E-03     43.4638E-03    -4.15643E+06     151.753E+06     52.0611E+06     221.531E+03    -21.9308E-03     37.5712E-03    -15.6404E-03     189.205E-03    -25.0361E-03     41.0495E-03    -15.5941E-03     191.319E-03
            1623     15.9492E-03     43.2960E-03    -5.81541E+06     93.7359E+06    -6.19731E+06        -249.938    -20.1223E-03     35.5570E-03    -15.4347E-03     145.084E-03    -21.5067E-03     37.2715E-03    -15.5932E-03     145.448E-03
            1624     15.0634E-03     43.1915E-03    -5.55106E+06     34.1496E+06    -9.36551E+06     59.6282E+03    -17.6393E-03     33.1363E-03    -15.4970E-03     89.4682E-03    -17.9244E-03     33.5501E-03    -15.5853E-03     89.4409E-03
            1625     14.1773E-03     43.1287E-03    -5.50741E+06    -9.93874E+06    -8.42671E+06     268.884E+03    -16.6634E-03     32.2195E-03    -15.5561E-03     61.8680E-03    -16.7375E-03     32.2632E-03    -15.5759E-03     61.8303E-03
            1626     13.2917E-03     43.0761E-03    -5.15198E+06    -33.3697E+06    -8.44080E+06     389.565E+03    -16.6387E-03     32.2154E-03    -15.5767E-03     57.6562E-03    -16.6484E-03     32.1128E-03    -15.5631E-03     57.6245E-03
            1627     12.4056E-03     43.0212E-03    -5.02781E+06    -35.5513E+06     480.653E+03     484.614E+03    -16.5122E-03     32.1222E-03    -15.6100E-03     54.7666E-03    -16.5147E-03     31.9792E-03    -15.5488E-03     54.7442E-03
            1628     11.5197E-03     42.9739E-03    -5.55932E+06    -42.3209E+06     160.577E+03     479.528E+03    -16.3486E-03     31.9532E-03    -15.6046E-03     48.0660E-03    -16.3318E-03     31.7660E-03    -15.5344E-03     48.0505E-03
            1629     10.6336E-03     42.9313E-03    -6.01270E+06    -54.7906E+06    -1.99656E+06     412.951E+03    -16.2667E-03     31.8625E-03    -15.5958E-03     43.4614E-03    -16.2249E-03     31.6106E-03    -15.5176E-03     43.4503E-03
            1630     9.74778E-03     42.8926E-03    -6.53597E+06    -59.8669E+06     939.579E+03     427.200E+03    -16.1454E-03     31.7457E-03    -15.6002E-03     39.2097E-03    -16.0994E-03     31.4612E-03    -15.4992E-03     39.2029E-03
            1631     8.86173E-03     42.8578E-03    -7.35347E+06    -60.7499E+06     963.609E+03     381.197E+03    -16.0134E-03     31.5986E-03    -15.5852E-03     35.0121E-03    -15.9678E-03     31.3084E-03    -15.4816E-03     35.0078E-03
            1632     7.97569E-03     42.8269E-03    -8.20282E+06    -63.4254E+06     306.144E+03     399.821E+03    -15.9175E-03     31.4873E-03    -15.5697E-03     30.8763E-03    -15.8699E-03     31.1845E-03    -15.4643E-03     30.8744E-03
            1633     7.08964E-03     42.7999E-03    -9.22823E+06    -65.4709E+06    -649.131E+03     386.846E+03    -15.8166E-03     31.3688E-03    -15.5522E-03     26.8441E-03    -15.7688E-03     31.0576E-03    -15.4471E-03     26.8437E-03
            1634     6.20352E-03     42.7765E-03    -10.4809E+06    -66.7346E+06    -1.98024E+06     313.509E+03    -15.7183E-03     31.2516E-03    -15.5333E-03     22.9764E-03    -15.6723E-03     30.9373E-03    -15.4313E-03     22.9763E-03
            1635     5.31738E-03     42.7567E-03    -11.8038E+06    -67.8671E+06    -3.49172E+06     305.160E+03    -15.6366E-03     31.1519E-03    -15.5153E-03     19.2889E-03    -15.5929E-03     30.8355E-03    -15.4172E-03     19.2895E-03
            1636     4.43120E-03     42.7402E-03    -13.2164E+06    -68.2549E+06    -5.77655E+06     255.370E+03    -15.5654E-03     31.0599E-03    -15.4945E-03     15.7937E-03    -15.5247E-03     30.7467E-03    -15.4052E-03     15.7944E-03
            1637     3.54500E-03     42.7269E-03    -14.7131E+06    -69.1816E+06    -8.79943E+06     228.103E+03    -15.5105E-03     30.9835E-03    -15.4730E-03     12.4646E-03    -15.4713E-03     30.6720E-03    -15.3954E-03     12.4655E-03
            1638     2.65877E-03     42.7167E-03    -16.1708E+06    -70.4280E+06    -12.1914E+06     195.632E+03    -15.4684E-03     30.9208E-03    -15.4525E-03     9.27743E-03    -15.4296E-03     30.6100E-03    -15.3878E-03     9.27851E-03
            1639     1.77252E-03     42.7094E-03    -17.3579E+06    -71.6632E+06    -15.2890E+06     121.749E+03    -15.4436E-03     30.8779E-03    -15.4343E-03     6.21563E-03    -15.4044E-03     30.5670E-03    -15.3816E-03     6.21625E-03
            1640     886.271E-06     42.7049E-03    -18.1281E+06    -72.4932E+06    -17.5622E+06     47.3733E+03    -15.4208E-03     30.8440E-03    -15.4232E-03     3.33787E-03    -15.3809E-03     30.5333E-03    -15.3796E-03     3.33798E-03
            1641     16.8362E-03     42.4867E-03    -3.84217E+06     151.874E+06     52.2198E+06     237.723E+03    -22.1170E-03     37.7329E-03    -15.6159E-03     188.953E-03    -25.2018E-03     41.1918E-03    -15.5695E-03     191.042E-03
            1642     15.9498E-03     42.3167E-03    -5.42054E+06     94.0948E+06    -5.90555E+06     283.696E+03    -19.9313E-03     35.3420E-03    -15.4106E-03     145.664E-03    -21.3186E-03     37.0612E-03    -15.5687E-03     146.035E-03
            1643     15.0639E-03     42.2137E-03    -5.60647E+06     34.0291E+06    -9.44460E+06     198.648E+03    -17.5872E-03     33.0668E-03    -15.4796E-03     89.5414E-03    -17.8716E-03     33.4795E-03    -15.5680E-03     89.5162E-03
            1644     14.1777E-03     42.1501E-03    -5.22752E+06    -10.0159E+06    -8.32078E+06     320.578E+03    -16.6355E-03     32.1762E-03    -15.5407E-03     62.0177E-03    -16.7081E-03     32.2188E-03    -15.5602E-03     61.9808E-03
            1645     13.2916E-03     42.0979E-03    -5.11288E+06    -33.3831E+06    -8.31396E+06     338.858E+03    -16.6469E-03     32.2083E-03    -15.5614E-03     57.6401E-03    -16.6563E-03     32.1052E-03    -15.5472E-03     57.6079E-03
            1646     12.4058E-03     42.0427E-03    -5.30077E+06    -35.6124E+06     325.176E+03     423.286E+03    -16.5820E-03     32.1717E-03    -15.5897E-03     54.7019E-03    -16.5855E-03     32.0290E-03    -15.5288E-03     54.6786E-03
            1647     11.5199E-03     41.9957E-03    -5.65112E+06    -42.1864E+06     169.224E+03     493.856E+03    -16.3815E-03     31.9604E-03    -15.5789E-03     47.9523E-03    -16.3654E-03     31.7740E-03    -15.5087E-03     47.9371E-03
            1648     10.6340E-03     41.9530E-03    -6.03783E+06    -54.6917E+06    -2.04539E+06     444.619E+03    -16.2714E-03     31.8372E-03    -15.5658E-03     43.3665E-03    -16.2298E-03     31.5859E-03    -15.4880E-03     43.3560E-03
            1649     9.74804E-03     41.9144E-03    -6.48866E+06    -59.8374E+06     927.233E+03     408.321E+03    -16.1432E-03     31.7107E-03    -15.5675E-03     39.1027E-03    -16.0970E-03     31.4263E-03    -15.4667E-03     39.0958E-03
            1650     8.86205E-03     41.8798E-03    -7.26829E+06    -60.5444E+06     998.246E+03     422.096E+03    -16.0215E-03     31.5701E-03    -15.5486E-03     34.9098E-03    -15.9758E-03     31.2807E-03    -15.4452E-03     34.9061E-03
            1651     7.97602E-03     41.8489E-03    -8.24002E+06    -63.4281E+06     169.410E+03     369.201E+03    -15.9076E-03     31.4362E-03    -15.5286E-03     30.7614E-03    -15.8599E-03     31.1336E-03    -15.4239E-03     30.7592E-03
            1652     7.08994E-03     41.8219E-03    -9.24343E+06    -65.3840E+06    -620.776E+03     409.613E+03    -15.7967E-03     31.3051E-03    -15.5083E-03     26.7228E-03    -15.7491E-03     30.9943E-03    -15.4032E-03     26.7227E-03
            1653     6.20382E-03     41.7986E-03    -10.4112E+06    -66.5920E+06    -1.94938E+06     399.579E+03    -15.6938E-03     31.1797E-03    -15.4860E-03     22.8637E-03    -15.6477E-03     30.8659E-03    -15.3841E-03     22.8646E-03
            1654     5.31765E-03     41.7788E-03    -11.7747E+06    -67.7615E+06    -3.51396E+06     287.298E+03    -15.6018E-03     31.0665E-03    -15.4647E-03     19.1871E-03    -15.5582E-03     30.7507E-03    -15.3670E-03     19.1875E-03
            1655     4.43144E-03     41.7624E-03    -13.2424E+06    -68.1689E+06    -5.80601E+06     255.702E+03    -15.5234E-03     30.9648E-03    -15.4414E-03     15.7057E-03    -15.4829E-03     30.6521E-03    -15.3524E-03     15.7064E-03
            1656     3.54519E-03     41.7492E-03    -14.7706E+06    -69.1131E+06    -8.80762E+06     263.107E+03    -15.4617E-03     30.8798E-03    -15.4181E-03     12.3873E-03    -15.4228E-03     30.5687E-03    -15.3405E-03     12.3887E-03
            1657     2.65892E-03     41.7390E-03    -16.2039E+06    -70.2401E+06    -12.1695E+06     219.311E+03    -15.4163E-03     30.8120E-03    -15.3957E-03     9.21408E-03    -15.3780E-03     30.5021E-03    -15.3312E-03     9.21548E-03
            1658     1.77263E-03     41.7317E-03    -17.3796E+06    -71.5339E+06    -15.3072E+06     116.125E+03    -15.3853E-03     30.7619E-03    -15.3766E-03     6.17095E-03    -15.3464E-03     30.4517E-03    -15.3242E-03     6.17151E-03
            1659     886.314E-06     41.7273E-03    -18.1823E+06    -72.4149E+06    -17.6097E+06     42.6456E+03    -15.3457E-03     30.7287E-03    -15.3830E-03     3.29110E-03    -15.3061E-03     30.4186E-03    -15.3397E-03     3.29116E-03
            1660     16.8361E-03     41.5079E-03    -4.08663E+06     151.481E+06     51.8364E+06    -31.3334E+03    -22.1499E-03     37.7771E-03    -15.6273E-03     189.180E-03    -25.2367E-03     41.2369E-03    -15.5818E-03     191.269E-03
            1661     15.9497E-03     41.3391E-03    -5.36318E+06     94.2625E+06    -5.92343E+06     544.673E+03    -20.2094E-03     35.6254E-03    -15.4160E-03     146.212E-03    -21.5991E-03     37.3478E-03    -15.5745E-03     146.579E-03
            1662     15.0634E-03     41.2346E-03    -5.40056E+06     34.1820E+06    -9.30763E+06     493.234E+03    -17.7041E-03     33.1801E-03    -15.4760E-03     89.7431E-03    -17.9878E-03     33.5929E-03    -15.5642E-03     89.7208E-03
            1663     14.1778E-03     41.1722E-03    -5.28909E+06    -10.0628E+06    -8.31069E+06     321.712E+03    -16.7899E-03     32.3186E-03    -15.5287E-03     61.8924E-03    -16.8627E-03     32.3610E-03    -15.5480E-03     61.8550E-03
            1664     13.2920E-03     41.1192E-03    -5.10562E+06    -33.2939E+06    -8.28050E+06     375.715E+03    -16.6904E-03     32.2321E-03    -15.5417E-03     57.5748E-03    -16.6999E-03     32.1293E-03    -15.5275E-03     57.5430E-03
            1665     12.4062E-03     41.0645E-03    -5.18320E+06    -35.6352E+06     261.434E+03     393.657E+03    -16.6046E-03     32.1702E-03    -15.5656E-03     54.5639E-03    -16.6072E-03     32.0272E-03    -15.5051E-03     54.5403E-03
            1666     11.5202E-03     41.0173E-03    -5.55419E+06    -42.1553E+06     173.135E+03     426.024E+03    -16.4146E-03     31.9655E-03    -15.5509E-03     47.8530E-03    -16.3980E-03     31.7790E-03    -15.4809E-03     47.8369E-03
            1667     10.6344E-03     40.9749E-03    -5.94716E+06    -54.4423E+06    -1.97962E+06     509.187E+03    -16.2872E-03     31.8204E-03    -15.5333E-03     43.2379E-03    -16.2455E-03     31.5701E-03    -15.4556E-03     43.2282E-03
            1668     9.74839E-03     40.9363E-03    -6.58943E+06    -59.8007E+06     703.457E+03     456.363E+03    -16.1507E-03     31.6806E-03    -15.5298E-03     38.9992E-03    -16.1046E-03     31.3967E-03    -15.4300E-03     38.9929E-03
            1669     8.86242E-03     40.9016E-03    -7.35839E+06    -60.5466E+06     881.323E+03     427.135E+03    -16.0299E-03     31.5367E-03    -15.5068E-03     34.7667E-03    -15.9845E-03     31.2476E-03    -15.4039E-03     34.7631E-03
            1670     7.97639E-03     40.8709E-03    -8.27333E+06    -63.1955E+06     112.307E+03     467.917E+03    -15.8972E-03     31.3792E-03    -15.4819E-03     30.6169E-03    -15.8499E-03     31.0778E-03    -15.3778E-03     30.6160E-03
            1671     7.09029E-03     40.8440E-03    -9.37746E+06    -65.3998E+06    -789.659E+03     387.856E+03    -15.7744E-03     31.2320E-03    -15.4576E-03     26.5864E-03    -15.7272E-03     30.9216E-03    -15.3531E-03     26.5861E-03
            1672     6.20416E-03     40.8208E-03    -10.4877E+06    -66.4465E+06    -1.98289E+06     401.968E+03    -15.6626E-03     31.0945E-03    -15.4319E-03     22.7286E-03    -15.6170E-03     30.7815E-03    -15.3302E-03     22.7296E-03
            1673     5.31795E-03     40.8011E-03    -11.7682E+06    -67.5841E+06    -3.56064E+06     328.189E+03    -15.5616E-03     30.9687E-03    -15.4071E-03     19.0687E-03    -15.5180E-03     30.6538E-03    -15.3099E-03     19.0696E-03
            1674     4.43170E-03     40.7847E-03    -13.2444E+06    -68.1508E+06    -5.76197E+06     280.184E+03    -15.4765E-03     30.8581E-03    -15.3816E-03     15.5985E-03    -15.4360E-03     30.5454E-03    -15.2924E-03     15.5995E-03
            1675     3.54542E-03     40.7716E-03    -14.7785E+06    -69.0094E+06    -8.77332E+06     298.714E+03    -15.4085E-03     30.7639E-03    -15.3554E-03     12.2934E-03    -15.3699E-03     30.4533E-03    -15.2778E-03     12.2953E-03
            1676     2.65909E-03     40.7614E-03    -16.2207E+06    -70.0655E+06    -12.2096E+06     216.665E+03    -15.3576E-03     30.6877E-03    -15.3301E-03     9.13975E-03    -15.3196E-03     30.3788E-03    -15.2660E-03     9.14114E-03
            1677     1.77274E-03     40.7542E-03    -17.4180E+06    -71.3969E+06    -15.3727E+06     146.548E+03    -15.3222E-03     30.6307E-03    -15.3085E-03     6.11181E-03    -15.2836E-03     30.3213E-03    -15.2565E-03     6.11278E-03
            1678     886.377E-06     40.7498E-03    -18.2152E+06    -72.2892E+06    -17.6969E+06     74.0849E+03    -15.2744E-03     30.5900E-03    -15.3156E-03     3.24916E-03    -15.2350E-03     30.2807E-03    -15.2729E-03     3.24964E-03
            1679     16.8338E-03     40.5272E-03    -4.33182E+06     151.156E+06     51.6516E+06     63.7621E+03    -22.0884E-03     37.7328E-03    -15.6445E-03     188.865E-03    -25.1806E-03     41.1965E-03    -15.5991E-03     190.960E-03
            1680     15.9494E-03     40.3607E-03    -6.00450E+06     93.7785E+06    -6.28654E+06     69.5983E+03    -20.5253E-03     35.9486E-03    -15.4233E-03     145.017E-03    -21.9055E-03     37.6585E-03    -15.5820E-03     145.366E-03
            1681     15.0638E-03     40.2559E-03    -5.42703E+06     34.5221E+06     -9.2229E+06     429.415E+03    -17.8339E-03     33.3016E-03    -15.4677E-03     89.3907E-03    -18.1176E-03     33.7153E-03    -15.5560E-03     89.3663E-03
            1682     14.1781E-03     40.1935E-03    -5.31791E+06    -10.0043E+06    -8.46700E+06     422.193E+03    -16.8576E-03     32.3699E-03    -15.5123E-03     61.6490E-03    -16.9301E-03     32.4126E-03    -15.5324E-03     61.6127E-03
            1683     13.2924E-03     40.1410E-03    -5.21139E+06    -33.2511E+06    -8.51559E+06     347.524E+03    -16.7714E-03     32.2901E-03    -15.5187E-03     57.5492E-03    -16.7812E-03     32.1881E-03    -15.5055E-03     57.5168E-03
            1684     12.4064E-03     40.0860E-03    -5.20607E+06    -35.6286E+06     53.2647E+03     424.469E+03    -16.6236E-03     32.1611E-03    -15.5375E-03     54.5033E-03    -16.6259E-03     32.0183E-03    -15.4780E-03     54.4802E-03
            1685     11.5206E-03     40.0390E-03    -5.56649E+06    -42.3264E+06    -124.381E+03     411.921E+03    -16.4356E-03     31.9544E-03    -15.5188E-03     47.6978E-03    -16.4183E-03     31.7674E-03    -15.4500E-03     47.6815E-03
            1686     10.6347E-03     39.9967E-03    -5.97644E+06    -54.3860E+06    -2.04436E+06     522.323E+03    -16.3202E-03     31.8171E-03    -15.4969E-03     43.0755E-03    -16.2786E-03     31.5671E-03    -15.4196E-03     43.0660E-03
            1687     9.74883E-03     39.9582E-03    -6.59281E+06    -59.5217E+06     677.999E+03     601.096E+03    -16.1775E-03     31.6644E-03    -15.4869E-03     38.8471E-03    -16.1317E-03     31.3820E-03    -15.3877E-03     38.8428E-03
            1688     8.86283E-03     39.9236E-03    -7.44860E+06    -60.5751E+06     710.062E+03     466.788E+03    -16.0230E-03     31.4812E-03    -15.4582E-03     34.6009E-03    -15.9777E-03     31.1924E-03    -15.3560E-03     34.5978E-03
            1689     7.97680E-03     39.8930E-03    -8.34984E+06    -63.1409E+06     97.5817E+03     503.875E+03    -15.8876E-03     31.3169E-03    -15.4293E-03     30.4436E-03    -15.8407E-03     31.0160E-03    -15.3251E-03     30.4432E-03
            1690     7.09072E-03     39.8662E-03    -9.37783E+06    -65.1694E+06    -845.276E+03     480.782E+03    -15.7508E-03     31.1503E-03    -15.3995E-03     26.4236E-03    -15.7038E-03     30.8411E-03    -15.2956E-03     26.4245E-03
            1691     6.20453E-03     39.8430E-03    -10.5744E+06    -66.3944E+06    -2.10627E+06     334.602E+03    -15.6254E-03     30.9951E-03    -15.3697E-03     22.5750E-03    -15.5801E-03     30.6827E-03    -15.2686E-03     22.5751E-03
            1692     5.31831E-03     39.8234E-03    -11.8435E+06    -67.4288E+06    -3.56582E+06     351.243E+03    -15.5169E-03     30.8585E-03    -15.3416E-03     18.9247E-03    -15.4740E-03     30.5445E-03    -15.2445E-03     18.9260E-03
            1693     4.43201E-03     39.8072E-03    -13.3289E+06    -68.1069E+06    -5.81316E+06     337.222E+03    -15.4220E-03     30.7345E-03    -15.3125E-03     15.4722E-03    -15.3820E-03     30.4222E-03    -15.2235E-03     15.4740E-03
            1694     3.54567E-03     39.7941E-03    -14.8562E+06    -68.8943E+06    -8.85172E+06     295.198E+03    -15.3472E-03     30.6302E-03    -15.2830E-03     12.1886E-03    -15.3090E-03     30.3204E-03    -15.2058E-03     12.1905E-03
            1695     2.65929E-03     39.7840E-03    -16.2665E+06    -69.9274E+06    -12.3315E+06     265.903E+03    -15.2904E-03     30.5449E-03    -15.2545E-03     9.05537E-03    -15.2526E-03     30.2369E-03    -15.1912E-03     9.05741E-03
            1696     1.77288E-03     39.7768E-03    -17.4867E+06    -71.2200E+06    -15.4863E+06     206.865E+03    -15.2484E-03     30.4790E-03    -15.2305E-03     6.04882E-03    -15.2102E-03     30.1708E-03    -15.1793E-03     6.05058E-03
            1697     886.459E-06     39.7725E-03    -18.3198E+06    -72.0803E+06    -17.7660E+06     102.005E+03    -15.2008E-03     30.4323E-03    -15.2314E-03     3.21339E-03    -15.1622E-03     30.1242E-03    -15.1892E-03     3.21423E-03
            1698     16.8364E-03     39.5489E-03    -3.98581E+06     151.358E+06     52.0370E+06     316.580E+03    -22.1980E-03     37.8270E-03    -15.6290E-03     188.898E-03    -25.2865E-03     41.2878E-03    -15.5825E-03     190.983E-03
            1699     15.9498E-03     39.3811E-03    -5.67097E+06     93.6630E+06    -6.15667E+06     171.463E+03    -20.4022E-03     35.8084E-03    -15.4062E-03     144.504E-03    -21.7728E-03     37.5092E-03    -15.5645E-03     144.855E-03
            1700     15.0643E-03     39.2778E-03    -5.61149E+06     34.2893E+06    -9.52378E+06     291.080E+03    -17.8774E-03     33.3267E-03    -15.4493E-03     89.1585E-03    -18.1605E-03     33.7392E-03    -15.5385E-03     89.1319E-03
            1701     14.1782E-03     39.2148E-03    -5.17242E+06    -9.67906E+06    -8.35696E+06     463.463E+03    -16.8556E-03     32.3474E-03    -15.4918E-03     61.6317E-03    -16.9277E-03     32.3911E-03    -15.5121E-03     61.5959E-03
            1702     13.2925E-03     39.1626E-03    -4.95699E+06    -33.2368E+06    -8.46414E+06     396.521E+03    -16.8513E-03     32.3454E-03    -15.4940E-03     57.2988E-03    -16.8598E-03     32.2428E-03    -15.4810E-03     57.2669E-03
            1703     12.4069E-03     39.1076E-03    -5.26095E+06    -35.7396E+06    -39.6068E+03     398.050E+03    -16.6727E-03     32.1787E-03    -15.5060E-03     54.3053E-03    -16.6748E-03     32.0354E-03    -15.4467E-03     54.2818E-03
            1704     11.5210E-03     39.0608E-03    -5.71347E+06    -42.3671E+06    -185.871E+03     453.309E+03    -16.4531E-03     31.9352E-03    -15.4822E-03     47.5367E-03    -16.4362E-03     31.7482E-03    -15.4134E-03     47.5211E-03
            1705     10.6352E-03     39.0184E-03    -6.12497E+06    -54.4281E+06    -2.15088E+06     519.696E+03    -16.3586E-03     31.8128E-03    -15.4542E-03     42.8924E-03    -16.3174E-03     31.5629E-03    -15.3772E-03     42.8829E-03
            1706     9.74930E-03     38.9801E-03    -6.57783E+06    -59.3792E+06     759.331E+03     633.375E+03    -16.1950E-03     31.6330E-03    -15.4379E-03     38.6397E-03    -16.1495E-03     31.3511E-03    -15.3385E-03     38.6358E-03
            1707     8.86334E-03     38.9457E-03    -7.34185E+06    -60.3336E+06     762.709E+03     610.750E+03    -16.0208E-03     31.4235E-03    -15.4027E-03     34.4057E-03    -15.9753E-03     31.1356E-03    -15.3008E-03     34.4046E-03
            1708     7.97729E-03     38.9151E-03    -8.32998E+06    -63.1537E+06     19.4445E+03     506.916E+03    -15.8689E-03     31.2372E-03    -15.3683E-03     30.2503E-03    -15.8217E-03     30.9363E-03    -15.2646E-03     30.2500E-03
            1709     7.09116E-03     38.8884E-03    -9.34678E+06    -64.9959E+06    -778.042E+03     526.485E+03    -15.7246E-03     31.0585E-03    -15.3339E-03     26.2292E-03    -15.6777E-03     30.7500E-03    -15.2300E-03     26.2308E-03
            1710     6.20498E-03     38.8654E-03    -10.5775E+06    -66.1574E+06    -2.13988E+06     446.750E+03    -15.5872E-03     30.8856E-03    -15.2984E-03     22.3964E-03    -15.5422E-03     30.5744E-03    -15.1978E-03     22.3980E-03
            1711     5.31869E-03     38.8459E-03    -12.0005E+06    -67.3982E+06    -3.68542E+06     332.689E+03    -15.4660E-03     30.7316E-03    -15.2656E-03     18.7573E-03    -15.4237E-03     30.4182E-03    -15.1689E-03     18.7584E-03
            1712     4.43237E-03     38.8297E-03    -13.3898E+06    -67.9709E+06    -5.90086E+06     330.595E+03    -15.3596E-03     30.5918E-03    -15.2323E-03     15.3222E-03    -15.3199E-03     30.2805E-03    -15.1438E-03     15.3240E-03
            1713     3.54596E-03     38.8167E-03    -14.8776E+06    -68.8565E+06    -8.93728E+06     320.007E+03    -15.2747E-03     30.4743E-03    -15.1996E-03     12.0641E-03    -15.2366E-03     30.1649E-03    -15.1229E-03     12.0663E-03
            1714     2.65952E-03     38.8067E-03    -16.3709E+06    -69.7689E+06    -12.4010E+06     340.606E+03    -15.2108E-03     30.3793E-03    -15.1685E-03     8.95416E-03    -15.1737E-03     30.0724E-03    -15.1056E-03     8.95719E-03
            1715     1.77304E-03     38.7996E-03    -17.5923E+06    -70.9719E+06    -15.5534E+06     239.778E+03    -15.1599E-03     30.3034E-03    -15.1435E-03     5.97293E-03    -15.1225E-03     29.9967E-03    -15.0928E-03     5.97513E-03
            1716     886.512E-06     38.7953E-03    -18.3457E+06    -71.8437E+06    -17.7939E+06     70.1733E+03    -15.1261E-03     30.2588E-03    -15.1327E-03     3.17682E-03    -15.0879E-03     29.9520E-03    -15.0909E-03     3.17726E-03
            1717     16.8355E-03     38.5704E-03    -3.93810E+06     151.223E+06     51.9894E+06     256.410E+03    -22.3845E-03     37.9952E-03    -15.6107E-03     189.004E-03    -25.4653E-03     41.4480E-03    -15.5643E-03     191.072E-03
            1718     15.9500E-03     38.4023E-03    -5.20386E+06     93.9214E+06    -5.80510E+06     545.342E+03    -20.2909E-03     35.6778E-03    -15.3869E-03     144.661E-03    -21.6582E-03     37.3768E-03    -15.5445E-03     145.019E-03
            1719     15.0642E-03     38.2990E-03    -5.35254E+06     34.2754E+06    -9.35810E+06     463.529E+03    -17.9071E-03     33.3383E-03    -15.4312E-03     88.8940E-03    -18.1876E-03     33.7486E-03    -15.5199E-03     88.8694E-03
            1720     14.1787E-03     38.2366E-03    -5.44584E+06    -9.75735E+06    -8.37212E+06      398.87E+03    -16.9890E-03     32.4558E-03    -15.4668E-03     61.4763E-03    -17.0623E-03     32.4994E-03    -15.4866E-03     61.4392E-03
            1721     13.2931E-03     38.1838E-03    -5.21632E+06    -33.1302E+06    -8.49239E+06     458.741E+03    -16.8768E-03     32.3381E-03    -15.4613E-03     57.0736E-03    -16.8863E-03     32.2362E-03    -15.4482E-03     57.0425E-03
            1722     12.4073E-03     38.1295E-03    -5.25514E+06    -35.6358E+06    -27.0403E+03     485.505E+03    -16.7071E-03     32.1752E-03    -15.4681E-03     54.0722E-03    -16.7092E-03     32.0322E-03    -15.4089E-03     54.0499E-03
            1723     11.5215E-03     38.0824E-03    -5.69824E+06    -42.3818E+06    -221.737E+03     489.064E+03    -16.4906E-03     31.9287E-03    -15.4381E-03     47.3666E-03    -16.4734E-03     31.7415E-03    -15.3695E-03     47.3515E-03
            1724     10.6357E-03     38.0403E-03    -6.01243E+06    -54.4564E+06    -2.11415E+06     519.296E+03    -16.3775E-03     31.7815E-03    -15.4040E-03     42.6894E-03    -16.3357E-03     31.5312E-03    -15.3269E-03     42.6800E-03
            1725     9.74985E-03     38.0020E-03    -6.55110E+06    -59.3224E+06     789.115E+03     621.515E+03    -16.2070E-03     31.5884E-03    -15.3814E-03     38.4068E-03    -16.1614E-03     31.3066E-03    -15.2819E-03     38.4028E-03
            1726     8.86390E-03     37.9677E-03    -7.30384E+06    -60.1883E+06     784.348E+03     660.698E+03    -16.0180E-03     31.3575E-03    -15.3394E-03     34.1834E-03    -15.9726E-03     31.0701E-03    -15.2377E-03     34.1830E-03
            1727     7.97784E-03     37.9373E-03    -8.19371E+06    -62.9558E+06     53.8893E+03     619.727E+03    -15.8507E-03     31.1494E-03    -15.2987E-03     30.0304E-03    -15.8032E-03     30.8491E-03    -15.1952E-03     30.0316E-03
            1728     7.09171E-03     37.9108E-03    -9.28515E+06    -64.9431E+06    -800.619E+03     539.249E+03    -15.6931E-03     30.9514E-03    -15.2583E-03     26.0129E-03    -15.6459E-03     30.6431E-03    -15.1547E-03     26.0147E-03
            1729     6.20547E-03     37.8879E-03    -10.4620E+06    -65.9840E+06    -2.03501E+06     591.416E+03    -15.5456E-03     30.7630E-03    -15.2173E-03     22.1851E-03    -15.5005E-03     30.4523E-03    -15.1167E-03     22.1887E-03
            1730     5.31918E-03     37.8685E-03    -11.8896E+06    -67.1285E+06    -3.67898E+06     489.144E+03    -15.4076E-03     30.5861E-03    -15.1784E-03     18.5665E-03    -15.3652E-03     30.2738E-03    -15.0823E-03     18.5696E-03
            1731     4.43277E-03     37.8525E-03    -13.5190E+06    -67.9047E+06    -6.01010E+06     322.503E+03    -15.2883E-03     30.4288E-03    -15.1405E-03     15.1554E-03    -15.2492E-03     30.1180E-03    -15.0525E-03     15.1571E-03
            1732     3.54631E-03     37.8395E-03    -15.0981E+06    -68.8312E+06    -9.04558E+06     383.648E+03    -15.1926E-03     30.2965E-03    -15.1039E-03     11.9252E-03    -15.1555E-03     29.9876E-03    -15.0274E-03     11.9283E-03
            1733     2.65978E-03     37.8296E-03    -16.5460E+06    -69.5264E+06    -12.4126E+06     316.942E+03    -15.1169E-03     30.1868E-03    -15.0699E-03     8.83787E-03    -15.0810E-03     29.8814E-03    -15.0072E-03     8.84062E-03
            1734     1.77321E-03     37.8225E-03    -17.6476E+06    -70.7231E+06    -15.5398E+06     157.104E+03    -15.0613E-03     30.1045E-03    -15.0432E-03     5.88309E-03    -15.0245E-03     29.7991E-03    -14.9928E-03     5.88424E-03
            1735     886.617E-06     37.8183E-03    -18.3824E+06    -71.6907E+06    -17.8763E+06     74.8366E+03    -15.0286E-03     30.0566E-03    -15.0280E-03     3.15096E-03    -14.9907E-03     29.7508E-03    -14.9868E-03     3.15146E-03
            1736     16.8364E-03     37.5912E-03    -4.04603E+06     150.820E+06     51.7905E+06     222.089E+03    -22.5114E-03     38.1117E-03    -15.6003E-03     188.228E-03    -25.5698E-03     41.5410E-03    -15.5542E-03     190.275E-03
            1737     15.9506E-03     37.4239E-03    -5.58866E+06     93.9141E+06    -5.88126E+06     510.720E+03    -20.4181E-03     35.7855E-03    -15.3673E-03     144.450E-03    -21.7848E-03     37.4827E-03    -15.5248E-03     144.805E-03
            1738     15.0647E-03     37.3204E-03    -5.54796E+06     34.5792E+06    -9.29563E+06     627.140E+03    -17.9848E-03     33.3885E-03    -15.4037E-03     88.6091E-03    -18.2656E-03     33.7993E-03    -15.4923E-03     88.5859E-03
            1739     14.1791E-03     37.2575E-03    -5.33572E+06    -9.92187E+06    -8.44896E+06     475.614E+03    -17.0062E-03     32.4398E-03    -15.4336E-03     61.2199E-03    -17.0781E-03     32.4820E-03    -15.4537E-03     61.1839E-03
            1740     13.2935E-03     37.2057E-03    -5.22354E+06    -32.9764E+06    -8.47636E+06     444.298E+03    -16.9077E-03     32.3319E-03    -15.4242E-03     56.9635E-03    -16.9173E-03     32.2304E-03    -15.4112E-03     56.9323E-03
            1741     12.4078E-03     37.1508E-03    -5.20271E+06    -35.4872E+06     27.3411E+03     539.413E+03    -16.7701E-03     32.1948E-03    -15.4247E-03     53.8777E-03    -16.7720E-03     32.0522E-03    -15.3656E-03     53.8560E-03
            1742     11.5222E-03     37.1043E-03    -5.66039E+06    -42.2657E+06    -239.010E+03     564.969E+03    -16.5316E-03     31.9183E-03    -15.3867E-03     47.1446E-03    -16.5143E-03     31.7315E-03    -15.3184E-03     47.1305E-03
            1743     10.6363E-03     37.0620E-03    -6.09595E+06    -54.5089E+06    -2.31093E+06     542.471E+03    -16.3861E-03     31.7315E-03    -15.3455E-03     42.4983E-03    -16.3442E-03     31.4812E-03    -15.2691E-03     42.4893E-03
            1744     9.75051E-03     37.0240E-03    -6.50348E+06    -59.4075E+06     734.350E+03     620.212E+03    -16.2155E-03     31.5324E-03    -15.3169E-03     38.1541E-03    -16.1693E-03     31.2501E-03    -15.2177E-03     38.1502E-03
            1745     8.86451E-03     36.9899E-03    -7.29857E+06    -60.0019E+06     797.886E+03     707.764E+03    -16.0158E-03     31.2836E-03    -15.2678E-03     33.9338E-03    -15.9705E-03     30.9971E-03    -15.1662E-03     33.9341E-03
            1746     7.97849E-03     36.9597E-03    -8.20539E+06    -62.8402E+06    -15.2789E+03     663.563E+03    -15.8337E-03     31.0531E-03    -15.2194E-03     29.7813E-03    -15.7862E-03     30.7534E-03    -15.1165E-03     29.7831E-03
            1747     7.09230E-03     36.9333E-03    -9.23360E+06    -64.7677E+06    -846.999E+03     655.687E+03    -15.6598E-03     30.8317E-03    -15.1719E-03     25.7709E-03    -15.6126E-03     30.5242E-03    -15.0688E-03     25.7742E-03
            1748     6.20606E-03     36.9105E-03    -10.4481E+06    -65.9641E+06    -2.09222E+06     618.114E+03    -15.4938E-03     30.6183E-03    -15.1245E-03     21.9502E-03    -15.4485E-03     30.3078E-03    -15.0242E-03     21.9542E-03
            1749     5.31968E-03     36.8913E-03    -11.7018E+06    -66.7690E+06    -3.53260E+06     596.344E+03    -15.3414E-03     30.4214E-03    -15.0800E-03     18.3500E-03    -15.2988E-03     30.1104E-03    -14.9839E-03     18.3546E-03
            1750     4.43323E-03     36.8753E-03    -13.2012E+06    -67.7982E+06    -5.57493E+06     516.286E+03    -15.2093E-03     30.2475E-03    -15.0382E-03     14.9635E-03    -15.1694E-03     29.9362E-03    -14.9487E-03     14.9677E-03
            1751     3.54668E-03     36.8625E-03    -14.9039E+06    -68.6873E+06    -8.60445E+06     437.752E+03    -15.0994E-03     30.0966E-03    -14.9972E-03     11.7650E-03    -15.0621E-03     29.7876E-03    -14.9191E-03     11.7688E-03
            1752     2.66009E-03     36.8527E-03    -16.3732E+06    -69.1712E+06    -12.2354E+06     238.267E+03    -15.0115E-03     29.9702E-03    -14.9586E-03     8.71626E-03    -14.9755E-03     29.6659E-03    -14.8958E-03     8.71802E-03
            1753     1.77342E-03     36.8457E-03    -17.5962E+06    -70.6485E+06    -15.4815E+06     108.232E+03    -14.9543E-03     29.8832E-03    -14.9289E-03     5.79846E-03    -14.9174E-03     29.5779E-03    -14.8783E-03     5.79900E-03
            1754     886.716E-06     36.8415E-03    -18.4534E+06    -71.5595E+06    -17.8747E+06     95.0949E+03    -14.9057E-03     29.8231E-03    -14.9174E-03     3.09559E-03    -14.8683E-03     29.5181E-03    -14.8763E-03     3.09637E-03
            1755     16.8362E-03     36.6127E-03    -4.09409E+06     150.506E+06     51.8446E+06     273.132E+03    -22.7107E-03     38.3008E-03    -15.5901E-03     187.542E-03    -25.7452E-03     41.7048E-03    -15.5432E-03     189.564E-03
            1756     15.9504E-03     36.4447E-03    -5.52618E+06     93.6946E+06    -5.77164E+06     627.315E+03    -20.6541E-03     35.9971E-03    -15.3431E-03     144.327E-03    -22.0161E-03     37.6889E-03    -15.4998E-03     144.673E-03
            1757     15.0655E-03     36.3415E-03    -5.44640E+06     34.7228E+06    -9.10518E+06     617.106E+03    -18.0646E-03     33.4327E-03    -15.3681E-03     88.2623E-03    -18.3443E-03     33.8428E-03    -15.4561E-03     88.2379E-03
            1758     14.1797E-03     36.2793E-03    -5.03728E+06    -9.53001E+06    -8.24437E+06     499.151E+03    -16.9528E-03     32.3467E-03    -15.3939E-03     61.0019E-03    -17.0232E-03     32.3893E-03    -15.4140E-03     60.9665E-03
            1759     13.2940E-03     36.2269E-03    -4.79277E+06    -32.8959E+06    -8.31813E+06     496.412E+03    -16.9274E-03     32.3100E-03    -15.3826E-03     56.8050E-03    -16.9349E-03     32.2078E-03    -15.3695E-03     56.7746E-03
            1760     12.4085E-03     36.1726E-03    -5.13380E+06    -35.5007E+06     57.6661E+03     609.928E+03    -16.8263E-03     32.2035E-03    -15.3772E-03     53.6971E-03    -16.8278E-03     32.0605E-03    -15.3179E-03     53.6763E-03
            1761     11.5227E-03     36.1260E-03    -5.63589E+06    -42.0590E+06    -228.543E+03     679.414E+03    -16.5909E-03     31.9211E-03    -15.3303E-03     46.9336E-03    -16.5736E-03     31.7352E-03    -15.2623E-03     46.9211E-03
            1762     10.6371E-03     36.0840E-03    -6.07782E+06    -54.3976E+06    -2.41712E+06     645.237E+03    -16.4153E-03     31.6952E-03    -15.2799E-03     42.2468E-03    -16.3732E-03     31.4454E-03    -15.2043E-03     42.2393E-03
            1763     9.75113E-03     36.0460E-03    -6.65340E+06    -59.6167E+06     459.645E+03     614.399E+03    -16.2137E-03     31.4573E-03    -15.2436E-03     37.9037E-03    -16.1674E-03     31.1745E-03    -15.1452E-03     37.8998E-03
            1764     8.86527E-03     36.0121E-03    -7.36401E+06    -59.9205E+06     747.936E+03     770.101E+03    -16.0188E-03     31.2060E-03    -15.1872E-03     33.6474E-03    -15.9738E-03     30.9200E-03    -15.0859E-03     33.6486E-03
            1765     7.97915E-03     35.9820E-03    -8.31404E+06    -62.5990E+06    -108.886E+03     769.381E+03    -15.8167E-03     30.9464E-03    -15.1297E-03     29.4990E-03    -15.7699E-03     30.6482E-03    -15.0274E-03     29.5024E-03
            1766     7.09302E-03     35.9558E-03    -9.38339E+06    -64.6875E+06    -956.812E+03     702.377E+03    -15.6213E-03     30.6954E-03    -15.0742E-03     25.4887E-03    -15.5747E-03     30.3887E-03    -14.9715E-03     25.4928E-03
            1767     6.20668E-03     35.9333E-03    -10.5239E+06    -65.7343E+06    -2.10064E+06     665.282E+03    -15.4337E-03     30.4533E-03    -15.0196E-03     21.6841E-03    -15.3890E-03     30.1440E-03    -14.9195E-03     21.6887E-03
            1768     5.32029E-03     35.9142E-03    -11.8595E+06    -66.6523E+06    -3.56320E+06     561.932E+03    -15.2643E-03     30.2330E-03    -14.9687E-03     18.1065E-03    -15.2226E-03     29.9228E-03    -14.8726E-03     18.1107E-03
            1769     4.43375E-03     35.8984E-03    -13.3098E+06    -67.6292E+06    -5.53853E+06     607.443E+03    -15.1162E-03     30.0375E-03    -14.9214E-03     14.7507E-03    -15.0771E-03     29.7272E-03    -14.8317E-03     14.7561E-03
            1770     3.54714E-03     35.8857E-03    -14.8192E+06    -68.3419E+06    -8.50473E+06     485.620E+03    -14.9896E-03     29.8656E-03    -14.8759E-03     11.5876E-03    -14.9526E-03     29.5580E-03    -14.7979E-03     11.5921E-03
            1771     2.66040E-03     35.8760E-03    -16.3549E+06    -68.8888E+06    -12.2329E+06     310.650E+03    -14.8927E-03     29.7272E-03    -14.8344E-03     8.58223E-03    -14.8570E-03     29.4243E-03    -14.7720E-03     8.58494E-03
            1772     1.77364E-03     35.8691E-03    -17.6847E+06    -70.5135E+06    -15.5459E+06     179.254E+03    -14.8313E-03     29.6342E-03    -14.8029E-03     5.71096E-03    -14.7950E-03     29.3299E-03    -14.7527E-03     5.71243E-03
            1773     886.846E-06     35.8650E-03    -18.5208E+06    -71.4542E+06    -17.9192E+06     57.4540E+03    -14.7825E-03     29.5694E-03    -14.7869E-03     3.03180E-03    -14.7455E-03     29.2650E-03    -14.7460E-03     3.03210E-03
            1774     16.8365E-03     35.6334E-03    -4.39431E+06     150.293E+06     52.1350E+06     43.5375E+03    -23.0176E-03     38.5999E-03    -15.5823E-03     186.850E-03    -26.0361E-03     41.9851E-03    -15.5332E-03     188.845E-03
            1775     15.9517E-03     35.4656E-03    -5.36210E+06     93.4620E+06    -5.27822E+06     527.548E+03    -20.8265E-03     36.1462E-03    -15.3197E-03     143.891E-03    -22.1784E-03     37.8262E-03    -15.4738E-03     144.225E-03
            1776     15.0658E-03     35.3627E-03    -4.89018E+06     34.6788E+06    -8.96199E+06     720.496E+03    -18.0226E-03     33.3588E-03    -15.3362E-03     88.1384E-03    -18.2978E-03     33.7657E-03    -15.4242E-03     88.1155E-03
            1777     14.1804E-03     35.3010E-03    -4.94637E+06    -9.09447E+06    -8.17991E+06     658.165E+03    -17.0468E-03     32.4047E-03    -15.3579E-03     61.1117E-03    -17.1174E-03     32.4491E-03    -15.3784E-03     61.0780E-03
            1778     13.2947E-03     35.2484E-03    -4.85772E+06    -33.0077E+06    -8.57923E+06     670.457E+03    -17.0152E-03     32.3528E-03    -15.3377E-03     56.8537E-03    -17.0223E-03     32.2504E-03    -15.3257E-03     56.8254E-03
            1779     12.4090E-03     35.1942E-03    -4.98825E+06    -35.5072E+06    -28.8493E+03     756.000E+03    -16.8921E-03     32.2160E-03    -15.3239E-03     53.4544E-03    -16.8924E-03     32.0726E-03    -15.2653E-03     53.4356E-03
            1780     11.5235E-03     35.1476E-03    -5.48468E+06    -41.8606E+06    -212.436E+03     810.915E+03    -16.6447E-03     31.9128E-03    -15.2681E-03     46.6600E-03    -16.6267E-03     31.7274E-03    -15.2005E-03     46.6492E-03
            1781     10.6378E-03     35.1060E-03    -6.07589E+06    -54.2997E+06    -2.49706E+06     847.998E+03    -16.4569E-03     31.6649E-03    -15.2080E-03     41.9501E-03    -16.4147E-03     31.4156E-03    -15.1329E-03     41.9453E-03
            1782     9.75202E-03     35.0682E-03    -6.73458E+06    -59.4716E+06     197.194E+03     778.647E+03    -16.2346E-03     31.3956E-03    -15.1610E-03     37.6317E-03    -16.1885E-03     31.1139E-03    -15.0640E-03     37.6301E-03
            1783     8.86599E-03     35.0344E-03    -7.52178E+06    -60.0595E+06     457.797E+03     748.909E+03    -16.0185E-03     31.1138E-03    -15.0953E-03     33.3209E-03    -15.9736E-03     30.8277E-03    -14.9950E-03     33.3219E-03
            1784     7.98002E-03     35.0046E-03    -8.42656E+06    -62.3361E+06    -82.6928E+03     921.220E+03    -15.7980E-03     30.8270E-03    -15.0290E-03     29.1600E-03    -15.7521E-03     30.5302E-03    -14.9268E-03     29.1654E-03
            1785     7.09376E-03     34.9786E-03    -9.57260E+06    -64.4772E+06    -1.06733E+06     821.011E+03    -15.5728E-03     30.5367E-03    -14.9639E-03     25.1670E-03    -15.5273E-03     30.2314E-03    -14.8619E-03     25.1726E-03
            1786     6.20746E-03     34.9562E-03    -10.8345E+06    -65.5041E+06    -2.29271E+06     697.985E+03    -15.3630E-03     30.2642E-03    -14.9012E-03     21.3859E-03    -15.3199E-03     29.9568E-03    -14.8020E-03     21.3911E-03
            1787     5.32093E-03     34.9373E-03    -12.2595E+06    -66.5600E+06    -3.86422E+06     702.718E+03    -15.1727E-03     30.0160E-03    -14.8433E-03     17.8409E-03    -15.1326E-03     29.7073E-03    -14.7484E-03     17.8470E-03
            1788     4.43434E-03     34.9217E-03    -13.8864E+06    -67.3944E+06    -6.19137E+06     594.345E+03    -15.0054E-03     29.7943E-03    -14.7889E-03     14.5205E-03    -14.9686E-03     29.4869E-03    -14.7021E-03     14.5259E-03
            1789     3.54758E-03     34.9092E-03    -15.4261E+06    -67.9876E+06    -9.15731E+06     414.274E+03    -14.8667E-03     29.6059E-03    -14.7393E-03     11.3983E-03    -14.8322E-03     29.3019E-03    -14.6641E-03     11.4018E-03
            1790     2.66078E-03     34.8995E-03    -16.7479E+06    -68.6829E+06    -12.4749E+06     286.159E+03    -14.7626E-03     29.4589E-03    -14.6963E-03     8.43639E-03    -14.7288E-03     29.1580E-03    -14.6348E-03     8.43882E-03
            1791     1.77388E-03     34.8928E-03    -17.7883E+06    -70.2272E+06    -15.6416E+06     136.137E+03    -14.6899E-03     29.3537E-03    -14.6638E-03     5.60471E-03    -14.6544E-03     29.0511E-03    -14.6144E-03     5.60564E-03
            1792     886.941E-06     34.8886E-03    -18.5251E+06    -71.4053E+06    -17.9455E+06     24.9950E+03    -14.6475E-03     29.2934E-03    -14.6459E-03     2.98245E-03    -14.6106E-03     28.9893E-03    -14.6052E-03     2.98234E-03
            1793     16.8365E-03     34.6522E-03    -4.13440E+06     150.208E+06     52.2070E+06    -40.7350E+03    -23.1536E-03     38.7288E-03    -15.5752E-03     186.614E-03    -26.1636E-03     42.1060E-03    -15.5260E-03     188.591E-03
            1794     15.9516E-03     34.4870E-03    -5.43411E+06     93.1207E+06    -5.65039E+06     383.375E+03    -20.8717E-03     36.1763E-03    -15.3046E-03     143.387E-03    -22.2122E-03     37.8445E-03    -15.4600E-03     143.713E-03
            1795     15.0661E-03     34.3840E-03    -5.12291E+06     34.6709E+06    -9.30197E+06     774.663E+03    -18.1046E-03     33.4201E-03    -15.3155E-03     88.2335E-03    -18.3797E-03     33.8270E-03    -15.4048E-03     88.2107E-03
            1796     14.1804E-03     34.3223E-03    -5.08455E+06    -9.04142E+06    -8.29864E+06     842.676E+03    -17.2558E-03     32.5834E-03    -15.3276E-03     60.9848E-03    -17.3269E-03     32.6285E-03    -15.3486E-03     60.9529E-03
            1797     13.2951E-03     34.2698E-03    -5.15683E+06    -32.9876E+06    -8.82467E+06     770.578E+03    -17.1918E-03     32.4836E-03    -15.2919E-03     56.6237E-03    -17.1998E-03     32.3819E-03    -15.2807E-03     56.5964E-03
            1798     12.4100E-03     34.2157E-03    -5.22057E+06    -35.5699E+06    -318.777E+03     826.309E+03    -16.9787E-03     32.2435E-03    -15.2649E-03     53.2275E-03    -16.9794E-03     32.1004E-03    -15.2073E-03     53.2096E-03
            1799     11.5242E-03     34.1695E-03    -5.61137E+06    -41.9368E+06    -444.351E+03     969.057E+03    -16.6989E-03     31.8977E-03    -15.1989E-03     46.3695E-03    -16.6809E-03     31.7123E-03    -15.1322E-03     46.3609E-03
            1800     10.6386E-03     34.1279E-03    -6.01737E+06    -54.0723E+06    -2.55066E+06     1.01030E+06    -16.5116E-03     31.6397E-03    -15.1281E-03     41.6246E-03    -16.4692E-03     31.3914E-03    -15.0537E-03     41.6219E-03
            1801     9.75283E-03     34.0904E-03    -6.64724E+06    -59.1650E+06     205.032E+03     989.891E+03    -16.2806E-03     31.3494E-03    -15.0688E-03     37.2508E-03    -16.2344E-03     31.0690E-03    -14.9724E-03     37.2520E-03
            1802     8.86701E-03     34.0568E-03    -7.59142E+06    -59.9502E+06     217.640E+03     903.289E+03    -16.0118E-03     31.0025E-03    -14.9906E-03     32.9534E-03    -15.9670E-03     30.7173E-03    -14.8916E-03     32.9566E-03
            1803     7.98086E-03     34.0272E-03    -8.56138E+06    -62.3915E+06    -265.551E+03     946.067E+03    -15.7645E-03     30.6795E-03    -14.9151E-03     28.7826E-03    -15.7189E-03     30.3829E-03    -14.8135E-03     28.7885E-03
            1804     7.09469E-03     34.0014E-03    -9.56695E+06    -64.0386E+06    -993.202E+03     1.00374E+06    -15.5152E-03     30.3564E-03    -14.8412E-03     24.8080E-03    -15.4704E-03     30.0531E-03    -14.7394E-03     24.8161E-03
            1805     6.20822E-03     33.9793E-03    -10.8252E+06    -65.3217E+06    -2.36169E+06      823.42E+03    -15.2810E-03     30.0510E-03    -14.7700E-03     21.0571E-03    -15.2381E-03     29.7446E-03    -14.6714E-03     21.0640E-03
            1806     5.32170E-03     33.9606E-03    -12.1789E+06    -66.4235E+06    -3.84580E+06     795.808E+03    -15.0709E-03     29.7765E-03    -14.7056E-03     17.5402E-03    -15.0306E-03     29.4683E-03    -14.6108E-03     17.5476E-03
            1807     4.43495E-03     33.9453E-03    -13.6333E+06    -66.9856E+06    -5.97456E+06     684.298E+03    -14.8874E-03     29.5331E-03    -14.6456E-03     14.2556E-03    -14.8502E-03     29.2270E-03    -14.5586E-03     14.2622E-03
            1808     3.54813E-03     33.9329E-03    -15.2258E+06    -67.6133E+06    -8.96144E+06     361.056E+03    -14.7357E-03     29.3266E-03    -14.5909E-03     11.1745E-03    -14.7011E-03     29.0239E-03    -14.5156E-03     11.1775E-03
            1809     2.66117E-03     33.9234E-03    -16.6600E+06    -68.4581E+06    -12.5004E+06     88.1145E+03    -14.6173E-03     29.1610E-03    -14.5436E-03     8.27321E-03    -14.5834E-03     28.8611E-03    -14.4827E-03     8.27311E-03
            1810     1.77417E-03     33.9167E-03    -17.7692E+06    -70.1168E+06    -15.6802E+06     15.0552E+03    -14.5389E-03     29.0482E-03    -14.5092E-03     5.49181E-03    -14.5034E-03     28.7461E-03    -14.4602E-03     5.49120E-03
            1811     887.091E-06     33.9127E-03    -18.4928E+06    -71.3473E+06    -17.9597E+06     31.4508E+03    -14.4902E-03     28.9829E-03    -14.4928E-03     2.93304E-03    -14.4532E-03     28.6791E-03    -14.4523E-03     2.93303E-03
            1812     16.8367E-03     33.6725E-03    -4.05771E+06     149.850E+06     51.5793E+06     219.699E+03    -23.0775E-03     38.6548E-03    -15.5772E-03     186.764E-03    -26.0851E-03     42.0303E-03    -15.5307E-03     188.745E-03
            1813     15.9515E-03     33.5075E-03    -5.90056E+06     92.9305E+06    -6.43716E+06     470.571E+03    -21.1459E-03     36.4460E-03    -15.3000E-03     142.625E-03    -22.4752E-03     38.1029E-03    -15.4584E-03     142.943E-03
            1814     15.0662E-03     33.4056E-03    -6.10881E+06     34.6276E+06    -9.86360E+06     488.021E+03    -18.4938E-03     33.7843E-03    -15.2906E-03     87.5950E-03    -18.7724E-03     34.1929E-03    -15.3813E-03     87.5657E-03
            1815     14.1813E-03     33.3431E-03    -5.54668E+06    -9.03114E+06    -8.59318E+06     691.399E+03    -17.3622E-03     32.6473E-03    -15.2851E-03     60.5135E-03    -17.4343E-03     32.6926E-03    -15.3069E-03     60.4793E-03
            1816     13.2961E-03     33.2914E-03    -5.09008E+06    -32.7884E+06    -8.91806E+06     834.302E+03    -17.2709E-03     32.5104E-03    -15.2396E-03     56.3903E-03    -17.2784E-03     32.4094E-03    -15.2292E-03     56.3637E-03
            1817     12.4104E-03     33.2371E-03    -5.17470E+06    -35.7860E+06    -519.093E+03     876.805E+03    -17.1047E-03     32.3058E-03    -15.2011E-03     52.9097E-03    -17.1044E-03     32.1616E-03    -15.1443E-03     52.8924E-03
            1818     11.5252E-03     33.1913E-03    -5.67999E+06    -42.0009E+06    -540.742E+03     1.04254E+06    -16.7961E-03     31.9177E-03    -15.1215E-03     45.9754E-03    -16.7781E-03     31.7319E-03    -15.0551E-03     45.9677E-03
            1819     10.6395E-03     33.1498E-03    -6.11517E+06    -53.8018E+06    -2.61020E+06     1.13243E+06    -16.5764E-03     31.6130E-03    -15.0365E-03     41.2178E-03    -16.5347E-03     31.3661E-03    -14.9627E-03     41.2168E-03
            1820     9.75395E-03     33.1125E-03    -6.70816E+06    -59.0398E+06     150.756E+03     1.13402E+06    -16.3001E-03     31.2646E-03    -14.9646E-03     36.8205E-03    -16.2541E-03     30.9849E-03    -14.8685E-03     36.8236E-03
            1821     8.86795E-03     33.0793E-03    -7.54169E+06    -59.7059E+06     214.341E+03     1.14509E+06    -16.0053E-03     30.8798E-03    -14.8745E-03     32.5353E-03    -15.9605E-03     30.5956E-03    -14.7759E-03     32.5416E-03
            1822     7.98194E-03     33.0499E-03    -8.50114E+06    -62.3085E+06    -477.550E+03     1.04653E+06    -15.7180E-03     30.5056E-03    -14.7876E-03     28.3755E-03    -15.6719E-03     30.2095E-03    -14.6873E-03     28.3828E-03
            1823     7.09559E-03     33.0245E-03    -9.54110E+06    -63.8323E+06    -1.00275E+06     1.02717E+06    -15.4480E-03     30.1532E-03    -14.7052E-03     24.4117E-03    -15.4032E-03     29.8509E-03    -14.6039E-03     24.4202E-03
            1824     6.20918E-03     33.0026E-03    -10.6936E+06    -64.9623E+06    -2.13632E+06     1.00824E+06    -15.1913E-03     29.8174E-03    -14.6261E-03     20.6843E-03    -15.1485E-03     29.5122E-03    -14.5271E-03     20.6937E-03
            1825     5.32247E-03     32.9843E-03    -12.1449E+06    -66.2440E+06    -3.72401E+06     874.914E+03    -14.9592E-03     29.5128E-03    -14.5536E-03     17.2043E-03    -14.9191E-03     29.2053E-03    -14.4586E-03     17.2127E-03
            1826     4.43569E-03     32.9690E-03    -13.6536E+06    -66.4742E+06    -5.88336E+06     674.013E+03    -14.7565E-03     29.2428E-03    -14.4864E-03     13.9670E-03    -14.7202E-03     28.9392E-03    -14.3996E-03     13.9735E-03
            1827     3.54870E-03     32.9569E-03    -15.0829E+06    -67.1178E+06    -8.94857E+06     311.375E+03    -14.5881E-03     29.0138E-03    -14.4257E-03     10.9375E-03    -14.5535E-03     28.7133E-03    -14.3512E-03     10.9398E-03
            1828     2.66165E-03     32.9475E-03    -16.4508E+06    -68.2953E+06    -12.5395E+06     60.3764E+03    -14.4572E-03     28.8321E-03    -14.3749E-03     8.09037E-03    -14.4223E-03     28.5328E-03    -14.3148E-03     8.08994E-03
            1829     1.77445E-03     32.9410E-03    -17.6763E+06    -70.1483E+06    -15.7238E+06     10.4719E+03    -14.3711E-03     28.7104E-03    -14.3393E-03     5.37729E-03    -14.3350E-03     28.4081E-03    -14.2905E-03     5.37664E-03
            1830     887.255E-06     32.9369E-03    -18.4671E+06    -71.2668E+06    -17.9522E+06     23.7632E+03    -14.3139E-03     28.6426E-03    -14.3286E-03     2.88308E-03    -14.2769E-03     28.3391E-03    -14.2883E-03     2.88298E-03
            1831     16.8356E-03     32.6915E-03    -4.16676E+06     149.718E+06     51.9662E+06     412.993E+03    -23.2787E-03     38.8391E-03    -15.5604E-03     185.334E-03    -26.2573E-03     42.1838E-03    -15.5117E-03     187.285E-03
            1832     15.9514E-03     32.5282E-03    -5.85079E+06     92.7292E+06    -5.96917E+06     365.974E+03    -21.1684E-03     36.4391E-03    -15.2707E-03     141.164E-03    -22.4809E-03     38.0773E-03    -15.4265E-03     141.475E-03
            1833     15.0674E-03     32.4253E-03    -5.59146E+06     34.6473E+06    -9.75683E+06     497.876E+03    -18.5270E-03     33.7782E-03    -15.2511E-03     86.8965E-03    -18.8004E-03     34.1830E-03    -15.3421E-03     86.8663E-03
            1834     14.1821E-03     32.3653E-03    -5.43406E+06    -8.76767E+06    -8.69479E+06     602.332E+03    -17.4563E-03     32.6937E-03    -15.2374E-03     60.5408E-03    -17.5278E-03     32.7400E-03    -15.2603E-03     60.5053E-03
            1835     13.2963E-03     32.3121E-03    -5.23211E+06    -33.0366E+06    -9.28397E+06     767.927E+03    -17.4547E-03     32.6337E-03    -15.1790E-03     56.1616E-03    -17.4619E-03     32.5320E-03    -15.1699E-03     56.1338E-03
            1836     12.4117E-03     32.2588E-03    -5.28885E+06    -35.9314E+06    -733.409E+03     977.612E+03    -17.2285E-03     32.3537E-03    -15.1252E-03     52.3497E-03    -17.2278E-03     32.2088E-03    -15.0691E-03     52.3337E-03
            1837     11.5261E-03     32.2128E-03    -5.71297E+06    -41.9168E+06    -575.104E+03     1.11065E+06    -16.8830E-03     31.9141E-03    -15.0312E-03     45.5258E-03    -16.8649E-03     31.7287E-03    -14.9650E-03     45.5191E-03
            1838     10.6408E-03     32.1719E-03    -6.26391E+06    -53.7483E+06    -2.73603E+06     1.25118E+06    -16.6165E-03     31.5488E-03    -14.9323E-03     40.7527E-03    -16.5752E-03     31.3024E-03    -14.8590E-03     40.7533E-03
            1839     9.75493E-03     32.1349E-03    -6.80442E+06    -58.8700E+06    -35.0196E+03     1.27177E+06    -16.3080E-03     31.1554E-03    -14.8473E-03     36.3716E-03    -16.2624E-03     30.8767E-03    -14.7523E-03     36.3767E-03
            1840     8.86919E-03     32.1019E-03    -7.51799E+06    -59.5556E+06     176.881E+03     1.22887E+06    -15.9870E-03     30.7330E-03    -14.7459E-03     32.0479E-03    -15.9422E-03     30.4495E-03    -14.6478E-03     32.0555E-03
            1841     7.98298E-03     32.0730E-03    -8.43624E+06    -61.9660E+06    -517.358E+03     1.20214E+06    -15.6690E-03     30.3163E-03    -14.6474E-03     27.9190E-03    -15.6229E-03     30.0218E-03    -14.5479E-03     27.9284E-03
            1842     7.09672E-03     32.0477E-03    -9.48973E+06    -63.7043E+06    -1.15563E+06     1.09564E+06    -15.3696E-03     29.9242E-03    -14.5546E-03     23.9775E-03    -15.3246E-03     29.6227E-03    -14.4542E-03     23.9869E-03
            1843     6.21011E-03     32.0263E-03    -10.7666E+06    -64.7235E+06    -2.03922E+06     1.14312E+06    -15.0917E-03     29.5590E-03    -14.4673E-03     20.2757E-03    -15.0497E-03     29.2550E-03    -14.3680E-03     20.2869E-03
            1844     5.32341E-03     32.0081E-03    -12.1787E+06    -65.7605E+06    -3.58698E+06     1.02126E+06    -14.8347E-03     29.2208E-03    -14.3861E-03     16.8357E-03    -14.7957E-03     28.9155E-03    -14.2910E-03     16.8461E-03
            1845     4.43644E-03     31.9932E-03    -13.6585E+06    -65.8942E+06    -6.10128E+06     601.598E+03    -14.6058E-03     28.9161E-03    -14.3103E-03     13.6562E-03    -14.5702E-03     28.6157E-03    -14.2254E-03     13.6618E-03
            1846     3.54936E-03     31.9812E-03    -15.1058E+06    -66.7014E+06    -9.25855E+06     247.900E+03    -14.4232E-03     28.6680E-03    -14.2448E-03     10.6881E-03    -14.3889E-03     28.3701E-03    -14.1725E-03     10.6896E-03
            1847     2.66211E-03     31.9721E-03    -16.4769E+06    -68.2029E+06    -12.7033E+06     123.770E+03    -14.2856E-03     28.4769E-03    -14.1913E-03     7.89913E-03    -14.2508E-03     28.1784E-03    -14.1321E-03     7.89956E-03
            1848     1.77481E-03     31.9655E-03    -17.6066E+06    -70.0667E+06    -15.7275E+06     74.8710E+03    -14.1905E-03     28.3434E-03    -14.1529E-03     5.25137E-03    -14.1542E-03     28.0415E-03    -14.1044E-03     5.25157E-03
            1849     887.383E-06     31.9617E-03    -18.3874E+06    -71.2296E+06    -17.8682E+06         151.434    -14.1258E-03     28.2678E-03    -14.1420E-03     2.80590E-03    -14.0885E-03     27.9643E-03    -14.1014E-03     2.80550E-03
            1850     16.8392E-03     31.7136E-03    -3.78363E+06     149.512E+06     52.1594E+06     311.507E+03    -23.7705E-03     39.3005E-03    -15.5300E-03     184.970E-03    -26.7250E-03     42.6211E-03    -15.4805E-03     186.874E-03
            1851     15.9537E-03     31.5477E-03    -4.45966E+06     92.7782E+06    -5.35020E+06     839.498E+03    -20.9949E-03     36.2257E-03    -15.2308E-03     141.341E-03    -22.2941E-03     37.8539E-03    -15.3857E-03     141.651E-03
            1852     15.0675E-03     31.4476E-03    -4.80171E+06     34.8713E+06    -9.28535E+06     953.275E+03    -18.4878E-03     33.7039E-03    -15.2160E-03     87.0399E-03    -18.7563E-03     34.1060E-03    -15.3060E-03     87.0163E-03
            1853     14.1819E-03     31.3855E-03    -5.70796E+06    -8.79832E+06    -8.86796E+06     700.655E+03    -17.8585E-03     33.0454E-03    -15.1869E-03     60.1965E-03    -17.9312E-03     33.0924E-03    -15.2102E-03     60.1607E-03
            1854     13.2982E-03     31.3335E-03    -5.60366E+06    -33.2198E+06    -9.59483E+06     781.300E+03    -17.6489E-03     32.7531E-03    -15.1042E-03     55.4965E-03    -17.6565E-03     32.6507E-03    -15.0959E-03     55.4686E-03
            1855     12.4124E-03     31.2801E-03    -5.46183E+06    -35.9152E+06    -976.085E+03     1.04543E+06    -17.2793E-03     32.3144E-03    -15.0351E-03     51.9434E-03    -17.2787E-03     32.1697E-03    -14.9800E-03     51.9284E-03
            1856     11.5275E-03     31.2346E-03    -5.89829E+06    -42.1271E+06    -1.00321E+06     1.19500E+06    -16.9534E-03     31.8816E-03    -14.9282E-03     45.0812E-03    -16.9351E-03     31.6958E-03    -14.8636E-03     45.0758E-03
            1857     10.6418E-03     31.1940E-03    -6.24099E+06    -53.6751E+06    -2.90588E+06     1.32917E+06    -16.6610E-03     31.4768E-03    -14.8159E-03     40.2550E-03    -16.6192E-03     31.2308E-03    -14.7435E-03     40.2568E-03
            1858     9.75639E-03     31.1572E-03    -6.75927E+06    -58.6226E+06    -128.380E+03     1.41104E+06    -16.3140E-03     31.0313E-03    -14.7173E-03     35.8384E-03    -16.2682E-03     30.7538E-03    -14.6232E-03     35.8455E-03
            1859     8.87033E-03     31.1248E-03    -7.61631E+06    -59.4078E+06    -76.1521E+03     1.34359E+06    -15.9517E-03     30.5548E-03    -14.6032E-03     31.5325E-03    -15.9071E-03     30.2725E-03    -14.5064E-03     31.5417E-03
            1860     7.98430E-03     31.0961E-03    -8.52552E+06    -61.6860E+06    -607.758E+03     1.29144E+06    -15.6142E-03     30.1078E-03    -14.4935E-03     27.4130E-03    -15.5688E-03     29.8149E-03    -14.3948E-03     27.4236E-03
            1861     7.09782E-03     31.0713E-03    -9.64880E+06    -63.4867E+06    -1.35579E+06     1.28695E+06    -15.2840E-03     29.6732E-03    -14.3892E-03     23.4994E-03    -15.2397E-03     29.3732E-03    -14.2899E-03     23.5114E-03
            1862     6.21125E-03     31.0500E-03    -10.8478E+06    -64.4583E+06    -2.26108E+06     1.17543E+06    -14.9759E-03     29.2676E-03    -14.2917E-03     19.8311E-03    -14.9343E-03     28.9653E-03    -14.1938E-03     19.8428E-03
            1863     5.32435E-03     31.0323E-03    -12.0389E+06    -65.1658E+06    -3.54928E+06     935.048E+03    -14.6925E-03     28.8954E-03    -14.2028E-03     16.4361E-03    -14.6537E-03     28.5927E-03    -14.1086E-03     16.4454E-03
            1864     4.43730E-03     31.0176E-03    -13.3869E+06    -65.2954E+06    -6.07582E+06     626.686E+03    -14.4434E-03     28.5636E-03    -14.1202E-03     13.3162E-03    -14.4072E-03     28.2657E-03    -14.0365E-03     13.3222E-03
            1865     3.55002E-03     31.0059E-03    -14.9361E+06    -66.3591E+06    -9.37786E+06     350.744E+03    -14.2450E-03     28.2946E-03    -14.0496E-03     10.4104E-03    -14.2101E-03     27.9983E-03    -13.9786E-03     10.4134E-03
            1866     2.66266E-03     30.9968E-03    -16.3925E+06    -68.0856E+06    -12.7581E+06     197.794E+03    -14.0989E-03     28.0917E-03    -13.9929E-03     7.68808E-03    -14.0637E-03     27.7937E-03    -13.9342E-03     7.68950E-03
            1867     1.77513E-03     30.9906E-03    -17.5750E+06    -69.8964E+06    -15.7300E+06     129.641E+03    -13.9996E-03     27.9492E-03    -13.9496E-03     5.11207E-03    -13.9634E-03     27.6481E-03    -13.9014E-03     5.11301E-03
            1868     887.631E-06     30.9866E-03    -18.2865E+06    -71.1856E+06    -17.8389E+06     31.6248E+03    -13.9247E-03     27.8558E-03    -13.9311E-03     2.73593E-03    -13.8871E-03     27.5523E-03    -13.8906E-03     2.73595E-03
            1869     16.8359E-03     30.7303E-03    -3.94371E+06     148.718E+06     51.0947E+06     128.565E+03    -23.7620E-03     39.3084E-03    -15.5463E-03     185.611E-03    -26.7236E-03     42.6357E-03    -15.5008E-03     187.521E-03
            1870     15.9524E-03     30.5700E-03    -5.81234E+06     92.5033E+06    -6.68702E+06     962.816E+03    -21.8028E-03     37.0287E-03    -15.2260E-03     140.836E-03    -23.0946E-03     38.6477E-03    -15.3851E-03     141.129E-03
            1871     15.0675E-03     30.4677E-03    -6.08236E+06     35.3254E+06    -9.94767E+06     1.03322E+06    -19.1466E-03     34.3153E-03    -15.1687E-03     86.4474E-03    -19.4217E-03     34.7230E-03    -15.2608E-03     86.4204E-03
            1872     14.1843E-03     30.4059E-03    -5.37706E+06    -8.62181E+06    -8.90726E+06     946.402E+03    -17.9734E-03     33.0862E-03    -15.1127E-03     59.3588E-03    -18.0430E-03     33.1318E-03    -15.1370E-03     59.3261E-03
            1873     13.2985E-03     30.3548E-03    -5.17114E+06    -33.2209E+06    -9.74167E+06     1.00161E+06    -17.6761E-03     32.6951E-03    -15.0191E-03     55.1512E-03    -17.6807E-03     32.5917E-03    -15.0121E-03     55.1265E-03
            1874     12.4141E-03     30.3015E-03    -5.35141E+06    -36.1420E+06    -1.25195E+06     1.11156E+06    -17.4219E-03     32.3593E-03    -14.9374E-03     51.5196E-03    -17.4197E-03     32.2134E-03    -14.8835E-03     51.5055E-03
            1875     11.5285E-03     30.2565E-03    -5.75717E+06    -42.0771E+06    -1.18430E+06     1.31107E+06    -17.0208E-03     31.8351E-03    -14.8143E-03     44.5347E-03    -17.0013E-03     31.6492E-03    -14.7508E-03     44.5309E-03
            1876     10.6435E-03     30.2160E-03    -6.18458E+06    -53.6144E+06    -3.14790E+06     1.43400E+06    -16.7023E-03     31.3892E-03    -14.6869E-03     39.6925E-03    -16.6597E-03     31.1435E-03    -14.6159E-03     39.6959E-03
            1877     9.75759E-03     30.1799E-03    -6.78910E+06    -58.5327E+06    -354.323E+03     1.54246E+06    -16.3086E-03     30.8830E-03    -14.5744E-03     35.2655E-03    -16.2626E-03     30.6062E-03    -14.4814E-03     35.2745E-03
            1878     8.87183E-03     30.1476E-03    -7.57478E+06    -59.1007E+06    -261.990E+03     1.54156E+06    -15.9174E-03     30.3643E-03    -14.4468E-03     30.9760E-03    -15.8727E-03     30.0836E-03    -14.3515E-03     30.9879E-03
            1879     7.98553E-03     30.1195E-03    -8.62503E+06    -61.5037E+06    -847.846E+03     1.46299E+06    -15.5514E-03     29.8760E-03    -14.3246E-03     26.8557E-03    -15.5063E-03     29.5844E-03    -14.2271E-03     26.8687E-03
            1880     7.09917E-03     30.0950E-03    -9.74793E+06    -63.2191E+06    -1.46511E+06     1.44721E+06    -15.1902E-03     29.3989E-03    -14.2086E-03     22.9600E-03    -15.1466E-03     29.1004E-03    -14.1102E-03     22.9742E-03
            1881     6.21239E-03     30.0743E-03    -10.9513E+06    -63.8506E+06    -2.69385E+06     1.16556E+06    -14.8404E-03     28.9394E-03    -14.0990E-03     19.3411E-03    -14.7996E-03     28.6409E-03    -14.0040E-03     19.3528E-03
            1882     5.32543E-03     30.0567E-03    -12.1886E+06    -64.6910E+06    -3.99239E+06     748.878E+03    -14.5327E-03     28.5351E-03    -14.0024E-03     16.0054E-03    -14.4946E-03     28.2357E-03    -13.9109E-03     16.0124E-03
            1883     4.43819E-03     30.0424E-03    -13.5164E+06    -64.9393E+06    -6.26077E+06     629.857E+03    -14.2684E-03     28.1828E-03    -13.9144E-03     12.9414E-03    -14.2331E-03     27.8872E-03    -13.8320E-03     12.9475E-03
            1884     3.55080E-03     30.0308E-03    -14.9328E+06    -65.9463E+06    -9.51762E+06     513.058E+03    -14.0536E-03     27.8914E-03    -13.8378E-03     10.1111E-03    -14.0191E-03     27.5973E-03    -13.7681E-03     10.1162E-03
            1885     2.66320E-03     30.0222E-03    -16.3151E+06    -67.8692E+06    -12.8259E+06     335.635E+03    -13.8967E-03     27.6734E-03    -13.7767E-03     7.46187E-03    -13.8614E-03     27.3764E-03    -13.7187E-03     7.46511E-03
            1886     1.77557E-03     30.0158E-03    -17.4283E+06    -69.6609E+06    -15.7002E+06     188.769E+03    -13.7840E-03     27.5146E-03    -13.7307E-03     4.95603E-03    -13.7474E-03     27.2144E-03    -13.6829E-03     4.95776E-03
            1887     887.763E-06     30.0122E-03    -18.1376E+06    -71.0768E+06    -17.6846E+06     57.4070E+03    -13.7024E-03     27.4178E-03    -13.7155E-03     2.65694E-03    -13.6644E-03     27.1144E-03    -13.6745E-03     2.65730E-03
            1888     16.8361E-03     29.7487E-03    -4.39258E+06     148.276E+06     51.6887E+06     480.898E+03    -23.9264E-03     39.4367E-03    -15.5103E-03     181.763E-03    -26.8170E-03     42.6882E-03    -15.4605E-03     183.615E-03
            1889     15.9525E-03     29.5891E-03    -6.65384E+06     91.9402E+06    -6.48195E+06     153.717E+03    -21.7672E-03     36.9361E-03    -15.1688E-03     137.910E-03    -23.0321E-03     38.5224E-03    -15.3249E-03     138.191E-03
            1890     15.0705E-03     29.4870E-03    -5.68591E+06     35.2373E+06    -10.2712E+06     767.042E+03    -19.2917E-03     34.3835E-03    -15.0918E-03     85.2336E-03    -19.5605E-03     34.7869E-03    -15.1860E-03     85.2003E-03
            1891     14.1845E-03     29.4279E-03    -5.00843E+06    -8.33938E+06    -8.80848E+06     1.09529E+06    -17.8369E-03     32.8678E-03    -15.0310E-03     59.1089E-03    -17.9038E-03     32.9129E-03    -15.0557E-03     59.0789E-03
            1892     13.3000E-03     29.3754E-03    -5.09342E+06    -33.1146E+06    -9.78442E+06     1.13633E+06    -17.8120E-03     32.7432E-03    -14.9312E-03     54.9194E-03    -17.8161E-03     32.6400E-03    -14.9247E-03     54.8962E-03
            1893     12.4150E-03     29.3231E-03    -5.37680E+06    -36.3672E+06    -1.53785E+06     1.27924E+06    -17.5807E-03     32.4121E-03    -14.8313E-03     50.8834E-03    -17.5774E-03     32.2650E-03    -14.7785E-03     50.8715E-03
            1894     11.5303E-03     29.2781E-03    -5.75345E+06    -42.0363E+06    -1.39233E+06     1.48060E+06    -17.1012E-03     31.7911E-03    -14.6899E-03     44.0161E-03    -17.0810E-03     31.6053E-03    -14.6276E-03     44.0147E-03
            1895     10.6446E-03     29.2384E-03    -6.17216E+06    -53.6692E+06    -3.48086E+06     1.60483E+06    -16.7293E-03     31.2757E-03    -14.5464E-03     39.1097E-03    -16.6859E-03     31.0299E-03    -14.4770E-03     39.1156E-03
            1896     9.75927E-03     29.2025E-03    -6.63033E+06    -58.3826E+06    -514.342E+03     1.69211E+06    -16.3194E-03     30.7383E-03    -14.4189E-03     34.6296E-03    -16.2724E-03     30.4621E-03    -14.3272E-03     34.6407E-03
            1897     8.87321E-03     29.1709E-03    -7.48824E+06    -58.8207E+06    -428.093E+03     1.74192E+06    -15.8902E-03     30.1659E-03    -14.2757E-03     30.3373E-03    -15.8451E-03     29.8866E-03    -14.1817E-03     30.3520E-03
            1898     7.98711E-03     29.1430E-03    -8.43866E+06    -61.2083E+06    -998.372E+03     1.70075E+06    -15.4784E-03     29.6175E-03    -14.1391E-03     26.2278E-03    -15.4325E-03     29.3273E-03    -14.0431E-03     26.2440E-03
            1899     7.10050E-03     29.1191E-03    -9.51431E+06    -62.8763E+06    -1.55526E+06     1.55324E+06    -15.0734E-03     29.0849E-03    -14.0114E-03     22.3652E-03    -15.0289E-03     28.7879E-03    -13.9142E-03     22.3809E-03
            1900     6.21371E-03     29.0987E-03    -10.6474E+06    -63.0891E+06    -2.66416E+06     1.22164E+06    -14.6939E-03     28.5856E-03    -13.8917E-03     18.8043E-03    -14.6526E-03     28.2903E-03    -13.7981E-03     18.8168E-03
            1901     5.32654E-03     29.0816E-03    -12.0334E+06    -64.1862E+06    -4.16866E+06     825.811E+03    -14.3599E-03     28.1462E-03    -13.7864E-03     15.5354E-03    -14.3215E-03     27.8493E-03    -13.6967E-03     15.5435E-03
            1902     4.43920E-03     29.0675E-03    -13.5183E+06    -64.7469E+06    -6.44883E+06     598.553E+03    -14.0757E-03     27.7679E-03    -13.6921E-03     12.5420E-03    -14.0405E-03     27.4734E-03    -13.6109E-03     12.5478E-03
            1903     3.55158E-03     29.0564E-03    -14.9249E+06    -65.6176E+06    -9.57872E+06     591.291E+03    -13.8484E-03     27.4582E-03    -13.6098E-03     9.79210E-03    -13.8142E-03     27.1659E-03    -13.5409E-03     9.79828E-03
            1904     2.66386E-03     29.0477E-03    -16.2057E+06    -67.4873E+06    -12.8292E+06     459.969E+03    -13.6753E-03     27.2190E-03    -13.5437E-03     7.22221E-03    -13.6399E-03     26.9238E-03    -13.4865E-03     7.22710E-03
            1905     1.77595E-03     29.0418E-03    -17.2145E+06    -69.3530E+06    -15.5474E+06     230.913E+03    -13.5538E-03     27.0490E-03    -13.4952E-03     4.79009E-03    -13.5168E-03     26.7498E-03    -13.4474E-03     4.79240E-03
            1906     888.020E-06     29.0380E-03    -17.8524E+06    -70.8949E+06    -17.4422E+06     69.8864E+03    -13.4726E-03     26.9454E-03    -13.4728E-03     2.55241E-03    -13.4337E-03     26.6421E-03    -13.4314E-03     2.55295E-03
            1907     16.8432E-03     28.7735E-03    -3.54750E+06     148.556E+06     52.6338E+06     493.460E+03    -24.9338E-03     40.3949E-03    -15.4611E-03     182.490E-03    -27.7951E-03     43.6184E-03    -15.4082E-03     184.270E-03
            1908     15.9564E-03     28.6077E-03    -4.01034E+06     92.3479E+06    -4.94514E+06     1.26622E+06    -21.6875E-03     36.7866E-03    -15.0991E-03     139.797E-03    -22.9499E-03     38.3768E-03    -15.2519E-03     140.077E-03
            1909     15.0699E-03     28.5087E-03    -4.92991E+06     34.7464E+06    -9.98209E+06     1.13334E+06    -18.9127E-03     33.9474E-03    -15.0347E-03     85.5500E-03    -19.1731E-03     34.3426E-03    -15.1279E-03     85.5241E-03
            1910     14.1860E-03     28.4483E-03    -5.75090E+06    -8.15378E+06    -9.28761E+06     1.12749E+06    -18.2602E-03     33.2264E-03    -14.9662E-03     59.4159E-03    -18.3311E-03     33.2749E-03    -14.9925E-03     59.3847E-03
            1911     13.3012E-03     28.3967E-03    -5.24276E+06    -32.9628E+06    -10.1434E+06     1.28231E+06    -18.1355E-03     32.9725E-03    -14.8370E-03     54.4787E-03    -18.1395E-03     32.8703E-03    -14.8324E-03     54.4568E-03
            1912     12.4167E-03     28.3442E-03    -5.17485E+06    -36.4950E+06    -1.82035E+06     1.46417E+06    -17.6586E-03     32.3746E-03    -14.7160E-03     50.3432E-03    -17.6530E-03     32.2263E-03    -14.6646E-03     50.3339E-03
            1913     11.5314E-03     28.3003E-03    -5.65300E+06    -42.2093E+06    -1.70728E+06     1.62539E+06    -17.2289E-03     31.7858E-03    -14.5569E-03     43.3632E-03    -17.2072E-03     31.5992E-03    -14.4960E-03     43.3638E-03
            1914     10.6465E-03     28.2605E-03    -5.98579E+06    -53.4654E+06    -3.62022E+06     1.78449E+06    -16.7924E-03     31.1860E-03    -14.3937E-03     38.3997E-03    -16.7478E-03     30.9410E-03    -14.3256E-03     38.4081E-03
            1915     9.76074E-03     28.2254E-03    -6.61043E+06    -58.3395E+06    -830.753E+03     1.86708E+06    -16.3264E-03     30.5741E-03    -14.2477E-03     33.9052E-03    -16.2788E-03     30.2983E-03    -14.1577E-03     33.9187E-03
            1916     8.87500E-03     28.1941E-03    -7.35766E+06    -58.5248E+06    -564.966E+03     1.93129E+06    -15.8539E-03     29.9422E-03    -14.0883E-03     29.6214E-03    -15.8082E-03     29.6642E-03    -13.9956E-03     29.6387E-03
            1917     7.98864E-03     28.1670E-03    -8.20198E+06    -60.8972E+06    -1.17863E+06     1.85317E+06    -15.3847E-03     29.3216E-03    -13.9369E-03     25.5507E-03    -15.3377E-03     29.0328E-03    -13.8426E-03     25.5691E-03
            1918     7.10208E-03     28.1434E-03    -9.12348E+06    -62.3678E+06    -1.58265E+06     1.66658E+06    -14.9416E-03     28.7392E-03    -13.7977E-03     21.7281E-03    -14.8958E-03     28.4442E-03    -13.7019E-03     21.7455E-03
            1919     6.21505E-03     28.1236E-03    -10.3357E+06    -62.4169E+06    -2.55278E+06     1.37533E+06    -14.5323E-03     28.2006E-03    -13.6684E-03     18.2242E-03    -14.4906E-03     27.9081E-03    -13.5757E-03     18.2388E-03
            1920     5.32782E-03     28.1068E-03    -11.7115E+06    -63.5543E+06    -4.00295E+06     1.00387E+06    -14.1716E-03     27.7264E-03    -13.5548E-03     15.0275E-03    -14.1328E-03     27.4319E-03    -13.4656E-03     15.0380E-03
            1921     4.44022E-03     28.0932E-03    -13.2266E+06    -64.4751E+06    -6.44938E+06     739.760E+03    -13.8685E-03     27.3217E-03    -13.4531E-03     12.1186E-03    -13.8322E-03     27.0282E-03    -13.3727E-03     12.1263E-03
            1922     3.55248E-03     28.0822E-03    -14.7208E+06    -65.3736E+06    -9.52474E+06     633.342E+03    -13.6231E-03     26.9886E-03    -13.3655E-03     9.44800E-03    -13.5883E-03     26.6971E-03    -13.2970E-03     9.45478E-03
            1923     2.66449E-03     28.0739E-03    -15.9617E+06    -67.0176E+06    -12.6400E+06     502.982E+03    -13.4330E-03     26.7293E-03    -13.2963E-03     6.96810E-03    -13.3974E-03     26.4358E-03    -13.2392E-03     6.97360E-03
            1924     1.77642E-03     28.0679E-03    -16.9399E+06    -68.9987E+06    -15.3479E+06     274.307E+03    -13.3109E-03     26.5561E-03    -13.2452E-03     4.63474E-03    -13.2733E-03     26.2580E-03    -13.1974E-03     4.63763E-03
            1925     888.228E-06     28.0645E-03    -17.6375E+06    -70.6412E+06    -17.1873E+06     101.882E+03    -13.2345E-03     26.4426E-03    -13.2081E-03     2.44552E-03    -13.1954E-03     26.1399E-03    -13.1660E-03     2.44649E-03
            1926     16.8331E-03     27.7863E-03    -4.48665E+06     147.135E+06     50.9169E+06    -158.922E+03    -24.8510E-03     40.3685E-03    -15.5175E-03     183.442E-03    -27.7385E-03     43.6148E-03    -15.4698E-03     185.237E-03
            1927     15.9544E-03     27.6287E-03    -6.15980E+06     91.4848E+06    -6.85176E+06     1.21789E+06    -22.9562E-03     38.0817E-03    -15.1256E-03     138.889E-03    -24.2127E-03     39.6610E-03    -15.2835E-03     139.133E-03
            1928     15.0706E-03     27.5296E-03    -5.70759E+06     35.3187E+06    -10.7204E+06     1.73229E+06    -19.6904E-03     34.6936E-03    -15.0032E-03     85.3707E-03    -19.9542E-03     35.0936E-03    -15.0997E-03     85.3481E-03
            1929     14.1859E-03     27.4679E-03    -4.96779E+06    -7.84315E+06    -9.32945E+06     1.33666E+06    -18.7383E-03     33.6331E-03    -14.8949E-03     58.6287E-03    -18.8043E-03     33.6807E-03    -14.9229E-03     58.5990E-03
            1930     13.3028E-03     27.4174E-03    -5.02704E+06    -33.2279E+06    -10.5915E+06     1.39283E+06    -18.3911E-03     33.1262E-03    -14.7352E-03     53.6257E-03    -18.3921E-03     33.0221E-03    -14.7326E-03     53.6051E-03
            1931     12.4179E-03     27.3659E-03    -5.10942E+06    -36.4366E+06    -2.15015E+06     1.64441E+06    -17.8850E-03     32.4737E-03    -14.5887E-03     49.5660E-03    -17.8783E-03     32.3257E-03    -14.5392E-03     49.5590E-03
            1932     11.5334E-03     27.3216E-03    -5.50284E+06    -41.9868E+06    -1.92074E+06     1.84411E+06    -17.3224E-03     31.7290E-03    -14.4067E-03     42.4965E-03    -17.2995E-03     31.5432E-03    -14.3474E-03     42.5002E-03
            1933     10.6481E-03     27.2832E-03    -6.06267E+06    -53.4751E+06    -4.08032E+06     1.99250E+06    -16.8469E-03     31.0698E-03    -14.2229E-03     37.5253E-03    -16.8018E-03     30.8252E-03    -14.1570E-03     37.5365E-03
            1934     9.76274E-03     27.2482E-03    -6.53832E+06    -58.0769E+06    -1.12302E+06     2.03705E+06    -16.3055E-03     30.3645E-03    -14.0591E-03     33.1262E-03    -16.2572E-03     30.0902E-03    -13.9710E-03     33.1422E-03
            1935     8.87669E-03     27.2179E-03    -7.23663E+06    -58.3046E+06    -750.855E+03     2.01219E+06    -15.7854E-03     29.6701E-03    -13.8848E-03     28.8493E-03    -15.7390E-03     29.3933E-03    -13.7935E-03     28.8679E-03
            1936     7.99044E-03     27.1910E-03    -7.97002E+06    -60.3830E+06    -1.15899E+06     1.90902E+06    -15.2788E-03     28.9988E-03    -13.7200E-03     24.8183E-03    -15.2314E-03     28.7121E-03    -13.6267E-03     24.8375E-03
            1937     7.10365E-03     27.1682E-03    -8.86420E+06    -61.9906E+06    -1.64717E+06     1.76755E+06    -14.7960E-03     28.3643E-03    -13.5683E-03     21.0503E-03    -14.7493E-03     28.0708E-03    -13.4738E-03     21.0691E-03
            1938     6.21660E-03     27.1487E-03    -9.96822E+06    -61.7098E+06    -2.46431E+06     1.59808E+06    -14.3524E-03     27.7814E-03    -13.4291E-03     17.6181E-03    -14.3100E-03     27.4917E-03    -13.3374E-03     17.6357E-03
            1939     5.32909E-03     27.1326E-03    -11.3597E+06    -62.9204E+06    -3.81094E+06     1.20610E+06    -13.9697E-03     27.2772E-03    -13.3075E-03     14.4987E-03    -13.9302E-03     26.9851E-03    -13.2189E-03     14.5119E-03
            1940     4.44140E-03     27.1191E-03    -12.8740E+06    -64.0970E+06    -6.23659E+06      956.73E+03    -13.6449E-03     26.8440E-03    -13.1991E-03     11.6754E-03    -13.6076E-03     26.5516E-03    -13.1187E-03     11.6860E-03
            1941     3.55338E-03     27.1086E-03    -14.3238E+06    -64.9934E+06    -9.36878E+06     757.277E+03    -13.3806E-03     26.4863E-03    -13.1057E-03     9.09325E-03    -13.3446E-03     26.1959E-03    -13.0376E-03     9.10169E-03
            1942     2.66522E-03     27.1004E-03    -15.5785E+06    -66.5759E+06    -12.4653E+06     529.144E+03    -13.1828E-03     26.2149E-03    -13.0321E-03     6.69222E-03    -13.1462E-03     25.9228E-03    -12.9753E-03     6.69810E-03
            1943     1.77686E-03     27.0948E-03    -16.5926E+06    -68.6103E+06    -15.1242E+06     367.640E+03    -13.0433E-03     26.0230E-03    -12.9797E-03     4.45182E-03    -13.0049E-03     25.7260E-03    -12.9317E-03     4.45595E-03
            1944     888.473E-06     27.0912E-03    -17.2987E+06    -70.2784E+06    -16.8947E+06     160.895E+03    -12.9613E-03     25.9136E-03    -12.9523E-03     2.33977E-03    -12.9214E-03     25.6118E-03    -12.9097E-03     2.34153E-03
            1945     16.8383E-03     26.8018E-03    -4.35224E+06     146.478E+06     50.6758E+06     714.368E+03    -24.7041E-03     40.2172E-03    -15.5130E-03     181.427E-03    -27.5744E-03     43.4451E-03    -15.4657E-03     183.211E-03
            1946     15.9535E-03     26.6476E-03    -7.05787E+06     89.8343E+06    -8.38968E+06     204.468E+03    -23.2466E-03     38.3466E-03    -15.1000E-03     134.187E-03    -24.4516E-03     39.8698E-03    -15.2620E-03     134.408E-03
            1947     15.0715E-03     26.5477E-03    -5.67185E+06     35.8482E+06    -11.0771E+06     1.13916E+06    -20.6373E-03     35.5658E-03    -14.9285E-03     82.9786E-03    -20.8980E-03     35.9658E-03    -15.0277E-03     82.9409E-03
            1948     14.1891E-03     26.4891E-03    -4.96462E+06    -7.58013E+06    -9.38200E+06     1.60917E+06    -18.8565E-03     33.6372E-03    -14.7807E-03     57.0504E-03    -18.9205E-03     33.6839E-03    -14.8094E-03     57.0242E-03
            1949     13.3035E-03     26.4377E-03    -5.18617E+06    -33.4954E+06    -10.8614E+06     1.44928E+06    -18.4495E-03     33.0545E-03    -14.6049E-03     52.5921E-03    -18.4496E-03     32.9487E-03    -14.6032E-03     52.5726E-03
            1950     12.4203E-03     26.3870E-03    -5.35986E+06    -36.5557E+06    -2.55682E+06     1.72465E+06    -18.0539E-03     32.4919E-03    -14.4381E-03     48.3657E-03    -18.0469E-03     32.3436E-03    -14.3901E-03     48.3598E-03
            1951     11.5351E-03     26.3439E-03    -5.64890E+06    -42.0524E+06    -2.26549E+06     2.05403E+06    -17.3549E-03     31.5901E-03    -14.2351E-03     41.6006E-03    -17.3318E-03     31.4042E-03    -14.1773E-03     41.6073E-03
            1952     10.6503E-03     26.3055E-03    -5.90846E+06    -53.3726E+06    -4.26072E+06     2.13977E+06    -16.8222E-03     30.8578E-03    -14.0356E-03     36.6637E-03    -16.7759E-03     30.6134E-03    -13.9710E-03     36.6772E-03
            1953     9.76461E-03     26.2717E-03    -6.33986E+06    -57.7453E+06    -1.28983E+06     2.21445E+06    -16.2726E-03     30.1285E-03    -13.8559E-03     32.2985E-03    -16.2234E-03     29.8555E-03    -13.7694E-03     32.3170E-03
            1954     8.87870E-03     26.2415E-03    -6.98762E+06    -57.8988E+06    -846.185E+03     2.05707E+06    -15.6969E-03     29.3634E-03    -13.6665E-03     28.0453E-03    -15.6495E-03     29.0882E-03    -13.5767E-03     28.0647E-03
            1955     7.99224E-03     26.2157E-03    -7.74328E+06    -60.0249E+06    -1.07916E+06     1.95626E+06    -15.1528E-03     28.6423E-03    -13.4895E-03     24.0413E-03    -15.1048E-03     28.3568E-03    -13.3966E-03     24.0613E-03
            1956     7.10544E-03     26.1932E-03    -8.73051E+06    -61.5930E+06    -1.57325E+06     1.93060E+06    -14.6302E-03     27.9565E-03    -13.3263E-03     20.3488E-03    -14.5835E-03     27.6647E-03    -13.2322E-03     20.3698E-03
            1957     6.21811E-03     26.1745E-03    -9.84299E+06    -61.0685E+06    -2.63974E+06     1.70761E+06    -14.1588E-03     27.3346E-03    -13.1757E-03     16.9980E-03    -14.1164E-03     27.0481E-03    -13.0861E-03     17.0171E-03
            1958     5.33054E-03     26.1585E-03    -11.0189E+06    -62.2564E+06    -3.77266E+06     1.42430E+06    -13.7524E-03     26.7990E-03    -13.0466E-03     13.9593E-03    -13.7122E-03     26.5096E-03    -12.9592E-03     13.9754E-03
            1959     4.44255E-03     26.1458E-03    -12.4074E+06    -63.6932E+06    -5.99898E+06     1.16603E+06    -13.4084E-03     26.3408E-03    -12.9324E-03     11.2206E-03    -13.3697E-03     26.0494E-03    -12.8521E-03     11.2339E-03
            1960     3.55437E-03     26.1354E-03    -13.8110E+06    -64.4382E+06    -9.18652E+06     956.462E+03    -13.1314E-03     25.9638E-03    -12.8323E-03     8.72786E-03    -13.0939E-03     25.6751E-03    -12.7648E-03     8.73893E-03
            1961     2.66595E-03     26.1277E-03    -15.1307E+06    -66.1404E+06    -12.3709E+06     745.899E+03    -12.9241E-03     25.6763E-03    -12.7522E-03     6.41596E-03    -12.8860E-03     25.3856E-03    -12.6963E-03     6.42468E-03
            1962     1.77742E-03     26.1220E-03    -16.1829E+06    -68.1248E+06    -14.8919E+06     559.809E+03    -12.7671E-03     25.4625E-03    -12.6953E-03     4.24563E-03    -12.7277E-03     25.1669E-03    -12.6475E-03     4.25227E-03
            1963     888.688E-06     26.1188E-03    -16.8571E+06    -69.7240E+06    -16.6424E+06     377.245E+03    -12.6656E-03     25.3421E-03    -12.6765E-03     2.25526E-03    -12.6247E-03     25.0421E-03    -12.6342E-03     2.25982E-03
            1964     16.8390E-03     25.8228E-03    -3.35304E+06     146.757E+06     52.2040E+06     1.17917E+06    -25.7856E-03     41.1892E-03    -15.4035E-03     179.596E-03    -28.5772E-03     44.3385E-03    -15.3505E-03     181.277E-03
            1965     15.9569E-03     25.6650E-03    -4.63237E+06     90.6937E+06    -6.22109E+06     1.37952E+06    -22.6511E-03     37.6206E-03    -14.9695E-03     133.716E-03    -23.8263E-03     39.1194E-03    -15.1254E-03     133.955E-03
            1966     15.0745E-03     25.5667E-03    -5.93150E+06     34.9432E+06    -11.2560E+06     1.16930E+06    -20.4088E-03     35.2159E-03    -14.8071E-03     81.5595E-03    -20.6637E-03     35.6064E-03    -14.9054E-03     81.5228E-03
            1967     14.1897E-03     25.5096E-03    -6.26073E+06    -7.47693E+06    -9.71638E+06     1.30468E+06    -19.0186E-03     33.6686E-03    -14.6500E-03     56.4808E-03    -19.0880E-03     33.7174E-03    -14.6787E-03     56.4503E-03
            1968     13.3071E-03     25.4585E-03    -5.43219E+06    -33.2825E+06    -11.1221E+06     1.51559E+06    -18.6297E-03     33.0814E-03    -14.4517E-03     52.1679E-03    -18.6304E-03     32.9770E-03    -14.4512E-03     52.1490E-03
            1969     12.4218E-03     25.4083E-03    -5.18475E+06    -36.9953E+06    -2.84887E+06     1.86283E+06    -18.0162E-03     32.2844E-03    -14.2682E-03     47.4231E-03    -18.0065E-03     32.1332E-03    -14.2213E-03     47.4196E-03
            1970     11.5377E-03     25.3659E-03    -5.47037E+06    -42.0407E+06    -2.40712E+06     2.20605E+06    -17.3474E-03     31.4001E-03    -14.0527E-03     40.7931E-03    -17.3227E-03     31.2137E-03    -13.9958E-03     40.8022E-03
            1971     10.6522E-03     25.3285E-03    -5.84108E+06    -53.1737E+06    -4.51563E+06     2.24952E+06    -16.8082E-03     30.6452E-03    -13.8370E-03     35.9047E-03    -16.7611E-03     30.4017E-03    -13.7740E-03     35.9200E-03
            1972     9.76680E-03     25.2949E-03    -6.12591E+06    -57.5276E+06    -1.38431E+06     2.26424E+06    -16.2232E-03     29.8648E-03    -13.6416E-03     31.4283E-03    -16.1729E-03     29.5926E-03    -13.5563E-03     31.4477E-03
            1973     8.88071E-03     25.2659E-03    -6.69071E+06    -57.4061E+06    -869.945E+03     2.23051E+06    -15.5991E-03     29.0361E-03    -13.4370E-03     27.2156E-03    -15.5508E-03     28.7628E-03    -13.3484E-03     27.2374E-03
            1974     7.99422E-03     25.2403E-03    -7.56905E+06    -59.7975E+06    -1.15396E+06     2.13397E+06    -15.0046E-03     28.2521E-03    -13.2476E-03     23.2553E-03    -14.9557E-03     27.9675E-03    -13.1557E-03     23.2778E-03
            1975     7.10718E-03     25.2189E-03    -8.56345E+06    -61.2051E+06    -1.37972E+06     2.12479E+06    -14.4555E-03     27.5301E-03    -13.0746E-03     19.6219E-03    -14.4086E-03     27.2396E-03    -12.9803E-03     19.6456E-03
            1976     6.21980E-03     25.2003E-03    -9.72203E+06    -60.3266E+06    -2.71692E+06     1.86998E+06    -13.9515E-03     26.8642E-03    -12.9127E-03     16.3560E-03    -13.9094E-03     26.5813E-03    -12.8247E-03     16.3774E-03
            1977     5.33193E-03     25.1853E-03    -10.9793E+06    -61.6834E+06    -4.26939E+06     1.53246E+06    -13.5218E-03     26.2958E-03    -12.7740E-03     13.4072E-03    -13.4815E-03     26.0099E-03    -12.6900E-03     13.4248E-03
            1978     4.44381E-03     25.1727E-03    -12.1956E+06    -63.1319E+06    -6.30984E+06     1.31461E+06    -13.1646E-03     25.8181E-03    -12.6535E-03     10.7563E-03    -13.1251E-03     25.5295E-03    -12.5758E-03     10.7716E-03
            1979     3.55538E-03     25.1629E-03    -13.4497E+06    -63.9982E+06    -9.17488E+06     1.18674E+06    -12.8726E-03     25.4211E-03    -12.5485E-03     8.35592E-03    -12.8339E-03     25.1340E-03    -12.4821E-03     8.37003E-03
            1980     2.66673E-03     25.1552E-03    -14.6441E+06    -65.5600E+06    -12.1827E+06      1.1153E+06    -12.6471E-03     25.1113E-03    -12.4642E-03     6.13797E-03    -12.6077E-03     24.8225E-03    -12.4088E-03     6.15150E-03
            1981     1.77790E-03     25.1500E-03    -15.6650E+06    -67.4822E+06    -14.5780E+06     909.448E+03    -12.4886E-03     24.8914E-03    -12.4028E-03     4.05490E-03    -12.4480E-03     24.5979E-03    -12.3551E-03     4.06608E-03
            1982     889.019E-06     25.1466E-03    -16.3603E+06    -68.7856E+06    -16.0734E+06     629.213E+03    -12.3711E-03     24.7516E-03    -12.3805E-03     2.18359E-03    -12.3298E-03     24.4547E-03    -12.3374E-03     2.19142E-03
            1983     16.8439E-03     24.8429E-03    -3.71986E+06     145.680E+06     51.9831E+06     610.733E+03    -26.9097E-03     42.2371E-03    -15.3275E-03     177.267E-03    -29.6027E-03     45.2835E-03    -15.2734E-03     178.829E-03
            1984     15.9593E-03     24.6840E-03    -4.37645E+06     91.0253E+06    -5.04963E+06     2.48456E+06    -22.9167E-03     37.7709E-03    -14.8542E-03     134.719E-03    -24.0981E-03     39.2745E-03    -15.0051E-03     134.960E-03
            1985     15.0747E-03     24.5867E-03    -4.61173E+06     35.9617E+06    -9.92550E+06     2.17790E+06    -20.0349E-03     34.7240E-03    -14.6891E-03     80.8867E-03    -20.2791E-03     35.1083E-03    -14.7842E-03     80.8652E-03
            1986     14.1922E-03     24.5294E-03    -5.25974E+06    -7.14133E+06    -9.21187E+06     1.18510E+06    -19.1848E-03     33.7117E-03    -14.5269E-03     56.1820E-03    -19.2494E-03     33.7590E-03    -14.5550E-03     56.1498E-03
            1987     13.3077E-03     24.4790E-03    -5.10091E+06    -33.7860E+06    -11.1451E+06     1.46421E+06    -18.8774E-03     33.1827E-03    -14.3053E-03     51.3033E-03    -18.8748E-03     33.0744E-03    -14.3046E-03     51.2836E-03
            1988     12.4248E-03     24.4299E-03    -4.74588E+06    -37.3248E+06    -2.83572E+06     2.08926E+06    -18.0229E-03     32.1241E-03    -14.1012E-03     46.7802E-03    -18.0096E-03     31.9697E-03    -14.0544E-03     46.7803E-03
            1989     11.5392E-03     24.3883E-03    -5.29552E+06    -41.9818E+06    -2.59749E+06     2.36104E+06    -17.4123E-03     31.2801E-03    -13.8678E-03     40.0750E-03    -17.3861E-03     31.0936E-03    -13.8123E-03     40.0865E-03
            1990     10.6546E-03     24.3512E-03    -5.60932E+06    -52.8422E+06    -4.82058E+06     2.34396E+06    -16.8320E-03     30.4630E-03    -13.6310E-03     35.0031E-03    -16.7835E-03     30.2210E-03    -13.5704E-03     35.0199E-03
            1991     9.76887E-03     24.3188E-03    -5.89381E+06      -57.41E+06    -1.67319E+06     2.27055E+06    -16.1506E-03     29.5693E-03    -13.4186E-03     30.5615E-03    -16.0987E-03     29.2975E-03    -13.3352E-03     30.5813E-03
            1992     8.88286E-03     24.2901E-03    -6.43108E+06    -57.1720E+06    -915.375E+03     2.43412E+06    -15.4886E-03     28.6896E-03    -13.2010E-03     26.3492E-03    -15.4392E-03     28.4171E-03    -13.1134E-03     26.3739E-03
            1993     7.99617E-03     24.2658E-03    -7.30369E+06    -59.3414E+06    -1.09463E+06     2.48976E+06    -14.8553E-03     27.8543E-03    -12.9990E-03     22.4442E-03    -14.8058E-03     27.5714E-03    -12.9078E-03     22.4715E-03
            1994     7.10908E-03     24.2445E-03    -8.34103E+06    -60.7251E+06    -1.31496E+06     2.25872E+06    -14.2687E-03     27.0839E-03    -12.8152E-03     18.8846E-03    -14.2215E-03     26.7953E-03    -12.7216E-03     18.9101E-03
            1995     6.22144E-03     24.2271E-03    -9.31318E+06    -59.6910E+06    -2.51739E+06     2.04428E+06    -13.7374E-03     26.3817E-03    -12.6443E-03     15.7000E-03    -13.6944E-03     26.1011E-03    -12.5569E-03     15.7237E-03
            1996     5.33344E-03     24.2122E-03    -10.5053E+06    -61.0216E+06    -4.49620E+06     1.80004E+06    -13.2868E-03     25.7825E-03    -12.4957E-03     12.8499E-03    -13.2447E-03     25.4995E-03    -12.4144E-03     12.8710E-03
            1997     4.44506E-03     24.2004E-03    -11.9137E+06    -62.5630E+06    -6.66608E+06     1.52708E+06    -12.9126E-03     25.2809E-03    -12.3682E-03     10.2901E-03    -12.8721E-03     24.9953E-03    -12.2936E-03     10.3083E-03
            1998     3.55640E-03     24.1906E-03    -13.2033E+06    -63.5707E+06    -9.17490E+06     1.41104E+06    -12.6014E-03     24.8613E-03    -12.2599E-03     7.97924E-03    -12.5620E-03     24.5760E-03    -12.1945E-03     7.99631E-03
            1999     2.66752E-03     24.1835E-03    -14.2507E+06    -64.9726E+06    -11.8241E+06     1.35450E+06    -12.3612E-03     24.5352E-03    -12.1740E-03     5.85847E-03    -12.3212E-03     24.2482E-03    -12.1182E-03     5.87514E-03
            2000     1.77844E-03     24.1783E-03    -15.0503E+06    -66.5222E+06    -13.8703E+06     1.15293E+06    -12.1996E-03     24.3115E-03    -12.1119E-03     3.87147E-03    -12.1583E-03     24.0209E-03    -12.0630E-03     3.88583E-03
            2001     889.239E-06     24.1753E-03    -15.5642E+06    -67.4545E+06    -15.2117E+06     697.717E+03    -12.0927E-03     24.1679E-03    -12.0752E-03     2.05673E-03    -12.0507E-03     23.8753E-03    -12.0309E-03     2.06545E-03
            2002     16.8395E-03     23.8604E-03    -4.41546E+06     144.287E+06     51.4491E+06    -54.4632E+03    -27.7484E-03     43.0797E-03    -15.3313E-03     175.220E-03    -30.3948E-03     46.0735E-03    -15.2769E-03     176.710E-03
            2003     15.9599E-03     23.7008E-03    -4.96354E+06     89.8894E+06    -5.72648E+06     1.70242E+06    -24.1003E-03     38.8944E-03    -14.7941E-03     132.852E-03    -25.2625E-03     40.3748E-03    -14.9459E-03     133.037E-03
            2004     15.0783E-03     23.6085E-03    -3.96746E+06     36.7268E+06    -9.74561E+06     2.71406E+06    -20.3349E-03     34.9138E-03    -14.5789E-03     80.4964E-03    -20.5715E-03     35.2950E-03    -14.6751E-03     80.4807E-03
            2005     14.1929E-03     23.5484E-03    -3.56338E+06    -5.19681E+06    -7.54247E+06     2.31129E+06    -19.3506E-03     33.7495E-03    -14.3989E-03     55.6756E-03    -19.4101E-03     33.7998E-03    -14.4239E-03     55.6580E-03
            2006     13.3111E-03     23.4998E-03    -4.47475E+06    -34.0644E+06    -11.0516E+06     1.75827E+06    -18.8095E-03     32.9709E-03    -14.1614E-03     50.1684E-03    -18.8015E-03     32.8582E-03    -14.1608E-03     50.1536E-03
            2007     12.4255E-03     23.4518E-03    -4.98540E+06    -38.5413E+06    -3.98480E+06     2.02140E+06    -18.2467E-03     32.1829E-03    -13.9362E-03     46.0355E-03    -18.2306E-03     32.0239E-03    -13.8930E-03     46.0347E-03
            2008     11.5420E-03     23.4102E-03    -4.87678E+06    -41.6035E+06    -2.56444E+06     2.40393E+06    -17.5466E-03     31.2247E-03    -13.6781E-03     39.0520E-03    -17.5185E-03     31.0390E-03    -13.6235E-03     39.0642E-03
            2009     10.6566E-03     23.3746E-03    -5.10056E+06    -52.3983E+06    -4.78606E+06     2.46625E+06    -16.7967E-03     30.2167E-03    -13.4201E-03     34.0270E-03    -16.7460E-03     29.9758E-03    -13.3606E-03     34.0458E-03
            2010     9.77120E-03     23.3426E-03    -5.46731E+06    -57.3058E+06    -1.87012E+06     2.45676E+06    -16.0796E-03     29.2714E-03    -13.1917E-03     29.6414E-03    -16.0252E-03     28.9995E-03    -13.1100E-03     29.6639E-03
            2011     8.88493E-03     23.3152E-03    -6.09662E+06    -57.0984E+06    -975.001E+03     2.62314E+06    -15.3643E-03     28.3255E-03    -12.9612E-03     25.4565E-03    -15.3130E-03     28.0527E-03    -12.8744E-03     25.4839E-03
            2012     7.99824E-03     23.2911E-03    -6.79698E+06    -58.8983E+06    -750.637E+03     2.75623E+06    -14.6996E-03     27.4481E-03    -12.7485E-03     21.6168E-03    -14.6487E-03     27.1661E-03    -12.6570E-03     21.6477E-03
            2013     7.11091E-03     23.2711E-03    -7.73332E+06    -59.8962E+06    -1.04455E+06     2.49928E+06    -14.0787E-03     26.6318E-03    -12.5531E-03     18.1313E-03    -14.0300E-03     26.3460E-03    -12.4602E-03     18.1601E-03
            2014     6.22315E-03     23.2539E-03    -8.87006E+06    -59.2455E+06    -2.46968E+06     2.17841E+06    -13.5200E-03     25.8930E-03    -12.3730E-03     15.0324E-03    -13.4755E-03     25.6138E-03    -12.2866E-03     15.0579E-03
            2015     5.33492E-03     23.2399E-03    -10.0194E+06    -60.4271E+06    -4.26500E+06     2.15133E+06    -13.0460E-03     25.2637E-03    -12.2177E-03     12.2837E-03    -13.0027E-03     24.9827E-03    -12.1369E-03     12.3095E-03
            2016     4.44632E-03     23.2282E-03    -11.3110E+06    -61.8578E+06    -6.45018E+06     1.94620E+06    -12.6507E-03     24.7351E-03    -12.0844E-03     9.82398E-03    -12.6084E-03     24.4518E-03    -12.0106E-03     9.84763E-03
            2017     3.55745E-03     23.2193E-03    -12.6466E+06    -63.0189E+06    -8.74046E+06     1.68530E+06    -12.3309E-03     24.3041E-03    -11.9732E-03     7.60354E-03    -12.2902E-03     24.0201E-03    -11.9072E-03     7.62420E-03
            2018     2.66826E-03     23.2122E-03    -13.8476E+06    -64.2511E+06    -11.1702E+06     1.50627E+06    -12.0809E-03     23.9651E-03    -11.8842E-03     5.56759E-03    -12.0408E-03     23.6802E-03    -11.8268E-03     5.58627E-03
            2019     1.77896E-03     23.2074E-03    -14.7500E+06    -65.3985E+06    -13.4076E+06     1.20766E+06    -11.9035E-03     23.7228E-03    -11.8193E-03     3.68362E-03    -11.8630E-03     23.4366E-03    -11.7701E-03     3.69871E-03
            2020     889.513E-06     23.2043E-03    -15.4191E+06    -65.9821E+06    -14.9721E+06     726.940E+03    -11.8109E-03     23.5801E-03    -11.7692E-03     1.94592E-03    -11.7706E-03     23.2943E-03    -11.7261E-03     1.95504E-03
            2021     16.8404E-03     22.8679E-03    -4.71526E+06     143.358E+06     51.6786E+06    -129.878E+03    -28.0504E-03     43.3896E-03    -15.3391E-03     173.418E-03    -30.6849E-03     46.3664E-03    -15.2818E-03     174.882E-03
            2022     15.9621E-03     22.7219E-03    -5.66782E+06     88.5965E+06    -6.47012E+06     1.00999E+06    -24.9996E-03     39.7535E-03    -14.7539E-03     128.903E-03    -26.1041E-03     41.1713E-03    -14.9065E-03     129.049E-03
            2023     15.0770E-03     22.6263E-03    -3.60900E+06     36.3039E+06    -10.1997E+06     2.45455E+06    -21.1873E-03     35.6626E-03    -14.4753E-03     79.6981E-03    -21.4192E-03     36.0402E-03    -14.5737E-03     79.6730E-03
            2024     14.1972E-03     22.5686E-03    -2.97952E+06    -4.64260E+06    -6.23409E+06     2.72239E+06    -19.4252E-03     33.6917E-03    -14.2665E-03     54.5257E-03    -19.4820E-03     33.7396E-03    -14.2866E-03     54.5140E-03
            2025     13.3110E-03     22.5213E-03    -4.14449E+06    -33.3201E+06    -10.0714E+06     2.18927E+06    -18.8943E-03     32.9057E-03    -14.0114E-03     49.4406E-03    -18.8862E-03     32.7938E-03    -14.0074E-03     49.4321E-03
            2026     12.4289E-03     22.4724E-03    -4.68548E+06    -38.8073E+06    -4.36811E+06     1.80348E+06    -18.4279E-03     32.1865E-03    -13.7586E-03     44.7265E-03    -18.4088E-03     32.0257E-03    -13.7174E-03     44.7230E-03
            2027     11.5439E-03     22.4331E-03    -4.66973E+06    -41.6985E+06    -2.75080E+06     2.26069E+06    -17.5143E-03     30.9949E-03    -13.4807E-03     37.9621E-03    -17.4841E-03     30.8082E-03    -13.4272E-03     37.9731E-03
            2028     10.6591E-03     22.3976E-03    -4.68099E+06    -51.9899E+06    -4.65670E+06     2.61839E+06    -16.7695E-03     29.9773E-03    -13.2078E-03     33.0597E-03    -16.7171E-03     29.7373E-03    -13.1489E-03     33.0809E-03
            2029     9.77334E-03     22.3671E-03    -4.98089E+06    -57.2212E+06    -1.93723E+06     2.70021E+06    -15.9907E-03     28.9545E-03    -12.9638E-03     28.6662E-03    -15.9337E-03     28.6823E-03    -12.8833E-03     28.6923E-03
            2030     8.88714E-03     22.3401E-03    -5.58362E+06    -57.0230E+06    -1.07783E+06     2.92469E+06    -15.2349E-03     27.9553E-03    -12.7203E-03     24.5517E-03    -15.1809E-03     27.6822E-03    -12.6349E-03     24.5832E-03
            2031     8.00019E-03     22.3173E-03    -6.42086E+06    -58.3961E+06    -774.159E+03     2.92382E+06    -14.5357E-03     27.0321E-03    -12.4964E-03     20.7676E-03    -14.4834E-03     26.7520E-03    -12.4063E-03     20.8008E-03
            2032     7.11281E-03     22.2977E-03    -7.31146E+06    -59.1346E+06    -644.938E+03     2.70834E+06    -13.8847E-03     26.1776E-03    -12.2928E-03     17.3501E-03    -13.8355E-03     25.8943E-03    -12.1997E-03     17.3818E-03
            2033     6.22482E-03     22.2815E-03    -8.43141E+06    -58.7005E+06    -2.17146E+06     2.55173E+06    -13.2987E-03     25.4031E-03    -12.1043E-03     14.3576E-03    -13.2532E-03     25.1255E-03    -12.0179E-03     14.3880E-03
            2034     5.33640E-03     22.2678E-03    -9.70901E+06    -59.9472E+06    -3.98202E+06     2.41591E+06    -12.7980E-03     24.7410E-03    -11.9430E-03     11.7103E-03    -12.7542E-03     24.4615E-03    -11.8619E-03     11.7396E-03
            2035     4.44760E-03     22.2570E-03    -10.9335E+06    -61.0663E+06    -6.02668E+06     2.31793E+06    -12.3859E-03     24.1917E-03    -11.8058E-03     9.36264E-03    -12.3435E-03     23.9112E-03    -11.7315E-03     9.39117E-03
            2036     3.55841E-03     22.2481E-03    -12.2532E+06    -62.1619E+06    -8.43480E+06     2.04509E+06    -12.0645E-03     23.7545E-03    -11.6900E-03     7.23313E-03    -12.0235E-03     23.4738E-03    -11.6243E-03     7.25850E-03
            2037     2.66910E-03     22.2416E-03    -13.4521E+06    -63.3431E+06    -10.7860E+06     1.68655E+06    -11.8047E-03     23.4019E-03    -11.5972E-03     5.27879E-03    -11.7645E-03     23.1204E-03    -11.5398E-03     5.29984E-03
            2038     1.77947E-03     22.2369E-03    -14.4700E+06    -64.2389E+06    -13.0875E+06     1.36212E+06    -11.6101E-03     23.1412E-03    -11.5310E-03     3.50737E-03    -11.5704E-03     22.8600E-03    -11.4823E-03     3.52449E-03
            2039     889.769E-06     22.2341E-03    -15.2584E+06    -64.3938E+06    -14.8280E+06     833.230E+03    -11.5124E-03     23.0032E-03    -11.4908E-03     1.88412E-03    -11.4738E-03     22.7249E-03    -11.4495E-03     1.89463E-03
            2040     16.8413E-03     21.8815E-03    -3.70211E+06     143.745E+06     52.8652E+06     366.754E+03    -28.2714E-03     43.5762E-03    -15.3048E-03     172.267E-03    -30.8684E-03     46.5171E-03    -15.2435E-03     173.684E-03
            2041     15.9594E-03     21.7387E-03    -7.16574E+06     88.3337E+06    -6.78775E+06     372.778E+03    -25.2892E-03     39.9827E-03    -14.6936E-03     125.559E-03    -26.3532E-03     41.3547E-03    -14.8452E-03     125.678E-03
            2042     15.0827E-03     21.6433E-03    -8.11731E+06     33.8851E+06    -14.0334E+06     1.13069E+06    -21.6901E-03     36.0595E-03    -14.3693E-03     77.6337E-03    -21.9313E-03     36.4329E-03    -14.4769E-03     77.5873E-03
            2043     14.1963E-03     21.5910E-03    -6.35669E+06    -5.70949E+06    -8.89886E+06     2.40249E+06    -19.6886E-03     33.8177E-03    -14.1291E-03     53.7656E-03    -19.7547E-03     33.8668E-03    -14.1561E-03     53.7500E-03
            2044     13.3154E-03     21.5402E-03    -4.18305E+06    -31.7223E+06    -9.87912E+06     2.78029E+06    -19.2628E-03     33.1109E-03    -13.8481E-03     48.7516E-03    -19.2565E-03     33.0057E-03    -13.8454E-03     48.7503E-03
            2045     12.4307E-03     21.4951E-03    -3.50253E+06    -38.1397E+06    -4.01477E+06     2.19901E+06    -18.3686E-03     31.9409E-03    -13.5722E-03     43.5998E-03    -18.3440E-03     31.7801E-03    -13.5319E-03     43.6023E-03
            2046     11.5464E-03     21.4551E-03    -4.27598E+06    -42.3251E+06    -3.09331E+06     2.17371E+06    -17.4709E-03     30.7530E-03    -13.2821E-03     37.0161E-03    -17.4368E-03     30.5625E-03    -13.2300E-03     37.0266E-03
            2047     10.6612E-03     21.4216E-03    -4.20750E+06    -52.0852E+06    -4.68439E+06     2.65403E+06    -16.7156E-03     29.7120E-03    -12.9964E-03     32.0096E-03    -16.6604E-03     29.4705E-03    -12.9382E-03     32.0316E-03
            2048     9.77563E-03     21.3914E-03    -4.39797E+06    -56.9589E+06    -1.80699E+06     2.97854E+06    -15.9027E-03     28.6414E-03    -12.7387E-03     27.6829E-03    -15.8431E-03     28.3692E-03    -12.6587E-03     27.7129E-03
            2049     8.88918E-03     21.3659E-03    -4.91506E+06    -57.0230E+06    -821.491E+03     3.14231E+06    -15.1098E-03     27.5932E-03    -12.4833E-03     23.6056E-03    -15.0527E-03     27.3186E-03    -12.3976E-03     23.6402E-03
            2050     8.00226E-03     21.3435E-03    -5.53124E+06    -57.6230E+06    -245.101E+03     3.16107E+06    -14.3646E-03     26.6133E-03    -12.2487E-03     19.8858E-03    -14.3097E-03     26.3349E-03    -12.1583E-03     19.9223E-03
            2051     7.11461E-03     21.3251E-03    -6.48520E+06    -58.5896E+06     219.932E+03     2.92056E+06    -13.6767E-03     25.7160E-03    -12.0393E-03     16.5675E-03    -13.6253E-03     25.4330E-03    -11.9439E-03     16.6020E-03
            2052     6.22647E-03     21.3093E-03    -7.63256E+06    -58.2240E+06    -1.27459E+06     2.94246E+06    -13.0699E-03     24.9152E-03    -11.8453E-03     13.6891E-03    -13.0224E-03     24.6376E-03    -11.7562E-03     13.7247E-03
            2053     5.33785E-03     21.2966E-03    -8.95046E+06    -59.2226E+06    -3.45835E+06     2.88605E+06    -12.5578E-03     24.2348E-03    -11.6770E-03     11.1525E-03    -12.5120E-03     23.9570E-03    -11.5955E-03     11.1881E-03
            2054     4.44876E-03     21.2859E-03    -10.4217E+06    -60.3565E+06    -5.60380E+06     2.70301E+06    -12.1354E-03     23.6706E-03    -11.5352E-03     8.90236E-03    -12.0921E-03     23.3923E-03    -11.4606E-03     8.93594E-03
            2055     3.55947E-03     21.2777E-03    -11.7530E+06    -61.0447E+06    -8.19635E+06     2.42891E+06    -11.7885E-03     23.2046E-03    -11.4161E-03     6.87168E-03    -11.7470E-03     22.9284E-03    -11.3515E-03     6.90208E-03
            2056     2.66975E-03     21.2714E-03    -12.9600E+06    -62.2782E+06    -10.6093E+06     1.96914E+06    -11.5289E-03     22.8530E-03    -11.3240E-03     5.02437E-03    -11.4881E-03     22.5758E-03    -11.2680E-03     5.04912E-03
            2057     1.77999E-03     21.2671E-03    -13.9300E+06    -62.8998E+06    -12.6046E+06     1.54287E+06    -11.3504E-03     22.6060E-03    -11.2556E-03     3.33257E-03    -11.3106E-03     22.3300E-03    -11.2073E-03     3.35205E-03
            2058     889.981E-06     21.2643E-03    -14.5769E+06    -62.6071E+06    -14.2189E+06     964.039E+03    -11.2377E-03     22.4446E-03    -11.2069E-03     1.78382E-03    -11.1992E-03     22.1733E-03    -11.1661E-03     1.79603E-03
            2059     16.8424E-03     20.9005E-03    -4.01328E+06     142.812E+06     53.1874E+06     960.364E+03    -29.1548E-03     44.4055E-03    -15.2507E-03     170.254E-03    -31.6858E-03     47.2751E-03    -15.1861E-03     171.599E-03
            2060     15.9648E-03     20.7506E-03    -5.26346E+06     88.3569E+06    -4.18898E+06     923.183E+03    -25.2072E-03     39.8228E-03    -14.6156E-03     122.886E-03    -26.2185E-03     41.1414E-03    -14.7570E-03     122.986E-03
            2061     15.0798E-03     20.6654E-03    -6.57953E+06     33.9267E+06    -12.8136E+06     791.947E+03    -21.7184E-03     35.9939E-03    -14.2755E-03     75.4410E-03    -21.9461E-03     36.3559E-03    -14.3792E-03     75.3912E-03
            2062     14.2002E-03     20.6082E-03    -7.39486E+06    -6.36602E+06    -9.46815E+06     1.72399E+06    -20.2211E-03     34.2245E-03    -14.0035E-03     52.8149E-03    -20.2889E-03     34.2710E-03    -14.0309E-03     52.7889E-03
            2063     13.3161E-03     20.5623E-03    -5.63092E+06    -31.4405E+06    -10.3454E+06     2.26369E+06    -19.3458E-03     33.0379E-03    -13.6920E-03     47.8015E-03    -19.3451E-03     32.9355E-03    -13.6900E-03     47.7937E-03
            2064     12.4329E-03     20.5160E-03    -4.33462E+06    -37.9926E+06    -4.48336E+06     2.29505E+06    -18.4407E-03     31.8377E-03    -13.3970E-03     42.6503E-03    -18.4189E-03     31.6787E-03    -13.3581E-03     42.6546E-03
            2065     11.5486E-03     20.4786E-03    -3.94550E+06    -42.4117E+06    -2.73096E+06     2.38723E+06    -17.5019E-03     30.5928E-03    -13.0909E-03     35.9568E-03    -17.4660E-03     30.4003E-03    -13.0374E-03     35.9705E-03
            2066     10.6635E-03     20.4450E-03    -4.04041E+06    -52.3824E+06    -4.53480E+06     2.53560E+06    -16.6355E-03     29.4250E-03    -12.7895E-03     30.9918E-03    -16.5788E-03     29.1812E-03    -12.7304E-03     31.0127E-03
            2067     9.77772E-03     20.4166E-03    -3.85673E+06    -56.8424E+06    -1.21529E+06     2.92615E+06    -15.8180E-03     28.3381E-03    -12.5202E-03     26.6428E-03    -15.7565E-03     28.0647E-03    -12.4382E-03     26.6724E-03
            2068     8.89135E-03     20.3914E-03    -4.13026E+06    -56.8690E+06     29.6990E+03     3.25994E+06    -14.9712E-03     27.2251E-03    -12.2539E-03     22.6171E-03    -14.9115E-03     26.9487E-03    -12.1653E-03     22.6534E-03
            2069     8.00416E-03     20.3705E-03    -4.70055E+06    -56.9712E+06     374.060E+03     3.28591E+06    -14.1686E-03     26.1780E-03    -12.0094E-03     19.0202E-03    -14.1113E-03     25.9007E-03    -11.9181E-03     19.0586E-03
            2070     7.11640E-03     20.3525E-03    -5.44435E+06    -57.9887E+06     842.371E+03     3.17230E+06    -13.4650E-03     25.2597E-03    -11.7947E-03     15.8102E-03    -13.4102E-03     24.9773E-03    -11.6985E-03     15.8481E-03
            2071     6.22804E-03     20.3379E-03    -6.57249E+06    -58.0782E+06    -466.770E+03     3.33701E+06    -12.8453E-03     24.4435E-03    -11.5982E-03     13.0249E-03    -12.7938E-03     24.1639E-03    -11.5068E-03     13.0657E-03
            2072     5.33914E-03     20.3255E-03    -7.94459E+06    -58.3266E+06    -2.73430E+06     3.50660E+06    -12.3260E-03     23.7509E-03    -11.4249E-03     10.6035E-03    -12.2775E-03     23.4751E-03    -11.3425E-03     10.6471E-03
            2073     4.45000E-03     20.3157E-03    -9.31623E+06    -59.4345E+06    -5.04263E+06     3.23171E+06    -11.8906E-03     23.1700E-03    -11.2794E-03     8.45566E-03    -11.8439E-03     22.8938E-03    -11.2049E-03     8.49615E-03
            2074     3.56030E-03     20.3077E-03    -10.6505E+06    -59.8531E+06    -7.51010E+06     2.90920E+06    -11.5310E-03     22.6909E-03    -11.1599E-03     6.52092E-03    -11.4867E-03     22.4181E-03    -11.0953E-03     6.55757E-03
            2075     2.67050E-03     20.3018E-03    -11.9049E+06    -60.8390E+06    -9.83176E+06     2.43651E+06    -11.2751E-03     22.3434E-03    -11.0682E-03     4.76123E-03    -11.2323E-03     22.0708E-03    -11.0119E-03     4.79205E-03
            2076     1.78039E-03     20.2975E-03    -13.0522E+06    -61.3397E+06    -11.8664E+06     1.76189E+06    -11.1054E-03     22.1015E-03    -10.9961E-03     3.14976E-03    -11.0645E-03     21.8310E-03    -10.9476E-03     3.17210E-03
            2077     890.334E-06     20.2951E-03    -13.6529E+06    -60.7080E+06    -13.3026E+06     1.02960E+06    -10.9822E-03     21.9192E-03    -10.9370E-03     1.68337E-03    -10.9431E-03     21.6548E-03    -10.8957E-03     1.69644E-03
            2078     16.8436E-03     19.9068E-03    -3.89173E+06     141.556E+06     52.9563E+06     1.05707E+06    -29.7684E-03     44.9756E-03    -15.2072E-03     168.385E-03    -32.2467E-03     47.7892E-03    -15.1420E-03     169.663E-03
            2079     15.9635E-03     19.7725E-03    -5.50048E+06     87.8817E+06    -4.58302E+06     1.65441E+06    -25.4653E-03     40.0037E-03    -14.5384E-03     120.425E-03    -26.4308E-03     41.2751E-03    -14.6807E-03     120.517E-03
            2080     15.0844E-03     19.6802E-03    -4.77248E+06     35.5502E+06    -10.6965E+06     1.59077E+06    -22.1037E-03     36.2802E-03    -14.1765E-03     73.9465E-03    -22.3207E-03     36.6375E-03    -14.2746E-03     73.9042E-03
            2081     14.2010E-03     19.6297E-03    -3.91993E+06    -6.11015E+06    -7.96964E+06     1.06934E+06    -20.3673E-03     34.2434E-03    -13.8761E-03     51.2279E-03    -20.4183E-03     34.2820E-03    -13.9014E-03     51.1935E-03
            2082     13.3187E-03     19.5818E-03    -3.97976E+06    -32.0541E+06    -10.4187E+06     1.00867E+06    -19.4465E-03     32.9891E-03    -13.5425E-03     46.7288E-03    -19.4356E-03     32.8805E-03    -13.5424E-03     46.7053E-03
            2083     12.4351E-03     19.5385E-03    -3.93072E+06    -38.0772E+06    -3.86286E+06     1.77597E+06    -18.5554E-03     31.7877E-03    -13.2323E-03     41.3205E-03    -18.5316E-03     31.6260E-03    -13.1907E-03     41.3184E-03
            2084     11.5507E-03     19.5009E-03    -3.60005E+06    -42.5105E+06    -1.98477E+06     2.38158E+06    -17.4883E-03     30.3969E-03    -12.9086E-03     34.8072E-03    -17.4511E-03     30.2018E-03    -12.8516E-03     34.8213E-03
            2085     10.6657E-03     19.4696E-03    -3.63461E+06    -52.0926E+06    -3.82059E+06     2.50450E+06    -16.6031E-03     29.1944E-03    -12.5914E-03     29.9561E-03    -16.5455E-03     28.9502E-03    -12.5297E-03     29.9771E-03
            2086     9.77986E-03     19.4412E-03    -3.86347E+06    -57.1614E+06    -1.35235E+06     2.67356E+06    -15.7004E-03     28.0071E-03    -12.3067E-03     25.6152E-03    -15.6381E-03     27.7321E-03    -12.2250E-03     25.6419E-03
            2087     8.89332E-03     19.4180E-03    -3.97415E+06    -56.8233E+06     303.257E+03     3.16301E+06    -14.8026E-03     26.8362E-03    -12.0336E-03     21.6410E-03    -14.7424E-03     26.5594E-03    -11.9440E-03     21.6764E-03
            2088     8.00599E-03     19.3975E-03    -4.30511E+06    -56.2998E+06     452.245E+03     3.26073E+06    -13.9768E-03     25.7582E-03    -11.7814E-03     18.1554E-03    -13.9185E-03     25.4834E-03    -11.6913E-03     18.1936E-03
            2089     7.11803E-03     19.3808E-03    -4.90482E+06    -57.6933E+06     660.694E+03     3.28396E+06    -13.2563E-03     24.8182E-03    -11.5619E-03     15.0478E-03    -13.1988E-03     24.5366E-03    -11.4678E-03     15.0874E-03
            2090     6.22947E-03     19.3666E-03    -5.86919E+06    -57.9807E+06    -150.090E+03     3.75757E+06    -12.6359E-03     24.0004E-03    -11.3645E-03     12.3572E-03    -12.5814E-03     23.7197E-03    -11.2727E-03     12.4036E-03
            2091     5.34051E-03     19.3551E-03    -6.97005E+06    -57.4677E+06    -2.17047E+06     3.94272E+06    -12.0940E-03     23.2827E-03    -11.1887E-03     10.0506E-03    -12.0426E-03     23.0089E-03    -11.1062E-03     10.0999E-03
            2092     4.45092E-03     19.3456E-03    -8.16234E+06    -58.3493E+06    -4.38012E+06     3.82236E+06    -11.6538E-03     22.6967E-03    -11.0429E-03     7.99651E-03    -11.6039E-03     22.4234E-03    -10.9684E-03     8.04470E-03
            2093     3.56123E-03     19.3383E-03    -9.44586E+06    -58.4713E+06    -6.71807E+06     3.47731E+06    -11.3100E-03     22.2319E-03    -10.9218E-03     6.16192E-03    -11.2628E-03     21.9630E-03    -10.8570E-03     6.20597E-03
            2094     2.67109E-03     19.3326E-03    -10.5655E+06    -59.1439E+06     -8.6429E+06     2.91737E+06    -11.0486E-03     21.8758E-03    -10.8272E-03     4.49969E-03    -11.0031E-03     21.6079E-03    -10.7693E-03     4.53676E-03
            2095     1.78091E-03     19.3287E-03    -11.3950E+06    -59.3395E+06    -10.3090E+06     2.05655E+06    -10.8515E-03     21.6092E-03    -10.7576E-03     2.96793E-03    -10.8075E-03     21.3439E-03    -10.7066E-03     2.99410E-03
            2096     890.390E-06     19.3262E-03    -12.1257E+06    -58.6500E+06    -11.7555E+06     1.06206E+06    -10.7330E-03     21.4499E-03    -10.7170E-03     1.57856E-03    -10.6915E-03     21.1913E-03    -10.6731E-03     1.59207E-03
            2097     16.8436E-03     18.9229E-03    -4.01584E+06     140.649E+06     52.3059E+06      832.78E+03    -30.1084E-03     45.2919E-03    -15.1835E-03     166.001E-03    -32.5205E-03     48.0375E-03    -15.1201E-03     167.201E-03
            2098     15.9655E-03     18.7855E-03    -5.89987E+06     87.3998E+06    -5.13955E+06     1.68738E+06    -26.0358E-03     40.5159E-03    -14.4801E-03     117.225E-03    -26.9613E-03     41.7458E-03    -14.6240E-03     117.290E-03
            2099     15.0845E-03     18.6997E-03    -6.32278E+06     35.8370E+06    -11.8987E+06     2.00542E+06    -22.4395E-03     36.5187E-03    -14.0792E-03     72.5594E-03    -22.6565E-03     36.8750E-03    -14.1815E-03     72.5201E-03
            2100     14.2033E-03     18.6483E-03    -5.56493E+06    -5.21236E+06    -10.3796E+06     532.939E+03    -20.5704E-03     34.3174E-03    -13.7470E-03     50.1476E-03    -20.6254E-03     34.3643E-03    -13.7833E-03     50.1067E-03
            2101     13.3203E-03     18.6031E-03    -4.13036E+06    -32.1889E+06    -12.2775E+06     372.892E+03    -19.6787E-03     33.0701E-03    -13.3914E-03     45.6808E-03    -19.6645E-03     32.9626E-03    -13.4001E-03     45.6495E-03
            2102     12.4371E-03     18.5596E-03    -3.40331E+06    -38.7564E+06    -4.09620E+06     1.51748E+06    -18.5644E-03     31.6335E-03    -13.0691E-03     40.0813E-03    -18.5356E-03     31.4670E-03    -13.0285E-03     40.0767E-03
            2103     11.5529E-03     18.5248E-03    -3.39652E+06    -42.6069E+06    -2.11452E+06     2.17842E+06    -17.4911E-03     30.2223E-03    -12.7312E-03     33.6603E-03    -17.4520E-03     30.0260E-03    -12.6751E-03     33.6723E-03
            2104     10.6676E-03     18.4932E-03    -3.34451E+06    -52.0198E+06    -3.68559E+06     2.53433E+06    -16.5427E-03     28.9441E-03    -12.4014E-03     28.8591E-03    -16.4836E-03     28.6992E-03    -12.3395E-03     28.8808E-03
            2105     9.78191E-03     18.4672E-03    -3.51326E+06    -57.3025E+06    -1.25962E+06     2.84244E+06    -15.5697E-03     27.6768E-03    -12.1071E-03     24.5263E-03    -15.5053E-03     27.4001E-03    -12.0252E-03     24.5555E-03
            2106     8.89507E-03     18.4442E-03    -3.91809E+06    -56.6938E+06     267.370E+03     2.88338E+06    -14.6390E-03     26.4661E-03    -11.8271E-03     20.6759E-03    -14.5785E-03     26.1897E-03    -11.7379E-03     20.7079E-03
            2107     8.00774E-03     18.4254E-03    -4.02191E+06    -55.8652E+06     682.164E+03     2.97261E+06    -13.8098E-03     25.3798E-03    -11.5699E-03     17.2380E-03    -13.7510E-03     25.1064E-03    -11.4797E-03     17.2727E-03
            2108     7.11954E-03     18.4091E-03    -4.52953E+06    -57.7342E+06     422.938E+03     3.45413E+06    -13.0641E-03     24.4082E-03    -11.3440E-03     14.2556E-03    -13.0043E-03     24.1261E-03    -11.2516E-03     14.2975E-03
            2109     6.23089E-03     18.3960E-03    -5.29350E+06    -57.8674E+06    -300.665E+03     3.89452E+06    -12.4281E-03     23.5721E-03    -11.1440E-03     11.6728E-03    -12.3706E-03     23.2913E-03    -11.0539E-03     11.7211E-03
            2110     5.34156E-03     18.3850E-03    -6.25140E+06    -56.8087E+06    -1.85018E+06     4.34679E+06    -11.8854E-03     22.8530E-03    -10.9676E-03     9.45227E-03    -11.8319E-03     22.5810E-03    -10.8854E-03     9.50693E-03
            2111     4.45204E-03     18.3762E-03    -7.38262E+06    -57.1312E+06    -3.78685E+06     4.32348E+06    -11.4375E-03     22.2580E-03    -10.8205E-03     7.50542E-03    -11.3862E-03     21.9887E-03    -10.7459E-03     7.56015E-03
            2112     3.56191E-03     18.3691E-03    -8.38346E+06    -56.9266E+06    -5.69542E+06     3.90235E+06    -11.0892E-03     21.7889E-03    -10.6997E-03     5.78999E-03    -11.0404E-03     21.5248E-03    -10.6335E-03     5.83958E-03
            2113     2.67177E-03     18.3639E-03    -9.21451E+06    -57.1203E+06    -7.45021E+06     3.18017E+06    -10.8265E-03     21.4311E-03    -10.6046E-03     4.24000E-03    -10.7790E-03     21.1697E-03    -10.5456E-03     4.28050E-03
            2114     1.78122E-03     18.3602E-03    -9.80464E+06    -56.9911E+06    -8.79550E+06     2.16459E+06    -10.6376E-03     21.1708E-03    -10.5332E-03     2.77412E-03    -10.5913E-03     20.9128E-03    -10.4803E-03     2.80171E-03
            2115     890.708E-06     18.3580E-03    -10.1189E+06    -56.4623E+06    -9.92171E+06     1.14674E+06    -10.5179E-03     20.9993E-03    -10.4814E-03     1.44518E-03    -10.4723E-03     20.7461E-03    -10.4345E-03     1.45980E-03
            2116     16.8434E-03     17.9317E-03    -3.56771E+06     139.314E+06     51.2696E+06     1.09879E+06    -30.6264E-03     45.7806E-03    -15.1541E-03     163.238E-03    -32.9557E-03     48.4432E-03    -15.0946E-03     164.367E-03
            2117     15.9664E-03     17.8022E-03    -4.80304E+06     86.4672E+06    -5.80485E+06     2.10989E+06    -26.2339E-03     40.6560E-03    -14.4221E-03     113.971E-03    -27.1035E-03     41.8325E-03    -14.5695E-03     114.021E-03
            2118     15.0861E-03     17.7168E-03    -4.70858E+06     37.6172E+06    -11.1793E+06     1.84302E+06    -22.6880E-03     36.6889E-03    -14.0009E-03     70.5152E-03    -22.8930E-03     37.0432E-03    -14.1045E-03     70.4728E-03
            2119     14.2042E-03     17.6679E-03    -5.26619E+06    -3.61809E+06    -10.2435E+06     803.739E+03    -20.9286E-03     34.5696E-03    -13.6409E-03     48.7188E-03    -20.9824E-03     34.6215E-03    -13.6793E-03     48.6811E-03
            2120     13.3224E-03     17.6232E-03    -5.55360E+06    -33.1035E+06    -13.4235E+06     359.668E+03    -19.8112E-03     33.0710E-03    -13.2598E-03     44.3095E-03    -19.7997E-03     32.9613E-03    -13.2709E-03     44.2785E-03
            2121     12.4389E-03     17.5821E-03    -4.99461E+06    -39.7367E+06    -5.50537E+06     1.01879E+06    -18.6144E-03     31.5332E-03    -12.9188E-03     38.9022E-03    -18.5891E-03     31.3651E-03    -12.8814E-03     38.8918E-03
            2122     11.5546E-03     17.5475E-03    -4.38509E+06    -42.7740E+06    -2.79319E+06     1.87115E+06    -17.5226E-03     30.0888E-03    -12.5661E-03     32.4873E-03    -17.4867E-03     29.8935E-03    -12.5117E-03     32.4959E-03
            2123     10.6697E-03     17.5182E-03    -4.05557E+06    -52.2371E+06    -4.05753E+06     2.32989E+06    -16.4660E-03     28.6903E-03    -12.2242E-03     27.6773E-03    -16.4093E-03     28.4455E-03    -12.1629E-03     27.6969E-03
            2124     9.78355E-03     17.4926E-03    -3.57811E+06    -57.2660E+06    -1.14592E+06     2.51945E+06    -15.4569E-03     27.3790E-03    -11.9222E-03     23.3989E-03    -15.3928E-03     27.1023E-03    -11.8397E-03     23.4243E-03
            2125     8.89692E-03     17.4714E-03    -3.21593E+06    -56.1986E+06     744.348E+03     2.53102E+06    -14.5155E-03     26.1499E-03    -11.6344E-03     19.5987E-03    -14.4528E-03     25.8742E-03    -11.5445E-03     19.6264E-03
            2126     8.00920E-03     17.4530E-03    -3.59193E+06    -56.0895E+06     860.385E+03     2.85359E+06    -13.6497E-03     25.0204E-03    -11.3707E-03     16.2598E-03    -13.5886E-03     24.7449E-03    -11.2799E-03     16.2932E-03
            2127     7.12108E-03     17.4382E-03    -4.18215E+06    -57.8837E+06     467.764E+03     3.52506E+06    -12.8979E-03     24.0369E-03    -11.1389E-03     13.3732E-03    -12.8362E-03     23.7534E-03    -11.0466E-03     13.4162E-03
            2128     6.23206E-03     17.4255E-03    -4.93165E+06    -57.7085E+06    -483.846E+03     4.08268E+06    -12.2363E-03     23.1694E-03    -10.9331E-03     10.9198E-03    -12.1769E-03     22.8891E-03    -10.8447E-03     10.9706E-03
            2129     5.34282E-03     17.4154E-03    -5.61401E+06    -56.3621E+06    -1.29397E+06     4.41090E+06    -11.6949E-03     22.4512E-03    -10.7563E-03     8.80241E-03    -11.6396E-03     22.1796E-03    -10.6729E-03     8.85799E-03
            2130     4.45285E-03     17.4070E-03    -6.04848E+06    -55.7121E+06    -2.28631E+06     4.40259E+06    -11.2424E-03     21.8499E-03    -10.6075E-03     6.96292E-03    -11.1887E-03     21.5835E-03    -10.5294E-03     7.01874E-03
            2131     3.56280E-03     17.4005E-03    -6.49868E+06    -55.2892E+06    -3.76790E+06     3.90461E+06    -10.8772E-03     21.3623E-03    -10.4851E-03     5.35571E-03    -10.8241E-03     21.1008E-03    -10.4144E-03     5.40539E-03
            2132     2.67220E-03     17.3956E-03    -6.91187E+06    -54.8776E+06    -5.28767E+06     3.15336E+06    -10.6104E-03     20.9997E-03    -10.3893E-03     3.89227E-03    -10.5578E-03     20.7430E-03    -10.3261E-03     3.93246E-03
            2133     1.78168E-03     17.3921E-03    -7.28565E+06    -54.6520E+06    -6.51312E+06     2.08601E+06    -10.4247E-03     20.7426E-03    -10.3179E-03     2.55485E-03    -10.3725E-03     20.4893E-03    -10.2606E-03     2.58145E-03
            2134     890.868E-06     17.3900E-03    -7.47049E+06    -54.1941E+06    -7.21432E+06     1.16140E+06    -10.3105E-03     20.5718E-03    -10.2613E-03     1.35860E-03    -10.2588E-03     20.3222E-03    -10.2080E-03     1.37342E-03
            2135     16.8457E-03     16.9447E-03    -3.96781E+06     137.993E+06     51.3993E+06     1.05819E+06    -31.2407E-03     46.3737E-03    -15.1330E-03     160.746E-03    -33.4976E-03     48.9575E-03    -15.0704E-03     161.794E-03
            2136     15.9664E-03     16.8163E-03    -5.47855E+06     85.8787E+06    -6.64754E+06     1.91412E+06    -26.6110E-03     40.9696E-03    -14.3585E-03     110.040E-03    -27.4341E-03     42.0975E-03    -14.5084E-03     110.068E-03
            2137     15.0871E-03     16.7349E-03    -5.42227E+06     38.7785E+06    -12.1977E+06     1.70662E+06    -22.8248E-03     36.7322E-03    -13.9074E-03     67.8992E-03    -23.0237E-03     37.0849E-03    -14.0167E-03     67.8547E-03
            2138     14.2062E-03     16.6863E-03    -4.75808E+06    -2.09085E+06    -9.85815E+06     1.18924E+06    -20.9098E-03     34.4489E-03    -13.5392E-03     47.3353E-03    -20.9609E-03     34.5044E-03    -13.5785E-03     47.3038E-03
            2139     13.3236E-03     16.6441E-03    -4.21536E+06    -33.3346E+06    -13.6182E+06     1.01881E+06    -19.9699E-03     33.1130E-03    -13.1432E-03     42.8709E-03    -19.9495E-03     32.9989E-03    -13.1568E-03     42.8489E-03
            2140     12.4405E-03     16.6040E-03    -4.38642E+06    -40.5242E+06    -5.77642E+06     1.03030E+06    -18.7664E-03     31.5493E-03    -12.7829E-03     37.5040E-03    -18.7357E-03     31.3759E-03    -12.7466E-03     37.4943E-03
            2141     11.5565E-03     16.5710E-03    -4.67536E+06    -43.2006E+06    -3.18128E+06     1.56319E+06    -17.5380E-03     29.9501E-03    -12.4121E-03     31.0615E-03    -17.5017E-03     29.7531E-03    -12.3586E-03     31.0667E-03
            2142     10.6713E-03     16.5428E-03    -4.41966E+06    -52.0835E+06    -4.34561E+06     1.85096E+06    -16.4458E-03     28.5015E-03    -12.0557E-03     26.2897E-03    -16.3903E-03     28.2581E-03    -11.9955E-03     26.3035E-03
            2143     9.78541E-03     16.5188E-03    -3.92505E+06    -56.8431E+06    -1.36097E+06     1.62186E+06    -15.4005E-03     27.1407E-03    -11.7402E-03     22.0764E-03    -15.3382E-03     26.8667E-03    -11.6589E-03     22.0905E-03
            2144     8.89843E-03     16.4983E-03    -3.57730E+06    -56.4535E+06     470.020E+03     1.92315E+06    -14.4127E-03     25.8543E-03    -11.4416E-03     18.2984E-03    -14.3509E-03     25.5780E-03    -11.3522E-03     18.3185E-03
            2145     8.01090E-03     16.4815E-03    -3.46212E+06    -56.5995E+06     1.08449E+06     2.74967E+06    -13.5200E-03     24.6904E-03    -11.1704E-03     15.0587E-03    -13.4577E-03     24.4117E-03    -11.0779E-03     15.0909E-03
            2146     7.12235E-03     16.4672E-03    -3.84376E+06    -58.1918E+06     992.328E+03     3.56639E+06    -12.7358E-03     23.6675E-03    -10.9317E-03     12.2691E-03    -12.6726E-03     23.3812E-03    -10.8368E-03     12.3128E-03
            2147     6.23352E-03     16.4557E-03    -4.41133E+06    -57.3258E+06     603.283E+03     4.06019E+06    -12.0654E-03     22.7858E-03    -10.7205E-03     9.97376E-03    -12.0055E-03     22.5051E-03    -10.6279E-03     10.0245E-03
            2148     5.34378E-03     16.4460E-03    -4.74378E+06    -55.6212E+06    -292.896E+03     3.98724E+06    -11.5049E-03     22.0405E-03    -10.5357E-03     7.99864E-03    -11.4477E-03     21.7699E-03    -10.4496E-03     8.04885E-03
            2149     4.45398E-03     16.4384E-03    -4.78161E+06    -54.4841E+06    -977.947E+03     3.73511E+06    -11.0447E-03     21.4257E-03    -10.3810E-03     6.26929E-03    -10.9883E-03     21.1617E-03    -10.3000E-03     6.31659E-03
            2150     3.56347E-03     16.4323E-03    -4.70636E+06    -53.6242E+06    -1.98455E+06     3.42129E+06    -10.6697E-03     20.9230E-03    -10.2532E-03     4.81288E-03    -10.6127E-03     20.6646E-03    -10.1786E-03     4.85638E-03
            2151     2.67301E-03     16.4276E-03    -4.64552E+06    -52.8926E+06    -3.09063E+06     2.74274E+06    -10.3786E-03     20.5331E-03    -10.1545E-03     3.49111E-03    -10.3207E-03     20.2799E-03    -10.0865E-03     3.52605E-03
            2152     1.78201E-03     16.4245E-03    -4.60582E+06    -52.5281E+06    -3.94839E+06     1.91774E+06    -10.1748E-03     20.2637E-03    -10.0889E-03     2.28823E-03    -10.1160E-03     20.0135E-03    -10.0258E-03     2.31269E-03
            2153     891.019E-06     16.4225E-03    -4.54149E+06    -51.9432E+06    -4.49943E+06     1.00273E+06    -10.0615E-03     20.1261E-03    -10.0646E-03     1.20562E-03    -10.0023E-03     19.8795E-03    -10.0051E-03     1.21841E-03
            2154     16.8433E-03     15.9540E-03    -4.26151E+06     136.413E+06     51.5941E+06     1.17301E+06    -32.0993E-03     47.2038E-03    -15.1045E-03     156.895E-03    -34.2662E-03     49.6904E-03    -15.0382E-03     157.845E-03
            2155     15.9693E-03     15.8306E-03    -6.08879E+06     85.5187E+06    -6.87990E+06     2.12344E+06    -26.8031E-03     41.0882E-03    -14.2850E-03     105.711E-03    -27.5756E-03     42.1628E-03    -14.4346E-03     105.720E-03
            2156     15.0893E-03     15.7529E-03    -5.26064E+06     40.5428E+06    -12.4494E+06     1.83097E+06    -22.7734E-03     36.5866E-03    -13.8132E-03     65.8544E-03    -22.9651E-03     36.9398E-03    -13.9266E-03     65.8129E-03
            2157     14.2069E-03     15.7057E-03    -5.05300E+06    -1.80767E+06    -10.2933E+06     995.303E+03    -21.0046E-03     34.4411E-03    -13.4365E-03     45.8399E-03    -21.0541E-03     34.4962E-03    -13.4781E-03     45.8067E-03
            2158     13.3250E-03     15.6642E-03    -4.71584E+06    -33.5130E+06    -13.8188E+06     923.819E+03    -20.0741E-03     33.1011E-03    -13.0270E-03     41.0781E-03    -20.0538E-03     32.9852E-03    -13.0406E-03     41.0557E-03
            2159     12.4424E-03     15.6258E-03    -4.21209E+06    -40.9220E+06    -5.74869E+06     1.48519E+06    -18.8944E-03     31.5425E-03    -12.6481E-03     35.7018E-03    -18.8612E-03     31.3657E-03    -12.6114E-03     35.6985E-03
            2160     11.5581E-03     15.5945E-03    -4.26599E+06    -43.1243E+06    -3.10898E+06     1.52798E+06    -17.6006E-03     29.8574E-03    -12.2568E-03     29.3862E-03    -17.5618E-03     29.6594E-03    -12.2036E-03     29.3915E-03
            2161     10.6732E-03     15.5677E-03    -3.98707E+06    -51.6589E+06    -4.07776E+06     1.29214E+06    -16.5043E-03     28.3853E-03    -11.8811E-03     24.6617E-03    -16.4472E-03     28.1426E-03    -11.8208E-03     24.6687E-03
            2162     9.78721E-03     15.5449E-03    -3.94020E+06    -56.5260E+06    -878.754E+03     1.28717E+06    -15.4189E-03     26.9653E-03    -11.5463E-03     20.3670E-03    -15.3576E-03     26.6919E-03    -11.4631E-03     20.3771E-03
            2163     8.90039E-03     15.5259E-03    -4.20075E+06    -56.7830E+06     641.705E+03     1.34954E+06    -14.3496E-03     25.5784E-03    -11.2289E-03     16.6694E-03    -14.2904E-03     25.3010E-03    -11.1372E-03     16.6824E-03
            2164     8.01256E-03     15.5099E-03    -4.30082E+06    -57.7873E+06     1.29294E+06     2.24537E+06    -13.4056E-03     24.3493E-03    -10.9437E-03     13.5211E-03    -13.3460E-03     24.0655E-03    -10.8472E-03     13.5470E-03
            2165     7.12423E-03     15.4969E-03    -4.41925E+06    -58.2830E+06     1.61681E+06     3.29203E+06    -12.5742E-03     23.2661E-03    -10.6919E-03     10.8927E-03    -12.5146E-03     22.9792E-03    -10.5929E-03     10.9330E-03
            2166     6.23485E-03     15.4860E-03    -4.54230E+06    -56.7993E+06     1.12360E+06     3.43809E+06    -11.8696E-03     22.3375E-03    -10.4679E-03     8.76915E-03    -11.8118E-03     22.0588E-03    -10.3734E-03     8.81196E-03
            2167     5.34539E-03     15.4772E-03    -4.51688E+06    -54.6546E+06     167.594E+03     3.26945E+06    -11.2814E-03     21.5545E-03    -10.2731E-03     6.98828E-03    -11.2252E-03     21.2877E-03    -10.1864E-03     7.02935E-03
            2168     4.45499E-03     15.4701E-03    -4.54052E+06    -53.4096E+06    -1.02118E+06     2.92317E+06    -10.8017E-03     20.9106E-03    -10.1090E-03     5.44926E-03    -10.7456E-03     20.6518E-03    -10.0300E-03     5.48618E-03
            2169     3.56462E-03     15.4645E-03    -4.41769E+06    -52.3006E+06    -1.82724E+06     2.48655E+06    -10.4037E-03     20.3811E-03    -9.97744E-03     4.16050E-03    -10.3474E-03     20.1287E-03    -9.90433E-03     4.19201E-03
            2170     2.67355E-03     15.4603E-03    -4.11107E+06    -51.3445E+06    -2.61195E+06     2.04600E+06    -10.0983E-03     19.9773E-03    -9.87900E-03     3.04581E-03    -10.0407E-03     19.7304E-03    -9.81165E-03     3.07181E-03
            2171     1.78257E-03     15.4573E-03    -3.87377E+06    -50.7428E+06    -3.14956E+06     1.44375E+06    -9.91126E-03     19.7226E-03    -9.81138E-03     1.99545E-03    -9.85249E-03     19.4791E-03    -9.74793E-03     2.01383E-03
            2172     891.318E-06     15.4555E-03    -3.73093E+06    -50.2373E+06    -3.54052E+06     819.006E+03    -9.78498E-03     19.5642E-03    -9.77923E-03     1.03066E-03    -9.72563E-03     19.3236E-03    -9.71868E-03     1.04109E-03
            2173     16.8481E-03     14.9621E-03    -4.90248E+06     135.056E+06     52.3502E+06     1.65808E+06    -32.5250E-03     47.6145E-03    -15.0896E-03     153.960E-03    -34.6047E-03     50.0047E-03    -15.0165E-03     154.826E-03
            2174     15.9692E-03     14.8465E-03    -6.77851E+06     86.2388E+06    -6.36944E+06     1.78667E+06    -27.1078E-03     41.3444E-03    -14.2366E-03     102.331E-03    -27.8392E-03     42.3765E-03    -14.3836E-03     102.322E-03
            2175     15.0890E-03     14.7699E-03    -5.53427E+06     41.4544E+06    -13.1191E+06     1.08371E+06    -23.1888E-03     36.9158E-03    -13.7270E-03     63.0906E-03    -23.3734E-03     37.2661E-03    -13.8447E-03     63.0366E-03
            2176     14.2093E-03     14.7247E-03    -4.32092E+06    -1.91190E+06    -10.3981E+06     1.14013E+06    -21.0771E-03     34.4069E-03    -13.3298E-03     44.2854E-03    -21.1196E-03     34.4575E-03    -13.3727E-03     44.2551E-03
            2177     13.3271E-03     14.6847E-03    -4.60069E+06    -33.7023E+06    -14.0419E+06     1.59058E+06    -20.2944E-03     33.1964E-03    -12.9020E-03     39.7689E-03    -20.2715E-03     33.0783E-03    -12.9166E-03     39.7556E-03
            2178     12.4439E-03     14.6477E-03    -4.74712E+06    -40.9318E+06    -5.79995E+06     1.37043E+06    -19.0748E-03     31.5741E-03    -12.4993E-03     33.5605E-03    -19.0429E-03     31.3970E-03    -12.4621E-03     33.5564E-03
            2179     11.5602E-03     14.6181E-03    -4.16391E+06    -42.6064E+06    -2.51072E+06     1.11195E+06    -17.7361E-03     29.8195E-03    -12.0835E-03     27.4476E-03    -17.6976E-03     29.6224E-03    -12.0282E-03     27.4481E-03
            2180     10.6752E-03     14.5925E-03    -4.15270E+06    -51.4241E+06    -3.10877E+06     1.22093E+06    -16.6596E-03     28.3409E-03    -11.6813E-03     22.6744E-03    -16.6047E-03     28.0978E-03    -11.6163E-03     22.6809E-03
            2181     9.78949E-03     14.5712E-03    -4.25499E+06    -56.0952E+06     364.274E+03     962.111E+03    -15.4823E-03     26.7994E-03    -11.3171E-03     18.2808E-03    -15.4246E-03     26.5265E-03    -11.2278E-03     18.2871E-03
            2182     8.90266E-03     14.5536E-03    -4.42169E+06    -57.0747E+06     2.11783E+06     1.10895E+06    -14.3266E-03     25.3007E-03    -10.9741E-03     14.7070E-03    -14.2701E-03     25.0198E-03    -10.8743E-03     14.7172E-03
            2183     8.01496E-03     14.5389E-03    -5.06434E+06    -58.9934E+06     1.82759E+06     1.89880E+06    -13.2839E-03     23.9473E-03    -10.6634E-03     11.7129E-03    -13.2270E-03     23.6577E-03    -10.5614E-03     11.7345E-03
            2184     7.12619E-03     14.5269E-03    -5.46117E+06    -58.3153E+06     1.45327E+06     2.55383E+06    -12.3921E-03     22.7804E-03    -10.3883E-03     9.30523E-03    -12.3373E-03     22.4950E-03    -10.2886E-03     9.33619E-03
            2185     6.23709E-03     14.5169E-03    -5.47337E+06    -55.9669E+06     552.611E+03     2.51451E+06    -11.6269E-03     21.7730E-03    -10.1461E-03     7.37935E-03    -11.5742E-03     21.5005E-03    -10.0542E-03     7.41040E-03
            2186     5.34686E-03     14.5088E-03    -5.40157E+06    -54.0670E+06    -672.945E+03     2.29502E+06    -10.9805E-03     20.9214E-03    -9.94085E-03     5.81928E-03    -10.9283E-03     20.6600E-03    -9.85799E-03     5.84790E-03
            2187     4.45665E-03     14.5023E-03    -5.17509E+06    -52.4112E+06    -1.71785E+06     2.05757E+06    -10.4666E-03     20.2398E-03    -9.77315E-03     4.52073E-03    -10.4141E-03     19.9878E-03    -9.69824E-03     4.54657E-03
            2188     3.56561E-03     14.4973E-03    -4.94810E+06    -51.2764E+06    -2.65628E+06      1.6026E+06    -10.0710E-03     19.7108E-03    -9.63985E-03     3.43165E-03    -10.0176E-03     19.4655E-03    -9.57160E-03     3.45183E-03
            2189     2.67458E-03     14.4934E-03    -4.80966E+06    -50.2575E+06    -3.28149E+06     1.22207E+06    -9.77564E-03     19.3143E-03    -9.53861E-03     2.49595E-03    -9.72208E-03     19.0747E-03    -9.47517E-03     2.51138E-03
            2190     1.78308E-03     14.4907E-03    -4.58933E+06    -49.5359E+06    -3.83451E+06     853.793E+03    -9.57513E-03     19.0400E-03    -9.46485E-03     1.64385E-03    -9.52070E-03     18.8045E-03    -9.40554E-03     1.65465E-03
            2191     891.622E-06     14.4890E-03    -4.57709E+06    -49.0635E+06    -4.22830E+06     462.306E+03    -9.44602E-03     18.8649E-03    -9.41888E-03     830.085E-06    -9.39161E-03     18.6324E-03    -9.36224E-03     835.937E-06
            2192     16.8433E-03     13.9735E-03    -4.41955E+06     135.014E+06     55.9947E+06     1.13206E+06    -33.4394E-03     48.5609E-03    -15.1215E-03     150.958E-03    -35.4643E-03     50.8872E-03    -15.0309E-03     151.748E-03
            2193     15.9690E-03     13.8580E-03    -2.83356E+06     87.1347E+06    -922.021E+03     73.4244E+03    -27.9831E-03     42.1958E-03    -14.2127E-03     96.4163E-03    -28.6530E-03     43.1680E-03    -14.3395E-03     96.3474E-03
            2194     15.0930E-03     13.7870E-03    -2.60222E+06     40.3952E+06    -13.1428E+06     1.72302E+06    -23.1336E-03     36.7785E-03    -13.6449E-03     60.1268E-03    -23.2898E-03     37.1071E-03    -13.7654E-03     60.0818E-03
            2195     14.2097E-03     13.7451E-03    -4.71325E+06    -1.93120E+06    -11.1213E+06     2.82103E+06    -21.5348E-03     34.7612E-03    -13.2264E-03     43.3967E-03    -21.5762E-03     34.8113E-03    -13.2723E-03     43.3877E-03
            2196     13.3280E-03     13.7037E-03    -5.36133E+06    -32.6201E+06    -13.8764E+06     1.90641E+06    -20.7793E-03     33.5411E-03    -12.7619E-03     37.6187E-03    -20.7603E-03     33.4276E-03    -12.7762E-03     37.6094E-03
            2197     12.4466E-03     13.6700E-03    -4.55848E+06    -40.4649E+06    -5.16152E+06     966.113E+03    -19.3351E-03     31.6568E-03    -12.3217E-03     31.0221E-03    -19.3024E-03     31.4793E-03    -12.2822E-03     31.0135E-03
            2198     11.5624E-03     13.6416E-03    -4.74335E+06    -42.5026E+06    -1.79183E+06     980.335E+03    -18.0520E-03     29.9209E-03    -11.8689E-03     25.2509E-03    -18.0170E-03     29.7235E-03    -11.8094E-03     25.2501E-03
            2199     10.6781E-03     13.6173E-03    -4.74939E+06    -51.0062E+06    -1.76570E+06     824.999E+03    -16.8452E-03     28.2730E-03    -11.4278E-03     20.1546E-03    -16.7954E-03     28.0304E-03    -11.3557E-03     20.1564E-03
            2200     9.79238E-03     13.5979E-03    -4.55665E+06    -55.6717E+06     2.06540E+06     520.910E+03    -15.5322E-03     26.5602E-03    -11.0280E-03     15.8696E-03    -15.4788E-03     26.2870E-03    -10.9303E-03     15.8705E-03
            2201     8.90560E-03     13.5814E-03    -5.12728E+06    -57.9514E+06     3.34998E+06     920.736E+03    -14.2904E-03     24.9427E-03    -10.6524E-03     12.4269E-03    -14.2377E-03     24.6565E-03    -10.5442E-03     12.4349E-03
            2202     8.01773E-03     13.5684E-03    -5.88913E+06    -59.5416E+06     2.49604E+06     1.84212E+06    -13.1521E-03     23.4613E-03    -10.3092E-03     9.64511E-03    -13.0993E-03     23.1690E-03    -10.2019E-03     9.66623E-03
            2203     7.12908E-03     13.5573E-03    -6.65080E+06    -57.8439E+06     717.813E+03     1.88002E+06    -12.1602E-03     22.1624E-03    -10.0022E-03     7.49528E-03    -12.1109E-03     21.8821E-03    -9.90506E-03     7.51772E-03
            2204     6.23931E-03     13.5485E-03    -6.87638E+06    -55.4259E+06    -643.267E+03     1.58657E+06    -11.3214E-03     21.0610E-03    -9.73962E-03     5.78467E-03    -11.2746E-03     20.7949E-03    -9.65250E-03     5.80388E-03
            2205     5.34934E-03     13.5411E-03    -6.90733E+06    -53.4080E+06    -2.11858E+06     1.30658E+06    -10.6098E-03     20.1306E-03    -9.52078E-03     4.46799E-03    -10.5639E-03     19.8768E-03    -9.44392E-03     4.48397E-03
            2206     4.45827E-03     13.5354E-03    -6.79051E+06    -51.8432E+06    -3.44292E+06     1.00421E+06    -10.0540E-03     19.3997E-03    -9.34568E-03     3.41327E-03    -10.0078E-03     19.1553E-03    -9.27788E-03     3.42561E-03
            2207     3.56719E-03     13.5307E-03    -6.57724E+06    -50.5111E+06    -4.23014E+06     802.996E+03    -9.66042E-03     18.8686E-03    -9.20819E-03     2.53877E-03    -9.61396E-03     18.6317E-03    -9.14656E-03     2.54870E-03
            2208     2.67559E-03     13.5273E-03    -6.41751E+06    -49.6217E+06    -4.95813E+06     509.137E+03    -9.36089E-03     18.4603E-03    -9.09946E-03     1.82061E-03    -9.31386E-03     18.2287E-03    -9.04299E-03     1.82689E-03
            2209     1.78395E-03     13.5248E-03    -6.33088E+06    -48.9320E+06    -5.58740E+06     331.103E+03    -9.13150E-03     18.1528E-03    -9.02125E-03     1.20679E-03    -9.08412E-03     17.9254E-03    -8.96906E-03     1.21088E-03
            2210     891.966E-06     13.5233E-03    -6.02523E+06    -48.4096E+06    -6.08025E+06     95.0081E+03    -8.96565E-03     17.9780E-03    -9.01231E-03     592.533E-06    -8.91674E-03     17.7535E-03    -8.96378E-03     593.663E-06
            2211     16.8449E-03     12.9739E-03    -1.04872E+06     135.311E+06     55.9310E+06    -1.15377E+06    -33.8468E-03     48.9241E-03    -15.0773E-03     146.133E-03    -35.7795E-03     51.1715E-03    -14.9924E-03     146.812E-03
            2212     15.9743E-03     12.8726E-03    -1.03400E+06     82.7220E+06    -4.11725E+06     1.50742E+06    -27.7429E-03     41.8854E-03    -14.1425E-03     90.1794E-03    -28.3282E-03     42.7730E-03    -14.2815E-03     90.1123E-03
            2213     15.0899E-03     12.8061E-03    -5.94555E+06     38.5632E+06    -15.0075E+06     5.99004E+06    -23.5239E-03     37.0910E-03    -13.5671E-03     57.6071E-03    -23.6801E-03     37.4066E-03    -13.6894E-03     57.6177E-03
            2214     14.2116E-03     12.7617E-03    -7.56343E+06     1.82050E+06    -10.8965E+06     3.51562E+06    -22.3873E-03     35.4892E-03    -13.1019E-03     41.5128E-03    -22.4465E-03     35.5596E-03    -13.1480E-03     41.5114E-03
            2215     13.3321E-03     12.7239E-03    -5.56798E+06    -31.7684E+06    -13.4223E+06     744.791E+03    -21.3146E-03     33.8958E-03    -12.5812E-03     34.7139E-03    -21.2961E-03     33.7838E-03    -12.5941E-03     34.6901E-03
            2216     12.4484E-03     12.6920E-03    -4.95633E+06    -40.2170E+06    -4.58862E+06     1.08323E+06    -19.7519E-03     31.8444E-03    -12.0925E-03     28.3755E-03    -19.7211E-03     31.6666E-03    -12.0500E-03     28.3690E-03
            2217     11.5660E-03     12.6644E-03    -5.03560E+06    -42.0471E+06    -364.717E+03     776.568E+03    -18.4503E-03     30.0416E-03    -11.5913E-03     22.5019E-03    -18.4188E-03     29.8441E-03    -11.5249E-03     22.4988E-03
            2218     10.6816E-03     12.6427E-03    -4.99141E+06    -50.4700E+06    -563.836E+03     377.259E+03    -16.9928E-03     28.0927E-03    -11.0998E-03     17.3358E-03    -16.9463E-03     27.8509E-03    -11.0222E-03     17.3322E-03
            2219     9.79601E-03     12.6243E-03    -5.47241E+06    -55.5849E+06     3.08343E+06     123.269E+03    -15.5363E-03     26.1974E-03    -10.6611E-03     13.2535E-03    -15.4889E-03     25.9243E-03    -10.5571E-03     13.2496E-03
            2220     8.90928E-03     12.6101E-03    -6.33320E+06    -59.2661E+06     4.25503E+06     1.01667E+06    -14.1945E-03     24.4468E-03    -10.2523E-03     9.95778E-03    -14.1471E-03     24.1543E-03    -10.1359E-03     9.96723E-03
            2221     8.02138E-03     12.5980E-03    -7.64188E+06    -59.4926E+06     2.22484E+06     1.72129E+06    -12.9660E-03     22.8361E-03    -9.87016E-03     7.47250E-03    -12.9215E-03     22.5470E-03    -9.76169E-03     7.49225E-03
            2222     7.13236E-03     12.5887E-03    -8.31866E+06    -57.0308E+06    -269.145E+03     1.35981E+06    -11.8819E-03     21.4121E-03    -9.53021E-03     5.58268E-03    -11.8406E-03     21.1396E-03    -9.43679E-03     5.59855E-03
            2223     6.24268E-03     12.5806E-03    -8.77883E+06    -54.9188E+06    -2.44787E+06     802.857E+03    -10.9430E-03     20.1855E-03    -9.24253E-03     4.14545E-03    -10.9038E-03     19.9273E-03    -9.16241E-03     4.15467E-03
            2224     5.35184E-03     12.5745E-03    -8.88229E+06    -52.9022E+06    -3.95609E+06     407.851E+03    -10.1911E-03     19.1974E-03    -9.00631E-03     3.08221E-03    -10.1531E-03     18.9516E-03    -8.93650E-03     3.08668E-03
            2225     4.46085E-03     12.5692E-03    -8.95663E+06    -51.4255E+06    -5.48581E+06     163.109E+03    -9.60130E-03     18.4152E-03    -8.81393E-03     2.27900E-03    -9.56360E-03     18.1791E-03    -8.75380E-03     2.28055E-03
            2226     3.56909E-03     12.5652E-03    -8.97723E+06    -50.2875E+06    -6.71719E+06    -2.88397E+03    -9.14312E-03     17.8060E-03    -8.66291E-03     1.64730E-03    -9.10538E-03     17.5774E-03    -8.61056E-03     1.64688E-03
            2227     2.67717E-03     12.5620E-03    -8.86928E+06    -49.4210E+06    -7.55989E+06    -45.4945E+03    -8.81401E-03     17.3636E-03    -8.54955E-03     1.15234E-03    -8.77576E-03     17.1403E-03    -8.50283E-03     1.15150E-03
            2228     1.78486E-03     12.5599E-03    -8.74263E+06    -48.7825E+06    -8.18879E+06    -109.332E+03    -8.58086E-03     17.0520E-03    -8.47119E-03     760.727E-06    -8.54198E-03     16.8327E-03    -8.42872E-03     759.158E-06
            2229     892.488E-06     12.5585E-03    -8.51403E+06    -48.3152E+06    -8.56283E+06    -69.6165E+03    -8.42220E-03     16.8799E-03    -8.45769E-03     380.765E-06    -8.38227E-03     16.6631E-03    -8.41810E-03     379.780E-06
            2230     16.8501E-03     11.9861E-03     2.41521E+06     130.856E+06     50.5058E+06     184.752E+03    -33.1689E-03     48.1368E-03    -14.9679E-03     142.488E-03    -34.9473E-03     50.2422E-03    -14.9086E-03     143.074E-03
            2231     15.9676E-03     11.8840E-03    -8.96281E+06     75.3918E+06    -7.39812E+06     7.79545E+06    -27.2493E-03     41.3330E-03    -14.0837E-03     85.1673E-03    -27.7865E-03     42.1276E-03    -14.2170E-03     85.1854E-03
            2232     15.0959E-03     11.8234E-03    -10.9691E+06     43.9185E+06    -10.5001E+06     5.43435E+06    -24.7614E-03     38.2501E-03    -13.4887E-03     54.7528E-03    -24.9487E-03     38.5849E-03    -13.5890E-03     54.7521E-03
            2233     14.2145E-03     11.7787E-03    -5.81035E+06     5.18552E+06    -9.51381E+06     1.03911E+06    -23.2734E-03     36.1975E-03    -12.9241E-03     39.3388E-03    -23.3283E-03     36.2779E-03    -12.9708E-03     39.3046E-03
            2234     13.3331E-03     11.7436E-03    -4.89621E+06    -32.2544E+06    -13.0382E+06     1.30422E+06    -21.8785E-03     34.2216E-03    -12.3430E-03     31.3404E-03    -21.8540E-03     34.1031E-03    -12.3544E-03     31.3248E-03
            2235     12.4533E-03     11.7131E-03    -5.60342E+06    -39.2778E+06    -3.92592E+06     854.668E+03    -20.3405E-03     32.1345E-03    -11.7940E-03     25.4438E-03    -20.3141E-03     31.9603E-03    -11.7485E-03     25.4347E-03
            2236     11.5700E-03     11.6878E-03    -5.40218E+06    -42.2086E+06     729.525E+03     432.524E+03    -18.7097E-03     29.9474E-03    -11.2377E-03     19.4330E-03    -18.6806E-03     29.7473E-03    -11.1650E-03     19.4260E-03
            2237     10.6860E-03     11.6677E-03    -5.78457E+06    -49.5803E+06     592.956E+03     169.679E+03    -17.0637E-03     27.7630E-03    -10.6993E-03     14.4045E-03    -17.0236E-03     27.5247E-03    -10.6161E-03     14.3988E-03
            2238     9.80054E-03     11.6518E-03    -6.81663E+06    -56.3625E+06     3.95312E+06     366.646E+03    -15.4530E-03     25.6766E-03    -10.2236E-03     10.5470E-03    -15.4122E-03     25.4001E-03    -10.1122E-03     10.5466E-03
            2239     8.91359E-03     11.6388E-03    -8.48210E+06    -60.2275E+06     4.35427E+06     1.31196E+06    -13.9634E-03     23.7449E-03    -9.78155E-03     7.62058E-03    -13.9254E-03     23.4504E-03    -9.66015E-03     7.63407E-03
            2240     8.02548E-03     11.6289E-03    -9.56597E+06    -58.8085E+06     1.34112E+06     1.29907E+06    -12.6702E-03     22.0364E-03    -9.36615E-03     5.49871E-03    -12.6350E-03     21.7546E-03    -9.26030E-03     5.51316E-03
            2241     7.13635E-03     11.6203E-03    -10.2485E+06    -56.3165E+06    -1.51565E+06     725.766E+03    -11.5053E-03     20.5072E-03    -9.00194E-03     3.94519E-03    -11.4728E-03     20.2429E-03    -8.91300E-03     3.95298E-03
            2242     6.24603E-03     11.6140E-03    -10.5985E+06    -54.2210E+06    -3.84461E+06     167.752E+03    -10.5320E-03     19.2250E-03    -8.69306E-03     2.84418E-03    -10.5009E-03     18.9750E-03    -8.61830E-03     2.84526E-03
            2243     5.35520E-03     11.6084E-03    -11.0887E+06    -52.6286E+06    -5.94137E+06    -260.187E+03    -9.73990E-03     18.1744E-03    -8.43447E-03     2.02049E-03    -9.71048E-03     17.9360E-03    -8.37179E-03     2.01637E-03
            2244     4.46347E-03     11.6042E-03    -11.4290E+06    -51.2751E+06    -7.76257E+06    -456.331E+03    -9.09566E-03     17.3177E-03    -8.22203E-03     1.44789E-03    -9.06724E-03     17.0892E-03    -8.16992E-03     1.44146E-03
            2245     3.57139E-03     11.6006E-03    -11.6274E+06    -50.2984E+06    -9.39118E+06    -538.097E+03    -8.59033E-03     16.6439E-03    -8.05353E-03     1.00528E-03    -8.56195E-03     16.4229E-03    -8.01069E-03     997.957E-06
            2246     2.67880E-03     11.5981E-03    -11.7449E+06    -49.5527E+06    -10.6052E+06    -514.649E+03    -8.21108E-03     16.1399E-03    -7.92884E-03     662.634E-06    -8.18260E-03     15.9246E-03    -7.89299E-03     655.736E-06
            2247     1.78603E-03     11.5961E-03    -11.7065E+06    -48.9803E+06    -11.2836E+06    -376.066E+03    -7.96406E-03     15.8096E-03    -7.84555E-03     409.990E-06    -7.93523E-03     15.5980E-03    -7.81397E-03     404.976E-06
            2248     893.025E-06     11.5950E-03    -11.6916E+06    -48.6421E+06    -11.5358E+06    -172.427E+03    -7.86381E-03     15.6253E-03    -7.76151E-03     231.649E-06    -7.83498E-03     15.4158E-03    -7.73170E-03     229.337E-06
            2249     16.8461E-03     10.9941E-03    -2.80586E+06     126.053E+06     53.3590E+06     5.40683E+06    -34.4797E-03     49.4987E-03    -15.0190E-03     139.983E-03    -36.2162E-03     51.5181E-03    -14.9309E-03     140.547E-03
            2250     15.9770E-03     10.8990E-03    -14.1535E+06     76.2065E+06    -591.804E+03     5.63244E+06    -28.4772E-03     42.5493E-03    -14.0721E-03     82.2356E-03    -29.0091E-03     43.3035E-03    -14.1650E-03     82.2091E-03
            2251     15.0929E-03     10.8373E-03    -6.20626E+06     48.1295E+06    -7.18444E+06    -449.668E+03    -26.1517E-03     39.5076E-03    -13.3559E-03     53.0856E-03    -26.3268E-03     39.8524E-03    -13.4526E-03     53.0016E-03
            2252     14.2177E-03     10.7955E-03    -5.51711E+06     4.09380E+06    -9.44058E+06     1.22404E+06    -24.5771E-03     37.2718E-03    -12.6946E-03     35.3603E-03    -24.6263E-03     37.3435E-03    -12.7398E-03     35.3259E-03
            2253     13.3393E-03     10.7629E-03    -6.31521E+06    -30.5279E+06    -11.9946E+06     1.63668E+06    -22.4026E-03     34.4401E-03    -12.0375E-03     28.0500E-03    -22.3870E-03     34.3286E-03    -12.0440E-03     28.0393E-03
            2254     12.4570E-03     10.7339E-03    -5.54291E+06    -38.9778E+06    -2.76414E+06     758.018E+03    -20.7519E-03     32.1820E-03    -11.4301E-03     22.3491E-03    -20.7263E-03     32.0065E-03    -11.3794E-03     22.3391E-03
            2255     11.5754E-03     10.7113E-03    -6.76001E+06    -41.7720E+06     2.06354E+06     623.983E+03    -18.8359E-03     29.6609E-03    -10.8250E-03     16.2749E-03    -18.8155E-03     29.4623E-03    -10.7443E-03     16.2710E-03
            2256     10.6910E-03     10.6933E-03    -7.98476E+06    -49.4839E+06     1.69358E+06     160.152E+03    -16.9129E-03     27.1635E-03    -10.2507E-03     11.7091E-03    -16.8852E-03     26.9270E-03    -10.1589E-03     11.7037E-03
            2257     9.80549E-03     10.6794E-03    -9.08182E+06    -57.3168E+06     3.85698E+06     883.869E+03    -15.1619E-03     24.9089E-03    -9.74699E-03     8.22240E-03    -15.1307E-03     24.6309E-03    -9.63142E-03     8.22893E-03
            2258     8.91826E-03     10.6689E-03    -10.2567E+06    -60.3692E+06     3.70006E+06     1.25561E+06    -13.5782E-03     22.8627E-03    -9.28449E-03     5.82935E-03    -13.5478E-03     22.5709E-03    -9.16358E-03     5.84228E-03
            2259     8.02979E-03     10.6599E-03    -11.1443E+06    -57.9633E+06     583.216E+03     727.997E+03    -12.2042E-03     21.0621E-03    -8.85785E-03     4.09642E-03    -12.1770E-03     20.7879E-03    -8.75473E-03     4.10359E-03
            2260     7.14008E-03     10.6536E-03    -11.8288E+06    -55.5362E+06    -2.53637E+06     78.9308E+03    -11.0482E-03     19.5339E-03    -8.48571E-03     2.90326E-03    -11.0233E-03     19.2773E-03    -8.40071E-03     2.90274E-03
            2261     6.24953E-03     10.6478E-03    -12.5745E+06    -53.8139E+06    -5.25654E+06    -344.228E+03    -10.0827E-03     18.2490E-03    -8.16628E-03     2.09351E-03    -10.0600E-03     18.0059E-03    -8.09630E-03     2.08797E-03
            2262     5.35812E-03     10.6437E-03    -13.1661E+06    -52.3887E+06    -7.76036E+06    -661.773E+03    -9.27553E-03     17.1694E-03    -7.89388E-03     1.50566E-03    -9.25421E-03     16.9379E-03    -7.83763E-03     1.49632E-03
            2263     4.46609E-03     10.6400E-03    -13.7765E+06    -51.3101E+06    -10.0250E+06    -815.553E+03    -8.61985E-03     16.2854E-03    -7.66557E-03     1.08203E-03    -8.59984E-03     16.0634E-03    -7.62132E-03     1.07093E-03
            2264     3.57351E-03     10.6373E-03    -14.2783E+06    -50.5263E+06    -11.8973E+06    -836.750E+03    -8.08946E-03     15.5688E-03    -7.47934E-03     711.568E-06    -8.07036E-03     15.3541E-03    -7.44486E-03     700.354E-06
            2265     2.68052E-03     10.6351E-03    -14.6646E+06    -49.8790E+06    -13.4303E+06    -720.931E+03    -7.67832E-03     15.0123E-03    -7.33399E-03     455.639E-06    -7.65986E-03     14.8037E-03    -7.30755E-03     446.046E-06
            2266     1.78716E-03     10.6336E-03    -14.9186E+06    -49.4343E+06    -14.4392E+06    -530.567E+03    -7.38545E-03     14.6154E-03    -7.22996E-03     258.840E-06    -7.36744E-03     14.4108E-03    -7.20885E-03     251.808E-06
            2267     893.656E-06     10.6326E-03    -15.2257E+06    -49.1393E+06    -14.9040E+06    -210.929E+03    -7.25527E-03     14.3735E-03    -7.11821E-03     182.655E-06    -7.23850E-03     14.1715E-03    -7.09940E-03     179.834E-06
            2268     16.8461E-03     9.99309E-03    -15.2374E+06     127.430E+06     56.2703E+06     1.61583E+06    -35.3643E-03     50.4433E-03    -15.0790E-03     130.092E-03    -37.0445E-03     52.3584E-03    -14.9603E-03     130.543E-03
            2269     15.9693E-03     9.91498E-03    -3.75036E+06     89.9090E+06     10.1669E+06     3.59734E+06    -30.3016E-03     44.3258E-03    -14.0242E-03     78.3425E-03    -30.7957E-03     45.0963E-03    -14.0983E-03     78.2800E-03
            2270     15.0997E-03     9.84744E-03    -2.93550E+06     46.2069E+06    -8.20777E+06     2.27477E+06    -28.2689E-03     41.4262E-03    -13.1573E-03     48.8338E-03    -28.4202E-03     41.7553E-03    -13.2611E-03     48.7735E-03
            2271     14.2228E-03     9.81208E-03    -7.68341E+06     4.27654E+06    -9.07424E+06     1.91522E+06    -25.0348E-03     37.4477E-03    -12.4129E-03     31.0543E-03    -25.0909E-03     37.5182E-03    -12.4533E-03     31.0303E-03
            2272     13.3424E-03     9.78188E-03    -6.82377E+06    -29.3453E+06    -10.8121E+06     1.19405E+06    -23.0881E-03     34.7830E-03    -11.6948E-03     25.6164E-03    -23.0769E-03     34.6749E-03    -11.6965E-03     25.6003E-03
            2273     12.4634E-03     9.75490E-03    -7.21016E+06     -39.176E+06    -1.72599E+06     1.52433E+06    -21.0252E-03     32.0547E-03    -11.0295E-03     19.2773E-03    -21.0082E-03     31.8782E-03    -10.9709E-03     19.2779E-03
            2274     11.5804E-03     9.73508E-03    -8.20457E+06    -40.7641E+06     4.03099E+06     835.904E+03    -18.6156E-03     29.0071E-03    -10.3916E-03     13.3833E-03    -18.6061E-03     28.8123E-03    -10.3004E-03     13.3831E-03
            2275     10.6963E-03     9.71969E-03    -9.26299E+06    -49.0993E+06     3.86133E+06     541.097E+03    -16.4474E-03     26.2561E-03    -9.80872E-03     9.57216E-03    -16.4295E-03     26.0200E-03    -9.70479E-03     9.57228E-03
            2276     9.80996E-03     9.70821E-03    -10.5149E+06    -58.1097E+06     4.63306E+06     617.241E+03    -14.6181E-03     23.9215E-03    -9.30344E-03     6.67638E-03    -14.5939E-03     23.6404E-03    -9.18076E-03     6.67977E-03
            2277     8.92243E-03     9.69922E-03    -11.4771E+06    -59.7214E+06     3.42037E+06     853.941E+03    -13.0177E-03     21.8604E-03    -8.84264E-03     4.73072E-03    -12.9940E-03     21.5740E-03    -8.72230E-03     4.73859E-03
            2278     8.03333E-03     9.69267E-03    -12.4982E+06    -57.1687E+06    -376.389E+03     277.748E+03    -11.6285E-03     20.0547E-03    -8.42618E-03     3.45447E-03    -11.6079E-03     19.7878E-03    -8.32705E-03     3.45589E-03
            2279     7.14320E-03     9.68710E-03    -13.3648E+06    -55.1347E+06    -3.78535E+06    -343.881E+03    -10.5298E-03     18.5975E-03    -8.06770E-03     2.61783E-03    -10.5114E-03     18.3469E-03    -7.98730E-03     2.61185E-03
            2280     6.25224E-03     9.68311E-03    -14.1426E+06    -53.5559E+06    -6.63764E+06    -773.718E+03    -9.61258E-03     17.3713E-03    -7.75876E-03     2.03248E-03    -9.59613E-03     17.1338E-03    -7.69378E-03     2.02136E-03
            2281     5.36035E-03     9.67964E-03    -14.8992E+06    -52.3422E+06    -9.26076E+06    -905.900E+03    -8.86045E-03     16.3525E-03    -7.49206E-03     1.62661E-03    -8.84570E-03     16.1259E-03    -7.44086E-03     1.61408E-03
            2282     4.46804E-03     9.67697E-03    -15.6476E+06    -51.4803E+06    -11.7436E+06    -954.711E+03    -8.23452E-03     15.4972E-03    -7.26267E-03     1.25282E-03    -8.22113E-03     15.2796E-03    -7.22406E-03     1.23987E-03
            2283     3.57507E-03     9.67489E-03    -16.4001E+06    -50.9041E+06    -13.9310E+06    -853.976E+03    -7.70919E-03     14.7796E-03    -7.07038E-03     963.122E-06    -7.69721E-03     14.5691E-03    -7.04244E-03     951.644E-06
            2284     2.68173E-03     9.67325E-03    -17.0387E+06    -50.3435E+06    -15.5693E+06    -727.320E+03    -7.30136E-03     14.2156E-03    -6.91428E-03     681.812E-06    -7.29100E-03     14.0112E-03    -6.89443E-03     672.103E-06
            2285     1.78808E-03     9.67218E-03    -17.5591E+06    -49.9652E+06    -16.8363E+06    -519.266E+03    -6.98418E-03     13.7772E-03    -6.79303E-03     446.993E-06    -6.97512E-03     13.5773E-03    -6.77930E-03     440.085E-06
            2286     894.087E-06     9.67144E-03    -17.9518E+06    -49.6126E+06    -17.5554E+06    -249.100E+03    -6.79489E-03     13.4784E-03    -6.68355E-03     246.128E-06    -6.78720E-03     13.2819E-03    -6.67336E-03     242.803E-06
            2287     16.8511E-03     9.01733E-03    -11.2706E+06     125.137E+06     50.5955E+06    -1.93083E+06    -35.9806E-03     50.9661E-03    -14.9855E-03     123.979E-03    -37.4717E-03     52.7146E-03    -14.8976E-03     124.305E-03
            2288     15.9758E-03     8.91410E-03    -2.90729E+06     91.0659E+06     16.8318E+06     2.74579E+06    -32.5049E-03     46.4022E-03    -13.8973E-03     75.0626E-03    -32.9875E-03     47.1491E-03    -13.9410E-03     74.9548E-03
            2289     15.1038E-03     8.86195E-03    -4.91246E+06     47.5661E+06    -835.029E+03     5.38045E+06    -28.8052E-03     41.7491E-03    -12.9438E-03     42.7664E-03    -28.9644E-03     42.0625E-03    -13.0099E-03     42.7485E-03
            2290     14.2252E-03     8.82835E-03    -4.77244E+06     6.82201E+06    -5.66290E+06     3.40364E+06    -25.5032E-03     37.6213E-03    -12.1181E-03     28.4446E-03    -25.5499E-03     37.6919E-03    -12.1494E-03     28.4422E-03
            2291     13.3487E-03     8.79968E-03    -7.75881E+06    -29.3082E+06    -9.26017E+06     2.52804E+06    -23.6424E-03     34.9859E-03    -11.3436E-03     22.2759E-03    -23.6365E-03     34.8755E-03    -11.3361E-03     22.2777E-03
            2292     12.4679E-03     8.77615E-03    -8.54961E+06    -38.8577E+06     25.6006E+03     1.46239E+06    -20.8456E-03     31.4842E-03    -10.6386E-03     16.1527E-03    -20.8373E-03     31.3078E-03    -10.5698E-03     16.1537E-03
            2293     11.5858E-03     8.75995E-03    -8.99294E+06    -39.1579E+06     6.41678E+06     977.306E+03    -17.9793E-03     27.9795E-03    -10.0003E-03     11.1974E-03    -17.9791E-03     27.7900E-03    -9.89837E-03     11.2000E-03
            2294     10.7003E-03     8.74703E-03    -10.4859E+06    -48.8646E+06     6.07272E+06     424.751E+03    -15.7078E-03     25.1496E-03    -9.44186E-03     8.18651E-03    -15.6994E-03     24.9131E-03    -9.32544E-03     8.18565E-03
            2295     9.81373E-03     8.73795E-03    -11.7100E+06    -58.3914E+06     5.32473E+06     475.316E+03    -13.8492E-03     22.8123E-03    -8.96308E-03     5.88043E-03    -13.8316E-03     22.5304E-03    -8.83481E-03     5.88226E-03
            2296     8.92524E-03     8.73084E-03    -12.9504E+06    -59.0621E+06     2.50339E+06     110.340E+03    -12.2594E-03     20.7941E-03    -8.53465E-03     4.43904E-03    -12.2426E-03     20.5144E-03    -8.41771E-03     4.43748E-03
            2297     8.03566E-03     8.72605E-03    -13.5614E+06    -56.4788E+06    -1.22573E+06    -321.370E+03    -10.9936E-03     19.1546E-03    -8.16093E-03     3.67646E-03    -10.9781E-03     18.8940E-03    -8.06550E-03     3.67020E-03
            2298     7.14498E-03     8.72174E-03    -14.2563E+06    -54.7802E+06    -4.76707E+06    -796.097E+03    -9.97949E-03     17.8227E-03    -7.84321E-03     3.14997E-03    -9.96464E-03     17.5766E-03    -7.76695E-03     3.13814E-03
            2299     6.25338E-03     8.71895E-03    -15.0451E+06    -53.4803E+06    -7.66220E+06    -1.02756E+06    -9.19163E-03     16.7636E-03    -7.57201E-03     2.74438E-03    -9.17834E-03     16.5293E-03    -7.51095E-03     2.72996E-03
            2300     5.36140E-03     8.71622E-03    -15.9340E+06    -52.5037E+06    -10.3090E+06    -1.05330E+06    -8.53146E-03     15.8688E-03    -7.33736E-03     2.41642E-03    -8.52015E-03     15.6445E-03    -7.28967E-03     2.40196E-03
            2301     4.46864E-03     8.71455E-03    -16.7656E+06    -51.8333E+06    -12.8136E+06    -922.582E+03    -7.97054E-03     15.1074E-03    -7.13688E-03     2.08402E-03    -7.96070E-03     14.8912E-03    -7.10148E-03     2.07147E-03
            2302     3.57553E-03     8.71293E-03    -17.4982E+06    -51.2638E+06    -14.8678E+06    -805.529E+03    -7.52299E-03     14.4928E-03    -6.96985E-03     1.74330E-03    -7.51463E-03     14.2835E-03    -6.94448E-03     1.73243E-03
            2303     2.68204E-03     8.71199E-03    -18.1087E+06    -50.7753E+06    -16.5452E+06    -669.750E+03    -7.15429E-03     13.9900E-03    -6.83573E-03     1.37305E-03    -7.14724E-03     13.7864E-03    -6.81857E-03     1.36408E-03
            2304     1.78817E-03     8.71120E-03    -18.5814E+06    -50.4494E+06    -17.7387E+06    -493.720E+03    -6.89699E-03     13.6299E-03    -6.73289E-03     977.849E-06    -6.89103E-03     13.4303E-03    -6.72149E-03     971.269E-06
            2305     894.235E-06     8.71085E-03    -18.9307E+06    -50.2060E+06    -18.5773E+06    -274.753E+03    -6.70967E-03     13.3708E-03    -6.66113E-03     544.870E-06    -6.70452E-03     13.1742E-03    -6.65376E-03     541.215E-06
            2306     16.8417E-03     8.01115E-03    -644.729E+03     124.226E+06     54.4470E+06     2.70850E+06    -38.9089E-03     53.8087E-03    -14.8998E-03     120.765E-03    -40.2911E-03     55.4719E-03    -14.8068E-03     121.028E-03
            2307     15.9820E-03     7.92363E-03    -7.48344E+06     77.9212E+06     8.59695E+06    -3.75233E+06    -33.9687E-03     47.6299E-03    -13.6612E-03     69.0306E-03    -34.4212E-03     48.3081E-03    -13.7204E-03     68.8061E-03
            2308     15.1052E-03     7.87433E-03    -8.01686E+06     45.7731E+06    -3.49969E+06     3.38390E+06    -28.7393E-03     41.3957E-03    -12.6563E-03     37.9323E-03    -28.8949E-03     41.6956E-03    -12.7286E-03     37.8956E-03
            2309     14.2317E-03     7.84341E-03    -8.17828E+06     9.04828E+06    -3.56973E+06     5.81685E+06    -26.2360E-03     38.0405E-03    -11.8045E-03     24.3491E-03    -26.3034E-03     38.1217E-03    -11.8236E-03     24.3776E-03
            2310     13.3529E-03     7.81760E-03    -8.80958E+06    -26.2410E+06    -5.32546E+06     3.64827E+06    -23.1771E-03     34.1784E-03    -11.0014E-03     18.7469E-03    -23.1848E-03     34.0774E-03    -10.9772E-03     18.7656E-03
            2311     12.4731E-03     7.79891E-03    -9.96555E+06    -37.8529E+06     1.82369E+06     1.53631E+06    -19.8534E-03     30.1669E-03    -10.3135E-03     13.5075E-03    -19.8554E-03     29.9940E-03    -10.2350E-03     13.5115E-03
            2312     11.5888E-03     7.78535E-03    -11.0497E+06    -38.0477E+06     8.61728E+06     286.603E+03    -16.9985E-03     26.7246E-03    -9.72608E-03     9.85819E-03    -17.0133E-03     26.5402E-03    -9.61180E-03     9.85285E-03
            2313     10.7033E-03     7.77604E-03    -11.8989E+06    -48.4888E+06     8.67440E+06     164.927E+03    -14.7261E-03     23.9525E-03    -9.22644E-03     7.62684E-03    -14.7291E-03     23.7161E-03    -9.09550E-03     7.62315E-03
            2314     9.81542E-03     7.76823E-03    -13.1502E+06    -58.3400E+06     5.48769E+06    -72.3294E+03    -12.8329E-03     21.6382E-03    -8.80530E-03     6.06044E-03    -12.8228E-03     21.3584E-03    -8.67420E-03     6.05551E-03
            2315     8.92626E-03     7.76413E-03    -13.7570E+06    -58.3087E+06     1.48746E+06    -727.017E+03    -11.4003E-03     19.8465E-03    -8.44624E-03     5.23796E-03    -11.3872E-03     19.5734E-03    -8.33431E-03     5.22577E-03
            2316     8.03578E-03     7.75962E-03    -14.3651E+06    -56.3149E+06    -2.35658E+06    -1.35127E+06    -10.3306E-03     18.4783E-03    -8.14770E-03     4.84783E-03    -10.3177E-03     18.2214E-03    -8.05700E-03     4.82834E-03
            2317     7.14460E-03     7.75755E-03    -14.7531E+06    -54.6429E+06    -5.44501E+06    -1.35720E+06    -9.52298E-03     17.4233E-03    -7.90029E-03     4.48106E-03    -9.50987E-03     17.1796E-03    -7.82689E-03     4.46202E-03
            2318     6.25279E-03     7.75466E-03    -15.4161E+06    -53.5892E+06    -8.21311E+06    -1.30209E+06    -8.87379E-03     16.5673E-03    -7.69354E-03     4.15847E-03    -8.86143E-03     16.3338E-03    -7.63455E-03     4.14051E-03
            2319     5.36038E-03     7.75355E-03    -16.0842E+06    -52.8704E+06    -10.7366E+06    -1.19051E+06    -8.34873E-03     15.8704E-03    -7.52171E-03     3.76605E-03    -8.33704E-03     15.6451E-03    -7.47541E-03     3.74983E-03
            2320     4.46755E-03     7.75188E-03    -16.6333E+06    -52.1624E+06    -12.7617E+06    -1.04441E+06    -7.92888E-03     15.3115E-03    -7.38259E-03     3.38149E-03    -7.91798E-03     15.0934E-03    -7.34664E-03     3.36738E-03
            2321     3.57448E-03     7.75123E-03    -17.0989E+06    -51.6041E+06    -14.4424E+06    -932.281E+03    -7.60037E-03     14.8744E-03    -7.27403E-03     2.87371E-03    -7.59014E-03     14.6622E-03    -7.24663E-03     2.86123E-03
            2322     2.68097E-03     7.75042E-03    -17.4009E+06    -51.2092E+06    -15.7811E+06    -798.368E+03    -7.36803E-03     14.5614E-03    -7.19340E-03     2.30536E-03    -7.35793E-03     14.3535E-03    -7.17282E-03     2.29476E-03
            2323     1.78747E-03     7.75008E-03    -17.6184E+06    -51.0510E+06    -16.9317E+06    -587.777E+03    -7.20231E-03     14.3425E-03    -7.14019E-03     1.60937E-03    -7.19184E-03     14.1373E-03    -7.12527E-03     1.60160E-03
            2324     893.660E-06     7.74979E-03    -17.7225E+06    -50.8614E+06    -17.4411E+06    -370.923E+03    -7.11887E-03     14.2399E-03    -7.12099E-03     903.236E-06    -7.10839E-03     14.0366E-03    -7.10875E-03     898.349E-06
            2325     16.8582E-03     7.00718E-03     1.81049E+06     126.438E+06     58.7771E+06     4.57231E+06    -41.1085E-03     55.8585E-03    -14.7500E-03     114.863E-03    -42.3917E-03     57.4272E-03    -14.6421E-03     115.008E-03
            2326     15.9826E-03     6.93357E-03    -3.92217E+06     76.5080E+06     3.71887E+06     2.44704E+06    -34.5119E-03     47.8860E-03    -13.3741E-03     60.6787E-03    -34.8955E-03     48.5168E-03    -13.4607E-03     60.5301E-03
            2327     15.1126E-03     6.88474E-03    -11.4959E+06     41.5414E+06    -7.14892E+06     3.00176E+06    -29.3344E-03     41.6659E-03    -12.3315E-03     32.6492E-03    -29.4859E-03     41.9453E-03    -12.4108E-03     32.6094E-03
            2328     14.2361E-03     6.85892E-03    -11.3026E+06     9.15187E+06    -2.37006E+06     5.32212E+06    -25.1824E-03     36.6712E-03    -11.4887E-03     21.0311E-03    -25.2642E-03     36.7524E-03    -11.4975E-03     21.0584E-03
            2329     13.3581E-03     6.83731E-03    -11.7361E+06    -22.8209E+06    -1.73239E+06     4.47075E+06    -21.7859E-03     32.5349E-03    -10.7489E-03     16.5203E-03    -21.8172E-03     32.4487E-03    -10.7075E-03     16.5531E-03
            2330     12.4751E-03     6.82291E-03    -12.9089E+06    -34.0110E+06     4.91066E+06     1.17997E+06    -18.4157E-03     28.5524E-03    -10.1367E-03     12.0913E-03    -18.4418E-03     28.3979E-03    -10.0441E-03     12.0930E-03
            2331     11.5905E-03     6.81265E-03    -13.2969E+06    -37.9874E+06     11.0093E+06    -957.541E+03    -15.5649E-03     25.2089E-03    -9.64400E-03     9.59294E-03    -15.5942E-03     25.0244E-03    -9.51459E-03     9.57270E-03
            2332     10.7034E-03     6.80521E-03    -13.6303E+06    -49.0448E+06     10.9098E+06    -1.11757E+06    -13.3745E-03     22.6248E-03    -9.25031E-03     8.38591E-03    -13.3886E-03     22.3848E-03    -9.10488E-03     8.36630E-03
            2333     9.81455E-03     6.80097E-03    -13.8028E+06    -57.7939E+06     6.84276E+06    -1.26166E+06    -11.7706E-03     20.7015E-03    -8.93087E-03     7.58722E-03    -11.7666E-03     20.4235E-03    -8.79285E-03     7.56733E-03
            2334     8.92427E-03     6.79686E-03    -14.2791E+06    -57.4661E+06     1.16656E+06    -1.88691E+06    -10.6515E-03     19.3157E-03    -8.66413E-03     7.12150E-03    -10.6419E-03     19.0480E-03    -8.55427E-03     7.09455E-03
            2335     8.03338E-03     6.79498E-03    -14.7482E+06    -56.4039E+06    -3.25686E+06    -2.28371E+06    -9.85130E-03     18.3069E-03    -8.45564E-03     6.71826E-03    -9.83893E-03     18.0514E-03    -8.36876E-03     6.68687E-03
            2336     7.14172E-03     6.79225E-03    -15.0952E+06    -55.0478E+06    -5.96228E+06    -2.21962E+06    -9.24357E-03     17.5399E-03    -8.29630E-03     6.39604E-03    -9.23086E-03     17.2955E-03    -8.22441E-03     6.36596E-03
            2337     6.24975E-03     6.79140E-03    -15.1691E+06    -54.0333E+06    -8.15264E+06    -1.98977E+06    -8.80149E-03     16.9744E-03    -8.17292E-03     5.91152E-03    -8.78736E-03     16.7383E-03    -8.11334E-03     5.88478E-03
            2338     5.35725E-03     6.78973E-03    -15.1601E+06    -53.2707E+06    -10.0434E+06    -1.75726E+06    -8.45898E-03     16.5386E-03    -8.07962E-03     5.37014E-03    -8.44311E-03     16.3089E-03    -8.03061E-03     5.34668E-03
            2339     4.46474E-03     6.78931E-03    -15.1443E+06    -52.5906E+06    -11.5409E+06    -1.58521E+06    -8.22030E-03     16.2337E-03    -8.01340E-03     4.70975E-03    -8.20313E-03     16.0095E-03    -7.97289E-03     4.68873E-03
            2340     3.57170E-03     6.78838E-03    -15.0691E+06    -52.0469E+06    -12.6677E+06    -1.44206E+06    -8.06343E-03     16.0332E-03    -7.96982E-03     3.95400E-03    -8.04500E-03     15.8132E-03    -7.93584E-03     3.93499E-03
            2341     2.67896E-03     6.78813E-03    -15.0502E+06    -51.9033E+06    -13.6630E+06    -1.17763E+06    -7.97993E-03     15.9229E-03    -7.94294E-03     3.06500E-03    -7.96016E-03     15.7050E-03    -7.91417E-03     3.04953E-03
            2342     1.78587E-03     6.78764E-03    -15.0706E+06    -51.7939E+06    -14.4323E+06    -850.544E+03    -7.93057E-03     15.8603E-03    -7.92974E-03     2.09827E-03    -7.90993E-03     15.6441E-03    -7.90495E-03     2.08712E-03
            2343     892.974E-06     6.78766E-03    -15.0859E+06    -51.6575E+06    -14.8687E+06    -494.204E+03    -7.92920E-03     15.8505E-03    -7.92126E-03     1.16793E-03    -7.90814E-03     15.6356E-03    -7.89883E-03     1.16146E-03
            2344     16.8508E-03     6.01450E-03    -2.72385E+06     120.653E+06     58.2671E+06     2.82997E+06    -42.9371E-03     57.5295E-03    -14.5924E-03     109.841E-03    -44.0898E-03     58.9327E-03    -14.4721E-03     109.852E-03
            2345     15.9893E-03     5.93281E-03    -4.17942E+06     78.3628E+06     14.3446E+06     7.98607E+06    -35.1949E-03     48.3652E-03    -13.1703E-03     54.5122E-03    -35.5486E-03     48.9414E-03    -13.2061E-03     54.4318E-03
            2346     15.1181E-03     5.90034E-03    -8.03129E+06     42.9153E+06     2.46565E+06     7.81222E+06    -28.1839E-03     40.2971E-03    -12.1132E-03     28.3757E-03    -28.3242E-03     40.5546E-03    -12.1514E-03     28.4077E-03
            2347     14.2397E-03     5.87519E-03    -14.7592E+06     8.25748E+06     350.108E+03     6.64048E+06    -23.3336E-03     34.6575E-03    -11.3239E-03     20.3451E-03    -23.4326E-03     34.7326E-03    -11.3127E-03     20.3971E-03
            2348     13.3582E-03     5.85979E-03    -16.1631E+06    -17.8093E+06     2.17694E+06     3.82575E+06    -19.8154E-03     30.5104E-03    -10.6951E-03     15.3948E-03    -19.8804E-03     30.4488E-03    -10.6349E-03     15.4236E-03
            2349     12.4753E-03     5.84752E-03    -15.5547E+06    -29.3164E+06     9.45506E+06    -512.016E+03    -16.4435E-03     26.6598E-03    -10.2163E-03     12.6514E-03    -16.4958E-03     26.5256E-03    -10.1040E-03     12.6338E-03
            2350     11.5888E-03     5.84184E-03    -15.8043E+06    -37.6633E+06     13.3337E+06    -2.86904E+06    -13.9197E-03     23.7791E-03    -9.85947E-03     11.2342E-03    -13.9653E-03     23.5964E-03    -9.71527E-03     11.1906E-03
            2351     10.6996E-03     5.83633E-03    -15.6449E+06    -50.4171E+06     11.7868E+06    -3.32096E+06    -12.0592E-03     21.6573E-03    -9.59815E-03     10.5068E-03    -12.0827E-03     21.4122E-03    -9.44342E-03     10.4594E-03
            2352     9.80981E-03     5.83338E-03    -15.5795E+06    -57.2184E+06     6.41423E+06    -3.27933E+06    -10.9876E-03     20.3804E-03    -9.39281E-03     10.0588E-03    -10.9927E-03     20.1085E-03    -9.25518E-03     10.0133E-03
            2353     8.91913E-03     5.83087E-03    -15.3419E+06    -57.6023E+06     553.231E+03    -3.73012E+06    -10.2742E-03     19.5015E-03    -9.22731E-03     9.40082E-03    -10.2688E-03     19.2356E-03    -9.11877E-03     9.35037E-03
            2354     8.02798E-03     5.82891E-03    -14.7880E+06      -56.44E+06    -2.92775E+06    -3.70944E+06    -9.71677E-03     18.8284E-03    -9.11165E-03     8.96064E-03    -9.70503E-03     18.5723E-03    -9.02301E-03     8.91108E-03
            2355     7.13637E-03     5.82783E-03    -14.2684E+06    -55.7042E+06    -5.58720E+06    -3.67086E+06    -9.37751E-03     18.4105E-03    -9.03296E-03     8.30542E-03    -9.36026E-03     18.1610E-03    -8.95944E-03     8.25679E-03
            2356     6.24438E-03     5.82623E-03    -13.5985E+06    -54.7665E+06    -7.36081E+06    -3.29336E+06    -9.11970E-03     18.1030E-03    -8.98329E-03     7.52221E-03    -9.09780E-03     17.8597E-03    -8.92096E-03     7.47879E-03
            2357     5.35253E-03     5.82586E-03    -12.9942E+06    -54.0097E+06    -8.60482E+06    -2.97701E+06    -8.99804E-03     17.9537E-03    -8.95570E-03     6.65776E-03    -8.97237E-03     17.7151E-03    -8.90157E-03     6.61866E-03
            2358     4.46017E-03     5.82473E-03    -12.3475E+06    -53.2252E+06    -9.36008E+06    -2.60979E+06    -8.92630E-03     17.8691E-03    -8.94281E-03     5.66849E-03    -8.89739E-03     17.6345E-03    -8.89453E-03     5.63431E-03
            2359     3.56836E-03     5.82457E-03    -12.0081E+06    -52.9980E+06    -10.1773E+06    -2.10579E+06    -8.91447E-03     17.8528E-03    -8.93837E-03     4.63640E-03    -8.88298E-03     17.6200E-03    -8.89499E-03     4.60886E-03
            2360     2.67604E-03     5.82374E-03    -11.8364E+06    -52.8827E+06    -10.8629E+06    -1.63003E+06    -8.90592E-03     17.8459E-03    -8.94003E-03     3.49918E-03    -8.87273E-03     17.6144E-03    -8.90050E-03     3.47789E-03
            2361     1.78413E-03     5.82382E-03    -11.8465E+06    -52.8687E+06    -11.3651E+06    -1.04109E+06    -8.93792E-03     17.8798E-03    -8.94188E-03     2.40692E-03    -8.90406E-03     17.6491E-03    -8.90487E-03     2.39333E-03
            2362     892.041E-06     5.82316E-03    -11.9245E+06    -52.6494E+06    -11.7508E+06    -620.586E+03    -8.92829E-03     17.8782E-03    -8.94986E-03     1.27963E-03    -8.89451E-03     17.6492E-03    -8.91499E-03     1.27153E-03
            2363     16.8607E-03     5.00477E-03    -4.84880E+06     117.795E+06     60.2875E+06     2.23759E+06    -45.2113E-03     59.7329E-03    -14.5216E-03     101.116E-03    -46.2289E-03     60.9780E-03    -14.3839E-03     100.991E-03
            2364     15.9935E-03     4.94154E-03    -9.31151E+06     72.4094E+06     15.5408E+06     7.05114E+06    -33.8884E-03     46.9509E-03    -13.0625E-03     47.9542E-03    -34.2083E-03     47.4508E-03    -13.0763E-03     47.8840E-03
            2365     15.1169E-03     4.91360E-03    -12.5582E+06     42.3947E+06     5.30611E+06     13.7164E+06    -26.2512E-03     38.3362E-03    -12.0851E-03     25.6990E-03    -26.4087E-03     38.5847E-03    -12.1018E-03     25.8216E-03
            2366     14.2386E-03     4.89579E-03    -16.2528E+06     16.0199E+06     8.26003E+06     10.0189E+06    -21.1698E-03     32.5955E-03    -11.4257E-03     19.5261E-03    -21.2964E-03     32.6977E-03    -11.3841E-03     19.6287E-03
            2367     13.3571E-03     4.88162E-03    -18.5174E+06    -11.4026E+06     7.15200E+06     1.30667E+06    -17.0459E-03     27.9973E-03    -10.9515E-03     16.6154E-03    -17.1380E-03     27.9628E-03    -10.8723E-03     16.6171E-03
            2368     12.4697E-03     4.87731E-03    -18.1962E+06    -26.1845E+06     11.9159E+06    -3.25693E+06    -14.3425E-03     24.9944E-03    -10.6518E-03     15.1632E-03    -14.4159E-03     24.8757E-03    -10.5279E-03     15.1126E-03
            2369     11.5810E-03     4.86963E-03    -17.6019E+06    -37.0930E+06     15.3579E+06    -5.49444E+06    -12.5490E-03     23.0067E-03    -10.4577E-03     14.1377E-03    -12.6073E-03     22.8264E-03    -10.3016E-03     14.0614E-03
            2370     10.6925E-03     4.86955E-03    -17.6231E+06    -50.2804E+06     12.6040E+06    -6.13745E+06    -11.5376E-03     21.8528E-03    -10.3152E-03     13.4126E-03    -11.5723E-03     21.6099E-03    -10.1537E-03     13.3297E-03
            2371     9.80140E-03     4.86488E-03    -16.9189E+06    -57.2911E+06     5.87859E+06    -6.34995E+06    -10.8296E-03     21.0248E-03    -10.1953E-03     12.6504E-03    -10.8404E-03     20.7552E-03    -10.0583E-03     12.5657E-03
            2372     8.91134E-03     4.86431E-03    -15.2542E+06    -58.0402E+06     273.393E+03    -6.57279E+06    -10.4123E-03     20.5213E-03    -10.1090E-03     11.5541E-03    -10.4053E-03     20.2533E-03    -10.0013E-03     11.4673E-03
            2373     8.01982E-03     4.86254E-03    -13.5832E+06    -57.3506E+06    -2.52244E+06    -6.37703E+06    -10.1898E-03     20.2485E-03    -10.0587E-03     10.7146E-03    -10.1713E-03     19.9854E-03    -9.96846E-03     10.6309E-03
            2374     7.12899E-03     4.86115E-03    -11.9883E+06    -56.7285E+06    -5.04897E+06    -5.78046E+06    -10.0201E-03     20.0479E-03    -10.0278E-03     9.56341E-03    -9.99070E-03     19.7891E-03    -9.95343E-03     9.48775E-03
            2375     6.23778E-03     4.86071E-03    -10.6160E+06    -56.0338E+06    -6.41796E+06    -5.11270E+06    -9.95889E-03     19.9753E-03    -10.0164E-03     8.47006E-03    -9.92161E-03     19.7199E-03    -9.95188E-03     8.40328E-03
            2376     5.34639E-03     4.85919E-03    -9.60215E+06    -55.1722E+06    -6.95440E+06    -4.39929E+06    -9.93432E-03     19.9518E-03    -10.0174E-03     7.22610E-03    -9.89238E-03     19.7000E-03    -9.95830E-03     7.16872E-03
            2377     4.45553E-03     4.85920E-03    -9.04717E+06    -54.6650E+06    -7.33330E+06    -3.58968E+06    -9.96579E-03     19.9888E-03    -10.0231E-03     6.05651E-03    -9.92124E-03     19.7393E-03    -9.96734E-03     6.00973E-03
            2378     3.56408E-03     4.85790E-03    -8.73024E+06    -54.3415E+06    -7.67843E+06    -2.72018E+06    -9.98160E-03     20.0108E-03    -10.0292E-03     4.82738E-03    -9.93540E-03     19.7629E-03    -9.97618E-03     4.79194E-03
            2379     2.67329E-03     4.85809E-03    -8.56920E+06    -54.2058E+06    -8.05376E+06    -1.93428E+06    -10.0110E-03     20.0457E-03    -10.0348E-03     3.64145E-03    -9.96360E-03     19.7988E-03    -9.98400E-03     3.61625E-03
            2380     1.78198E-03     4.85713E-03    -8.58919E+06    -54.2231E+06    -8.39203E+06    -1.20155E+06    -10.0254E-03     20.0645E-03    -10.0392E-03     2.45800E-03    -9.97757E-03     19.8180E-03    -9.99004E-03     2.44234E-03
            2381     891.093E-06     4.85743E-03    -8.39927E+06    -53.8147E+06    -8.54861E+06    -652.178E+03    -10.0310E-03     20.0816E-03    -10.0506E-03     1.32619E-03    -9.98253E-03     19.8371E-03    -10.0031E-03     1.31769E-03
            2382     16.8579E-03     3.99992E-03    -5.03244E+06     112.368E+06     60.3813E+06     6.22077E+06    -45.4443E-03     60.0713E-03    -14.6271E-03     93.2453E-03    -46.3158E-03     61.1507E-03    -14.4808E-03     93.1039E-03
            2383     15.9894E-03     3.95187E-03    -15.2251E+06     65.3887E+06     18.5000E+06     12.8131E+06    -32.7251E-03     45.9394E-03    -13.2144E-03     41.6867E-03    -33.0227E-03     46.3625E-03    -13.1946E-03     41.7195E-03
            2384     15.1156E-03     3.92831E-03    -19.8130E+06     42.6427E+06     10.7967E+06     13.3433E+06    -23.3615E-03     35.7217E-03    -12.3601E-03     23.2807E-03    -23.5552E-03     35.9658E-03    -12.3393E-03     23.4131E-03
            2385     14.2350E-03     3.91696E-03    -17.7158E+06     26.9253E+06     11.1438E+06     8.90992E+06    -17.5033E-03     29.3812E-03    -11.8779E-03     21.5826E-03    -17.6550E-03     29.5337E-03    -11.8355E-03     21.6792E-03
            2386     13.3460E-03     3.91050E-03    -18.0448E+06    -2.31390E+06     8.86200E+06     480.411E+03    -14.9726E-03     26.5856E-03    -11.6131E-03     20.7633E-03    -15.0772E-03     26.5923E-03    -11.5392E-03     20.7585E-03
            2387     12.4592E-03     3.90307E-03    -18.3310E+06    -24.0800E+06     11.6625E+06    -6.57584E+06    -13.2699E-03     24.7404E-03    -11.4706E-03     17.7941E-03    -13.3460E-03     24.6322E-03    -11.3508E-03     17.7025E-03
            2388     11.5705E-03     3.90259E-03    -17.6315E+06    -36.4943E+06     12.4705E+06    -8.55630E+06    -12.1617E-03     23.5435E-03    -11.3818E-03     16.9678E-03    -12.2165E-03     23.3700E-03    -11.2409E-03     16.8531E-03
            2389     10.6795E-03     3.89769E-03    -16.9620E+06    -50.1872E+06     8.93779E+06    -9.84302E+06    -11.9024E-03     23.2146E-03    -11.3122E-03     15.3995E-03    -11.9283E-03     22.9762E-03    -11.1702E-03     15.2694E-03
            2390     9.79162E-03     3.89773E-03    -14.5629E+06    -57.5599E+06     3.37259E+06    -10.5163E+06    -11.5089E-03     22.7494E-03    -11.2405E-03     14.0396E-03    -11.5038E-03     22.4784E-03    -11.1190E-03     13.9017E-03
            2391     8.90007E-03     3.89527E-03    -12.1235E+06    -59.3809E+06    -1.85479E+06    -10.1935E+06    -11.3159E-03     22.4999E-03    -11.1840E-03     12.6744E-03    -11.2882E-03     22.2236E-03    -11.0896E-03     12.5412E-03
            2392     8.01126E-03     3.89411E-03    -9.94491E+06    -59.2646E+06    -4.47979E+06    -9.16014E+06    -11.2308E-03     22.3800E-03    -11.1492E-03     11.0710E-03    -11.1884E-03     22.1048E-03    -11.0713E-03     10.9516E-03
            2393     7.12048E-03     3.89350E-03    -8.39314E+06    -58.6817E+06    -5.94633E+06    -7.92302E+06    -11.1468E-03     22.2753E-03    -11.1284E-03     9.80534E-03    -11.0953E-03     22.0028E-03    -11.0609E-03     9.70219E-03
            2394     6.23060E-03     3.89171E-03    -7.23635E+06    -58.0058E+06    -6.49128E+06    -6.78339E+06    -11.1411E-03     22.2585E-03    -11.1174E-03     8.35333E-03    -11.0840E-03     21.9885E-03    -11.0552E-03     8.26508E-03
            2395     5.34067E-03     3.89182E-03    -6.21921E+06    -57.2198E+06    -6.14554E+06    -5.41694E+06    -11.1215E-03     22.2339E-03    -11.1125E-03     7.08297E-03    -11.0608E-03     21.9657E-03    -11.0512E-03     7.01253E-03
            2396     4.45021E-03     3.89009E-03    -5.82451E+06    -56.6370E+06    -5.91912E+06    -4.08928E+06    -11.1167E-03     22.2265E-03    -11.1098E-03     5.79288E-03    -11.0552E-03     21.9603E-03    -11.0488E-03     5.73969E-03
            2397     3.56057E-03     3.89037E-03    -5.53221E+06    -56.0790E+06    -5.71693E+06    -3.06976E+06    -11.1141E-03     22.2216E-03    -11.1075E-03     4.58189E-03    -11.0523E-03     21.9575E-03    -11.0467E-03     4.54197E-03
            2398     2.67004E-03     3.88910E-03    -5.51538E+06    -55.7976E+06    -5.63054E+06    -2.03143E+06    -11.1162E-03     22.2205E-03    -11.1043E-03     3.42550E-03    -11.0547E-03     21.9577E-03    -11.0436E-03     3.39906E-03
            2399     1.78039E-03     3.88936E-03    -5.42351E+06    -55.5307E+06    -5.49806E+06    -1.31762E+06    -11.1019E-03     22.2044E-03    -11.1025E-03     2.28188E-03    -11.0405E-03     21.9425E-03    -11.0416E-03     2.26473E-03
            2400     889.912E-06     3.88866E-03    -5.52671E+06    -55.2441E+06    -5.41494E+06    -665.318E+03    -11.1027E-03     22.2046E-03    -11.1020E-03     1.24642E-03    -11.0423E-03     21.9443E-03    -11.0409E-03     1.23776E-03
            2401     16.8491E-03     2.99379E-03    -5.91442E+06     103.692E+06     62.9554E+06     11.0763E+06    -44.5459E-03     59.4887E-03    -14.9428E-03     77.5314E-03    -45.2126E-03     60.3225E-03    -14.7698E-03     77.4271E-03
            2402     15.9863E-03     2.95791E-03    -14.8729E+06     63.2902E+06     31.6522E+06     14.3119E+06    -28.5823E-03     42.2896E-03    -13.7073E-03     33.2710E-03    -28.8514E-03     42.6402E-03    -13.6193E-03     33.3620E-03
            2403     15.1078E-03     2.94864E-03    -14.1841E+06     47.1026E+06     21.7345E+06     12.7012E+06    -18.8167E-03     31.9110E-03    -13.0943E-03     24.9874E-03    -18.9989E-03     32.1476E-03    -13.0334E-03     25.1265E-03
            2404     14.2166E-03     2.94584E-03    -15.8312E+06     35.2387E+06     12.5818E+06     6.44121E+06    -15.7823E-03     28.5783E-03    -12.7960E-03     26.7183E-03    -15.9372E-03     28.7654E-03    -12.7612E-03     26.7888E-03
            2405     13.3323E-03     2.93262E-03    -14.1153E+06     7.75202E+06     5.85142E+06    -2.44029E+06    -14.8411E-03     27.4641E-03    -12.6230E-03     22.5050E-03    -14.9349E-03     27.5183E-03    -12.5845E-03     22.4649E-03
            2406     12.4447E-03     2.93411E-03    -12.7281E+06    -21.4005E+06     4.62025E+06    -9.26457E+06    -13.6878E-03     26.2198E-03    -12.5319E-03     19.0414E-03    -13.7288E-03     26.1261E-03    -12.4593E-03     18.9168E-03
            2407     11.5549E-03     2.92921E-03    -11.8505E+06    -36.3817E+06     1.87329E+06    -11.6460E+06    -13.3287E-03     25.7826E-03    -12.4539E-03     17.5484E-03    -13.3391E-03     25.6161E-03    -12.3746E-03     17.3946E-03
            2408     10.6689E-03     2.92753E-03    -9.90111E+06    -49.7684E+06    -4.29528E+06    -12.9477E+06    -12.9736E-03     25.3474E-03    -12.3738E-03     15.1355E-03    -12.9454E-03     25.1197E-03    -12.3088E-03     14.9660E-03
            2409     9.77787E-03     2.92643E-03    -8.46027E+06    -59.0692E+06    -8.36525E+06    -13.8736E+06    -12.9184E-03     25.2268E-03    -12.3084E-03     13.2921E-03    -12.8634E-03     24.9562E-03    -12.2523E-03     13.1113E-03
            2410     8.89146E-03     2.92424E-03    -6.74014E+06    -62.2891E+06    -10.0511E+06    -12.6593E+06    -12.7307E-03     24.9801E-03    -12.2494E-03     11.6937E-03    -12.6598E-03     24.6932E-03    -12.1996E-03     11.5290E-03
            2411     8.00115E-03     2.92415E-03    -5.46434E+06    -62.1048E+06    -10.3649E+06    -10.6727E+06    -12.5783E-03     24.7802E-03    -12.2019E-03     10.0687E-03    -12.5008E-03     24.4928E-03    -12.1558E-03     9.92995E-03
            2412     7.11321E-03     2.92202E-03    -4.62086E+06    -61.4261E+06    -9.94537E+06    -8.90863E+06    -12.5001E-03     24.6624E-03    -12.1623E-03     8.66614E-03    -12.4198E-03     24.3764E-03    -12.1163E-03     8.55039E-03
            2413     6.22403E-03     2.92221E-03    -4.05569E+06    -60.6439E+06    -8.74019E+06    -7.23878E+06    -12.3725E-03     24.5037E-03    -12.1312E-03     7.34353E-03    -12.2923E-03     24.2191E-03    -12.0811E-03     7.24952E-03
            2414     5.33486E-03     2.92034E-03    -3.84214E+06    -59.9285E+06    -7.46157E+06    -5.55686E+06    -12.3107E-03     24.4158E-03    -12.1051E-03     6.12571E-03    -12.2322E-03     24.1325E-03    -12.0500E-03     6.05354E-03
            2415     4.44630E-03     2.92063E-03    -3.51198E+06    -58.8102E+06    -6.13298E+06    -4.12785E+06    -12.2169E-03     24.2989E-03    -12.0820E-03     4.98259E-03    -12.1403E-03     24.0188E-03    -12.0223E-03     4.92897E-03
            2416     3.55656E-03     2.91919E-03    -3.43836E+06    -58.0667E+06    -5.24430E+06    -2.83609E+06    -12.1600E-03     24.2222E-03    -12.0622E-03     3.91836E-03    -12.0855E-03     23.9444E-03    -11.9992E-03     3.88150E-03
            2417     2.66805E-03     2.91941E-03    -3.36743E+06    -57.3953E+06    -4.39548E+06    -1.91317E+06    -12.0990E-03     24.1455E-03    -12.0465E-03     2.89575E-03    -12.0263E-03     23.8698E-03    -11.9804E-03     2.87087E-03
            2418     1.77819E-03     2.91856E-03    -3.34867E+06    -56.8609E+06    -3.72563E+06    -1.16588E+06    -12.0650E-03     24.0991E-03    -12.0340E-03     1.94040E-03    -11.9940E-03     23.8250E-03    -11.9654E-03     1.92524E-03
            2419     889.552E-06     2.91871E-03    -3.52767E+06    -56.5867E+06    -3.52214E+06    -578.446E+03    -12.0366E-03     24.0552E-03    -12.0186E-03     1.04834E-03    -11.9671E-03     23.7825E-03    -11.9490E-03     1.04080E-03
            2420     16.8540E-03     1.99641E-03    -2.43233E+06     97.4909E+06     65.6403E+06     12.4461E+06    -42.1613E-03     57.7929E-03    -15.6317E-03     64.1330E-03    -42.6278E-03     58.4108E-03    -15.4413E-03     64.0514E-03
            2421     15.9720E-03     1.97010E-03    -2.30810E+06     66.2569E+06     44.7695E+06     15.0370E+06    -22.3976E-03     37.0702E-03    -14.6726E-03     32.6340E-03    -22.6010E-03     37.3710E-03    -14.5414E-03     32.7807E-03
            2422     15.0817E-03     1.97989E-03    -4.89846E+06     52.2918E+06     30.5238E+06     10.3393E+06    -18.2097E-03     32.4895E-03    -14.2799E-03     27.7670E-03    -18.3614E-03     32.7207E-03    -14.1960E-03     27.8850E-03
            2423     14.2010E-03     1.96092E-03    -2.24667E+06     45.1812E+06     16.8657E+06     3.28441E+06    -17.8360E-03     31.8069E-03    -13.9709E-03     26.1865E-03    -17.9410E-03     32.0153E-03    -13.9488E-03     26.2189E-03
            2424     13.3159E-03     1.96234E-03    -1.07168E+06     15.0642E+06    -942.098E+03    -5.32284E+06    -16.1756E-03     29.8924E-03    -13.7168E-03     19.6243E-03    -16.2032E-03     29.9723E-03    -13.7418E-03     19.5499E-03
            2425     12.4274E-03     1.95684E-03    -1.31807E+06    -18.9744E+06    -10.4554E+06    -10.4355E+06    -15.5523E-03     29.1184E-03    -13.5661E-03     16.8517E-03    -15.5172E-03     29.0414E-03    -13.5890E-03     16.7134E-03
            2426     11.5445E-03     1.95555E-03    -1.28255E+06    -35.8627E+06    -16.0216E+06    -12.2565E+06    -15.1642E-03     28.5932E-03    -13.4290E-03     14.2331E-03    -15.0960E-03     28.4395E-03    -13.4552E-03     14.0723E-03
            2427     10.6544E-03     1.95444E-03    -1.27458E+06    -50.1024E+06    -21.7715E+06    -13.0907E+06    -14.6712E-03     27.9760E-03    -13.3048E-03     12.2689E-03    -14.5738E-03     27.7591E-03    -13.3391E-03     12.0982E-03
            2428     9.77035E-03     1.95168E-03    -2.14426E+06    -61.2543E+06    -24.2696E+06    -12.7432E+06    -14.4102E-03     27.6190E-03    -13.2088E-03     10.3848E-03    -14.2972E-03     27.3512E-03    -13.2382E-03     10.2190E-03
            2429     8.88083E-03     1.95239E-03    -3.38208E+06    -65.4212E+06    -23.0549E+06    -11.5572E+06    -14.1461E-03     27.2750E-03    -13.1289E-03     8.92938E-03    -14.0350E-03     26.9863E-03    -13.1444E-03     8.77923E-03
            2430     7.99486E-03     1.94983E-03    -4.04262E+06    -65.5940E+06    -20.5057E+06    -9.90557E+06    -13.9033E-03     26.9595E-03    -13.0561E-03     7.68630E-03    -13.7989E-03     26.6672E-03    -13.0577E-03     7.55767E-03
            2431     7.10646E-03     1.95045E-03    -4.19737E+06    -64.4851E+06    -17.8528E+06    -7.85756E+06    -13.6642E-03     26.6537E-03    -12.9894E-03     6.45666E-03    -13.5659E-03     26.3632E-03    -12.9791E-03     6.35469E-03
            2432     6.21869E-03     1.94857E-03    -4.51835E+06    -63.5623E+06    -15.0332E+06    -5.99637E+06    -13.4638E-03     26.3960E-03    -12.9322E-03     5.49295E-03    -13.3725E-03     26.1066E-03    -12.9087E-03     5.41513E-03
            2433     5.33098E-03     1.94887E-03    -4.81121E+06    -62.3466E+06    -12.4016E+06    -4.57299E+06    -13.2702E-03     26.1525E-03    -12.8822E-03     4.50080E-03    -13.1859E-03     25.8657E-03    -12.8469E-03     4.44145E-03
            2434     4.44211E-03     1.94756E-03    -5.02060E+06    -61.0776E+06    -10.0613E+06    -3.27963E+06    -13.1221E-03     25.9608E-03    -12.8387E-03     3.66105E-03    -13.0441E-03     25.6772E-03    -12.7932E-03     3.61847E-03
            2435     3.55459E-03     1.94771E-03    -5.13287E+06    -59.8309E+06    -8.23999E+06    -2.19166E+06    -12.9791E-03     25.7802E-03    -12.8011E-03     2.84906E-03    -12.9061E-03     25.5004E-03    -12.7481E-03     2.82059E-03
            2436     2.66530E-03     1.94689E-03    -5.18924E+06    -58.7379E+06    -7.00415E+06    -1.41419E+06    -12.8746E-03     25.6450E-03    -12.7704E-03     2.10431E-03    -12.8052E-03     25.3689E-03    -12.7127E-03     2.08593E-03
            2437     1.77759E-03     1.94696E-03    -5.14652E+06    -58.0966E+06    -5.98864E+06    -828.942E+03    -12.7934E-03     25.5426E-03    -12.7492E-03     1.40218E-03    -12.7262E-03     25.2682E-03    -12.6874E-03     1.39139E-03
            2438     888.255E-06     1.94656E-03    -4.91128E+06    -57.4977E+06    -5.48669E+06    -349.065E+03    -12.7437E-03     25.4852E-03    -12.7416E-03     773.213E-06    -12.6768E-03     25.2129E-03    -12.6785E-03     768.662E-06
            2439     16.8183E-03     992.469E-06     532.021E+03     87.8934E+06     64.9945E+06     8.81606E+06    -38.5125E-03     55.4817E-03    -16.9691E-03     47.8095E-03    -38.8305E-03     55.9278E-03    -16.7724E-03     47.7707E-03
            2440     15.9423E-03     1.00125E-03     6.88841E+06     71.1779E+06     55.5670E+06     11.7183E+06    -26.0484E-03     42.1328E-03    -16.0844E-03     29.2486E-03    -26.2100E-03     42.4094E-03    -15.9198E-03     29.3775E-03
            2441     15.0650E-03     987.400E-06     8.51076E+06     62.5264E+06     37.1880E+06     4.40350E+06    -23.5296E-03     39.0036E-03    -15.4740E-03     22.7676E-03    -23.6342E-03     39.2522E-03    -15.3911E-03     22.8161E-03
            2442     14.1851E-03     985.113E-06     11.2879E+06     49.3775E+06     10.4562E+06    -1.63510E+06    -20.7759E-03     35.7076E-03    -14.9317E-03     16.6213E-03    -20.8075E-03     35.9244E-03    -14.9674E-03     16.5946E-03
            2443     13.3001E-03     981.303E-06     12.2406E+06     19.9357E+06    -12.0944E+06    -2.35870E+06    -18.5327E-03     33.0831E-03    -14.5504E-03     12.0426E-03    -18.4834E-03     33.1830E-03    -14.6576E-03     12.0094E-03
            2444     12.4201E-03     979.819E-06     9.80176E+06    -14.7730E+06    -26.3799E+06    -6.30050E+06    -17.5680E-03     31.8644E-03    -14.2963E-03     9.77496E-03    -17.4597E-03     31.8149E-03    -14.4210E-03     9.69150E-03
            2445     11.5312E-03     978.845E-06     6.94449E+06    -36.6842E+06    -33.3714E+06    -9.30763E+06    -16.6896E-03     30.7883E-03    -14.0987E-03     7.98175E-03    -16.5535E-03     30.6433E-03    -14.2224E-03     7.86026E-03
            2446     10.6501E-03     977.164E-06     3.99921E+06    -51.9439E+06    -35.1716E+06    -8.08710E+06    -16.1182E-03     30.0642E-03    -13.9460E-03     6.79629E-03    -15.9721E-03     29.8497E-03    -14.0523E-03     6.69089E-03
            2447     9.76087E-03     977.510E-06     973.909E+03    -62.7630E+06    -34.7550E+06    -7.22129E+06    -15.5373E-03     29.3575E-03    -13.8202E-03     5.70174E-03    -15.3911E-03     29.0927E-03    -13.9044E-03     5.60783E-03
            2448     8.87686E-03     975.690E-06    -2.33468E+06    -67.6314E+06    -32.8169E+06    -6.93711E+06    -15.1728E-03     28.8834E-03    -13.7105E-03     4.83268E-03    -15.0389E-03     28.5962E-03    -13.7732E-03     4.74257E-03
            2449     7.98899E-03     976.306E-06    -4.63965E+06    -68.2540E+06    -29.6741E+06    -5.98237E+06    -14.7927E-03     28.4029E-03    -13.6102E-03     4.11581E-03    -14.6740E-03     28.1115E-03    -13.6529E-03     4.03819E-03
            2450     7.10257E-03     974.937E-06    -6.47574E+06    -67.3047E+06    -25.7252E+06    -4.68866E+06    -14.4682E-03     27.9912E-03    -13.5230E-03     3.50915E-03    -14.3658E-03     27.7014E-03    -13.5446E-03     3.44832E-03
            2451     6.21551E-03     975.295E-06    -7.61502E+06    -65.7462E+06    -21.9510E+06    -3.41963E+06    -14.1815E-03     27.6251E-03    -13.4436E-03     2.91142E-03    -14.0924E-03     27.3393E-03    -13.4470E-03     2.86706E-03
            2452     5.32755E-03     974.361E-06    -8.31624E+06    -64.0870E+06    -18.4653E+06    -2.52074E+06    -13.9167E-03     27.2903E-03    -13.3737E-03     2.42415E-03    -13.8385E-03     27.0087E-03    -13.3610E-03     2.39144E-03
            2453     4.44073E-03     974.490E-06    -8.70162E+06    -62.6907E+06    -15.2861E+06    -1.79603E+06    -13.6964E-03     27.0106E-03    -13.3142E-03     1.92364E-03    -13.6269E-03     26.7319E-03    -13.2871E-03     1.90033E-03
            2454     3.55195E-03     973.921E-06    -8.88303E+06    -61.1052E+06    -12.8371E+06    -1.13540E+06    -13.5081E-03     26.7710E-03    -13.2629E-03     1.50509E-03    -13.4453E-03     26.4969E-03    -13.2256E-03     1.49034E-03
            2455     2.66495E-03     973.953E-06    -8.92043E+06    -59.5908E+06    -11.1256E+06    -698.090E+03    -13.3624E-03     26.5830E-03    -13.2206E-03     1.10152E-03    -13.3045E-03     26.3141E-03    -13.1769E-03     1.09244E-03
            2456     1.77593E-03     973.644E-06    -8.87115E+06    -58.8456E+06    -9.87969E+06    -451.692E+03    -13.2522E-03     26.4427E-03    -13.1906E-03     720.065E-06    -13.1969E-03     26.1757E-03    -13.1418E-03     714.189E-06
            2457     888.578E-06     973.687E-06    -8.89348E+06    -58.0745E+06    -9.00092E+06    -194.088E+03    -13.1861E-03     26.3610E-03    -13.1749E-03     393.223E-06    -13.1332E-03     26.0966E-03    -13.1228E-03     390.710E-06


