********************************************************************************
Field Output Report, written Mon Aug 12 22:07:48 2024

Source 1
---------

   ODB: G:/Abaqus_calc_2019/1740/Vel_40/odb/zeides_2a_40_red_1500_cal_75_vel_40_fric_025.odb
   Step: Step-1
   Frame: Increment   3189252: Step Time =   0.3342

Loc 1 : Nodal values from source 1

Output sorted by column "Nodal Label".

Field Output reported at nodes for region: DIE_2A_40_D0_36-1.Region_1
   Computation algorithm: EXTRAPOLATE_COMPUTE_AVERAGE
   Averaged at nodes
   Averaging regions: ODB_REGIONS

      Node Label     COORD.COOR1     COORD.COOR2
                          @Loc 1          @Loc 1
-------------------------------------------------
               1     20.5329E-03     144.843E-03


Field Output reported at nodes for region: DIE_2A_40_D0_36-1.Region_2
   Computation algorithm: EXTRAPOLATE_COMPUTE_AVERAGE
   Averaged at nodes
   Averaging regions: ODB_REGIONS

      Node Label     COORD.COOR1     COORD.COOR2
                          @Loc 1          @Loc 1
-------------------------------------------------
               1     20.5329E-03     144.843E-03


Field Output reported at nodes for part: WIRE-1
   Computation algorithm: EXTRAPOLATE_COMPUTE_AVERAGE
   Averaged at nodes
   Averaging regions: ODB_REGIONS

      Node Label     COORD.COOR1     COORD.COOR2           S.S11           S.S22           S.S33           S.S12         PE.PE11         PE.PE22         PE.PE33         PE.PE12         LE.LE11         LE.LE22         LE.LE33         LE.LE12
                          @Loc 1          @Loc 1          @Loc 1          @Loc 1          @Loc 1          @Loc 1          @Loc 1          @Loc 1          @Loc 1          @Loc 1          @Loc 1          @Loc 1          @Loc 1          @Loc 1
-------------------------------------------------------------------------------------------------------------------------------------------------------------------------------------------------------------------------------------------------
               1     502.347E-09     75.3236E-03    -113.461E+06    -250.792E+06    -114.001E+06     40.8218E+03    -170.601E-03     340.537E-03    -169.936E-03     12.2967E-03    -170.652E-03     339.626E-03    -169.978E-03     11.5738E-03
               2     15.1848E-03     78.8868E-03    -3.34149E+06     122.992E+06     90.5770E+06    -480.616E+03    -167.520E-03     337.669E-03    -170.149E-03     51.8764E-03    -170.353E-03     340.664E-03    -169.869E-03     41.3156E-03
               3     14.4079E-03     157.343E-03     13.0119E+06    -24.1558E+06     63.2936E+06     30.6648E+06     113.271E-03     93.0328E-03    -206.304E-03     2.36680E-03     113.164E-03     92.6861E-03    -205.971E-03     2.76295E-03
               4    -8.95799E-06     150.312E-03     19.7444E+06    -6.51787E+06     14.9780E+06    -4.03106E+06    -154.563E-03     317.972E-03    -163.409E-03    -25.0547E-03    -154.629E-03     317.728E-03    -163.353E-03    -25.2659E-03
               5     843.440E-09    -41.6334E-18    -68.7748E+06    -192.148E+06    -68.9187E+06    -738.844E+03    -165.522E-03     330.815E-03    -165.294E-03     2.20727E-03    -165.487E-03     330.054E-03    -165.260E-03     2.14612E-03
               6     14.7711E-03    -41.6334E-18     21.4466E+06     154.748E+06     118.001E+06     11.8143E+06    -383.291E-03     568.201E-03    -184.910E-03     288.485E-03    -389.559E-03     574.562E-03    -184.576E-03     261.845E-03
               7     758.743E-06     75.3401E-03    -112.969E+06    -248.786E+06    -111.304E+06     82.5851E+03    -170.474E-03     340.561E-03    -170.087E-03     20.4870E-03    -170.558E-03     339.684E-03    -170.119E-03     19.2785E-03
               8     1.51829E-03     75.3753E-03    -110.368E+06    -243.072E+06    -103.448E+06     62.4014E+03    -170.574E-03     340.832E-03    -170.258E-03     37.8013E-03    -170.754E-03     340.057E-03    -170.263E-03     35.5456E-03
               9     2.27725E-03     75.4336E-03    -106.063E+06    -234.565E+06    -91.6883E+06     18.6091E+03    -170.995E-03     341.302E-03    -170.307E-03     55.9550E-03    -171.339E-03     340.702E-03    -170.271E-03     52.5408E-03
              10     3.03618E-03     75.5143E-03    -100.906E+06    -224.535E+06    -78.1257E+06     124.748E+03    -171.395E-03     341.747E-03    -170.352E-03     73.9691E-03    -171.977E-03     341.400E-03    -170.271E-03     69.3057E-03
              11     3.79559E-03     75.6170E-03     -94.801E+06    -208.362E+06    -63.9004E+06     197.148E+03    -171.930E-03     342.302E-03    -170.372E-03     91.9888E-03    -172.844E-03     342.325E-03    -170.252E-03     85.9707E-03
              12     4.55478E-03     75.7416E-03    -88.2313E+06    -189.836E+06    -48.1229E+06     137.580E+03    -172.592E-03     342.986E-03    -170.394E-03     109.857E-03    -173.946E-03     343.492E-03    -170.231E-03     102.354E-03
              13     5.31409E-03     75.8878E-03    -81.2813E+06    -170.872E+06    -33.4645E+06     24.4022E+03    -173.253E-03     343.661E-03    -170.409E-03     127.567E-03    -175.172E-03     344.783E-03    -170.210E-03     118.424E-03
              14     6.07331E-03     76.0555E-03    -74.4284E+06    -147.423E+06    -22.4552E+06    -106.431E+03    -173.904E-03     344.300E-03    -170.396E-03     144.941E-03    -176.544E-03     346.217E-03    -170.187E-03     133.992E-03
              15     6.83247E-03     76.2435E-03     -68.019E+06    -116.616E+06    -12.5119E+06    -239.459E+03    -174.541E-03     344.910E-03    -170.369E-03     162.174E-03    -178.103E-03     347.852E-03    -170.164E-03     149.229E-03
              16     7.59188E-03     76.4520E-03    -61.7711E+06    -74.7212E+06    -2.30066E+06    -250.291E+03    -175.013E-03     345.341E-03    -170.328E-03     178.850E-03    -179.723E-03     349.574E-03    -170.142E-03     163.753E-03
              17     8.35116E-03     76.6785E-03    -55.5432E+06    -25.5825E+06     9.71253E+06    -72.8294E+03    -175.179E-03     345.461E-03    -170.282E-03     194.995E-03    -181.313E-03     351.279E-03    -170.115E-03     177.591E-03
              18     9.11096E-03     76.9247E-03    -49.8046E+06     31.0837E+06     21.8847E+06         954.789    -175.201E-03     345.417E-03    -170.216E-03     212.232E-03    -183.149E-03     353.235E-03    -170.080E-03     192.311E-03
              19     9.87014E-03     77.1909E-03    -44.2658E+06     72.9421E+06     36.9691E+06    -286.543E+03    -175.208E-03     345.391E-03    -170.183E-03     230.530E-03    -185.386E-03     355.563E-03    -170.039E-03     207.962E-03
              20     10.6305E-03     77.4801E-03    -37.7713E+06     90.3398E+06     57.0739E+06    -446.596E+03    -175.109E-03     345.324E-03    -170.215E-03     247.263E-03    -187.780E-03     358.016E-03    -170.006E-03     222.208E-03
              21     11.3893E-03     77.7861E-03    -30.4991E+06     102.219E+06       76.53E+06    -109.657E+03    -174.102E-03     344.357E-03    -170.256E-03     256.797E-03    -188.999E-03     359.287E-03    -169.977E-03     230.160E-03
              22     12.1493E-03     78.0966E-03    -23.3111E+06     111.716E+06     89.6202E+06     144.277E+03    -171.980E-03     342.243E-03    -170.263E-03     250.786E-03    -187.827E-03     358.143E-03    -169.943E-03     224.282E-03
              23     12.9098E-03     78.3852E-03    -16.4252E+06     119.089E+06     93.6069E+06     207.710E+03    -169.508E-03     339.743E-03    -170.234E-03     220.483E-03    -183.881E-03     354.208E-03    -169.915E-03     196.285E-03
              24     13.6681E-03     78.6205E-03    -10.0741E+06     127.581E+06     94.6267E+06     333.983E+03    -167.424E-03     337.624E-03    -170.200E-03     190.493E-03    -179.982E-03     350.324E-03    -169.897E-03     168.727E-03
              25     14.4324E-03     78.8347E-03    -5.20046E+06     127.767E+06     93.0913E+06    -41.2376E+03    -167.062E-03     337.228E-03    -170.167E-03     117.302E-03    -174.588E-03     344.920E-03    -169.879E-03     101.482E-03
              26     15.1906E-03     80.2232E-03    -2.70917E+06     123.793E+06     91.4970E+06     152.382E+03    -167.786E-03     337.955E-03    -170.169E-03     51.8499E-03    -170.617E-03     340.950E-03    -169.887E-03     41.2936E-03
              27     15.1846E-03     81.5527E-03    -2.53164E+06     123.634E+06     89.8803E+06    -104.494E+03    -167.094E-03     337.277E-03    -170.183E-03     52.0874E-03    -169.933E-03     340.285E-03    -169.909E-03     41.5252E-03
              28     15.1905E-03     82.8856E-03    -2.58057E+06     123.295E+06     89.3576E+06     118.286E+03    -167.587E-03     337.748E-03    -170.160E-03     53.5303E-03    -170.447E-03     340.777E-03    -169.888E-03     42.9162E-03
              29     15.1852E-03     84.2199E-03    -2.29089E+06     123.279E+06     90.1312E+06     20.9021E+03    -167.948E-03     338.110E-03    -170.162E-03     52.0451E-03    -170.773E-03     341.103E-03    -169.887E-03     41.4586E-03
              30     15.1894E-03     85.5500E-03    -2.08431E+06     122.745E+06     88.9576E+06     116.706E+03    -166.398E-03     336.575E-03    -170.177E-03     50.6129E-03    -169.186E-03     339.534E-03    -169.907E-03     40.1716E-03
              31     15.1874E-03     86.8770E-03    -2.06135E+06     122.609E+06     89.4003E+06    -554.686E+03    -166.977E-03     337.121E-03    -170.144E-03     52.0850E-03    -169.807E-03     340.120E-03    -169.872E-03     41.5439E-03
              32     15.1884E-03     88.2190E-03    -2.64578E+06     122.109E+06     90.5239E+06     298.265E+03    -168.229E-03     338.374E-03    -170.145E-03     53.4328E-03    -171.092E-03     341.399E-03    -169.866E-03     42.7849E-03
              33     15.1869E-03     89.5465E-03    -2.44475E+06     122.069E+06     90.9703E+06     729.596E+03    -167.372E-03     337.549E-03    -170.177E-03     53.1629E-03    -170.214E-03     340.552E-03    -169.896E-03     42.6165E-03
              34     15.1885E-03     90.8775E-03    -2.31251E+06     121.619E+06     90.6529E+06     112.784E+03    -167.265E-03     337.435E-03    -170.170E-03     51.3860E-03    -170.066E-03     340.397E-03    -169.890E-03     40.8890E-03
              35     15.1873E-03     92.2105E-03    -2.38457E+06     121.107E+06     90.6588E+06    -3.09681E+03    -167.102E-03     337.267E-03    -170.165E-03     51.7215E-03    -169.921E-03     340.244E-03    -169.884E-03     41.2009E-03
              36     15.1887E-03     93.5431E-03    -2.48221E+06     120.626E+06     90.7601E+06    -280.399E+03    -167.215E-03     337.373E-03    -170.159E-03     52.0542E-03    -170.054E-03     340.369E-03    -169.876E-03     41.4802E-03
              37     15.1874E-03     94.8719E-03    -2.19408E+06     119.983E+06     90.1193E+06    -630.847E+03    -167.509E-03     337.645E-03    -170.135E-03     51.1474E-03    -170.327E-03     340.619E-03    -169.855E-03     40.5613E-03
              38     15.1894E-03     96.2080E-03    -1.89802E+06     119.527E+06     89.8206E+06     25.1190E+03    -167.704E-03     337.826E-03    -170.122E-03     52.5501E-03    -170.539E-03     340.818E-03    -169.844E-03     41.9437E-03
              39     15.1871E-03     97.5411E-03    -3.32842E+06     117.887E+06     90.0760E+06    -187.612E+03    -168.071E-03     338.223E-03    -170.152E-03     52.3046E-03    -170.901E-03     341.199E-03    -169.868E-03     41.6893E-03
              40     15.1877E-03     98.8718E-03    -1.71448E+06     119.107E+06     92.0334E+06     479.714E+03    -167.084E-03     337.260E-03    -170.177E-03     51.9681E-03    -169.895E-03     340.222E-03    -169.887E-03     41.4710E-03
              41     15.1892E-03     100.203E-03    -1.43898E+06     119.595E+06     91.0680E+06     581.415E+03    -166.806E-03     336.944E-03    -170.138E-03     52.4372E-03    -169.632E-03     339.925E-03    -169.854E-03     41.9115E-03
              42     15.1879E-03     101.536E-03    -2.78099E+06     118.329E+06     90.1830E+06    -352.467E+03    -167.880E-03     338.001E-03    -170.122E-03     51.6425E-03    -170.700E-03     340.971E-03    -169.838E-03     41.0325E-03
              43     15.1882E-03     102.868E-03    -2.85620E+06     118.258E+06     90.8554E+06    -281.460E+03    -167.629E-03     337.772E-03    -170.143E-03     52.2984E-03    -170.463E-03     340.752E-03    -169.856E-03     41.7042E-03
              44     15.1883E-03     104.202E-03    -2.89687E+06     118.045E+06     91.2589E+06     18.1784E+03    -167.493E-03     337.656E-03    -170.164E-03     52.3783E-03    -170.335E-03     340.642E-03    -169.874E-03     41.7936E-03
              45     15.1869E-03     105.532E-03    -3.30928E+06     117.465E+06     90.9895E+06     245.288E+03    -167.646E-03     337.816E-03    -170.170E-03     52.1018E-03    -170.471E-03     340.782E-03    -169.881E-03     41.5391E-03
              46     15.1890E-03     106.865E-03    -2.89924E+06     116.648E+06     90.9808E+06    -339.711E+03    -167.466E-03     337.631E-03    -170.165E-03     51.3831E-03    -170.273E-03     340.578E-03    -169.875E-03     40.8298E-03
              47     15.1869E-03     108.197E-03    -1.76775E+06     116.707E+06     92.2678E+06    -54.1849E+03    -167.306E-03     337.474E-03    -170.167E-03     51.2391E-03    -170.116E-03     340.423E-03    -169.873E-03     40.7027E-03
              48     15.1894E-03     109.529E-03    -2.39010E+06     116.808E+06     92.2526E+06     672.923E+03    -166.824E-03     336.987E-03    -170.163E-03     52.0969E-03    -169.647E-03     339.948E-03    -169.868E-03     41.5932E-03
              49     15.1875E-03     110.862E-03    -2.42959E+06     118.587E+06     93.0378E+06     1.01768E+06    -166.829E-03     336.989E-03    -170.159E-03     53.0869E-03    -169.679E-03     339.981E-03    -169.863E-03     42.5547E-03
              50     15.1891E-03     112.192E-03    -2.63624E+06     120.654E+06     93.6128E+06     476.682E+03    -167.000E-03     337.146E-03    -170.146E-03     53.1217E-03    -169.862E-03     340.155E-03    -169.849E-03     42.5412E-03
              51     15.1884E-03     113.524E-03    -2.43820E+06     121.215E+06     94.0347E+06    -72.4546E+03    -167.019E-03     337.149E-03    -170.130E-03     52.8041E-03    -169.872E-03     340.151E-03    -169.832E-03     42.2311E-03
              52     15.1891E-03     114.856E-03    -2.20823E+06     121.198E+06     95.0177E+06     134.044E+03    -167.235E-03     337.364E-03    -170.129E-03     52.7943E-03    -170.085E-03     340.361E-03    -169.826E-03     42.2224E-03
              53     15.1883E-03     116.187E-03    -2.63323E+06     120.582E+06     95.7508E+06    -59.8188E+03    -167.149E-03     337.271E-03    -170.122E-03     52.4421E-03    -169.986E-03     340.249E-03    -169.814E-03     41.8902E-03
              54     15.1901E-03     117.519E-03    -1.50812E+06     120.410E+06     97.2596E+06     326.088E+03    -166.886E-03     336.982E-03    -170.097E-03     52.6320E-03    -169.724E-03     339.960E-03    -169.783E-03     42.0981E-03
              55     15.1897E-03     118.851E-03    -2.85980E+06     121.428E+06     97.5757E+06     944.878E+03    -166.987E-03     337.063E-03    -170.076E-03     52.5146E-03    -169.838E-03     340.051E-03    -169.760E-03     41.9747E-03
              56     15.1899E-03     120.183E-03    -2.70905E+06     124.884E+06     98.3818E+06     1.37980E+06    -166.311E-03     336.360E-03    -170.048E-03     52.8550E-03    -169.171E-03     339.368E-03    -169.733E-03     42.3507E-03
              57     15.1925E-03     121.510E-03    -2.61438E+06     127.447E+06     99.3691E+06     418.961E+03    -165.859E-03     335.828E-03    -169.969E-03     53.5371E-03    -168.732E-03     338.855E-03    -169.653E-03     43.0306E-03
              58     15.1925E-03     122.843E-03    -2.40250E+06     127.467E+06     100.253E+06     374.715E+03    -166.286E-03     336.150E-03    -169.864E-03     53.8932E-03    -169.164E-03     339.181E-03    -169.544E-03     43.3431E-03
              59     15.1956E-03     124.171E-03    -2.53874E+06     127.752E+06     100.751E+06     919.028E+03    -165.675E-03     335.388E-03    -169.713E-03     54.4632E-03    -168.563E-03     338.429E-03    -169.391E-03     43.9126E-03
              60     15.1994E-03     125.499E-03    -2.70230E+06     129.729E+06     102.611E+06     1.26010E+06    -165.135E-03     334.608E-03    -169.474E-03     55.6768E-03    -168.047E-03     337.674E-03    -169.145E-03     45.1289E-03
              61     15.2042E-03     126.830E-03    -2.87122E+06     133.319E+06     105.580E+06     2.14828E+06    -164.896E-03     334.029E-03    -169.133E-03     58.4295E-03    -167.869E-03     337.159E-03    -168.794E-03     47.8124E-03
              62     15.2120E-03     128.155E-03    -3.46546E+06     133.923E+06     107.175E+06     516.649E+03    -165.127E-03     333.767E-03    -168.640E-03     60.3208E-03    -168.147E-03     336.940E-03    -168.293E-03     49.5303E-03
              63     15.2209E-03     129.481E-03    -2.25532E+06     133.409E+06     109.390E+06     652.202E+03    -166.409E-03     334.382E-03    -167.973E-03     62.3462E-03    -169.463E-03     337.584E-03    -167.616E-03     51.3679E-03
              64     15.2335E-03     130.813E-03    -3.28646E+06     134.435E+06     111.150E+06     1.88613E+06    -169.002E-03     336.145E-03    -167.143E-03     66.7433E-03    -172.167E-03     339.453E-03    -166.777E-03     55.4037E-03
              65     15.2452E-03     132.147E-03    -3.26833E+06     137.639E+06     115.109E+06     1.78488E+06    -173.810E-03     339.958E-03    -166.149E-03     72.1640E-03    -177.127E-03     343.420E-03    -165.768E-03     60.1901E-03
              66     15.2619E-03     133.487E-03    -1.37032E+06     139.495E+06     119.256E+06     1.55179E+06    -181.736E-03     346.776E-03    -165.041E-03     75.4492E-03    -185.158E-03     350.344E-03    -164.645E-03     62.6410E-03
              67     15.2718E-03     134.843E-03    -3.71676E+06     135.744E+06     117.610E+06     2.10026E+06    -192.642E-03     356.581E-03    -163.939E-03     78.6530E-03    -196.199E-03     360.268E-03    -163.542E-03     64.7453E-03
              68     15.2848E-03     136.212E-03    -1.71038E+06     135.407E+06     118.852E+06     1.33876E+06    -205.918E-03     368.819E-03    -162.901E-03     85.5242E-03    -209.686E-03     372.720E-03    -162.501E-03     70.1240E-03
              69     15.2917E-03     137.606E-03    -3.71409E+06     133.332E+06     119.202E+06    -1.04881E+06    -222.998E-03     384.980E-03    -161.982E-03     92.7277E-03    -226.980E-03     389.081E-03    -161.574E-03     75.5562E-03
              70     15.2958E-03     139.023E-03    -2.36483E+06     130.176E+06     119.519E+06     2.04091E+06    -240.581E-03     401.857E-03    -161.276E-03     98.3416E-03    -244.734E-03     406.121E-03    -160.864E-03     79.3660E-03
              71     15.2983E-03     140.460E-03    -5.50633E+06     124.687E+06     117.226E+06    -2.83962E+06    -257.559E-03     418.265E-03    -160.706E-03     105.161E-03    -261.907E-03     422.701E-03    -160.293E-03     84.2734E-03
              72     15.2999E-03     141.920E-03    -118.862E+03     118.742E+06     118.629E+06    -2.25160E+06    -274.327E-03     434.537E-03    -160.210E-03     112.393E-03    -278.844E-03     439.138E-03    -159.789E-03     89.6234E-03
              73     15.3018E-03     143.413E-03    -5.00752E+06     106.093E+06     114.952E+06    -3.53111E+06    -289.268E-03     449.071E-03    -159.802E-03     121.798E-03    -294.190E-03     454.023E-03    -159.374E-03     96.5298E-03
              74     15.3013E-03     144.910E-03    -2.27098E+06     92.1693E+06     115.050E+06    -3.67217E+06    -305.288E-03     464.705E-03    -159.417E-03     130.699E-03    -310.536E-03     469.944E-03    -158.972E-03     102.882E-03
              75     15.3035E-03     146.445E-03    -3.89470E+06     78.8211E+06     117.561E+06    -4.65406E+06    -322.184E-03     481.234E-03    -159.050E-03     140.070E-03    -327.695E-03     486.682E-03    -158.571E-03     109.950E-03
              76     15.3022E-03     148.006E-03    -1.93030E+06     49.5875E+06     120.754E+06    -8.84383E+06    -332.602E-03     491.445E-03    -158.843E-03     149.337E-03    -338.325E-03     496.995E-03    -158.308E-03     117.468E-03
              77     15.3057E-03     149.562E-03    -203.766E+03     37.0847E+06     142.327E+06    -3.45471E+06    -333.184E-03     492.070E-03    -158.886E-03     160.140E-03    -339.289E-03     497.903E-03    -158.228E-03     127.541E-03
              78     15.3050E-03     151.127E-03    -2.15542E+06     39.8119E+06     164.128E+06     4.58739E+06    -326.890E-03     485.911E-03    -159.021E-03     182.999E-03    -334.207E-03     492.904E-03    -158.255E-03     148.570E-03
              79     15.3113E-03     152.678E-03    -3.90717E+06     43.7529E+06     186.464E+06     5.51323E+06    -300.892E-03     460.501E-03    -159.608E-03     224.053E-03    -309.749E-03     468.995E-03    -158.734E-03     189.832E-03
              80     15.3109E-03     154.207E-03    -13.7504E+06     51.6601E+06     157.934E+06    -392.721E+03    -217.014E-03     378.494E-03    -161.480E-03     281.741E-03    -225.071E-03     386.294E-03    -160.745E-03     259.011E-03
              81     15.3183E-03     155.454E-03    -7.81112E+06     11.2338E+06     86.5071E+06    -13.0436E+06    -58.4737E-03     227.850E-03    -169.377E-03     231.968E-03    -61.8383E-03     231.067E-03    -168.949E-03     225.278E-03
              82     15.0170E-03     156.414E-03    -3.69314E+06    -28.2797E+06     58.2157E+06     1.13580E+06     75.4191E-03     115.699E-03    -191.118E-03     76.5254E-03     75.2300E-03     115.542E-03    -190.781E-03     76.4974E-03
              83     13.6026E-03     156.779E-03     16.7381E+06     19.8022E+06     115.327E+06     867.715E+03     108.311E-03     102.612E-03    -210.923E-03     25.4319E-03     108.202E-03     102.550E-03    -210.399E-03     25.4552E-03
              84     12.6996E-03     156.234E-03    -2.64895E+06     4.22514E+06     149.043E+06    -8.98381E+06     83.3415E-03     135.181E-03    -218.523E-03     1.72427E-03     83.1246E-03     135.125E-03    -217.780E-03     1.51431E-03
              85     11.9398E-03     155.627E-03    -7.53687E+06    -14.4272E+06     130.488E+06    -21.1147E+06     58.2404E-03     164.458E-03    -222.698E-03    -42.0874E-03     57.9106E-03     164.289E-03    -222.014E-03    -42.6606E-03
              86     11.2012E-03     155.009E-03    -8.01901E+06    -14.1115E+06     128.575E+06    -20.4856E+06     47.8066E-03     176.936E-03    -224.743E-03    -61.4085E-03     47.5270E-03     176.765E-03    -224.068E-03    -62.2128E-03
              87     10.4505E-03     154.414E-03    -6.96663E+06    -10.4622E+06     136.500E+06    -10.0532E+06     33.5479E-03     191.508E-03    -225.056E-03    -122.092E-03     33.4222E-03     191.149E-03    -224.348E-03    -123.185E-03
              88     9.75986E-03     153.839E-03     2.56087E+06    -3.51035E+06     130.233E+06    -13.7489E+06     15.9115E-03     206.796E-03    -222.707E-03    -189.650E-03     16.0472E-03     206.108E-03    -222.055E-03    -191.265E-03
              89     9.08208E-03     153.304E-03    -1.87898E+06    -9.93830E+06     119.732E+06    -7.72283E+06    -3.20867E-03     221.436E-03    -218.227E-03    -245.677E-03    -2.82543E-03     220.406E-03    -217.611E-03    -247.599E-03
              90     8.42067E-03     152.816E-03     220.138E+03    -5.94524E+06     109.674E+06    -10.5659E+06    -25.9515E-03     238.247E-03    -212.295E-03    -289.913E-03    -25.3775E-03     236.943E-03    -211.739E-03    -292.238E-03
              91     7.76718E-03     152.378E-03    -2.71100E+06    -13.3862E+06     94.4358E+06    -7.68331E+06    -51.0896E-03     256.634E-03    -205.544E-03    -312.939E-03    -50.4265E-03     255.169E-03    -205.049E-03    -315.500E-03
              92     7.10926E-03     151.986E-03    -3.25312E+06    -6.43633E+06     85.3525E+06    -11.0096E+06    -75.6568E-03     274.255E-03    -198.599E-03    -317.157E-03    -75.0379E-03     272.846E-03    -198.158E-03    -319.872E-03
              93     6.44412E-03     151.645E-03    -2.75161E+06    -9.49250E+06     77.0259E+06    -10.9890E+06    -98.1294E-03     289.990E-03    -191.861E-03    -306.960E-03    -97.6005E-03     288.681E-03    -191.458E-03    -309.659E-03
              94     5.76718E-03     151.347E-03    -564.020E+03    -7.21683E+06     73.1072E+06    -12.0998E+06    -117.556E-03     303.082E-03    -185.526E-03    -284.038E-03    -117.171E-03     301.941E-03    -185.149E-03    -286.621E-03
              95     5.08271E-03     151.096E-03     758.721E+03    -7.94125E+06     66.4607E+06    -10.9345E+06    -133.034E-03     312.783E-03    -179.749E-03    -251.437E-03    -132.794E-03     311.822E-03    -179.406E-03    -253.792E-03
              96     4.38341E-03     150.883E-03     2.43753E+06    -5.14220E+06     57.6537E+06    -10.9450E+06    -144.088E-03     318.744E-03    -174.656E-03    -214.169E-03    -143.959E-03     318.000E-03    -174.364E-03    -216.235E-03
              97     3.67181E-03     150.708E-03     4.63324E+06    -5.46567E+06     46.1079E+06    -10.4487E+06    -151.088E-03     321.367E-03    -170.279E-03    -176.783E-03    -151.046E-03     320.789E-03    -170.047E-03    -178.510E-03
              98     2.95045E-03     150.568E-03     7.99289E+06    -4.57844E+06     37.8454E+06    -10.1716E+06    -155.366E-03     322.005E-03    -166.639E-03    -140.076E-03    -155.384E-03     321.556E-03    -166.455E-03    -141.477E-03
              99     2.22022E-03     150.460E-03      11.158E+06    -4.66049E+06     31.0025E+06    -8.79383E+06    -157.772E-03     321.502E-03    -163.730E-03    -104.362E-03    -157.832E-03     321.145E-03    -163.584E-03    -105.418E-03
             100     1.48429E-03     150.384E-03     14.6131E+06    -4.70849E+06     24.5043E+06    -7.47954E+06    -158.961E-03     320.467E-03    -161.505E-03    -69.7187E-03    -159.039E-03     320.174E-03    -161.397E-03    -70.4416E-03
             101     743.348E-06     150.337E-03     18.2747E+06    -6.78944E+06     18.0445E+06    -5.30031E+06    -156.943E-03     318.926E-03    -161.983E-03    -38.8449E-03    -157.013E-03     318.666E-03    -161.910E-03    -39.2306E-03
             102     2.84588E-06     149.013E-03    -7.33609E+06    -17.8441E+06    -7.65316E+06    -4.73265E+06    -132.632E-03     268.304E-03    -135.672E-03    -14.9908E-03    -132.737E-03     268.127E-03    -135.673E-03    -15.2210E-03
             103    -348.941E-09     147.834E-03    -60.4362E+06    -42.8699E+06    -59.0879E+06    -6.75519E+06    -95.4161E-03     188.981E-03    -93.5650E-03    -952.359E-06    -95.6090E-03     188.902E-03    -93.7107E-03    -1.16846E-03
             104     1.21981E-06     146.723E-03    -117.931E+06    -75.2884E+06    -116.156E+06    -9.15058E+06    -71.8037E-03     142.819E-03    -71.0156E-03     7.11695E-03    -72.1287E-03     142.771E-03    -71.3162E-03     6.94758E-03
             105    -659.121E-09     145.647E-03    -179.951E+06    -112.106E+06    -179.625E+06    -10.0123E+06    -60.3701E-03     120.408E-03    -60.0377E-03     13.4031E-03    -60.8495E-03     120.367E-03    -60.5123E-03     13.2629E-03
             106     598.207E-09     144.586E-03    -245.483E+06    -146.035E+06    -245.043E+06    -8.33863E+06    -58.9972E-03     117.753E-03    -58.7555E-03     17.4376E-03    -59.6581E-03     117.732E-03    -59.4130E-03     17.3396E-03
             107    -257.254E-09     143.516E-03    -241.623E+06    -161.765E+06    -243.397E+06    -541.209E+03    -66.2163E-03     132.018E-03    -65.8014E-03     19.9749E-03    -66.8413E-03     131.906E-03    -66.4335E-03     19.9853E-03
             108     452.998E-09     142.424E-03    -171.370E+06    -151.367E+06    -172.013E+06     5.79471E+06    -79.4013E-03     158.391E-03    -78.9894E-03     20.8184E-03    -79.7985E-03     158.122E-03    -79.3815E-03     20.8961E-03
             109    -94.2707E-09     141.296E-03    -120.849E+06    -138.423E+06    -118.766E+06     1.20160E+06    -94.8849E-03     189.316E-03    -94.4313E-03     20.2841E-03    -95.1275E-03     188.963E-03    -94.6492E-03     20.2582E-03
             110     393.017E-09     140.132E-03    -102.007E+06    -144.443E+06    -102.487E+06    -3.84614E+06    -109.786E-03     219.133E-03    -109.348E-03     19.2790E-03    -109.950E-03     218.703E-03    -109.503E-03     19.1215E-03
             111    -91.6803E-09     138.935E-03    -99.6811E+06    -162.390E+06    -99.7158E+06    -4.45110E+06    -123.299E-03     246.356E-03    -123.057E-03     18.7792E-03    -123.429E-03     245.832E-03    -123.176E-03     18.5328E-03
             112     72.1978E-09     137.706E-03    -97.7544E+06    -181.393E+06    -98.2735E+06    -4.06037E+06    -135.243E-03     270.161E-03    -134.918E-03     17.8409E-03    -135.338E-03     269.541E-03    -135.005E-03     17.5120E-03
             113     344.617E-09     136.451E-03    -97.7195E+06    -196.824E+06    -97.7559E+06    -2.68064E+06    -145.042E-03     289.541E-03    -144.498E-03     16.5701E-03    -145.115E-03     288.846E-03    -144.560E-03     16.1688E-03
             114    -12.3987E-09     135.174E-03    -99.8691E+06    -208.216E+06    -99.8469E+06    -2.53496E+06    -152.815E-03     305.132E-03    -152.317E-03     15.7301E-03    -152.879E-03     304.388E-03    -152.370E-03     15.2415E-03
             115     358.428E-09     133.878E-03    -103.133E+06    -218.942E+06    -103.704E+06    -2.15412E+06    -158.744E-03     317.209E-03    -158.465E-03     14.8958E-03    -158.804E-03     316.424E-03    -158.517E-03     14.3343E-03
             116    -364.913E-09     132.571E-03    -107.688E+06    -228.340E+06    -107.962E+06    -1.59199E+06    -162.888E-03     325.845E-03    -162.958E-03     14.2829E-03    -162.951E-03     325.027E-03    -163.010E-03     13.6804E-03
             117     183.063E-09     131.253E-03    -111.746E+06    -237.093E+06    -111.855E+06    -1.83732E+06    -166.167E-03     331.993E-03    -165.827E-03     13.8276E-03    -166.232E-03     331.144E-03    -165.880E-03     13.1740E-03
             118     440.711E-09     129.929E-03    -116.163E+06    -246.618E+06    -116.151E+06    -2.32882E+06    -168.385E-03     336.233E-03    -167.848E-03     13.1573E-03    -168.453E-03     335.349E-03    -167.902E-03     12.4442E-03
             119    -310.356E-09     128.603E-03    -120.251E+06    -255.299E+06    -120.717E+06    -1.40315E+06    -169.731E-03     339.053E-03    -169.322E-03     12.5402E-03    -169.799E-03     338.139E-03    -169.381E-03     11.8196E-03
             120     739.002E-09     127.268E-03    -120.234E+06    -261.682E+06    -120.896E+06    -1.22016E+06    -170.444E-03     340.314E-03    -169.870E-03     12.8973E-03    -170.503E-03     339.368E-03    -169.921E-03     12.1769E-03
             121    -365.005E-09     125.939E-03    -119.853E+06    -269.529E+06    -119.186E+06    -1.78449E+06    -170.449E-03     340.718E-03    -170.269E-03     12.8044E-03    -170.498E-03     339.730E-03    -170.300E-03     12.0665E-03
             122     211.179E-09     124.607E-03    -119.970E+06    -276.106E+06    -120.222E+06    -743.957E+03    -170.799E-03     341.408E-03    -170.609E-03     12.2617E-03    -170.837E-03     340.388E-03    -170.636E-03     11.5312E-03
             123     173.940E-09     123.273E-03    -119.579E+06    -276.966E+06    -119.329E+06    -26.7959E+03    -171.219E-03     341.779E-03    -170.560E-03     12.4623E-03    -171.255E-03     340.754E-03    -170.582E-03     11.7387E-03
             124     387.448E-09     121.940E-03    -120.722E+06    -278.708E+06    -120.702E+06    -707.271E+03    -171.122E-03     341.680E-03    -170.558E-03     12.6231E-03    -171.159E-03     340.650E-03    -170.583E-03     11.8801E-03
             125    -151.943E-09     120.607E-03    -120.045E+06    -278.968E+06    -120.713E+06     260.932E+03    -171.025E-03     341.511E-03    -170.486E-03     12.4346E-03    -171.058E-03     340.478E-03    -170.511E-03     11.7118E-03
             126     671.418E-09     119.273E-03    -118.309E+06    -277.691E+06    -119.003E+06     283.282E+03    -170.820E-03     341.236E-03    -170.416E-03     12.7594E-03    -170.850E-03     340.205E-03    -170.436E-03     12.0453E-03
             127    -643.583E-09     117.942E-03    -118.105E+06    -276.530E+06    -117.418E+06     183.043E+03    -170.755E-03     341.080E-03    -170.324E-03     12.5683E-03    -170.787E-03     340.052E-03    -170.339E-03     11.8479E-03
             128     1.21899E-06     116.609E-03    -117.102E+06    -275.940E+06    -117.805E+06     -64.355E+03    -170.862E-03     340.998E-03    -170.136E-03     12.4857E-03    -170.889E-03     339.972E-03    -170.156E-03     11.7598E-03
             129    -757.462E-09     115.278E-03    -116.925E+06    -274.822E+06    -116.458E+06     504.432E+03    -170.643E-03     341.092E-03    -170.448E-03     12.7146E-03    -170.673E-03     340.069E-03    -170.463E-03     11.9978E-03
             130     536.890E-09     113.944E-03    -113.767E+06    -271.221E+06    -114.024E+06     588.889E+03    -170.801E-03     341.277E-03    -170.476E-03     12.4804E-03    -170.824E-03     340.264E-03    -170.488E-03     11.7655E-03
             131     116.804E-09     112.612E-03    -113.261E+06    -269.708E+06    -114.016E+06    -186.318E+03    -170.725E-03     341.095E-03    -170.370E-03     12.5935E-03    -170.748E-03     340.089E-03    -170.384E-03     11.8622E-03
             132    -295.979E-09     111.280E-03    -114.010E+06    -268.601E+06    -112.565E+06     408.515E+03    -170.453E-03     340.957E-03    -170.504E-03     12.5885E-03    -170.483E-03     339.956E-03    -170.512E-03     11.8690E-03
             133     354.234E-09     109.947E-03    -112.651E+06    -267.692E+06    -112.955E+06     34.2652E+03    -170.724E-03     340.856E-03    -170.132E-03     12.7024E-03    -170.748E-03     339.857E-03    -170.145E-03     11.9827E-03
             134     424.572E-09     108.616E-03    -112.355E+06    -266.329E+06    -112.357E+06     444.789E+03    -170.746E-03     340.713E-03    -169.966E-03     12.7891E-03    -170.772E-03     339.720E-03    -169.979E-03     12.0621E-03
             135    -79.5047E-09     107.284E-03    -112.622E+06    -264.868E+06    -113.326E+06     275.627E+03    -170.428E-03     340.683E-03    -170.255E-03     12.7092E-03    -170.456E-03     339.700E-03    -170.274E-03     11.9902E-03
             136    -68.6118E-09     105.952E-03    -112.976E+06    -262.963E+06    -112.504E+06     549.852E+03    -170.350E-03     340.420E-03    -170.070E-03     12.4354E-03    -170.383E-03     339.445E-03    -170.088E-03     11.7280E-03
             137     589.455E-09     104.622E-03    -112.043E+06    -262.384E+06    -112.601E+06    -518.746E+03    -170.316E-03     340.283E-03    -169.967E-03     12.4254E-03    -170.345E-03     339.310E-03    -169.987E-03     11.6842E-03
             138    -641.523E-09     103.291E-03    -112.753E+06    -262.436E+06    -112.575E+06    -125.147E+03    -170.432E-03     340.694E-03    -170.261E-03     12.3190E-03    -170.465E-03     339.722E-03    -170.280E-03     11.5793E-03
             139     901.025E-09     101.957E-03    -112.171E+06    -261.125E+06    -112.666E+06     372.768E+03    -170.789E-03     340.917E-03    -170.128E-03     12.5573E-03    -170.820E-03     339.950E-03    -170.150E-03     11.8355E-03
             140    -220.230E-09     100.625E-03    -112.937E+06      -260.1E+06    -112.176E+06     76.4097E+03    -170.507E-03     340.561E-03    -170.054E-03     12.8485E-03    -170.545E-03     339.600E-03    -170.074E-03     12.1216E-03
             141     172.883E-09     99.2941E-03    -113.106E+06    -260.101E+06    -112.649E+06    -162.531E+03    -170.359E-03     340.402E-03    -170.043E-03     12.4438E-03    -170.397E-03     339.441E-03    -170.065E-03     11.7186E-03
             142     303.360E-09     97.9633E-03    -112.654E+06    -259.440E+06    -113.287E+06     326.749E+03    -170.515E-03     340.538E-03    -170.022E-03     12.2923E-03    -170.551E-03     339.581E-03    -170.049E-03     11.5737E-03
             143    -91.9013E-09     96.6309E-03    -113.071E+06    -258.000E+06    -112.403E+06    -17.5036E+03    -170.402E-03     340.493E-03    -170.091E-03     12.3703E-03    -170.444E-03     339.543E-03    -170.115E-03     11.6392E-03
             144     305.602E-09     95.2993E-03    -113.077E+06    -258.472E+06    -113.811E+06    -380.379E+03    -170.240E-03     340.458E-03    -170.217E-03     12.6738E-03    -170.279E-03     339.508E-03    -170.248E-03     11.9405E-03
             145    -549.986E-09     93.9682E-03    -112.943E+06    -257.549E+06    -112.888E+06     531.504E+03    -170.446E-03     340.555E-03    -170.109E-03     12.4170E-03    -170.486E-03     339.608E-03    -170.136E-03     11.7078E-03
             146     1.25100E-06     92.6353E-03    -112.541E+06    -257.154E+06    -113.475E+06    -335.673E+03    -170.610E-03     340.541E-03    -169.931E-03     12.7822E-03    -170.648E-03     339.596E-03    -169.962E-03     12.0565E-03
             147    -989.690E-09     91.3050E-03    -113.331E+06    -256.675E+06    -112.503E+06     212.935E+03    -170.461E-03     340.518E-03    -170.057E-03     12.6215E-03    -170.505E-03     339.576E-03    -170.083E-03     11.8973E-03
             148     1.29119E-06     89.9724E-03    -112.244E+06    -256.153E+06    -112.999E+06     -64.822E+03    -170.493E-03     340.612E-03    -170.119E-03     12.6281E-03    -170.532E-03     339.672E-03    -170.150E-03     11.8956E-03
             149    -1.09022E-06     88.6412E-03    -112.808E+06    -255.631E+06    -112.188E+06     135.067E+03    -170.424E-03     340.670E-03    -170.245E-03     12.7121E-03    -170.468E-03     339.731E-03    -170.272E-03     11.9814E-03
             150     1.10803E-06     87.3085E-03    -112.467E+06    -254.946E+06    -112.666E+06     189.387E+03    -170.540E-03     340.621E-03    -170.081E-03     12.4123E-03    -170.581E-03     339.686E-03    -170.112E-03     11.6888E-03
             151    -487.503E-09     85.9781E-03    -112.317E+06    -253.695E+06    -111.940E+06    -89.7316E+03    -170.572E-03     340.527E-03    -169.956E-03     12.3238E-03    -170.616E-03     339.597E-03    -169.985E-03     11.5862E-03
             152     751.669E-09     84.6457E-03    -113.056E+06    -253.440E+06    -112.791E+06     -197.55E+03    -170.366E-03     340.238E-03    -169.872E-03     11.7382E-03    -170.412E-03     339.311E-03    -169.905E-03     11.0118E-03
             153    -311.868E-09     83.3163E-03    -112.812E+06    -252.884E+06    -113.373E+06    -2.24294E+03    -170.104E-03     340.246E-03    -170.141E-03     12.2660E-03    -170.150E-03     339.322E-03    -170.178E-03     11.5420E-03
             154    -244.134E-09     81.9823E-03    -112.600E+06    -251.716E+06    -112.222E+06    -15.9098E+03    -170.315E-03     340.536E-03    -170.221E-03     12.4664E-03    -170.363E-03     339.617E-03    -170.254E-03     11.7360E-03
             155     891.420E-09     80.6510E-03    -112.695E+06    -251.903E+06    -113.953E+06    -56.8072E+03    -170.728E-03     340.605E-03    -169.877E-03     12.9556E-03    -170.774E-03     339.688E-03    -169.918E-03     12.2294E-03
             156    -319.978E-09     79.3197E-03    -113.981E+06    -251.724E+06    -113.063E+06     416.767E+03    -170.665E-03     340.776E-03    -170.111E-03     12.8112E-03    -170.719E-03     339.860E-03    -170.146E-03     12.0952E-03
             157     536.973E-09     77.9869E-03    -113.322E+06    -251.371E+06    -114.261E+06    -290.778E+03    -170.407E-03     340.570E-03    -170.163E-03     12.2320E-03    -170.456E-03     339.656E-03    -170.205E-03     11.5074E-03
             158    -446.010E-09     76.6571E-03    -114.704E+06    -251.501E+06    -114.068E+06     29.6761E+03    -170.267E-03     340.406E-03    -170.139E-03     12.3355E-03    -170.324E-03     339.493E-03    -170.178E-03     11.6069E-03
             159     391.283E-09     73.9928E-03    -114.842E+06    -250.749E+06    -114.024E+06    -44.7168E+03    -170.551E-03     340.610E-03    -170.059E-03     12.7628E-03    -170.609E-03     339.702E-03    -170.099E-03     12.0328E-03
             160    -589.923E-09     72.6610E-03    -113.650E+06    -249.392E+06    -113.680E+06     530.956E+03    -170.592E-03     340.902E-03    -170.311E-03     12.4772E-03    -170.646E-03     339.998E-03    -170.353E-03     11.7638E-03
             161     1.15849E-06     71.3271E-03    -112.405E+06    -248.432E+06    -113.645E+06    -18.8321E+03    -170.702E-03     340.838E-03    -170.136E-03     12.8419E-03    -170.752E-03     339.937E-03    -170.181E-03     12.1285E-03
             162    -940.594E-09     69.9969E-03    -114.831E+06    -249.032E+06    -113.813E+06    -200.419E+03    -170.494E-03     340.614E-03    -170.120E-03     12.6469E-03    -170.555E-03     339.714E-03    -170.161E-03     11.9174E-03
             163     1.24237E-06     68.6643E-03    -113.525E+06    -248.578E+06    -114.371E+06     -76.087E+03    -170.427E-03     340.469E-03    -170.042E-03     12.0917E-03    -170.481E-03     339.570E-03    -170.089E-03     11.3553E-03
             164    -1.01936E-06     67.3344E-03    -113.918E+06    -248.437E+06    -113.351E+06    -211.433E+03    -170.390E-03     340.636E-03    -170.246E-03     12.0167E-03    -170.448E-03     339.737E-03    -170.287E-03     11.2781E-03
             165     970.553E-09     66.0011E-03    -113.159E+06    -247.651E+06    -113.693E+06    -133.366E+03    -170.523E-03     340.903E-03    -170.379E-03     11.8935E-03    -170.578E-03     340.007E-03    -170.425E-03     11.1493E-03
             166    -757.582E-09     64.6687E-03    -113.772E+06    -247.223E+06    -113.355E+06    -26.7995E+03    -170.394E-03     340.660E-03    -170.266E-03     12.2807E-03    -170.452E-03     339.766E-03    -170.310E-03     11.5572E-03
             167     687.856E-09     63.3372E-03    -113.254E+06    -247.036E+06    -113.923E+06     354.166E+03    -170.280E-03     340.450E-03    -170.170E-03     12.0654E-03    -170.334E-03     339.556E-03    -170.217E-03     11.3756E-03
             168    -511.410E-09     62.0062E-03    -114.272E+06    -247.287E+06    -113.848E+06     77.2185E+03    -170.467E-03     340.769E-03    -170.302E-03     12.5612E-03    -170.527E-03     339.876E-03    -170.347E-03     11.8450E-03
             169     531.795E-09     60.6717E-03    -113.233E+06    -246.290E+06    -113.552E+06     129.981E+03    -170.707E-03     340.970E-03    -170.263E-03     13.1400E-03    -170.764E-03     340.080E-03    -170.309E-03     12.4132E-03
             170     53.9956E-09     59.3395E-03    -114.108E+06    -246.386E+06    -113.644E+06     47.0482E+03    -170.582E-03     340.291E-03    -169.709E-03     12.7249E-03    -170.643E-03     339.402E-03    -169.754E-03     12.0103E-03
             171     630.909E-09     58.0119E-03    -113.223E+06    -245.670E+06    -113.743E+06     328.668E+03    -170.198E-03     339.897E-03    -169.699E-03     12.2873E-03    -170.255E-03     339.010E-03    -169.747E-03     11.5850E-03
             172    -617.471E-09     56.6782E-03    -113.590E+06    -245.088E+06    -112.635E+06    -294.582E+03    -170.009E-03     340.360E-03    -170.351E-03     12.8896E-03    -170.071E-03     339.476E-03    -170.394E-03     12.1598E-03
             173     32.2875E-09     55.3467E-03    -113.258E+06    -245.219E+06    -113.613E+06     243.064E+03    -170.461E-03     340.277E-03    -169.815E-03     12.3096E-03    -170.520E-03     339.393E-03    -169.863E-03     11.5855E-03
             174     1.47712E-06     54.0163E-03    -112.719E+06    -244.664E+06    -114.201E+06     208.880E+03    -170.040E-03     339.446E-03    -169.406E-03     12.4706E-03    -170.096E-03     338.566E-03    -169.459E-03     11.7507E-03
             175    -2.09401E-06     52.6875E-03    -113.431E+06    -243.332E+06    -111.942E+06    -291.108E+03    -169.418E-03     339.401E-03    -169.983E-03     12.3800E-03    -169.482E-03     338.525E-03    -170.026E-03     11.6528E-03
             176     1.81116E-06     51.3547E-03    -112.400E+06    -243.635E+06    -113.725E+06    -352.422E+03    -170.236E-03     339.596E-03    -169.359E-03     11.8770E-03    -170.292E-03     338.719E-03    -169.412E-03     11.1548E-03
             177    -259.339E-09     50.0270E-03    -113.944E+06    -244.096E+06    -113.442E+06     67.9836E+03    -169.954E-03     339.321E-03    -169.367E-03     12.4221E-03    -170.018E-03     338.444E-03    -169.415E-03     11.6926E-03
             178    -451.886E-09     48.6952E-03    -113.729E+06    -243.529E+06    -113.153E+06     123.510E+03    -169.445E-03     339.234E-03    -169.789E-03     11.9722E-03    -169.509E-03     338.359E-03    -169.837E-03     11.2451E-03
             179     595.611E-09     47.3657E-03    -113.949E+06    -243.885E+06    -113.870E+06    -434.697E+03    -169.604E-03     338.836E-03    -169.232E-03     12.2434E-03    -169.668E-03     337.960E-03    -169.283E-03     11.5074E-03
             180    -226.568E-09     46.0361E-03    -112.728E+06    -242.383E+06    -112.715E+06     531.555E+03    -169.393E-03     338.019E-03    -168.625E-03     12.3306E-03    -169.454E-03     337.146E-03    -168.674E-03     11.6484E-03
             181     969.539E-09     44.7083E-03    -112.849E+06    -242.664E+06    -114.149E+06     951.474E+03    -168.835E-03     337.286E-03    -168.452E-03     12.5628E-03    -168.893E-03     336.415E-03    -168.507E-03     11.9072E-03
             182    -1.20281E-06     43.3821E-03    -113.541E+06    -242.091E+06    -112.721E+06     590.490E+03    -168.126E-03     336.654E-03    -168.528E-03     12.0998E-03    -168.191E-03     335.784E-03    -168.576E-03     11.4160E-03
             183     780.109E-09     42.0554E-03    -114.020E+06    -242.701E+06    -113.787E+06    -584.782E+03    -168.107E-03     336.179E-03    -168.071E-03     11.7211E-03    -168.172E-03     335.308E-03    -168.123E-03     11.0115E-03
             184    -348.273E-09     40.7310E-03    -112.831E+06    -241.551E+06    -113.396E+06    -205.115E+03    -167.584E-03     335.251E-03    -167.667E-03     11.7017E-03    -167.645E-03     334.383E-03    -167.720E-03     10.9972E-03
             185    -264.230E-09     39.4051E-03    -113.089E+06    -240.973E+06    -112.851E+06    -714.004E+03    -166.735E-03     333.763E-03    -167.028E-03     11.3336E-03    -166.799E-03     332.898E-03    -167.079E-03     10.6343E-03
             186     389.074E-09     38.0865E-03    -112.950E+06    -240.931E+06    -113.433E+06     172.468E+03    -166.721E-03     333.132E-03    -166.411E-03     11.7235E-03    -166.784E-03     332.268E-03    -166.465E-03     11.0324E-03
             187    -94.0157E-09     36.7607E-03    -113.107E+06    -239.901E+06    -112.897E+06    -136.707E+03    -166.364E-03     332.139E-03    -165.776E-03     11.4685E-03    -166.429E-03     331.279E-03    -165.828E-03     10.8002E-03
             188     652.072E-09     35.4441E-03    -114.327E+06    -241.058E+06    -115.434E+06     68.5793E+03    -165.136E-03     330.273E-03    -165.137E-03     11.4024E-03    -165.202E-03     329.413E-03    -165.199E-03     10.7422E-03
             189    -1.26829E-06     34.1273E-03    -113.690E+06    -238.986E+06    -112.627E+06     470.589E+03    -164.118E-03     328.854E-03    -164.736E-03     10.9871E-03    -164.188E-03     327.999E-03    -164.787E-03     10.3261E-03
             190     911.674E-09     32.8094E-03    -113.584E+06    -239.448E+06    -114.218E+06    -570.782E+03    -163.724E-03     327.215E-03    -163.490E-03     11.7303E-03    -163.791E-03     326.360E-03    -163.550E-03     11.0664E-03
             191    -252.291E-09     31.4971E-03    -114.483E+06    -239.012E+06    -113.759E+06     532.235E+03    -162.903E-03     325.231E-03    -162.328E-03     11.8560E-03    -162.975E-03     324.379E-03    -162.384E-03     11.2270E-03
             192     428.589E-09     30.1888E-03    -112.373E+06    -236.497E+06    -112.370E+06     182.199E+03    -161.606E-03     323.101E-03    -161.495E-03     10.1773E-03    -161.671E-03     322.254E-03    -161.551E-03     9.60794E-03
             193    -471.644E-09     28.8821E-03    -112.911E+06    -237.217E+06    -113.818E+06     866.032E+03    -160.688E-03     321.729E-03    -161.041E-03     10.6400E-03    -160.753E-03     320.882E-03    -161.103E-03     10.0603E-03
             194    -76.6206E-09     27.5730E-03    -113.132E+06    -235.889E+06    -112.263E+06     850.052E+03    -160.233E-03     320.000E-03    -159.768E-03     10.1776E-03    -160.304E-03     319.158E-03    -159.823E-03     9.58052E-03
             195     1.31617E-06     26.2719E-03    -112.607E+06    -234.557E+06    -112.989E+06    -539.688E+03    -159.200E-03     317.474E-03    -158.273E-03     10.0413E-03    -159.269E-03     316.638E-03    -158.335E-03     9.44260E-03
             196    -1.16607E-06     24.9744E-03    -112.217E+06    -233.417E+06    -112.046E+06     406.763E+03    -159.017E-03     316.742E-03    -157.725E-03     9.58117E-03    -159.086E-03     315.910E-03    -157.784E-03     8.98893E-03
             197     2.97522E-06     23.6688E-03    -109.830E+06    -230.149E+06    -110.616E+06     490.158E+03    -157.988E-03     315.259E-03    -157.271E-03     10.3011E-03    -158.051E-03     314.439E-03    -157.331E-03     9.72726E-03
             198    -3.73146E-06     22.3753E-03    -111.577E+06    -230.217E+06    -111.665E+06     279.611E+03    -156.176E-03     312.860E-03    -156.684E-03     9.87940E-03    -156.244E-03     312.046E-03    -156.747E-03     9.31397E-03
             199     3.66625E-06     21.0814E-03    -109.544E+06    -227.898E+06    -108.759E+06    -340.225E+03    -156.253E-03     311.116E-03    -154.863E-03     8.16480E-03    -156.318E-03     310.304E-03    -154.918E-03     7.59126E-03
             200    -1.47232E-06     19.7891E-03    -108.209E+06    -225.733E+06    -107.892E+06     243.467E+03    -154.436E-03     307.947E-03    -153.511E-03     8.59045E-03    -154.501E-03     307.141E-03    -153.566E-03     8.05581E-03
             201     683.182E-09     18.5028E-03    -106.822E+06    -222.694E+06    -106.931E+06     609.487E+03    -151.489E-03     302.560E-03    -151.072E-03     6.02548E-03    -151.551E-03     301.762E-03    -151.128E-03     5.56362E-03
             202     750.487E-09     17.2272E-03    -106.639E+06    -220.904E+06    -107.481E+06    -142.831E+03    -146.985E-03     294.880E-03    -147.895E-03     5.52411E-03    -147.046E-03     294.091E-03    -147.958E-03     5.10283E-03
             203    -3.61838E-06     15.9592E-03    -105.505E+06    -218.005E+06    -106.478E+06     1.39814E+06    -142.275E-03     285.933E-03    -143.658E-03     3.50900E-03    -142.333E-03     285.156E-03    -143.722E-03     3.16726E-03
             204     4.33623E-06     14.7047E-03    -105.268E+06    -214.055E+06    -104.755E+06     692.494E+03    -137.988E-03     274.856E-03    -136.868E-03     2.66934E-03    -138.052E-03     274.095E-03    -136.929E-03     2.36139E-03
             205    -3.27727E-06     13.4659E-03    -106.701E+06    -211.828E+06    -106.288E+06     183.263E+03    -130.986E-03     262.119E-03    -131.133E-03     2.06814E-03    -131.060E-03     261.372E-03    -131.203E-03     1.77758E-03
             206     1.99212E-06     12.2446E-03    -104.157E+06    -206.419E+06    -104.430E+06     994.047E+03    -124.427E-03     248.727E-03    -124.300E-03     268.475E-06    -124.500E-03     247.997E-03    -124.372E-03     36.4437E-06
             207    -472.924E-09     11.0333E-03    -100.965E+06    -200.201E+06    -101.366E+06     2.04723E+06    -117.524E-03     233.982E-03    -116.458E-03     1.18686E-03    -117.596E-03     233.274E-03    -116.528E-03     1.01685E-03
             208     674.559E-09     9.85066E-03    -96.0094E+06    -191.849E+06    -96.0708E+06     2.37145E+06    -110.760E-03     220.717E-03    -109.956E-03     321.314E-06    -110.826E-03     220.036E-03    -110.019E-03     158.223E-06
             209     437.752E-09     8.67419E-03    -91.6752E+06    -184.867E+06    -90.7248E+06     919.598E+03    -106.862E-03     213.081E-03    -106.219E-03     1.63293E-03    -106.923E-03     212.422E-03    -106.272E-03     1.44573E-03
             210    -496.142E-09     7.50543E-03    -88.2981E+06    -182.451E+06    -88.0464E+06    -340.399E+03    -106.883E-03     214.571E-03    -107.688E-03     4.61398E-03    -106.935E-03     213.916E-03    -107.736E-03     4.40576E-03
             211    -741.450E-09     6.32636E-03    -87.4404E+06    -185.409E+06    -87.0742E+06    -1.07693E+06    -113.540E-03     227.739E-03    -114.199E-03     6.80241E-03    -113.590E-03     227.064E-03    -114.238E-03     6.57514E-03
             212     938.517E-09     5.12783E-03    -85.9448E+06    -190.405E+06    -85.8685E+06    -1.20181E+06    -125.563E-03     251.077E-03    -125.514E-03     8.69701E-03    -125.602E-03     250.370E-03    -125.543E-03     8.47502E-03
             213    -1.01701E-06     3.88993E-03    -81.9213E+06    -193.346E+06    -82.3935E+06    -129.496E+03    -139.515E-03     279.073E-03    -139.558E-03     9.06258E-03    -139.535E-03     278.339E-03    -139.571E-03     8.86483E-03
             214     1.06190E-06     2.62212E-03    -76.3015E+06    -193.119E+06    -76.0193E+06     512.993E+03    -152.868E-03     305.473E-03    -152.604E-03     7.23220E-03    -152.867E-03     304.724E-03    -152.594E-03     7.07002E-03
             215    -669.895E-09     1.31864E-03    -70.6579E+06    -192.114E+06    -70.5308E+06    -6.84578E+03    -162.261E-03     324.161E-03    -161.900E-03     4.04609E-03    -162.236E-03     323.404E-03    -161.872E-03     3.94733E-03
             216     761.259E-06    -41.6334E-18    -68.6384E+06    -191.983E+06    -68.7028E+06    -436.697E+03    -165.483E-03     330.842E-03    -165.358E-03     3.60931E-03    -165.449E-03     330.081E-03    -165.324E-03     3.51094E-03
             217     1.52310E-03    -41.6334E-18    -68.0987E+06    -190.926E+06    -67.2657E+06    -256.777E+03    -165.331E-03     330.743E-03    -165.411E-03     6.74088E-03    -165.299E-03     329.985E-03    -165.372E-03     6.56514E-03
             218     2.28416E-03    -41.6334E-18    -67.3444E+06    -188.490E+06    -64.1724E+06     692.771E+03    -164.990E-03     330.343E-03    -165.353E-03     9.78791E-03    -164.964E-03     329.594E-03    -165.303E-03     9.54147E-03
             219     3.04687E-03    -41.6334E-18    -66.5748E+06    -185.595E+06    -61.0277E+06     374.498E+03    -164.551E-03     329.785E-03    -165.234E-03     13.0457E-03    -164.532E-03     329.047E-03    -165.174E-03     12.7027E-03
             220     3.80813E-03    -41.6334E-18    -65.0762E+06    -182.751E+06    -58.9121E+06    -1.01930E+06    -164.270E-03     329.360E-03    -165.090E-03     16.2174E-03    -164.253E-03     328.634E-03    -165.026E-03     15.7745E-03
             221     4.57212E-03    -41.6334E-18    -61.2434E+06    -175.028E+06    -57.5277E+06    -4.18323E+06    -164.147E-03     329.096E-03    -164.950E-03     19.0083E-03    -164.129E-03     328.406E-03    -164.895E-03     18.4199E-03
             222     5.33322E-03    -41.6334E-18    -53.9967E+06    -155.412E+06    -57.1213E+06    -7.77862E+06    -163.785E-03     328.575E-03    -164.789E-03     22.5399E-03    -163.766E-03     327.976E-03    -164.771E-03     21.7945E-03
             223     6.09639E-03    -41.6334E-18    -45.2709E+06    -120.228E+06    -58.9225E+06    -9.13051E+06    -163.398E-03     327.979E-03    -164.581E-03     26.3595E-03    -163.390E-03     327.554E-03    -164.636E-03     25.4805E-03
             224     6.85954E-03    -41.6334E-18    -36.6993E+06    -72.1565E+06    -60.6508E+06    -9.67368E+06    -163.485E-03     327.857E-03    -164.372E-03     29.3550E-03    -163.509E-03     327.670E-03    -164.518E-03     28.3388E-03
             225     7.62253E-03    -41.6334E-18    -28.0506E+06    -14.9529E+06    -54.8595E+06    -9.72708E+06    -163.960E-03     328.205E-03    -164.245E-03     33.0325E-03    -164.043E-03     328.294E-03    -164.457E-03     31.8571E-03
             226     8.38359E-03    -41.6334E-18    -20.3385E+06     29.6391E+06    -30.6098E+06    -6.66835E+06    -164.984E-03     329.302E-03    -164.318E-03     36.9982E-03    -165.142E-03     329.581E-03    -164.484E-03     35.6675E-03
             227     9.14596E-03    -41.6334E-18    -15.5805E+06     53.1874E+06     7.60321E+06    -613.978E+03    -166.978E-03     331.602E-03    -164.624E-03     41.4450E-03    -167.223E-03     331.956E-03    -164.640E-03     39.9476E-03
             228     9.90237E-03    -41.6334E-18    -13.9845E+06     74.5679E+06     39.1887E+06     2.55874E+06    -170.183E-03     335.270E-03    -165.087E-03     46.2981E-03    -170.524E-03     335.712E-03    -164.979E-03     44.5050E-03
             229     10.6608E-03    -41.6334E-18    -13.4539E+06     82.5606E+06     63.6385E+06     4.26928E+06    -175.779E-03     341.584E-03    -165.805E-03     52.7814E-03    -176.208E-03     342.073E-03    -165.587E-03     50.5594E-03
             230     11.4071E-03    -41.6334E-18    -12.1206E+06     83.0379E+06     81.3915E+06     2.48717E+06    -184.981E-03     351.889E-03    -166.908E-03     60.9149E-03    -185.502E-03     352.426E-03    -166.604E-03     57.9448E-03
             231     12.1516E-03    -41.6334E-18    -7.52781E+06     97.7871E+06     89.7673E+06     3.34837E+06    -200.176E-03     368.732E-03    -168.556E-03     77.5520E-03    -200.845E-03     369.459E-03    -168.238E-03     73.5848E-03
             232     12.8666E-03    -41.6334E-18    -5.42087E+06     110.232E+06     90.9864E+06     4.29861E+06    -223.619E-03     394.709E-03    -171.090E-03     108.610E-03    -224.729E-03     395.923E-03    -170.787E-03     102.058E-03
             233     13.5661E-03    -41.6334E-18    -5.51697E+06     117.438E+06     90.3169E+06     1.48239E+06    -264.025E-03     439.028E-03    -175.002E-03     130.636E-03    -265.732E-03     440.905E-03    -174.713E-03     119.624E-03
             234     14.2645E-03    -41.6334E-18     8.63774E+06     138.861E+06     104.866E+06     6.64004E+06    -336.971E-03     518.117E-03    -181.145E-03     211.617E-03    -341.085E-03     522.391E-03    -180.835E-03     191.601E-03
             235     15.0285E-03     1.81157E-03     1.41648E+06     142.241E+06     96.8041E+06     5.31842E+06    -336.540E-03     517.309E-03    -180.769E-03     276.284E-03    -344.208E-03     525.136E-03    -180.493E-03     248.470E-03
             236     15.0735E-03     3.29644E-03    -10.2865E+06     129.989E+06     76.6360E+06     5.52665E+06    -280.090E-03     454.877E-03    -174.787E-03     192.103E-03    -286.438E-03     461.435E-03    -174.577E-03     168.072E-03
             237     15.1451E-03     4.74838E-03    -3.79690E+06     130.885E+06     79.4397E+06     4.58749E+06    -259.417E-03     431.280E-03    -171.863E-03     126.280E-03    -263.677E-03     435.756E-03    -171.650E-03     106.077E-03
             238     15.1518E-03     6.18468E-03    -1.96590E+06     132.692E+06     86.4342E+06     289.167E+03    -251.874E-03     422.256E-03    -170.382E-03     93.3310E-03    -255.626E-03     426.248E-03    -170.140E-03     73.5832E-03
             239     15.1645E-03     7.66860E-03    -1.79114E+06     129.494E+06     88.4852E+06     253.089E+03    -242.063E-03     412.180E-03    -170.117E-03     72.3796E-03    -245.227E-03     415.547E-03    -169.860E-03     54.0780E-03
             240     15.1629E-03     9.03700E-03    -4.14721E+06     124.935E+06     86.2876E+06     -1.2816E+06    -230.115E-03     400.287E-03    -170.171E-03     62.9381E-03    -233.050E-03     403.398E-03    -169.915E-03     46.1111E-03
             241     15.1673E-03     10.4737E-03    -449.892E+03     126.589E+06     89.2453E+06    -33.0617E+03    -220.835E-03     391.121E-03    -170.286E-03     41.8125E-03    -223.111E-03     393.589E-03    -170.022E-03     27.1251E-03
             242     15.1670E-03     11.8515E-03    -489.805E+03     126.054E+06     89.2705E+06     158.350E+03    -207.420E-03     377.993E-03    -170.573E-03     42.2429E-03    -209.697E-03     380.455E-03    -170.309E-03     28.7444E-03
             243     15.1657E-03     13.2361E-03    -2.15967E+06     124.485E+06     87.5785E+06     411.430E+03    -198.937E-03     369.664E-03    -170.727E-03     37.2500E-03    -201.097E-03     372.004E-03    -170.466E-03     24.8034E-03
             244     15.1718E-03     14.5974E-03    -1.31600E+06     125.213E+06     87.2728E+06     277.312E+03    -191.443E-03     362.178E-03    -170.735E-03     37.8742E-03    -193.602E-03     364.523E-03    -170.478E-03     26.0374E-03
             245     15.1712E-03     15.9628E-03    -1.91520E+06     125.621E+06     87.4943E+06     840.198E+03    -189.880E-03     360.528E-03    -170.648E-03     37.6569E-03    -192.064E-03     362.898E-03    -170.390E-03     25.9676E-03
             246     15.1737E-03     17.3269E-03    -4.26362E+06     124.435E+06     86.6702E+06     1.26765E+06    -188.905E-03     359.462E-03    -170.557E-03     40.7038E-03    -191.156E-03     361.888E-03    -170.298E-03     29.0397E-03
             247     15.1762E-03     18.6889E-03    -3.86253E+06     125.220E+06     86.5034E+06     592.398E+03    -186.652E-03     357.059E-03    -170.408E-03     43.3034E-03    -188.970E-03     359.558E-03    -170.151E-03     31.6357E-03
             248     15.1808E-03     20.0428E-03    -2.52596E+06     127.212E+06     87.9728E+06    -383.037E+03    -185.602E-03     355.845E-03    -170.244E-03     41.2125E-03    -187.951E-03     358.382E-03    -169.984E-03     29.5160E-03
             249     15.1805E-03     21.3993E-03    -1.71216E+06     128.536E+06     89.4019E+06     555.487E+03    -184.860E-03     354.970E-03    -170.110E-03     41.5398E-03    -187.270E-03     357.572E-03    -169.847E-03     29.8572E-03
             250     15.1856E-03     22.7581E-03    -1.70359E+06     128.884E+06     89.6626E+06     669.859E+03    -184.737E-03     354.742E-03    -170.005E-03     44.6324E-03    -187.234E-03     357.431E-03    -169.741E-03     32.8326E-03
             251     15.1821E-03     24.1159E-03    -2.55115E+06     128.440E+06     90.1296E+06    -23.0624E+03    -184.346E-03     354.295E-03    -169.948E-03     47.6194E-03    -186.917E-03     357.051E-03    -169.680E-03     35.7476E-03
             252     15.1883E-03     25.4707E-03    -1.59451E+06     129.388E+06     91.2149E+06     868.369E+03    -182.487E-03     352.417E-03    -169.930E-03     49.3474E-03    -185.073E-03     355.192E-03    -169.659E-03     37.6522E-03
             253     15.1835E-03     26.8231E-03    -2.38204E+06     128.639E+06     90.3681E+06     897.937E+03    -180.340E-03     350.313E-03    -169.973E-03     47.9172E-03    -182.915E-03     353.074E-03    -169.704E-03     36.4312E-03
             254     15.1873E-03     28.1666E-03    -3.42178E+06     127.684E+06     88.6200E+06    -428.011E+03    -177.932E-03     347.906E-03    -169.974E-03     47.2636E-03    -180.559E-03     350.718E-03    -169.711E-03     35.8356E-03
             255     15.1875E-03     29.5076E-03    -1.46250E+06     129.824E+06     90.5485E+06    -1.36837E+06    -177.170E-03     347.066E-03    -169.896E-03     45.7903E-03    -179.814E-03     349.903E-03    -169.629E-03     34.3967E-03
             256     15.1892E-03     30.8599E-03    -1.61046E+06     130.080E+06     92.1495E+06    -166.913E+03    -177.467E-03     347.339E-03    -169.872E-03     48.2851E-03    -180.161E-03     350.222E-03    -169.598E-03     36.9282E-03
             257     15.1871E-03     32.2068E-03    -2.10882E+06     129.320E+06     91.1342E+06     969.025E+03    -176.520E-03     346.457E-03    -169.937E-03     51.0246E-03    -179.241E-03     349.366E-03    -169.666E-03     39.7590E-03
             258     15.1871E-03     33.5506E-03    -3.58024E+06     127.619E+06     89.0327E+06     629.787E+03    -174.261E-03     344.249E-03    -169.988E-03     50.7335E-03    -176.980E-03     347.150E-03    -169.723E-03     39.6319E-03
             259     15.1892E-03     34.8801E-03    -1.73251E+06     129.687E+06     91.2204E+06     839.115E+03    -173.692E-03     343.662E-03    -169.970E-03     49.3332E-03    -176.400E-03     346.560E-03    -169.699E-03     38.3494E-03
             260     15.1872E-03     36.2344E-03    -1.78184E+06     129.634E+06     91.2476E+06    -106.223E+03    -172.391E-03     342.386E-03    -169.995E-03     48.9752E-03    -175.121E-03     345.306E-03    -169.724E-03     38.0346E-03
             261     15.1896E-03     37.5600E-03    -2.45999E+06     128.911E+06     90.5154E+06    -104.184E+03    -170.978E-03     340.990E-03    -170.012E-03     51.7383E-03    -173.780E-03     343.978E-03    -169.742E-03     40.8254E-03
             262     15.1879E-03     38.9053E-03    -1.61047E+06     129.748E+06     91.2633E+06    -33.9298E+03    -171.299E-03     341.299E-03    -170.000E-03     51.7049E-03    -174.098E-03     344.289E-03    -169.730E-03     40.7730E-03
             263     15.1892E-03     40.2414E-03    -3.59479E+06     127.861E+06     90.1491E+06     44.6624E+03    -170.665E-03     340.706E-03    -170.041E-03     53.0565E-03    -173.484E-03     343.705E-03    -169.770E-03     42.2018E-03
             264     15.1869E-03     41.5750E-03    -2.39956E+06     128.770E+06     90.5757E+06     14.3772E+03    -170.328E-03     340.404E-03    -170.076E-03     52.2193E-03    -173.130E-03     343.392E-03    -169.806E-03     41.4165E-03
             265     15.1886E-03     42.9130E-03    -3.02031E+06     127.859E+06     89.3687E+06    -239.940E+03    -168.891E-03     338.959E-03    -170.068E-03     51.0132E-03    -171.686E-03     341.938E-03    -169.802E-03     40.3008E-03
             266     15.1899E-03     44.2377E-03    -1.71774E+06     129.407E+06     92.1795E+06    -112.770E+03    -169.486E-03     339.538E-03    -170.053E-03     50.5201E-03    -172.284E-03     342.523E-03    -169.777E-03     39.8381E-03
             267     15.1862E-03     45.5881E-03    -2.89500E+06     127.951E+06     90.1069E+06     552.708E+03    -169.064E-03     339.140E-03    -170.076E-03     51.4144E-03    -171.883E-03     342.142E-03    -169.807E-03     40.7205E-03
             268     15.1912E-03     46.9073E-03    -2.26743E+06     128.401E+06     90.7409E+06     178.940E+03    -168.410E-03     338.495E-03    -170.085E-03     52.8134E-03    -171.249E-03     341.519E-03    -169.814E-03     42.1463E-03
             269     15.1854E-03     48.2513E-03    -1.57206E+06     128.648E+06     91.0681E+06    -70.2535E+03    -168.708E-03     338.765E-03    -170.057E-03     52.2558E-03    -171.525E-03     341.769E-03    -169.786E-03     41.5836E-03
             270     15.1931E-03     49.5803E-03    -1.27693E+06     128.770E+06     90.8492E+06    -32.0821E+03    -167.538E-03     337.584E-03    -170.046E-03     54.1789E-03    -170.403E-03     340.638E-03    -169.776E-03     43.4859E-03
             271     15.1859E-03     50.9138E-03    -2.57856E+06     127.981E+06     91.3673E+06    -174.780E+03    -169.058E-03     339.126E-03    -170.068E-03     52.7183E-03    -171.909E-03     342.157E-03    -169.793E-03     42.0058E-03
             272     15.1893E-03     52.2511E-03    -2.89105E+06     127.395E+06     90.4500E+06     703.734E+03    -168.004E-03     338.115E-03    -170.111E-03     52.9392E-03    -170.844E-03     341.135E-03    -169.839E-03     42.3389E-03
             273     15.1886E-03     53.5766E-03    -2.07557E+06     128.018E+06     90.1183E+06    -85.5320E+03    -167.636E-03     337.741E-03    -170.105E-03     53.0053E-03    -170.474E-03     340.765E-03    -169.837E-03     42.4183E-03
             274     15.1873E-03     54.9160E-03    -3.38569E+06     126.547E+06     89.4303E+06     102.083E+03    -167.854E-03     337.965E-03    -170.111E-03     52.0823E-03    -170.667E-03     340.956E-03    -169.842E-03     41.5341E-03
             275     15.1900E-03     56.2435E-03    -2.38806E+06     127.440E+06     91.3334E+06    -164.232E+03    -167.005E-03     337.144E-03    -170.139E-03     52.6075E-03    -169.831E-03     340.149E-03    -169.864E-03     42.1227E-03
             276     15.1860E-03     57.5770E-03    -1.93323E+06     127.635E+06     90.8005E+06     941.897E+03    -167.332E-03     337.462E-03    -170.130E-03     51.9930E-03    -170.151E-03     340.464E-03    -169.858E-03     41.4943E-03
             277     15.1911E-03     58.9081E-03    -1.48699E+06     127.751E+06     90.2304E+06    -165.945E+03    -166.838E-03     336.955E-03    -170.117E-03     52.3546E-03    -169.670E-03     339.973E-03    -169.849E-03     41.7979E-03
             278     15.1861E-03     60.2398E-03    -3.14592E+06     126.469E+06     89.9297E+06    -817.815E+03    -167.820E-03     337.934E-03    -170.114E-03     52.3544E-03    -170.664E-03     340.955E-03    -169.844E-03     41.7551E-03
             279     15.1897E-03     61.5743E-03    -2.84382E+06     126.626E+06     90.7760E+06     151.981E+03    -167.743E-03     337.875E-03    -170.132E-03     52.3206E-03    -170.576E-03     340.884E-03    -169.857E-03     41.7729E-03
             280     15.1868E-03     62.9052E-03    -2.16963E+06     126.973E+06     91.0150E+06     166.993E+03    -167.109E-03     337.255E-03    -170.146E-03     52.4933E-03    -169.954E-03     340.280E-03    -169.872E-03     41.9415E-03
             281     15.1891E-03     64.2371E-03    -2.99565E+06     126.024E+06     89.9810E+06     383.672E+03    -167.753E-03     337.898E-03    -170.144E-03     52.7459E-03    -170.599E-03     340.919E-03    -169.873E-03     42.1719E-03
             282     15.1865E-03     65.5715E-03    -2.59340E+06     126.063E+06     89.9263E+06     113.150E+03    -167.046E-03     337.200E-03    -170.154E-03     52.2090E-03    -169.863E-03     340.194E-03    -169.883E-03     41.7136E-03
             283     15.1899E-03     66.8995E-03    -2.25200E+06     126.016E+06     90.2922E+06    -131.932E+03    -166.586E-03     336.740E-03    -170.154E-03     51.9345E-03    -169.407E-03     339.738E-03    -169.882E-03     41.4615E-03
             284     15.1864E-03     68.2316E-03    -1.78383E+06     126.160E+06     91.0161E+06     237.819E+03    -167.236E-03     337.365E-03    -170.130E-03     52.0373E-03    -170.063E-03     340.371E-03    -169.855E-03     41.5060E-03
             285     15.1906E-03     69.5659E-03    -1.98037E+06     125.959E+06     91.1856E+06    -431.467E+03    -167.548E-03     337.676E-03    -170.128E-03     52.4999E-03    -170.397E-03     340.701E-03    -169.852E-03     41.8814E-03
             286     15.1854E-03     70.8970E-03    -2.94461E+06     125.029E+06     90.3406E+06    -473.665E+03    -167.534E-03     337.674E-03    -170.140E-03     52.6472E-03    -170.382E-03     340.693E-03    -169.866E-03     42.0596E-03
             287     15.1907E-03     72.2299E-03    -2.51691E+06     125.014E+06     90.2745E+06     403.355E+03    -167.081E-03     337.230E-03    -170.149E-03     52.5159E-03    -169.908E-03     340.230E-03    -169.875E-03     42.0211E-03
             288     15.1855E-03     73.5609E-03    -2.25096E+06     124.885E+06     90.2846E+06     288.780E+03    -167.132E-03     337.288E-03    -170.156E-03     52.3182E-03    -169.964E-03     340.293E-03    -169.882E-03     41.7916E-03
             289     15.1902E-03     74.8923E-03    -3.14017E+06     124.000E+06     90.0184E+06    -442.179E+03    -167.940E-03     338.088E-03    -170.148E-03     52.2888E-03    -170.778E-03     341.094E-03    -169.874E-03     41.6862E-03
             290     15.1852E-03     76.2267E-03    -1.76030E+06     124.154E+06     90.3393E+06     337.087E+03    -167.351E-03     337.491E-03    -170.140E-03     52.1789E-03    -170.166E-03     340.479E-03    -169.866E-03     41.6563E-03
             291     15.1919E-03     77.5575E-03    -1.22310E+06     124.073E+06     90.4861E+06     14.6107E+03    -166.435E-03     336.578E-03    -170.143E-03     52.0300E-03    -169.251E-03     339.568E-03    -169.869E-03     41.5424E-03
             292     759.366E-06     76.6711E-03    -113.300E+06    -249.251E+06    -111.322E+06     4.59140E+03    -170.371E-03     340.558E-03    -170.187E-03     20.5739E-03    -170.456E-03     339.679E-03    -170.218E-03     19.3613E-03
             293     1.51826E-03     76.7072E-03    -110.245E+06    -243.532E+06    -103.520E+06    -21.0430E+03    -170.644E-03     340.914E-03    -170.270E-03     37.8518E-03    -170.823E-03     340.137E-03    -170.274E-03     35.5957E-03
             294     2.27719E-03     76.7657E-03    -106.177E+06    -234.874E+06    -91.4484E+06     44.5591E+03    -170.950E-03     341.275E-03    -170.324E-03     55.9441E-03    -171.294E-03     340.673E-03    -170.287E-03     52.5318E-03
             295     3.03644E-03     76.8460E-03    -100.860E+06    -224.744E+06    -77.5961E+06     22.3875E+03    -171.357E-03     341.712E-03    -170.355E-03     74.0525E-03    -171.940E-03     341.364E-03    -170.271E-03     69.3909E-03
             296     3.79552E-03     76.9486E-03    -94.7154E+06    -208.704E+06    -63.6328E+06    -111.578E+03    -171.956E-03     342.327E-03    -170.371E-03     92.0747E-03    -172.870E-03     342.349E-03    -170.249E-03     86.0483E-03
             297     4.55472E-03     77.0736E-03    -87.9516E+06    -189.872E+06    -48.0765E+06    -225.170E+03    -172.618E-03     343.014E-03    -170.396E-03     109.813E-03    -173.970E-03     343.519E-03    -170.233E-03     102.302E-03
             298     5.31379E-03     77.2196E-03    -80.9259E+06    -171.133E+06    -33.6357E+06    -331.592E+03    -173.262E-03     343.675E-03    -170.412E-03     127.531E-03    -175.179E-03     344.795E-03    -170.215E-03     118.383E-03
             299     6.07310E-03     77.3874E-03    -74.1194E+06    -147.550E+06    -22.6132E+06    -326.049E+03    -173.871E-03     344.269E-03    -170.397E-03     145.079E-03    -176.512E-03     346.188E-03    -170.189E-03     134.125E-03
             300     6.83262E-03     77.5753E-03    -67.6594E+06    -116.764E+06    -12.4965E+06    -300.724E+03    -174.462E-03     344.825E-03    -170.363E-03     162.356E-03    -178.023E-03     347.767E-03    -170.158E-03     149.421E-03
             301     7.59208E-03     77.7839E-03    -61.5624E+06    -75.0448E+06    -2.38894E+06    -297.526E+03    -174.932E-03     345.244E-03    -170.313E-03     178.970E-03    -179.641E-03     349.476E-03    -170.127E-03     163.882E-03
             302     8.35152E-03     78.0109E-03    -55.8043E+06    -26.2522E+06     9.36990E+06    -190.554E+03    -175.158E-03     345.420E-03    -170.262E-03     195.022E-03    -181.291E-03     351.235E-03    -170.096E-03     177.620E-03
             303     9.11085E-03     78.2561E-03    -49.7704E+06     30.3582E+06     21.7337E+06     128.158E+03    -175.246E-03     345.445E-03    -170.199E-03     212.298E-03    -183.194E-03     353.261E-03    -170.062E-03     192.376E-03
             304     9.87097E-03     78.5235E-03    -43.2734E+06     73.4662E+06     37.6339E+06     350.441E+03    -175.308E-03     345.481E-03    -170.172E-03     230.647E-03    -185.493E-03     355.663E-03    -170.028E-03     208.064E-03
             305     10.6298E-03     78.8116E-03    -37.1122E+06     90.5868E+06     57.6260E+06     63.6735E+03    -175.001E-03     345.205E-03    -170.204E-03     247.636E-03    -187.684E-03     357.910E-03    -169.993E-03     222.603E-03
             306     11.3900E-03     79.1190E-03    -30.6727E+06     101.610E+06     76.4093E+06    -39.4883E+03    -174.008E-03     344.243E-03    -170.235E-03     256.929E-03    -188.905E-03     359.170E-03    -169.956E-03     230.319E-03
             307     12.1502E-03     79.4270E-03    -23.5766E+06     111.362E+06     89.6101E+06     292.415E+03    -172.274E-03     342.525E-03    -170.250E-03     250.609E-03    -188.131E-03     358.433E-03    -169.930E-03     224.034E-03
             308     12.9088E-03     79.7194E-03    -16.9921E+06     118.536E+06     93.5094E+06     60.8392E+03    -169.530E-03     339.765E-03    -170.235E-03     220.139E-03    -183.912E-03     354.236E-03    -169.915E-03     195.897E-03
             309     13.6695E-03     79.9512E-03    -10.5641E+06     126.651E+06     94.5533E+06    -295.464E+03    -167.357E-03     337.561E-03    -170.204E-03     189.610E-03    -179.884E-03     350.226E-03    -169.900E-03     167.857E-03
             310     14.4253E-03     80.1651E-03    -4.94775E+06     127.728E+06     93.6562E+06    -54.0845E+03    -167.322E-03     337.501E-03    -170.179E-03     116.796E-03    -174.827E-03     345.170E-03    -169.889E-03     100.969E-03
             311     759.030E-06     78.0031E-03    -112.678E+06    -249.290E+06    -111.341E+06    -165.646E+03    -170.479E-03     340.718E-03    -170.240E-03     20.5288E-03    -170.561E-03     339.838E-03    -170.271E-03     19.3172E-03
             312     1.51791E-03     78.0392E-03    -110.377E+06    -243.793E+06    -103.419E+06    -94.9387E+03    -170.608E-03     340.935E-03    -170.327E-03     37.8208E-03    -170.787E-03     340.157E-03    -170.331E-03     35.5622E-03
             313     2.27722E-03     78.0972E-03    -106.155E+06    -235.111E+06    -91.4471E+06    -50.3546E+03    -170.857E-03     341.198E-03    -170.341E-03     55.8484E-03    -171.200E-03     340.594E-03    -170.303E-03     52.4366E-03
             314     3.03643E-03     78.1776E-03    -100.651E+06    -224.831E+06    -77.6063E+06    -154.757E+03    -171.370E-03     341.725E-03    -170.355E-03     73.9737E-03    -171.951E-03     341.376E-03    -170.271E-03     69.3078E-03
             315     3.79557E-03     78.2807E-03    -94.5076E+06    -208.866E+06    -63.6067E+06    -419.818E+03    -171.954E-03     342.327E-03    -170.373E-03     92.0563E-03    -172.867E-03     342.348E-03    -170.251E-03     86.0277E-03
             316     4.55466E-03     78.4054E-03    -88.0150E+06    -189.995E+06    -48.3781E+06    -427.927E+03    -172.551E-03     342.941E-03    -170.390E-03     110.010E-03    -173.906E-03     343.449E-03    -170.228E-03     102.496E-03
             317     5.31402E-03     78.5517E-03    -81.3706E+06    -170.999E+06    -34.1746E+06    -568.087E+03    -173.200E-03     343.594E-03    -170.395E-03     127.753E-03    -175.121E-03     344.719E-03    -170.200E-03     118.603E-03
             318     6.07340E-03     78.7189E-03    -74.6753E+06    -147.705E+06    -23.1299E+06    -801.945E+03    -173.879E-03     344.256E-03    -170.377E-03     145.278E-03    -176.525E-03     346.179E-03    -170.170E-03     134.315E-03
             319     6.83269E-03     78.9072E-03    -68.1296E+06    -117.224E+06    -12.9116E+06    -840.253E+03    -174.490E-03     344.836E-03    -170.346E-03     162.418E-03    -178.052E-03     347.777E-03    -170.142E-03     149.475E-03
             320     7.59205E-03     79.1156E-03    -61.8180E+06    -75.6806E+06    -2.69022E+06    -579.889E+03    -174.863E-03     345.160E-03    -170.296E-03     178.984E-03    -179.572E-03     349.388E-03    -170.110E-03     163.904E-03
             321     8.35164E-03     79.3427E-03    -55.6723E+06    -27.0490E+06     9.25004E+06    -145.680E+03    -175.155E-03     345.398E-03    -170.244E-03     195.081E-03    -181.292E-03     351.215E-03    -170.077E-03     177.673E-03
             322     9.11134E-03     79.5882E-03    -49.7232E+06     29.7899E+06     21.5815E+06    -41.9958E+03    -175.295E-03     345.480E-03    -170.185E-03     212.118E-03    -183.239E-03     353.290E-03    -170.048E-03     192.188E-03
             323     9.87039E-03     79.8552E-03    -43.7465E+06     72.7067E+06     36.6856E+06    -11.3263E+03    -175.230E-03     345.386E-03    -170.156E-03     230.700E-03    -185.417E-03     355.569E-03    -170.014E-03     208.122E-03
             324     10.6307E-03     80.1442E-03    -37.1202E+06     90.2908E+06     56.9368E+06     546.609E+03    -174.944E-03     345.128E-03    -170.184E-03     247.355E-03    -187.615E-03     357.823E-03    -169.976E-03     222.336E-03
             325     11.3907E-03     80.4494E-03    -30.3116E+06     101.508E+06     76.7197E+06     754.867E+03    -174.283E-03     344.513E-03    -170.231E-03     256.579E-03    -189.169E-03     359.430E-03    -169.950E-03     229.927E-03
             326     12.1491E-03     80.7616E-03    -23.4662E+06     111.306E+06     90.2324E+06     321.676E+03    -172.432E-03     342.696E-03    -170.265E-03     250.274E-03    -188.286E-03     358.601E-03    -169.941E-03     223.660E-03
             327     12.9091E-03     81.0498E-03    -16.5407E+06     119.116E+06     94.3465E+06     71.1959E+03    -169.495E-03     339.749E-03    -170.255E-03     219.855E-03    -183.867E-03     354.212E-03    -169.932E-03     195.638E-03
             328     13.6681E-03     81.2841E-03    -10.4606E+06     126.413E+06     94.5753E+06    -82.6173E+03    -167.661E-03     337.889E-03    -170.228E-03     189.772E-03    -180.181E-03     350.546E-03    -169.923E-03     168.025E-03
             329     14.4304E-03     81.4995E-03    -5.12126E+06     127.135E+06     92.3916E+06    -138.320E+03    -167.211E-03     337.412E-03    -170.200E-03     116.924E-03    -174.711E-03     345.076E-03    -169.915E-03     101.092E-03
             330     758.835E-06     79.3350E-03    -112.851E+06    -249.425E+06    -110.565E+06     98.5787E+03    -170.554E-03     340.783E-03    -170.229E-03     20.8984E-03    -170.639E-03     339.902E-03    -170.257E-03     19.6857E-03
             331     1.51816E-03     79.3710E-03    -110.213E+06    -243.860E+06    -102.995E+06    -27.5873E+03    -170.539E-03     340.878E-03    -170.339E-03     37.8723E-03    -170.718E-03     340.099E-03    -170.340E-03     35.6138E-03
             332     2.27718E-03     79.4288E-03    -106.012E+06    -235.161E+06    -91.3010E+06    -128.458E+03    -170.888E-03     341.224E-03    -170.336E-03     55.9678E-03    -171.231E-03     340.621E-03    -170.298E-03     52.5531E-03
             333     3.03626E-03     79.5096E-03    -100.322E+06    -224.775E+06    -77.7544E+06    -440.167E+03    -171.379E-03     341.733E-03    -170.354E-03     74.1626E-03    -171.960E-03     341.386E-03    -170.271E-03     69.4882E-03
             334     3.79541E-03     79.6124E-03    -94.4126E+06    -209.059E+06    -63.4871E+06    -308.854E+03    -171.861E-03     342.226E-03    -170.365E-03     92.1332E-03    -172.774E-03     342.246E-03    -170.242E-03     86.1104E-03
             335     4.55493E-03     79.7369E-03    -88.2581E+06    -190.152E+06    -48.3794E+06    -299.100E+03    -172.455E-03     342.821E-03    -170.366E-03     110.085E-03    -173.811E-03     343.329E-03    -170.204E-03     102.578E-03
             336     5.31423E-03     79.8834E-03    -81.6598E+06    -170.548E+06    -34.3498E+06    -498.214E+03    -173.178E-03     343.542E-03    -170.364E-03     127.698E-03    -175.100E-03     344.668E-03    -170.170E-03     118.553E-03
             337     6.07355E-03     80.0506E-03    -75.2298E+06    -147.414E+06    -23.1993E+06    -866.227E+03    -173.926E-03     344.279E-03    -170.353E-03     145.227E-03    -176.574E-03     346.204E-03    -170.146E-03     134.263E-03
             338     6.83281E-03     80.2394E-03    -68.9972E+06    -117.309E+06    -13.2420E+06    -1.19847E+06    -174.510E-03     344.840E-03    -170.330E-03     162.339E-03    -178.076E-03     347.782E-03    -170.126E-03     149.386E-03
             339     7.59231E-03     80.4470E-03    -62.7672E+06    -76.1015E+06    -3.35475E+06    -1.48326E+06    -174.913E-03     345.199E-03    -170.286E-03     178.831E-03    -179.624E-03     349.426E-03    -170.101E-03     163.732E-03
             340     8.35187E-03     80.6746E-03    -56.2699E+06    -28.6496E+06     8.24539E+06    -1.28736E+06    -175.185E-03     345.423E-03    -170.238E-03     195.047E-03    -181.322E-03     351.235E-03    -170.074E-03     177.614E-03
             341     9.11090E-03     80.9205E-03    -49.7534E+06     28.5905E+06     20.4850E+06    -147.164E+03    -175.206E-03     345.383E-03    -170.177E-03     211.961E-03    -183.144E-03     353.186E-03    -170.044E-03     192.037E-03
             342     9.87112E-03     81.1867E-03    -43.9144E+06     72.2990E+06     35.9924E+06     470.804E+03    -175.246E-03     345.394E-03    -170.148E-03     230.542E-03    -185.430E-03     355.574E-03    -170.009E-03     207.965E-03
             343     10.6305E-03     81.4759E-03    -37.8512E+06     89.4260E+06     56.1905E+06     273.775E+03    -175.259E-03     345.451E-03    -170.192E-03     247.044E-03    -187.934E-03     358.146E-03    -169.985E-03     221.957E-03
             344     11.3892E-03     81.7821E-03    -30.4529E+06     100.906E+06     76.3588E+06     182.715E+03    -174.444E-03     344.701E-03    -170.257E-03     256.488E-03    -189.344E-03     359.630E-03    -169.978E-03     229.778E-03
             345     12.1495E-03     82.0938E-03    -22.7565E+06     111.611E+06     90.6556E+06     14.5724E+03    -172.325E-03     342.620E-03    -170.295E-03     250.076E-03    -188.176E-03     358.523E-03    -169.970E-03     223.481E-03
             346     12.9087E-03     82.3818E-03    -15.9726E+06     119.472E+06     94.4064E+06     147.584E+03    -169.486E-03     339.767E-03    -170.280E-03     219.515E-03    -183.842E-03     354.216E-03    -169.958E-03     195.318E-03
             347     13.6684E-03     82.6174E-03    -10.3174E+06     126.104E+06     93.7590E+06     400.923E+03    -167.175E-03     337.410E-03    -170.235E-03     190.219E-03    -179.688E-03     350.062E-03    -169.934E-03     168.548E-03
             348     14.4249E-03     82.8300E-03    -5.20630E+06     126.688E+06     91.4965E+06     214.961E+03    -166.951E-03     337.135E-03    -170.184E-03     118.020E-03    -174.455E-03     344.804E-03    -169.902E-03     102.239E-03
             349     759.260E-06     80.6672E-03    -112.085E+06    -249.735E+06    -110.931E+06     22.4605E+03    -170.570E-03     340.648E-03    -170.079E-03     20.7938E-03    -170.649E-03     339.765E-03    -170.109E-03     19.5806E-03
             350     1.51805E-03     80.7026E-03    -109.739E+06    -244.179E+06    -102.570E+06     46.9958E+03    -170.535E-03     340.820E-03    -170.286E-03     37.7736E-03    -170.711E-03     340.038E-03    -170.285E-03     35.5160E-03
             351     2.27734E-03     80.7606E-03    -105.393E+06    -235.164E+06    -90.7564E+06    -151.595E+03    -170.882E-03     341.181E-03    -170.300E-03     56.1112E-03    -171.223E-03     340.577E-03    -170.260E-03     52.6925E-03
             352     3.03648E-03     80.8415E-03    -100.297E+06    -224.934E+06    -77.4477E+06    -62.6383E+03    -171.319E-03     341.637E-03    -170.318E-03     74.2351E-03    -171.899E-03     341.288E-03    -170.234E-03     69.5704E-03
             353     3.79580E-03     80.9438E-03    -94.7041E+06    -209.383E+06    -63.1519E+06     96.5725E+03    -171.849E-03     342.178E-03    -170.329E-03     92.2104E-03    -172.764E-03     342.197E-03    -170.204E-03     86.1913E-03
             354     4.55493E-03     81.0686E-03    -88.2537E+06    -189.956E+06    -47.7348E+06    -113.628E+03    -172.516E-03     342.856E-03    -170.340E-03     110.096E-03    -173.873E-03     343.364E-03    -170.176E-03     102.589E-03
             355     5.31431E-03     81.2149E-03    -81.6688E+06    -170.598E+06    -33.9817E+06    -197.916E+03    -173.250E-03     343.601E-03    -170.351E-03     127.670E-03    -175.172E-03     344.727E-03    -170.156E-03     118.523E-03
             356     6.07352E-03     81.3826E-03    -75.3843E+06    -146.989E+06    -23.0268E+06    -220.641E+03    -173.947E-03     344.295E-03    -170.348E-03     145.117E-03    -176.597E-03     346.222E-03    -170.140E-03     134.154E-03
             357     6.83291E-03     81.5709E-03    -69.5669E+06    -116.348E+06    -13.0683E+06    -670.766E+03    -174.535E-03     344.865E-03    -170.329E-03     162.122E-03    -178.103E-03     347.810E-03    -170.125E-03     149.175E-03
             358     7.59219E-03     81.7790E-03    -64.2482E+06    -75.5890E+06    -3.82801E+06    -1.29911E+06    -174.994E-03     345.286E-03    -170.292E-03     178.681E-03    -179.713E-03     349.519E-03    -170.108E-03     163.571E-03
             359     8.35126E-03     82.0064E-03    -59.2565E+06    -28.4985E+06     7.13254E+06    -1.92711E+06    -175.121E-03     345.368E-03    -170.247E-03     194.971E-03    -181.270E-03     351.185E-03    -170.084E-03     177.538E-03
             360     9.11142E-03     82.2521E-03    -53.3558E+06     26.2155E+06     18.3323E+06    -2.46424E+06    -175.194E-03     345.376E-03    -170.183E-03     211.878E-03    -183.148E-03     353.181E-03    -170.052E-03     191.911E-03
             361     9.87064E-03     82.5185E-03    -45.6998E+06     69.7025E+06     33.7869E+06    -1.46105E+06    -175.482E-03     345.644E-03    -170.162E-03     230.342E-03    -185.672E-03     355.820E-03    -170.027E-03     207.689E-03
             362     10.6299E-03     82.8087E-03    -37.7311E+06     89.3403E+06     56.0382E+06    -399.629E+03    -175.392E-03     345.615E-03    -170.223E-03     247.226E-03    -188.088E-03     358.331E-03    -170.017E-03     222.091E-03
             363     11.3896E-03     83.1149E-03    -30.5252E+06     100.675E+06     76.4431E+06    -643.466E+03    -174.330E-03     344.619E-03    -170.289E-03     256.535E-03    -189.241E-03     359.557E-03    -170.008E-03     229.829E-03
             364     12.1485E-03     83.4254E-03    -23.6116E+06     110.452E+06     89.1776E+06    -326.549E+03    -172.326E-03     342.640E-03    -170.314E-03     250.518E-03    -188.193E-03     358.557E-03    -169.994E-03     223.923E-03
             365     12.9079E-03     83.7153E-03    -16.7507E+06     118.285E+06     92.5138E+06     130.979E+03    -169.193E-03     339.477E-03    -170.284E-03     219.799E-03    -183.541E-03     353.917E-03    -169.969E-03     195.655E-03
             366     13.6677E-03     83.9474E-03    -10.2828E+06     125.881E+06     92.9206E+06     310.356E+03    -166.888E-03     337.111E-03    -170.222E-03     190.204E-03    -179.383E-03     349.746E-03    -169.925E-03     168.576E-03
             367     14.4328E-03     84.1623E-03    -4.74680E+06     126.993E+06     91.9632E+06     254.860E+03    -167.238E-03     337.414E-03    -170.176E-03     117.675E-03    -174.745E-03     345.088E-03    -169.893E-03     101.871E-03
             368     758.870E-06     81.9991E-03    -112.155E+06    -250.082E+06    -110.105E+06    -13.1047E+03    -170.289E-03     340.504E-03    -170.215E-03     20.5350E-03    -170.369E-03     339.617E-03    -170.240E-03     19.3233E-03
             369     1.51838E-03     82.0339E-03    -109.316E+06    -244.809E+06    -102.537E+06    -8.48597E+03    -170.496E-03     340.715E-03    -170.219E-03     37.8826E-03    -170.670E-03     339.929E-03    -170.218E-03     35.6225E-03
             370     2.27735E-03     82.0925E-03    -105.152E+06    -235.761E+06    -90.4836E+06     356.503E+03    -170.875E-03     341.122E-03    -170.248E-03     56.0969E-03    -171.214E-03     340.514E-03    -170.206E-03     52.6869E-03
             371     3.03663E-03     82.1728E-03    -100.412E+06    -225.408E+06    -76.8127E+06     555.216E+03    -171.295E-03     341.575E-03    -170.279E-03     74.0775E-03    -171.876E-03     341.222E-03    -170.191E-03     69.4252E-03
             372     3.79587E-03     82.2755E-03    -94.2983E+06    -209.482E+06    -62.6405E+06     309.529E+03    -171.919E-03     342.221E-03    -170.302E-03     92.0787E-03    -172.832E-03     342.237E-03    -170.175E-03     86.0591E-03
             373     4.55518E-03     82.4003E-03    -88.0462E+06    -190.214E+06    -47.4898E+06     375.719E+03    -172.601E-03     342.933E-03    -170.332E-03     109.918E-03    -173.956E-03     343.437E-03    -170.166E-03     102.416E-03
             374     5.31425E-03     82.5468E-03    -81.6615E+06    -171.047E+06    -33.4910E+06     509.339E+03    -173.296E-03     343.653E-03    -170.357E-03     127.638E-03    -175.220E-03     344.777E-03    -170.158E-03     118.494E-03
             375     6.07349E-03     82.7145E-03    -75.3368E+06    -147.073E+06    -22.6521E+06     619.429E+03    -173.992E-03     344.350E-03    -170.358E-03     145.059E-03    -176.642E-03     346.276E-03    -170.149E-03     134.103E-03
             376     6.83270E-03     82.9027E-03    -69.4732E+06    -115.542E+06    -12.3624E+06     540.099E+03    -174.589E-03     344.934E-03    -170.345E-03     162.119E-03    -178.162E-03     347.886E-03    -170.138E-03     149.176E-03
             377     7.59194E-03     83.1111E-03    -63.8741E+06    -74.3987E+06    -2.48772E+06     176.091E+03    -174.941E-03     345.249E-03    -170.308E-03     178.713E-03    -179.663E-03     349.488E-03    -170.120E-03     163.625E-03
             378     8.35171E-03     83.3381E-03    -57.7245E+06    -26.3449E+06     8.97948E+06    -830.392E+03    -175.146E-03     345.407E-03    -170.260E-03     194.939E-03    -181.298E-03     351.234E-03    -170.094E-03     177.509E-03
             379     9.11083E-03     83.5836E-03    -51.0996E+06     28.0467E+06     21.3953E+06    -3.04704E+06    -175.421E-03     345.632E-03    -170.211E-03     212.047E-03    -183.381E-03     353.448E-03    -170.070E-03     192.035E-03
             380     9.87019E-03     83.8514E-03    -44.2097E+06     66.4720E+06     36.9793E+06    -3.69075E+06    -175.587E-03     345.796E-03    -170.208E-03     230.648E-03    -185.783E-03     355.963E-03    -170.056E-03     207.956E-03
             381     10.6297E-03     84.1403E-03    -36.9894E+06     86.0776E+06     57.7347E+06    -1.46702E+06    -175.274E-03     345.531E-03    -170.257E-03     247.643E-03    -187.975E-03     358.240E-03    -170.040E-03     222.518E-03
             382     11.3889E-03     84.4476E-03    -30.1343E+06     100.866E+06     76.4760E+06     434.992E+03    -174.214E-03     344.512E-03    -170.297E-03     256.794E-03    -189.115E-03     359.441E-03    -170.018E-03     230.143E-03
             383     12.1490E-03     84.7571E-03    -23.4738E+06     109.973E+06     88.3722E+06     496.836E+03    -172.009E-03     342.310E-03    -170.301E-03     251.128E-03    -187.867E-03     358.219E-03    -169.984E-03     224.622E-03
             384     12.9088E-03     85.0486E-03    -16.7215E+06     117.853E+06     91.9279E+06    -439.690E+03    -169.147E-03     339.404E-03    -170.257E-03     219.927E-03    -183.489E-03     353.838E-03    -169.944E-03     195.797E-03
             385     13.6700E-03     85.2764E-03    -10.4872E+06     125.703E+06     92.3996E+06    -549.731E+03    -167.799E-03     338.020E-03    -170.221E-03     190.109E-03    -180.333E-03     350.695E-03    -169.926E-03     168.286E-03
             386     14.4231E-03     85.4972E-03    -4.84702E+06     126.480E+06     91.0104E+06     24.8840E+03    -167.122E-03     337.318E-03    -170.196E-03     117.340E-03    -174.658E-03     345.022E-03    -169.917E-03     101.461E-03
             387     759.332E-06     83.3296E-03    -111.905E+06    -250.787E+06    -110.178E+06     70.8753E+03    -170.221E-03     340.361E-03    -170.141E-03     20.5700E-03    -170.299E-03     339.471E-03    -170.166E-03     19.3589E-03
             388     1.51839E-03     83.3658E-03    -109.429E+06    -245.571E+06    -102.045E+06     293.421E+03    -170.519E-03     340.687E-03    -170.168E-03     37.9268E-03    -170.693E-03     339.897E-03    -170.164E-03     35.6717E-03
             389     2.27755E-03     83.4240E-03    -105.408E+06    -236.716E+06    -90.3048E+06     544.960E+03    -170.887E-03     341.110E-03    -170.223E-03     55.9019E-03    -171.226E-03     340.496E-03    -170.178E-03     52.4975E-03
             390     3.03671E-03     83.5042E-03    -99.8965E+06    -225.992E+06    -76.6112E+06     655.943E+03    -171.385E-03     341.658E-03    -170.273E-03     73.9659E-03    -171.962E-03     341.300E-03    -170.184E-03     69.3109E-03
             391     3.79582E-03     83.6073E-03    -93.8635E+06    -209.976E+06    -62.4136E+06     758.553E+03    -171.996E-03     342.311E-03    -170.315E-03     91.9965E-03    -172.906E-03     342.323E-03    -170.186E-03     85.9822E-03
             392     4.55482E-03     83.7320E-03    -87.6266E+06    -191.056E+06    -46.9553E+06     971.833E+03    -172.639E-03     342.994E-03    -170.355E-03     109.811E-03    -173.992E-03     343.494E-03    -170.186E-03     102.311E-03
             393     5.31419E-03     83.8785E-03    -80.8778E+06    -171.618E+06    -32.5147E+06     1.13434E+06    -173.317E-03     343.701E-03    -170.384E-03     127.509E-03    -175.237E-03     344.819E-03    -170.180E-03     118.370E-03
             394     6.07342E-03     84.0464E-03    -74.0776E+06    -147.538E+06    -21.3371E+06     1.19149E+06    -173.968E-03     344.351E-03    -170.384E-03     144.972E-03    -176.612E-03     346.271E-03    -170.169E-03     134.026E-03
             395     6.83262E-03     84.2348E-03    -67.4971E+06    -115.911E+06    -10.9258E+06     1.37086E+06    -174.496E-03     344.857E-03    -170.361E-03     162.185E-03    -178.063E-03     347.804E-03    -170.149E-03     149.255E-03
             396     7.59205E-03     84.4429E-03    -60.7784E+06    -73.0874E+06     47.2529E+03     900.284E+03    -174.916E-03     345.233E-03    -170.317E-03     178.790E-03    -179.631E-03     349.472E-03    -170.123E-03     163.711E-03
             397     8.35136E-03     84.6697E-03    -53.7658E+06    -23.2222E+06     12.5453E+06    -1.09486E+06    -175.324E-03     345.599E-03    -170.275E-03     195.157E-03    -181.474E-03     351.439E-03    -170.100E-03     177.696E-03
             398     9.11080E-03     84.9166E-03    -46.9817E+06     31.6003E+06     25.4991E+06    -2.51112E+06    -175.485E-03     345.718E-03    -170.233E-03     212.306E-03    -183.442E-03     353.546E-03    -170.084E-03     192.297E-03
             399     9.87023E-03     85.1831E-03    -41.6428E+06     64.6324E+06     40.2544E+06    -1.86162E+06    -175.448E-03     345.677E-03    -170.229E-03     230.990E-03    -185.636E-03     355.831E-03    -170.061E-03     208.357E-03
             400     10.6297E-03     85.4733E-03    -37.0221E+06     81.7812E+06     58.3466E+06    -257.190E+03    -175.177E-03     345.435E-03    -170.258E-03     248.086E-03    -187.872E-03     358.120E-03    -170.031E-03     223.019E-03
             401     11.3897E-03     85.7793E-03    -30.6298E+06     100.104E+06     76.0294E+06     305.417E+03    -174.117E-03     344.395E-03    -170.278E-03     257.142E-03    -189.020E-03     359.324E-03    -169.998E-03     230.522E-03
             402     12.1490E-03     86.0900E-03    -22.6386E+06     110.432E+06     88.8308E+06    -115.906E+03    -171.858E-03     342.133E-03    -170.275E-03     250.516E-03    -187.682E-03     358.011E-03    -169.959E-03     224.036E-03
             403     12.9101E-03     86.3777E-03    -15.4719E+06     118.237E+06     92.9303E+06    -18.3282E+03    -169.528E-03     339.772E-03    -170.244E-03     219.995E-03    -183.875E-03     354.215E-03    -169.928E-03     195.807E-03
             404     13.6666E-03     86.6137E-03    -10.2404E+06     125.225E+06     92.5279E+06     263.090E+03    -167.639E-03     337.850E-03    -170.212E-03     190.972E-03    -180.189E-03     350.540E-03    -169.916E-03     169.192E-03
             405     14.4310E-03     86.8288E-03    -5.06598E+06     125.914E+06     90.8939E+06    -96.8264E+03    -166.791E-03     336.961E-03    -170.170E-03     118.076E-03    -174.316E-03     344.652E-03    -169.891E-03     102.274E-03
             406     759.235E-06     84.6614E-03    -111.769E+06    -251.450E+06    -109.957E+06     24.3765E+03    -170.394E-03     340.413E-03    -170.018E-03     20.3297E-03    -170.471E-03     339.519E-03    -170.041E-03     19.1164E-03
             407     1.51827E-03     84.6973E-03    -109.099E+06    -246.362E+06    -102.044E+06     334.555E+03    -170.553E-03     340.749E-03    -170.196E-03     37.8422E-03    -170.724E-03     339.954E-03    -170.191E-03     35.5901E-03
             408     2.27744E-03     84.7555E-03    -104.864E+06    -237.593E+06    -90.2203E+06     399.256E+03    -170.934E-03     341.188E-03    -170.255E-03     55.7989E-03    -171.268E-03     340.569E-03    -170.209E-03     52.3904E-03
             409     3.03652E-03     84.8361E-03    -99.3159E+06    -227.106E+06    -76.4444E+06     628.697E+03    -171.454E-03     341.766E-03    -170.312E-03     73.8827E-03    -172.027E-03     341.402E-03    -170.221E-03     69.2231E-03
             410     3.79560E-03     84.9390E-03    -93.5002E+06    -210.933E+06    -62.1126E+06     969.779E+03    -172.011E-03     342.367E-03    -170.356E-03     91.9392E-03    -172.918E-03     342.374E-03    -170.225E-03     85.9254E-03
             411     4.55493E-03     85.0639E-03    -86.7452E+06    -191.804E+06    -46.0839E+06     1.01331E+06    -172.647E-03     343.041E-03    -170.394E-03     109.844E-03    -173.997E-03     343.535E-03    -170.220E-03     102.341E-03
             412     5.31385E-03     85.2105E-03    -79.5218E+06    -172.369E+06    -31.2401E+06     1.03767E+06    -173.301E-03     343.718E-03    -170.417E-03     127.588E-03    -175.216E-03     344.829E-03    -170.208E-03     118.446E-03
             413     6.07307E-03     85.3781E-03    -72.3442E+06    -148.272E+06    -19.9142E+06     1.11271E+06    -173.874E-03     344.279E-03    -170.405E-03     145.124E-03    -176.514E-03     346.193E-03    -170.184E-03     134.178E-03
             414     6.83261E-03     85.5665E-03    -65.2436E+06    -116.441E+06    -9.37200E+06     1.02026E+06    -174.409E-03     344.777E-03    -170.368E-03     162.253E-03    -177.964E-03     347.714E-03    -170.151E-03     149.334E-03
             415     7.59218E-03     85.7745E-03    -58.5667E+06    -72.2747E+06     1.68976E+06     610.141E+03    -175.002E-03     345.321E-03    -170.320E-03     178.958E-03    -179.713E-03     349.563E-03    -170.121E-03     163.864E-03
             416     8.35150E-03     86.0024E-03    -53.2277E+06    -19.2440E+06     14.7287E+06    -469.871E+03    -175.345E-03     345.626E-03    -170.281E-03     195.342E-03    -181.502E-03     351.483E-03    -170.102E-03     177.892E-03
             417     9.11068E-03     86.2485E-03    -49.1788E+06     32.9184E+06     25.7890E+06    -1.32492E+06    -175.300E-03     345.530E-03    -170.230E-03     212.448E-03    -183.267E-03     353.365E-03    -170.078E-03     192.489E-03
             418     9.87035E-03     86.5153E-03    -44.4348E+06     61.5175E+06     37.4251E+06    -729.184E+03    -175.366E-03     345.572E-03    -170.206E-03     231.177E-03    -185.562E-03     355.720E-03    -170.044E-03     208.566E-03
             419     10.6303E-03     86.8049E-03    -37.3465E+06     80.1668E+06     56.2951E+06     61.9642E+03    -175.112E-03     345.340E-03    -170.229E-03     247.953E-03    -187.793E-03     358.010E-03    -170.009E-03     222.903E-03
             420     11.3896E-03     87.1119E-03    -29.4892E+06     100.140E+06     76.5918E+06    -165.963E+03    -173.973E-03     344.226E-03    -170.253E-03     256.891E-03    -188.863E-03     359.144E-03    -169.972E-03     230.292E-03
             421     12.1499E-03     87.4212E-03    -22.7428E+06     110.282E+06     89.5099E+06    -403.280E+03    -172.196E-03     342.458E-03    -170.262E-03     250.483E-03    -188.039E-03     358.352E-03    -169.941E-03     223.932E-03
             422     12.9080E-03     87.7104E-03    -16.4657E+06     117.107E+06     92.6480E+06     10.1054E+03    -169.550E-03     339.790E-03    -170.240E-03     220.792E-03    -183.941E-03     354.269E-03    -169.922E-03     196.562E-03
             423     13.6700E-03     87.9469E-03    -10.0119E+06     125.012E+06     93.4118E+06     90.8765E+03    -167.028E-03     337.223E-03    -170.195E-03     189.769E-03    -179.524E-03     349.856E-03    -169.895E-03     168.103E-03
             424     14.4280E-03     88.1547E-03    -4.68526E+06     126.158E+06     92.5844E+06     77.9812E+03    -167.181E-03     337.338E-03    -170.157E-03     116.780E-03    -174.645E-03     344.965E-03    -169.870E-03     100.997E-03
             425     758.977E-06     85.9926E-03    -111.531E+06    -252.284E+06    -109.574E+06     83.1459E+03    -170.508E-03     340.619E-03    -170.111E-03     20.6059E-03    -170.583E-03     339.720E-03    -170.131E-03     19.3912E-03
             426     1.51826E-03     86.0290E-03    -108.724E+06    -247.170E+06    -101.920E+06     266.613E+03    -170.595E-03     340.879E-03    -170.285E-03     37.8150E-03    -170.763E-03     340.079E-03    -170.278E-03     35.5636E-03
             427     2.27727E-03     86.0871E-03    -104.304E+06    -238.392E+06    -89.9063E+06     289.953E+03    -170.961E-03     341.286E-03    -170.325E-03     55.8569E-03    -171.293E-03     340.662E-03    -170.277E-03     52.4446E-03
             428     3.03630E-03     86.1681E-03    -99.0064E+06    -228.353E+06    -75.9176E+06     561.941E+03    -171.436E-03     341.803E-03    -170.367E-03     73.9863E-03    -172.007E-03     341.432E-03    -170.272E-03     69.3232E-03
             429     3.79547E-03     86.2707E-03    -92.8258E+06    -211.561E+06    -61.5728E+06     684.407E+03    -171.995E-03     342.389E-03    -170.394E-03     92.0874E-03    -172.900E-03     342.393E-03    -170.261E-03     86.0650E-03
             430     4.55447E-03     86.3959E-03    -85.9587E+06    -192.285E+06    -45.7415E+06     512.729E+03    -172.577E-03     342.992E-03    -170.415E-03     110.023E-03    -173.923E-03     343.483E-03    -170.240E-03     102.516E-03
             431     5.31396E-03     86.5422E-03    -78.8144E+06    -173.242E+06    -30.8186E+06     547.464E+03    -173.185E-03     343.606E-03    -170.421E-03     127.811E-03    -175.099E-03     344.714E-03    -170.209E-03     118.669E-03
             432     6.07340E-03     86.7100E-03    -71.7756E+06    -148.762E+06    -19.3908E+06     491.121E+03    -173.849E-03     344.245E-03    -170.397E-03     145.294E-03    -176.486E-03     346.156E-03    -170.174E-03     134.344E-03
             433     6.83276E-03     86.8980E-03    -65.0234E+06    -116.750E+06    -8.87911E+06     227.078E+03    -174.540E-03     344.905E-03    -170.365E-03     162.350E-03    -178.096E-03     347.842E-03    -170.146E-03     149.407E-03
             434     7.59201E-03     87.1066E-03    -58.7566E+06    -72.5028E+06     1.76679E+06     241.397E+03    -175.058E-03     345.382E-03    -170.325E-03     179.081E-03    -179.773E-03     349.627E-03    -170.125E-03     163.973E-03
             435     8.35124E-03     87.3346E-03    -52.9511E+06    -19.2195E+06     14.8074E+06     1.41872E+06    -175.123E-03     345.399E-03    -170.277E-03     195.293E-03    -181.270E-03     351.248E-03    -170.098E-03     177.907E-03
             436     9.11115E-03     87.5803E-03    -47.5921E+06     33.4779E+06     26.5703E+06     2.50896E+06    -175.175E-03     345.387E-03    -170.211E-03     212.481E-03    -183.135E-03     353.219E-03    -170.058E-03     192.591E-03
             437     9.87094E-03     87.8473E-03    -42.3307E+06     62.9432E+06     38.9688E+06     1.36439E+06    -175.451E-03     345.638E-03    -170.188E-03     231.208E-03    -185.642E-03     355.790E-03    -170.023E-03     208.615E-03
             438     10.6298E-03     88.1375E-03    -36.5600E+06     80.7237E+06     57.3646E+06    -569.327E+03    -175.062E-03     345.277E-03    -170.215E-03     247.753E-03    -187.740E-03     357.945E-03    -169.992E-03     222.703E-03
             439     11.3902E-03     88.4428E-03    -30.1065E+06     99.2886E+06     76.4547E+06    -542.865E+03    -174.007E-03     344.245E-03    -170.239E-03     256.907E-03    -188.906E-03     359.168E-03    -169.957E-03     230.280E-03
             440     12.1496E-03     88.7539E-03    -23.2952E+06     109.730E+06     89.7242E+06     323.596E+03    -172.381E-03     342.637E-03    -170.256E-03     250.787E-03    -188.251E-03     358.554E-03    -169.933E-03     224.186E-03
             441     12.9099E-03     89.0441E-03    -16.6735E+06     117.261E+06     93.7208E+06    -100.196E+03    -169.426E-03     339.668E-03    -170.242E-03     219.738E-03    -183.782E-03     354.109E-03    -169.919E-03     195.545E-03
             442     13.6683E-03     89.2755E-03    -10.5322E+06     124.388E+06     94.0998E+06    -588.572E+03    -167.474E-03     337.683E-03    -170.209E-03     189.404E-03    -179.973E-03     350.313E-03    -169.904E-03     167.662E-03
             443     14.4284E-03     89.4920E-03    -5.02149E+06     125.390E+06     92.8697E+06     96.2931E+03    -167.380E-03     337.567E-03    -170.187E-03     117.509E-03    -174.893E-03     345.237E-03    -169.897E-03     101.640E-03
             444     759.167E-06     87.3250E-03    -111.423E+06    -253.060E+06    -109.603E+06     115.569E+03    -170.532E-03     340.736E-03    -170.204E-03     20.6628E-03    -170.605E-03     339.833E-03    -170.223E-03     19.4507E-03
             445     1.51791E-03     87.3605E-03    -108.621E+06    -247.663E+06    -101.633E+06    -91.8073E+03    -170.632E-03     340.971E-03    -170.339E-03     37.9689E-03    -170.800E-03     340.169E-03    -170.330E-03     35.7065E-03
             446     2.27707E-03     87.4192E-03    -104.414E+06    -239.322E+06    -89.6758E+06     171.319E+03    -170.926E-03     341.288E-03    -170.362E-03     56.0825E-03    -171.258E-03     340.660E-03    -170.312E-03     52.6672E-03
             447     3.03631E-03     87.4996E-03    -98.9149E+06    -229.008E+06    -75.6896E+06     361.312E+03    -171.399E-03     341.783E-03    -170.383E-03     74.2092E-03    -171.971E-03     341.409E-03    -170.286E-03     69.5429E-03
             448     3.79543E-03     87.6028E-03    -92.4905E+06    -211.897E+06    -61.6627E+06     131.344E+03    -171.946E-03     342.340E-03    -170.394E-03     92.2835E-03    -172.850E-03     342.343E-03    -170.261E-03     86.2542E-03
             449     4.55483E-03     87.7276E-03    -85.8404E+06    -192.755E+06    -45.9424E+06     168.093E+03    -172.500E-03     342.903E-03    -170.403E-03     110.128E-03    -173.846E-03     343.393E-03    -170.228E-03     102.620E-03
             450     5.31409E-03     87.8738E-03    -79.1112E+06    -173.628E+06    -31.1126E+06     59.7224E+03    -173.170E-03     343.572E-03    -170.402E-03     127.819E-03    -175.083E-03     344.679E-03    -170.192E-03     118.674E-03
             451     6.07345E-03     88.0416E-03    -72.3197E+06    -149.086E+06    -19.7701E+06    -82.0394E+03    -173.925E-03     344.310E-03    -170.385E-03     145.191E-03    -176.563E-03     346.219E-03    -170.163E-03     134.232E-03
             452     6.83274E-03     88.2300E-03    -65.9840E+06    -116.842E+06    -9.37600E+06    -120.609E+03    -174.602E-03     344.964E-03    -170.362E-03     162.409E-03    -178.166E-03     347.906E-03    -170.144E-03     149.450E-03
             453     7.59185E-03     88.4389E-03    -60.0488E+06    -73.6076E+06     743.741E+03     135.295E+03    -174.957E-03     345.277E-03    -170.319E-03     179.225E-03    -179.677E-03     349.520E-03    -170.122E-03     164.126E-03
             454     8.35160E-03     88.6660E-03    -53.9885E+06    -23.4747E+06     12.6292E+06     1.46468E+06    -175.053E-03     345.315E-03    -170.262E-03     195.252E-03    -181.198E-03     351.148E-03    -170.087E-03     177.871E-03
             455     9.11134E-03     88.9118E-03    -47.6715E+06     30.8456E+06     24.4858E+06     3.08777E+06    -175.260E-03     345.455E-03    -170.195E-03     212.402E-03    -183.215E-03     353.280E-03    -170.048E-03     192.500E-03
             456     9.87051E-03     89.1800E-03    -41.8348E+06     66.9586E+06     38.6397E+06     3.16762E+06    -175.295E-03     345.464E-03    -170.169E-03     231.009E-03    -185.481E-03     355.627E-03    -170.013E-03     208.464E-03
             457     10.6308E-03     89.4691E-03    -36.8177E+06     84.4345E+06     57.8353E+06     1.38711E+06    -174.976E-03     345.171E-03    -170.195E-03     247.653E-03    -187.656E-03     357.852E-03    -169.975E-03     222.644E-03
             458     11.3901E-03     89.7748E-03    -31.1541E+06     98.6280E+06     76.4994E+06    -149.626E+03    -174.360E-03     344.595E-03    -170.235E-03     257.028E-03    -189.285E-03     359.537E-03    -169.950E-03     230.330E-03
             459     12.1496E-03     90.0865E-03    -23.7484E+06     108.906E+06     89.9526E+06    -572.450E+03    -172.408E-03     342.674E-03    -170.267E-03     250.611E-03    -188.281E-03     358.589E-03    -169.940E-03     223.988E-03
             460     12.9081E-03     90.3759E-03    -16.1851E+06     117.155E+06     94.4540E+06    -344.459E+03    -169.424E-03     339.678E-03    -170.254E-03     219.451E-03    -183.761E-03     354.100E-03    -169.928E-03     195.270E-03
             461     13.6689E-03     90.6080E-03    -10.2031E+06     124.058E+06     94.6510E+06     121.494E+03    -167.536E-03     337.757E-03    -170.221E-03     190.410E-03    -180.076E-03     350.427E-03    -169.913E-03     168.652E-03
             462     14.4274E-03     90.8248E-03    -4.99038E+06     124.943E+06     92.8345E+06     170.303E+03    -167.188E-03     337.376E-03    -170.188E-03     117.698E-03    -174.721E-03     345.066E-03    -169.898E-03     101.869E-03
             463     758.905E-06     88.6564E-03    -111.550E+06    -253.540E+06    -109.473E+06     154.672E+03    -170.452E-03     340.737E-03    -170.285E-03     20.8413E-03    -170.525E-03     339.832E-03    -170.303E-03     19.6252E-03
             464     1.51823E-03     88.6927E-03    -108.717E+06    -248.071E+06    -101.486E+06     185.685E+03    -170.597E-03     340.929E-03    -170.332E-03     37.9752E-03    -170.765E-03     340.125E-03    -170.322E-03     35.7166E-03
             465     2.27730E-03     88.7506E-03    -104.551E+06    -239.731E+06    -89.4397E+06     34.7606E+03    -170.918E-03     341.268E-03    -170.350E-03     56.0897E-03    -171.250E-03     340.637E-03    -170.298E-03     52.6722E-03
             466     3.03639E-03     88.8316E-03    -99.0594E+06    -229.178E+06    -76.3120E+06    -179.710E+03    -171.371E-03     341.737E-03    -170.366E-03     74.2430E-03    -171.943E-03     341.364E-03    -170.271E-03     69.5695E-03
             467     3.79558E-03     88.9344E-03    -93.1824E+06    -212.377E+06    -62.6668E+06    -161.011E+03    -171.875E-03     342.244E-03    -170.370E-03     92.2237E-03    -172.780E-03     342.246E-03    -170.240E-03     86.1941E-03
             468     4.55482E-03     89.0592E-03    -86.7677E+06    -193.225E+06    -46.6632E+06    -96.3315E+03    -172.514E-03     342.893E-03    -170.379E-03     110.076E-03    -173.863E-03     343.383E-03    -170.206E-03     102.562E-03
             469     5.31417E-03     89.2056E-03    -79.9900E+06    -173.696E+06    -31.8293E+06    -135.565E+03    -173.276E-03     343.666E-03    -170.391E-03     127.772E-03    -175.192E-03     344.774E-03    -170.182E-03     118.616E-03
             470     6.07336E-03     89.3735E-03    -73.5753E+06    -149.426E+06    -20.8496E+06    -129.438E+03    -173.963E-03     344.347E-03    -170.383E-03     145.258E-03    -176.607E-03     346.259E-03    -170.164E-03     134.291E-03
             471     6.83255E-03     89.5620E-03    -67.5516E+06    -117.213E+06    -10.7658E+06     12.3643E+03    -174.484E-03     344.839E-03    -170.355E-03     162.522E-03    -178.054E-03     347.785E-03    -170.141E-03     149.574E-03
             472     7.59230E-03     89.7705E-03    -61.9486E+06    -74.8721E+06    -911.705E+03     451.369E+03    -174.859E-03     345.162E-03    -170.303E-03     179.131E-03    -179.582E-03     349.401E-03    -170.109E-03     164.049E-03
             473     8.35175E-03     89.9978E-03    -56.6232E+06    -26.9016E+06     9.99215E+06     1.24710E+06    -175.192E-03     345.440E-03    -170.248E-03     195.237E-03    -181.347E-03     351.270E-03    -170.077E-03     177.823E-03
             474     9.11084E-03     90.2440E-03    -51.4349E+06     28.0408E+06     21.1741E+06     2.20206E+06    -175.279E-03     345.466E-03    -170.187E-03     212.498E-03    -183.248E-03     353.290E-03    -170.047E-03     192.581E-03
             475     9.87083E-03     90.5116E-03    -45.6065E+06     68.3981E+06     35.1947E+06     2.05857E+06    -175.182E-03     345.334E-03    -170.152E-03     230.937E-03    -185.384E-03     355.515E-03    -170.009E-03     208.385E-03
             476     10.6305E-03     90.8001E-03    -38.0018E+06     86.3974E+06     55.0196E+06     975.358E+03    -175.173E-03     345.354E-03    -170.182E-03     247.521E-03    -187.866E-03     358.060E-03    -169.977E-03     222.443E-03
             477     11.3902E-03     91.1082E-03    -29.8563E+06     99.3381E+06     76.3730E+06     377.694E+03    -174.429E-03     344.673E-03    -170.244E-03     256.907E-03    -189.343E-03     359.612E-03    -169.963E-03     230.200E-03
             478     12.1488E-03     91.4190E-03    -22.9794E+06     109.359E+06     90.8708E+06    -151.772E+03    -172.118E-03     342.393E-03    -170.275E-03     250.573E-03    -187.977E-03     358.295E-03    -169.946E-03     224.027E-03
             479     12.9099E-03     91.7076E-03    -17.0326E+06     115.955E+06     93.8946E+06    -367.862E+03    -169.443E-03     339.692E-03    -170.249E-03     220.218E-03    -183.817E-03     354.145E-03    -169.923E-03     196.030E-03
             480     13.6683E-03     91.9411E-03    -10.5860E+06     123.397E+06     94.0973E+06    -58.4613E+03    -167.622E-03     337.838E-03    -170.216E-03     190.193E-03    -180.158E-03     350.502E-03    -169.909E-03     168.413E-03
             481     14.4291E-03     92.1561E-03    -4.72270E+06     124.926E+06     92.8951E+06     44.0206E+03    -167.010E-03     337.195E-03    -170.185E-03     116.938E-03    -174.510E-03     344.852E-03    -169.895E-03     101.123E-03
             482     759.172E-06     89.9886E-03    -111.590E+06    -254.168E+06    -110.056E+06     50.9625E+03    -170.466E-03     340.671E-03    -170.206E-03     20.8194E-03    -170.537E-03     339.764E-03    -170.225E-03     19.6030E-03
             483     1.51801E-03     90.0242E-03    -109.027E+06    -248.576E+06    -101.874E+06     248.448E+03    -170.591E-03     340.896E-03    -170.305E-03     37.9637E-03    -170.760E-03     340.090E-03    -170.295E-03     35.7061E-03
             484     2.27718E-03     90.0826E-03    -104.795E+06    -239.661E+06    -90.0500E+06     131.399E+03    -170.918E-03     341.247E-03    -170.329E-03     56.0419E-03    -171.251E-03     340.618E-03    -170.280E-03     52.6248E-03
             485     3.03635E-03     90.1632E-03    -99.7310E+06    -229.215E+06    -76.7477E+06    -111.301E+03    -171.314E-03     341.659E-03    -170.345E-03     74.2114E-03    -171.888E-03     341.288E-03    -170.252E-03     69.5403E-03
             486     3.79565E-03     90.2661E-03    -93.8869E+06    -212.738E+06    -62.8166E+06    -135.186E+03    -171.870E-03     342.218E-03    -170.349E-03     92.2197E-03    -172.777E-03     342.220E-03    -170.218E-03     86.1920E-03
             487     4.55500E-03     90.3908E-03    -87.6328E+06    -193.611E+06    -47.3909E+06    -101.346E+03    -172.596E-03     342.961E-03    -170.365E-03     110.139E-03    -173.948E-03     343.452E-03    -170.194E-03     102.620E-03
             488     5.31408E-03     90.5376E-03    -81.1610E+06    -174.199E+06    -33.1676E+06     101.346E+03    -173.299E-03     343.683E-03    -170.384E-03     127.815E-03    -175.220E-03     344.793E-03    -170.180E-03     118.659E-03
             489     6.07333E-03     90.7052E-03    -74.8076E+06    -149.798E+06    -22.2824E+06     295.496E+03    -173.896E-03     344.269E-03    -170.374E-03     145.316E-03    -176.544E-03     346.185E-03    -170.160E-03     134.357E-03
             490     6.83292E-03     90.8938E-03    -68.9423E+06    -118.240E+06    -12.3702E+06     620.070E+03    -174.455E-03     344.797E-03    -170.341E-03     162.481E-03    -178.028E-03     347.741E-03    -170.132E-03     149.544E-03
             491     7.59214E-03     91.1021E-03    -63.4333E+06    -76.2920E+06    -2.55079E+06     1.27258E+06    -174.928E-03     345.221E-03    -170.293E-03     179.024E-03    -179.653E-03     349.458E-03    -170.103E-03     163.945E-03
             492     8.35158E-03     91.3299E-03    -58.0059E+06    -28.5240E+06     8.61490E+06     1.90422E+06    -175.189E-03     345.433E-03    -170.244E-03     195.333E-03    -181.351E-03     351.263E-03    -170.076E-03     177.928E-03
             493     9.11131E-03     91.5762E-03    -51.7574E+06     27.3835E+06     20.2859E+06     2.14426E+06    -175.205E-03     345.385E-03    -170.180E-03     212.319E-03    -183.168E-03     353.203E-03    -170.043E-03     192.415E-03
             494     9.87098E-03     91.8426E-03    -44.5920E+06     69.7552E+06     35.7618E+06     940.445E+03    -175.403E-03     345.557E-03    -170.154E-03     230.936E-03    -185.610E-03     355.750E-03    -170.012E-03     208.327E-03
             495     10.6302E-03     92.1333E-03    -37.5188E+06     86.8447E+06     56.1876E+06    -487.049E+03    -175.398E-03     345.601E-03    -170.204E-03     247.901E-03    -188.117E-03     358.333E-03    -169.994E-03     222.751E-03
             496     11.3890E-03     92.4399E-03    -30.6215E+06     98.5105E+06     75.8754E+06    -580.287E+03    -174.137E-03     344.394E-03    -170.257E-03     257.014E-03    -189.052E-03     359.330E-03    -169.976E-03     230.349E-03
             497     12.1501E-03     92.7507E-03    -23.4184E+06     108.924E+06     89.7955E+06     142.842E+03    -171.998E-03     342.268E-03    -170.270E-03     250.450E-03    -187.852E-03     358.165E-03    -169.945E-03     223.922E-03
             498     12.9089E-03     93.0391E-03    -16.6186E+06     116.253E+06     93.9073E+06     489.340E+03    -169.455E-03     339.700E-03    -170.244E-03     220.065E-03    -183.822E-03     354.148E-03    -169.919E-03     195.877E-03
             499     13.6688E-03     93.2754E-03    -10.6698E+06     123.243E+06     94.0953E+06    -219.103E+03    -167.495E-03     337.705E-03    -170.210E-03     190.325E-03    -180.015E-03     350.352E-03    -169.903E-03     168.586E-03
             500     14.4268E-03     93.4864E-03    -5.14614E+06     124.152E+06     92.6992E+06    -510.085E+03    -167.083E-03     337.260E-03    -170.177E-03     117.264E-03    -174.590E-03     344.920E-03    -169.886E-03     101.426E-03
             501     758.988E-06     91.3199E-03    -112.268E+06    -254.567E+06    -110.058E+06     49.7205E+03    -170.449E-03     340.607E-03    -170.158E-03     20.7881E-03    -170.523E-03     339.699E-03    -170.176E-03     19.5754E-03
             502     1.51834E-03     91.3562E-03    -109.417E+06    -249.001E+06    -102.645E+06    -15.3716E+03    -170.562E-03     340.833E-03    -170.271E-03     37.9967E-03    -170.731E-03     340.027E-03    -170.264E-03     35.7362E-03
             503     2.27730E-03     91.4142E-03    -105.402E+06    -239.950E+06    -90.7981E+06     139.937E+03    -170.871E-03     341.164E-03    -170.293E-03     56.1074E-03    -171.206E-03     340.536E-03    -170.247E-03     52.6913E-03
             504     3.03655E-03     91.4948E-03    -100.235E+06    -229.405E+06    -77.0511E+06     117.243E+03    -171.340E-03     341.657E-03    -170.316E-03     74.2090E-03    -171.916E-03     341.285E-03    -170.224E-03     69.5410E-03
             505     3.79581E-03     91.5976E-03    -94.2903E+06    -213.283E+06    -62.9804E+06     226.400E+03    -171.959E-03     342.298E-03    -170.338E-03     92.1885E-03    -172.868E-03     342.297E-03    -170.207E-03     86.1613E-03
             506     4.55485E-03     91.7227E-03    -88.1528E+06    -194.086E+06    -47.8620E+06     466.782E+03    -172.600E-03     342.964E-03    -170.364E-03     110.101E-03    -173.953E-03     343.454E-03    -170.194E-03     102.590E-03
             507     5.31413E-03     91.8694E-03    -81.7880E+06    -174.819E+06    -34.1700E+06     575.953E+03    -173.224E-03     343.600E-03    -170.376E-03     127.811E-03    -175.146E-03     344.710E-03    -170.175E-03     118.665E-03
             508     6.07355E-03     92.0369E-03    -75.4192E+06    -150.631E+06    -23.3943E+06     837.636E+03    -173.885E-03     344.246E-03    -170.361E-03     145.261E-03    -176.532E-03     346.159E-03    -170.150E-03     134.312E-03
             509     6.83275E-03     92.2254E-03    -69.3167E+06    -119.426E+06    -13.2469E+06     1.26845E+06    -174.511E-03     344.845E-03    -170.334E-03     162.449E-03    -178.083E-03     347.785E-03    -170.126E-03     149.517E-03
             510     7.59221E-03     92.4341E-03    -63.2312E+06    -77.9100E+06    -3.14365E+06     1.79199E+06    -174.975E-03     345.266E-03    -170.292E-03     179.103E-03    -179.699E-03     349.499E-03    -170.103E-03     164.023E-03
             511     8.35164E-03     92.6615E-03    -56.6878E+06    -29.6097E+06     8.72115E+06     2.11367E+06    -175.159E-03     345.403E-03    -170.244E-03     195.309E-03    -181.309E-03     351.222E-03    -170.075E-03     177.917E-03
             512     9.11114E-03     92.9078E-03    -49.9318E+06     27.9828E+06     21.3242E+06     1.27076E+06    -175.311E-03     345.495E-03    -170.184E-03     212.278E-03    -183.269E-03     353.314E-03    -170.046E-03     192.345E-03
             513     9.87056E-03     93.1747E-03    -43.3362E+06     70.9398E+06     37.5700E+06     95.7336E+03    -175.557E-03     345.728E-03    -170.171E-03     231.137E-03    -185.773E-03     355.933E-03    -170.023E-03     208.487E-03
             514     10.6300E-03     93.4659E-03    -36.8117E+06     87.4108E+06     58.1396E+06     58.9352E+03    -175.155E-03     345.373E-03    -170.218E-03     248.056E-03    -187.868E-03     358.097E-03    -170.001E-03     222.972E-03
             515     11.3903E-03     93.7721E-03    -30.3050E+06     98.2731E+06     76.7099E+06     38.0424E+03    -174.055E-03     344.309E-03    -170.254E-03     256.991E-03    -188.966E-03     359.239E-03    -169.969E-03     230.363E-03
             516     12.1491E-03     94.0817E-03    -23.6133E+06     107.928E+06     89.1618E+06    -274.912E+03    -172.307E-03     342.574E-03    -170.267E-03     250.861E-03    -188.180E-03     358.488E-03    -169.944E-03     224.271E-03
             517     12.9088E-03     94.3733E-03    -16.4424E+06     115.825E+06     93.0905E+06    -170.849E+03    -169.389E-03     339.635E-03    -170.246E-03     220.081E-03    -183.760E-03     354.088E-03    -169.924E-03     195.869E-03
             518     13.6690E-03     94.6041E-03    -9.81512E+06     123.397E+06     93.9285E+06     167.766E+03    -167.110E-03     337.310E-03    -170.200E-03     190.200E-03    -179.612E-03     349.943E-03    -169.895E-03     168.522E-03
             519     14.4304E-03     94.8226E-03    -4.55296E+06     123.955E+06     92.4272E+06    -125.181E+03    -167.055E-03     337.210E-03    -170.155E-03     117.089E-03    -174.542E-03     344.853E-03    -169.866E-03     101.296E-03
             520     759.231E-06     92.6521E-03    -111.903E+06    -255.054E+06    -110.674E+06    -31.6224E+03    -170.505E-03     340.598E-03    -170.092E-03     20.8091E-03    -170.576E-03     339.687E-03    -170.114E-03     19.5973E-03
             521     1.51805E-03     92.6875E-03    -109.730E+06    -249.444E+06    -102.688E+06     117.086E+03    -170.515E-03     340.775E-03    -170.259E-03     37.8649E-03    -170.685E-03     339.967E-03    -170.252E-03     35.6073E-03
             522     2.27751E-03     92.7459E-03    -105.549E+06    -240.402E+06    -90.9699E+06     64.5402E+03    -170.865E-03     341.141E-03    -170.276E-03     55.9229E-03    -171.199E-03     340.511E-03    -170.230E-03     52.5081E-03
             523     3.03662E-03     92.8264E-03    -100.249E+06    -230.104E+06    -77.8013E+06     364.382E+03    -171.398E-03     341.706E-03    -170.308E-03     74.0555E-03    -171.971E-03     341.332E-03    -170.218E-03     69.3919E-03
             524     3.79558E-03     92.9295E-03    -94.6697E+06    -214.217E+06    -63.8915E+06     635.898E+03    -171.966E-03     342.305E-03    -170.339E-03     92.2085E-03    -172.875E-03     342.302E-03    -170.210E-03     86.1859E-03
             525     4.55483E-03     93.0544E-03    -88.3544E+06    -194.717E+06    -48.3495E+06     800.682E+03    -172.552E-03     342.913E-03    -170.362E-03     110.167E-03    -173.905E-03     343.402E-03    -170.193E-03     102.661E-03
             526     5.31423E-03     93.2009E-03    -81.6105E+06    -175.421E+06    -34.2366E+06     917.410E+03    -173.228E-03     343.600E-03    -170.372E-03     127.803E-03    -175.148E-03     344.707E-03    -170.170E-03     118.661E-03
             527     6.07346E-03     93.3687E-03    -75.0737E+06    -151.664E+06    -23.4547E+06     1.10438E+06    -173.916E-03     344.276E-03    -170.360E-03     145.203E-03    -176.561E-03     346.183E-03    -170.148E-03     134.255E-03
             528     6.83288E-03     93.5572E-03    -68.5400E+06    -120.520E+06    -13.2160E+06     1.32346E+06    -174.513E-03     344.847E-03    -170.334E-03     162.453E-03    -178.079E-03     347.780E-03    -170.126E-03     149.524E-03
             529     7.59221E-03     93.7658E-03    -61.8245E+06    -79.1233E+06    -2.79789E+06     1.37223E+06    -174.956E-03     345.248E-03    -170.291E-03     179.152E-03    -179.672E-03     349.471E-03    -170.101E-03     164.071E-03
             530     8.35162E-03     93.9935E-03    -55.1471E+06    -30.0089E+06     9.49704E+06     995.053E+03    -175.232E-03     345.477E-03    -170.246E-03     195.311E-03    -181.373E-03     351.289E-03    -170.075E-03     177.900E-03
             531     9.11121E-03     94.2394E-03    -48.6669E+06     28.9092E+06     22.6672E+06     687.014E+03    -175.425E-03     345.619E-03    -170.193E-03     212.545E-03    -183.391E-03     353.449E-03    -170.051E-03     192.581E-03
             532     9.87053E-03     94.5078E-03    -42.6658E+06      71.359E+06     38.6246E+06     700.637E+03    -175.421E-03     345.598E-03    -170.177E-03     231.383E-03    -185.640E-03     355.807E-03    -170.026E-03     208.764E-03
             533     10.6301E-03     94.7972E-03    -36.5949E+06     87.0438E+06     58.2097E+06     604.424E+03    -175.052E-03     345.263E-03    -170.211E-03     248.038E-03    -187.762E-03     357.983E-03    -169.993E-03     222.980E-03
             534     11.3899E-03     95.1034E-03    -29.6723E+06     98.3070E+06     77.1135E+06     597.932E+03    -174.158E-03     344.405E-03    -170.248E-03     256.972E-03    -189.068E-03     359.335E-03    -169.962E-03     230.325E-03
             535     12.1497E-03     95.4156E-03    -22.5769E+06     108.426E+06     90.5343E+06     383.762E+03    -172.161E-03     342.424E-03    -170.263E-03     251.061E-03    -188.029E-03     358.334E-03    -169.935E-03     224.513E-03
             536     12.9094E-03     95.7040E-03    -16.1766E+06     115.842E+06     93.9924E+06    -54.1367E+03    -169.371E-03     339.604E-03    -170.234E-03     220.346E-03    -183.737E-03     354.052E-03    -169.908E-03     196.177E-03
             537     13.6685E-03     95.9376E-03    -10.5899E+06     122.720E+06     93.2060E+06    -450.536E+03    -167.178E-03     337.362E-03    -170.183E-03     190.252E-03    -179.692E-03     350.003E-03    -169.880E-03     168.552E-03
             538     14.4273E-03     96.1507E-03    -4.94562E+06     123.347E+06     91.4588E+06    -321.025E+03    -167.053E-03     337.193E-03    -170.140E-03     117.795E-03    -174.565E-03     344.859E-03    -169.854E-03     101.970E-03
             539     758.896E-06     93.9832E-03    -112.385E+06    -255.459E+06    -110.430E+06     171.662E+03    -170.409E-03     340.589E-03    -170.180E-03     20.6382E-03    -170.482E-03     339.677E-03    -170.199E-03     19.4317E-03
             540     1.51838E-03     94.0194E-03    -109.757E+06    -249.943E+06    -102.849E+06     58.2899E+03    -170.535E-03     340.795E-03    -170.260E-03     37.8763E-03    -170.704E-03     339.985E-03    -170.253E-03     35.6179E-03
             541     2.27721E-03     94.0773E-03    -105.419E+06    -241.139E+06    -90.9832E+06     415.672E+03    -170.909E-03     341.197E-03    -170.287E-03     56.0074E-03    -171.242E-03     340.563E-03    -170.240E-03     52.5956E-03
             542     3.03636E-03     94.1582E-03    -100.209E+06    -231.127E+06    -77.5112E+06     579.238E+03    -171.373E-03     341.694E-03    -170.321E-03     74.1940E-03    -171.945E-03     341.315E-03    -170.228E-03     69.5321E-03
             543     3.79573E-03     94.2611E-03    -94.3005E+06    -214.963E+06    -63.6624E+06     725.127E+03    -171.921E-03     342.261E-03    -170.340E-03     92.2510E-03    -172.827E-03     342.254E-03    -170.210E-03     86.2327E-03
             544     4.55507E-03     94.3861E-03    -87.9777E+06    -195.408E+06    -48.3561E+06     736.183E+03    -172.576E-03     342.935E-03    -170.359E-03     110.101E-03    -173.925E-03     343.419E-03    -170.190E-03     102.595E-03
             545     5.31416E-03     94.5327E-03    -81.1241E+06    -176.267E+06    -33.9890E+06     819.361E+03    -173.257E-03     343.632E-03    -170.375E-03     127.748E-03    -175.173E-03     344.733E-03    -170.171E-03     118.606E-03
             546     6.07345E-03     94.7005E-03    -74.2102E+06    -152.360E+06    -22.8702E+06     902.508E+03    -173.903E-03     344.267E-03    -170.364E-03     145.238E-03    -176.543E-03     346.169E-03    -170.150E-03     134.289E-03
             547     6.83276E-03     94.8888E-03    -67.5538E+06    -121.219E+06    -12.6690E+06     789.828E+03    -174.523E-03     344.860E-03    -170.337E-03     162.508E-03    -178.085E-03     347.788E-03    -170.126E-03     149.569E-03
             548     7.59221E-03     95.0977E-03    -61.2271E+06    -79.4847E+06    -2.26748E+06     511.472E+03    -174.978E-03     345.273E-03    -170.295E-03     179.107E-03    -179.688E-03     349.490E-03    -170.102E-03     164.019E-03
             549     8.35176E-03     95.3252E-03    -55.0855E+06    -29.6615E+06     10.0325E+06     29.5799E+03    -175.257E-03     345.508E-03    -170.251E-03     195.379E-03    -181.403E-03     351.324E-03    -170.078E-03     177.948E-03
             550     9.11090E-03     95.5720E-03    -48.9347E+06     27.9188E+06     22.6304E+06     48.8533E+03    -175.351E-03     345.546E-03    -170.195E-03     212.693E-03    -183.319E-03     353.374E-03    -170.052E-03     192.729E-03
             551     9.87066E-03     95.8392E-03    -42.5219E+06     70.1773E+06     38.2262E+06     944.595E+03    -175.278E-03     345.447E-03    -170.169E-03     231.214E-03    -185.483E-03     355.639E-03    -170.018E-03     208.627E-03
             552     10.6308E-03     96.1291E-03    -35.9256E+06     87.1638E+06     58.4071E+06     1.32553E+06    -175.103E-03     345.302E-03    -170.199E-03     248.148E-03    -187.813E-03     358.024E-03    -169.981E-03     223.092E-03
             553     11.3897E-03     96.4367E-03    -29.2944E+06     98.3059E+06     77.5222E+06     801.616E+03    -174.136E-03     344.374E-03    -170.238E-03     257.276E-03    -189.058E-03     359.316E-03    -169.950E-03     230.631E-03
             554     12.1496E-03     96.7457E-03    -22.3423E+06     108.517E+06     90.8454E+06     638.617E+03    -171.978E-03     342.224E-03    -170.246E-03     251.084E-03    -187.850E-03     358.138E-03    -169.916E-03     224.564E-03
             555     12.9097E-03     97.0373E-03    -15.5558E+06     115.982E+06     94.6764E+06     761.463E+03    -169.153E-03     339.359E-03    -170.206E-03     220.486E-03    -183.512E-03     353.800E-03    -169.878E-03     196.367E-03
             556     13.6697E-03     97.2693E-03    -9.58677E+06     123.663E+06     95.2235E+06     390.265E+03    -167.542E-03     337.708E-03    -170.166E-03     190.227E-03    -180.063E-03     350.358E-03    -169.855E-03     168.497E-03
             557     14.4308E-03     97.4834E-03    -5.06509E+06     123.352E+06     93.1233E+06    -96.0019E+03    -167.754E-03     337.907E-03    -170.153E-03     117.522E-03    -175.279E-03     345.582E-03    -169.859E-03     101.625E-03
             558     759.299E-06     95.3152E-03    -112.029E+06    -255.905E+06    -110.759E+06    -95.7446E+03    -170.323E-03     340.545E-03    -170.223E-03     20.7632E-03    -170.393E-03     339.631E-03    -170.243E-03     19.5499E-03
             559     1.51806E-03     95.3507E-03    -109.648E+06    -250.319E+06    -102.798E+06     131.861E+03    -170.548E-03     340.793E-03    -170.244E-03     37.9361E-03    -170.716E-03     339.980E-03    -170.236E-03     35.6808E-03
             560     2.27747E-03     95.4092E-03    -105.566E+06    -242.246E+06    -90.8968E+06     257.843E+03    -170.910E-03     341.191E-03    -170.281E-03     56.1110E-03    -171.242E-03     340.552E-03    -170.231E-03     52.6958E-03
             561     3.03663E-03     95.4897E-03    -100.143E+06    -232.170E+06    -77.0320E+06     643.175E+03    -171.402E-03     341.722E-03    -170.321E-03     74.1820E-03    -171.973E-03     341.337E-03    -170.224E-03     69.5198E-03
             562     3.79572E-03     95.5928E-03    -94.1716E+06    -215.359E+06    -63.1313E+06     631.557E+03    -171.971E-03     342.319E-03    -170.348E-03     92.1491E-03    -172.875E-03     342.308E-03    -170.215E-03     86.1281E-03
             563     4.55475E-03     95.7178E-03    -87.5147E+06    -195.867E+06    -47.9628E+06     477.274E+03    -172.571E-03     342.941E-03    -170.370E-03     110.069E-03    -173.917E-03     343.421E-03    -170.199E-03     102.561E-03
             564     5.31411E-03     95.8645E-03    -80.6755E+06    -177.043E+06    -33.7225E+06     497.029E+03    -173.206E-03     343.585E-03    -170.380E-03     127.793E-03    -175.119E-03     344.681E-03    -170.175E-03     118.649E-03
             565     6.07350E-03     96.0321E-03    -73.8732E+06    -152.811E+06    -22.5300E+06     467.033E+03    -173.917E-03     344.282E-03    -170.365E-03     145.311E-03    -176.555E-03     346.181E-03    -170.149E-03     134.357E-03
             566     6.83289E-03     96.2208E-03    -67.4820E+06    -121.537E+06    -12.1163E+06     395.554E+03    -174.570E-03     344.912E-03    -170.342E-03     162.510E-03    -178.132E-03     347.838E-03    -170.129E-03     149.563E-03
             567     7.59215E-03     96.4295E-03    -61.4903E+06    -79.3375E+06    -1.74276E+06     201.892E+03    -175.009E-03     345.312E-03    -170.304E-03     179.114E-03    -179.722E-03     349.531E-03    -170.108E-03     164.014E-03
             568     8.35139E-03     96.6572E-03    -55.7227E+06    -29.5528E+06     10.3125E+06     101.044E+03    -175.199E-03     345.456E-03    -170.258E-03     195.490E-03    -181.350E-03     351.275E-03    -170.082E-03     178.065E-03
             569     9.11126E-03     96.9038E-03    -50.2923E+06     27.1936E+06     22.4329E+06     78.1173E+03    -175.234E-03     345.428E-03    -170.194E-03     212.700E-03    -183.203E-03     353.250E-03    -170.048E-03     192.756E-03
             570     9.87087E-03     97.1711E-03    -44.6742E+06     68.4855E+06     37.0349E+06    -106.449E+03    -175.331E-03     345.494E-03    -170.163E-03     231.198E-03    -185.548E-03     355.687E-03    -170.012E-03     208.582E-03
             571     10.6300E-03     97.4609E-03    -37.9440E+06     86.3426E+06     56.7834E+06     32.8847E+03    -174.970E-03     345.159E-03    -170.189E-03     248.060E-03    -187.679E-03     357.875E-03    -169.975E-03     223.008E-03
             572     11.3907E-03     97.7683E-03    -30.5403E+06     97.8312E+06     76.4165E+06     428.545E+03    -173.959E-03     344.178E-03    -170.219E-03     257.238E-03    -188.878E-03     359.114E-03    -169.934E-03     230.625E-03
             573     12.1502E-03     98.0787E-03    -23.4251E+06     108.107E+06     90.3230E+06     422.448E+03    -172.105E-03     342.335E-03    -170.230E-03     250.739E-03    -187.972E-03     358.241E-03    -169.901E-03     224.198E-03
             574     12.9098E-03     98.3679E-03    -16.5519E+06     115.895E+06     94.3089E+06      36.553E+03    -169.465E-03     339.675E-03    -170.210E-03     219.517E-03    -183.810E-03     354.099E-03    -169.882E-03     195.322E-03
             575     13.6701E-03     98.6009E-03    -10.2640E+06     122.560E+06     94.7214E+06     275.822E+03    -167.878E-03     338.072E-03    -170.194E-03     189.276E-03    -180.383E-03     350.700E-03    -169.883E-03     167.463E-03
             576     14.4259E-03     98.8189E-03     -4.5762E+06     123.446E+06     93.8590E+06     634.244E+03    -167.362E-03     337.547E-03    -170.185E-03     116.938E-03    -174.861E-03     345.196E-03    -169.888E-03     101.084E-03
             577     758.977E-06     96.6465E-03    -112.119E+06    -256.310E+06    -110.007E+06    -44.6109E+03    -170.385E-03     340.545E-03    -170.160E-03     20.6108E-03    -170.456E-03     339.628E-03    -170.176E-03     19.3951E-03
             578     1.51843E-03     96.6825E-03    -109.274E+06    -251.042E+06    -102.393E+06     115.144E+03    -170.548E-03     340.794E-03    -170.246E-03     37.9062E-03    -170.713E-03     339.976E-03    -170.235E-03     35.6489E-03
             579     2.27733E-03     96.7406E-03    -105.301E+06    -243.043E+06    -90.4628E+06     342.119E+03    -170.938E-03     341.225E-03    -170.287E-03     56.0116E-03    -171.268E-03     340.580E-03    -170.234E-03     52.5982E-03
             580     3.03642E-03     96.8216E-03    -100.013E+06    -233.084E+06    -76.8514E+06     447.436E+03    -171.415E-03     341.746E-03    -170.331E-03     74.1442E-03    -171.984E-03     341.355E-03    -170.232E-03     69.4809E-03
             581     3.79551E-03     96.9246E-03    -93.7238E+06    -215.586E+06    -63.0462E+06     436.972E+03    -171.955E-03     342.308E-03    -170.354E-03     92.2680E-03    -172.858E-03     342.296E-03    -170.220E-03     86.2446E-03
             582     4.55491E-03     97.0495E-03    -87.2789E+06    -196.219E+06    -47.7429E+06     355.389E+03    -172.543E-03     342.914E-03    -170.371E-03     110.186E-03    -173.889E-03     343.392E-03    -170.198E-03     102.677E-03
             583     5.31423E-03     97.1960E-03    -80.5208E+06    -177.467E+06    -33.2631E+06     282.966E+03    -173.244E-03     343.625E-03    -170.382E-03     127.825E-03    -175.156E-03     344.718E-03    -170.174E-03     118.677E-03
             584     6.07351E-03     97.3639E-03    -73.8751E+06    -153.348E+06    -21.9907E+06     291.458E+03    -173.980E-03     344.354E-03    -170.374E-03     145.283E-03    -176.619E-03     346.250E-03    -170.155E-03     134.320E-03
             585     6.83266E-03     97.5527E-03    -67.5520E+06    -121.920E+06    -11.5746E+06     406.936E+03    -174.539E-03     344.892E-03    -170.353E-03     162.445E-03    -178.099E-03     347.812E-03    -170.136E-03     149.504E-03
             586     7.59208E-03     97.7613E-03    -61.6119E+06    -79.6383E+06    -1.27967E+06     621.295E+03    -174.940E-03     345.249E-03    -170.308E-03     179.265E-03    -179.659E-03     349.469E-03    -170.110E-03     164.173E-03
             587     8.35171E-03     97.9891E-03    -56.1459E+06    -30.0470E+06     10.6755E+06     1.00749E+06    -175.173E-03     345.429E-03    -170.257E-03     195.559E-03    -181.327E-03     351.246E-03    -170.078E-03     178.148E-03
             588     9.11107E-03     98.2353E-03    -50.5758E+06     27.7220E+06     22.8993E+06     801.888E+03    -175.239E-03     345.430E-03    -170.191E-03     212.684E-03    -183.213E-03     353.257E-03    -170.043E-03     192.748E-03
             589     9.87073E-03     98.5032E-03    -44.4517E+06     68.9570E+06     37.7840E+06     166.934E+03    -175.305E-03     345.465E-03    -170.160E-03     231.370E-03    -185.532E-03     355.670E-03    -170.007E-03     208.753E-03
             590     10.6307E-03     98.7932E-03    -38.4933E+06     85.3605E+06     56.3242E+06     26.8381E+03    -175.046E-03     345.232E-03    -170.186E-03     247.822E-03    -187.755E-03     357.944E-03    -169.972E-03     222.757E-03
             591     11.3900E-03     99.0987E-03    -32.1743E+06     97.4814E+06     75.3788E+06    -101.392E+03    -174.081E-03     344.304E-03    -170.224E-03     256.899E-03    -188.994E-03     359.231E-03    -169.942E-03     230.260E-03
             592     12.1500E-03     99.4116E-03    -24.6338E+06     108.127E+06     90.1793E+06    -558.623E+03    -172.252E-03     342.501E-03    -170.250E-03     250.220E-03    -188.097E-03     358.381E-03    -169.920E-03     223.647E-03
             593     12.9093E-03     99.6994E-03    -17.3783E+06     115.138E+06     94.1381E+06    -494.725E+03    -169.789E-03     340.033E-03    -170.244E-03     219.895E-03    -184.159E-03     354.477E-03    -169.915E-03     195.633E-03
             594     13.6663E-03     99.9358E-03    -11.1117E+06     121.378E+06     93.7694E+06    -168.368E+03    -167.473E-03     337.690E-03    -170.217E-03     190.979E-03    -180.037E-03     350.373E-03    -169.908E-03     169.212E-03
             595     14.4296E-03     100.149E-03    -4.75609E+06     122.850E+06     92.6239E+06     211.721E+03    -166.633E-03     336.801E-03    -170.168E-03     118.009E-03    -174.154E-03     344.473E-03    -169.876E-03     102.225E-03
             596     759.167E-06     97.9779E-03    -111.937E+06    -257.053E+06    -110.110E+06     434.374E+03    -170.457E-03     340.597E-03    -170.140E-03     20.5851E-03    -170.526E-03     339.676E-03    -170.156E-03     19.3786E-03
             597     1.51808E-03     98.0140E-03    -109.588E+06    -251.678E+06    -101.931E+06     428.874E+03    -170.552E-03     340.822E-03    -170.270E-03     37.9648E-03    -170.719E-03     340.002E-03    -170.256E-03     35.7119E-03
             598     2.27730E-03     98.0725E-03    -105.090E+06    -243.646E+06    -90.1563E+06     273.910E+03    -170.930E-03     341.231E-03    -170.301E-03     56.1489E-03    -171.259E-03     340.583E-03    -170.246E-03     52.7361E-03
             599     3.03645E-03     98.1532E-03    -99.4218E+06    -233.467E+06    -76.6442E+06     124.013E+03    -171.398E-03     341.734E-03    -170.336E-03     74.2530E-03    -171.965E-03     341.341E-03    -170.236E-03     69.5828E-03
             600     3.79582E-03     98.2562E-03    -93.5125E+06    -216.136E+06    -63.0990E+06     189.531E+03    -171.926E-03     342.278E-03    -170.352E-03     92.2049E-03    -172.826E-03     342.262E-03    -170.219E-03     86.1797E-03
             601     4.55494E-03     98.3811E-03    -87.0706E+06    -196.558E+06    -47.4299E+06     271.053E+03    -172.563E-03     342.934E-03    -170.371E-03     110.050E-03    -173.907E-03     343.408E-03    -170.197E-03     102.541E-03
             602     5.31414E-03     98.5278E-03    -80.2807E+06    -177.924E+06    -32.4072E+06     313.950E+03    -173.301E-03     343.691E-03    -170.390E-03     127.843E-03    -175.213E-03     344.781E-03    -170.178E-03     118.689E-03
             603     6.07327E-03     98.6959E-03    -73.6641E+06    -153.967E+06    -21.2852E+06     512.857E+03    -173.947E-03     344.330E-03    -170.383E-03     145.400E-03    -176.587E-03     346.224E-03    -170.160E-03     134.440E-03
             604     6.83268E-03     98.8844E-03    -67.4461E+06    -122.550E+06    -11.2067E+06     723.484E+03    -174.474E-03     344.827E-03    -170.353E-03     162.612E-03    -178.036E-03     347.747E-03    -170.133E-03     149.678E-03
             605     7.59226E-03     99.0928E-03    -61.4540E+06    -80.6618E+06    -1.02982E+06     1.06073E+06    -174.941E-03     345.245E-03    -170.304E-03     179.369E-03    -179.659E-03     349.461E-03    -170.103E-03     164.283E-03
             606     8.35164E-03     99.3211E-03    -55.2478E+06    -31.1276E+06     11.0258E+06     1.48456E+06    -175.215E-03     345.468E-03    -170.254E-03     195.499E-03    -181.365E-03     351.280E-03    -170.073E-03     178.086E-03
             607     9.11127E-03     99.5672E-03    -49.0771E+06     28.2809E+06     23.9090E+06     1.67572E+06    -175.271E-03     345.463E-03    -170.192E-03     212.560E-03    -183.240E-03     353.289E-03    -170.042E-03     192.627E-03
             608     9.87093E-03     99.8350E-03    -43.6769E+06     69.4920E+06     38.8877E+06     1.60901E+06    -175.296E-03     345.461E-03    -170.165E-03     231.186E-03    -185.514E-03     355.658E-03    -170.008E-03     208.594E-03
             609     10.6304E-03     100.125E-03    -37.6759E+06     85.6333E+06     57.9109E+06     1.26748E+06    -175.168E-03     345.366E-03    -170.198E-03     247.719E-03    -187.875E-03     358.075E-03    -169.978E-03     222.650E-03
             610     11.3899E-03     100.432E-03    -30.1466E+06     99.3541E+06     77.6893E+06     249.496E+03    -174.296E-03     344.542E-03    -170.246E-03     256.998E-03    -189.213E-03     359.480E-03    -169.958E-03     230.324E-03
             611     12.1492E-03     100.742E-03    -22.9157E+06     108.111E+06     90.8691E+06    -412.432E+03    -172.329E-03     342.601E-03    -170.272E-03     251.126E-03    -188.210E-03     358.521E-03    -169.941E-03     224.531E-03
             612     12.9084E-03     101.034E-03    -16.7036E+06     113.775E+06     93.6561E+06     83.8289E+03    -169.249E-03     339.492E-03    -170.243E-03     220.692E-03    -183.635E-03     353.951E-03    -169.915E-03     196.529E-03
             613     13.6711E-03     101.266E-03    -10.3259E+06     121.676E+06     94.1607E+06     314.545E+03    -166.942E-03     337.126E-03    -170.185E-03     190.721E-03    -179.477E-03     349.784E-03    -169.875E-03     169.067E-03
             614     14.4287E-03     101.481E-03    -4.86920E+06     122.629E+06     92.6976E+06    -132.161E+03    -167.165E-03     337.303E-03    -170.138E-03     117.361E-03    -174.677E-03     344.964E-03    -169.845E-03     101.541E-03
             615     759.045E-06     99.3099E-03    -112.001E+06    -258.195E+06    -110.072E+06     55.8506E+03    -170.436E-03     340.581E-03    -170.144E-03     20.7095E-03    -170.504E-03     339.654E-03    -170.158E-03     19.4974E-03
             616     1.51825E-03     99.3456E-03    -108.974E+06    -252.459E+06    -102.100E+06     289.782E+03    -170.621E-03     340.895E-03    -170.274E-03     37.9861E-03    -170.783E-03     340.070E-03    -170.260E-03     35.7305E-03
             617     2.27741E-03     99.4041E-03    -104.686E+06    -243.727E+06    -90.1192E+06     216.116E+03    -170.926E-03     341.243E-03    -170.317E-03     56.0510E-03    -171.252E-03     340.593E-03    -170.262E-03     52.6362E-03
             618     3.03653E-03     99.4850E-03    -99.4195E+06    -233.813E+06    -76.4533E+06     129.472E+03    -171.380E-03     341.727E-03    -170.347E-03     74.0907E-03    -171.945E-03     341.331E-03    -170.246E-03     69.4228E-03
             619     3.79546E-03     99.5878E-03    -93.4897E+06    -216.558E+06    -62.7221E+06     95.0296E+03    -171.924E-03     342.285E-03    -170.361E-03     92.1609E-03    -172.824E-03     342.267E-03    -170.225E-03     86.1343E-03
             620     4.55480E-03     99.7129E-03    -87.1088E+06    -197.089E+06    -47.2584E+06     170.225E+03    -172.573E-03     342.951E-03    -170.378E-03     110.171E-03    -173.917E-03     343.423E-03    -170.202E-03     102.657E-03
             621     5.31408E-03     99.8596E-03    -80.4211E+06    -178.689E+06    -32.2979E+06     396.558E+03    -173.250E-03     343.643E-03    -170.393E-03     127.990E-03    -175.164E-03     344.731E-03    -170.179E-03     118.840E-03
             622     6.07350E-03     100.028E-03    -73.8149E+06    -154.645E+06    -21.2311E+06     619.608E+03    -173.856E-03     344.232E-03    -170.376E-03     145.416E-03    -176.495E-03     346.121E-03    -170.151E-03     134.468E-03
             623     6.83302E-03     100.216E-03    -67.4316E+06    -123.423E+06    -11.1274E+06     867.047E+03    -174.507E-03     344.850E-03    -170.343E-03     162.624E-03    -178.070E-03     347.768E-03    -170.122E-03     149.683E-03
             624     7.59222E-03     100.425E-03    -61.3020E+06    -81.7484E+06    -990.831E+03     1.16280E+06    -175.037E-03     345.338E-03    -170.301E-03     179.290E-03    -179.750E-03     349.547E-03    -170.099E-03     164.198E-03
             625     8.35168E-03     100.653E-03    -55.4116E+06    -32.0232E+06     10.8648E+06     1.26120E+06    -175.244E-03     345.501E-03    -170.257E-03     195.457E-03    -181.393E-03     351.308E-03    -170.076E-03     178.041E-03
             626     9.11103E-03     100.899E-03    -49.6495E+06     26.2830E+06     23.2731E+06     2.12423E+06    -175.324E-03     345.523E-03    -170.199E-03     212.475E-03    -183.291E-03     353.340E-03    -170.049E-03     192.541E-03
             627     9.87063E-03     101.166E-03    -43.4876E+06     69.8396E+06     39.1812E+06     2.76997E+06    -175.380E-03     345.557E-03    -170.177E-03     231.087E-03    -185.595E-03     355.753E-03    -170.020E-03     208.502E-03
             628     10.6302E-03     101.457E-03    -36.5815E+06     87.9766E+06     60.1222E+06     1.12098E+06    -175.068E-03     345.282E-03    -170.214E-03     247.987E-03    -187.782E-03     358.004E-03    -169.988E-03     222.930E-03
             629     11.3900E-03     101.763E-03    -29.5461E+06     99.6187E+06     79.2746E+06     152.637E+03    -174.182E-03     344.434E-03    -170.252E-03     257.431E-03    -189.117E-03     359.387E-03    -169.957E-03     230.766E-03
             630     12.1497E-03     102.076E-03    -22.8723E+06     107.624E+06     91.1913E+06     776.581E+03    -172.128E-03     342.388E-03    -170.260E-03     251.405E-03    -188.021E-03     358.318E-03    -169.927E-03     224.856E-03
             631     12.9101E-03     102.365E-03    -16.3891E+06     113.616E+06     94.3438E+06     570.962E+03    -169.171E-03     339.396E-03    -170.225E-03     220.162E-03    -183.537E-03     353.833E-03    -169.894E-03     196.024E-03
             632     13.6680E-03     102.597E-03    -10.4764E+06     121.579E+06     94.5579E+06     48.2383E+03    -167.365E-03     337.545E-03    -170.180E-03     189.851E-03    -179.884E-03     350.184E-03    -169.868E-03     168.112E-03
             633     14.4294E-03     102.814E-03    -5.31603E+06     122.326E+06     92.8883E+06    -165.453E+03    -167.324E-03     337.477E-03    -170.152E-03     117.372E-03    -174.842E-03     345.141E-03    -169.858E-03     101.503E-03
             634     759.311E-06     100.641E-03    -111.728E+06    -258.799E+06    -109.560E+06     79.7871E+03    -170.510E-03     340.688E-03    -170.178E-03     20.8113E-03    -170.576E-03     339.757E-03    -170.188E-03     19.5985E-03
             635     1.51814E-03     100.678E-03    -108.658E+06    -253.245E+06    -102.077E+06     214.291E+03    -170.644E-03     340.964E-03    -170.320E-03     37.8210E-03    -170.803E-03     340.135E-03    -170.306E-03     35.5631E-03
             636     2.27704E-03     100.736E-03    -104.519E+06    -244.145E+06    -90.2461E+06     196.933E+03    -170.910E-03     341.259E-03    -170.349E-03     56.0120E-03    -171.235E-03     340.608E-03    -170.295E-03     52.5947E-03
             637     3.03624E-03     100.817E-03    -99.4526E+06    -234.166E+06    -76.1598E+06     221.000E+03    -171.295E-03     341.656E-03    -170.361E-03     74.2212E-03    -171.861E-03     341.258E-03    -170.258E-03     69.5574E-03
             638     3.79576E-03     100.919E-03    -93.5307E+06    -216.851E+06    -62.2331E+06     331.170E+03    -171.896E-03     342.255E-03    -170.360E-03     92.3542E-03    -172.798E-03     342.236E-03    -170.221E-03     86.3304E-03
             639     4.55496E-03     101.045E-03    -87.2123E+06    -197.697E+06    -47.0514E+06     355.390E+03    -172.588E-03     342.961E-03    -170.373E-03     110.287E-03    -173.934E-03     343.432E-03    -170.196E-03     102.774E-03
             640     5.31418E-03     101.191E-03    -80.6697E+06    -179.411E+06    -32.5506E+06     515.563E+03    -173.228E-03     343.615E-03    -170.387E-03     127.900E-03    -175.141E-03     344.699E-03    -170.173E-03     118.755E-03
             641     6.07356E-03     101.359E-03    -74.0446E+06    -155.391E+06    -21.3618E+06     664.289E+03    -173.905E-03     344.278E-03    -170.374E-03     145.264E-03    -176.542E-03     346.163E-03    -170.148E-03     134.311E-03
             642     6.83277E-03     101.548E-03    -67.8133E+06    -124.416E+06    -11.2219E+06     894.158E+03    -174.585E-03     344.935E-03    -170.350E-03     162.503E-03    -178.146E-03     347.846E-03    -170.128E-03     149.558E-03
             643     7.59220E-03     101.757E-03    -61.9020E+06    -82.7005E+06    -1.20604E+06     1.17177E+06    -175.027E-03     345.340E-03    -170.312E-03     179.165E-03    -179.740E-03     349.542E-03    -170.109E-03     164.077E-03
             644     8.35151E-03     101.985E-03    -56.1648E+06    -33.1934E+06     10.5515E+06     1.75054E+06    -175.239E-03     345.506E-03    -170.267E-03     195.396E-03    -181.385E-03     351.305E-03    -170.085E-03     177.993E-03
             645     9.11119E-03     102.231E-03    -50.2828E+06     24.0667E+06     22.6799E+06     2.19928E+06    -175.372E-03     345.582E-03    -170.210E-03     212.572E-03    -183.340E-03     353.391E-03    -170.059E-03     192.635E-03
             646     9.87049E-03     102.499E-03    -43.7378E+06     69.7867E+06     38.0549E+06     1.91275E+06    -175.316E-03     345.496E-03    -170.180E-03     231.136E-03    -185.531E-03     355.693E-03    -170.027E-03     208.550E-03
             647     10.6303E-03     102.789E-03    -37.3937E+06     90.3689E+06     58.2560E+06     1.33628E+06    -175.007E-03     345.211E-03    -170.205E-03     248.114E-03    -187.732E-03     357.955E-03    -169.990E-03     223.063E-03
             648     11.3902E-03     103.096E-03    -31.4116E+06     99.1520E+06     77.5674E+06     882.945E+03    -174.057E-03     344.300E-03    -170.243E-03     257.304E-03    -188.996E-03     359.254E-03    -169.953E-03     230.666E-03
             649     12.1498E-03     103.407E-03    -24.4466E+06     107.035E+06     91.1905E+06     555.592E+03    -171.960E-03     342.215E-03    -170.255E-03     250.729E-03    -187.830E-03     358.113E-03    -169.918E-03     224.212E-03
             650     12.9094E-03     103.696E-03    -16.8877E+06     114.132E+06     95.2257E+06    -67.6979E+03    -169.401E-03     339.627E-03    -170.226E-03     220.134E-03    -183.780E-03     354.075E-03    -169.891E-03     195.929E-03
             651     13.6699E-03     103.931E-03    -10.3395E+06     121.117E+06     95.5030E+06    -261.703E+03    -167.692E-03     337.889E-03    -170.197E-03     190.410E-03    -180.238E-03     350.552E-03    -169.880E-03     168.607E-03
             652     14.4275E-03     104.144E-03    -5.18538E+06     122.105E+06     93.7277E+06     7.34390E+03    -167.348E-03     337.524E-03    -170.176E-03     117.646E-03    -174.872E-03     345.191E-03    -169.877E-03     101.783E-03
             653     758.668E-06     101.974E-03    -111.384E+06    -259.369E+06    -109.589E+06     264.957E+03    -170.602E-03     340.860E-03    -170.259E-03     20.7195E-03    -170.666E-03     339.926E-03    -170.269E-03     19.5075E-03
             654     1.51796E-03     102.009E-03    -108.986E+06    -253.976E+06    -101.702E+06     160.615E+03    -170.521E-03     340.887E-03    -170.367E-03     37.9768E-03    -170.682E-03     340.055E-03    -170.349E-03     35.7149E-03
             655     2.27729E-03     102.068E-03    -104.880E+06    -244.743E+06    -90.0246E+06     425.468E+03    -170.814E-03     341.152E-03    -170.338E-03     56.1346E-03    -171.141E-03     340.498E-03    -170.281E-03     52.7229E-03
             656     3.03661E-03     102.148E-03    -99.4568E+06    -234.374E+06    -76.2235E+06     414.479E+03    -171.321E-03     341.659E-03    -170.339E-03     74.3049E-03    -171.887E-03     341.262E-03    -170.236E-03     69.6407E-03
             657     3.79570E-03     102.251E-03    -93.4948E+06    -217.624E+06    -62.5572E+06     350.983E+03    -171.970E-03     342.320E-03    -170.351E-03     92.3265E-03    -172.870E-03     342.297E-03    -170.212E-03     86.2990E-03
             658     4.55488E-03     102.376E-03    -87.1780E+06    -198.410E+06    -47.1519E+06     668.501E+03    -172.597E-03     342.972E-03    -170.375E-03     110.101E-03    -173.940E-03     343.438E-03    -170.197E-03     102.594E-03
             659     5.31417E-03     102.523E-03    -80.6178E+06    -180.003E+06    -32.4079E+06     868.018E+03    -173.257E-03     343.651E-03    -170.394E-03     127.757E-03    -175.167E-03     344.730E-03    -170.178E-03     118.615E-03
             660     6.07340E-03     102.691E-03    -74.2086E+06    -156.324E+06    -21.3248E+06     1.11481E+06    -173.997E-03     344.385E-03    -170.388E-03     145.304E-03    -176.636E-03     346.267E-03    -170.160E-03     134.348E-03
             661     6.83268E-03     102.880E-03    -68.0944E+06    -125.267E+06    -11.2819E+06     1.38332E+06    -174.625E-03     344.994E-03    -170.370E-03     162.534E-03    -178.185E-03     347.901E-03    -170.146E-03     149.596E-03
             662     7.59193E-03     103.089E-03    -62.1954E+06    -83.6122E+06    -1.34011E+06     1.54732E+06    -175.044E-03     345.376E-03    -170.333E-03     179.129E-03    -179.757E-03     349.576E-03    -170.128E-03     164.042E-03
             663     8.35154E-03     103.316E-03    -56.1127E+06    -35.0462E+06     10.2148E+06     1.94088E+06    -175.229E-03     345.516E-03    -170.287E-03     195.261E-03    -181.369E-03     351.303E-03    -170.104E-03     177.859E-03
             664     9.11077E-03     103.563E-03    -49.9190E+06     23.5090E+06     22.5697E+06     2.21606E+06    -175.213E-03     345.432E-03    -170.220E-03     212.601E-03    -183.174E-03     353.235E-03    -170.069E-03     192.690E-03
             665     9.87060E-03     103.831E-03    -44.2481E+06     69.6072E+06     37.8376E+06     2.03084E+06    -175.224E-03     345.403E-03    -170.179E-03     231.177E-03    -185.441E-03     355.600E-03    -170.026E-03     208.601E-03
             666     10.6304E-03     104.120E-03    -38.2401E+06     90.5903E+06     57.6053E+06     2.08347E+06    -175.180E-03     345.384E-03    -170.204E-03     248.193E-03    -187.922E-03     358.144E-03    -169.992E-03     223.109E-03
             667     11.3896E-03     104.429E-03    -30.9681E+06     100.608E+06     77.5605E+06     1.56429E+06    -174.067E-03     344.317E-03    -170.250E-03     256.895E-03    -189.001E-03     359.273E-03    -169.963E-03     230.254E-03
             668     12.1497E-03     104.738E-03    -23.2425E+06     107.633E+06     91.8990E+06     367.445E+03    -171.950E-03     342.217E-03    -170.267E-03     250.673E-03    -187.821E-03     358.122E-03    -169.930E-03     224.145E-03
             669     12.9095E-03     105.030E-03    -16.3557E+06     114.425E+06     95.7259E+06    -137.452E+03    -169.422E-03     339.660E-03    -170.238E-03     220.393E-03    -183.807E-03     354.116E-03    -169.902E-03     196.189E-03
             670     13.6683E-03     105.262E-03    -10.5833E+06     120.777E+06     95.3478E+06    -233.089E+03    -167.583E-03     337.787E-03    -170.204E-03     190.326E-03    -180.127E-03     350.446E-03    -169.887E-03     168.552E-03
             671     14.4293E-03     105.479E-03    -5.59356E+06     121.394E+06     93.3629E+06    -42.6731E+03    -167.411E-03     337.592E-03    -170.181E-03     117.739E-03    -174.944E-03     345.266E-03    -169.882E-03     101.877E-03
             672     759.151E-06     103.305E-03    -111.629E+06    -260.246E+06    -109.756E+06     36.5826E+03    -170.406E-03     340.687E-03    -170.281E-03     20.7181E-03    -170.470E-03     339.749E-03    -170.290E-03     19.4963E-03
             673     1.51819E-03     103.341E-03    -108.941E+06    -254.595E+06    -101.579E+06     327.056E+03    -170.499E-03     340.792E-03    -170.293E-03     38.0343E-03    -170.659E-03     339.956E-03    -170.274E-03     35.7770E-03
             674     2.27739E-03     103.399E-03    -104.910E+06    -245.375E+06    -89.8417E+06     408.930E+03    -170.880E-03     341.177E-03    -170.297E-03     56.0504E-03    -171.206E-03     340.520E-03    -170.238E-03     52.6366E-03
             675     3.03652E-03     103.480E-03    -99.5169E+06    -234.926E+06    -76.5628E+06     508.659E+03    -171.461E-03     341.793E-03    -170.332E-03     74.1931E-03    -172.026E-03     341.393E-03    -170.230E-03     69.5261E-03
             676     3.79562E-03     103.583E-03    -93.7042E+06    -218.489E+06    -62.9441E+06     734.379E+03    -172.016E-03     342.383E-03    -170.367E-03     92.2173E-03    -172.915E-03     342.355E-03    -170.229E-03     86.1954E-03
             677     4.55478E-03     103.708E-03    -87.5385E+06    -199.276E+06    -47.4961E+06     890.814E+03    -172.580E-03     342.972E-03    -170.392E-03     110.068E-03    -173.922E-03     343.434E-03    -170.214E-03     102.565E-03
             678     5.31406E-03     103.855E-03    -80.8969E+06    -181.145E+06    -32.5443E+06     1.24423E+06    -173.295E-03     343.706E-03    -170.411E-03     127.802E-03    -175.205E-03     344.780E-03    -170.194E-03     118.663E-03
             679     6.07333E-03     104.023E-03    -74.3399E+06    -157.393E+06    -21.4023E+06     1.66662E+06    -174.021E-03     344.427E-03    -170.406E-03     145.357E-03    -176.658E-03     346.304E-03    -170.177E-03     134.408E-03
             680     6.83255E-03     104.212E-03    -68.0321E+06    -126.023E+06    -11.3295E+06     1.76826E+06    -174.670E-03     345.059E-03    -170.389E-03     162.538E-03    -178.230E-03     347.963E-03    -170.164E-03     149.597E-03
             681     7.59196E-03     104.421E-03    -61.8526E+06    -84.5828E+06    -1.31457E+06     1.89626E+06    -175.095E-03     345.450E-03    -170.355E-03     179.084E-03    -179.805E-03     349.644E-03    -170.149E-03     163.994E-03
             682     8.35096E-03     104.649E-03    -55.9112E+06    -35.9465E+06     10.2719E+06     1.99531E+06    -175.183E-03     345.491E-03    -170.308E-03     195.254E-03    -181.324E-03     351.276E-03    -170.124E-03     177.853E-03
             683     9.11090E-03     104.894E-03    -50.1417E+06     22.2796E+06     22.3483E+06     2.25049E+06    -175.110E-03     345.344E-03    -170.234E-03     212.422E-03    -183.066E-03     353.137E-03    -170.082E-03     192.520E-03
             684     9.87088E-03     105.162E-03    -43.6231E+06     69.3502E+06     38.0249E+06     2.52254E+06    -175.272E-03     345.462E-03    -170.190E-03     231.075E-03    -185.487E-03     355.658E-03    -170.038E-03     208.489E-03
             685     10.6301E-03     105.453E-03    -36.3262E+06     89.9566E+06     58.8517E+06     2.41412E+06    -175.134E-03     345.353E-03    -170.219E-03     248.097E-03    -187.861E-03     358.100E-03    -170.003E-03     223.028E-03
             686     11.3898E-03     105.761E-03    -29.1491E+06     101.722E+06     79.7654E+06     2.01975E+06    -174.092E-03     344.358E-03    -170.266E-03     256.925E-03    -189.025E-03     359.318E-03    -169.973E-03     230.286E-03
             687     12.1494E-03     106.069E-03    -22.6073E+06     109.619E+06     93.3377E+06     1.34936E+06    -172.187E-03     342.475E-03    -170.288E-03     250.628E-03    -188.077E-03     358.403E-03    -169.947E-03     224.055E-03
             688     12.9091E-03     106.361E-03    -16.6014E+06     114.447E+06     95.8657E+06     704.089E+03    -169.286E-03     339.546E-03    -170.260E-03     220.167E-03    -183.670E-03     354.000E-03    -169.923E-03     195.991E-03
             689     13.6693E-03     106.595E-03    -10.6583E+06     121.148E+06     95.5226E+06     246.445E+03    -167.375E-03     337.589E-03    -170.215E-03     190.796E-03    -179.921E-03     350.250E-03    -169.897E-03     169.084E-03
             690     14.4275E-03     106.811E-03    -5.29079E+06     121.044E+06     93.3969E+06    -116.687E+03    -167.310E-03     337.490E-03    -170.179E-03     117.785E-03    -174.833E-03     345.152E-03    -169.880E-03     101.953E-03
             691     759.165E-06     104.637E-03    -111.563E+06    -260.881E+06    -110.148E+06    -181.994E+03    -170.384E-03     340.461E-03    -170.077E-03     20.6469E-03    -170.446E-03     339.520E-03    -170.087E-03     19.4291E-03
             692     1.51836E-03     104.672E-03    -109.094E+06    -255.520E+06    -102.220E+06     373.582E+03    -170.611E-03     340.836E-03    -170.225E-03     37.8089E-03    -170.769E-03     339.995E-03    -170.207E-03     35.5569E-03
             693     2.27742E-03     104.731E-03    -104.769E+06    -246.303E+06    -90.3088E+06     500.608E+03    -171.025E-03     341.322E-03    -170.297E-03     56.0045E-03    -171.348E-03     340.660E-03    -170.240E-03     52.5894E-03
             694     3.03637E-03     104.812E-03    -99.6959E+06    -236.079E+06    -76.6978E+06     743.668E+03    -171.503E-03     341.863E-03    -170.360E-03     74.2226E-03    -172.067E-03     341.457E-03    -170.257E-03     69.5579E-03
             695     3.79544E-03     104.915E-03    -93.8900E+06    -219.338E+06    -62.5842E+06     1.15081E+06    -171.976E-03     342.368E-03    -170.392E-03     92.1827E-03    -172.874E-03     342.335E-03    -170.251E-03     86.1707E-03
             696     4.55479E-03     105.040E-03    -87.6143E+06    -200.155E+06    -47.3119E+06     1.32384E+06    -172.614E-03     343.026E-03    -170.412E-03     110.107E-03    -173.956E-03     343.484E-03    -170.231E-03     102.608E-03
             697     5.31398E-03     105.187E-03    -81.0292E+06    -182.388E+06    -32.7509E+06     1.48052E+06    -173.370E-03     343.804E-03    -170.434E-03     127.796E-03    -175.279E-03     344.873E-03    -170.216E-03     118.653E-03
             698     6.07316E-03     105.355E-03    -74.2745E+06    -158.614E+06    -21.5873E+06     1.71789E+06    -174.062E-03     344.496E-03    -170.434E-03     145.229E-03    -176.695E-03     346.365E-03    -170.204E-03     134.279E-03
             699     6.83250E-03     105.544E-03    -67.8201E+06    -126.891E+06    -11.2341E+06     2.00708E+06    -174.661E-03     345.078E-03    -170.417E-03     162.499E-03    -178.220E-03     347.978E-03    -170.191E-03     149.558E-03
             700     7.59144E-03     105.753E-03    -61.8714E+06    -85.4546E+06    -1.00299E+06     2.19673E+06    -175.010E-03     345.387E-03    -170.378E-03     179.048E-03    -179.718E-03     349.575E-03    -170.169E-03     163.970E-03
             701     8.35136E-03     105.980E-03    -56.0909E+06    -36.8004E+06     10.6461E+06     2.42159E+06    -175.175E-03     345.500E-03    -170.325E-03     195.232E-03    -181.318E-03     351.283E-03    -170.137E-03     177.831E-03
             702     9.11060E-03     106.227E-03    -49.9972E+06     21.7552E+06     22.9650E+06     2.21822E+06    -175.282E-03     345.540E-03    -170.258E-03     212.226E-03    -183.241E-03     353.333E-03    -170.103E-03     192.287E-03
             703     9.86996E-03     106.493E-03    -43.6691E+06     68.7378E+06     38.6671E+06     1.71420E+06    -175.326E-03     345.549E-03    -170.224E-03     231.158E-03    -185.549E-03     355.750E-03    -170.067E-03     208.546E-03
             704     10.6298E-03     106.786E-03    -36.8786E+06     88.9889E+06     58.8839E+06     1.65617E+06    -174.962E-03     345.207E-03    -170.245E-03     247.861E-03    -187.673E-03     357.933E-03    -170.027E-03     222.820E-03
             705     11.3900E-03     107.091E-03    -29.7164E+06     100.614E+06     79.3416E+06     2.12910E+06    -174.106E-03     344.391E-03    -170.285E-03     256.809E-03    -189.035E-03     359.341E-03    -169.991E-03     230.173E-03
             706     12.1492E-03     107.404E-03    -22.7467E+06     110.513E+06     93.8146E+06     2.38562E+06    -172.250E-03     342.560E-03    -170.309E-03     250.551E-03    -188.139E-03     358.488E-03    -169.967E-03     223.983E-03
             707     12.9082E-03     107.691E-03    -15.9943E+06     116.090E+06     96.8294E+06     1.58263E+06    -169.207E-03     339.489E-03    -170.281E-03     219.991E-03    -183.585E-03     353.941E-03    -169.942E-03     195.837E-03
             708     13.6686E-03     107.926E-03    -9.91635E+06     121.387E+06     96.2667E+06     777.204E+03    -167.249E-03     337.478E-03    -170.229E-03     190.981E-03    -179.789E-03     350.135E-03    -169.910E-03     169.290E-03
             709     14.4294E-03     108.144E-03    -4.45271E+06     121.143E+06     94.4864E+06     301.925E+03    -167.125E-03     337.311E-03    -170.186E-03     117.549E-03    -174.625E-03     344.951E-03    -169.883E-03     101.759E-03
             710     759.281E-06     105.968E-03    -111.934E+06    -261.669E+06    -109.616E+06     438.802E+03    -170.410E-03     340.567E-03    -170.157E-03     20.5520E-03    -170.472E-03     339.622E-03    -170.164E-03     19.3522E-03
             711     1.51819E-03     106.004E-03    -109.054E+06    -256.724E+06    -101.916E+06     424.449E+03    -170.656E-03     340.935E-03    -170.279E-03     37.7669E-03    -170.812E-03     340.088E-03    -170.258E-03     35.5113E-03
             712     2.27718E-03     106.063E-03    -104.734E+06    -247.472E+06    -90.0488E+06     704.966E+03    -171.032E-03     341.375E-03    -170.343E-03     56.0408E-03    -171.353E-03     340.707E-03    -170.282E-03     52.6294E-03
             713     3.03631E-03     106.144E-03    -99.5084E+06    -237.411E+06    -75.9678E+06     1.03313E+06    -171.445E-03     341.836E-03    -170.391E-03     74.1953E-03    -172.006E-03     341.421E-03    -170.282E-03     69.5398E-03
             714     3.79556E-03     106.246E-03    -93.6561E+06    -220.457E+06    -62.1703E+06     1.35016E+06    -172.002E-03     342.413E-03    -170.411E-03     92.1739E-03    -172.898E-03     342.374E-03    -170.267E-03     86.1617E-03
             715     4.55464E-03     106.371E-03    -87.2856E+06    -201.152E+06    -47.1646E+06     1.58483E+06    -172.718E-03     343.154E-03    -170.437E-03     110.127E-03    -174.058E-03     343.607E-03    -170.254E-03     102.623E-03
             716     5.31376E-03     106.519E-03    -80.5186E+06    -183.297E+06    -32.4737E+06     1.70178E+06    -173.440E-03     343.908E-03    -170.468E-03     127.777E-03    -175.347E-03     344.972E-03    -170.248E-03     118.630E-03
             717     6.07289E-03     106.687E-03    -73.8345E+06    -159.745E+06    -21.1143E+06     1.82571E+06    -174.125E-03     344.598E-03    -170.474E-03     145.256E-03    -176.758E-03     346.463E-03    -170.241E-03     134.294E-03
             718     6.83194E-03     106.876E-03    -67.5370E+06    -128.425E+06    -11.0003E+06     2.31449E+06    -174.614E-03     345.067E-03    -170.453E-03     162.409E-03    -178.167E-03     347.957E-03    -170.224E-03     149.477E-03
             719     7.59181E-03     107.084E-03    -61.5474E+06    -86.5219E+06    -461.314E+03     2.90176E+06    -174.927E-03     345.333E-03    -170.406E-03     178.853E-03    -179.630E-03     349.511E-03    -170.194E-03     163.792E-03
             720     8.35085E-03     107.312E-03    -55.5776E+06    -37.4097E+06     11.4778E+06     2.80101E+06    -175.207E-03     345.558E-03    -170.351E-03     195.120E-03    -181.345E-03     351.332E-03    -170.158E-03     177.720E-03
             721     9.11046E-03     107.559E-03    -49.5362E+06     22.0922E+06     23.8438E+06     2.32487E+06    -175.338E-03     345.622E-03    -170.284E-03     212.331E-03    -183.301E-03     353.419E-03    -170.125E-03     192.386E-03
             722     9.86998E-03     107.826E-03    -43.4731E+06     69.0536E+06     39.9954E+06     1.94588E+06    -175.392E-03     345.647E-03    -170.255E-03     231.240E-03    -185.625E-03     355.854E-03    -170.092E-03     208.613E-03
             723     10.6298E-03     108.116E-03    -37.2313E+06     88.1034E+06     59.6391E+06     1.84648E+06    -175.094E-03     345.377E-03    -170.282E-03     247.716E-03    -187.807E-03     358.097E-03    -170.058E-03     222.654E-03
             724     11.3887E-03     108.424E-03    -30.5075E+06     99.2423E+06     78.8279E+06     2.13266E+06    -174.036E-03     344.353E-03    -170.317E-03     256.996E-03    -188.966E-03     359.298E-03    -170.022E-03     230.377E-03
             725     12.1488E-03     108.735E-03    -22.6803E+06     110.268E+06     93.3684E+06     1.70098E+06    -171.869E-03     342.189E-03    -170.320E-03     250.827E-03    -187.749E-03     358.109E-03    -169.980E-03     224.327E-03
             726     12.9093E-03     109.025E-03    -14.9743E+06     116.037E+06     97.0644E+06     1.60940E+06    -169.368E-03     339.652E-03    -170.283E-03     220.369E-03    -183.758E-03     354.119E-03    -169.945E-03     196.186E-03
             727     13.6682E-03     109.258E-03    -9.10093E+06     122.197E+06     96.8639E+06     2.16148E+06    -167.421E-03     337.662E-03    -170.241E-03     191.002E-03    -179.993E-03     350.354E-03    -169.921E-03     169.262E-03
             728     14.4272E-03     109.475E-03    -4.54951E+06     122.427E+06     94.9088E+06     1.41593E+06    -166.678E-03     336.871E-03    -170.192E-03     117.662E-03    -174.196E-03     344.532E-03    -169.889E-03     101.905E-03
             729     758.826E-06     107.300E-03    -111.810E+06    -262.925E+06    -110.344E+06     367.742E+03    -170.452E-03     340.743E-03    -170.292E-03     20.8243E-03    -170.511E-03     339.793E-03    -170.300E-03     19.6158E-03
             730     1.51809E-03     107.336E-03    -109.276E+06    -257.491E+06    -102.198E+06     415.666E+03    -170.661E-03     341.008E-03    -170.347E-03     38.0008E-03    -170.818E-03     340.159E-03    -170.326E-03     35.7416E-03
             731     2.27715E-03     107.394E-03    -105.095E+06    -248.793E+06       -90.3E+06     709.202E+03    -171.021E-03     341.407E-03    -170.386E-03     56.0672E-03    -171.342E-03     340.734E-03    -170.325E-03     52.6547E-03
             732     3.03629E-03     107.475E-03    -99.6686E+06    -238.873E+06    -76.1200E+06     1.18474E+06    -171.455E-03     341.879E-03    -170.424E-03     74.0636E-03    -172.014E-03     341.457E-03    -170.314E-03     69.4099E-03
             733     3.79538E-03     107.578E-03    -93.5699E+06    -221.827E+06    -62.3311E+06     1.42519E+06    -172.064E-03     342.509E-03    -170.445E-03     92.1203E-03    -172.957E-03     342.463E-03    -170.299E-03     86.1055E-03
             734     4.55448E-03     107.704E-03    -87.0840E+06    -202.186E+06    -47.1270E+06     1.60329E+06    -172.754E-03     343.227E-03    -170.473E-03     110.132E-03    -174.091E-03     343.674E-03    -170.289E-03     102.627E-03
             735     5.31357E-03     107.851E-03    -80.2842E+06    -184.531E+06    -32.0366E+06     1.87098E+06    -173.458E-03     343.963E-03    -170.505E-03     127.864E-03    -175.363E-03     345.020E-03    -170.281E-03     118.718E-03
             736     6.07273E-03     108.019E-03    -73.6776E+06    -160.940E+06    -20.6320E+06     2.26778E+06    -174.152E-03     344.661E-03    -170.508E-03     145.359E-03    -176.787E-03     346.522E-03    -170.271E-03     134.394E-03
             737     6.83203E-03     108.208E-03    -67.4403E+06    -130.133E+06    -10.6917E+06     2.64884E+06    -174.649E-03     345.137E-03    -170.488E-03     162.244E-03    -178.198E-03     348.016E-03    -170.255E-03     149.314E-03
             738     7.59098E-03     108.416E-03    -61.1333E+06    -88.3265E+06    -484.821E+03     3.10819E+06    -174.967E-03     345.407E-03    -170.440E-03     178.812E-03    -179.666E-03     349.577E-03    -170.226E-03     163.748E-03
             739     8.35079E-03     108.644E-03    -55.3028E+06    -37.4399E+06     12.0589E+06     3.40051E+06    -175.176E-03     345.559E-03    -170.383E-03     195.201E-03    -181.313E-03     351.331E-03    -170.188E-03     177.814E-03
             740     9.11018E-03     108.890E-03    -49.7573E+06     22.6896E+06     24.5146E+06     2.82922E+06    -175.345E-03     345.658E-03    -170.313E-03     212.314E-03    -183.309E-03     353.455E-03    -170.151E-03     192.376E-03
             741     9.86993E-03     109.158E-03    -43.7941E+06     68.8248E+06     39.3314E+06     2.31095E+06    -175.453E-03     345.732E-03    -170.279E-03     230.970E-03    -185.675E-03     355.929E-03    -170.119E-03     208.345E-03
             742     10.6289E-03     109.449E-03    -37.2508E+06     87.3112E+06     58.6494E+06     2.45853E+06    -174.983E-03     345.285E-03    -170.303E-03     247.775E-03    -187.694E-03     358.004E-03    -170.082E-03     222.743E-03
             743     11.3892E-03     109.755E-03    -29.7225E+06     99.4727E+06     79.0460E+06     1.82919E+06    -173.780E-03     344.103E-03    -170.323E-03     257.510E-03    -188.713E-03     359.055E-03    -170.029E-03     230.934E-03
             744     12.1492E-03     110.067E-03    -22.5678E+06     110.097E+06     93.6387E+06     1.49706E+06    -171.963E-03     342.282E-03    -170.319E-03     251.206E-03    -187.859E-03     358.217E-03    -169.977E-03     224.686E-03
             745     12.9088E-03     110.355E-03    -16.9900E+06     114.568E+06     96.2857E+06     2.42901E+06    -169.501E-03     339.789E-03    -170.287E-03     220.432E-03    -183.912E-03     354.266E-03    -169.948E-03     196.229E-03
             746     13.6682E-03     110.593E-03    -11.1881E+06     122.071E+06     96.2578E+06     2.30280E+06    -167.216E-03     337.460E-03    -170.244E-03     190.372E-03    -179.769E-03     350.127E-03    -169.924E-03     168.674E-03
             747     14.4292E-03     110.804E-03    -5.12087E+06     123.995E+06     95.3361E+06     1.32230E+06    -166.571E-03     336.761E-03    -170.190E-03     117.700E-03    -174.091E-03     344.426E-03    -169.885E-03     101.941E-03
             748     759.229E-06     108.632E-03    -111.590E+06    -263.967E+06    -109.864E+06     276.020E+03    -170.660E-03     340.827E-03    -170.167E-03     20.8647E-03    -170.718E-03     339.870E-03    -170.172E-03     19.6514E-03
             749     1.51807E-03     108.668E-03    -109.035E+06    -258.409E+06    -102.100E+06     326.287E+03    -170.703E-03     341.091E-03    -170.387E-03     38.0248E-03    -170.858E-03     340.236E-03    -170.365E-03     35.7657E-03
             750     2.27706E-03     108.726E-03    -104.836E+06    -250.235E+06    -90.0454E+06     760.992E+03    -171.045E-03     341.471E-03    -170.426E-03     56.0485E-03    -171.363E-03     340.789E-03    -170.361E-03     52.6354E-03
             751     3.03606E-03     108.807E-03    -99.5027E+06    -240.397E+06    -76.2880E+06     1.16658E+06    -171.536E-03     342.000E-03    -170.464E-03     74.0933E-03    -172.093E-03     341.571E-03    -170.352E-03     69.4335E-03
             752     3.79514E-03     108.910E-03    -93.5101E+06    -223.211E+06    -62.6340E+06     1.49203E+06    -172.128E-03     342.617E-03    -170.490E-03     92.2332E-03    -173.019E-03     342.566E-03    -170.343E-03     86.2148E-03
             753     4.55425E-03     109.036E-03    -87.1784E+06    -203.412E+06    -47.3814E+06     1.75640E+06    -172.763E-03     343.280E-03    -170.517E-03     110.119E-03    -174.099E-03     343.721E-03    -170.332E-03     102.614E-03
             754     5.31349E-03     109.183E-03    -80.5854E+06    -185.929E+06    -32.2340E+06     2.05375E+06    -173.463E-03     344.006E-03    -170.544E-03     127.819E-03    -175.366E-03     345.057E-03    -170.318E-03     118.673E-03
             755     6.07257E-03     109.351E-03    -73.9519E+06    -162.633E+06    -20.7881E+06     2.44794E+06    -174.106E-03     344.647E-03    -170.541E-03     145.265E-03    -176.735E-03     346.496E-03    -170.302E-03     134.314E-03
             756     6.83161E-03     109.540E-03    -67.4846E+06    -131.393E+06    -10.5310E+06     2.80630E+06    -174.629E-03     345.144E-03    -170.514E-03     162.264E-03    -178.179E-03     348.017E-03    -170.279E-03     149.333E-03
             757     7.59122E-03     109.748E-03    -61.6146E+06    -90.0910E+06    -662.655E+03     3.11449E+06    -175.036E-03     345.502E-03    -170.465E-03     178.919E-03    -179.738E-03     349.667E-03    -170.249E-03     163.842E-03
             758     8.35038E-03     109.976E-03    -55.6476E+06    -39.1562E+06     11.4984E+06     3.81413E+06    -175.243E-03     345.652E-03    -170.409E-03     195.227E-03    -181.378E-03     351.417E-03    -170.214E-03     177.842E-03
             759     9.11009E-03     110.222E-03    -49.6686E+06     23.0515E+06     24.8530E+06     3.87850E+06    -175.411E-03     345.753E-03    -170.342E-03     212.548E-03    -183.381E-03     353.557E-03    -170.179E-03     192.612E-03
             760     9.86892E-03     110.491E-03    -44.3232E+06     69.2702E+06     39.4432E+06     3.52595E+06    -175.269E-03     345.568E-03    -170.300E-03     231.140E-03    -185.491E-03     355.764E-03    -170.139E-03     208.569E-03
             761     10.6294E-03     110.780E-03    -38.7250E+06     88.0820E+06     58.1820E+06     2.47633E+06    -174.725E-03     345.026E-03    -170.302E-03     247.985E-03    -187.443E-03     357.751E-03    -170.082E-03     222.999E-03
             762     11.3893E-03     111.087E-03    -32.5632E+06     100.219E+06     78.3416E+06     1.07801E+06    -173.820E-03     344.136E-03    -170.316E-03     257.246E-03    -188.758E-03     359.087E-03    -170.023E-03     230.650E-03
             763     12.1495E-03     111.398E-03    -26.2051E+06     107.497E+06     92.1612E+06     1.82449E+06    -172.182E-03     342.506E-03    -170.324E-03     251.278E-03    -188.092E-03     358.438E-03    -169.981E-03     224.720E-03
             764     12.9082E-03     111.690E-03    -19.1135E+06     113.635E+06     95.8235E+06     2.31017E+06    -169.356E-03     339.651E-03    -170.295E-03     220.530E-03    -183.778E-03     354.131E-03    -169.953E-03     196.342E-03
             765     13.6685E-03     111.921E-03    -11.7764E+06     122.923E+06     96.9193E+06     1.24400E+06    -166.892E-03     337.132E-03    -170.239E-03     190.215E-03    -179.442E-03     349.795E-03    -169.916E-03     168.563E-03
             766     14.4277E-03     112.138E-03    -5.50042E+06     124.542E+06     95.7246E+06     578.385E+03    -166.616E-03     336.793E-03    -170.177E-03     118.030E-03    -174.149E-03     344.470E-03    -169.871E-03     102.255E-03
             767     758.848E-06     109.964E-03    -111.430E+06    -265.276E+06    -109.619E+06     414.315E+03    -170.660E-03     340.940E-03    -170.280E-03     20.7715E-03    -170.715E-03     339.976E-03    -170.282E-03     19.5652E-03
             768     1.51790E-03     110.000E-03    -108.725E+06    -259.692E+06    -101.282E+06     626.428E+03    -170.729E-03     341.170E-03    -170.441E-03     37.9913E-03    -170.881E-03     340.307E-03    -170.413E-03     35.7349E-03
             769     2.27701E-03     110.058E-03    -104.628E+06    -251.730E+06    -89.4027E+06     822.404E+03    -171.066E-03     341.536E-03    -170.469E-03     56.0661E-03    -171.382E-03     340.845E-03    -170.400E-03     52.6553E-03
             770     3.03608E-03     110.139E-03    -99.2218E+06    -241.964E+06    -75.5791E+06     1.37191E+06    -171.586E-03     342.092E-03    -170.505E-03     74.1529E-03    -172.141E-03     341.654E-03    -170.389E-03     69.4927E-03
             771     3.79508E-03     110.242E-03    -93.3187E+06    -224.660E+06    -62.1999E+06     1.72366E+06    -172.208E-03     342.742E-03    -170.535E-03     92.2601E-03    -173.098E-03     342.684E-03    -170.384E-03     86.2374E-03
             772     4.55409E-03     110.368E-03    -87.1151E+06    -204.792E+06    -47.5628E+06     2.07021E+06    -172.827E-03     343.391E-03    -170.564E-03     110.069E-03    -174.160E-03     343.826E-03    -170.378E-03     102.565E-03
             773     5.31305E-03     110.515E-03    -80.6993E+06    -187.221E+06    -32.5789E+06     2.35775E+06    -173.447E-03     344.034E-03    -170.587E-03     127.843E-03    -175.350E-03     345.080E-03    -170.362E-03     118.701E-03
             774     6.07223E-03     110.683E-03    -74.0986E+06    -164.295E+06    -20.8964E+06     2.67802E+06    -174.011E-03     344.585E-03    -170.574E-03     145.250E-03    -176.635E-03     346.424E-03    -170.333E-03     134.314E-03
             775     6.83184E-03     110.872E-03    -67.8421E+06    -132.970E+06    -10.7717E+06     3.11771E+06    -174.555E-03     345.088E-03    -170.533E-03     162.315E-03    -178.103E-03     347.954E-03    -170.296E-03     149.398E-03
             776     7.59088E-03     111.080E-03    -61.8999E+06    -91.4910E+06    -726.524E+03     3.57373E+06    -175.090E-03     345.570E-03    -170.481E-03     178.965E-03    -179.789E-03     349.727E-03    -170.262E-03     163.894E-03
             777     8.35037E-03     111.308E-03    -56.0642E+06    -41.4380E+06     10.8244E+06     3.84191E+06    -175.378E-03     345.807E-03    -170.429E-03     195.278E-03    -181.512E-03     351.564E-03    -170.234E-03     177.877E-03
             778     9.10949E-03     111.555E-03    -50.4657E+06     20.5690E+06     23.9317E+06     4.96754E+06    -175.227E-03     345.583E-03    -170.357E-03     212.698E-03    -183.189E-03     353.370E-03    -170.194E-03     192.818E-03
             779     9.86987E-03     111.823E-03    -45.3163E+06     70.4945E+06     39.5014E+06     5.87684E+06    -174.999E-03     345.293E-03    -170.294E-03     231.119E-03    -185.219E-03     355.488E-03    -170.133E-03     208.628E-03
             780     10.6295E-03     112.111E-03    -40.4338E+06     92.1839E+06     58.7843E+06     4.13084E+06    -174.840E-03     345.131E-03    -170.291E-03     247.837E-03    -187.570E-03     357.874E-03    -170.072E-03     222.847E-03
             781     11.3893E-03     112.419E-03    -34.7346E+06     101.030E+06     78.5201E+06     2.36497E+06    -174.122E-03     344.448E-03    -170.325E-03     257.242E-03    -189.081E-03     359.414E-03    -170.029E-03     230.607E-03
             782     12.1481E-03     112.730E-03    -27.2782E+06     106.330E+06     92.0583E+06     1.47640E+06    -172.047E-03     342.385E-03    -170.339E-03     251.456E-03    -187.977E-03     358.330E-03    -169.993E-03     224.901E-03
             783     12.9092E-03     113.022E-03    -18.9792E+06     113.263E+06     96.1383E+06     232.374E+03    -168.875E-03     339.165E-03    -170.290E-03     220.507E-03    -183.286E-03     353.632E-03    -169.946E-03     196.381E-03
             784     13.6687E-03     113.254E-03    -11.2870E+06     122.768E+06     97.2853E+06     128.896E+03    -166.837E-03     337.055E-03    -170.218E-03     190.338E-03    -179.379E-03     349.711E-03    -169.893E-03     168.687E-03
             785     14.4298E-03     113.468E-03    -5.05767E+06     124.885E+06     96.1405E+06     252.941E+03    -166.755E-03     336.912E-03    -170.157E-03     118.109E-03    -174.287E-03     344.591E-03    -169.850E-03     102.312E-03
             786     758.991E-06     111.296E-03    -112.709E+06    -266.805E+06    -110.009E+06     371.516E+03    -170.537E-03     341.024E-03    -170.487E-03     20.8492E-03    -170.596E-03     340.055E-03    -170.486E-03     19.6392E-03
             787     1.51799E-03     111.332E-03    -109.332E+06    -261.327E+06    -102.209E+06     678.207E+03    -170.769E-03     341.250E-03    -170.481E-03     38.0275E-03    -170.920E-03     340.381E-03    -170.455E-03     35.7733E-03
             788     2.27685E-03     111.390E-03    -105.201E+06    -253.131E+06    -90.1095E+06     1.14089E+06    -171.121E-03     341.632E-03    -170.512E-03     56.0220E-03    -171.436E-03     340.937E-03    -170.443E-03     52.6123E-03
             789     3.03588E-03     111.471E-03    -99.9438E+06    -243.727E+06    -76.0795E+06     1.44991E+06    -171.639E-03     342.192E-03    -170.552E-03     74.1888E-03    -172.195E-03     341.747E-03    -170.434E-03     69.5245E-03
             790     3.79481E-03     111.575E-03    -93.8127E+06    -226.483E+06    -62.5085E+06     1.95318E+06    -172.240E-03     342.822E-03    -170.582E-03     92.2573E-03    -173.129E-03     342.755E-03    -170.430E-03     86.2371E-03
             791     4.55379E-03     111.700E-03    -87.5609E+06    -206.173E+06    -47.8399E+06     2.34319E+06    -172.822E-03     343.426E-03    -170.605E-03     110.119E-03    -174.155E-03     343.855E-03    -170.418E-03     102.619E-03
             792     5.31299E-03     111.847E-03    -80.9395E+06    -188.740E+06    -32.8352E+06     2.63823E+06    -173.402E-03     344.021E-03    -170.618E-03     127.870E-03    -175.303E-03     345.059E-03    -170.392E-03     118.738E-03
             793     6.07233E-03     112.015E-03    -74.4345E+06    -166.108E+06    -21.1215E+06     3.16768E+06    -173.973E-03     344.570E-03    -170.596E-03     145.225E-03    -176.595E-03     346.399E-03    -170.353E-03     134.301E-03
             794     6.83137E-03     112.204E-03    -68.1948E+06    -134.707E+06    -11.0998E+06     3.69838E+06    -174.557E-03     345.107E-03    -170.550E-03     162.329E-03    -178.098E-03     347.959E-03    -170.311E-03     149.433E-03
             795     7.59108E-03     112.412E-03    -62.3200E+06    -93.0730E+06    -1.10602E+06     4.06855E+06    -175.095E-03     345.589E-03    -170.494E-03     179.123E-03    -179.792E-03     349.738E-03    -170.274E-03     164.064E-03
             796     8.35011E-03     112.641E-03    -56.9259E+06    -43.3804E+06     10.4134E+06     4.78341E+06    -175.311E-03     345.749E-03    -170.438E-03     195.375E-03    -181.447E-03     351.499E-03    -170.241E-03     177.992E-03
             797     9.10978E-03     112.886E-03    -51.9985E+06     17.0500E+06     22.6211E+06     6.37358E+06    -175.113E-03     345.470E-03    -170.357E-03     212.352E-03    -183.058E-03     353.225E-03    -170.193E-03     192.523E-03
             798     9.86960E-03     113.153E-03    -46.0950E+06     69.8812E+06     38.8660E+06     6.75773E+06    -175.071E-03     345.364E-03    -170.293E-03     230.891E-03    -185.283E-03     355.548E-03    -170.133E-03     208.406E-03
             799     10.6295E-03     113.444E-03    -38.2544E+06     95.4641E+06     60.4830E+06     5.79498E+06    -174.954E-03     345.255E-03    -170.300E-03     247.594E-03    -187.680E-03     358.008E-03    -170.081E-03     222.597E-03
             800     11.3889E-03     113.750E-03    -29.9053E+06     103.174E+06     81.1342E+06     4.44779E+06    -174.000E-03     344.336E-03    -170.336E-03     257.357E-03    -188.950E-03     359.311E-03    -170.037E-03     230.760E-03
             801     12.1493E-03     114.063E-03    -22.2414E+06     108.546E+06     94.9591E+06     2.80191E+06    -171.732E-03     342.067E-03    -170.335E-03     251.496E-03    -187.638E-03     358.004E-03    -169.985E-03     225.024E-03
             802     12.9084E-03     114.351E-03    -15.9615E+06     115.350E+06     98.5204E+06     1.43055E+06    -168.683E-03     338.952E-03    -170.270E-03     220.701E-03    -183.076E-03     353.413E-03    -169.921E-03     196.646E-03
             803     13.6697E-03     114.586E-03    -10.8497E+06     122.483E+06     98.0835E+06     85.6427E+03    -167.000E-03     337.196E-03    -170.195E-03     190.693E-03    -179.556E-03     349.863E-03    -169.867E-03     169.011E-03
             804     14.4282E-03     114.800E-03    -5.29944E+06     124.275E+06     96.6454E+06    -186.747E+03    -167.019E-03     337.166E-03    -170.147E-03     117.858E-03    -174.554E-03     344.843E-03    -169.836E-03     102.019E-03
             805     758.929E-06     112.628E-03    -112.405E+06    -268.139E+06    -111.260E+06     237.443E+03    -170.707E-03     341.159E-03    -170.452E-03     20.7736E-03    -170.761E-03     340.185E-03    -170.457E-03     19.5606E-03
             806     1.51775E-03     112.664E-03    -110.198E+06    -263.078E+06    -103.148E+06     906.448E+03    -170.799E-03     341.340E-03    -170.541E-03     37.9034E-03    -170.950E-03     340.465E-03    -170.516E-03     35.6525E-03
             807     2.27682E-03     112.722E-03    -106.068E+06    -255.023E+06    -91.0414E+06     1.30037E+06    -171.162E-03     341.726E-03    -170.563E-03     56.0481E-03    -171.479E-03     341.024E-03    -170.495E-03     52.6372E-03
             808     3.03569E-03     112.804E-03    -100.731E+06    -245.573E+06    -77.2492E+06     1.68785E+06    -171.676E-03     342.274E-03    -170.599E-03     74.2892E-03    -172.231E-03     341.824E-03    -170.483E-03     69.6274E-03
             809     3.79469E-03     112.907E-03    -94.9796E+06    -228.237E+06    -63.5878E+06     2.02531E+06    -172.201E-03     342.820E-03    -170.618E-03     92.3343E-03    -173.092E-03     342.747E-03    -170.468E-03     86.3189E-03
             810     4.55380E-03     113.032E-03    -88.5357E+06    -207.750E+06    -48.7923E+06     2.35147E+06    -172.765E-03     343.392E-03    -170.627E-03     110.148E-03    -174.099E-03     343.816E-03    -170.441E-03     102.652E-03
             811     5.31290E-03     113.179E-03    -81.8849E+06    -190.651E+06    -33.6387E+06     2.80085E+06    -173.361E-03     343.992E-03    -170.631E-03     127.823E-03    -175.259E-03     345.021E-03    -170.404E-03     118.702E-03
             812     6.07202E-03     113.347E-03    -75.1593E+06    -168.085E+06    -21.7247E+06     3.26032E+06    -173.985E-03     344.591E-03    -170.606E-03     145.286E-03    -176.606E-03     346.411E-03    -170.362E-03     134.366E-03
             813     6.83165E-03     113.535E-03    -68.6604E+06    -136.719E+06    -11.5892E+06     3.79726E+06    -174.643E-03     345.206E-03    -170.563E-03     162.435E-03    -178.183E-03     348.051E-03    -170.323E-03     149.533E-03
             814     7.59062E-03     113.745E-03    -62.5820E+06    -95.4938E+06    -1.48818E+06     4.70718E+06    -175.064E-03     345.573E-03    -170.509E-03     179.114E-03    -179.756E-03     349.708E-03    -170.287E-03     164.071E-03
             815     8.35034E-03     113.972E-03    -56.8885E+06    -46.7178E+06     9.99605E+06     6.31518E+06    -175.165E-03     345.610E-03    -170.445E-03     195.191E-03    -181.286E-03     351.334E-03    -170.245E-03     177.860E-03
             816     9.10989E-03     114.218E-03    -50.6031E+06     14.8028E+06     22.6702E+06     7.34519E+06    -175.257E-03     345.620E-03    -170.363E-03     211.999E-03    -183.187E-03     353.357E-03    -170.198E-03     192.164E-03
             817     9.86940E-03     114.485E-03    -43.4041E+06     70.0473E+06     40.1276E+06     6.31109E+06    -175.251E-03     345.564E-03    -170.313E-03     230.769E-03    -185.449E-03     355.740E-03    -170.151E-03     208.253E-03
             818     10.6289E-03     114.776E-03    -35.9180E+06     95.3805E+06     62.0079E+06     5.09334E+06    -174.847E-03     345.170E-03    -170.323E-03     247.751E-03    -187.565E-03     357.920E-03    -170.100E-03     222.764E-03
             819     11.3890E-03     115.082E-03    -28.7160E+06     104.456E+06     82.6956E+06     4.81956E+06    -173.683E-03     344.027E-03    -170.343E-03     257.224E-03    -188.620E-03     358.993E-03    -170.040E-03     230.689E-03
             820     12.1488E-03     115.394E-03    -22.1287E+06     110.115E+06     96.6510E+06     4.14262E+06    -171.351E-03     341.674E-03    -170.323E-03     251.014E-03    -187.219E-03     357.574E-03    -169.967E-03     224.650E-03
             821     12.9104E-03     115.683E-03    -15.7365E+06     117.572E+06     100.693E+06     3.13524E+06    -168.706E-03     338.957E-03    -170.251E-03     220.594E-03    -183.099E-03     353.420E-03    -169.895E-03     196.550E-03
             822     13.6693E-03     115.917E-03    -10.2232E+06     125.101E+06     100.642E+06     1.68229E+06    -167.211E-03     337.396E-03    -170.186E-03     190.978E-03    -179.798E-03     350.100E-03    -169.849E-03     169.268E-03
             823     14.4300E-03     116.133E-03    -5.28259E+06     124.269E+06     98.0405E+06     311.337E+03    -167.012E-03     337.154E-03    -170.142E-03     117.807E-03    -174.550E-03     344.830E-03    -169.824E-03     101.988E-03
             824     758.703E-06     113.961E-03    -113.601E+06    -269.981E+06    -111.712E+06     610.401E+03    -170.732E-03     341.265E-03    -170.533E-03     20.6808E-03    -170.789E-03     340.284E-03    -170.535E-03     19.4746E-03
             825     1.51772E-03     113.996E-03    -111.210E+06    -265.155E+06    -104.382E+06     845.840E+03    -170.814E-03     341.399E-03    -170.585E-03     37.9974E-03    -170.966E-03     340.517E-03    -170.561E-03     35.7419E-03
             826     2.27663E-03     114.055E-03    -107.058E+06    -257.040E+06    -92.2439E+06     1.41238E+06    -171.193E-03     341.790E-03    -170.597E-03     56.2209E-03    -171.510E-03     341.082E-03    -170.530E-03     52.8120E-03
             827     3.03561E-03     114.136E-03    -101.820E+06    -247.332E+06    -77.9242E+06     1.85856E+06    -171.665E-03     342.293E-03    -170.628E-03     74.3559E-03    -172.222E-03     341.836E-03    -170.511E-03     69.6999E-03
             828     3.79460E-03     114.239E-03    -95.5382E+06    -229.930E+06    -64.2347E+06     2.19210E+06    -172.148E-03     342.783E-03    -170.635E-03     92.3610E-03    -173.038E-03     342.703E-03    -170.484E-03     86.3529E-03
             829     4.55368E-03     114.364E-03       -89.3E+06    -209.534E+06    -49.5900E+06     2.57508E+06    -172.723E-03     343.354E-03    -170.631E-03     110.234E-03    -174.057E-03     343.771E-03    -170.446E-03     102.745E-03
             830     5.31289E-03     114.511E-03    -82.6358E+06    -192.428E+06    -34.3531E+06     2.85359E+06    -173.394E-03     344.028E-03    -170.634E-03     127.801E-03    -175.291E-03     345.048E-03    -170.407E-03     118.680E-03
             831     6.07238E-03     114.679E-03    -75.9685E+06    -169.800E+06    -22.3802E+06     3.12069E+06    -174.082E-03     344.699E-03    -170.617E-03     145.153E-03    -176.702E-03     346.511E-03    -170.373E-03     134.228E-03
             832     6.83129E-03     114.868E-03    -69.4815E+06    -139.054E+06    -12.3342E+06     3.50642E+06    -174.697E-03     345.281E-03    -170.583E-03     162.310E-03    -178.237E-03     348.116E-03    -170.342E-03     149.395E-03
             833     7.59073E-03     115.077E-03    -63.1963E+06    -99.4985E+06    -2.46128E+06     4.84209E+06    -175.044E-03     345.576E-03    -170.532E-03     178.809E-03    -179.725E-03     349.687E-03    -170.309E-03     163.775E-03
             834     8.35009E-03     115.304E-03    -56.9076E+06    -50.5748E+06     9.25978E+06     6.24416E+06    -175.166E-03     345.634E-03    -170.467E-03     194.878E-03    -181.268E-03     351.327E-03    -170.265E-03     177.558E-03
             835     9.10962E-03     115.551E-03    -50.1640E+06     13.4840E+06     22.5490E+06     6.17624E+06    -175.278E-03     345.662E-03    -170.384E-03     212.033E-03    -183.205E-03     353.394E-03    -170.218E-03     192.173E-03
             836     9.86895E-03     115.818E-03    -43.7323E+06     70.7017E+06     39.7027E+06     5.78847E+06    -175.161E-03     345.488E-03    -170.327E-03     230.663E-03    -185.354E-03     355.662E-03    -170.168E-03     208.155E-03
             837     10.6291E-03     116.107E-03    -38.2136E+06     95.2545E+06     61.1242E+06     5.22658E+06    -174.685E-03     345.014E-03    -170.328E-03     247.923E-03    -187.406E-03     357.760E-03    -170.106E-03     222.974E-03
             838     11.3889E-03     116.415E-03    -32.1302E+06     103.803E+06     82.1413E+06     4.58920E+06    -173.521E-03     343.862E-03    -170.341E-03     257.060E-03    -188.455E-03     358.812E-03    -170.034E-03     230.563E-03
             839     12.1496E-03     116.724E-03    -24.8678E+06     110.887E+06     97.0102E+06     4.18663E+06    -171.438E-03     341.761E-03    -170.323E-03     250.547E-03    -187.312E-03     357.659E-03    -169.963E-03     224.165E-03
             840     12.9090E-03     117.014E-03    -17.7453E+06     118.778E+06     101.446E+06     3.26947E+06    -168.869E-03     339.132E-03    -170.263E-03     220.251E-03    -183.272E-03     353.599E-03    -169.902E-03     196.167E-03
             841     13.6698E-03     117.249E-03    -10.8890E+06     127.118E+06     101.779E+06     2.10751E+06    -166.837E-03     337.030E-03    -170.193E-03     190.586E-03    -179.403E-03     349.714E-03    -169.853E-03     168.941E-03
             842     14.4286E-03     117.465E-03    -4.43786E+06     125.743E+06     99.6714E+06     930.525E+03    -166.526E-03     336.654E-03    -170.128E-03     117.968E-03    -174.056E-03     344.326E-03    -169.805E-03     102.217E-03
             843     758.944E-06     115.293E-03    -115.406E+06    -272.412E+06    -113.146E+06     690.001E+03    -170.683E-03     341.183E-03    -170.499E-03     20.8143E-03    -170.743E-03     340.194E-03    -170.503E-03     19.6085E-03
             844     1.51780E-03     115.329E-03    -112.550E+06    -266.932E+06    -105.055E+06     1.03341E+06    -170.875E-03     341.442E-03    -170.567E-03     38.0414E-03    -171.030E-03     340.554E-03    -170.542E-03     35.7891E-03
             845     2.27670E-03     115.387E-03    -108.124E+06    -258.903E+06    -93.2589E+06     1.24089E+06    -171.225E-03     341.827E-03    -170.602E-03     56.2929E-03    -171.543E-03     341.112E-03    -170.536E-03     52.8819E-03
             846     3.03560E-03     115.468E-03    -102.362E+06    -249.218E+06    -79.1195E+06     1.65038E+06    -171.638E-03     342.268E-03    -170.631E-03     74.3678E-03    -172.192E-03     341.804E-03    -170.516E-03     69.7112E-03
             847     3.79463E-03     115.571E-03    -96.4935E+06    -231.966E+06    -65.3765E+06     2.23172E+06    -172.121E-03     342.753E-03    -170.632E-03     92.3259E-03    -173.010E-03     342.666E-03    -170.482E-03     86.3222E-03
             848     4.55389E-03     115.697E-03    -89.8958E+06    -211.218E+06    -50.6837E+06     2.48870E+06    -172.772E-03     343.401E-03    -170.629E-03     110.185E-03    -174.104E-03     343.811E-03    -170.446E-03     102.693E-03
             849     5.31303E-03     115.843E-03    -83.0757E+06    -194.123E+06    -35.2439E+06     2.77782E+06    -173.527E-03     344.173E-03    -170.646E-03     127.609E-03    -175.420E-03     345.185E-03    -170.421E-03     118.481E-03
             850     6.07174E-03     116.011E-03    -76.2148E+06    -171.250E+06    -22.8417E+06     2.98121E+06    -174.202E-03     344.849E-03    -170.647E-03     144.979E-03    -176.818E-03     346.653E-03    -170.402E-03     134.043E-03
             851     6.83112E-03     116.200E-03    -69.7280E+06    -141.747E+06    -12.8415E+06     3.69455E+06    -174.711E-03     345.332E-03    -170.621E-03     162.151E-03    -178.244E-03     348.151E-03    -170.378E-03     149.241E-03
             852     7.59032E-03     116.409E-03    -63.7507E+06    -103.347E+06    -3.34427E+06     4.75732E+06    -175.082E-03     345.652E-03    -170.570E-03     178.583E-03    -179.754E-03     349.740E-03    -170.345E-03     163.546E-03
             853     8.34970E-03     116.636E-03    -57.6668E+06    -53.3694E+06     8.02440E+06     5.36672E+06    -175.218E-03     345.723E-03    -170.505E-03     194.664E-03    -181.311E-03     351.398E-03    -170.304E-03     177.330E-03
             854     9.10926E-03     116.882E-03    -52.0664E+06     12.4941E+06     21.3096E+06     5.84202E+06    -175.063E-03     345.475E-03    -170.412E-03     211.962E-03    -182.985E-03     353.194E-03    -170.248E-03     192.139E-03
             855     9.86931E-03     117.150E-03    -46.7982E+06     70.1974E+06     37.8643E+06     6.09075E+06    -174.923E-03     345.256E-03    -170.334E-03     230.568E-03    -185.114E-03     355.420E-03    -170.178E-03     208.106E-03
             856     10.6289E-03     117.438E-03    -40.1737E+06     95.1182E+06     59.2125E+06     5.81610E+06    -174.588E-03     344.908E-03    -170.321E-03     247.658E-03    -187.295E-03     357.639E-03    -170.105E-03     222.747E-03
             857     11.3894E-03     117.746E-03    -32.5406E+06     103.776E+06     81.5989E+06     4.91351E+06    -173.414E-03     343.747E-03    -170.333E-03     256.752E-03    -188.326E-03     358.675E-03    -170.028E-03     230.295E-03
             858     12.1490E-03     118.055E-03    -24.8226E+06     111.264E+06     97.4158E+06     4.05437E+06    -171.585E-03     341.904E-03    -170.319E-03     251.023E-03    -187.483E-03     357.826E-03    -169.957E-03     224.602E-03
             859     12.9092E-03     118.346E-03    -17.0328E+06     119.906E+06     102.251E+06     3.25684E+06    -168.915E-03     339.176E-03    -170.261E-03     221.272E-03    -183.361E-03     353.691E-03    -169.899E-03     197.163E-03
             860     13.6683E-03     118.579E-03    -10.0044E+06     128.510E+06     102.881E+06     2.47392E+06    -166.601E-03     336.783E-03    -170.182E-03     191.328E-03    -179.199E-03     349.504E-03    -169.840E-03     169.708E-03
             861     14.4311E-03     118.795E-03    -4.86790E+06     127.365E+06     100.462E+06     1.55929E+06    -166.481E-03     336.590E-03    -170.108E-03     118.292E-03    -174.042E-03     344.294E-03    -169.784E-03     102.535E-03
             862     758.957E-06     116.625E-03    -116.340E+06    -274.121E+06    -114.917E+06     92.1453E+03    -170.805E-03     341.136E-03    -170.330E-03     20.7140E-03    -170.865E-03     340.143E-03    -170.339E-03     19.4991E-03
             863     1.51776E-03     116.661E-03    -113.414E+06    -268.692E+06    -106.569E+06     481.434E+03    -170.906E-03     341.459E-03    -170.553E-03     38.0311E-03    -171.060E-03     340.566E-03    -170.532E-03     35.7716E-03
             864     2.27663E-03     116.720E-03    -108.836E+06    -260.699E+06    -94.5155E+06     975.863E+03    -171.220E-03     341.818E-03    -170.599E-03     56.2314E-03    -171.537E-03     341.098E-03    -170.535E-03     52.8188E-03
             865     3.03561E-03     116.801E-03    -103.428E+06    -251.198E+06    -80.4532E+06     1.43480E+06    -171.628E-03     342.255E-03    -170.627E-03     74.2764E-03    -172.183E-03     341.784E-03    -170.515E-03     69.6191E-03
             866     3.79473E-03     116.904E-03    -97.2199E+06    -233.476E+06    -66.7819E+06     1.59806E+06    -172.226E-03     342.863E-03    -170.637E-03     92.1846E-03    -173.114E-03     342.770E-03    -170.491E-03     86.1681E-03
             867     4.55365E-03     117.029E-03    -90.6233E+06    -212.856E+06    -52.5730E+06     1.74649E+06    -172.907E-03     343.559E-03    -170.652E-03     109.992E-03    -174.235E-03     343.962E-03    -170.475E-03     102.487E-03
             868     5.31251E-03     117.176E-03    -83.5881E+06    -196.270E+06    -36.9287E+06     2.19260E+06    -173.580E-03     344.262E-03    -170.681E-03     127.549E-03    -175.471E-03     345.266E-03    -170.460E-03     118.409E-03
             869     6.07184E-03     117.344E-03    -76.7631E+06    -172.921E+06    -24.0565E+06     2.84486E+06    -174.209E-03     344.892E-03    -170.683E-03     144.950E-03    -176.822E-03     346.688E-03    -170.441E-03     134.014E-03
             870     6.83077E-03     117.532E-03    -70.4167E+06    -145.033E+06    -14.1521E+06     3.68228E+06    -174.772E-03     345.430E-03    -170.658E-03     162.106E-03    -178.300E-03     348.234E-03    -170.416E-03     149.195E-03
             871     7.59007E-03     117.741E-03    -64.0603E+06    -106.216E+06    -4.51623E+06     4.62448E+06    -175.140E-03     345.749E-03    -170.609E-03     178.563E-03    -179.805E-03     349.823E-03    -170.384E-03     163.522E-03
             872     8.34933E-03     117.968E-03    -58.2162E+06    -55.8864E+06     6.62720E+06     5.56338E+06    -175.165E-03     345.704E-03    -170.539E-03     194.611E-03    -181.251E-03     351.365E-03    -170.340E-03     177.292E-03
             873     9.10885E-03     118.214E-03    -52.7066E+06     9.89095E+06     19.5829E+06     6.70731E+06    -174.949E-03     345.383E-03    -170.435E-03     211.764E-03    -182.853E-03     353.079E-03    -170.275E-03     191.979E-03
             874     9.86894E-03     118.481E-03    -46.4394E+06     70.0945E+06     37.1047E+06     6.71423E+06    -174.788E-03     345.132E-03    -170.345E-03     230.465E-03    -184.964E-03     355.286E-03    -170.194E-03     208.041E-03
             875     10.6291E-03     118.771E-03    -39.3963E+06     95.3682E+06     59.1158E+06     5.59180E+06    -174.301E-03     344.619E-03    -170.318E-03     247.423E-03    -186.977E-03     357.323E-03    -170.104E-03     222.582E-03
             876     11.3889E-03     119.076E-03    -31.8546E+06     103.903E+06     81.2848E+06     5.13144E+06    -173.292E-03     343.605E-03    -170.313E-03     257.224E-03    -188.203E-03     358.537E-03    -170.011E-03     230.803E-03
             877     12.1499E-03     119.387E-03    -24.3128E+06     112.120E+06     97.7030E+06     4.41801E+06    -171.504E-03     341.795E-03    -170.291E-03     251.657E-03    -187.418E-03     357.738E-03    -169.930E-03     225.249E-03
             878     12.9099E-03     119.678E-03    -17.4972E+06     120.927E+06     103.092E+06     3.10120E+06    -168.641E-03     338.867E-03    -170.226E-03     221.075E-03    -183.078E-03     353.372E-03    -169.860E-03     197.011E-03
             879     13.6716E-03     119.911E-03    -11.3724E+06     128.317E+06     102.993E+06     2.55694E+06    -166.835E-03     336.983E-03    -170.148E-03     191.169E-03    -179.437E-03     349.702E-03    -169.803E-03     169.511E-03
             880     14.4290E-03     120.127E-03    -5.57481E+06     128.845E+06     100.702E+06     2.01264E+06    -166.474E-03     336.555E-03    -170.081E-03     118.335E-03    -174.040E-03     344.266E-03    -169.756E-03     102.553E-03
             881     758.826E-06     117.957E-03    -117.102E+06    -274.756E+06    -115.011E+06     80.4658E+03    -170.759E-03     341.199E-03    -170.440E-03     20.7777E-03    -170.821E-03     340.204E-03    -170.446E-03     19.5660E-03
             882     1.51782E-03     117.994E-03    -114.266E+06    -269.840E+06    -107.563E+06     45.6163E+03    -170.902E-03     341.478E-03    -170.576E-03     38.0375E-03    -171.058E-03     340.582E-03    -170.557E-03     35.7719E-03
             883     2.27664E-03     118.052E-03    -110.158E+06    -262.225E+06    -95.5713E+06     183.118E+03    -171.224E-03     341.838E-03    -170.615E-03     56.0912E-03    -171.542E-03     341.112E-03    -170.553E-03     52.6701E-03
             884     3.03568E-03     118.133E-03    -104.391E+06    -252.851E+06    -81.6858E+06     399.576E+03    -171.718E-03     342.368E-03    -170.650E-03     74.1296E-03    -172.273E-03     341.891E-03    -170.540E-03     69.4579E-03
             885     3.79448E-03     118.236E-03    -97.7669E+06    -234.707E+06    -68.7636E+06     718.253E+03    -172.352E-03     343.024E-03    -170.672E-03     92.1266E-03    -173.237E-03     342.928E-03    -170.534E-03     86.0939E-03
             886     4.55330E-03     118.361E-03    -91.3550E+06    -214.195E+06    -54.6603E+06     945.255E+03    -172.957E-03     343.652E-03    -170.696E-03     109.952E-03    -174.283E-03     344.052E-03    -170.526E-03     102.438E-03
             887     5.31250E-03     118.508E-03    -84.8594E+06    -198.806E+06    -39.2424E+06     1.53994E+06    -173.570E-03     344.292E-03    -170.722E-03     127.570E-03    -175.459E-03     345.288E-03    -170.507E-03     118.426E-03
             888     6.07133E-03     118.676E-03    -78.2192E+06    -175.212E+06    -26.7068E+06     2.37986E+06    -174.220E-03     344.935E-03    -170.716E-03     144.872E-03    -176.829E-03     346.723E-03    -170.482E-03     133.937E-03
             889     6.83068E-03     118.865E-03    -71.4589E+06    -147.412E+06    -16.3353E+06     2.76376E+06    -174.784E-03     345.474E-03    -170.690E-03     162.011E-03    -178.306E-03     348.266E-03    -170.454E-03     149.093E-03
             890     7.58968E-03     119.073E-03    -64.8876E+06    -109.868E+06    -6.64372E+06     3.67299E+06    -175.032E-03     345.666E-03    -170.634E-03     178.542E-03    -179.688E-03     349.721E-03    -170.414E-03     163.507E-03
             891     8.34917E-03     119.300E-03    -58.4774E+06    -59.7447E+06     4.80103E+06     5.39349E+06    -175.015E-03     345.564E-03    -170.549E-03     194.709E-03    -181.087E-03     351.202E-03    -170.354E-03     177.419E-03
             892     9.10906E-03     119.546E-03    -51.9996E+06     6.57250E+06     18.1214E+06     6.56707E+06    -174.976E-03     345.412E-03    -170.435E-03     211.969E-03    -182.870E-03     353.092E-03    -170.279E-03     192.187E-03
             893     9.86867E-03     119.812E-03    -45.5593E+06     69.8150E+06     36.1247E+06     6.69554E+06    -174.682E-03     345.019E-03    -170.337E-03     230.727E-03    -184.851E-03     355.170E-03    -170.191E-03     208.332E-03
             894     10.6288E-03     120.102E-03    -39.5759E+06     96.1297E+06     58.5841E+06     6.32364E+06    -174.020E-03     344.316E-03    -170.296E-03     247.516E-03    -186.683E-03     357.010E-03    -170.085E-03     222.749E-03
             895     11.3905E-03     120.406E-03    -33.4520E+06     104.452E+06     80.6641E+06     5.40106E+06    -173.262E-03     343.544E-03    -170.281E-03     257.506E-03    -188.180E-03     358.480E-03    -169.981E-03     231.096E-03
             896     12.1498E-03     120.720E-03    -26.4263E+06     112.791E+06     97.2413E+06     4.25317E+06    -171.448E-03     341.706E-03    -170.259E-03     251.392E-03    -187.346E-03     357.630E-03    -169.898E-03     225.003E-03
             897     12.9104E-03     121.007E-03    -19.4492E+06     121.474E+06     103.033E+06     3.73319E+06    -168.645E-03     338.843E-03    -170.198E-03     220.682E-03    -183.067E-03     353.328E-03    -169.831E-03     196.635E-03
             898     13.6692E-03     121.243E-03    -12.9192E+06     129.146E+06     103.202E+06     2.55094E+06    -166.497E-03     336.610E-03    -170.114E-03     191.526E-03    -179.103E-03     349.330E-03    -169.767E-03     169.915E-03
             899     14.4312E-03     121.459E-03    -6.11726E+06     130.042E+06     101.165E+06     930.310E+03    -165.783E-03     335.802E-03    -170.019E-03     118.788E-03    -173.341E-03     343.507E-03    -169.693E-03     103.074E-03
             900     758.951E-06     119.290E-03    -117.670E+06    -275.728E+06    -115.876E+06     393.611E+03    -170.814E-03     341.335E-03    -170.520E-03     20.8663E-03    -170.876E-03     340.337E-03    -170.529E-03     19.6606E-03
             901     1.51758E-03     119.326E-03    -115.472E+06    -270.606E+06    -107.583E+06     435.334E+03    -170.935E-03     341.576E-03    -170.641E-03     37.9257E-03    -171.095E-03     340.678E-03    -170.620E-03     35.6679E-03
             902     2.27659E-03     119.384E-03    -111.098E+06    -262.464E+06    -95.6019E+06     183.433E+03    -171.292E-03     341.968E-03    -170.676E-03     55.9276E-03    -171.614E-03     341.242E-03    -170.613E-03     52.5082E-03
             903     3.03529E-03     119.465E-03    -105.713E+06    -253.098E+06    -82.2531E+06    -460.529E+03    -171.805E-03     342.521E-03    -170.716E-03     74.0763E-03    -172.364E-03     342.045E-03    -170.607E-03     69.3926E-03
             904     3.79418E-03     119.569E-03    -99.7078E+06    -235.701E+06    -70.7952E+06    -883.252E+03    -172.358E-03     343.088E-03    -170.731E-03     92.1306E-03    -173.247E-03     342.993E-03    -170.598E-03     86.0785E-03
             905     4.55323E-03     119.694E-03    -93.0049E+06    -216.175E+06    -57.4633E+06    -172.249E+03    -172.950E-03     343.691E-03    -170.742E-03     109.876E-03    -174.275E-03     344.086E-03    -170.581E-03     102.350E-03
             906     5.31204E-03     119.841E-03    -86.1465E+06    -200.869E+06    -41.6947E+06     595.423E+03    -173.586E-03     344.349E-03    -170.763E-03     127.470E-03    -175.471E-03     345.336E-03    -170.555E-03     118.322E-03
             907     6.07133E-03     120.009E-03    -78.7553E+06    -177.176E+06    -29.3705E+06     779.302E+03    -174.208E-03     344.957E-03    -170.748E-03     144.926E-03    -176.811E-03     346.736E-03    -170.524E-03     133.978E-03
             908     6.83011E-03     120.197E-03    -71.4784E+06    -149.589E+06    -18.6826E+06     1.38399E+06    -174.639E-03     345.348E-03    -170.709E-03     162.061E-03    -178.148E-03     348.126E-03    -170.482E-03     149.154E-03
             909     7.58968E-03     120.405E-03    -64.7289E+06    -113.393E+06    -8.48304E+06     2.30251E+06    -174.819E-03     345.453E-03    -170.635E-03     178.641E-03    -179.458E-03     349.485E-03    -170.419E-03     163.629E-03
             910     8.34946E-03     120.632E-03    -58.0523E+06    -65.1035E+06     2.62435E+06     3.91733E+06    -174.929E-03     345.462E-03    -170.533E-03     194.821E-03    -180.980E-03     351.068E-03    -170.341E-03     177.539E-03
             911     9.10912E-03     120.877E-03    -51.8296E+06     2.50116E+06     16.4499E+06     6.05657E+06    -174.781E-03     345.188E-03    -170.406E-03     212.090E-03    -182.649E-03     352.832E-03    -170.253E-03     192.361E-03
             912     9.86925E-03     121.144E-03    -46.5601E+06     68.7810E+06     34.5454E+06     7.65363E+06    -174.449E-03     344.737E-03    -170.288E-03     230.813E-03    -184.597E-03     354.864E-03    -170.147E-03     208.500E-03
             913     10.6302E-03     121.431E-03    -41.1100E+06     96.2714E+06     56.0880E+06     7.57339E+06    -174.258E-03     344.500E-03    -170.242E-03     247.661E-03    -186.923E-03     357.198E-03    -170.042E-03     222.878E-03
             914     11.3893E-03     121.738E-03    -34.4543E+06     105.789E+06     79.7806E+06     6.27459E+06    -173.363E-03     343.609E-03    -170.246E-03     257.520E-03    -188.276E-03     358.544E-03    -169.950E-03     231.115E-03
             915     12.1506E-03     122.050E-03    -27.3553E+06     114.171E+06     97.7581E+06     5.09024E+06    -171.210E-03     341.436E-03    -170.226E-03     251.708E-03    -187.103E-03     357.354E-03    -169.863E-03     225.394E-03
             916     12.9105E-03     122.339E-03    -19.7156E+06     122.869E+06     103.995E+06     3.48994E+06    -168.251E-03     338.395E-03    -170.144E-03     221.817E-03    -182.691E-03     352.900E-03    -169.774E-03     197.843E-03
             917     13.6718E-03     122.574E-03    -11.5265E+06     131.292E+06     104.917E+06     1.61683E+06    -165.845E-03     335.873E-03    -170.028E-03     192.592E-03    -178.479E-03     348.628E-03    -169.677E-03     171.051E-03
             918     14.4329E-03     122.786E-03    -4.96746E+06     130.690E+06     102.390E+06     541.705E+03    -165.681E-03     335.595E-03    -169.914E-03     119.395E-03    -173.264E-03     343.328E-03    -169.585E-03     103.677E-03
             919     758.592E-06     120.622E-03    -119.129E+06    -276.991E+06    -117.385E+06     279.498E+03    -170.936E-03     341.545E-03    -170.609E-03     20.7172E-03    -171.002E-03     340.545E-03    -170.621E-03     19.5061E-03
             920     1.51761E-03     120.659E-03    -116.025E+06    -271.534E+06    -108.606E+06     374.428E+03    -170.995E-03     341.733E-03    -170.738E-03     37.8848E-03    -171.154E-03     340.831E-03    -170.719E-03     35.6291E-03
             921     2.27620E-03     120.717E-03    -111.286E+06    -262.801E+06    -96.0370E+06     275.922E+03    -171.361E-03     342.122E-03    -170.761E-03     55.9743E-03    -171.683E-03     341.395E-03    -170.699E-03     52.5534E-03
             922     3.03514E-03     120.798E-03    -105.288E+06    -250.945E+06    -80.8515E+06    -761.481E+03    -171.834E-03     342.631E-03    -170.796E-03     74.1467E-03    -172.396E-03     342.162E-03    -170.684E-03     69.4596E-03
             923     3.79397E-03     120.901E-03    -98.7804E+06    -235.775E+06    -67.9358E+06    -1.61071E+06    -172.352E-03     343.160E-03    -170.808E-03     92.0981E-03    -173.240E-03     343.058E-03    -170.663E-03     86.0420E-03
             924     4.55280E-03     121.027E-03    -92.3631E+06    -218.555E+06    -56.2379E+06    -1.19464E+06    -172.919E-03     343.718E-03    -170.800E-03     109.934E-03    -174.238E-03     344.097E-03    -170.630E-03     102.400E-03
             925     5.31192E-03     121.173E-03    -85.2714E+06    -201.295E+06    -42.8955E+06    -1.13118E+06    -173.543E-03     344.334E-03    -170.791E-03     127.640E-03    -175.419E-03     345.318E-03    -170.590E-03     118.481E-03
             926     6.07079E-03     121.341E-03    -78.1245E+06    -178.782E+06    -31.5929E+06    -1.15010E+06    -174.058E-03     344.812E-03    -170.754E-03     145.183E-03    -176.649E-03     346.583E-03    -170.539E-03     134.234E-03
             927     6.83042E-03     121.529E-03    -71.3424E+06    -152.003E+06    -21.3187E+06    -484.219E+03    -174.421E-03     345.109E-03    -170.688E-03     162.240E-03    -177.913E-03     347.870E-03    -170.471E-03     149.351E-03
             928     7.58999E-03     121.737E-03    -64.7230E+06    -116.485E+06    -10.8573E+06     474.958E+03    -174.735E-03     345.334E-03    -170.599E-03     178.781E-03    -179.355E-03     349.342E-03    -170.390E-03     163.783E-03
             929     8.34960E-03     121.964E-03    -58.4507E+06    -70.3928E+06     248.664E+03     2.06436E+06    -174.810E-03     345.301E-03    -170.490E-03     195.007E-03    -180.840E-03     350.872E-03    -170.302E-03     177.741E-03
             930     9.10945E-03     122.209E-03    -52.4413E+06    -4.88689E+06     13.6329E+06     5.60879E+06    -174.519E-03     344.868E-03    -170.349E-03     212.021E-03    -182.345E-03     352.451E-03    -170.198E-03     192.368E-03
             931     9.87038E-03     122.474E-03    -46.3090E+06     64.6353E+06     32.0117E+06     8.83899E+06    -174.404E-03     344.619E-03    -170.215E-03     230.825E-03    -184.511E-03     354.698E-03    -170.081E-03     208.581E-03
             932     10.6300E-03     122.763E-03    -39.6912E+06     97.8364E+06     54.8120E+06     9.00620E+06    -174.288E-03     344.452E-03    -170.164E-03     248.225E-03    -186.938E-03     357.149E-03    -169.974E-03     223.491E-03
             933     11.3908E-03     123.069E-03    -32.8710E+06     107.346E+06     79.2715E+06     7.76920E+06    -173.223E-03     343.386E-03    -170.163E-03     258.346E-03    -188.127E-03     358.325E-03    -169.875E-03     232.024E-03
             934     12.1509E-03     123.379E-03    -25.1245E+06     116.786E+06     98.8619E+06     5.79469E+06    -170.860E-03     340.988E-03    -170.128E-03     253.026E-03    -186.774E-03     356.941E-03    -169.767E-03     226.797E-03
             935     12.9124E-03     123.670E-03    -16.9264E+06     125.838E+06     106.729E+06     3.26497E+06    -167.578E-03     337.598E-03    -170.019E-03     222.574E-03    -182.022E-03     352.119E-03    -169.644E-03     198.717E-03
             936     13.6740E-03     123.901E-03    -10.5586E+06     132.386E+06     106.990E+06     1.81424E+06    -165.683E-03     335.566E-03    -169.884E-03     193.208E-03    -178.323E-03     348.329E-03    -169.525E-03     171.708E-03
             937     14.4344E-03     124.119E-03    -5.26335E+06     131.651E+06     103.481E+06     1.29024E+06    -165.611E-03     335.376E-03    -169.765E-03     120.437E-03    -173.225E-03     343.139E-03    -169.431E-03     104.687E-03
             938     758.750E-06     121.955E-03    -119.527E+06    -276.939E+06    -118.195E+06    -691.890E+03    -171.029E-03     341.713E-03    -170.684E-03     20.7817E-03    -171.095E-03     340.714E-03    -170.700E-03     19.5565E-03
             939     1.51723E-03     121.991E-03    -116.493E+06    -271.641E+06    -110.092E+06    -760.495E+03    -171.053E-03     341.865E-03    -170.812E-03     37.9487E-03    -171.213E-03     340.966E-03    -170.799E-03     35.6760E-03
             940     2.27622E-03     122.050E-03    -111.629E+06    -262.982E+06    -97.2319E+06    -1.02905E+06    -171.386E-03     342.209E-03    -170.823E-03     56.0983E-03    -171.708E-03     341.483E-03    -170.766E-03     52.6600E-03
             941     3.03488E-03     122.131E-03    -105.642E+06    -248.853E+06    -83.1401E+06     -1.5309E+06    -171.816E-03     342.648E-03    -170.832E-03     74.2585E-03    -172.379E-03     342.194E-03    -170.734E-03     69.5671E-03
             942     3.79370E-03     122.234E-03    -99.2730E+06    -234.595E+06    -69.8668E+06    -2.47203E+06    -172.291E-03     343.119E-03    -170.828E-03     92.2658E-03    -173.180E-03     343.025E-03    -170.693E-03     86.2076E-03
             943     4.55280E-03     122.359E-03    -92.1041E+06    -219.424E+06    -56.3553E+06    -3.15790E+06    -172.835E-03     343.647E-03    -170.811E-03     110.194E-03    -174.151E-03     344.020E-03    -170.641E-03     102.649E-03
             944     5.31188E-03     122.506E-03    -84.9188E+06    -201.345E+06    -43.8787E+06    -3.02900E+06    -173.387E-03     344.161E-03    -170.775E-03     127.921E-03    -175.257E-03     345.143E-03    -170.579E-03     118.760E-03
             945     6.07133E-03     122.673E-03    -78.3587E+06    -179.836E+06    -33.6956E+06    -2.76384E+06    -173.839E-03     344.548E-03    -170.709E-03     145.319E-03    -176.418E-03     346.308E-03    -170.503E-03     134.394E-03
             946     6.83077E-03     122.861E-03    -71.9588E+06    -153.515E+06    -23.7797E+06    -2.64942E+06    -174.276E-03     344.898E-03    -170.623E-03     162.429E-03    -177.755E-03     347.646E-03    -170.415E-03     149.557E-03
             947     7.59037E-03     123.069E-03    -65.4381E+06    -119.786E+06    -13.6328E+06    -1.90480E+06    -174.600E-03     345.121E-03    -170.521E-03     179.106E-03    -179.202E-03     349.105E-03    -170.321E-03     164.127E-03
             948     8.35016E-03     123.295E-03    -58.9875E+06    -75.7698E+06    -2.26212E+06     288.384E+03    -174.555E-03     344.955E-03    -170.400E-03     195.351E-03    -180.557E-03     350.486E-03    -170.216E-03     178.143E-03
             949     9.11071E-03     123.539E-03    -52.3840E+06    -14.6511E+06     10.4700E+06     4.04835E+06    -174.441E-03     344.689E-03    -170.247E-03     212.455E-03    -182.233E-03     352.212E-03    -170.098E-03     192.838E-03
             950     9.87046E-03     123.805E-03    -45.4650E+06     57.9244E+06     28.8307E+06     7.83615E+06    -174.342E-03     344.441E-03    -170.099E-03     231.789E-03    -184.423E-03     354.482E-03    -169.973E-03     209.592E-03
             951     10.6316E-03     124.094E-03    -38.5891E+06     97.9390E+06     52.5354E+06     9.16589E+06    -173.817E-03     343.834E-03    -170.017E-03     249.499E-03    -186.448E-03     356.524E-03    -169.840E-03     224.905E-03
             952     11.3925E-03     124.399E-03    -31.1757E+06     108.420E+06     77.9539E+06     8.43539E+06    -172.716E-03     342.696E-03    -169.979E-03     259.735E-03    -187.608E-03     357.636E-03    -169.702E-03     233.563E-03
             953     12.1538E-03     124.711E-03    -23.5661E+06     121.062E+06     100.422E+06     6.02190E+06    -170.460E-03     340.382E-03    -169.922E-03     254.326E-03    -186.384E-03     356.361E-03    -169.561E-03     228.209E-03
             954     12.9152E-03     124.998E-03    -16.8396E+06     127.868E+06     108.706E+06     3.84927E+06    -167.580E-03     337.390E-03    -169.811E-03     223.910E-03    -182.063E-03     351.953E-03    -169.428E-03     200.072E-03
             955     13.6762E-03     125.232E-03    -10.3399E+06     132.647E+06     108.633E+06     3.67955E+06    -165.522E-03     335.197E-03    -169.675E-03     194.797E-03    -178.194E-03     347.988E-03    -169.309E-03     173.326E-03
             956     14.4379E-03     125.448E-03    -4.85300E+06     133.903E+06     105.823E+06     2.53638E+06    -164.951E-03     334.492E-03    -169.541E-03     121.772E-03    -172.580E-03     342.272E-03    -169.199E-03     106.085E-03
             957     758.534E-06     123.288E-03    -118.854E+06    -275.279E+06    -116.748E+06    -673.615E+03    -171.052E-03     341.748E-03    -170.696E-03     20.6327E-03    -171.120E-03     340.755E-03    -170.708E-03     19.4084E-03
             958     1.51744E-03     123.324E-03    -116.104E+06    -270.261E+06    -109.808E+06    -1.75979E+06    -171.037E-03     341.857E-03    -170.820E-03     38.0659E-03    -171.198E-03     340.965E-03    -170.809E-03     35.7779E-03
             959     2.27596E-03     123.383E-03    -111.884E+06    -262.163E+06    -98.8001E+06    -2.09997E+06    -171.361E-03     342.173E-03    -170.812E-03     56.3613E-03    -171.684E-03     341.454E-03    -170.763E-03     52.9189E-03
             960     3.03490E-03     123.464E-03    -107.017E+06    -246.962E+06    -87.3854E+06    -2.83106E+06    -171.720E-03     342.512E-03    -170.792E-03     74.5028E-03    -172.287E-03     342.075E-03    -170.715E-03     69.8074E-03
             961     3.79398E-03     123.567E-03    -101.007E+06    -231.385E+06    -75.5048E+06    -4.54796E+06    -172.172E-03     342.931E-03    -170.759E-03     92.5312E-03    -173.064E-03     342.862E-03    -170.655E-03     86.4648E-03
             962     4.55300E-03     123.692E-03    -94.3498E+06    -218.538E+06    -59.6982E+06    -5.70380E+06    -172.702E-03     343.443E-03    -170.741E-03     110.467E-03    -174.022E-03     343.826E-03    -170.586E-03     102.916E-03
             963     5.31225E-03     123.838E-03    -87.3973E+06    -202.278E+06    -45.7017E+06    -5.54426E+06    -173.169E-03     343.865E-03    -170.696E-03     128.139E-03    -175.041E-03     344.841E-03    -170.504E-03     118.988E-03
             964     6.07169E-03     124.005E-03    -79.9811E+06    -179.744E+06    -35.4728E+06    -5.38334E+06    -173.618E-03     344.225E-03    -170.607E-03     145.555E-03    -176.192E-03     345.979E-03    -170.407E-03     134.652E-03
             965     6.83142E-03     124.193E-03    -72.5756E+06    -154.146E+06    -25.5924E+06    -5.66801E+06    -174.045E-03     344.546E-03    -170.500E-03     162.933E-03    -177.512E-03     347.281E-03    -170.300E-03     150.087E-03
             966     7.59129E-03     124.400E-03    -65.4575E+06    -123.159E+06    -15.9741E+06    -4.77240E+06    -174.235E-03     344.608E-03    -170.373E-03     179.743E-03    -178.812E-03     348.562E-03    -170.180E-03     164.822E-03
             967     8.35171E-03     124.626E-03    -58.5942E+06    -82.2873E+06    -5.17058E+06    -2.23212E+06    -174.253E-03     344.478E-03    -170.225E-03     196.154E-03    -180.218E-03     349.958E-03    -170.046E-03     179.021E-03
             968     9.11184E-03     124.870E-03    -51.9309E+06    -23.6199E+06     7.65960E+06     1.40343E+06    -174.185E-03     344.237E-03    -170.052E-03     213.778E-03    -181.946E-03     351.707E-03    -169.904E-03     194.233E-03
             969     9.87303E-03     125.136E-03    -45.5358E+06     48.7744E+06     25.9823E+06     5.98575E+06    -173.909E-03     343.783E-03    -169.874E-03     233.381E-03    -183.958E-03     353.769E-03    -169.749E-03     211.311E-03
             970     10.6341E-03     125.424E-03    -39.5805E+06     95.3931E+06     48.9036E+06     9.21339E+06    -173.358E-03     343.101E-03    -169.743E-03     251.289E-03    -185.972E-03     355.771E-03    -169.580E-03     226.861E-03
             971     11.3958E-03     125.730E-03    -33.6063E+06     111.417E+06     74.9862E+06     7.75237E+06    -172.197E-03     341.864E-03    -169.667E-03     261.577E-03    -187.093E-03     356.818E-03    -169.405E-03     235.572E-03
             972     12.1577E-03     126.040E-03    -26.5799E+06     122.977E+06     99.7602E+06     5.58211E+06    -170.055E-03     339.650E-03    -169.595E-03     256.011E-03    -185.979E-03     355.626E-03    -169.236E-03     230.049E-03
             973     12.9194E-03     126.329E-03    -19.3573E+06     129.077E+06     110.273E+06     4.88685E+06    -167.415E-03     336.894E-03    -169.480E-03     226.465E-03    -181.935E-03     351.484E-03    -169.087E-03     202.722E-03
             974     13.6806E-03     126.562E-03    -12.6156E+06     132.990E+06     110.526E+06     3.32438E+06    -165.267E-03     334.606E-03    -169.339E-03     197.077E-03    -178.001E-03     347.447E-03    -168.961E-03     175.630E-03
             975     14.4431E-03     126.774E-03    -6.02972E+06     135.521E+06     107.913E+06     2.27465E+06    -164.661E-03     333.861E-03    -169.199E-03     123.760E-03    -172.346E-03     341.692E-03    -168.847E-03     108.031E-03
             976     758.663E-06     124.621E-03    -118.574E+06    -272.261E+06    -117.801E+06    -1.50223E+06    -170.827E-03     341.474E-03    -170.647E-03     20.7268E-03    -170.896E-03     340.497E-03    -170.669E-03     19.4943E-03
             977     1.51739E-03     124.657E-03    -116.043E+06    -268.175E+06    -110.412E+06    -2.16480E+06    -170.987E-03     341.685E-03    -170.697E-03     38.3120E-03    -171.150E-03     340.804E-03    -170.692E-03     36.0271E-03
             978     2.27643E-03     124.716E-03    -112.337E+06    -259.488E+06    -100.921E+06    -3.25177E+06    -171.242E-03     341.936E-03    -170.694E-03     56.5188E-03    -171.567E-03     341.233E-03    -170.659E-03     53.0753E-03
             979     3.03530E-03     124.796E-03    -106.429E+06    -242.793E+06    -90.1739E+06    -5.44392E+06    -171.570E-03     342.227E-03    -170.657E-03     74.7171E-03    -172.133E-03     341.812E-03    -170.602E-03     70.0105E-03
             980     3.79430E-03     124.899E-03    -100.051E+06    -228.372E+06    -75.1142E+06    -6.59516E+06    -171.998E-03     342.626E-03    -170.629E-03     92.8347E-03    -172.886E-03     342.567E-03    -170.528E-03     86.7769E-03
             981     4.55358E-03     125.024E-03    -93.8926E+06    -216.732E+06    -58.8643E+06    -6.85495E+06    -172.434E-03     343.029E-03    -170.595E-03     110.861E-03    -173.750E-03     343.413E-03    -170.439E-03     103.345E-03
             982     5.31307E-03     125.170E-03    -87.1928E+06    -200.998E+06    -46.1966E+06    -7.72860E+06    -172.858E-03     343.376E-03    -170.518E-03     128.691E-03    -174.722E-03     344.351E-03    -170.331E-03     119.577E-03
             983     6.07283E-03     125.336E-03    -79.8008E+06    -178.232E+06    -36.5529E+06    -8.95815E+06    -173.291E-03     343.689E-03    -170.398E-03     146.449E-03    -175.857E-03     345.445E-03    -170.207E-03     135.573E-03
             984     6.83279E-03     125.524E-03    -72.4572E+06    -154.596E+06    -27.2948E+06    -9.09755E+06    -173.612E-03     343.871E-03    -170.259E-03     163.961E-03    -177.059E-03     346.591E-03    -170.067E-03     151.182E-03
             985     7.59326E-03     125.731E-03    -65.7357E+06    -126.250E+06    -18.3404E+06    -8.04380E+06    -173.736E-03     343.832E-03    -170.095E-03     180.924E-03    -178.284E-03     347.751E-03    -169.909E-03     166.105E-03
             986     8.35389E-03     125.956E-03    -59.0376E+06    -88.1166E+06    -8.26497E+06    -6.04641E+06    -173.715E-03     343.621E-03    -169.906E-03     197.829E-03    -179.648E-03     349.055E-03    -169.734E-03     180.810E-03
             987     9.11521E-03     126.200E-03    -52.3518E+06    -33.7717E+06     4.00557E+06    -1.68266E+06    -173.566E-03     343.256E-03    -169.690E-03     215.871E-03    -181.284E-03     350.657E-03    -169.545E-03     196.492E-03
             988     9.87653E-03     126.465E-03    -46.7510E+06     36.3070E+06     21.1144E+06     5.25046E+06    -173.361E-03     342.827E-03    -169.466E-03     235.658E-03    -183.366E-03     352.733E-03    -169.345E-03     213.800E-03
             989     10.6387E-03     126.753E-03    -41.2597E+06      92.531E+06     43.6142E+06     9.25917E+06    -172.864E-03     342.145E-03    -169.281E-03     253.849E-03    -185.451E-03     354.787E-03    -169.137E-03     229.654E-03
             990     11.4009E-03     127.059E-03    -34.7225E+06     116.231E+06     71.1765E+06      8.3195E+06    -171.729E-03     340.894E-03    -169.165E-03     264.490E-03    -186.615E-03     355.864E-03    -168.928E-03     238.729E-03
             991     12.1632E-03     127.369E-03    -27.7128E+06     123.735E+06     97.3163E+06     6.01311E+06    -169.752E-03     338.830E-03    -169.078E-03     259.501E-03    -185.691E-03     354.827E-03    -168.731E-03     233.736E-03
             992     12.9258E-03     127.657E-03    -20.1944E+06     128.441E+06     110.347E+06     5.12728E+06    -166.985E-03     335.941E-03    -168.956E-03     229.877E-03    -181.541E-03     350.561E-03    -168.561E-03     206.303E-03
             993     13.6888E-03     127.891E-03    -13.0411E+06     135.966E+06     113.952E+06     4.04761E+06    -165.100E-03     333.917E-03    -168.817E-03     200.372E-03    -177.900E-03     346.823E-03    -168.425E-03     179.017E-03
             994     14.4495E-03     128.104E-03    -6.66770E+06     138.038E+06     110.976E+06     1.58244E+06    -164.935E-03     333.629E-03    -168.694E-03     126.561E-03    -172.693E-03     341.531E-03    -168.330E-03     110.742E-03
             995     759.171E-06     125.954E-03    -118.897E+06    -267.289E+06    -116.966E+06    -2.18511E+06    -170.601E-03     340.948E-03    -170.347E-03     21.0367E-03    -170.680E-03     339.996E-03    -170.372E-03     19.8096E-03
             996     1.51794E-03     125.990E-03    -115.524E+06    -265.203E+06    -109.437E+06    -3.27920E+06    -170.814E-03     341.270E-03    -170.456E-03     38.4234E-03    -170.978E-03     340.400E-03    -170.451E-03     36.1447E-03
             997     2.27662E-03     126.048E-03    -110.923E+06    -253.715E+06    -100.195E+06    -5.39301E+06    -170.993E-03     341.451E-03    -170.457E-03     56.8021E-03    -171.319E-03     340.772E-03    -170.430E-03     53.3556E-03
             998     3.03588E-03     126.129E-03    -106.255E+06    -237.169E+06    -89.0741E+06    -7.57065E+06    -171.276E-03     341.688E-03    -170.412E-03     75.1758E-03    -171.845E-03     341.296E-03    -170.359E-03     70.4817E-03
             999     3.79525E-03     126.231E-03    -100.919E+06    -226.381E+06    -73.6962E+06    -8.29897E+06    -171.619E-03     341.987E-03    -170.368E-03     93.4574E-03    -172.512E-03     341.932E-03    -170.262E-03     87.4364E-03
            1000     4.55482E-03     126.355E-03    -94.2854E+06    -214.197E+06    -59.0923E+06    -8.79136E+06    -171.959E-03     342.250E-03    -170.291E-03     111.616E-03    -173.271E-03     342.638E-03    -170.139E-03     104.160E-03
            1001     5.31476E-03     126.501E-03    -86.7430E+06    -196.712E+06    -47.2265E+06    -10.3481E+06    -172.309E-03     342.473E-03    -170.164E-03     129.726E-03    -174.164E-03     343.459E-03    -169.990E-03     120.685E-03
            1002     6.07502E-03     126.667E-03    -79.7519E+06    -175.203E+06    -37.7297E+06    -11.9964E+06    -172.664E-03     342.664E-03    -170.000E-03     147.829E-03    -175.217E-03     344.421E-03    -169.819E-03     137.049E-03
            1003     6.83564E-03     126.854E-03    -73.3832E+06    -154.886E+06    -29.4174E+06    -12.2685E+06    -172.896E-03     342.708E-03    -169.813E-03     165.648E-03    -176.322E-03     345.410E-03    -169.629E-03     153.001E-03
            1004     7.59664E-03     127.060E-03    -66.9181E+06    -127.905E+06    -20.6358E+06    -11.5082E+06    -172.939E-03     342.533E-03    -169.594E-03     183.171E-03    -177.462E-03     346.424E-03    -169.414E-03     168.520E-03
            1005     8.35829E-03     127.285E-03    -60.5860E+06    -92.6046E+06    -11.2081E+06    -9.85329E+06    -172.851E-03     342.196E-03    -169.344E-03     200.659E-03    -178.755E-03     347.588E-03    -169.178E-03     183.847E-03
            1006     9.12036E-03     127.528E-03    -54.7062E+06    -46.3455E+06    -879.124E+03    -4.93497E+06    -172.795E-03     341.868E-03    -169.073E-03     219.151E-03    -180.471E-03     349.187E-03    -168.931E-03     200.013E-03
            1007     9.88309E-03     127.793E-03    -47.9935E+06     21.2866E+06     14.6900E+06     2.85730E+06    -172.684E-03     341.476E-03    -168.791E-03     239.338E-03    -182.629E-03     351.283E-03    -168.679E-03     217.765E-03
            1008     10.6457E-03     128.081E-03    -40.7804E+06     88.2282E+06     37.5241E+06     8.42462E+06    -172.204E-03     340.745E-03    -168.542E-03     258.055E-03    -184.749E-03     353.350E-03    -168.423E-03     234.185E-03
            1009     11.4092E-03     128.386E-03    -34.3636E+06     118.932E+06     65.4711E+06     8.84018E+06    -171.163E-03     339.537E-03    -168.374E-03     269.207E-03    -186.041E-03     354.526E-03    -168.169E-03     243.773E-03
            1010     12.1730E-03     128.697E-03    -27.7154E+06     125.690E+06     93.9308E+06     7.38552E+06    -169.425E-03     337.693E-03    -168.269E-03     264.765E-03    -185.401E-03     353.745E-03    -167.941E-03     239.281E-03
            1011     12.9359E-03     128.986E-03    -20.7720E+06     129.709E+06     110.504E+06     5.40652E+06    -167.168E-03     335.332E-03    -168.164E-03     234.807E-03    -181.796E-03     350.027E-03    -167.770E-03     211.378E-03
            1012     13.6980E-03     129.218E-03    -12.9158E+06     138.534E+06     116.256E+06     3.14519E+06    -165.430E-03     333.492E-03    -168.062E-03     204.641E-03    -178.323E-03     346.494E-03    -167.663E-03     183.287E-03
            1013     14.4616E-03     129.434E-03    -5.32626E+06     140.031E+06     114.009E+06     1.55126E+06    -165.649E-03     333.643E-03    -167.994E-03     129.721E-03    -173.479E-03     341.621E-03    -167.619E-03     113.787E-03
            1014     759.057E-06     127.286E-03    -119.466E+06    -261.486E+06    -117.704E+06    -1.91253E+06    -170.298E-03     340.283E-03    -169.985E-03     21.1356E-03    -170.387E-03     339.361E-03    -170.021E-03     19.9303E-03
            1015     1.51821E-03     127.321E-03    -116.691E+06    -258.232E+06    -109.909E+06    -4.67510E+06    -170.265E-03     340.344E-03    -170.078E-03     38.6770E-03    -170.444E-03     339.510E-03    -170.084E-03     36.4112E-03
            1016     2.27787E-03     127.380E-03    -112.038E+06    -246.593E+06    -98.9531E+06    -7.43396E+06    -170.470E-03     340.498E-03    -170.028E-03     57.3119E-03    -170.811E-03     339.853E-03    -170.003E-03     53.8868E-03
            1017     3.03721E-03     127.460E-03    -106.863E+06    -233.249E+06    -85.7499E+06    -8.20588E+06    -170.671E-03     340.629E-03    -169.959E-03     75.9229E-03    -171.249E-03     340.249E-03    -169.894E-03     71.2912E-03
            1018     3.79701E-03     127.562E-03    -101.128E+06    -222.282E+06    -72.2603E+06    -9.09932E+06    -170.918E-03     340.776E-03    -169.858E-03     94.5443E-03    -171.813E-03     340.732E-03    -169.750E-03     88.6112E-03
            1019     4.55717E-03     127.686E-03    -94.3984E+06    -209.040E+06    -59.7776E+06    -11.2684E+06    -171.183E-03     340.899E-03    -169.716E-03     113.043E-03    -172.492E-03     341.304E-03    -169.575E-03     105.682E-03
            1020     5.31777E-03     127.830E-03    -87.3381E+06    -191.573E+06    -48.4980E+06    -13.4472E+06    -171.424E-03     340.955E-03    -169.531E-03     131.588E-03    -173.272E-03     341.953E-03    -169.369E-03     122.674E-03
            1021     6.07883E-03     127.996E-03    -80.4231E+06    -172.186E+06    -38.5434E+06    -14.4046E+06    -171.617E-03     340.921E-03    -169.304E-03     150.177E-03    -174.153E-03     342.672E-03    -169.130E-03     139.586E-03
            1022     6.84048E-03     128.182E-03    -73.9925E+06    -153.170E+06    -30.2054E+06    -14.8106E+06    -171.699E-03     340.738E-03    -169.039E-03     168.545E-03    -175.103E-03     343.423E-03    -168.860E-03     156.132E-03
            1023     7.60283E-03     128.388E-03    -67.9243E+06    -128.169E+06    -22.4789E+06    -14.6922E+06    -171.711E-03     340.445E-03    -168.735E-03     186.754E-03    -176.203E-03     344.306E-03    -168.563E-03     172.381E-03
            1024     8.36582E-03     128.612E-03    -62.1454E+06    -97.2050E+06    -14.0279E+06    -12.5516E+06    -171.767E-03     340.180E-03    -168.413E-03     204.840E-03    -177.627E-03     345.515E-03    -168.252E-03     188.354E-03
            1025     9.12924E-03     128.855E-03    -55.9732E+06    -56.7364E+06    -4.21181E+06    -8.42844E+06    -171.795E-03     339.879E-03    -168.083E-03     223.954E-03    -179.416E-03     347.111E-03    -167.941E-03     205.171E-03
            1026     9.89272E-03     129.120E-03    -48.9490E+06     5.84929E+06     10.0347E+06    -2.20043E+06    -171.651E-03     339.389E-03    -167.738E-03     244.806E-03    -181.525E-03     349.081E-03    -167.626E-03     223.630E-03
            1027     10.6575E-03     129.407E-03    -41.7478E+06     77.8620E+06     30.6146E+06     5.48387E+06    -171.358E-03     338.766E-03    -167.409E-03     264.336E-03    -183.854E-03     351.302E-03    -167.308E-03     240.893E-03
            1028     11.4222E-03     129.713E-03    -35.0995E+06     119.444E+06     58.9038E+06     8.82915E+06    -170.696E-03     337.881E-03    -167.185E-03     275.811E-03    -185.577E-03     352.891E-03    -167.013E-03     250.776E-03
            1029     12.1867E-03     130.023E-03    -28.0930E+06     127.910E+06     89.8463E+06     7.12066E+06    -169.389E-03     336.467E-03    -167.078E-03     271.503E-03    -185.413E-03     352.585E-03    -166.774E-03     246.319E-03
            1030     12.9510E-03     130.314E-03    -19.1345E+06     132.658E+06     110.892E+06     5.04935E+06    -167.894E-03     334.918E-03    -167.024E-03     241.715E-03    -182.617E-03     349.722E-03    -166.634E-03     218.401E-03
            1031     13.7128E-03     130.548E-03    -11.4272E+06     141.147E+06     119.063E+06     3.16481E+06    -166.954E-03     333.974E-03    -167.020E-03     210.343E-03    -179.990E-03     347.126E-03    -166.613E-03     188.843E-03
            1032     14.4732E-03     130.760E-03    -6.00949E+06     140.041E+06     115.798E+06     2.00471E+06    -167.848E-03     334.936E-03    -167.088E-03     134.232E-03    -175.818E-03     343.047E-03    -166.704E-03     117.972E-03
            1033     759.347E-06     128.616E-03    -119.518E+06    -254.179E+06    -118.323E+06    -2.94273E+06    -169.547E-03     338.909E-03    -169.363E-03     21.3563E-03    -169.645E-03     338.024E-03    -169.412E-03     20.1522E-03
            1034     1.51949E-03     128.652E-03    -116.802E+06    -248.689E+06    -110.326E+06    -5.75437E+06    -169.439E-03     338.793E-03    -169.354E-03     39.4593E-03    -169.630E-03     338.007E-03    -169.375E-03     37.2260E-03
            1035     2.27905E-03     128.709E-03    -112.421E+06    -239.535E+06    -98.0271E+06    -7.94295E+06    -169.541E-03     338.793E-03    -169.252E-03     58.2384E-03    -169.892E-03     338.179E-03    -169.232E-03     54.8845E-03
            1036     3.03954E-03     128.789E-03    -106.620E+06    -229.336E+06    -84.1920E+06    -9.16351E+06    -169.618E-03     338.743E-03    -169.124E-03     77.2391E-03    -170.197E-03     338.373E-03    -169.058E-03     72.7076E-03
            1037     3.80025E-03     128.891E-03    -99.5801E+06    -216.208E+06    -70.8000E+06    -10.7087E+06    -169.750E-03     338.695E-03    -168.946E-03     96.3557E-03    -170.638E-03     338.668E-03    -168.842E-03     90.5534E-03
            1038     4.56147E-03     129.014E-03    -92.4923E+06    -201.961E+06    -58.6672E+06    -13.0000E+06    -169.885E-03     338.607E-03    -168.721E-03     115.397E-03    -171.181E-03     339.027E-03    -168.588E-03     108.213E-03
            1039     5.32314E-03     129.158E-03    -86.0833E+06    -185.733E+06    -48.1412E+06    -15.0152E+06    -169.989E-03     338.438E-03    -168.449E-03     134.592E-03    -171.818E-03     339.441E-03    -168.295E-03     125.913E-03
            1040     6.08563E-03     129.323E-03    -80.1413E+06    -168.874E+06    -38.8984E+06    -16.2047E+06    -170.022E-03     338.151E-03    -168.129E-03     153.852E-03    -172.532E-03     339.890E-03    -167.962E-03     143.555E-03
            1041     6.84886E-03     129.508E-03    -74.2267E+06    -150.098E+06    -30.5201E+06    -16.7502E+06    -170.038E-03     337.805E-03    -167.767E-03     172.867E-03    -173.407E-03     340.466E-03    -167.594E-03     160.817E-03
            1042     7.61298E-03     129.712E-03    -68.6325E+06    -127.218E+06    -23.2940E+06    -16.8199E+06    -170.143E-03     337.516E-03    -167.374E-03     191.724E-03    -174.588E-03     341.334E-03    -167.206E-03     177.766E-03
            1043     8.37747E-03     129.936E-03    -62.8964E+06    -101.031E+06    -15.8318E+06    -15.3317E+06    -170.241E-03     337.214E-03    -166.973E-03     210.678E-03    -176.037E-03     342.474E-03    -166.814E-03     194.662E-03
            1044     9.14234E-03     130.179E-03    -56.8171E+06    -63.5698E+06    -6.38616E+06    -12.3034E+06    -170.247E-03     336.810E-03    -166.563E-03     230.790E-03    -177.793E-03     343.947E-03    -166.420E-03     212.540E-03
            1045     9.90846E-03     130.443E-03    -50.3812E+06    -6.69959E+06     6.86163E+06    -7.05823E+06    -170.374E-03     336.519E-03    -166.145E-03     252.586E-03    -180.180E-03     346.102E-03    -166.028E-03     231.947E-03
            1046     10.6746E-03     130.731E-03    -42.5921E+06     62.5965E+06     26.6786E+06     544.992E+03    -170.582E-03     336.344E-03    -165.761E-03     272.819E-03    -183.024E-03     348.779E-03    -165.657E-03     249.885E-03
            1047     11.4411E-03     131.038E-03    -33.9842E+06     114.518E+06     53.1201E+06     6.76923E+06    -170.622E-03     336.118E-03    -165.496E-03     284.668E-03    -185.501E-03     351.129E-03    -165.347E-03     260.069E-03
            1048     12.2068E-03     131.349E-03    -26.3607E+06     132.352E+06     84.4910E+06     7.19804E+06    -170.193E-03     335.608E-03    -165.415E-03     280.104E-03    -186.288E-03     351.834E-03    -165.146E-03     255.173E-03
            1049     12.9705E-03     131.642E-03    -19.9979E+06     135.165E+06     109.430E+06     4.22490E+06    -169.415E-03     334.895E-03    -165.480E-03     250.040E-03    -184.271E-03     349.843E-03    -165.100E-03     226.765E-03
            1050     13.7322E-03     131.879E-03    -13.1022E+06     140.773E+06     120.089E+06     3.52991E+06    -169.749E-03     335.399E-03    -165.649E-03     217.586E-03    -182.989E-03     348.743E-03    -165.234E-03     195.783E-03
            1051     14.4916E-03     132.093E-03    -6.23133E+06     141.044E+06     118.923E+06     2.97356E+06    -172.132E-03     338.089E-03    -165.957E-03     139.942E-03    -180.295E-03     346.386E-03    -165.558E-03     123.092E-03
            1052     760.764E-06     129.945E-03    -115.104E+06    -244.748E+06    -113.259E+06    -3.47723E+06    -168.305E-03     336.270E-03    -167.965E-03     21.9367E-03    -168.402E-03     335.417E-03    -168.009E-03     20.7626E-03
            1053     1.52095E-03     129.979E-03    -112.420E+06    -239.886E+06    -105.625E+06    -5.74060E+06    -168.138E-03     336.168E-03    -168.030E-03     40.4715E-03    -168.325E-03     335.411E-03    -168.047E-03     38.3132E-03
            1054     2.28238E-03     130.037E-03    -108.441E+06    -232.374E+06    -94.6883E+06    -7.68939E+06    -168.036E-03     335.925E-03    -167.889E-03     59.8508E-03    -168.377E-03     335.331E-03    -167.868E-03     56.6210E-03
            1055     3.04365E-03     130.116E-03    -103.202E+06    -222.413E+06    -81.6725E+06    -9.92344E+06    -168.011E-03     335.698E-03    -167.687E-03     79.3958E-03    -168.578E-03     335.346E-03    -167.624E-03     75.0205E-03
            1056     3.80574E-03     130.217E-03    -97.0556E+06    -209.244E+06    -68.9388E+06    -12.4069E+06    -167.951E-03     335.376E-03    -167.425E-03     99.1130E-03    -168.825E-03     335.362E-03    -167.326E-03     93.5137E-03
            1057     4.56842E-03     130.338E-03    -90.7306E+06    -195.329E+06    -57.7141E+06    -14.2747E+06    -167.883E-03     334.981E-03    -167.098E-03     118.843E-03    -169.159E-03     335.409E-03    -166.972E-03     111.935E-03
            1058     5.33213E-03     130.481E-03    -84.6371E+06    -179.563E+06    -47.5598E+06    -15.8238E+06    -167.854E-03     334.570E-03    -166.716E-03     138.768E-03    -169.653E-03     335.568E-03    -166.571E-03     130.443E-03
            1059     6.09650E-03     130.645E-03    -78.6720E+06    -164.122E+06    -38.1743E+06    -17.1910E+06    -167.792E-03     334.081E-03    -166.289E-03     158.668E-03    -170.254E-03     335.791E-03    -166.128E-03     148.810E-03
            1060     6.86197E-03     130.829E-03    -73.0001E+06    -146.516E+06    -29.9856E+06    -18.0441E+06    -167.829E-03     333.650E-03    -165.821E-03     178.735E-03    -171.137E-03     336.265E-03    -165.653E-03     167.196E-03
            1061     7.62784E-03     131.033E-03    -67.5247E+06    -125.568E+06    -22.3542E+06    -18.0244E+06    -167.971E-03     333.303E-03    -165.332E-03     198.782E-03    -172.344E-03     337.055E-03    -165.164E-03     185.413E-03
            1062     8.39468E-03     131.256E-03    -62.2878E+06    -101.675E+06    -15.1966E+06    -17.3214E+06    -168.032E-03     332.864E-03    -164.832E-03     218.910E-03    -173.746E-03     338.039E-03    -164.670E-03     203.562E-03
            1063     9.16277E-03     131.499E-03    -56.6776E+06    -67.3346E+06    -6.65271E+06    -15.5882E+06    -168.279E-03     332.606E-03    -164.326E-03     240.110E-03    -175.734E-03     339.638E-03    -164.180E-03     222.570E-03
            1064     9.93093E-03     131.763E-03    -49.9776E+06    -16.6078E+06     5.93821E+06    -11.3574E+06    -169.133E-03     332.982E-03    -163.849E-03     262.920E-03    -178.859E-03     342.454E-03    -163.723E-03     242.945E-03
            1065     10.6993E-03     132.052E-03    -42.9498E+06     48.2273E+06     24.6043E+06    -4.14689E+06    -170.176E-03     333.629E-03    -163.453E-03     283.620E-03    -182.564E-03     345.964E-03    -163.337E-03     261.265E-03
            1066     11.4672E-03     132.360E-03    -36.0383E+06     105.660E+06     46.6491E+06     2.49312E+06    -171.329E-03     334.531E-03    -163.202E-03     296.050E-03    -186.241E-03     349.555E-03    -163.070E-03     271.840E-03
            1067     12.2331E-03     132.676E-03    -28.5758E+06     132.978E+06     75.3923E+06     5.09225E+06    -172.212E-03     335.422E-03    -163.211E-03     290.772E-03    -188.436E-03     351.799E-03    -162.985E-03     265.946E-03
            1068     12.9965E-03     132.970E-03    -21.1398E+06     136.574E+06     104.418E+06     5.15727E+06    -172.680E-03     336.171E-03    -163.491E-03     259.443E-03    -187.727E-03     351.326E-03    -163.136E-03     236.002E-03
            1069     13.7560E-03     133.212E-03    -14.5608E+06     140.903E+06     119.828E+06     3.55874E+06    -174.580E-03     338.542E-03    -163.962E-03     226.286E-03    -188.122E-03     352.185E-03    -163.546E-03     203.848E-03
            1070     14.5105E-03     133.432E-03    -6.39950E+06     142.386E+06     121.808E+06     1.84308E+06    -178.955E-03     343.598E-03    -164.642E-03     145.523E-03    -187.355E-03     352.128E-03    -164.231E-03     127.778E-03
            1071     761.945E-06     131.269E-03    -110.801E+06    -235.741E+06    -109.160E+06    -2.92678E+06    -166.103E-03     331.982E-03    -165.879E-03     22.7641E-03    -166.196E-03     331.161E-03    -165.922E-03     21.6653E-03
            1072     1.52455E-03     131.303E-03    -108.400E+06    -231.383E+06    -101.940E+06    -5.40330E+06    -165.956E-03     331.821E-03    -165.865E-03     41.7821E-03    -166.137E-03     331.091E-03    -165.882E-03     39.7397E-03
            1073     2.28694E-03     131.359E-03    -104.440E+06    -224.465E+06    -91.3982E+06    -7.90062E+06    -165.767E-03     331.452E-03    -165.685E-03     61.8770E-03    -166.097E-03     330.879E-03    -165.665E-03     58.8151E-03
            1074     3.05048E-03     131.437E-03    -99.1099E+06    -214.143E+06     -79.296E+06    -10.4502E+06    -165.570E-03     330.983E-03    -165.414E-03     82.2103E-03    -166.118E-03     330.649E-03    -165.356E-03     78.0660E-03
            1075     3.81442E-03     131.537E-03    -93.4884E+06    -201.679E+06    -67.1273E+06    -12.7805E+06    -165.319E-03     330.380E-03    -165.061E-03     102.686E-03    -166.165E-03     330.372E-03    -164.968E-03     97.4001E-03
            1076     4.57962E-03     131.657E-03    -87.7830E+06    -188.556E+06    -55.9120E+06    -14.7971E+06    -165.080E-03     329.710E-03    -164.630E-03     123.348E-03    -166.320E-03     330.130E-03    -164.509E-03     116.834E-03
            1077     5.34546E-03     131.799E-03    -81.8193E+06    -173.303E+06    -45.7329E+06    -16.6448E+06    -164.884E-03     329.016E-03    -164.131E-03     144.214E-03    -166.631E-03     329.988E-03    -163.990E-03     136.377E-03
            1078     6.11261E-03     131.961E-03    -75.9979E+06    -158.992E+06    -36.2007E+06    -17.8224E+06    -164.739E-03     328.323E-03    -163.584E-03     165.238E-03    -167.131E-03     329.984E-03    -163.424E-03     155.971E-03
            1079     6.88064E-03     132.144E-03    -70.4680E+06    -141.857E+06    -27.9370E+06    -18.7434E+06    -164.720E-03     327.711E-03    -162.991E-03     186.779E-03    -167.941E-03     330.258E-03    -162.823E-03     175.932E-03
            1080     7.65014E-03     132.347E-03    -65.0110E+06    -123.553E+06    -20.1814E+06    -18.9494E+06    -164.853E-03     327.231E-03    -162.378E-03     208.305E-03    -169.121E-03     330.886E-03    -162.205E-03     195.731E-03
            1081     8.42042E-03     132.570E-03    -59.3566E+06    -100.121E+06    -12.4755E+06    -18.3795E+06    -165.292E-03     327.059E-03    -161.767E-03     229.651E-03    -170.886E-03     332.122E-03    -161.598E-03     215.162E-03
            1082     9.19113E-03     132.812E-03    -53.9149E+06    -68.0920E+06    -3.56467E+06    -17.1999E+06    -166.363E-03     327.562E-03    -161.200E-03     251.987E-03    -173.703E-03     334.479E-03    -161.041E-03     235.292E-03
            1083     9.96227E-03     133.078E-03    -49.1285E+06    -24.1358E+06     7.67965E+06    -13.3008E+06    -168.184E-03     328.903E-03    -160.719E-03     275.682E-03    -177.816E-03     338.252E-03    -160.574E-03     256.492E-03
            1084     10.7325E-03     133.370E-03    -43.9286E+06     36.6623E+06     24.1483E+06    -6.80666E+06    -170.558E-03     330.935E-03    -160.377E-03     296.763E-03    -182.919E-03     343.199E-03    -160.245E-03     274.996E-03
            1085     11.5014E-03     133.681E-03    -37.4893E+06     97.5191E+06     45.3964E+06    -446.315E+03    -173.278E-03     333.533E-03    -160.255E-03     309.361E-03    -188.280E-03     348.617E-03    -160.115E-03     285.421E-03
            1086     12.2672E-03     134.004E-03    -30.5925E+06     130.361E+06     71.2226E+06     2.44472E+06    -175.855E-03     336.325E-03    -160.470E-03     303.404E-03    -192.301E-03     352.919E-03    -160.258E-03     278.458E-03
            1087     13.0280E-03     134.302E-03    -22.7605E+06     135.292E+06     98.4470E+06     3.08937E+06    -178.611E-03     339.690E-03    -161.078E-03     270.376E-03    -193.990E-03     355.184E-03    -160.749E-03     246.271E-03
            1088     13.7832E-03     134.551E-03    -12.9725E+06     143.731E+06     120.494E+06     2.39851E+06    -182.801E-03     344.830E-03    -162.029E-03     235.494E-03    -196.782E-03     358.928E-03    -161.616E-03     211.762E-03
            1089     14.5331E-03     134.780E-03    -5.69054E+06     143.852E+06     123.956E+06     1.57901E+06    -189.021E-03     352.283E-03    -163.261E-03     151.383E-03    -197.745E-03     361.139E-03    -162.842E-03     132.275E-03
            1090     764.639E-06     132.585E-03    -106.967E+06    -227.049E+06    -105.582E+06    -2.96692E+06    -162.842E-03     325.715E-03    -162.873E-03     23.6756E-03    -162.932E-03     324.925E-03    -162.917E-03     22.6582E-03
            1091     1.52908E-03     132.620E-03    -104.429E+06    -222.809E+06    -98.5461E+06    -5.52888E+06    -162.690E-03     325.379E-03    -162.689E-03     43.3760E-03    -162.863E-03     324.675E-03    -162.708E-03     41.4868E-03
            1092     2.29449E-03     132.675E-03    -100.426E+06    -215.921E+06    -88.3395E+06    -8.39245E+06    -162.419E-03     324.859E-03    -162.441E-03     64.4080E-03    -162.735E-03     324.307E-03    -162.424E-03     61.5700E-03
            1093     3.06023E-03     132.752E-03    -95.5189E+06    -205.324E+06    -77.0578E+06    -11.2443E+06    -162.024E-03     324.107E-03    -162.083E-03     85.7833E-03    -162.550E-03     323.787E-03    -162.032E-03     81.9512E-03
            1094     3.82737E-03     132.850E-03    -89.8553E+06    -194.237E+06    -65.0963E+06    -13.4411E+06    -161.604E-03     323.230E-03    -161.626E-03     107.291E-03    -162.413E-03     323.218E-03    -161.539E-03     102.415E-03
            1095     4.59525E-03     132.969E-03    -83.8368E+06    -181.094E+06    -53.3445E+06    -15.5640E+06    -161.194E-03     322.272E-03    -161.079E-03     129.219E-03    -162.378E-03     322.670E-03    -160.961E-03     123.221E-03
            1096     5.36477E-03     133.109E-03    -78.0188E+06    -167.212E+06    -42.8923E+06    -17.1269E+06    -160.778E-03     321.226E-03    -160.448E-03     151.417E-03    -162.448E-03     322.148E-03    -160.307E-03     144.222E-03
            1097     6.13553E-03     133.270E-03    -72.4296E+06    -153.497E+06    -33.3678E+06    -18.2954E+06    -160.543E-03     320.297E-03    -159.754E-03     174.085E-03    -162.838E-03     321.885E-03    -159.594E-03     165.575E-03
            1098     6.90780E-03     133.451E-03    -66.8040E+06    -137.159E+06    -24.6774E+06    -19.1286E+06    -160.595E-03     319.616E-03    -159.022E-03     197.135E-03    -163.693E-03     322.060E-03    -158.849E-03     187.169E-03
            1099     7.68112E-03     133.653E-03    -61.3789E+06    -120.443E+06    -16.6912E+06    -19.4234E+06    -161.096E-03     319.387E-03    -158.291E-03     220.075E-03    -165.218E-03     322.910E-03    -158.111E-03     208.471E-03
            1100     8.45546E-03     133.876E-03    -56.3127E+06    -97.7450E+06    -8.95564E+06    -19.2162E+06    -162.421E-03     320.033E-03    -157.613E-03     242.694E-03    -167.862E-03     324.952E-03    -157.434E-03     229.194E-03
            1101     9.22982E-03     134.120E-03    -51.6980E+06    -69.1567E+06     138.656E+03    -17.1924E+06    -164.745E-03     321.802E-03    -157.057E-03     266.063E-03    -171.947E-03     328.573E-03    -156.881E-03     250.317E-03
            1102     10.0030E-03     134.389E-03    -46.8348E+06    -29.0029E+06     11.7095E+06    -13.1348E+06    -168.021E-03     324.689E-03    -156.668E-03     290.335E-03    -177.552E-03     333.916E-03    -156.499E-03     271.955E-03
            1103     10.7752E-03     134.684E-03    -41.0470E+06     27.9938E+06     29.9444E+06    -7.06670E+06    -172.291E-03     328.804E-03    -156.512E-03     311.910E-03    -184.659E-03     341.038E-03    -156.344E-03     290.639E-03
            1104     11.5435E-03     135.004E-03    -35.0956E+06     90.4913E+06     52.1560E+06    -739.082E+03    -176.946E-03     333.611E-03    -156.665E-03     323.912E-03    -192.106E-03     348.817E-03    -156.484E-03     300.047E-03
            1105     12.3080E-03     135.331E-03    -28.9827E+06     128.515E+06     74.0130E+06     2.43456E+06    -181.941E-03     339.175E-03    -157.233E-03     317.261E-03    -198.724E-03     356.099E-03    -157.008E-03     291.814E-03
            1106     13.0654E-03     135.643E-03    -21.9575E+06     137.326E+06     98.3737E+06     1.67096E+06    -187.903E-03     346.246E-03    -158.344E-03     282.559E-03    -203.777E-03     362.249E-03    -158.019E-03     257.178E-03
            1107     13.8127E-03     135.900E-03    -14.6760E+06     143.830E+06     119.881E+06     24.1151E+03    -194.374E-03     354.318E-03    -159.944E-03     245.278E-03    -208.933E-03     368.991E-03    -159.532E-03     219.617E-03
            1108     14.5509E-03     136.144E-03    -6.42471E+06     142.058E+06     123.719E+06     492.002E+03    -201.772E-03     363.646E-03    -161.873E-03     159.529E-03    -210.910E-03     372.909E-03    -161.452E-03     138.587E-03
            1109     767.468E-06     133.893E-03    -102.440E+06    -217.645E+06    -101.440E+06    -3.42751E+06    -158.517E-03     316.947E-03    -158.431E-03     24.7814E-03    -158.602E-03     316.189E-03    -158.474E-03     23.8572E-03
            1110     1.53581E-03     133.927E-03    -100.245E+06    -213.980E+06    -95.0460E+06    -6.14717E+06    -158.123E-03     316.373E-03    -158.250E-03     45.6035E-03    -158.287E-03     315.694E-03    -158.269E-03     43.9010E-03
            1111     2.30446E-03     133.981E-03    -96.3585E+06    -206.486E+06    -85.4378E+06    -9.23175E+06    -157.718E-03     315.623E-03    -157.905E-03     67.7065E-03    -158.016E-03     315.091E-03    -157.893E-03     65.1542E-03
            1112     3.07436E-03     134.056E-03    -91.5054E+06    -196.432E+06    -74.2396E+06    -12.0124E+06    -157.138E-03     314.584E-03    -157.445E-03     90.1776E-03    -157.632E-03     314.268E-03    -157.399E-03     86.7426E-03
            1113     3.84517E-03     134.152E-03    -86.2409E+06    -186.311E+06    -62.5956E+06    -14.6520E+06    -156.480E-03     313.343E-03    -156.864E-03     113.172E-03    -157.240E-03     313.315E-03    -156.781E-03     108.805E-03
            1114     4.61770E-03     134.270E-03    -80.6288E+06    -173.752E+06    -51.2736E+06    -16.5886E+06    -155.824E-03     311.991E-03    -156.167E-03     136.631E-03    -156.937E-03     312.347E-03    -156.055E-03     131.282E-03
            1115     5.39159E-03     134.407E-03    -74.9476E+06    -161.274E+06    -40.4574E+06    -17.7332E+06    -155.312E-03     310.694E-03    -155.383E-03     160.530E-03    -156.884E-03     311.542E-03    -155.242E-03     154.122E-03
            1116     6.16736E-03     134.566E-03    -69.2001E+06    -147.378E+06    -30.5361E+06    -19.0255E+06    -155.199E-03     309.742E-03    -154.543E-03     184.933E-03    -157.368E-03     311.227E-03    -154.382E-03     177.334E-03
            1117     6.94449E-03     134.747E-03    -63.6223E+06    -133.271E+06    -21.6354E+06    -19.6194E+06    -155.753E-03     309.456E-03    -153.703E-03     209.489E-03    -158.694E-03     311.757E-03    -153.525E-03     200.537E-03
            1118     7.72275E-03     134.949E-03    -58.5133E+06    -116.592E+06    -13.3106E+06    -19.5934E+06    -157.234E-03     310.161E-03    -152.927E-03     233.772E-03    -161.178E-03     313.519E-03    -152.739E-03     223.237E-03
            1119     8.50100E-03     135.173E-03    -54.0533E+06    -95.7735E+06    -5.11996E+06    -18.6528E+06    -159.879E-03     312.167E-03    -152.288E-03     257.696E-03    -165.147E-03     316.915E-03    -152.096E-03     245.253E-03
            1120     9.27813E-03     135.421E-03    -49.7225E+06    -70.6856E+06     4.26778E+06    -16.4040E+06    -163.860E-03     315.722E-03    -151.861E-03     281.871E-03    -170.910E-03     322.330E-03    -151.665E-03     267.078E-03
            1121     10.0540E-03     135.694E-03    -45.4867E+06    -32.1762E+06     16.6019E+06    -12.7064E+06    -169.243E-03     320.944E-03    -151.701E-03     306.537E-03    -178.703E-03     330.080E-03    -151.505E-03     288.850E-03
            1122     10.8258E-03     135.998E-03    -41.2733E+06     20.5769E+06     35.0291E+06    -6.92013E+06    -175.771E-03     327.652E-03    -151.881E-03     328.336E-03    -188.215E-03     339.921E-03    -151.675E-03     307.352E-03
            1123     11.5938E-03     136.326E-03    -36.0702E+06     84.7649E+06      58.273E+06    -911.434E+03    -183.178E-03     335.656E-03    -152.478E-03     339.525E-03    -198.617E-03     351.102E-03    -152.257E-03     315.321E-03
            1124     12.3542E-03     136.665E-03    -29.5129E+06     128.650E+06     78.7300E+06     1.06602E+06    -191.544E-03     345.158E-03    -153.614E-03     331.670E-03    -208.842E-03     362.584E-03    -153.364E-03     305.025E-03
            1125     13.1044E-03     136.992E-03    -21.5217E+06     138.927E+06     98.9580E+06    -144.139E+03    -199.873E-03     355.277E-03    -155.404E-03     295.585E-03    -216.381E-03     371.920E-03    -155.079E-03     268.368E-03
            1126     13.8423E-03     137.267E-03    -13.5185E+06     143.513E+06     119.636E+06    -53.7144E+03    -208.272E-03     366.044E-03    -157.772E-03     256.452E-03    -223.481E-03     381.373E-03    -157.362E-03     228.426E-03
            1127     14.5741E-03     137.519E-03    -6.80136E+06     140.362E+06     123.859E+06    -201.679E+03    -217.885E-03     378.413E-03    -160.527E-03     168.236E-03    -227.458E-03     388.105E-03    -160.102E-03     145.055E-03
            1128     772.368E-06     135.188E-03    -99.2162E+06    -207.381E+06    -98.0196E+06    -3.97446E+06    -152.574E-03     304.919E-03    -152.345E-03     26.2074E-03    -152.661E-03     304.198E-03    -152.391E-03     25.4010E-03
            1129     1.54500E-03     135.220E-03    -96.8831E+06    -203.619E+06    -92.2995E+06    -7.11175E+06    -152.067E-03     304.274E-03    -152.207E-03     48.2562E-03    -152.224E-03     303.628E-03    -152.233E-03     46.7742E-03
            1130     2.31859E-03     135.273E-03    -93.2811E+06    -196.333E+06    -83.5467E+06    -10.3488E+06    -151.395E-03     303.181E-03    -151.786E-03     71.6947E-03    -151.674E-03     302.670E-03    -151.784E-03     69.4848E-03
            1131     3.09308E-03     135.346E-03    -88.7701E+06    -187.954E+06    -72.7466E+06    -13.2179E+06    -150.577E-03     301.781E-03    -151.204E-03     95.7401E-03    -151.034E-03     301.462E-03    -151.167E-03     92.7747E-03
            1132     3.86947E-03     135.441E-03    -83.6724E+06    -177.693E+06    -61.1724E+06    -15.5395E+06    -149.712E-03     300.192E-03    -150.480E-03     120.372E-03    -150.413E-03     300.138E-03    -150.407E-03     116.620E-03
            1133     4.64745E-03     135.555E-03    -78.4827E+06    -166.442E+06    -49.7470E+06    -17.3234E+06    -148.952E-03     298.590E-03    -149.639E-03     145.446E-03    -149.976E-03     298.885E-03    -149.532E-03     140.856E-03
            1134     5.42763E-03     135.691E-03    -72.9273E+06    -154.958E+06    -38.8273E+06    -18.7748E+06    -148.627E-03     297.353E-03    -148.726E-03     171.021E-03    -150.076E-03     298.100E-03    -148.590E-03     165.505E-03
            1135     6.20918E-03     135.849E-03    -67.5888E+06    -142.160E+06    -29.0626E+06    -19.5146E+06    -149.074E-03     296.877E-03    -147.803E-03     197.054E-03    -151.082E-03     298.220E-03    -147.644E-03     190.473E-03
            1136     6.99199E-03     136.029E-03    -63.3390E+06    -129.817E+06    -20.2002E+06    -19.4082E+06    -150.663E-03     297.616E-03    -146.953E-03     223.208E-03    -153.419E-03     299.741E-03    -146.774E-03     215.352E-03
            1137     7.77475E-03     136.232E-03    -60.1459E+06    -113.342E+06    -11.9977E+06    -18.5006E+06    -153.651E-03     299.909E-03    -146.259E-03     248.909E-03    -157.405E-03     303.079E-03    -146.067E-03     239.486E-03
            1138     8.55677E-03     136.460E-03    -57.8472E+06    -94.5574E+06    -3.55353E+06    -17.1788E+06    -158.167E-03     303.975E-03    -145.809E-03     273.942E-03    -163.266E-03     308.542E-03    -145.605E-03     262.540E-03
            1139     9.33706E-03     136.714E-03    -56.0600E+06    -70.0193E+06     5.85064E+06    -15.7351E+06    -164.341E-03     310.014E-03    -145.673E-03     298.779E-03    -171.287E-03     316.495E-03    -145.461E-03     284.827E-03
            1140     10.1130E-03     136.996E-03    -53.1458E+06    -33.7473E+06     18.6406E+06    -13.4877E+06    -172.279E-03     318.195E-03    -145.916E-03     323.751E-03    -181.751E-03     327.305E-03    -145.697E-03     306.539E-03
            1141     10.8849E-03     137.310E-03    -47.7810E+06     13.9045E+06     36.3366E+06    -9.65600E+06    -181.770E-03     328.380E-03    -146.611E-03     345.064E-03    -194.385E-03     340.774E-03    -146.380E-03     323.965E-03
            1142     11.6492E-03     137.651E-03    -39.5539E+06     79.0377E+06     60.6369E+06    -4.67739E+06    -192.722E-03     340.578E-03    -147.856E-03     355.633E-03    -208.587E-03     356.414E-03    -147.610E-03     330.432E-03
            1143     12.4030E-03     138.009E-03    -30.5165E+06     129.407E+06     82.2565E+06    -1.87335E+06    -204.060E-03     353.818E-03    -149.758E-03     347.002E-03    -222.055E-03     371.933E-03    -149.490E-03     318.471E-03
            1144     13.1438E-03     138.355E-03    -22.2829E+06     140.544E+06     99.8371E+06    -3.13726E+06    -214.413E-03     366.796E-03    -152.382E-03     309.150E-03    -231.715E-03     384.236E-03    -152.055E-03     279.427E-03
            1145     13.8752E-03     138.646E-03    -13.5781E+06     140.329E+06     117.991E+06    -3.93900E+06    -225.391E-03     381.045E-03    -155.654E-03     267.185E-03    -241.422E-03     397.193E-03    -155.248E-03     235.835E-03
            1146     14.5897E-03     138.924E-03    -5.65733E+06     135.990E+06     122.622E+06    -591.847E+03    -236.026E-03     395.377E-03    -159.351E-03     175.491E-03    -246.115E-03     405.580E-03    -158.927E-03     149.465E-03
            1147     778.352E-06     136.464E-03    -96.7804E+06    -195.719E+06    -95.6932E+06    -4.44578E+06    -144.773E-03     289.300E-03    -144.527E-03     27.7174E-03    -144.865E-03     288.625E-03    -144.581E-03     27.0507E-03
            1148     1.55695E-03     136.496E-03    -94.5388E+06    -191.821E+06    -90.5671E+06    -8.21437E+06    -144.082E-03     288.426E-03    -144.343E-03     51.1902E-03    -144.236E-03     287.818E-03    -144.381E-03     49.9600E-03
            1149     2.33666E-03     136.547E-03    -91.4638E+06    -186.125E+06    -82.8119E+06    -11.4149E+06    -143.180E-03     286.996E-03    -143.817E-03     76.2813E-03    -143.439E-03     286.504E-03    -143.828E-03     74.4590E-03
            1150     3.11835E-03     136.618E-03    -87.8415E+06    -178.728E+06    -72.7622E+06    -14.0924E+06    -142.234E-03     285.348E-03    -143.114E-03     102.033E-03    -142.652E-03     285.023E-03    -143.091E-03     99.6011E-03
            1151     3.90129E-03     136.710E-03    -83.5084E+06    -168.877E+06    -61.7398E+06    -16.3922E+06    -141.363E-03     283.641E-03    -142.279E-03     128.206E-03    -141.996E-03     283.551E-03    -142.222E-03     125.133E-03
            1152     4.68646E-03     136.823E-03    -78.6571E+06    -159.586E+06    -50.6606E+06    -18.0116E+06    -140.854E-03     282.212E-03    -141.358E-03     154.996E-03    -141.774E-03     282.426E-03    -141.266E-03     151.227E-03
            1153     5.47294E-03     136.957E-03    -74.5422E+06    -149.455E+06    -40.3815E+06    -18.6719E+06    -141.158E-03     281.575E-03    -140.418E-03     182.299E-03    -142.464E-03     282.197E-03    -140.295E-03     177.738E-03
            1154     6.26103E-03     137.114E-03    -71.9099E+06    -138.493E+06    -30.9002E+06    -18.0813E+06    -142.707E-03     282.255E-03    -139.548E-03     209.978E-03    -144.546E-03     283.431E-03    -139.398E-03     204.461E-03
            1155     7.04928E-03     137.296E-03    -70.2544E+06    -126.511E+06    -22.0232E+06    -17.2460E+06    -145.852E-03     284.699E-03    -138.847E-03     237.672E-03    -148.425E-03     286.633E-03    -138.672E-03     230.924E-03
            1156     7.83701E-03     137.503E-03    -68.4413E+06    -110.664E+06    -13.2334E+06    -16.4188E+06    -150.892E-03     289.302E-03    -138.410E-03     264.705E-03    -154.470E-03     292.280E-03    -138.216E-03     256.346E-03
            1157     8.62230E-03     137.737E-03    -65.6954E+06    -93.1367E+06    -3.83268E+06    -15.2545E+06    -157.890E-03     296.226E-03    -138.335E-03     290.473E-03    -162.836E-03     300.617E-03    -138.124E-03     279.998E-03
            1158     9.40328E-03     137.999E-03    -61.5822E+06    -66.5869E+06     7.44831E+06    -14.3180E+06    -166.775E-03     305.464E-03    -138.688E-03     315.641E-03    -173.635E-03     311.848E-03    -138.465E-03     302.343E-03
            1159     10.1798E-03     138.294E-03    -55.7900E+06    -32.2851E+06     21.3291E+06    -13.6211E+06    -177.785E-03     317.319E-03    -139.533E-03     340.542E-03    -187.292E-03     326.454E-03    -139.299E-03     323.500E-03
            1160     10.9481E-03     138.623E-03    -48.5283E+06     12.4850E+06     38.5820E+06    -12.4186E+06    -190.886E-03     331.835E-03    -140.949E-03     361.414E-03    -203.743E-03     344.459E-03    -140.704E-03     339.698E-03
            1161     11.7065E-03     138.984E-03    -39.7414E+06     74.1268E+06     61.1768E+06    -9.75206E+06    -205.017E-03     348.041E-03    -143.024E-03     372.060E-03    -221.444E-03     364.422E-03    -142.768E-03     345.247E-03
            1162     12.4524E-03     139.365E-03    -29.7205E+06     125.622E+06     82.5569E+06    -6.08719E+06    -218.878E-03     364.707E-03    -145.829E-03     362.493E-03    -237.725E-03     383.666E-03    -145.555E-03     331.391E-03
            1163     13.1860E-03     139.732E-03    -20.4841E+06     141.633E+06     100.284E+06    -4.20050E+06    -231.825E-03     381.243E-03    -149.418E-03     322.703E-03    -250.113E-03     399.682E-03    -149.092E-03     289.609E-03
            1164     13.8990E-03     140.050E-03    -13.7538E+06     137.847E+06     115.564E+06    -4.16288E+06    -244.476E-03     398.164E-03    -153.689E-03     281.014E-03    -261.557E-03     415.362E-03    -153.291E-03     245.681E-03
            1165     14.6026E-03     140.349E-03    -8.32607E+06     130.355E+06     119.454E+06    -3.56651E+06    -254.242E-03     412.576E-03    -158.334E-03     186.376E-03    -264.974E-03     423.401E-03    -157.913E-03     157.271E-03
            1166     785.658E-06     137.719E-03    -96.9760E+06    -181.956E+06    -96.7038E+06    -5.82732E+06    -134.850E-03     269.678E-03    -134.828E-03     29.5341E-03    -134.959E-03     269.067E-03    -134.907E-03     29.0000E-03
            1167     1.57241E-03     137.749E-03    -95.3662E+06    -180.086E+06    -92.1890E+06    -8.97244E+06    -134.050E-03     268.524E-03    -134.474E-03     54.3579E-03    -134.209E-03     267.962E-03    -134.535E-03     53.3990E-03
            1168     2.36044E-03     137.799E-03    -93.2290E+06    -175.634E+06    -84.9272E+06    -12.0146E+06    -133.205E-03     267.079E-03    -133.874E-03     80.9743E-03    -133.453E-03     266.609E-03    -133.909E-03     79.5645E-03
            1169     3.14944E-03     137.868E-03    -89.9467E+06    -169.034E+06    -76.0738E+06    -14.8208E+06    -132.296E-03     265.423E-03    -133.127E-03     108.244E-03    -132.673E-03     265.092E-03    -133.132E-03     106.367E-03
            1170     3.94071E-03     137.957E-03    -86.6104E+06    -161.319E+06    -66.3993E+06    -16.2760E+06    -131.679E-03     263.949E-03    -132.270E-03     136.171E-03    -132.237E-03     263.809E-03    -132.242E-03     133.807E-03
            1171     4.73331E-03     138.068E-03    -84.7129E+06    -154.439E+06    -56.2789E+06    -16.3745E+06    -131.915E-03     263.304E-03    -131.389E-03     164.808E-03    -132.728E-03     263.422E-03    -131.323E-03     161.894E-03
            1172     5.52771E-03     138.202E-03    -83.8928E+06    -145.602E+06    -45.9951E+06    -15.6416E+06    -133.468E-03     264.053E-03    -130.585E-03     193.884E-03    -134.643E-03     264.540E-03    -130.482E-03     190.289E-03
            1173     6.32202E-03     138.360E-03    -82.6887E+06    -135.649E+06    -35.4896E+06    -14.7170E+06    -136.773E-03     266.739E-03    -129.966E-03     223.125E-03    -138.456E-03     267.745E-03    -129.827E-03     218.626E-03
            1174     7.11576E-03     138.546E-03    -79.9510E+06    -122.584E+06    -24.8122E+06    -14.5170E+06    -142.149E-03     271.781E-03    -129.632E-03     252.003E-03    -144.546E-03     273.527E-03    -129.462E-03     246.261E-03
            1175     7.90694E-03     138.760E-03    -75.7792E+06    -107.588E+06    -14.3521E+06    -14.7507E+06    -149.743E-03     279.421E-03    -129.679E-03     279.837E-03    -153.140E-03     282.208E-03    -129.485E-03     272.389E-03
            1176     8.69401E-03     139.004E-03    -70.0144E+06    -89.9173E+06    -3.88485E+06    -15.5076E+06    -159.542E-03     289.733E-03    -130.191E-03     306.082E-03    -164.335E-03     293.970E-03    -129.978E-03     296.309E-03
            1177     9.47558E-03     139.279E-03    -62.3840E+06    -62.8747E+06     8.30948E+06    -16.2935E+06    -171.582E-03     302.817E-03    -131.235E-03     331.343E-03    -178.356E-03     309.126E-03    -131.012E-03     318.390E-03
            1178     10.2488E-03     139.590E-03    -53.8047E+06    -30.3503E+06     22.4720E+06    -16.2160E+06    -186.042E-03     318.919E-03    -132.877E-03     356.333E-03    -195.609E-03     328.129E-03    -132.642E-03     339.059E-03
            1179     11.0126E-03     139.940E-03    -45.3504E+06     13.5265E+06     39.8277E+06    -14.6594E+06    -202.445E-03     337.625E-03    -135.180E-03     377.681E-03    -215.627E-03     350.588E-03    -134.934E-03     354.898E-03
            1180     11.7638E-03     140.326E-03    -37.5277E+06     73.7073E+06     62.1173E+06    -12.5441E+06    -219.517E-03     357.728E-03    -138.211E-03     388.082E-03    -236.615E-03     374.787E-03    -137.953E-03     359.115E-03
            1181     12.5020E-03     140.731E-03    -29.8209E+06     121.569E+06     81.8989E+06    -11.1739E+06    -236.109E-03     378.137E-03    -142.028E-03     378.027E-03    -255.976E-03     398.107E-03    -141.752E-03     343.569E-03
            1182     13.2198E-03     141.131E-03    -21.1527E+06     135.346E+06     97.7862E+06    -8.90868E+06    -250.686E-03     397.336E-03    -146.649E-03     337.773E-03    -270.133E-03     416.919E-03    -146.326E-03     300.597E-03
            1183     13.9268E-03     141.473E-03    -11.9957E+06     132.632E+06     112.836E+06    -5.26930E+06    -262.798E-03     414.695E-03    -151.896E-03     294.187E-03    -280.839E-03     432.849E-03    -151.507E-03     254.823E-03
            1184     14.6187E-03     141.803E-03    -3.82271E+06     125.042E+06     119.013E+06    -2.73446E+06    -271.357E-03     428.778E-03    -157.421E-03     195.890E-03    -282.567E-03     440.082E-03    -157.002E-03     163.921E-03
            1185     795.340E-06     138.947E-03    -99.1357E+06    -166.078E+06    -98.1340E+06    -6.63688E+06    -122.996E-03     245.969E-03    -122.973E-03     31.0902E-03    -123.132E-03     245.435E-03    -123.079E-03     30.6918E-03
            1186     1.59130E-03     138.976E-03    -97.8537E+06    -169.857E+06    -94.8950E+06    -9.50335E+06    -122.357E-03     245.005E-03    -122.648E-03     57.2831E-03    -122.522E-03     244.481E-03    -122.734E-03     56.5892E-03
            1187     2.38813E-03     139.023E-03    -96.7633E+06    -165.678E+06    -90.8522E+06    -11.3198E+06    -121.614E-03     243.693E-03    -122.079E-03     85.4644E-03    -121.849E-03     243.246E-03    -122.152E-03     84.4702E-03
            1188     3.18687E-03     139.091E-03    -96.7583E+06    -160.021E+06    -84.7842E+06    -13.2278E+06    -121.038E-03     242.418E-03    -121.380E-03     114.443E-03    -121.383E-03     242.084E-03    -121.431E-03     113.126E-03
            1189     3.98698E-03     139.178E-03    -97.3461E+06    -157.507E+06    -76.2749E+06    -13.1866E+06    -121.291E-03     241.945E-03    -120.654E-03     144.170E-03    -121.789E-03     241.749E-03    -120.666E-03     142.504E-03
            1190     4.78857E-03     139.289E-03    -97.4046E+06    -151.342E+06    -64.9029E+06    -11.7290E+06    -122.950E-03     242.971E-03    -120.021E-03     174.338E-03    -123.675E-03     242.992E-03    -119.985E-03     172.238E-03
            1191     5.58968E-03     139.425E-03    -96.0728E+06    -142.279E+06    -52.0048E+06    -11.2012E+06    -126.448E-03     246.044E-03    -119.595E-03     204.754E-03    -127.501E-03     246.394E-03    -119.510E-03     202.030E-03
            1192     6.39018E-03     139.588E-03    -92.5298E+06    -131.429E+06    -39.2880E+06    -12.2515E+06    -132.140E-03     251.617E-03    -119.477E-03     235.069E-03    -133.666E-03     252.458E-03    -119.349E-03     231.433E-03
            1193     7.18776E-03     139.780E-03    -87.0870E+06    -117.283E+06    -27.2222E+06    -14.1823E+06    -140.198E-03     259.954E-03    -119.757E-03     264.802E-03    -142.418E-03     261.527E-03    -119.597E-03     259.862E-03
            1194     7.98108E-03     140.005E-03    -79.8102E+06    -102.950E+06    -16.3683E+06    -16.6223E+06    -150.601E-03     271.113E-03    -120.512E-03     293.292E-03    -153.818E-03     273.730E-03    -120.329E-03     286.515E-03
            1195     8.76864E-03     140.262E-03    -71.2041E+06    -83.5835E+06    -5.42055E+06    -19.4332E+06    -163.362E-03     285.171E-03    -121.809E-03     320.040E-03    -168.007E-03     289.286E-03    -121.612E-03     310.708E-03
            1196     9.54785E-03     140.556E-03    -61.9946E+06    -58.8158E+06     6.62812E+06    -21.7226E+06    -178.656E-03     302.372E-03    -123.716E-03     345.784E-03    -185.363E-03     308.638E-03    -123.508E-03     332.882E-03
            1197     10.3176E-03     140.886E-03    -52.5386E+06    -30.5551E+06     19.9903E+06    -21.5200E+06    -196.413E-03     322.704E-03    -126.290E-03     371.395E-03    -206.067E-03     332.015E-03    -126.070E-03     353.575E-03
            1198     11.0751E-03     141.262E-03    -43.6954E+06     12.1911E+06     37.3979E+06    -18.5086E+06    -215.860E-03     345.436E-03    -129.575E-03     393.150E-03    -229.379E-03     358.747E-03    -129.343E-03     368.966E-03
            1199     11.8194E-03     141.675E-03    -35.2343E+06     73.1150E+06     61.7344E+06    -14.4369E+06    -235.854E-03     369.487E-03    -133.634E-03     404.061E-03    -253.648E-03     387.253E-03    -133.380E-03     372.528E-03
            1200     12.5444E-03     142.115E-03    -27.4710E+06     122.716E+06     83.2003E+06    -12.0500E+06    -254.269E-03     392.756E-03    -138.487E-03     395.097E-03    -275.255E-03     413.856E-03    -138.209E-03     356.851E-03
            1201     13.2563E-03     142.546E-03     -21.021E+06     131.830E+06     98.2926E+06    -12.2874E+06    -269.305E-03     413.408E-03    -144.103E-03     355.584E-03    -290.070E-03     434.299E-03    -143.773E-03     314.010E-03
            1202     13.9450E-03     142.923E-03    -15.2523E+06     123.274E+06     110.778E+06    -10.7000E+06    -281.169E-03     431.443E-03    -150.274E-03     309.649E-03    -300.465E-03     450.816E-03    -149.877E-03     265.620E-03
            1203     14.6264E-03     143.266E-03    -8.71136E+06     113.637E+06     115.275E+06    -6.10214E+06    -287.843E-03     444.470E-03    -156.626E-03     207.033E-03    -299.854E-03     456.528E-03    -156.202E-03     171.374E-03
            1204     806.237E-06     140.144E-03    -102.612E+06    -151.419E+06    -101.383E+06    -5.25749E+06    -109.569E-03     218.929E-03    -109.359E-03     32.3290E-03    -109.735E-03     218.470E-03    -109.498E-03     32.0813E-03
            1205     1.61283E-03     140.172E-03    -104.151E+06    -161.179E+06    -101.029E+06    -7.50300E+06    -109.115E-03     218.291E-03    -109.177E-03     60.0248E-03    -109.298E-03     217.809E-03    -109.297E-03     59.5988E-03
            1206     2.42070E-03     140.218E-03    -106.810E+06    -159.729E+06    -101.978E+06    -7.70881E+06    -108.809E-03     217.530E-03    -108.721E-03     89.6967E-03    -109.046E-03     217.101E-03    -108.844E-03     89.1064E-03
            1207     3.22965E-03     140.284E-03    -110.410E+06    -154.813E+06    -97.2652E+06    -6.75890E+06    -109.319E-03     217.569E-03    -108.250E-03     120.133E-03    -109.651E-03     217.228E-03    -108.352E-03     119.362E-03
            1208     4.03929E-03     140.372E-03    -112.878E+06    -154.921E+06    -86.2935E+06    -6.96467E+06    -111.302E-03     219.231E-03    -107.929E-03     151.144E-03    -111.765E-03     218.983E-03    -107.972E-03     150.104E-03
            1209     4.84816E-03     140.485E-03    -111.764E+06    -148.620E+06    -72.7880E+06    -7.73790E+06    -115.069E-03     222.909E-03    -107.841E-03     182.361E-03    -115.721E-03     222.841E-03    -107.827E-03     180.921E-03
            1210     5.65611E-03     140.626E-03    -106.966E+06    -136.840E+06    -58.1348E+06    -9.90445E+06    -121.000E-03     229.073E-03    -108.073E-03     213.700E-03    -121.939E-03     229.311E-03    -108.010E-03     211.641E-03
            1211     6.46060E-03     140.797E-03    -99.6677E+06    -124.313E+06    -44.2297E+06    -13.7648E+06    -129.314E-03     238.021E-03    -108.707E-03     244.883E-03    -130.691E-03     238.729E-03    -108.604E-03     241.885E-03
            1212     7.26076E-03     141.001E-03    -90.3147E+06    -110.156E+06    -31.4007E+06    -17.8770E+06    -140.044E-03     249.851E-03    -109.807E-03     275.496E-03    -142.087E-03     251.274E-03    -109.673E-03     271.133E-03
            1213     8.05505E-03     141.239E-03    -80.1398E+06    -95.6578E+06    -19.7207E+06    -21.9949E+06    -153.325E-03     264.762E-03    -111.436E-03     304.850E-03    -156.360E-03     267.233E-03    -111.280E-03     298.535E-03
            1214     8.84113E-03     141.514E-03    -69.9781E+06    -76.0224E+06    -7.78001E+06    -25.6195E+06    -169.108E-03     282.766E-03    -113.658E-03     332.341E-03    -173.597E-03     286.767E-03    -113.485E-03     323.263E-03
            1215     9.61797E-03     141.828E-03    -60.4276E+06    -54.5844E+06     4.42746E+06    -27.6856E+06    -187.434E-03     303.965E-03    -116.531E-03     358.996E-03    -194.062E-03     310.182E-03    -116.342E-03     345.990E-03
            1216     10.3824E-03     142.185E-03    -52.3371E+06    -32.1394E+06     16.1081E+06    -26.8424E+06    -208.256E-03     328.352E-03    -120.097E-03     385.219E-03    -217.947E-03     337.711E-03    -119.894E-03     366.731E-03
            1217     11.1337E-03     142.589E-03    -44.5755E+06     9.19313E+06     33.2326E+06    -24.1581E+06    -230.618E-03     355.013E-03    -124.395E-03     407.847E-03    -244.379E-03     368.568E-03    -124.177E-03     382.132E-03
            1218     11.8677E-03     143.037E-03    -35.9833E+06     67.4548E+06     57.3155E+06    -20.7117E+06    -252.467E-03     381.916E-03    -129.450E-03     420.519E-03    -270.832E-03     400.245E-03    -129.209E-03     386.366E-03
            1219     12.5875E-03     143.512E-03    -26.4931E+06     117.244E+06     80.3540E+06    -15.8503E+06    -271.934E-03     407.183E-03    -135.249E-03     413.584E-03    -293.955E-03     429.314E-03    -134.979E-03     371.514E-03
            1220     13.2845E-03     143.981E-03    -17.8731E+06     130.417E+06     99.7639E+06    -11.6229E+06    -286.910E-03     428.669E-03    -141.759E-03     374.299E-03    -309.042E-03     450.931E-03    -141.424E-03     328.188E-03
            1221     13.9714E-03     144.391E-03    -10.3178E+06     117.392E+06     113.208E+06    -9.12192E+06    -298.219E-03     446.975E-03    -148.756E-03     326.804E-03    -318.797E-03     467.621E-03    -148.345E-03     278.145E-03
            1222     14.6396E-03     144.766E-03    -4.33327E+06     101.881E+06     116.253E+06    -5.82549E+06    -304.420E-03     460.290E-03    -155.871E-03     219.727E-03    -317.165E-03     473.056E-03    -155.431E-03     180.471E-03
            1223     818.274E-06     141.308E-03    -123.700E+06    -146.482E+06    -120.668E+06     1.28863E+06    -94.8200E-03     189.313E-03    -94.4926E-03     33.7929E-03    -95.0658E-03     188.930E-03    -94.7042E-03     33.7382E-03
            1224     1.63711E-03     141.335E-03    -129.637E+06    -155.835E+06    -123.196E+06     238.358E+03    -94.9781E-03     189.471E-03    -94.4930E-03     62.4024E-03    -95.2465E-03     189.066E-03    -94.6951E-03     62.2696E-03
            1225     2.45632E-03     141.380E-03    -133.882E+06    -156.907E+06    -121.365E+06    -1.37103E+06    -96.0274E-03     190.456E-03    -94.4286E-03     93.0212E-03    -96.3381E-03     190.071E-03    -94.6138E-03     92.7858E-03
            1226     3.27545E-03     141.448E-03    -133.715E+06    -153.871E+06    -112.059E+06    -1.91786E+06    -98.4855E-03     193.032E-03    -94.5467E-03     124.373E-03    -98.8523E-03     192.692E-03    -94.6900E-03     124.005E-03
            1227     4.09327E-03     141.539E-03    -129.452E+06    -150.173E+06    -96.9648E+06    -3.91074E+06    -102.704E-03     197.654E-03    -94.9504E-03     156.166E-03    -103.152E-03     197.383E-03    -95.0297E-03     155.566E-03
            1228     4.90913E-03     141.658E-03    -122.118E+06    -142.097E+06    -80.4960E+06    -8.60948E+06    -108.968E-03     204.658E-03    -95.6901E-03     188.186E-03    -109.555E-03     204.536E-03    -95.7095E-03     187.178E-03
            1229     5.72113E-03     141.807E-03    -112.052E+06    -128.439E+06    -64.5939E+06    -13.9321E+06    -117.414E-03     214.226E-03    -96.8122E-03     220.309E-03    -118.240E-03     214.384E-03    -96.7864E-03     218.678E-03
            1230     6.52880E-03     141.989E-03    -100.584E+06    -114.654E+06    -49.5231E+06    -19.4874E+06    -128.145E-03     226.513E-03    -98.3672E-03     252.341E-03    -129.367E-03     227.115E-03    -98.3028E-03     249.774E-03
            1231     7.33048E-03     142.207E-03    -89.2931E+06    -101.427E+06    -35.7396E+06    -24.8736E+06    -141.475E-03     241.882E-03    -100.406E-03     283.927E-03    -143.335E-03     243.171E-03    -100.309E-03     279.972E-03
            1232     8.12429E-03     142.464E-03    -78.4241E+06    -87.0134E+06    -22.9202E+06    -29.3775E+06    -157.540E-03     260.535E-03    -102.995E-03     314.186E-03    -160.380E-03     262.861E-03    -102.870E-03     308.206E-03
            1233     8.90874E-03     142.760E-03    -68.3446E+06    -69.1134E+06    -10.1707E+06    -32.5999E+06    -176.120E-03     282.316E-03    -106.196E-03     342.384E-03    -180.417E-03     286.164E-03    -106.048E-03     333.497E-03
            1234     9.68102E-03     143.099E-03    -59.4106E+06    -52.1764E+06     1.84868E+06    -33.2371E+06    -197.338E-03     307.398E-03    -110.061E-03     369.887E-03    -203.797E-03     313.469E-03    -109.890E-03     356.787E-03
            1235     10.4407E-03     143.485E-03    -50.9696E+06    -33.0783E+06     14.0499E+06    -31.7997E+06    -220.887E-03     335.508E-03    -114.621E-03     396.855E-03    -230.451E-03     344.749E-03    -114.429E-03     377.798E-03
            1236     11.1840E-03     143.923E-03    -42.0825E+06     6.60994E+06     31.6948E+06    -28.8494E+06    -245.258E-03     365.142E-03    -119.883E-03     420.645E-03    -258.993E-03     378.677E-03    -119.673E-03     393.672E-03
            1237     11.9128E-03     144.407E-03    -33.5512E+06     62.1140E+06     54.4340E+06    -24.3534E+06    -268.333E-03     394.169E-03    -125.836E-03     434.595E-03    -286.877E-03     412.677E-03    -125.606E-03     398.274E-03
            1238     12.6215E-03     144.920E-03    -26.8130E+06     108.697E+06     76.4012E+06    -20.0020E+06    -287.965E-03     420.420E-03    -132.455E-03     429.892E-03    -310.578E-03     443.123E-03    -132.192E-03     384.595E-03
            1239     13.3157E-03     145.433E-03    -19.8423E+06     120.379E+06     98.0781E+06    -16.4996E+06    -302.202E-03     441.904E-03    -139.702E-03     393.012E-03    -325.511E-03     465.306E-03    -139.358E-03     342.590E-03
            1240     13.9858E-03     145.873E-03    -11.9412E+06     105.198E+06     112.776E+06    -12.6161E+06    -313.258E-03     460.626E-03    -147.368E-03     344.787E-03    -335.149E-03     482.540E-03    -146.939E-03     291.618E-03
            1241     14.6505E-03     146.279E-03    -6.01209E+06     88.1840E+06     116.864E+06    -7.53320E+06    -320.488E-03     475.641E-03    -155.153E-03     232.813E-03    -333.944E-03     489.064E-03    -154.688E-03     190.311E-03
            1242     831.547E-06     142.435E-03    -170.240E+06    -154.364E+06    -167.427E+06     6.29331E+06    -79.8939E-03     159.121E-03    -79.2267E-03     34.5794E-03    -80.2873E-03     158.829E-03    -79.5931E-03     34.6612E-03
            1243     1.66251E-03     142.464E-03    -166.910E+06    -154.859E+06    -157.114E+06     5.48286E+06    -81.5679E-03     161.309E-03    -79.7415E-03     63.6116E-03    -81.9589E-03     160.999E-03    -80.0605E-03     63.6712E-03
            1244     2.49231E-03     142.512E-03    -161.769E+06    -152.984E+06    -143.650E+06     1.48029E+06    -84.7254E-03     165.180E-03    -80.4551E-03     94.6811E-03    -85.1186E-03     164.862E-03    -80.7170E-03     94.6546E-03
            1245     3.31981E-03     142.584E-03    -154.028E+06    -149.618E+06    -127.266E+06    -4.00649E+06    -89.4999E-03     170.983E-03    -81.4827E-03     126.447E-03    -89.9052E-03     170.671E-03    -81.6788E-03     126.267E-03
            1246     4.14453E-03     142.682E-03    -142.258E+06    -141.908E+06    -109.663E+06    -10.4314E+06    -96.0493E-03     178.886E-03    -82.8365E-03     158.605E-03    -96.4882E-03     178.629E-03    -82.9728E-03     158.176E-03
            1247     4.96514E-03     142.810E-03    -127.816E+06    -131.451E+06    -91.1138E+06    -17.5011E+06    -104.595E-03     189.142E-03    -84.5470E-03     191.232E-03    -105.121E-03     189.010E-03    -84.6266E-03     190.413E-03
            1248     5.78081E-03     142.971E-03    -112.775E+06    -117.816E+06    -72.4427E+06    -24.5124E+06    -115.289E-03     201.935E-03    -86.6457E-03     224.092E-03    -116.006E-03     202.044E-03    -86.6736E-03     222.676E-03
            1249     6.59025E-03     143.167E-03    -97.9603E+06    -105.549E+06    -55.0097E+06    -29.8597E+06    -128.381E-03     217.554E-03    -89.1735E-03     256.823E-03    -129.445E-03     218.059E-03    -89.1535E-03     254.518E-03
            1250     7.39217E-03     143.402E-03    -84.6010E+06    -92.8426E+06    -38.8195E+06    -33.2041E+06    -144.206E-03     236.392E-03    -92.1863E-03     289.085E-03    -145.862E-03     237.538E-03    -92.1232E-03     285.442E-03
            1251     8.18477E-03     143.679E-03    -73.4293E+06    -78.6669E+06    -23.8548E+06    -36.1709E+06    -162.739E-03     258.488E-03    -95.7487E-03     319.895E-03    -165.335E-03     260.622E-03    -95.6475E-03     314.238E-03
            1252     8.96580E-03     144.001E-03    -64.2878E+06    -63.4976E+06    -9.75817E+06    -37.4828E+06    -183.894E-03     283.818E-03    -99.9233E-03     348.513E-03    -187.902E-03     287.412E-03    -99.7868E-03     339.890E-03
            1253     9.73459E-03     144.367E-03    -56.4076E+06    -49.7971E+06     2.68036E+06    -37.8053E+06    -207.660E-03     312.416E-03    -104.756E-03     376.280E-03    -213.765E-03     318.151E-03    -104.588E-03     363.278E-03
            1254     10.4873E-03     144.787E-03    -47.8033E+06    -33.2436E+06     14.6892E+06    -38.2943E+06    -233.241E-03     343.499E-03    -110.258E-03     403.262E-03    -242.363E-03     352.308E-03    -110.067E-03     383.985E-03
            1255     11.2256E-03     145.258E-03    -38.6840E+06    -1.49142E+06     30.4880E+06    -34.8122E+06    -258.861E-03     375.272E-03    -116.411E-03     426.433E-03    -272.023E-03     388.223E-03    -116.201E-03     398.867E-03
            1256     11.9455E-03     145.781E-03    -31.5603E+06     49.6564E+06     52.7126E+06    -25.3705E+06    -282.073E-03     405.240E-03    -123.167E-03     440.903E-03    -300.008E-03     423.108E-03    -122.930E-03     403.563E-03
            1257     12.6498E-03     146.336E-03    -27.0484E+06     105.703E+06     78.4510E+06    -17.1221E+06    -300.531E-03     430.982E-03    -130.451E-03     439.015E-03    -322.888E-03     453.411E-03    -130.173E-03     391.933E-03
            1258     13.3347E-03     146.886E-03    -24.1647E+06     121.614E+06     103.755E+06    -16.8839E+06    -313.310E-03     451.545E-03    -138.235E-03     406.253E-03    -337.237E-03     475.540E-03    -137.858E-03     352.607E-03
            1259     14.0095E-03     147.377E-03    -18.5911E+06     96.1691E+06     119.030E+06    -19.7916E+06    -324.977E-03     471.383E-03    -146.406E-03     358.337E-03    -348.111E-03     494.470E-03    -145.923E-03     300.827E-03
            1260     14.6610E-03     147.813E-03    -8.06516E+06     64.9354E+06     121.266E+06    -14.7054E+06    -332.131E-03     486.830E-03    -154.698E-03     243.179E-03    -346.341E-03     500.905E-03    -154.175E-03     197.539E-03
            1261     843.446E-06     143.530E-03    -235.543E+06    -158.246E+06    -235.369E+06    -2.19287E+06    -67.2735E-03     133.487E-03    -66.2132E-03     33.3163E-03    -67.8831E-03     133.371E-03    -66.8190E-03     33.3140E-03
            1262     1.68494E-03     143.562E-03    -219.822E+06    -150.196E+06    -213.631E+06    -6.88079E+06    -70.4302E-03     137.672E-03    -67.2423E-03     61.8061E-03    -71.0003E-03     137.540E-03    -67.7739E-03     61.7555E-03
            1263     2.52324E-03     143.616E-03    -198.903E+06    -144.636E+06    -184.786E+06    -13.0802E+06    -75.5281E-03     144.237E-03    -68.7093E-03     92.7660E-03    -76.0419E-03     144.062E-03    -69.1351E-03     92.6280E-03
            1264     3.35777E-03     143.696E-03    -175.642E+06    -137.616E+06    -156.024E+06    -21.0874E+06    -82.3881E-03     152.979E-03    -70.5910E-03     124.734E-03    -82.8488E-03     152.777E-03    -70.9169E-03     124.441E-03
            1265     4.18739E-03     143.805E-03    -152.333E+06    -129.608E+06    -129.645E+06    -29.4978E+06    -91.0625E-03     163.910E-03    -72.8473E-03     157.351E-03    -91.4969E-03     163.718E-03    -73.0867E-03     156.824E-03
            1266     5.01160E-03     143.945E-03    -130.692E+06    -120.145E+06    -104.880E+06    -35.8926E+06    -101.605E-03     177.078E-03    -75.4726E-03     190.322E-03    -102.076E-03     176.963E-03    -75.6333E-03     189.462E-03
            1267     5.82962E-03     144.120E-03    -111.687E+06    -107.146E+06    -81.8285E+06    -40.6332E+06    -114.288E-03     192.765E-03    -78.4773E-03     223.415E-03    -114.903E-03     192.844E-03    -78.5691E-03     222.049E-03
            1268     6.63983E-03     144.333E-03    -95.9980E+06    -98.9696E+06    -61.4538E+06    -43.4466E+06    -129.637E-03     211.558E-03    -81.9206E-03     256.455E-03    -130.549E-03     211.962E-03    -81.9452E-03     254.297E-03
            1269     7.44071E-03     144.588E-03    -83.3349E+06    -88.2819E+06    -42.4355E+06    -43.7390E+06    -147.733E-03     233.597E-03    -85.8638E-03     288.841E-03    -149.179E-03     234.565E-03    -85.8271E-03     285.451E-03
            1270     8.23064E-03     144.888E-03    -73.6753E+06    -72.5565E+06    -23.6656E+06    -43.5935E+06    -168.470E-03     258.835E-03    -90.3655E-03     319.315E-03    -170.777E-03     260.703E-03    -90.2718E-03     314.018E-03
            1271     9.00860E-03     145.235E-03    -64.6483E+06    -60.3289E+06    -8.13769E+06    -44.6915E+06    -191.841E-03     287.316E-03    -95.4751E-03     347.344E-03    -195.434E-03     290.503E-03    -95.3346E-03     339.119E-03
            1272     9.77064E-03     145.634E-03    -54.2683E+06    -48.9371E+06     4.82727E+06    -44.6947E+06    -217.528E-03     318.756E-03    -101.228E-03     373.875E-03    -223.003E-03     323.867E-03    -101.054E-03     361.314E-03
            1273     10.5184E-03     146.085E-03    -45.6269E+06    -32.0915E+06     18.4345E+06    -43.2259E+06    -244.495E-03     352.128E-03    -107.633E-03     398.741E-03    -252.692E-03     360.014E-03    -107.428E-03     379.971E-03
            1274     11.2475E-03     146.595E-03    -38.9878E+06    -11.1157E+06     33.3377E+06    -40.1810E+06    -270.310E-03     384.947E-03    -114.636E-03     419.471E-03    -282.138E-03     396.519E-03    -114.397E-03     392.505E-03
            1275     11.9613E-03     147.152E-03    -30.2873E+06     25.1638E+06     52.5378E+06    -31.0844E+06    -291.675E-03     413.765E-03    -122.090E-03     432.980E-03    -307.844E-03     429.782E-03    -121.820E-03     396.470E-03
            1276     12.6594E-03     147.746E-03    -16.9532E+06     85.1331E+06     78.6667E+06    -15.4357E+06    -307.793E-03     437.634E-03    -129.841E-03     433.852E-03    -328.386E-03     458.260E-03    -129.547E-03     387.479E-03
            1277     13.3449E-03     148.340E-03    -1.67936E+06     131.323E+06     114.305E+06    -3.29368E+06    -319.077E-03     456.996E-03    -137.919E-03     407.240E-03    -342.060E-03     480.130E-03    -137.536E-03     353.091E-03
            1278     14.0068E-03     148.872E-03     5.05785E+06     112.139E+06     138.079E+06     1.49012E+06    -328.556E-03     474.848E-03    -146.292E-03     368.533E-03    -352.573E-03     498.901E-03    -145.771E-03     307.917E-03
            1279     14.6576E-03     149.359E-03     2.14958E+06     59.2478E+06     141.647E+06    -281.616E+03    -333.446E-03     488.151E-03    -154.705E-03     256.427E-03    -348.881E-03     503.408E-03    -154.086E-03     208.037E-03
            1280     849.684E-06     144.601E-03    -241.284E+06    -140.750E+06    -239.787E+06    -13.6992E+06    -60.2005E-03     119.360E-03    -59.1595E-03     29.4279E-03    -60.8548E-03     119.351E-03    -59.8044E-03     29.2662E-03
            1281     1.69768E-03     144.638E-03    -229.880E+06    -130.792E+06    -223.009E+06    -24.6038E+06    -63.7156E-03     123.976E-03    -60.2602E-03     55.2978E-03    -64.3495E-03     123.974E-03    -60.8523E-03     55.0037E-03
            1282     2.54229E-03     144.700E-03    -212.098E+06    -125.000E+06    -198.578E+06    -36.0409E+06    -69.3508E-03     131.275E-03    -61.9243E-03     84.1635E-03    -69.9388E-03     131.241E-03    -62.4284E-03     83.7184E-03
            1283     3.38188E-03     144.790E-03    -191.278E+06    -117.647E+06    -174.180E+06    -46.4232E+06    -77.0753E-03     141.167E-03    -64.0918E-03     115.143E-03    -77.6121E-03     141.113E-03    -64.5147E-03     114.532E-03
            1284     4.21574E-03     144.911E-03    -171.572E+06    -112.402E+06    -152.800E+06    -55.2003E+06    -86.9253E-03     153.659E-03    -66.7342E-03     147.555E-03    -87.4304E-03     153.601E-03    -67.0864E-03     146.742E-03
            1285     5.04251E-03     145.065E-03    -152.911E+06    -107.140E+06    -131.468E+06    -62.1338E+06    -99.0250E-03     168.880E-03    -69.8548E-03     180.813E-03    -99.5457E-03     168.862E-03    -70.1351E-03     179.719E-03
            1286     5.86103E-03     145.256E-03    -134.344E+06    -98.5533E+06    -106.229E+06    -66.3140E+06    -113.714E-03     187.203E-03    -73.4888E-03     214.210E-03    -114.339E-03     187.314E-03    -73.6823E-03     212.693E-03
            1287     6.67067E-03     145.488E-03    -115.626E+06    -96.8845E+06    -77.7368E+06    -66.8970E+06    -131.133E-03     208.824E-03    -77.6911E-03     246.842E-03    -131.981E-03     209.150E-03    -77.7716E-03     244.652E-03
            1288     7.46920E-03     145.765E-03    -97.5143E+06    -91.8367E+06    -50.4526E+06    -63.3880E+06    -151.233E-03     233.698E-03    -82.4655E-03     277.956E-03    -152.495E-03     234.444E-03    -82.4432E-03     274.703E-03
            1289     8.25554E-03     146.090E-03    -80.1510E+06    -74.5547E+06    -26.6211E+06    -58.1574E+06    -173.811E-03     261.632E-03    -87.8210E-03     306.580E-03    -175.754E-03     263.115E-03    -87.7298E-03     301.651E-03
            1290     9.02648E-03     146.466E-03    -65.8418E+06    -59.4297E+06    -7.13847E+06    -54.8929E+06    -198.700E-03     292.505E-03    -93.8053E-03     332.432E-03    -201.672E-03     295.067E-03    -93.6594E-03     324.889E-03
            1291     9.78318E-03     146.894E-03    -57.5402E+06    -51.8826E+06     8.29250E+06    -52.0960E+06    -225.670E-03     326.127E-03    -100.457E-03     355.739E-03    -230.176E-03     330.237E-03    -100.257E-03     344.236E-03
            1292     10.5206E-03     147.381E-03    -52.0131E+06    -33.6904E+06     25.4378E+06    -50.0097E+06    -252.799E-03     360.547E-03    -107.748E-03     376.184E-03    -259.507E-03     366.894E-03    -107.497E-03     359.020E-03
            1293     11.2422E-03     147.923E-03    -44.1653E+06    -18.1646E+06     40.4162E+06    -50.1091E+06    -276.666E-03     392.189E-03    -115.524E-03     392.824E-03    -286.248E-03     401.448E-03    -115.231E-03     368.310E-03
            1294     11.9473E-03     148.515E-03    -31.4613E+06    -4.35828E+06     51.4756E+06    -47.6145E+06    -294.922E-03     418.456E-03    -123.534E-03     404.071E-03    -307.997E-03     431.269E-03    -123.225E-03     370.944E-03
            1295     12.6415E-03     149.136E-03    -17.4781E+06     33.3441E+06     67.9695E+06    -35.6888E+06    -307.225E-03     438.797E-03    -131.572E-03     408.253E-03    -324.197E-03     455.642E-03    -131.255E-03     366.040E-03
            1296     13.3214E-03     149.772E-03    -12.7491E+06     87.7030E+06     100.477E+06    -16.0939E+06    -311.819E-03     451.328E-03    -139.509E-03     397.295E-03    -331.886E-03     471.387E-03    -139.116E-03     347.822E-03
            1297     13.9951E-03     150.358E-03    -13.3258E+06     100.448E+06     129.916E+06    -1.66964E+06    -317.332E-03     464.614E-03    -147.282E-03     383.761E-03    -340.782E-03     488.016E-03    -146.759E-03     326.044E-03
            1298     14.6584E-03     150.885E-03    -7.29570E+06     61.9336E+06     150.716E+06     3.59893E+06    -324.934E-03     480.006E-03    -155.072E-03     282.176E-03    -341.457E-03     496.307E-03    -154.398E-03     233.346E-03
            1299     849.254E-06     145.665E-03    -178.113E+06    -107.546E+06    -174.196E+06    -16.3826E+06    -61.2814E-03     121.709E-03    -60.4278E-03     22.7179E-03    -61.7668E-03     121.681E-03    -60.8846E-03     22.4869E-03
            1300     1.69672E-03     145.706E-03    -172.985E+06    -99.6182E+06    -162.254E+06    -29.0735E+06    -64.0319E-03     125.433E-03    -61.4007E-03     43.0198E-03    -64.5231E-03     125.423E-03    -61.8167E-03     42.6043E-03
            1301     2.54141E-03     145.775E-03    -167.122E+06    -93.3390E+06    -150.271E+06    -42.2815E+06    -68.7199E-03     131.539E-03    -62.8188E-03     66.4186E-03    -69.2145E-03     131.542E-03    -63.1925E-03     65.8028E-03
            1302     3.38242E-03     145.873E-03    -160.768E+06    -89.7698E+06    -139.286E+06    -54.4101E+06    -75.5050E-03     140.262E-03    -64.7566E-03     92.6563E-03    -76.0015E-03     140.271E-03    -65.0898E-03     91.8377E-03
            1303     4.21752E-03     146.006E-03    -152.153E+06    -86.8659E+06    -127.648E+06    -64.7706E+06    -84.6894E-03     151.933E-03    -67.2432E-03     121.354E-03    -85.1900E-03     151.955E-03    -67.5349E-03     120.319E-03
            1304     5.04558E-03     146.174E-03    -141.709E+06    -85.5638E+06    -116.300E+06    -73.9094E+06    -96.7365E-03     167.062E-03    -70.3253E-03     151.955E-03    -97.2564E-03     167.113E-03    -70.5773E-03     150.647E-03
            1305     5.86466E-03     146.383E-03    -130.075E+06    -83.2673E+06    -101.326E+06    -80.1842E+06    -111.969E-03     186.052E-03    -74.0831E-03     183.729E-03    -112.558E-03     186.182E-03    -74.2804E-03     182.053E-03
            1306     6.67134E-03     146.635E-03    -117.719E+06    -89.3271E+06    -83.8587E+06    -83.1709E+06    -130.417E-03     208.993E-03    -78.5764E-03     215.176E-03    -131.152E-03     209.243E-03    -78.6955E-03     212.938E-03
            1307     7.46555E-03     146.934E-03    -104.508E+06    -94.0208E+06    -67.3667E+06    -82.4568E+06    -151.750E-03     235.548E-03    -83.7981E-03     244.968E-03    -152.749E-03     236.045E-03    -83.8470E-03     241.874E-03
            1308     8.24435E-03     147.285E-03    -90.4694E+06    -81.3313E+06    -45.4318E+06    -80.3293E+06    -175.600E-03     265.366E-03    -89.7666E-03     271.573E-03    -177.062E-03     266.360E-03    -89.7446E-03     267.119E-03
            1309     9.00894E-03     147.688E-03    -76.7628E+06    -71.5625E+06    -14.8397E+06    -73.3532E+06    -201.531E-03     298.076E-03    -96.5450E-03     293.477E-03    -203.710E-03     299.782E-03    -96.4042E-03     286.925E-03
            1310     9.75404E-03     148.149E-03    -64.0841E+06    -64.6470E+06     15.0524E+06    -61.7695E+06    -228.345E-03     332.414E-03    -104.069E-03     311.379E-03    -231.566E-03     335.146E-03    -103.807E-03     301.709E-03
            1311     10.4818E-03     148.666E-03    -52.7309E+06    -38.0487E+06     37.2032E+06    -53.8122E+06    -253.289E-03     365.428E-03    -112.140E-03     326.046E-03    -257.964E-03     369.684E-03    -111.822E-03     311.993E-03
            1312     11.1913E-03     149.238E-03    -43.3398E+06    -10.7989E+06     53.1567E+06    -54.3094E+06    -273.185E-03     393.710E-03    -120.525E-03     337.380E-03    -279.751E-03     399.939E-03    -120.181E-03     317.680E-03
            1313     11.8900E-03     149.851E-03    -40.7125E+06    -12.1816E+06     60.2705E+06    -57.4145E+06    -286.728E-03     415.664E-03    -128.935E-03     346.566E-03    -295.686E-03     424.267E-03    -128.557E-03     320.146E-03
            1314     12.5766E-03     150.499E-03    -44.2995E+06    -8.20928E+06     66.4986E+06    -57.6553E+06    -290.638E-03     427.566E-03    -136.929E-03     356.934E-03    -302.424E-03     438.983E-03    -136.520E-03     323.984E-03
            1315     13.2644E-03     151.155E-03    -39.4203E+06     22.7850E+06     93.4551E+06    -44.9491E+06    -284.067E-03     428.141E-03    -144.075E-03     363.283E-03    -298.772E-03     442.529E-03    -143.583E-03     325.387E-03
            1316     13.9645E-03     151.769E-03    -21.7884E+06     53.3880E+06     111.331E+06    -17.0552E+06    -283.808E-03     434.057E-03    -150.250E-03     377.213E-03    -303.156E-03     453.216E-03    -149.739E-03     331.141E-03
            1317     14.6484E-03     152.387E-03    -7.49353E+06     53.9930E+06     147.046E+06     1.67263E+06    -294.873E-03     451.229E-03    -156.356E-03     307.456E-03    -310.581E-03     466.709E-03    -155.688E-03     264.221E-03
            1318     839.937E-06     146.740E-03    -116.234E+06    -72.5942E+06    -113.047E+06    -14.6050E+06    -72.1393E-03     143.591E-03    -71.4514E-03     12.4776E-03    -72.4663E-03     143.551E-03    -71.7428E-03     12.2043E-03
            1319     1.67908E-03     146.785E-03    -112.621E+06    -66.8486E+06    -104.177E+06    -25.8274E+06    -73.7310E-03     146.096E-03    -72.3649E-03     24.1721E-03    -74.0679E-03     146.073E-03    -72.6255E-03     23.6769E-03
            1320     2.51629E-03     146.857E-03    -107.549E+06    -61.1731E+06    -91.6984E+06    -36.7600E+06    -76.9792E-03     150.562E-03    -73.5831E-03     37.9702E-03    -77.3295E-03     150.555E-03    -73.7969E-03     37.2395E-03
            1321     3.34948E-03     146.962E-03    -101.166E+06    -58.4144E+06    -78.8166E+06    -47.6038E+06    -81.7243E-03     157.048E-03    -75.3242E-03     54.0238E-03    -82.0859E-03     157.048E-03    -75.4869E-03     53.0386E-03
            1322     4.17854E-03     147.101E-03    -94.8369E+06    -57.9532E+06    -67.0415E+06    -57.2635E+06    -88.3481E-03     165.957E-03    -77.6085E-03     72.7237E-03    -88.7272E-03     165.965E-03    -77.7222E-03     71.4712E-03
            1323     5.00058E-03     147.281E-03    -89.8064E+06    -57.3258E+06    -58.6569E+06    -65.4227E+06    -97.5318E-03     178.033E-03    -80.5008E-03     94.2555E-03    -97.9465E-03     178.075E-03    -80.5807E-03     92.7096E-03
            1324     5.81320E-03     147.502E-03    -87.3568E+06    -60.2847E+06    -56.3824E+06    -71.1437E+06    -109.607E-03     193.690E-03    -84.0825E-03     118.083E-03    -110.080E-03     193.785E-03    -84.1504E-03     116.206E-03
            1325     6.61604E-03     147.773E-03    -87.2624E+06    -68.0313E+06    -56.0314E+06    -75.1663E+06    -124.806E-03     213.244E-03    -88.4390E-03     143.429E-03    -125.376E-03     213.413E-03    -88.4939E-03     141.124E-03
            1326     7.40383E-03     148.094E-03    -86.7386E+06    -77.9502E+06    -55.0260E+06    -80.1944E+06    -143.551E-03     237.193E-03    -93.6418E-03     168.597E-03    -144.266E-03     237.474E-03    -93.6782E-03     165.660E-03
            1327     8.17711E-03     148.468E-03    -83.9613E+06    -72.8753E+06    -43.6270E+06    -83.9013E+06    -165.543E-03     265.326E-03    -99.7836E-03     190.995E-03    -166.505E-03     265.853E-03    -99.7743E-03     187.127E-03
            1328     8.92892E-03     148.899E-03    -78.0056E+06    -76.4065E+06    -23.0096E+06    -82.9759E+06    -189.717E-03     296.627E-03    -106.910E-03     209.205E-03    -191.041E-03     297.469E-03    -106.801E-03     203.922E-03
            1329     9.66178E-03     149.385E-03    -68.8318E+06    -85.2501E+06    -3.17996E+06    -75.3400E+06    -213.713E-03     328.571E-03    -114.858E-03     223.744E-03    -215.519E-03     329.839E-03    -114.651E-03     216.532E-03
            1330     10.3748E-03     149.929E-03    -57.7636E+06    -58.8734E+06     20.8054E+06    -67.3427E+06    -234.517E-03     357.851E-03    -123.334E-03     235.306E-03    -237.018E-03     359.877E-03    -123.061E-03     225.539E-03
            1331     11.0746E-03     150.520E-03    -49.2913E+06    -18.4788E+06     57.0369E+06    -61.5228E+06    -249.454E-03     381.496E-03    -132.041E-03     244.127E-03    -252.926E-03     384.561E-03    -131.658E-03     231.085E-03
            1332     11.7614E-03     151.150E-03    -46.6442E+06    -8.70589E+06     88.0890E+06    -48.1656E+06    -255.817E-03     396.266E-03    -140.449E-03     255.858E-03    -260.533E-03     400.534E-03    -139.928E-03     239.215E-03
            1333     12.4477E-03     151.806E-03    -40.1274E+06     8.83995E+06     106.158E+06    -44.6589E+06    -249.670E-03     397.438E-03    -147.768E-03     271.412E-03    -255.904E-03     403.258E-03    -147.192E-03     251.447E-03
            1334     13.1536E-03     152.453E-03    -26.8812E+06     11.2756E+06     111.808E+06    -50.0636E+06    -232.943E-03     386.344E-03    -153.402E-03     289.534E-03    -240.957E-03     393.997E-03    -152.820E-03     266.923E-03
            1335     13.8656E-03     153.093E-03    -22.4091E+06    -19.5443E+06     90.2874E+06    -34.0944E+06    -225.677E-03     382.969E-03    -157.291E-03     332.221E-03    -237.590E-03     394.504E-03    -156.779E-03     304.265E-03
            1336     14.5988E-03     153.742E-03    -19.3078E+06     12.9228E+06     115.385E+06    -9.79484E+06    -222.640E-03     382.797E-03    -160.157E-03     323.053E-03    -234.101E-03     393.951E-03    -159.571E-03     295.605E-03
            1337     821.753E-06     147.853E-03    -59.7622E+06    -41.3019E+06    -57.4053E+06    -11.6272E+06    -95.2869E-03     189.645E-03    -94.3576E-03    -2.01806E-03    -95.4826E-03     189.568E-03    -94.4981E-03    -2.37590E-03
            1338     1.64261E-03     147.897E-03    -57.5472E+06    -37.3288E+06    -50.7876E+06    -21.2147E+06    -95.8518E-03     191.551E-03    -95.6989E-03    -3.66992E-03    -96.0540E-03     191.480E-03    -95.8153E-03    -4.32754E-03
            1339     2.46054E-03     147.972E-03    -54.3424E+06    -33.5323E+06    -39.5752E+06    -30.0959E+06    -97.5364E-03     194.598E-03    -97.0612E-03    -4.50610E-03    -97.7471E-03     194.525E-03    -97.1316E-03    -5.48499E-03
            1340     3.27540E-03     148.078E-03    -51.8228E+06    -31.4587E+06    -28.2581E+06    -37.2928E+06    -99.8390E-03     198.791E-03    -98.9525E-03    -4.17039E-03    -100.062E-03     198.712E-03    -98.9731E-03    -5.47608E-03
            1341     4.08456E-03     148.222E-03    -51.2415E+06    -31.4901E+06    -20.6973E+06    -43.7996E+06    -102.766E-03     204.145E-03    -101.379E-03    -1.85756E-03    -103.008E-03     204.062E-03    -101.362E-03    -3.50796E-03
            1342     4.88786E-03     148.404E-03    -52.8928E+06    -32.6088E+06    -16.2759E+06    -48.7798E+06    -106.425E-03     210.794E-03    -104.369E-03     3.24616E-03    -106.699E-03     210.718E-03    -104.326E-03     1.25440E-03
            1343     5.68351E-03     148.633E-03    -55.4015E+06    -36.4424E+06    -13.0748E+06    -52.4572E+06    -111.443E-03     219.437E-03    -107.994E-03     11.3925E-03    -111.757E-03     219.372E-03    -107.926E-03     9.05039E-03
            1344     6.46756E-03     148.909E-03    -56.5734E+06    -43.3977E+06    -9.28462E+06    -55.2377E+06    -118.376E-03     230.748E-03    -112.372E-03     21.3359E-03    -118.731E-03     230.681E-03    -112.273E-03     18.6066E-03
            1345     7.24163E-03     149.240E-03    -55.6492E+06    -47.7688E+06    -4.06118E+06    -60.0554E+06    -127.426E-03     245.047E-03    -117.622E-03     32.0245E-03    -127.831E-03     245.004E-03    -117.492E-03     28.8038E-03
            1346     7.99683E-03     149.628E-03    -54.9000E+06    -50.4938E+06    -918.064E+03    -63.1166E+06    -138.280E-03     262.072E-03    -123.791E-03     43.0802E-03    -138.752E-03     262.085E-03    -123.643E-03     39.3087E-03
            1347     8.73664E-03     150.075E-03    -56.3965E+06    -53.0769E+06     2.47894E+06    -64.8939E+06    -150.322E-03     281.172E-03    -130.850E-03     54.7239E-03    -150.905E-03     281.283E-03    -130.679E-03     50.2800E-03
            1348     9.45587E-03     150.582E-03    -57.6651E+06    -71.9176E+06     5.05362E+06    -66.9074E+06    -162.093E-03     300.737E-03    -138.644E-03     66.1710E-03    -162.799E-03     300.904E-03    -138.430E-03     60.8855E-03
            1349     10.1596E-03     151.138E-03    -54.7641E+06    -66.3994E+06     21.9897E+06    -68.5993E+06    -171.446E-03     318.302E-03    -146.856E-03     78.1771E-03    -172.360E-03     318.673E-03    -146.571E-03     71.9685E-03
            1350     10.8472E-03     151.744E-03    -48.3050E+06    -40.8701E+06     59.6664E+06    -62.1530E+06    -175.882E-03     330.868E-03    -154.986E-03     94.1308E-03    -177.121E-03     331.597E-03    -154.558E-03     87.0566E-03
            1351     11.5315E-03     152.378E-03    -33.7223E+06    -29.2944E+06     96.3573E+06    -44.5732E+06    -173.275E-03     335.522E-03    -162.247E-03     116.049E-03    -174.884E-03     336.628E-03    -161.674E-03     108.297E-03
            1352     12.2285E-03     153.026E-03    -16.3756E+06     13.4757E+06     129.887E+06    -31.2619E+06    -161.876E-03     329.679E-03    -167.804E-03     143.182E-03    -164.024E-03     331.472E-03    -167.150E-03     134.772E-03
            1353     12.9333E-03     153.665E-03    -13.5513E+06     35.0925E+06     137.919E+06    -25.2804E+06    -143.341E-03     314.423E-03    -171.082E-03     171.749E-03    -146.218E-03     317.017E-03    -170.423E-03     162.903E-03
            1354     13.6922E-03     154.273E-03    -19.4964E+06    -17.3161E+06     114.169E+06    -24.3436E+06    -131.703E-03     303.952E-03    -172.248E-03     222.121E-03    -136.242E-03     308.049E-03    -171.624E-03     211.786E-03
            1355     14.4546E-03     154.962E-03    -14.8708E+06    -23.5201E+06     93.0309E+06    -18.8247E+06    -94.4278E-03     265.315E-03    -170.888E-03     245.200E-03    -99.0146E-03     269.552E-03    -170.367E-03     235.988E-03
            1356     791.489E-06     149.033E-03    -7.74490E+06    -16.7351E+06    -5.71646E+06    -7.51777E+06    -133.670E-03     269.201E-03    -135.530E-03    -24.5987E-03    -133.778E-03     269.018E-03    -135.523E-03    -24.9985E-03
            1357     1.58030E-03     149.078E-03    -8.18154E+06    -14.1966E+06      226.06E+03    -13.0473E+06    -134.711E-03     270.899E-03    -136.187E-03    -45.0547E-03    -134.820E-03     270.697E-03    -136.154E-03    -45.7998E-03
            1358     2.36665E-03     149.154E-03    -9.35156E+06    -12.5114E+06     8.24050E+06    -17.4586E+06    -134.541E-03     272.615E-03    -138.073E-03    -67.0974E-03    -134.643E-03     272.374E-03    -138.000E-03    -68.1950E-03
            1359     3.14783E-03     149.261E-03    -11.4873E+06    -12.3171E+06     15.8046E+06    -20.4901E+06    -133.843E-03     274.407E-03    -140.564E-03    -89.3895E-03    -133.927E-03     274.108E-03    -140.450E-03    -90.8427E-03
            1360     3.92369E-03     149.403E-03    -14.0103E+06    -12.1105E+06     22.8373E+06    -22.6891E+06    -132.162E-03     275.854E-03    -143.692E-03    -111.385E-03    -132.219E-03     275.481E-03    -143.540E-03    -113.193E-03
            1361     4.69186E-03     149.584E-03    -16.4297E+06    -13.5854E+06     30.1791E+06    -24.3926E+06    -128.857E-03     276.318E-03    -147.461E-03    -132.640E-03    -128.873E-03     275.847E-03    -147.267E-03    -134.801E-03
            1362     5.45190E-03     149.806E-03    -18.2149E+06    -16.0835E+06     38.2604E+06    -25.4206E+06    -123.641E-03     275.529E-03    -151.887E-03    -152.057E-03    -123.608E-03     274.938E-03    -151.646E-03    -154.544E-03
            1363     6.20298E-03     150.079E-03    -19.0367E+06    -19.4122E+06     44.9591E+06    -27.5925E+06    -116.856E-03     273.882E-03    -157.026E-03    -168.407E-03    -116.754E-03     273.176E-03    -156.745E-03    -171.221E-03
            1364     6.93655E-03     150.402E-03    -20.7420E+06    -20.6505E+06     49.9218E+06    -29.5547E+06    -108.258E-03     271.139E-03    -162.881E-03    -179.519E-03    -108.096E-03     270.346E-03    -162.571E-03    -182.633E-03
            1365     7.65870E-03     150.780E-03    -22.7916E+06    -22.8343E+06     54.2317E+06    -31.3398E+06    -98.0616E-03     267.431E-03    -169.369E-03    -183.007E-03    -97.8652E-03     266.584E-03    -169.032E-03    -186.353E-03
            1366     8.36377E-03     151.215E-03    -24.8913E+06    -25.3771E+06     60.7529E+06    -29.4626E+06    -86.8552E-03     263.206E-03    -176.351E-03    -177.745E-03    -86.6674E-03     262.356E-03    -175.974E-03    -181.193E-03
            1367     9.05662E-03     151.706E-03    -21.4130E+06    -27.0596E+06     72.7463E+06    -30.8421E+06    -75.1594E-03     258.704E-03    -183.544E-03    -161.989E-03    -75.0243E-03     257.929E-03    -183.110E-03    -165.505E-03
            1368     9.73616E-03     152.250E-03    -19.5292E+06    -32.1572E+06     84.2221E+06    -30.3501E+06    -63.9176E-03     254.372E-03    -190.455E-03    -133.626E-03    -63.8951E-03     253.748E-03    -189.959E-03    -137.045E-03
            1369     10.4144E-03     152.837E-03    -15.2511E+06    -23.2631E+06     100.002E+06    -31.6596E+06    -52.6120E-03     249.051E-03    -196.439E-03    -94.2091E-03    -52.7664E-03     248.674E-03    -195.883E-03    -97.3635E-03
            1370     11.1055E-03     153.455E-03    -13.3115E+06    -27.9517E+06     112.348E+06    -28.5196E+06    -40.1249E-03     240.875E-03    -200.750E-03    -46.0140E-03    -40.4457E-03     240.707E-03    -200.129E-03    -48.7412E-03
            1371     11.8070E-03     154.090E-03    -10.0185E+06    -10.9177E+06     125.069E+06    -26.8272E+06    -26.6518E-03     229.406E-03    -202.755E-03     2.92405E-03    -27.1255E-03     229.474E-03    -202.099E-03     731.668E-06
            1372     12.5648E-03     154.717E-03    -7.10737E+06     17.9346E+06     143.109E+06    -11.8513E+06    -13.7693E-03     216.430E-03    -202.661E-03     29.4750E-03    -14.4116E-03     216.704E-03    -201.961E-03     27.8089E-03
            1373     13.3175E-03     155.332E-03     5.43251E+06     20.8346E+06     153.702E+06     1.52239E+06     5.24616E-03     195.185E-03    -200.432E-03     72.8139E-03     4.33508E-03     195.819E-03    -199.701E-03     71.0327E-03
            1374     14.1052E-03     155.939E-03     10.2115E+06    -170.615E+03     108.226E+06    -3.64277E+06     46.8255E-03     148.066E-03    -194.892E-03     94.3772E-03     46.1881E-03     148.469E-03    -194.365E-03     93.2500E-03
            1375     14.4240E-03     77.5016E-03    -4.55403E+06     127.700E+06     91.9777E+06    -157.444E+03    -166.749E-03     336.918E-03    -170.169E-03     117.531E-03    -174.276E-03     344.615E-03    -169.887E-03     101.697E-03
            1376     13.6691E-03     77.2870E-03    -10.5100E+06     127.063E+06     93.3600E+06    -15.5760E+03    -167.591E-03     337.799E-03    -170.209E-03     190.509E-03    -180.134E-03     350.485E-03    -169.911E-03     168.744E-03
            1377     12.9087E-03     77.0533E-03    -16.5235E+06     119.580E+06     93.4758E+06     226.303E+03    -169.370E-03     339.616E-03    -170.246E-03     220.010E-03    -183.711E-03     354.052E-03    -169.928E-03     195.878E-03
            1378     12.1491E-03     76.7651E-03    -23.2629E+06     112.161E+06     89.8212E+06      3.7035E+03    -172.104E-03     342.379E-03    -170.275E-03     250.501E-03    -187.942E-03     358.273E-03    -169.955E-03     223.974E-03
            1379     11.3899E-03     76.4534E-03    -30.2590E+06     102.568E+06     76.1832E+06     44.0151E+03    -174.196E-03     344.453E-03    -170.257E-03     256.648E-03    -189.084E-03     359.377E-03    -169.981E-03     230.000E-03
            1380     10.6299E-03     76.1480E-03    -37.1719E+06     91.2355E+06     56.7272E+06     52.2172E+03    -175.015E-03     345.229E-03    -170.214E-03     247.088E-03    -187.674E-03     357.916E-03    -170.009E-03     222.059E-03
            1381     9.87072E-03     75.8596E-03    -43.7393E+06     73.2159E+06     36.8884E+06    -421.006E+03    -175.222E-03     345.409E-03    -170.187E-03     230.451E-03    -185.396E-03     355.580E-03    -170.045E-03     207.877E-03
            1382     9.11057E-03     75.5924E-03    -49.9608E+06     30.7653E+06     21.7762E+06    -460.414E+03    -175.184E-03     345.406E-03    -170.221E-03     212.021E-03    -183.125E-03     353.215E-03    -170.085E-03     192.101E-03
            1383     8.35129E-03     75.3469E-03    -55.9069E+06    -25.3675E+06     9.78396E+06    -114.057E+03    -175.155E-03     345.443E-03    -170.288E-03     194.905E-03    -181.288E-03     351.259E-03    -170.121E-03     177.505E-03
            1384     7.59175E-03     75.1197E-03    -61.9237E+06    -74.4022E+06    -2.20233E+06        -664.139    -175.027E-03     345.361E-03    -170.334E-03     178.688E-03    -179.735E-03     349.591E-03    -170.147E-03     163.597E-03
            1385     6.83271E-03     74.9116E-03    -68.1504E+06    -116.399E+06    -12.4194E+06    -13.1737E+03    -174.570E-03     344.942E-03    -170.372E-03     162.097E-03    -178.131E-03     347.883E-03    -170.166E-03     149.155E-03
            1386     6.07329E-03     74.7237E-03    -74.7799E+06    -147.314E+06    -22.6329E+06     31.3174E+03    -173.933E-03     344.328E-03    -170.395E-03     145.066E-03    -176.577E-03     346.249E-03    -170.186E-03     134.112E-03
            1387     5.31386E-03     74.5561E-03     -81.663E+06    -170.822E+06    -33.5517E+06     174.242E+03    -173.244E-03     343.651E-03    -170.407E-03     127.598E-03    -175.165E-03     344.773E-03    -170.209E-03     118.460E-03
            1388     4.55464E-03     74.4097E-03    -88.5105E+06    -189.621E+06    -48.1014E+06     326.131E+03    -172.556E-03     342.952E-03    -170.396E-03     109.828E-03    -173.911E-03     343.459E-03    -170.233E-03     102.332E-03
            1389     3.79547E-03     74.2852E-03    -94.8028E+06    -207.951E+06    -64.0432E+06     303.456E+03    -171.970E-03     342.341E-03    -170.371E-03     91.9581E-03    -172.884E-03     342.366E-03    -170.253E-03     85.9417E-03
            1390     3.03659E-03     74.1826E-03    -100.661E+06    -224.065E+06    -78.2696E+06     44.6590E+03    -171.438E-03     341.779E-03    -170.341E-03     74.0718E-03    -172.020E-03     341.435E-03    -170.261E-03     69.4051E-03
            1391     2.27738E-03     74.1017E-03    -106.220E+06    -234.319E+06    -91.6745E+06     96.7689E+03    -170.909E-03     341.215E-03    -170.306E-03     55.9651E-03    -171.254E-03     340.616E-03    -170.270E-03     52.5526E-03
            1392     1.51805E-03     74.0439E-03    -110.172E+06    -242.498E+06    -103.090E+06     275.351E+03    -170.534E-03     340.823E-03    -170.290E-03     37.8131E-03    -170.714E-03     340.050E-03    -170.294E-03     35.5637E-03
            1393     759.459E-06     74.0081E-03    -113.167E+06    -248.220E+06    -111.001E+06     102.567E+03    -170.488E-03     340.661E-03    -170.173E-03     20.8200E-03    -170.574E-03     339.787E-03    -170.204E-03     19.6094E-03
            1394     14.4320E-03     76.1713E-03    -4.45393E+06     128.337E+06     92.3761E+06     247.481E+03    -167.014E-03     337.173E-03    -170.159E-03     117.569E-03    -174.528E-03     344.859E-03    -169.877E-03     101.767E-03
            1395     13.6681E-03     75.9540E-03    -10.4852E+06     127.243E+06     93.3496E+06    -103.597E+03    -167.217E-03     337.418E-03    -170.200E-03     190.048E-03    -179.741E-03     350.085E-03    -169.903E-03     168.334E-03
            1396     12.9091E-03     75.7221E-03    -16.9099E+06     119.547E+06     92.8744E+06    -330.064E+03    -169.344E-03     339.589E-03    -170.244E-03     219.615E-03    -183.690E-03     354.029E-03    -169.929E-03     195.438E-03
            1397     12.1495E-03     75.4321E-03    -23.4853E+06     112.401E+06     89.4812E+06    -262.378E+03    -172.212E-03     342.480E-03    -170.269E-03     250.439E-03    -188.054E-03     358.379E-03    -169.950E-03     223.879E-03
            1398     11.3897E-03     75.1218E-03    -30.2529E+06     102.557E+06     76.2537E+06    -173.461E+03    -174.013E-03     344.268E-03    -170.255E-03     256.557E-03    -188.888E-03     359.178E-03    -169.978E-03     229.953E-03
            1399     10.6301E-03     74.8160E-03    -36.7742E+06     91.7860E+06     57.2541E+06    -202.167E+03    -174.934E-03     345.156E-03    -170.222E-03     247.222E-03    -187.598E-03     357.850E-03    -170.016E-03     222.200E-03
            1400     9.87014E-03     74.5272E-03    -43.0261E+06     73.8225E+06     37.6394E+06    -32.5682E+03    -175.350E-03     345.544E-03    -170.194E-03     230.489E-03    -185.530E-03     355.724E-03    -170.051E-03     207.895E-03
            1401     9.11110E-03     74.2609E-03    -49.3209E+06     30.7488E+06     22.1914E+06     132.891E+03    -175.301E-03     345.519E-03    -170.218E-03     211.894E-03    -183.237E-03     353.325E-03    -170.080E-03     191.971E-03
            1402     8.35118E-03     74.0150E-03    -55.6959E+06    -25.3858E+06     9.82065E+06     96.4445E+03    -175.163E-03     345.440E-03    -170.277E-03     194.809E-03    -181.292E-03     351.253E-03    -170.110E-03     177.412E-03
            1403     7.59199E-03     73.7876E-03    -61.8685E+06    -74.1406E+06    -2.04150E+06     249.853E+03    -174.880E-03     345.209E-03    -170.329E-03     178.615E-03    -179.583E-03     349.435E-03    -170.142E-03     163.549E-03
            1404     6.83236E-03     73.5798E-03    -68.2010E+06    -115.993E+06    -12.3361E+06     337.674E+03    -174.497E-03     344.874E-03    -170.378E-03     162.132E-03    -178.057E-03     347.816E-03    -170.172E-03     149.206E-03
            1405     6.07312E-03     73.3917E-03    -74.8053E+06    -147.010E+06    -22.7289E+06     258.675E+03    -173.980E-03     344.382E-03    -170.402E-03     145.002E-03    -176.624E-03     346.305E-03    -170.194E-03     134.047E-03
            1406     5.31413E-03     73.2242E-03    -81.5651E+06    -170.771E+06    -33.6476E+06     303.695E+03    -173.238E-03     343.650E-03    -170.412E-03     127.549E-03    -175.157E-03     344.772E-03    -170.215E-03     118.414E-03
            1407     4.55481E-03     73.0782E-03    -88.3628E+06    -189.231E+06    -48.0559E+06     327.846E+03    -172.528E-03     342.934E-03    -170.406E-03     109.993E-03    -173.884E-03     343.444E-03    -170.244E-03     102.496E-03
            1408     3.79554E-03     72.9533E-03    -94.9868E+06    -207.466E+06    -63.9704E+06     235.791E+03    -171.962E-03     342.352E-03    -170.390E-03     92.1684E-03    -172.878E-03     342.380E-03    -170.271E-03     86.1527E-03
            1409     3.03622E-03     72.8507E-03    -100.744E+06    -223.587E+06    -77.9808E+06     189.883E+03    -171.415E-03     341.786E-03    -170.372E-03     74.2153E-03    -171.999E-03     341.445E-03    -170.291E-03     69.5523E-03
            1410     2.27719E-03     72.7700E-03    -105.918E+06    -233.947E+06    -91.7021E+06     70.3271E+03    -170.889E-03     341.243E-03    -170.354E-03     56.0895E-03    -171.233E-03     340.647E-03    -170.320E-03     52.6750E-03
            1411     1.51817E-03     72.7123E-03    -110.387E+06    -242.407E+06    -103.370E+06     67.0428E+03    -170.543E-03     340.912E-03    -170.369E-03     38.0396E-03    -170.725E-03     340.141E-03    -170.374E-03     35.7855E-03
            1412     758.536E-06     72.6760E-03    -112.929E+06    -247.515E+06    -110.880E+06     336.751E+03    -170.511E-03     340.860E-03    -170.349E-03     20.8169E-03    -170.598E-03     339.989E-03    -170.381E-03     19.6113E-03
            1413     14.4259E-03     74.8385E-03    -5.27896E+06     128.608E+06     92.7018E+06    -87.4687E+03    -167.336E-03     337.498E-03    -170.162E-03     117.811E-03    -174.862E-03     345.193E-03    -169.877E-03     101.993E-03
            1414     13.6694E-03     74.6233E-03    -10.1117E+06     128.006E+06     94.5215E+06     451.736E+03    -167.306E-03     337.501E-03    -170.195E-03     190.659E-03    -179.849E-03     350.189E-03    -169.894E-03     168.950E-03
            1415     12.9089E-03     74.3893E-03    -16.2549E+06     120.259E+06     93.7635E+06     205.760E+03    -169.373E-03     339.609E-03    -170.235E-03     219.773E-03    -183.722E-03     354.055E-03    -169.917E-03     195.588E-03
            1416     12.1495E-03     74.1003E-03    -23.3277E+06     113.021E+06     89.6598E+06    -288.910E+03    -172.011E-03     342.273E-03    -170.262E-03     250.325E-03    -187.846E-03     358.166E-03    -169.944E-03     223.803E-03
            1417     11.3898E-03     73.7898E-03    -30.4478E+06     102.703E+06     76.3156E+06    -695.877E+03    -173.917E-03     344.175E-03    -170.258E-03     256.672E-03    -188.800E-03     359.093E-03    -169.981E-03     230.069E-03
            1418     10.6298E-03     73.4845E-03    -37.4685E+06     91.3556E+06     57.1973E+06    -743.743E+03    -175.004E-03     345.232E-03    -170.228E-03     247.254E-03    -187.676E-03     357.930E-03    -170.020E-03     222.207E-03
            1419     9.87043E-03     73.1946E-03    -44.0812E+06     73.2480E+06     37.0654E+06    -295.925E+03    -175.354E-03     345.549E-03    -170.195E-03     230.374E-03    -185.535E-03     355.725E-03    -170.052E-03     207.778E-03
            1420     9.11064E-03     72.9289E-03    -50.0913E+06     30.6535E+06     21.6788E+06     52.1838E+03    -175.354E-03     345.568E-03    -170.214E-03     211.801E-03    -183.292E-03     353.375E-03    -170.077E-03     191.863E-03
            1421     8.35176E-03     72.6828E-03    -56.2010E+06    -25.1752E+06     9.48794E+06     376.505E+03    -175.147E-03     345.417E-03    -170.270E-03     194.903E-03    -181.281E-03     351.235E-03    -170.105E-03     177.510E-03
            1422     7.59193E-03     72.4564E-03    -62.5244E+06    -73.8207E+06    -2.39759E+06     431.205E+03    -174.838E-03     345.164E-03    -170.326E-03     178.734E-03    -179.542E-03     349.391E-03    -170.140E-03     163.681E-03
            1423     6.83243E-03     72.2479E-03    -68.7597E+06    -115.621E+06    -12.6003E+06     300.864E+03    -174.480E-03     344.859E-03    -170.379E-03     162.182E-03    -178.042E-03     347.803E-03    -170.174E-03     149.257E-03
            1424     6.07330E-03     72.0595E-03    -75.0505E+06    -146.707E+06    -22.8236E+06     286.217E+03    -173.863E-03     344.276E-03    -170.413E-03     144.981E-03    -176.505E-03     346.197E-03    -170.206E-03     134.042E-03
            1425     5.31375E-03     71.8927E-03    -81.6889E+06    -170.463E+06    -33.8914E+06     269.923E+03    -173.180E-03     343.618E-03    -170.437E-03     127.735E-03    -175.102E-03     344.742E-03    -170.241E-03     118.603E-03
            1426     4.55441E-03     71.7462E-03    -88.4206E+06    -188.847E+06    -48.2401E+06     209.392E+03    -172.562E-03     343.001E-03    -170.439E-03     110.159E-03    -173.919E-03     343.514E-03    -170.278E-03     102.660E-03
            1427     3.79522E-03     71.6216E-03    -94.8562E+06    -207.133E+06    -63.8166E+06     195.717E+03    -171.959E-03     342.390E-03    -170.430E-03     92.2552E-03    -172.876E-03     342.420E-03    -170.312E-03     86.2378E-03
            1428     3.03623E-03     71.5186E-03    -100.978E+06    -223.311E+06    -77.7146E+06     254.258E+03    -171.391E-03     341.819E-03    -170.427E-03     74.1378E-03    -171.977E-03     341.478E-03    -170.345E-03     69.4766E-03
            1429     2.27696E-03     71.4385E-03    -106.314E+06    -233.379E+06    -91.4746E+06     207.965E+03    -170.927E-03     341.350E-03    -170.422E-03     56.0131E-03    -171.274E-03     340.756E-03    -170.387E-03     52.6014E-03
            1430     1.51772E-03     71.3800E-03    -110.402E+06    -242.182E+06    -103.896E+06     37.3896E+03    -170.671E-03     341.089E-03    -170.417E-03     37.9649E-03    -170.853E-03     340.320E-03    -170.426E-03     35.7052E-03
            1431     759.221E-06     71.3443E-03    -112.264E+06    -247.095E+06    -111.379E+06    -18.2428E+03    -170.648E-03     340.923E-03    -170.275E-03     20.8635E-03    -170.731E-03     340.054E-03    -170.311E-03     19.6561E-03
            1432     14.4305E-03     73.5055E-03    -5.12476E+06     128.531E+06     92.1008E+06    -111.770E+03    -167.123E-03     337.294E-03    -170.171E-03     117.420E-03    -174.653E-03     344.995E-03    -169.890E-03     101.570E-03
            1433     13.6683E-03     73.2921E-03    -10.7574E+06     127.532E+06     93.5729E+06    -352.127E+03    -167.620E-03     337.820E-03    -170.200E-03     190.642E-03    -180.186E-03     350.530E-03    -169.902E-03     168.845E-03
            1434     12.9095E-03     73.0560E-03    -16.2384E+06     120.845E+06     94.1671E+06    -59.2022E+03    -169.335E-03     339.572E-03    -170.237E-03     220.042E-03    -183.689E-03     354.025E-03    -169.918E-03     195.885E-03
            1435     12.1497E-03     72.7696E-03    -22.6060E+06     114.103E+06     90.7430E+06    -63.2700E+03    -171.930E-03     342.200E-03    -170.271E-03     250.391E-03    -187.770E-03     358.102E-03    -169.950E-03     223.890E-03
            1436     11.3892E-03     72.4576E-03    -30.0905E+06     103.351E+06     76.5735E+06    -268.742E+03    -174.092E-03     344.353E-03    -170.261E-03     256.785E-03    -188.995E-03     359.293E-03    -169.984E-03     230.138E-03
            1437     10.6302E-03     72.1522E-03    -37.5608E+06     91.3227E+06     56.5391E+06    -224.057E+03    -175.094E-03     345.311E-03    -170.217E-03     246.968E-03    -187.754E-03     357.998E-03    -170.012E-03     221.918E-03
            1438     9.87035E-03     71.8630E-03    -44.4435E+06     72.9519E+06     36.1061E+06    -138.664E+03    -175.234E-03     345.418E-03    -170.183E-03     230.367E-03    -185.403E-03     355.583E-03    -170.044E-03     207.802E-03
            1439     9.11111E-03     71.5964E-03    -50.9449E+06     30.3297E+06     20.7683E+06     51.0330E+03    -175.173E-03     345.391E-03    -170.217E-03     212.009E-03    -183.113E-03     353.197E-03    -170.084E-03     192.100E-03
            1440     8.35107E-03     71.3512E-03    -57.0944E+06    -25.0451E+06     8.87332E+06     278.474E+03    -175.121E-03     345.407E-03    -170.286E-03     194.956E-03    -181.257E-03     351.225E-03    -170.122E-03     177.569E-03
            1441     7.59174E-03     71.1245E-03    -62.9508E+06    -73.5161E+06    -2.64811E+06     207.699E+03    -174.938E-03     345.279E-03    -170.341E-03     178.969E-03    -179.650E-03     349.514E-03    -170.157E-03     163.898E-03
            1442     6.83265E-03     70.9158E-03    -68.8704E+06    -115.369E+06    -12.4809E+06     163.435E+03    -174.471E-03     344.866E-03    -170.395E-03     162.427E-03    -178.036E-03     347.813E-03    -170.190E-03     149.502E-03
            1443     6.07291E-03     70.7283E-03    -75.1180E+06    -146.402E+06    -22.6057E+06     179.419E+03    -173.798E-03     344.236E-03    -170.439E-03     145.088E-03    -176.440E-03     346.158E-03    -170.230E-03     134.158E-03
            1444     5.31353E-03     70.5606E-03    -81.7341E+06    -170.127E+06    -33.6821E+06     100.156E+03    -173.206E-03     343.675E-03    -170.469E-03     127.677E-03    -175.127E-03     344.800E-03    -170.273E-03     118.544E-03
            1445     4.55441E-03     70.4143E-03     -88.377E+06    -188.627E+06    -48.2632E+06     47.7403E+03    -172.606E-03     343.074E-03    -170.468E-03     109.986E-03    -173.962E-03     343.586E-03    -170.307E-03     102.483E-03
            1446     3.79523E-03     70.2896E-03    -94.6673E+06    -207.002E+06    -63.6794E+06     77.1525E+03    -171.977E-03     342.434E-03    -170.457E-03     92.0917E-03    -172.893E-03     342.464E-03    -170.338E-03     86.0697E-03
            1447     3.03591E-03     70.1867E-03    -100.773E+06    -223.091E+06    -77.5441E+06     218.783E+03    -171.414E-03     341.868E-03    -170.454E-03     73.9758E-03    -171.998E-03     341.527E-03    -170.372E-03     69.3158E-03
            1448     2.27692E-03     70.1064E-03    -106.301E+06    -232.991E+06    -91.2602E+06     225.242E+03    -171.024E-03     341.458E-03    -170.434E-03     55.9038E-03    -171.371E-03     340.865E-03    -170.398E-03     52.4922E-03
            1449     1.51810E-03     70.0480E-03    -110.356E+06    -241.480E+06    -103.229E+06     89.0895E+03    -170.753E-03     341.140E-03    -170.387E-03     37.8873E-03    -170.936E-03     340.373E-03    -170.393E-03     35.6268E-03
            1450     758.879E-06     70.0117E-03    -113.421E+06    -247.046E+06    -111.149E+06    -67.5921E+03    -170.556E-03     340.793E-03    -170.237E-03     20.7300E-03    -170.646E-03     339.925E-03    -170.270E-03     19.5156E-03
            1451     14.4257E-03     72.1735E-03    -4.74636E+06     129.041E+06     92.4636E+06     241.107E+03    -167.081E-03     337.247E-03    -170.166E-03     117.674E-03    -174.623E-03     344.962E-03    -169.884E-03     101.816E-03
            1452     13.6690E-03     71.9579E-03    -10.0299E+06     127.874E+06     93.8036E+06    -199.669E+03    -167.428E-03     337.627E-03    -170.199E-03     190.026E-03    -179.976E-03     350.321E-03    -169.901E-03     168.246E-03
            1453     12.9089E-03     71.7255E-03    -16.6846E+06     121.217E+06     93.5394E+06    -733.198E+03    -169.118E-03     339.360E-03    -170.243E-03     219.672E-03    -183.462E-03     353.804E-03    -169.926E-03     195.544E-03
            1454     12.1487E-03     71.4364E-03    -23.6573E+06     114.040E+06     89.9849E+06    -769.859E+03    -172.077E-03     342.356E-03    -170.278E-03     250.526E-03    -187.936E-03     358.274E-03    -169.959E-03     223.978E-03
            1455     11.3901E-03     71.1261E-03    -30.5882E+06     102.928E+06     76.2020E+06    -54.7002E+03    -174.270E-03     344.529E-03    -170.259E-03     256.732E-03    -189.174E-03     359.469E-03    -169.983E-03     230.063E-03
            1456     10.6301E-03     70.8196E-03    -37.4839E+06     91.6286E+06     56.4264E+06     466.048E+03    -175.022E-03     345.235E-03    -170.212E-03     247.095E-03    -187.678E-03     357.919E-03    -170.009E-03     222.078E-03
            1457     9.87075E-03     70.5317E-03    -44.3664E+06     73.2407E+06     36.0914E+06     644.346E+03    -175.142E-03     345.329E-03    -170.187E-03     230.504E-03    -185.303E-03     355.489E-03    -170.049E-03     207.975E-03
            1458     9.11030E-03     70.2646E-03    -50.8646E+06     30.8935E+06     20.9590E+06     517.385E+03    -175.056E-03     345.290E-03    -170.234E-03     212.148E-03    -182.992E-03     353.094E-03    -170.100E-03     192.273E-03
            1459     8.35113E-03     70.0192E-03    -56.7574E+06    -24.5136E+06     9.36410E+06    -16.7958E+03    -175.070E-03     345.384E-03    -170.314E-03     195.014E-03    -181.202E-03     351.201E-03    -170.149E-03     177.634E-03
            1460     7.59168E-03     69.7924E-03    -62.4810E+06    -73.4464E+06    -2.29504E+06    -196.028E+03    -174.963E-03     345.337E-03    -170.374E-03     179.070E-03    -179.676E-03     349.574E-03    -170.188E-03     163.987E-03
            1461     6.83189E-03     69.5841E-03    -68.2927E+06    -115.418E+06    -12.1633E+06    -59.3948E+03    -174.512E-03     344.940E-03    -170.428E-03     162.289E-03    -178.074E-03     347.884E-03    -170.222E-03     149.359E-03
            1462     6.07280E-03     69.3963E-03    -74.5487E+06    -146.245E+06    -21.9947E+06     82.8294E+03    -173.926E-03     344.390E-03    -170.464E-03     144.957E-03    -176.566E-03     346.310E-03    -170.254E-03     134.014E-03
            1463     5.31364E-03     69.2288E-03    -81.3490E+06    -169.826E+06    -33.1623E+06     167.479E+03    -173.302E-03     343.782E-03    -170.480E-03     127.589E-03    -175.222E-03     344.907E-03    -170.282E-03     118.448E-03
            1464     4.55429E-03     69.0823E-03    -88.2871E+06    -188.364E+06    -48.1127E+06     149.913E+03    -172.629E-03     343.097E-03    -170.468E-03     109.876E-03    -173.985E-03     343.611E-03    -170.308E-03     102.372E-03
            1465     3.79516E-03     68.9575E-03    -94.8642E+06    -206.842E+06    -63.9964E+06     142.100E+03    -171.981E-03     342.433E-03    -170.452E-03     91.9320E-03    -172.896E-03     342.462E-03    -170.335E-03     85.9143E-03
            1466     3.03619E-03     68.8549E-03    -100.767E+06    -222.830E+06    -77.8630E+06     110.398E+03    -171.447E-03     341.888E-03    -170.441E-03     73.9436E-03    -172.031E-03     341.548E-03    -170.361E-03     69.2824E-03
            1467     2.27703E-03     68.7742E-03    -105.908E+06    -232.616E+06    -91.1824E+06     57.7729E+03    -171.071E-03     341.475E-03    -170.404E-03     55.9604E-03    -171.417E-03     340.884E-03    -170.369E-03     52.5425E-03
            1468     1.51803E-03     68.7158E-03    -110.514E+06    -241.238E+06    -102.956E+06     151.124E+03    -170.740E-03     341.076E-03    -170.336E-03     37.8325E-03    -170.924E-03     340.310E-03    -170.341E-03     35.5754E-03
            1469     759.205E-06     68.6802E-03    -113.098E+06    -246.680E+06    -111.252E+06     87.0595E+03    -170.497E-03     340.665E-03    -170.168E-03     20.4109E-03    -170.585E-03     339.799E-03    -170.202E-03     19.1968E-03
            1470     14.4311E-03     70.8425E-03    -4.91051E+06     129.505E+06     93.1296E+06    -153.392E+03    -167.206E-03     337.363E-03    -170.157E-03     117.943E-03    -174.755E-03     345.084E-03    -169.872E-03     102.081E-03
            1471     13.6689E-03     70.6254E-03    -9.98359E+06     128.362E+06     94.7033E+06     194.484E+03    -167.166E-03     337.360E-03    -170.194E-03     189.776E-03    -179.681E-03     350.020E-03    -169.892E-03     168.085E-03
            1472     12.9091E-03     70.3949E-03    -16.5065E+06     122.349E+06     94.3048E+06     158.542E+03    -169.114E-03     339.357E-03    -170.243E-03     219.528E-03    -183.451E-03     353.797E-03    -169.925E-03     195.409E-03
            1473     12.1495E-03     70.1039E-03    -24.0427E+06     114.427E+06     89.6255E+06    -173.060E+03    -172.132E-03     342.406E-03    -170.274E-03     250.663E-03    -187.999E-03     358.334E-03    -169.957E-03     224.104E-03
            1474     11.3894E-03     69.7935E-03    -31.7580E+06     101.973E+06     75.0483E+06    -374.643E+03    -174.058E-03     344.318E-03    -170.260E-03     256.623E-03    -188.943E-03     359.234E-03    -169.987E-03     230.004E-03
            1475     10.6300E-03     69.4879E-03    -38.7166E+06     90.9914E+06     56.3506E+06    -136.608E+03    -174.863E-03     345.096E-03    -170.232E-03     247.322E-03    -187.529E-03     357.784E-03    -170.027E-03     222.323E-03
            1476     9.86986E-03     69.1996E-03    -44.8075E+06     73.3133E+06     36.8902E+06     365.469E+03    -175.176E-03     345.393E-03    -170.217E-03     230.631E-03    -185.348E-03     355.559E-03    -170.074E-03     208.094E-03
            1477     9.11089E-03     68.9331E-03    -50.3566E+06     31.8146E+06     21.8423E+06     270.607E+03    -175.153E-03     345.411E-03    -170.258E-03     212.162E-03    -183.087E-03     353.216E-03    -170.122E-03     192.276E-03
            1478     8.35064E-03     68.6875E-03    -56.0483E+06    -23.9983E+06     9.99858E+06    -235.238E+03    -175.098E-03     345.432E-03    -170.334E-03     195.036E-03    -181.230E-03     351.251E-03    -170.168E-03     177.648E-03
            1479     7.59106E-03     68.4601E-03    -62.0301E+06    -73.3247E+06    -1.85877E+06    -275.223E+03    -174.983E-03     345.376E-03    -170.392E-03     178.725E-03    -179.689E-03     349.606E-03    -170.205E-03     163.642E-03
            1480     6.83222E-03     68.2521E-03    -68.2919E+06    -115.459E+06    -12.2317E+06    -198.860E+03    -174.552E-03     344.991E-03    -170.439E-03     161.939E-03    -178.109E-03     347.931E-03    -170.234E-03     149.004E-03
            1481     6.07280E-03     68.0642E-03    -74.7469E+06    -146.435E+06    -22.3286E+06    -95.0577E+03    -173.996E-03     344.462E-03    -170.466E-03     144.860E-03    -176.637E-03     346.382E-03    -170.257E-03     133.908E-03
            1482     5.31352E-03     67.8967E-03    -81.4248E+06    -169.851E+06    -33.2460E+06     129.793E+03    -173.353E-03     343.827E-03    -170.474E-03     127.467E-03    -175.274E-03     344.952E-03    -170.276E-03     118.321E-03
            1483     4.55454E-03     67.7503E-03    -88.2522E+06    -188.102E+06    -48.0378E+06     308.622E+03    -172.616E-03     343.072E-03    -170.457E-03     109.813E-03    -173.971E-03     343.586E-03    -170.296E-03     102.312E-03
            1484     3.79535E-03     67.6257E-03    -94.7035E+06    -206.367E+06    -63.8113E+06     293.263E+03    -171.977E-03     342.417E-03    -170.440E-03     91.9840E-03    -172.893E-03     342.449E-03    -170.322E-03     85.9687E-03
            1485     3.03604E-03     67.5230E-03    -100.697E+06    -222.495E+06    -77.8189E+06     155.053E+03    -171.488E-03     341.908E-03    -170.420E-03     74.0549E-03    -172.072E-03     341.571E-03    -170.341E-03     69.3908E-03
            1486     2.27713E-03     67.4420E-03    -106.169E+06    -232.490E+06    -91.5420E+06     141.391E+03    -171.023E-03     341.403E-03    -170.380E-03     55.9934E-03    -171.370E-03     340.813E-03    -170.346E-03     52.5803E-03
            1487     1.51814E-03     67.3839E-03    -110.088E+06    -240.786E+06    -103.337E+06     104.355E+03    -170.648E-03     340.988E-03    -170.340E-03     37.9241E-03    -170.830E-03     340.224E-03    -170.348E-03     35.6671E-03
            1488     759.109E-06     67.3480E-03    -112.724E+06    -246.227E+06    -110.905E+06    -115.702E+03    -170.450E-03     340.734E-03    -170.284E-03     20.4883E-03    -170.538E-03     339.869E-03    -170.318E-03     19.2668E-03
            1489     14.4264E-03     69.5082E-03    -5.19231E+06     129.390E+06     92.7207E+06    -287.548E+03    -166.920E-03     337.068E-03    -170.148E-03     117.594E-03    -174.441E-03     344.762E-03    -169.865E-03     101.794E-03
            1490     13.6689E-03     69.2948E-03    -10.9543E+06     128.297E+06     93.9132E+06    -204.845E+03    -166.935E-03     337.135E-03    -170.200E-03     190.208E-03    -179.468E-03     349.812E-03    -169.901E-03     168.558E-03
            1491     12.9089E-03     69.0620E-03    -16.6458E+06     122.033E+06     94.1711E+06     140.672E+03    -169.366E-03     339.620E-03    -170.254E-03     220.428E-03    -183.761E-03     354.116E-03    -169.936E-03     196.236E-03
            1492     12.1493E-03     68.7722E-03    -23.1995E+06     114.746E+06     90.2493E+06     865.427E+03    -172.202E-03     342.482E-03    -170.280E-03     250.912E-03    -188.071E-03     358.415E-03    -169.962E-03     224.356E-03
            1493     11.3898E-03     68.4617E-03    -30.5512E+06     103.477E+06     76.4391E+06     872.197E+03    -173.845E-03     344.120E-03    -170.275E-03     256.563E-03    -188.714E-03     359.026E-03    -169.998E-03     230.010E-03
            1494     10.6294E-03     68.1564E-03    -37.9608E+06     91.7770E+06     57.2572E+06     109.701E+03    -174.802E-03     345.059E-03    -170.257E-03     247.288E-03    -187.466E-03     357.748E-03    -170.049E-03     222.298E-03
            1495     9.87004E-03     67.8673E-03    -44.4813E+06     73.5818E+06     37.2788E+06    -461.709E+03    -175.219E-03     345.461E-03    -170.242E-03     230.522E-03    -185.393E-03     355.630E-03    -170.098E-03     207.958E-03
            1496     9.10982E-03     67.6010E-03    -50.2230E+06     31.7219E+06     21.9067E+06    -624.628E+03    -175.274E-03     345.549E-03    -170.275E-03     211.903E-03    -183.205E-03     353.350E-03    -170.138E-03     191.988E-03
            1497     8.35091E-03     67.3555E-03    -55.8779E+06    -24.1806E+06     9.79360E+06    -411.901E+03    -175.263E-03     345.599E-03    -170.336E-03     194.927E-03    -181.397E-03     351.420E-03    -170.171E-03     177.510E-03
            1498     7.59180E-03     67.1280E-03    -61.8517E+06    -73.4492E+06    -1.83145E+06     5.46396E+03    -175.022E-03     345.405E-03    -170.384E-03     178.567E-03    -179.726E-03     349.634E-03    -170.197E-03     163.482E-03
            1499     6.83200E-03     66.9202E-03    -68.1704E+06    -115.138E+06    -12.0460E+06     154.986E+03    -174.542E-03     344.969E-03    -170.426E-03     161.816E-03    -178.096E-03     347.907E-03    -170.221E-03     148.889E-03
            1500     6.07281E-03     66.7321E-03    -74.7709E+06    -146.329E+06    -22.4622E+06     98.0020E+03    -173.988E-03     344.439E-03    -170.451E-03     144.798E-03    -176.628E-03     346.359E-03    -170.243E-03     133.848E-03
            1501     5.31382E-03     66.5646E-03    -81.5120E+06    -169.968E+06    -33.3558E+06     78.6426E+03    -173.301E-03     343.762E-03    -170.461E-03     127.394E-03    -175.220E-03     344.885E-03    -170.263E-03     118.253E-03
            1502     4.55444E-03     66.4185E-03    -88.2823E+06    -187.906E+06    -47.9467E+06     147.978E+03    -172.589E-03     343.037E-03    -170.449E-03     109.818E-03    -173.945E-03     343.552E-03    -170.288E-03     102.318E-03
            1503     3.79515E-03     66.2938E-03    -94.7203E+06    -206.094E+06    -63.6599E+06     192.160E+03    -172.013E-03     342.442E-03    -170.429E-03     92.0329E-03    -172.930E-03     342.476E-03    -170.311E-03     86.0125E-03
            1504     3.03630E-03     66.1908E-03    -100.540E+06    -222.220E+06    -77.5442E+06     218.760E+03    -171.494E-03     341.896E-03    -170.402E-03     74.0174E-03    -172.078E-03     341.559E-03    -170.322E-03     69.3564E-03
            1505     2.27715E-03     66.1102E-03    -105.683E+06    -232.023E+06    -91.3295E+06     149.738E+03    -170.961E-03     341.326E-03    -170.365E-03     55.8930E-03    -171.306E-03     340.737E-03    -170.331E-03     52.4829E-03
            1506     1.51794E-03     66.0520E-03    -109.972E+06    -240.514E+06    -103.118E+06     84.4982E+03    -170.549E-03     340.912E-03    -170.363E-03     37.8400E-03    -170.732E-03     340.149E-03    -170.370E-03     35.5856E-03
            1507     758.724E-06     66.0162E-03    -112.490E+06    -245.800E+06    -110.842E+06    -9.29655E+03    -170.459E-03     340.837E-03    -170.378E-03     20.3789E-03    -170.546E-03     339.974E-03    -170.413E-03     19.1608E-03
            1508     14.4313E-03     68.1785E-03    -4.58007E+06     129.870E+06     92.7053E+06     56.0342E+03    -166.618E-03     336.777E-03    -170.158E-03     117.444E-03    -174.144E-03     344.478E-03    -169.877E-03     101.685E-03
            1509     13.6680E-03     67.9639E-03    -10.5899E+06     128.723E+06     93.4834E+06    -231.305E+03    -166.968E-03     337.185E-03    -170.217E-03     190.779E-03    -179.538E-03     349.903E-03    -169.921E-03     169.078E-03
            1510     12.9082E-03     67.7290E-03    -16.8643E+06     120.964E+06     93.0529E+06    -140.947E+03    -169.483E-03     339.751E-03    -170.268E-03     220.499E-03    -183.873E-03     354.241E-03    -169.954E-03     196.282E-03
            1511     12.1492E-03     67.4395E-03    -23.4426E+06     113.832E+06     89.5997E+06     332.798E+03    -172.097E-03     342.392E-03    -170.296E-03     250.386E-03    -187.932E-03     358.289E-03    -169.979E-03     223.868E-03
            1512     11.3890E-03     67.1303E-03    -30.1707E+06     104.270E+06     76.5184E+06     660.856E+03    -173.901E-03     344.193E-03    -170.292E-03     256.547E-03    -188.771E-03     359.104E-03    -170.017E-03     229.983E-03
            1513     10.6296E-03     66.8244E-03    -36.5733E+06     93.2286E+06     57.6988E+06     584.800E+03    -174.978E-03     345.244E-03    -170.266E-03     247.249E-03    -187.643E-03     357.942E-03    -170.060E-03     222.231E-03
            1514     9.86961E-03     66.5353E-03    -42.9679E+06     74.7389E+06     37.8039E+06     14.6398E+03    -175.296E-03     345.537E-03    -170.241E-03     230.200E-03    -185.461E-03     355.705E-03    -170.098E-03     207.627E-03
            1515     9.11063E-03     66.2690E-03    -49.4545E+06     31.9489E+06     22.1455E+06    -278.226E+03    -175.314E-03     345.581E-03    -170.267E-03     211.623E-03    -183.239E-03     353.379E-03    -170.131E-03     191.702E-03
            1516     8.35084E-03     66.0231E-03    -55.8976E+06    -24.3625E+06     9.63017E+06    -58.2272E+03    -175.277E-03     345.599E-03    -170.322E-03     194.755E-03    -181.407E-03     351.416E-03    -170.158E-03     177.342E-03
            1517     7.59131E-03     65.7959E-03    -62.0892E+06    -73.6514E+06    -2.21966E+06     54.0586E+03    -175.002E-03     345.369E-03    -170.367E-03     178.489E-03    -179.704E-03     349.595E-03    -170.181E-03     163.408E-03
            1518     6.83243E-03     65.5883E-03    -68.1125E+06    -115.072E+06    -11.9183E+06     223.673E+03    -174.561E-03     344.971E-03    -170.410E-03     161.846E-03    -178.115E-03     347.909E-03    -170.204E-03     148.921E-03
            1519     6.07316E-03     65.4000E-03    -74.4400E+06    -145.975E+06    -21.9422E+06     346.925E+03    -173.938E-03     344.374E-03    -170.436E-03     144.824E-03    -176.577E-03     346.295E-03    -170.226E-03     133.883E-03
            1520     5.31364E-03     65.2328E-03    -81.2931E+06    -169.560E+06    -33.0990E+06     250.775E+03    -173.231E-03     343.683E-03    -170.452E-03     127.406E-03    -175.149E-03     344.806E-03    -170.254E-03     118.276E-03
            1521     4.55449E-03     65.0866E-03    -88.1204E+06    -187.806E+06    -47.7159E+06     121.727E+03    -172.639E-03     343.078E-03    -170.439E-03     109.804E-03    -173.994E-03     343.592E-03    -170.278E-03     102.301E-03
            1522     3.79550E-03     64.9617E-03    -94.4680E+06    -205.855E+06    -63.5114E+06     51.6794E+03    -172.044E-03     342.452E-03    -170.408E-03     91.9685E-03    -172.960E-03     342.486E-03    -170.290E-03     85.9473E-03
            1523     3.03622E-03     64.8588E-03    -100.515E+06    -221.953E+06    -77.5881E+06     13.0251E+03    -171.430E-03     341.810E-03    -170.380E-03     73.9928E-03    -172.014E-03     341.474E-03    -170.301E-03     69.3313E-03
            1524     2.27719E-03     64.7783E-03    -105.827E+06    -231.856E+06    -91.0796E+06     152.261E+03    -170.944E-03     341.294E-03    -170.350E-03     55.8580E-03    -171.290E-03     340.705E-03    -170.315E-03     52.4471E-03
            1525     1.51816E-03     64.7203E-03    -109.811E+06    -240.118E+06    -102.946E+06     250.431E+03    -170.600E-03     340.924E-03    -170.324E-03     37.7734E-03    -170.782E-03     340.162E-03    -170.331E-03     35.5247E-03
            1526     759.182E-06     64.6842E-03    -112.633E+06    -245.440E+06    -110.756E+06     88.9981E+03    -170.424E-03     340.713E-03    -170.290E-03     20.5548E-03    -170.512E-03     339.852E-03    -170.324E-03     19.3490E-03
            1527     14.4255E-03     66.8467E-03    -4.60296E+06     130.188E+06     92.5737E+06    -23.7509E+03    -166.810E-03     336.989E-03    -170.179E-03     117.424E-03    -174.341E-03     344.698E-03    -169.899E-03     101.608E-03
            1528     13.6682E-03     66.6318E-03    -10.0801E+06     129.429E+06     93.9804E+06     309.813E+03    -167.528E-03     337.748E-03    -170.219E-03     190.386E-03    -180.070E-03     350.440E-03    -169.922E-03     168.626E-03
            1529     12.9091E-03     66.3964E-03    -16.8101E+06     121.098E+06     93.0446E+06     326.006E+03    -169.201E-03     339.462E-03    -170.261E-03     219.904E-03    -183.540E-03     353.901E-03    -169.947E-03     195.783E-03
            1530     12.1488E-03     66.1081E-03    -23.7914E+06     113.716E+06     89.2769E+06     4.15184E+03    -171.820E-03     342.123E-03    -170.303E-03     250.203E-03    -187.655E-03     358.018E-03    -169.987E-03     223.723E-03
            1531     11.3892E-03     65.7982E-03    -30.7019E+06     104.161E+06     75.6360E+06    -462.372E+03    -174.107E-03     344.402E-03    -170.296E-03     256.340E-03    -188.990E-03     359.327E-03    -170.024E-03     229.703E-03
            1532     10.6294E-03     65.4921E-03    -37.3319E+06     92.8205E+06     56.6498E+06    -456.411E+03    -175.136E-03     345.389E-03    -170.253E-03     246.850E-03    -187.795E-03     358.081E-03    -170.051E-03     221.792E-03
            1533     9.87037E-03     65.2033E-03    -43.5282E+06     74.6118E+06     37.3051E+06     10.7359E+03    -175.322E-03     345.542E-03    -170.219E-03     230.046E-03    -185.486E-03     355.708E-03    -170.078E-03     207.468E-03
            1534     9.11032E-03     64.9368E-03    -49.8381E+06     32.4720E+06     22.1495E+06     445.736E+03    -175.323E-03     345.566E-03    -170.243E-03     211.638E-03    -183.252E-03     353.369E-03    -170.107E-03     191.720E-03
            1535     8.35124E-03     64.6911E-03    -56.1499E+06    -23.5472E+06     9.93732E+06     413.709E+03    -175.196E-03     345.495E-03    -170.299E-03     194.567E-03    -181.319E-03     351.307E-03    -170.134E-03     177.181E-03
            1536     7.59199E-03     64.4642E-03    -62.2415E+06    -73.3877E+06    -2.29424E+06    -13.1172E+03    -174.928E-03     345.276E-03    -170.347E-03     178.416E-03    -179.625E-03     349.498E-03    -170.162E-03     163.352E-03
            1537     6.83224E-03     64.2560E-03    -68.3496E+06    -115.334E+06    -12.1938E+06     5.68241E+03    -174.514E-03     344.909E-03    -170.394E-03     161.862E-03    -178.067E-03     347.845E-03    -170.189E-03     148.940E-03
            1538     6.07298E-03     64.0682E-03    -74.6654E+06    -145.821E+06    -22.0265E+06     168.950E+03    -173.883E-03     344.309E-03    -170.426E-03     144.752E-03    -176.521E-03     346.227E-03    -170.216E-03     133.819E-03
            1539     5.31383E-03     63.9010E-03    -81.2561E+06    -169.210E+06    -33.0706E+06     211.345E+03    -173.262E-03     343.703E-03    -170.441E-03     127.449E-03    -175.180E-03     344.827E-03    -170.243E-03     118.318E-03
            1540     4.55457E-03     63.7545E-03    -87.9506E+06    -187.536E+06    -47.7547E+06     151.283E+03    -172.657E-03     343.079E-03    -170.423E-03     109.834E-03    -174.012E-03     343.595E-03    -170.262E-03     102.332E-03
            1541     3.79543E-03     63.6297E-03    -94.4888E+06    -205.567E+06    -63.5455E+06     162.464E+03    -171.992E-03     342.385E-03    -170.393E-03     91.9994E-03    -172.908E-03     342.420E-03    -170.276E-03     85.9842E-03
            1542     3.03640E-03     63.5272E-03    -100.540E+06    -221.739E+06    -77.7075E+06     194.568E+03    -171.397E-03     341.769E-03    -170.372E-03     74.0471E-03    -171.982E-03     341.435E-03    -170.293E-03     69.3876E-03
            1543     2.27715E-03     63.4464E-03    -105.793E+06    -231.681E+06    -91.1563E+06     114.244E+03    -170.935E-03     341.282E-03    -170.347E-03     55.9470E-03    -171.281E-03     340.695E-03    -170.314E-03     52.5397E-03
            1544     1.51811E-03     63.3884E-03    -110.099E+06    -239.781E+06    -102.825E+06     25.8329E+03    -170.653E-03     340.960E-03    -170.307E-03     37.9337E-03    -170.837E-03     340.201E-03    -170.314E-03     35.6781E-03
            1545     759.021E-06     63.3525E-03    -112.609E+06    -245.057E+06    -110.897E+06     183.861E+03    -170.419E-03     340.644E-03    -170.225E-03     20.5209E-03    -170.507E-03     339.785E-03    -170.261E-03     19.3239E-03
            1546     14.4296E-03     65.5140E-03    -5.22803E+06     130.041E+06     92.1054E+06     86.3653E+03    -167.124E-03     337.295E-03    -170.171E-03     117.397E-03    -174.654E-03     345.000E-03    -169.891E-03     101.551E-03
            1547     13.6694E-03     65.2985E-03    -10.6848E+06     129.131E+06     93.7457E+06     158.172E+03    -167.443E-03     337.647E-03    -170.204E-03     189.998E-03    -179.978E-03     350.331E-03    -169.907E-03     168.260E-03
            1548     12.9090E-03     65.0661E-03    -16.5145E+06     121.812E+06     93.8379E+06     307.724E+03    -169.061E-03     339.314E-03    -170.253E-03     219.978E-03    -183.407E-03     353.761E-03    -169.936E-03     195.885E-03
            1549     12.1487E-03     64.7763E-03    -23.0635E+06     114.838E+06     90.3422E+06    -8.99046E+03    -171.975E-03     342.269E-03    -170.294E-03     250.289E-03    -187.821E-03     358.178E-03    -169.975E-03     223.766E-03
            1550     11.3892E-03     64.4654E-03    -30.1915E+06     104.786E+06     76.2233E+06    -260.648E+03    -174.144E-03     344.420E-03    -170.276E-03     255.965E-03    -189.022E-03     359.342E-03    -170.003E-03     229.315E-03
            1551     10.6303E-03     64.1600E-03    -37.5666E+06     92.7346E+06     56.4125E+06    -241.764E+03    -175.048E-03     345.278E-03    -170.230E-03     246.761E-03    -187.704E-03     357.967E-03    -170.028E-03     221.721E-03
            1552     9.87007E-03     63.8715E-03    -44.5830E+06     73.9333E+06     36.4483E+06    -166.665E+03    -175.334E-03     345.530E-03    -170.196E-03     230.144E-03    -185.498E-03     355.693E-03    -170.056E-03     207.566E-03
            1553     9.11106E-03     63.6046E-03    -50.6166E+06     32.2577E+06     21.7087E+06     32.8169E+03    -175.300E-03     345.520E-03    -170.220E-03     211.694E-03    -183.230E-03     353.322E-03    -170.085E-03     191.779E-03
            1554     8.35137E-03     63.3592E-03    -56.2226E+06    -23.0268E+06     10.1295E+06     145.580E+03    -175.185E-03     345.463E-03    -170.278E-03     194.580E-03    -181.306E-03     351.273E-03    -170.112E-03     177.200E-03
            1555     7.59165E-03     63.1324E-03    -62.0809E+06    -72.9180E+06    -2.07266E+06     156.293E+03    -174.913E-03     345.238E-03    -170.325E-03     178.378E-03    -179.606E-03     349.458E-03    -170.140E-03     163.326E-03
            1556     6.83263E-03     62.9241E-03    -68.2512E+06    -115.212E+06    -12.3263E+06     46.4923E+03    -174.398E-03     344.774E-03    -170.376E-03     161.773E-03    -177.945E-03     347.705E-03    -170.171E-03     148.873E-03
            1557     6.07322E-03     62.7366E-03    -74.5846E+06    -145.864E+06    -22.1393E+06     9.78811E+03    -173.863E-03     344.276E-03    -170.413E-03     144.767E-03    -176.498E-03     346.193E-03    -170.204E-03     133.838E-03
            1558     5.31376E-03     62.5690E-03    -81.2134E+06    -169.111E+06    -32.9579E+06     75.4568E+03    -173.303E-03     343.730E-03    -170.427E-03     127.499E-03    -175.222E-03     344.856E-03    -170.228E-03     118.361E-03
            1559     4.55474E-03     62.4225E-03    -88.0803E+06    -187.191E+06    -47.8694E+06     195.018E+03    -172.585E-03     342.993E-03    -170.408E-03     109.785E-03    -173.939E-03     343.508E-03    -170.248E-03     102.295E-03
            1560     3.79543E-03     62.2982E-03    -94.5936E+06    -205.488E+06    -63.6487E+06     239.626E+03    -171.930E-03     342.319E-03    -170.389E-03     91.9864E-03    -172.846E-03     342.354E-03    -170.272E-03     85.9751E-03
            1561     3.03619E-03     62.1950E-03    -100.506E+06    -221.348E+06    -77.3578E+06     297.083E+03    -171.388E-03     341.765E-03    -170.377E-03     74.0129E-03    -171.973E-03     341.432E-03    -170.297E-03     69.3577E-03
            1562     2.27720E-03     62.1149E-03    -105.925E+06    -231.323E+06    -91.1982E+06     202.402E+03    -170.938E-03     341.289E-03    -170.352E-03     55.9635E-03    -171.285E-03     340.704E-03    -170.319E-03     52.5582E-03
            1563     1.51799E-03     62.0562E-03    -109.943E+06    -239.492E+06    -103.097E+06     7.25574E+03    -170.583E-03     340.919E-03    -170.336E-03     37.9128E-03    -170.767E-03     340.162E-03    -170.345E-03     35.6547E-03
            1564     759.201E-06     62.0206E-03    -112.837E+06    -244.874E+06    -110.901E+06     24.5235E+03    -170.437E-03     340.755E-03    -170.318E-03     20.6981E-03    -170.527E-03     339.897E-03    -170.354E-03     19.4914E-03
            1565     14.4278E-03     64.1824E-03    -5.39034E+06     130.189E+06     92.3746E+06     356.330E+03    -167.118E-03     337.282E-03    -170.163E-03     118.154E-03    -174.661E-03     345.000E-03    -169.882E-03     102.347E-03
            1566     13.6681E-03     63.9660E-03    -10.5241E+06     129.409E+06     94.1400E+06     51.0766E+03    -167.212E-03     337.417E-03    -170.205E-03     190.494E-03    -179.767E-03     350.122E-03    -169.907E-03     168.779E-03
            1567     12.9087E-03     63.7347E-03    -16.3686E+06     122.032E+06     94.1604E+06    -398.024E+03    -169.497E-03     339.742E-03    -170.245E-03     219.555E-03    -183.859E-03     354.207E-03    -169.928E-03     195.345E-03
            1568     12.1496E-03     63.4436E-03    -22.8881E+06     115.104E+06     90.6172E+06    -206.449E+03    -172.094E-03     342.359E-03    -170.265E-03     250.092E-03    -187.934E-03     358.264E-03    -169.946E-03     223.554E-03
            1569     11.3903E-03     63.1339E-03    -30.2293E+06     104.774E+06     76.0009E+06     278.048E+03    -173.922E-03     344.172E-03    -170.250E-03     256.363E-03    -188.797E-03     359.091E-03    -169.978E-03     229.772E-03
            1570     10.6296E-03     62.8282E-03    -37.3502E+06     93.0336E+06     56.5860E+06     556.059E+03    -175.041E-03     345.256E-03    -170.215E-03     246.983E-03    -187.696E-03     357.945E-03    -170.012E-03     221.960E-03
            1571     9.87072E-03     62.5390E-03    -43.6555E+06     74.7915E+06     37.3316E+06     334.738E+03    -175.365E-03     345.547E-03    -170.182E-03     230.170E-03    -185.523E-03     355.707E-03    -170.041E-03     207.604E-03
            1572     9.11077E-03     62.2729E-03    -49.7399E+06     32.3901E+06     21.9541E+06    -162.870E+03    -175.294E-03     345.496E-03    -170.202E-03     211.634E-03    -183.214E-03     353.291E-03    -170.067E-03     191.727E-03
            1573     8.35135E-03     62.0271E-03    -55.7309E+06    -23.4900E+06     10.1496E+06    -13.1777E+03    -175.170E-03     345.430E-03    -170.260E-03     194.532E-03    -181.286E-03     351.235E-03    -170.094E-03     177.155E-03
            1574     7.59243E-03     61.8005E-03    -61.8007E+06    -72.6387E+06    -1.72132E+06     307.636E+03    -174.873E-03     345.182E-03    -170.309E-03     178.334E-03    -179.563E-03     349.400E-03    -170.122E-03     163.292E-03
            1575     6.83260E-03     61.5927E-03    -68.0386E+06    -114.636E+06    -12.0593E+06     221.368E+03    -174.401E-03     344.760E-03    -170.359E-03     161.836E-03    -177.947E-03     347.692E-03    -170.155E-03     148.945E-03
            1576     6.07301E-03     61.4048E-03    -74.5534E+06    -145.842E+06    -22.1372E+06     49.6027E+03    -173.912E-03     344.304E-03    -170.392E-03     144.812E-03    -176.547E-03     346.221E-03    -170.183E-03     133.883E-03
            1577     5.31411E-03     61.2368E-03    -81.2465E+06    -169.068E+06    -33.0777E+06     79.0317E+03    -173.242E-03     343.644E-03    -170.402E-03     127.321E-03    -175.157E-03     344.767E-03    -170.205E-03     118.195E-03
            1578     4.55464E-03     61.0911E-03    -87.9519E+06    -187.063E+06    -47.6347E+06     151.563E+03    -172.516E-03     342.907E-03    -170.391E-03     109.707E-03    -173.869E-03     343.421E-03    -170.230E-03     102.220E-03
            1579     3.79548E-03     60.9660E-03    -94.4882E+06    -205.245E+06    -63.3081E+06     229.921E+03    -171.917E-03     342.293E-03    -170.376E-03     91.9195E-03    -172.833E-03     342.328E-03    -170.258E-03     85.9106E-03
            1580     3.03638E-03     60.8636E-03    -100.688E+06    -221.150E+06    -77.4220E+06     274.374E+03    -171.365E-03     341.727E-03    -170.362E-03     73.8903E-03    -171.950E-03     341.394E-03    -170.282E-03     69.2399E-03
            1581     2.27708E-03     60.7827E-03    -105.641E+06    -230.767E+06    -91.0824E+06     189.842E+03    -170.910E-03     341.249E-03    -170.339E-03     55.9194E-03    -171.257E-03     340.666E-03    -170.306E-03     52.5104E-03
            1582     1.51826E-03     60.7246E-03    -109.913E+06    -239.127E+06    -103.129E+06     62.3187E+03    -170.508E-03     340.854E-03    -170.346E-03     37.8045E-03    -170.692E-03     340.098E-03    -170.356E-03     35.5493E-03
            1583     758.519E-06     60.6891E-03    -112.734E+06    -244.597E+06    -111.022E+06     62.0589E+03    -170.504E-03     340.818E-03    -170.314E-03     20.9235E-03    -170.594E-03     339.961E-03    -170.351E-03     19.7112E-03
            1584     14.4289E-03     62.8497E-03    -5.12355E+06     130.428E+06     92.6310E+06     26.1028E+03    -167.023E-03     337.188E-03    -170.164E-03     117.443E-03    -174.540E-03     344.881E-03    -169.883E-03     101.627E-03
            1585     13.6686E-03     62.6362E-03    -10.4607E+06     129.619E+06     94.1696E+06    -212.804E+03    -167.551E-03     337.747E-03    -170.196E-03     190.017E-03    -180.099E-03     350.444E-03    -169.898E-03     168.244E-03
            1586     12.9095E-03     62.3993E-03    -16.2847E+06     122.129E+06     94.1211E+06    -209.642E+03    -169.402E-03     339.629E-03    -170.227E-03     219.426E-03    -183.763E-03     354.093E-03    -169.909E-03     195.232E-03
            1587     12.1502E-03     62.1138E-03    -23.5718E+06     114.379E+06     89.7152E+06     49.2039E+03    -171.961E-03     342.213E-03    -170.252E-03     250.430E-03    -187.806E-03     358.120E-03    -169.935E-03     223.924E-03
            1588     11.3890E-03     61.8015E-03    -30.5620E+06     104.616E+06     75.6055E+06     339.896E+03    -174.047E-03     344.287E-03    -170.240E-03     256.787E-03    -188.932E-03     359.216E-03    -169.970E-03     230.183E-03
            1589     10.6306E-03     61.4960E-03    -37.0856E+06     93.4542E+06     56.9664E+06     226.523E+03    -175.092E-03     345.294E-03    -170.203E-03     246.876E-03    -187.733E-03     357.971E-03    -170.000E-03     221.858E-03
            1590     9.87036E-03     61.2071E-03    -43.3291E+06     75.2283E+06     37.7492E+06    -7.09407E+03    -175.370E-03     345.537E-03    -170.167E-03     230.127E-03    -185.526E-03     355.697E-03    -170.025E-03     207.558E-03
            1591     9.11126E-03     60.9407E-03    -49.4124E+06     32.5960E+06     22.1195E+06     198.286E+03    -175.289E-03     345.473E-03    -170.184E-03     211.450E-03    -183.200E-03     353.260E-03    -170.049E-03     191.557E-03
            1592     8.35185E-03     60.6955E-03    -55.8291E+06    -23.6522E+06     10.0069E+06     358.460E+03    -175.089E-03     345.332E-03    -170.243E-03     194.514E-03    -181.201E-03     351.133E-03    -170.078E-03     177.158E-03
            1593     7.59177E-03     60.4685E-03    -61.9681E+06    -72.3871E+06    -1.56404E+06     303.061E+03    -174.843E-03     345.140E-03    -170.297E-03     178.293E-03    -179.531E-03     349.356E-03    -170.110E-03     163.263E-03
            1594     6.83263E-03     60.2612E-03    -68.0576E+06    -114.044E+06    -11.7398E+06     210.391E+03    -174.515E-03     344.855E-03    -170.340E-03     161.749E-03    -178.062E-03     347.790E-03    -170.135E-03     148.848E-03
            1595     6.07372E-03     60.0726E-03    -74.5066E+06    -145.525E+06    -22.0650E+06     128.930E+03    -173.921E-03     344.282E-03    -170.361E-03     144.761E-03    -176.556E-03     346.200E-03    -170.152E-03     133.835E-03
            1596     5.31411E-03     59.9055E-03    -81.2926E+06    -169.004E+06    -33.1851E+06     85.6080E+03    -173.184E-03     343.554E-03    -170.370E-03     127.264E-03    -175.098E-03     344.676E-03    -170.173E-03     118.148E-03
            1597     4.55490E-03     59.7592E-03    -88.1527E+06    -187.061E+06    -47.7172E+06     153.112E+03    -172.525E-03     342.882E-03    -170.357E-03     109.632E-03    -173.879E-03     343.397E-03    -170.196E-03     102.143E-03
            1598     3.79563E-03     59.6344E-03    -94.6213E+06    -205.085E+06    -63.5368E+06     330.864E+03    -171.890E-03     342.224E-03    -170.334E-03     91.7555E-03    -172.804E-03     342.259E-03    -170.217E-03     85.7571E-03
            1599     3.03637E-03     59.5317E-03    -100.338E+06    -220.786E+06    -77.6654E+06     104.874E+03    -171.339E-03     341.654E-03    -170.315E-03     73.8412E-03    -171.922E-03     341.322E-03    -170.237E-03     69.1893E-03
            1600     2.27741E-03     59.4511E-03    -105.793E+06    -230.585E+06    -91.0181E+06     6.46754E+03    -170.867E-03     341.157E-03    -170.290E-03     55.7832E-03    -171.215E-03     340.575E-03    -170.257E-03     52.3714E-03
            1601     1.51785E-03     59.3929E-03    -109.868E+06    -238.690E+06    -102.740E+06     233.120E+03    -170.588E-03     340.839E-03    -170.251E-03     37.6076E-03    -170.772E-03     340.084E-03    -170.259E-03     35.3566E-03
            1602     759.408E-06     59.3570E-03    -112.610E+06    -244.138E+06    -110.730E+06     150.274E+03    -170.566E-03     340.531E-03    -169.966E-03     20.6692E-03    -170.656E-03     339.676E-03    -170.002E-03     19.4640E-03
            1603     14.4275E-03     61.5180E-03    -4.64367E+06     131.061E+06     93.2807E+06     100.182E+03    -167.360E-03     337.500E-03    -170.140E-03     117.017E-03    -174.887E-03     345.205E-03    -169.857E-03     101.164E-03
            1604     13.6695E-03     61.3016E-03    -9.84876E+06     130.066E+06      94.448E+06    -108.262E+03    -167.182E-03     337.349E-03    -170.168E-03     189.924E-03    -179.728E-03     350.048E-03    -169.870E-03     168.192E-03
            1605     12.9096E-03     61.0697E-03    -16.7288E+06     121.613E+06     93.2280E+06     21.4948E+03    -168.978E-03     339.198E-03    -170.220E-03     219.990E-03    -183.326E-03     353.648E-03    -169.906E-03     195.882E-03
            1606     12.1483E-03     60.7806E-03    -23.4885E+06     114.638E+06     89.6474E+06     246.174E+03    -172.154E-03     342.410E-03    -170.256E-03     250.355E-03    -187.995E-03     358.315E-03    -169.940E-03     223.815E-03
            1607     11.3908E-03     60.4697E-03    -30.3043E+06     104.937E+06     76.0890E+06    -115.602E+03    -174.241E-03     344.474E-03    -170.233E-03     256.465E-03    -189.122E-03     359.399E-03    -169.961E-03     229.821E-03
            1608     10.6299E-03     60.1642E-03    -37.0018E+06     93.5702E+06     56.9566E+06    -291.778E+03    -175.083E-03     345.268E-03    -170.185E-03     246.921E-03    -187.726E-03     357.946E-03    -169.982E-03     221.898E-03
            1609     9.87103E-03     59.8749E-03    -43.6616E+06     74.9580E+06     37.2546E+06     90.0900E+03    -175.349E-03     345.497E-03    -170.148E-03     230.097E-03    -185.500E-03     355.651E-03    -170.007E-03     207.539E-03
            1610     9.11126E-03     59.6088E-03    -50.2534E+06     32.3698E+06     21.7274E+06     432.473E+03    -175.232E-03     345.400E-03    -170.168E-03     211.448E-03    -183.143E-03     353.185E-03    -170.033E-03     191.573E-03
            1611     8.35153E-03     59.3637E-03    -56.2131E+06    -23.0266E+06     9.99522E+06     314.413E+03    -175.105E-03     345.332E-03    -170.226E-03     194.342E-03    -181.214E-03     351.130E-03    -170.061E-03     176.992E-03
            1612     7.59250E-03     59.1371E-03    -61.9894E+06    -72.1089E+06    -1.55515E+06     86.7440E+03    -174.898E-03     345.171E-03    -170.273E-03     178.171E-03    -179.585E-03     349.387E-03    -170.087E-03     163.134E-03
            1613     6.83307E-03     58.9290E-03    -67.9680E+06    -113.921E+06    -11.6505E+06     126.342E+03    -174.522E-03     344.832E-03    -170.310E-03     161.736E-03    -178.069E-03     347.768E-03    -170.105E-03     148.833E-03
            1614     6.07346E-03     58.7411E-03    -74.3691E+06    -145.173E+06    -21.8617E+06     196.464E+03    -173.908E-03     344.235E-03    -170.328E-03     144.627E-03    -176.540E-03     346.152E-03    -170.119E-03     133.707E-03
            1615     5.31432E-03     58.5738E-03    -81.2347E+06    -168.796E+06    -33.0090E+06     202.063E+03    -173.224E-03     343.552E-03    -170.328E-03     127.136E-03    -175.138E-03     344.674E-03    -170.131E-03     118.018E-03
            1616     4.55510E-03     58.4274E-03    -88.1132E+06    -187.060E+06    -47.8241E+06     223.406E+03    -172.525E-03     342.827E-03    -170.301E-03     109.459E-03    -173.876E-03     343.339E-03    -170.141E-03     101.978E-03
            1617     3.79593E-03     58.3029E-03    -94.3441E+06    -204.887E+06    -63.5439E+06     159.390E+03    -171.864E-03     342.133E-03    -170.269E-03     91.6762E-03    -172.776E-03     342.168E-03    -170.153E-03     85.6751E-03
            1618     3.03670E-03     58.2001E-03    -100.306E+06    -220.369E+06    -77.4880E+06     233.711E+03    -171.312E-03     341.552E-03    -170.240E-03     73.7254E-03    -171.896E-03     341.222E-03    -170.162E-03     69.0772E-03
            1619     2.27736E-03     58.1194E-03    -105.644E+06    -230.226E+06    -91.2065E+06     210.365E+03    -170.874E-03     341.062E-03    -170.187E-03     55.6282E-03    -171.220E-03     340.480E-03    -170.156E-03     52.2264E-03
            1620     1.51867E-03     58.0614E-03    -110.105E+06    -238.539E+06    -102.993E+06     32.8152E+03    -170.556E-03     340.657E-03    -170.101E-03     37.6787E-03    -170.741E-03     339.903E-03    -170.110E-03     35.4279E-03
            1621     759.335E-06     58.0248E-03    -112.765E+06    -243.841E+06    -110.863E+06     183.335E+03    -170.302E-03     340.174E-03    -169.872E-03     20.5255E-03    -170.392E-03     339.320E-03    -169.910E-03     19.3299E-03
            1622     14.4311E-03     60.1848E-03    -4.86287E+06     130.931E+06     92.8095E+06    -169.832E+03    -167.183E-03     337.314E-03    -170.131E-03     117.663E-03    -174.713E-03     345.022E-03    -169.850E-03     101.837E-03
            1623     13.6695E-03     59.9722E-03    -9.92812E+06     130.004E+06     94.4409E+06     555.254E+03    -167.107E-03     337.278E-03    -170.172E-03     190.420E-03    -179.631E-03     349.955E-03    -169.874E-03     168.757E-03
            1624     12.9083E-03     59.7379E-03    -16.2479E+06     122.420E+06     93.9291E+06     429.686E+03    -169.297E-03     339.518E-03    -170.220E-03     219.872E-03    -183.637E-03     353.962E-03    -169.905E-03     195.735E-03
            1625     12.1507E-03     59.4478E-03    -22.9431E+06     115.436E+06     90.3666E+06     -55.866E+03    -172.181E-03     342.426E-03    -170.245E-03     250.170E-03    -188.022E-03     358.333E-03    -169.927E-03     223.613E-03
            1626     11.3894E-03     59.1379E-03    -30.1796E+06     105.067E+06     75.9339E+06    -250.750E+03    -174.176E-03     344.394E-03    -170.218E-03     256.420E-03    -189.053E-03     359.316E-03    -169.947E-03     229.788E-03
            1627     10.6309E-03     58.8318E-03    -37.4735E+06     93.2706E+06     56.2751E+06     99.6040E+03    -175.138E-03     345.305E-03    -170.168E-03     247.000E-03    -187.787E-03     357.989E-03    -169.967E-03     221.971E-03
            1628     9.87086E-03     58.5431E-03    -44.3093E+06     74.6774E+06     36.8746E+06     438.082E+03    -175.320E-03     345.450E-03    -170.131E-03     230.005E-03    -185.466E-03     355.597E-03    -169.990E-03     207.467E-03
            1629     9.11129E-03     58.2771E-03    -50.1301E+06     32.9742E+06     22.0248E+06     201.158E+03    -175.241E-03     345.391E-03    -170.150E-03     211.258E-03    -183.147E-03     353.172E-03    -170.015E-03     191.386E-03
            1630     8.35214E-03     58.0317E-03    -55.7053E+06    -22.6420E+06     10.2771E+06    -115.827E+03    -175.156E-03     345.358E-03    -170.202E-03     194.164E-03    -181.263E-03     351.156E-03    -170.037E-03     176.802E-03
            1631     7.59243E-03     57.8054E-03    -61.5331E+06    -72.1548E+06    -1.48770E+06     3.91789E+03    -174.968E-03     345.206E-03    -170.239E-03     178.166E-03    -179.654E-03     349.422E-03    -170.052E-03     163.120E-03
            1632     6.83304E-03     57.5972E-03    -67.6777E+06    -114.003E+06    -11.5622E+06     200.854E+03    -174.527E-03     344.794E-03    -170.267E-03     161.525E-03    -178.070E-03     347.726E-03    -170.062E-03     148.625E-03
            1633     6.07405E-03     57.4095E-03    -74.1849E+06    -145.011E+06    -21.6638E+06     347.157E+03    -173.922E-03     344.197E-03    -170.275E-03     144.334E-03    -176.551E-03     346.111E-03    -170.066E-03     133.415E-03
            1634     5.31476E-03     57.2419E-03    -80.9803E+06    -168.392E+06    -32.8714E+06     364.865E+03    -173.212E-03     343.477E-03    -170.265E-03     126.945E-03    -175.123E-03     344.598E-03    -170.068E-03     117.834E-03
            1635     4.55553E-03     57.0960E-03    -87.7601E+06    -186.768E+06    -47.3317E+06     203.371E+03    -172.479E-03     342.712E-03    -170.233E-03     109.354E-03    -173.827E-03     343.223E-03    -170.071E-03     101.880E-03
            1636     3.79610E-03     56.9714E-03    -94.4253E+06    -204.797E+06    -63.1325E+06     202.855E+03    -171.857E-03     342.048E-03    -170.191E-03     91.6066E-03    -172.771E-03     342.083E-03    -170.073E-03     85.6072E-03
            1637     3.03701E-03     56.8685E-03    -100.218E+06    -220.096E+06    -77.4096E+06     260.840E+03    -171.264E-03     341.409E-03    -170.145E-03     73.6563E-03    -171.846E-03     341.079E-03    -170.068E-03     69.0168E-03
            1638     2.27792E-03     56.7882E-03    -105.478E+06    -229.740E+06    -91.0522E+06     258.421E+03    -170.742E-03     340.836E-03    -170.094E-03     55.7875E-03    -171.089E-03     340.257E-03    -170.063E-03     52.3907E-03
            1639     1.51846E-03     56.7294E-03    -109.881E+06    -238.162E+06    -103.156E+06     232.880E+03    -170.292E-03     340.366E-03    -170.074E-03     37.8512E-03    -170.477E-03     339.615E-03    -170.085E-03     35.6064E-03
            1640     759.187E-06     56.6950E-03    -112.554E+06    -243.337E+06    -110.501E+06    -66.2372E+03    -170.035E-03     340.250E-03    -170.215E-03     20.8435E-03    -170.126E-03     339.398E-03    -170.251E-03     19.6368E-03
            1641     14.4263E-03     58.8534E-03    -5.36990E+06     130.351E+06     91.3780E+06    -275.814E+03    -166.783E-03     336.924E-03    -170.141E-03     117.235E-03    -174.284E-03     344.603E-03    -169.865E-03     101.439E-03
            1642     13.6678E-03     58.6388E-03    -11.2941E+06     129.271E+06     93.0878E+06    -430.305E+03    -167.424E-03     337.607E-03    -170.184E-03     190.023E-03    -179.961E-03     350.293E-03    -169.889E-03     168.290E-03
            1643     12.9108E-03     58.4055E-03    -16.3317E+06     122.987E+06     94.2547E+06    -318.717E+03    -169.580E-03     339.799E-03    -170.219E-03     220.344E-03    -183.972E-03     354.296E-03    -169.902E-03     196.119E-03
            1644     12.1490E-03     58.1164E-03    -22.7135E+06     115.617E+06     90.6005E+06     34.4033E+03    -172.249E-03     342.483E-03    -170.234E-03     250.473E-03    -188.097E-03     358.398E-03    -169.916E-03     223.918E-03
            1645     11.3907E-03     57.8057E-03    -30.1180E+06     104.973E+06     75.7472E+06     562.401E+03    -174.201E-03     344.403E-03    -170.203E-03     256.335E-03    -189.069E-03     359.318E-03    -169.933E-03     229.718E-03
            1646     10.6304E-03     57.4996E-03    -37.3662E+06     93.4202E+06     56.4281E+06     681.505E+03    -175.168E-03     345.318E-03    -170.150E-03     246.752E-03    -187.808E-03     357.993E-03    -169.949E-03     221.734E-03
            1647     9.87116E-03     57.2114E-03    -43.4466E+06     75.6095E+06     37.8617E+06     214.904E+03    -175.358E-03     345.466E-03    -170.108E-03     229.683E-03    -185.497E-03     355.609E-03    -169.965E-03     207.139E-03
            1648     9.11186E-03     56.9447E-03    -49.2138E+06     33.3828E+06     22.5645E+06    -109.666E+03    -175.277E-03     345.395E-03    -170.118E-03     211.072E-03    -183.176E-03     353.172E-03    -169.982E-03     191.197E-03
            1649     8.35204E-03     56.7004E-03    -55.1619E+06    -22.7747E+06     10.3405E+06    -14.2160E+03    -175.201E-03     345.361E-03    -170.160E-03     193.916E-03    -181.299E-03     351.152E-03    -169.995E-03     176.553E-03
            1650     7.59290E-03     56.4732E-03    -61.4798E+06    -72.1373E+06    -1.50945E+06     202.744E+03    -174.991E-03     345.178E-03    -170.187E-03     177.835E-03    -179.673E-03     349.389E-03    -170.001E-03     162.793E-03
            1651     6.83389E-03     56.2657E-03    -67.9128E+06    -114.133E+06    -11.7755E+06     316.392E+03    -174.538E-03     344.742E-03    -170.204E-03     161.306E-03    -178.077E-03     347.669E-03    -169.999E-03     148.412E-03
            1652     6.07433E-03     56.0776E-03    -74.3068E+06    -144.851E+06    -21.7954E+06     382.419E+03    -173.873E-03     344.079E-03    -170.205E-03     144.276E-03    -176.502E-03     345.992E-03    -169.997E-03     133.365E-03
            1653     5.31513E-03     55.9105E-03    -81.0154E+06    -167.911E+06    -32.7186E+06     371.682E+03    -173.126E-03     343.321E-03    -170.195E-03     126.882E-03    -175.034E-03     344.440E-03    -169.998E-03     117.788E-03
            1654     4.55568E-03     55.7647E-03    -87.8868E+06    -186.526E+06    -47.3471E+06     363.695E+03    -172.461E-03     342.620E-03    -170.159E-03     109.372E-03    -173.810E-03     343.132E-03    -169.998E-03     101.904E-03
            1655     3.79668E-03     55.6398E-03    -94.2640E+06    -204.513E+06    -63.1968E+06     259.867E+03    -171.784E-03     341.896E-03    -170.112E-03     91.5819E-03    -172.695E-03     341.930E-03    -169.994E-03     85.5947E-03
            1656     3.03726E-03     55.5376E-03    -100.416E+06    -219.818E+06    -77.3998E+06     142.041E+03    -171.138E-03     341.212E-03    -170.074E-03     73.7644E-03    -171.722E-03     340.883E-03    -169.996E-03     69.1286E-03
            1657     2.27780E-03     55.4567E-03    -105.803E+06    -229.507E+06    -91.0634E+06     267.668E+03    -170.588E-03     340.635E-03    -170.048E-03     55.7918E-03    -170.936E-03     340.058E-03    -170.017E-03     52.3979E-03
            1658     1.51843E-03     55.3992E-03    -109.603E+06    -237.539E+06    -102.817E+06     172.856E+03    -170.220E-03     340.279E-03    -170.059E-03     37.6758E-03    -170.404E-03     339.529E-03    -170.070E-03     35.4295E-03
            1659     758.860E-06     55.3628E-03    -112.229E+06    -242.995E+06    -110.707E+06     94.0822E+03    -170.294E-03     340.240E-03    -169.946E-03     20.5010E-03    -170.384E-03     339.390E-03    -169.985E-03     19.2882E-03
            1660     14.4305E-03     57.5220E-03    -4.63171E+06     131.561E+06     92.7710E+06     185.001E+03    -167.010E-03     337.159E-03    -170.149E-03     117.337E-03    -174.542E-03     344.872E-03    -169.869E-03     101.516E-03
            1661     13.6701E-03     57.3071E-03    -10.4871E+06     130.399E+06     93.8035E+06    -576.167E+03    -167.380E-03     337.563E-03    -170.183E-03     190.337E-03    -179.950E-03     350.287E-03    -169.888E-03     168.541E-03
            1662     12.9076E-03     57.0733E-03    -17.2361E+06     121.914E+06     92.7476E+06    -807.439E+03    -169.572E-03     339.786E-03    -170.213E-03     220.021E-03    -183.947E-03     354.263E-03    -169.901E-03     195.779E-03
            1663     12.1505E-03     56.7829E-03    -24.2714E+06     114.089E+06     88.7691E+06    -542.120E+03    -172.387E-03     342.608E-03    -170.221E-03     250.080E-03    -188.224E-03     358.507E-03    -169.907E-03     223.494E-03
            1664     11.3901E-03     56.4744E-03    -30.8548E+06     104.541E+06       75.59E+06     99.6006E+03    -174.392E-03     344.573E-03    -170.181E-03     256.079E-03    -189.258E-03     359.481E-03    -169.910E-03     229.429E-03
            1665     10.6312E-03     56.1671E-03    -36.8414E+06     94.0880E+06     57.4645E+06    -47.5881E+03    -175.231E-03     345.347E-03    -170.117E-03     246.372E-03    -187.860E-03     358.013E-03    -169.912E-03     221.341E-03
            1666     9.87176E-03     55.8795E-03    -42.8717E+06     75.9371E+06     38.1639E+06    -105.953E+03    -175.364E-03     345.426E-03    -170.063E-03     229.281E-03    -185.486E-03     355.555E-03    -169.920E-03     206.743E-03
            1667     9.11188E-03     55.6132E-03    -49.2533E+06     33.3168E+06     22.3872E+06     182.461E+03    -175.277E-03     345.341E-03    -170.064E-03     210.726E-03    -183.163E-03     353.106E-03    -169.929E-03     190.866E-03
            1668     8.35297E-03     55.3682E-03    -55.6825E+06    -22.7021E+06     10.1014E+06     359.689E+03    -175.182E-03     345.282E-03    -170.100E-03     193.744E-03    -181.276E-03     351.068E-03    -169.936E-03     176.399E-03
            1669     7.59363E-03     55.1418E-03    -61.8716E+06    -72.0840E+06    -1.81368E+06     523.253E+03    -174.963E-03     345.085E-03    -170.122E-03     177.826E-03    -179.642E-03     349.294E-03    -169.937E-03     162.799E-03
            1670     6.83391E-03     54.9340E-03    -68.1156E+06    -113.804E+06    -11.9415E+06     482.814E+03    -174.486E-03     344.623E-03    -170.138E-03     161.323E-03    -178.024E-03     347.550E-03    -169.934E-03     148.445E-03
            1671     6.07497E-03     54.7462E-03    -74.5735E+06    -144.510E+06    -21.9637E+06     329.461E+03    -173.801E-03     343.939E-03    -170.138E-03     144.152E-03    -176.426E-03     345.850E-03    -169.930E-03     133.260E-03
            1672     5.31537E-03     54.5796E-03    -81.1964E+06    -167.799E+06    -32.8974E+06     290.671E+03    -173.082E-03     343.208E-03    -170.126E-03     126.850E-03    -174.990E-03     344.327E-03    -169.929E-03     117.760E-03
            1673     4.55624E-03     54.4330E-03    -87.9468E+06    -186.118E+06    -47.6585E+06     279.685E+03    -172.366E-03     342.455E-03    -170.089E-03     109.341E-03    -173.714E-03     342.968E-03    -169.930E-03     101.883E-03
            1674     3.79666E-03     54.3090E-03    -94.4380E+06    -204.141E+06    -63.4978E+06     206.495E+03    -171.654E-03     341.705E-03    -170.051E-03     91.5807E-03    -172.565E-03     341.740E-03    -169.935E-03     85.6007E-03
            1675     3.03729E-03     54.2064E-03    -100.507E+06    -219.739E+06    -77.5307E+06     237.294E+03    -171.080E-03     341.101E-03    -170.021E-03     73.7390E-03    -171.665E-03     340.774E-03    -169.945E-03     69.1026E-03
            1676     2.27802E-03     54.1261E-03    -105.799E+06    -229.125E+06    -91.0326E+06     205.409E+03    -170.627E-03     340.604E-03    -169.976E-03     55.5559E-03    -170.975E-03     340.027E-03    -169.946E-03     52.1681E-03
            1677     1.51862E-03     54.0680E-03    -109.880E+06    -237.107E+06    -102.578E+06     149.253E+03    -170.342E-03     340.239E-03    -169.897E-03     37.5132E-03    -170.528E-03     339.490E-03    -169.907E-03     35.2746E-03
            1678     759.778E-06     54.0317E-03    -112.133E+06    -242.561E+06    -110.825E+06     194.631E+03    -170.143E-03     339.767E-03    -169.625E-03     20.5471E-03    -170.232E-03     338.920E-03    -169.665E-03     19.3434E-03
            1679     14.4270E-03     56.1897E-03    -4.66525E+06     131.763E+06     93.5050E+06     136.707E+03    -167.178E-03     337.331E-03    -170.153E-03     117.713E-03    -174.717E-03     345.050E-03    -169.870E-03     101.846E-03
            1680     13.6673E-03     55.9747E-03    -9.93132E+06     131.143E+06     94.6411E+06     435.580E+03    -167.776E-03     337.946E-03    -170.170E-03     189.848E-03    -180.319E-03     350.645E-03    -169.873E-03     168.017E-03
            1681     12.9114E-03     55.7404E-03    -16.4736E+06     122.563E+06     93.4134E+06     343.087E+03    -169.619E-03     339.802E-03    -170.183E-03     219.290E-03    -183.950E-03     354.239E-03    -169.870E-03     195.076E-03
            1682     12.1495E-03     55.4523E-03    -23.8074E+06     114.595E+06     89.1626E+06    -82.8702E+03    -172.400E-03     342.583E-03    -170.183E-03     249.614E-03    -188.206E-03     358.453E-03    -169.869E-03     223.037E-03
            1683     11.3911E-03     55.1402E-03    -30.9303E+06     104.944E+06     75.3884E+06    -1.00963E+06    -174.390E-03     344.524E-03    -170.134E-03     255.481E-03    -189.226E-03     359.404E-03    -169.864E-03     228.825E-03
            1684     10.6318E-03     54.8363E-03    -37.6065E+06     93.6474E+06     56.5640E+06    -1.24235E+06    -175.234E-03     345.295E-03    -170.062E-03     246.122E-03    -187.854E-03     357.950E-03    -169.860E-03     221.080E-03
            1685     9.87202E-03     54.5470E-03    -44.0524E+06     74.9207E+06     37.1952E+06    -406.303E+03    -175.373E-03     345.374E-03    -170.002E-03     229.120E-03    -185.490E-03     355.494E-03    -169.861E-03     206.588E-03
            1686     9.11325E-03     54.2819E-03    -50.1770E+06     32.7592E+06     21.8219E+06     333.255E+03    -175.233E-03     345.234E-03    -170.000E-03     210.670E-03    -183.117E-03     352.992E-03    -169.866E-03     190.827E-03
            1687     8.35319E-03     54.0366E-03    -56.3101E+06    -22.6752E+06     9.66160E+06     531.547E+03    -175.125E-03     345.160E-03    -170.035E-03     193.788E-03    -181.217E-03     350.943E-03    -169.872E-03     176.466E-03
            1688     7.59368E-03     53.8103E-03    -62.3595E+06    -71.8793E+06    -2.20103E+06     373.676E+03    -174.911E-03     344.966E-03    -170.055E-03     177.643E-03    -179.584E-03     349.169E-03    -169.871E-03     162.635E-03
            1689     6.83482E-03     53.6024E-03    -68.2303E+06    -113.306E+06    -11.9942E+06     285.551E+03    -174.391E-03     344.462E-03    -170.070E-03     161.106E-03    -177.924E-03     347.384E-03    -169.867E-03     148.246E-03
            1690     6.07503E-03     53.4151E-03    -74.4035E+06    -144.223E+06    -21.9508E+06     259.111E+03    -173.720E-03     343.792E-03    -170.072E-03     144.057E-03    -176.340E-03     345.700E-03    -169.865E-03     133.178E-03
            1691     5.31592E-03     53.2481E-03    -81.0604E+06    -167.564E+06    -32.9999E+06     211.295E+03    -173.016E-03     343.077E-03    -170.060E-03     126.859E-03    -174.924E-03     344.197E-03    -169.865E-03     117.775E-03
            1692     4.55635E-03     53.1022E-03    -87.9162E+06    -185.760E+06    -47.5117E+06     201.205E+03    -172.249E-03     342.279E-03    -170.029E-03     109.292E-03    -173.596E-03     342.792E-03    -169.870E-03     101.844E-03
            1693     3.79694E-03     52.9781E-03    -94.4570E+06    -204.059E+06    -63.2176E+06     282.216E+03    -171.623E-03     341.617E-03    -169.994E-03     91.5195E-03    -172.534E-03     341.651E-03    -169.877E-03     85.5457E-03
            1694     3.03757E-03     52.8754E-03    -100.368E+06    -219.430E+06    -77.4022E+06     301.287E+03    -171.084E-03     341.034E-03    -169.950E-03     73.5552E-03    -171.667E-03     340.706E-03    -169.873E-03     68.9274E-03
            1695     2.27819E-03     52.7952E-03    -105.445E+06    -228.729E+06    -91.0510E+06     22.0022E+03    -170.624E-03     340.502E-03    -169.878E-03     55.6054E-03    -170.970E-03     339.926E-03    -169.849E-03     52.2184E-03
            1696     1.51916E-03     52.7369E-03    -109.567E+06    -236.970E+06    -102.854E+06    -110.918E+03    -170.222E-03     340.009E-03    -169.787E-03     37.7026E-03    -170.406E-03     339.262E-03    -169.799E-03     35.4612E-03
            1697     759.529E-06     52.7015E-03    -112.422E+06    -241.922E+06    -109.935E+06    -156.173E+03    -169.702E-03     339.563E-03    -169.861E-03     20.5158E-03    -169.795E-03     338.717E-03    -169.897E-03     19.3084E-03
            1698     14.4290E-03     54.8564E-03    -5.20054E+06     131.267E+06     92.2883E+06    -11.5528E+03    -167.315E-03     337.437E-03    -170.122E-03     116.959E-03    -174.830E-03     345.132E-03    -169.843E-03     101.116E-03
            1699     13.6718E-03     54.6413E-03    -10.2569E+06     130.932E+06     94.2875E+06     23.6950E+03    -167.631E-03     337.772E-03    -170.141E-03     189.968E-03    -180.178E-03     350.474E-03    -169.844E-03     168.163E-03
            1700     12.9087E-03     54.4097E-03    -16.1368E+06     123.331E+06     94.3715E+06     424.189E+03    -170.011E-03     340.161E-03    -170.150E-03     219.671E-03    -184.359E-03     354.615E-03    -169.833E-03     195.396E-03
            1701     12.1518E-03     54.1180E-03    -22.2774E+06     116.467E+06     91.1239E+06     342.562E+03    -172.566E-03     342.698E-03    -170.132E-03     249.394E-03    -188.362E-03     358.564E-03    -169.813E-03     222.808E-03
            1702     11.3919E-03     53.8102E-03    -29.6447E+06     106.287E+06     76.1068E+06    -85.1867E+03    -174.266E-03     344.339E-03    -170.073E-03     255.429E-03    -189.086E-03     359.210E-03    -169.804E-03     228.821E-03
            1703     10.6319E-03     53.5030E-03    -37.4128E+06     93.6605E+06     55.7289E+06    -244.201E+03    -175.134E-03     345.134E-03    -170.000E-03     246.008E-03    -187.738E-03     357.776E-03    -169.803E-03     221.011E-03
            1704     9.87326E-03     53.2159E-03    -44.6695E+06     73.9967E+06     36.1640E+06    -224.981E+03    -175.305E-03     345.249E-03    -169.945E-03     229.159E-03    -185.420E-03     355.364E-03    -169.806E-03     206.647E-03
            1705     9.11285E-03     52.9500E-03    -50.8793E+06     32.3047E+06     21.2631E+06     31.0234E+03    -175.254E-03     345.197E-03    -169.943E-03     210.662E-03    -183.134E-03     352.949E-03    -169.809E-03     190.827E-03
            1706     8.35397E-03     52.7053E-03    -56.5324E+06    -22.4178E+06     9.52522E+06     81.0998E+03    -175.154E-03     345.124E-03    -169.970E-03     193.695E-03    -181.241E-03     350.903E-03    -169.808E-03     176.375E-03
            1707     7.59480E-03     52.4787E-03    -62.1715E+06    -71.5614E+06    -2.17983E+06    -19.1678E+03    -174.840E-03     344.826E-03    -169.986E-03     177.587E-03    -179.509E-03     349.026E-03    -169.803E-03     162.591E-03
            1708     6.83490E-03     52.2714E-03    -68.0085E+06    -113.409E+06    -12.1126E+06     2.86503E+03    -174.292E-03     344.295E-03    -170.003E-03     161.051E-03    -177.818E-03     347.211E-03    -169.800E-03     148.209E-03
            1709     6.07575E-03     52.0841E-03    -74.2529E+06    -144.242E+06    -21.9652E+06     164.280E+03    -173.657E-03     343.664E-03    -170.007E-03     144.056E-03    -176.276E-03     345.571E-03    -169.800E-03     133.185E-03
            1710     5.31605E-03     51.9171E-03    -80.9545E+06    -167.190E+06    -32.9714E+06     292.195E+03    -172.934E-03     342.929E-03    -169.995E-03     126.665E-03    -174.837E-03     344.047E-03    -169.800E-03     117.597E-03
            1711     4.55664E-03     51.7717E-03    -87.7207E+06    -185.635E+06    -47.3932E+06     261.419E+03    -172.214E-03     342.176E-03    -169.962E-03     109.094E-03    -173.559E-03     342.687E-03    -169.802E-03     101.653E-03
            1712     3.79717E-03     51.6470E-03    -94.2119E+06    -203.848E+06    -63.0034E+06     278.233E+03    -171.602E-03     341.518E-03    -169.917E-03     91.4305E-03    -172.512E-03     341.553E-03    -169.799E-03     85.4620E-03
            1713     3.03788E-03     51.5447E-03    -100.138E+06     -218.88E+06    -77.3175E+06     117.990E+03    -171.017E-03     340.880E-03    -169.863E-03     73.4816E-03    -171.599E-03     340.553E-03    -169.787E-03     68.8609E-03
            1714     2.27847E-03     51.4645E-03    -105.442E+06    -228.330E+06    -90.9730E+06    -11.4804E+03    -170.452E-03     340.257E-03    -169.805E-03     55.6071E-03    -170.799E-03     339.683E-03    -169.776E-03     52.2208E-03
            1715     1.51874E-03     51.4063E-03    -109.660E+06    -236.822E+06    -102.920E+06     3.19206E+03    -170.028E-03     339.803E-03    -169.775E-03     37.5381E-03    -170.213E-03     339.056E-03    -169.787E-03     35.2995E-03
            1716     759.180E-06     51.3718E-03    -111.861E+06    -242.006E+06    -110.915E+06    -189.760E+03    -170.057E-03     339.621E-03    -169.564E-03     20.1003E-03    -170.145E-03     338.775E-03    -169.606E-03     18.8989E-03
            1717     14.4311E-03     53.5259E-03    -5.29991E+06     131.363E+06     91.9311E+06     28.6706E+03    -167.585E-03     337.695E-03    -170.110E-03     118.380E-03    -175.134E-03     345.425E-03    -169.833E-03     102.461E-03
            1718     13.6667E-03     53.3109E-03    -10.6994E+06     130.611E+06     93.9749E+06    -142.501E+03    -168.101E-03     338.213E-03    -170.112E-03     190.261E-03    -180.649E-03     350.914E-03    -169.816E-03     168.389E-03
            1719     12.9118E-03     53.0729E-03    -16.2912E+06     123.326E+06     94.2991E+06    -506.562E+03    -169.945E-03     340.053E-03    -170.107E-03     218.865E-03    -184.258E-03     354.472E-03    -169.791E-03     194.610E-03
            1720     12.1514E-03     52.7884E-03    -23.1155E+06     115.842E+06     90.3132E+06    -342.650E+03    -172.512E-03     342.599E-03    -170.087E-03     249.341E-03    -188.294E-03     358.448E-03    -169.770E-03     222.778E-03
            1721     11.3920E-03     52.4760E-03    -30.0589E+06     106.025E+06     76.1105E+06     371.843E+03    -174.325E-03     344.353E-03    -170.028E-03     255.544E-03    -189.148E-03     359.225E-03    -169.758E-03     228.948E-03
            1722     10.6335E-03     52.1728E-03    -37.0698E+06     94.0951E+06     56.2369E+06     1.05640E+06    -175.072E-03     345.027E-03    -169.955E-03     246.095E-03    -187.669E-03     357.663E-03    -169.756E-03     221.145E-03
            1723     9.87261E-03     51.8836E-03    -43.7061E+06     74.7900E+06     36.4812E+06     678.962E+03    -175.312E-03     345.209E-03    -169.897E-03     229.162E-03    -185.409E-03     355.310E-03    -169.759E-03     206.686E-03
            1724     9.11426E-03     51.6186E-03    -49.8102E+06     32.9235E+06     21.8297E+06     9.81575E+03    -175.312E-03     345.202E-03    -169.890E-03     210.583E-03    -183.181E-03     352.948E-03    -169.757E-03     190.753E-03
            1725     8.35438E-03     51.3737E-03    -55.6280E+06    -22.0853E+06     10.0669E+06    -28.4326E+03    -175.151E-03     345.062E-03    -169.911E-03     193.657E-03    -181.231E-03     350.837E-03    -169.748E-03     176.347E-03
            1726     7.59470E-03     51.1475E-03    -61.5394E+06    -71.4509E+06    -1.92432E+06     37.6266E+03    -174.782E-03     344.705E-03    -169.924E-03     177.485E-03    -179.442E-03     348.899E-03    -169.740E-03     162.507E-03
            1727     6.83559E-03     50.9405E-03    -67.8701E+06    -113.385E+06    -11.9856E+06     96.2744E+03    -174.281E-03     344.218E-03    -169.937E-03     160.890E-03    -177.803E-03     347.131E-03    -169.734E-03     148.056E-03
            1728     6.07585E-03     50.7530E-03    -74.4619E+06    -144.285E+06    -22.1976E+06     105.079E+03    -173.641E-03     343.572E-03    -169.931E-03     143.815E-03    -176.255E-03     345.474E-03    -169.725E-03     132.955E-03
            1729     5.31663E-03     50.5864E-03    -81.0457E+06    -167.137E+06    -33.1387E+06     147.841E+03    -172.900E-03     342.810E-03    -169.909E-03     126.367E-03    -174.799E-03     343.923E-03    -169.715E-03     117.309E-03
            1730     4.55710E-03     50.4408E-03    -87.7508E+06    -185.448E+06    -47.4564E+06     244.553E+03    -172.186E-03     342.050E-03    -169.864E-03     108.880E-03    -173.528E-03     342.560E-03    -169.705E-03     101.447E-03
            1731     3.79768E-03     50.3166E-03     -94.176E+06    -203.489E+06    -63.1337E+06     172.935E+03    -171.502E-03     341.311E-03    -169.809E-03     91.2076E-03    -172.410E-03     341.345E-03    -169.693E-03     85.2453E-03
            1732     3.03805E-03     50.2141E-03    -100.184E+06    -218.379E+06    -77.3040E+06     180.434E+03    -170.847E-03     340.609E-03    -169.762E-03     73.2816E-03    -171.428E-03     340.283E-03    -169.686E-03     68.6708E-03
            1733     2.27859E-03     50.1341E-03    -105.707E+06    -228.141E+06    -91.2659E+06     190.451E+03    -170.315E-03     340.033E-03    -169.718E-03     55.3750E-03    -170.663E-03     339.460E-03    -169.690E-03     51.9972E-03
            1734     1.51904E-03     50.0765E-03    -109.931E+06    -236.624E+06    -102.968E+06     86.5948E+03    -169.973E-03     339.659E-03    -169.686E-03     37.3900E-03    -170.160E-03     338.914E-03    -169.698E-03     35.1590E-03
            1735     759.824E-06     50.0403E-03    -112.789E+06    -242.021E+06    -110.523E+06     74.5986E+03    -169.904E-03     339.424E-03    -169.520E-03     20.3984E-03    -169.997E-03     338.579E-03    -169.558E-03     19.1996E-03
            1736     14.4248E-03     52.1914E-03    -4.61023E+06     132.372E+06     93.4877E+06     273.257E+03    -168.092E-03     338.192E-03    -170.100E-03     117.163E-03    -175.623E-03     345.906E-03    -169.818E-03     101.172E-03
            1737     13.6742E-03     51.9743E-03    -9.76615E+06     131.643E+06     95.0463E+06    -395.838E+03    -168.299E-03     338.372E-03    -170.072E-03     189.267E-03    -180.842E-03     351.071E-03    -169.774E-03     167.327E-03
            1738     12.9110E-03     51.7456E-03    -16.6479E+06     122.917E+06     93.6209E+06    -369.586E+03    -169.766E-03     339.823E-03    -170.057E-03     219.088E-03    -184.071E-03     354.234E-03    -169.743E-03     194.866E-03
            1739     12.1516E-03     51.4524E-03    -23.8377E+06     115.240E+06      89.369E+06    -217.592E+03    -172.268E-03     342.317E-03    -170.048E-03     249.153E-03    -188.015E-03     358.129E-03    -169.734E-03     222.665E-03
            1740     11.3933E-03     51.1464E-03    -31.2347E+06     104.927E+06     74.9210E+06     -58.263E+03    -174.209E-03     344.209E-03    -170.000E-03     255.601E-03    -189.018E-03     359.063E-03    -169.732E-03     229.039E-03
            1741     10.6323E-03     50.8395E-03    -37.6822E+06     93.8324E+06     56.2737E+06     55.6215E+03    -175.267E-03     345.194E-03    -169.928E-03     246.245E-03    -187.863E-03     357.826E-03    -169.728E-03     221.269E-03
            1742     9.87443E-03     50.5528E-03    -43.0661E+06     75.9643E+06     37.8839E+06     223.799E+03    -175.471E-03     345.328E-03    -169.858E-03     229.058E-03    -185.561E-03     355.425E-03    -169.716E-03     206.572E-03
            1743     9.11373E-03     50.2865E-03    -48.8685E+06     32.9980E+06     22.3708E+06     394.782E+03    -175.341E-03     345.177E-03    -169.836E-03     210.445E-03    -183.198E-03     352.913E-03    -169.702E-03     190.632E-03
            1744     8.35489E-03     50.0424E-03    -55.2831E+06    -22.3282E+06     10.2119E+06     430.876E+03    -175.130E-03     344.979E-03    -169.849E-03     193.220E-03    -181.195E-03     350.739E-03    -169.685E-03     175.931E-03
            1745     7.59564E-03     49.8166E-03    -61.6430E+06    -70.8369E+06    -1.61016E+06     445.042E+03    -174.793E-03     344.645E-03    -169.852E-03     177.093E-03    -179.445E-03     348.832E-03    -169.668E-03     162.132E-03
            1746     6.83589E-03     49.6093E-03    -67.8684E+06    -113.155E+06    -11.8670E+06     272.767E+03    -174.315E-03     344.165E-03    -169.850E-03     160.535E-03    -177.832E-03     347.073E-03    -169.647E-03     147.710E-03
            1747     6.07680E-03     49.4224E-03    -74.2969E+06    -143.881E+06    -22.0090E+06     191.212E+03    -173.608E-03     343.438E-03    -169.829E-03     143.410E-03    -176.215E-03     345.334E-03    -169.623E-03     132.566E-03
            1748     5.31712E-03     49.2557E-03    -81.1664E+06    -167.052E+06    -33.2257E+06     78.7680E+03    -172.840E-03     342.636E-03    -169.796E-03     126.129E-03    -174.735E-03     343.746E-03    -169.602E-03     117.085E-03
            1749     4.55768E-03     49.1104E-03    -88.0024E+06    -185.507E+06    -47.6798E+06     96.4586E+03    -172.133E-03     341.871E-03    -169.738E-03     108.677E-03    -173.473E-03     342.379E-03    -169.580E-03     101.252E-03
            1750     3.79813E-03     48.9861E-03    -94.4471E+06    -203.130E+06    -63.5161E+06     175.661E+03    -171.378E-03     341.050E-03    -169.673E-03     90.9330E-03    -172.285E-03     341.085E-03    -169.559E-03     84.9811E-03
            1751     3.03867E-03     48.8842E-03    -100.396E+06    -218.220E+06    -77.6335E+06     245.479E+03    -170.671E-03     340.298E-03    -169.627E-03     73.0818E-03    -171.251E-03     339.972E-03    -169.553E-03     68.4827E-03
            1752     2.27878E-03     48.8041E-03    -105.515E+06    -227.777E+06    -90.9924E+06     273.230E+03    -170.176E-03     339.767E-03    -169.591E-03     55.2659E-03    -170.522E-03     339.194E-03    -169.563E-03     51.9020E-03
            1753     1.51935E-03     48.7461E-03    -109.899E+06    -236.339E+06    -102.962E+06     46.3464E+03    -169.811E-03     339.383E-03    -169.572E-03     37.4608E-03    -169.997E-03     338.638E-03    -169.585E-03     35.2294E-03
            1754     759.301E-06     48.7111E-03    -112.864E+06    -241.875E+06    -110.711E+06    -25.3758E+03    -169.541E-03     339.220E-03    -169.679E-03     20.2961E-03    -169.635E-03     338.376E-03    -169.719E-03     19.0881E-03
            1755     14.4358E-03     50.8572E-03    -4.77691E+06     132.380E+06     93.5933E+06    -281.698E+03    -168.114E-03     338.168E-03    -170.054E-03     117.445E-03    -175.645E-03     345.881E-03    -169.771E-03     101.478E-03
            1756     13.6675E-03     50.6451E-03    -10.1471E+06     131.349E+06     94.5964E+06     230.474E+03    -167.854E-03     337.891E-03    -170.038E-03     189.759E-03    -180.370E-03     350.564E-03    -169.740E-03     167.938E-03
            1757     12.9120E-03     50.4082E-03    -16.5301E+06     123.255E+06     93.7058E+06     444.648E+03    -169.756E-03     339.793E-03    -170.038E-03     219.007E-03    -184.033E-03     354.178E-03    -169.724E-03     194.839E-03
            1758     12.1535E-03     50.1247E-03    -23.5287E+06     115.746E+06     89.6851E+06     361.942E+03    -172.246E-03     342.278E-03    -170.032E-03     249.544E-03    -187.989E-03     358.089E-03    -169.717E-03     223.084E-03
            1759     11.3915E-03     49.8125E-03    -30.5669E+06     105.690E+06     76.0604E+06     113.108E+03    -174.400E-03     344.384E-03    -169.984E-03     255.787E-03    -189.202E-03     359.232E-03    -169.713E-03     229.213E-03
            1760     10.6342E-03     49.5084E-03    -37.3724E+06     94.2531E+06     56.9628E+06    -752.387E+03    -175.449E-03     345.343E-03    -169.894E-03     245.678E-03    -188.027E-03     357.958E-03    -169.692E-03     220.670E-03
            1761     9.87332E-03     49.2201E-03    -44.2807E+06     74.6664E+06     36.8655E+06    -606.391E+03    -175.575E-03     345.376E-03    -169.801E-03     228.552E-03    -185.654E-03     355.456E-03    -169.661E-03     206.048E-03
            1762     9.11541E-03     48.9555E-03    -50.6624E+06     32.7156E+06     21.4851E+06     153.435E+03    -175.363E-03     345.129E-03    -169.765E-03     209.936E-03    -183.212E-03     352.852E-03    -169.632E-03     190.132E-03
            1763     8.35554E-03     48.7109E-03    -56.5288E+06    -21.9711E+06     9.66784E+06     222.989E+03    -175.130E-03     344.896E-03    -169.766E-03     192.869E-03    -181.190E-03     350.649E-03    -169.604E-03     175.594E-03
            1764     7.59602E-03     48.4857E-03    -62.1710E+06    -70.7841E+06    -1.79465E+06     171.333E+03    -174.861E-03     344.615E-03    -169.755E-03     176.726E-03    -179.506E-03     348.794E-03    -169.571E-03     161.769E-03
            1765     6.83698E-03     48.2784E-03    -68.0658E+06    -112.759E+06    -11.8379E+06     240.384E+03    -174.279E-03     344.016E-03    -169.737E-03     160.172E-03    -177.787E-03     346.916E-03    -169.534E-03     147.368E-03
            1766     6.07734E-03     48.0918E-03    -74.4238E+06    -143.665E+06    -21.9708E+06     203.506E+03    -173.547E-03     343.252E-03    -169.705E-03     143.131E-03    -176.149E-03     345.144E-03    -169.499E-03     132.302E-03
            1767     5.31793E-03     47.9256E-03    -81.1055E+06    -166.634E+06    -33.0336E+06     220.531E+03    -172.818E-03     342.475E-03    -169.657E-03     125.859E-03    -174.710E-03     343.583E-03    -169.462E-03     116.825E-03
            1768     4.55834E-03     47.7799E-03    -87.9804E+06    -185.441E+06    -47.6233E+06     138.530E+03    -172.016E-03     341.600E-03    -169.584E-03     108.310E-03    -173.352E-03     342.103E-03    -169.425E-03     100.902E-03
            1769     3.79885E-03     47.6563E-03    -94.5194E+06    -202.944E+06    -63.6403E+06     166.599E+03    -171.208E-03     340.720E-03    -169.511E-03     90.5908E-03    -172.112E-03     340.752E-03    -169.398E-03     84.6563E-03
            1770     3.03888E-03     47.5545E-03    -100.307E+06    -218.036E+06    -77.7555E+06     15.7485E+03    -170.557E-03     340.013E-03    -169.457E-03     72.8852E-03    -171.135E-03     339.687E-03    -169.384E-03     68.2908E-03
            1771     2.27939E-03     47.4743E-03    -105.785E+06    -227.903E+06    -90.8411E+06     32.0519E+03    -170.020E-03     339.429E-03    -169.409E-03     55.0268E-03    -170.366E-03     338.854E-03    -169.379E-03     51.6658E-03
            1772     1.51923E-03     47.4168E-03    -109.686E+06    -235.730E+06    -102.389E+06     450.586E+03    -169.612E-03     338.997E-03    -169.385E-03     37.1128E-03    -169.798E-03     338.253E-03    -169.396E-03     34.9015E-03
            1773     759.828E-06     47.3808E-03    -112.384E+06    -241.324E+06    -110.595E+06     116.209E+03    -169.535E-03     338.842E-03    -169.307E-03     20.2550E-03    -169.628E-03     338.000E-03    -169.347E-03     19.0584E-03
            1774     14.4245E-03     49.5253E-03    -4.67284E+06     132.081E+06     92.3325E+06    -153.234E+03    -167.666E-03     337.709E-03    -170.043E-03     118.045E-03    -175.191E-03     345.419E-03    -169.766E-03     102.067E-03
            1775     13.6743E-03     49.3104E-03    -10.8572E+06     130.696E+06     93.4703E+06    -170.679E+03    -167.986E-03     338.025E-03    -170.039E-03     189.822E-03    -180.481E-03     350.673E-03    -169.745E-03     168.013E-03
            1776     12.9119E-03     49.0789E-03    -16.9183E+06     123.068E+06     93.3694E+06     153.188E+03    -169.634E-03     339.678E-03    -170.045E-03     219.350E-03    -183.898E-03     354.049E-03    -169.732E-03     195.217E-03
            1777     12.1504E-03     48.7905E-03    -23.0761E+06     116.220E+06     90.4461E+06     267.270E+03    -172.725E-03     342.757E-03    -170.032E-03     249.352E-03    -188.476E-03     358.576E-03    -169.715E-03     222.803E-03
            1778     11.3943E-03     48.4809E-03    -29.6764E+06     106.712E+06     77.7941E+06     59.6751E+03    -174.849E-03     344.800E-03    -169.951E-03     255.167E-03    -189.650E-03     359.649E-03    -169.674E-03     228.506E-03
            1779     10.6333E-03     48.1759E-03    -37.0338E+06     94.7974E+06     57.9308E+06     276.007E+03    -175.517E-03     345.349E-03    -169.832E-03     245.063E-03    -188.069E-03     357.938E-03    -169.626E-03     220.077E-03
            1780     9.87579E-03     47.8886E-03    -44.2119E+06     74.8004E+06     36.8788E+06     422.371E+03    -175.550E-03     345.274E-03    -169.724E-03     228.046E-03    -185.604E-03     355.330E-03    -169.584E-03     205.585E-03
            1781     9.11531E-03     47.6238E-03    -50.5326E+06     32.6984E+06     21.5154E+06     2.92784E+03    -175.379E-03     345.058E-03    -169.679E-03     209.626E-03    -183.214E-03     352.767E-03    -169.546E-03     189.836E-03
            1782     8.35631E-03     47.3801E-03    -56.1542E+06    -21.6240E+06     9.75563E+06    -194.367E+03    -175.253E-03     344.915E-03    -169.662E-03     192.480E-03    -181.300E-03     350.657E-03    -169.500E-03     175.206E-03
            1783     7.59729E-03     47.1543E-03    -62.0186E+06    -71.0144E+06    -2.00072E+06    -174.098E+03    -174.856E-03     344.487E-03    -169.630E-03     176.187E-03    -179.487E-03     348.650E-03    -169.447E-03     161.247E-03
            1784     6.83772E-03     46.9481E-03    -68.1164E+06    -112.800E+06    -11.7608E+06     78.9206E+03    -174.221E-03     343.819E-03    -169.599E-03     159.687E-03    -177.720E-03     346.710E-03    -169.395E-03     146.900E-03
            1785     6.07824E-03     46.7615E-03    -74.4643E+06    -143.400E+06    -22.0254E+06     206.822E+03    -173.522E-03     343.071E-03    -169.548E-03     142.649E-03    -176.117E-03     344.956E-03    -169.343E-03     131.838E-03
            1786     5.31880E-03     46.5952E-03    -81.2168E+06    -166.435E+06    -33.1319E+06     115.291E+03    -172.731E-03     342.212E-03    -169.481E-03     125.388E-03    -174.617E-03     343.315E-03    -169.287E-03     116.369E-03
            1787     4.55937E-03     46.4504E-03    -87.9507E+06    -185.047E+06    -47.3283E+06     170.230E+03    -171.847E-03     341.244E-03    -169.397E-03     107.891E-03    -173.178E-03     341.743E-03    -169.238E-03     100.504E-03
            1788     3.79936E-03     46.3269E-03    -94.3219E+06    -202.839E+06    -63.1504E+06     74.9463E+03    -171.076E-03     340.389E-03    -169.313E-03     90.2361E-03    -171.976E-03     340.417E-03    -169.198E-03     84.3167E-03
            1789     3.03984E-03     46.2251E-03    -100.436E+06    -217.863E+06    -77.5274E+06     78.1024E+03    -170.461E-03     339.691E-03    -169.230E-03     72.5157E-03    -171.038E-03     339.363E-03    -169.157E-03     67.9349E-03
            1790     2.27974E-03     46.1453E-03    -105.590E+06    -227.745E+06    -91.1605E+06     126.762E+03    -169.886E-03     339.022E-03    -169.136E-03     54.6134E-03    -170.229E-03     338.446E-03    -169.109E-03     51.2649E-03
            1791     1.52027E-03     46.0877E-03    -109.604E+06    -235.736E+06    -102.947E+06     30.9570E+03    -169.408E-03     338.462E-03    -169.055E-03     36.9103E-03    -169.591E-03     337.719E-03    -169.069E-03     34.6980E-03
            1792     759.902E-06     46.0521E-03    -112.097E+06    -240.675E+06    -110.325E+06     253.724E+03    -169.301E-03     338.125E-03    -168.823E-03     20.2566E-03    -169.393E-03     337.284E-03    -168.863E-03     19.0855E-03
            1793     14.4347E-03     48.1906E-03    -4.34102E+06     132.453E+06     93.0044E+06     452.607E+03    -167.772E-03     337.827E-03    -170.054E-03     117.398E-03    -175.269E-03     345.508E-03    -169.775E-03     101.507E-03
            1794     13.6679E-03     47.9782E-03    -10.5764E+06     131.029E+06     93.7683E+06     191.684E+03    -167.759E-03     337.812E-03    -170.053E-03     189.673E-03    -180.242E-03     350.451E-03    -169.759E-03     167.881E-03
            1795     12.9102E-03     47.7461E-03    -16.9005E+06     123.322E+06     93.4924E+06    -328.318E+03    -170.286E-03     340.328E-03    -170.043E-03     218.584E-03    -184.546E-03     354.695E-03    -169.730E-03     194.311E-03
            1796     12.1541E-03     47.4574E-03    -23.4318E+06     116.088E+06     90.0073E+06    -555.015E+03    -173.151E-03     343.138E-03    -169.987E-03     248.516E-03    -188.884E-03     358.939E-03    -169.671E-03     221.868E-03
            1797     11.3928E-03     47.1483E-03    -30.6346E+06     105.927E+06     76.1696E+06    -253.655E+03    -174.916E-03     344.792E-03    -169.876E-03     254.354E-03    -189.677E-03     359.599E-03    -169.605E-03     227.695E-03
            1798     10.6359E-03     46.8435E-03    -37.5806E+06     94.4281E+06     57.1299E+06     654.724E+03    -175.483E-03     345.233E-03    -169.750E-03     244.704E-03    -188.005E-03     357.791E-03    -169.546E-03     219.763E-03
            1799     9.87519E-03     46.5572E-03    -43.6747E+06     75.8042E+06     37.8499E+06     522.256E+03    -175.599E-03     345.238E-03    -169.639E-03     227.806E-03    -185.636E-03     355.279E-03    -169.496E-03     205.365E-03
            1800     9.11673E-03     46.2925E-03    -49.2764E+06     33.7404E+06     22.6297E+06     57.1174E+03    -175.567E-03     345.140E-03    -169.573E-03     209.048E-03    -183.380E-03     352.832E-03    -169.437E-03     189.260E-03
            1801     8.35760E-03     46.0484E-03    -55.3431E+06    -21.7294E+06     10.1695E+06    -17.0467E+03    -175.269E-03     344.800E-03    -169.530E-03     191.803E-03    -181.295E-03     350.522E-03    -169.368E-03     174.550E-03
            1802     7.59822E-03     45.8239E-03    -61.5728E+06    -70.8689E+06    -1.82466E+06     200.897E+03    -174.818E-03     344.298E-03    -169.480E-03     175.681E-03    -179.434E-03     348.449E-03    -169.297E-03     160.769E-03
            1803     6.83890E-03     45.6177E-03    -67.8860E+06    -112.761E+06    -11.6961E+06     189.583E+03    -174.278E-03     343.703E-03    -169.425E-03     159.141E-03    -177.765E-03     346.583E-03    -169.222E-03     146.368E-03
            1804     6.07967E-03     45.4313E-03    -74.4153E+06    -143.087E+06    -21.6432E+06     203.217E+03    -173.502E-03     342.849E-03    -169.347E-03     142.045E-03    -176.088E-03     344.725E-03    -169.140E-03     131.253E-03
            1805     5.32007E-03     45.2658E-03    -81.0953E+06    -166.003E+06    -32.8957E+06     36.2957E+03    -172.551E-03     341.809E-03    -169.257E-03     124.751E-03    -174.427E-03     342.903E-03    -169.064E-03     115.765E-03
            1806     4.56011E-03     45.1209E-03    -87.7986E+06    -185.177E+06    -47.1380E+06    -39.5950E+03    -171.669E-03     340.829E-03    -169.160E-03     107.280E-03    -172.992E-03     341.319E-03    -169.000E-03     99.9183E-03
            1807     3.80056E-03     44.9980E-03    -94.3092E+06    -202.838E+06    -63.0526E+06     266.764E+03    -170.924E-03     339.978E-03    -169.055E-03     89.7799E-03    -171.818E-03     340.001E-03    -168.939E-03     83.8845E-03
            1808     3.04046E-03     44.8961E-03    -100.126E+06    -217.504E+06    -77.4678E+06     263.775E+03    -170.251E-03     339.198E-03    -168.947E-03     72.2230E-03    -170.824E-03     338.868E-03    -168.874E-03     67.6638E-03
            1809     2.28090E-03     44.8168E-03    -105.335E+06    -227.274E+06    -91.1758E+06     65.2239E+03    -169.635E-03     338.468E-03    -168.833E-03     54.4634E-03    -169.976E-03     337.893E-03    -168.807E-03     51.1279E-03
            1810     1.52033E-03     44.7595E-03    -109.726E+06    -235.426E+06    -102.982E+06    -61.7883E+03    -169.136E-03     337.865E-03    -168.729E-03     36.8707E-03    -169.320E-03     337.123E-03    -168.744E-03     34.6656E-03
            1811     760.479E-06     44.7243E-03    -112.194E+06    -240.686E+06    -110.926E+06     421.918E+03    -168.879E-03     337.447E-03    -168.568E-03     20.3691E-03    -168.970E-03     336.607E-03    -168.611E-03     19.2135E-03
            1812     14.4268E-03     46.8632E-03    -5.14920E+06     132.129E+06     92.8782E+06    -59.7534E+03    -168.377E-03     338.444E-03    -170.067E-03     117.309E-03    -175.858E-03     346.107E-03    -169.787E-03     101.327E-03
            1813     13.6720E-03     46.6447E-03    -10.0053E+06     131.880E+06     95.1940E+06     355.146E+03    -168.577E-03     338.605E-03    -170.028E-03     188.358E-03    -180.984E-03     351.169E-03    -169.729E-03     166.506E-03
            1814     12.9135E-03     46.4123E-03    -15.9519E+06     124.335E+06     94.7339E+06     246.465E+03    -170.441E-03     340.423E-03    -169.982E-03     217.594E-03    -184.653E-03     354.745E-03    -169.665E-03     193.313E-03
            1815     12.1523E-03     46.1247E-03    -23.6961E+06     115.961E+06     89.4793E+06    -142.591E+03    -173.217E-03     343.124E-03    -169.907E-03     248.169E-03    -188.907E-03     358.882E-03    -169.594E-03     221.537E-03
            1816     11.3961E-03     45.8151E-03    -31.2267E+06     105.428E+06     74.9158E+06     85.0513E+03    -174.794E-03     344.583E-03    -169.790E-03     253.827E-03    -189.493E-03     359.329E-03    -169.523E-03     227.258E-03
            1817     10.6351E-03     45.5126E-03    -37.9430E+06     94.0890E+06     55.9077E+06    -358.803E+03    -175.537E-03     345.194E-03    -169.657E-03     244.278E-03    -188.039E-03     357.732E-03    -169.459E-03     219.339E-03
            1818     9.87707E-03     45.2251E-03    -43.7822E+06     75.7162E+06     37.2244E+06    -580.064E+03    -175.850E-03     345.375E-03    -169.525E-03     227.206E-03    -185.872E-03     355.402E-03    -169.385E-03     204.728E-03
            1819     9.11798E-03     44.9606E-03    -49.7105E+06     33.9901E+06     22.6311E+06    -104.883E+03    -175.622E-03     345.056E-03    -169.434E-03     208.394E-03    -183.418E-03     352.730E-03    -169.298E-03     188.618E-03
            1820     8.35887E-03     44.7179E-03    -55.8708E+06    -21.3152E+06     10.4178E+06     211.117E+03    -175.237E-03     344.610E-03    -169.373E-03     191.263E-03    -181.250E-03     350.318E-03    -169.209E-03     174.040E-03
            1821     7.59955E-03     44.4933E-03    -61.8823E+06    -70.9352E+06    -1.74571E+06     163.156E+03    -174.892E-03     344.191E-03    -169.298E-03     175.079E-03    -179.496E-03     348.328E-03    -169.115E-03     160.182E-03
            1822     6.84045E-03     44.2873E-03    -67.8746E+06    -112.526E+06    -11.6253E+06     304.726E+03    -174.305E-03     343.515E-03    -169.211E-03     158.473E-03    -177.777E-03     346.381E-03    -169.007E-03     145.726E-03
            1823     6.08101E-03     44.1017E-03    -74.1264E+06    -142.520E+06    -21.4048E+06     91.9127E+03    -173.415E-03     342.518E-03    -169.103E-03     141.370E-03    -175.986E-03     344.382E-03    -168.896E-03     130.609E-03
            1824     5.32148E-03     43.9365E-03    -80.6752E+06    -165.824E+06    -32.6851E+06     52.8975E+03    -172.433E-03     341.420E-03    -168.987E-03     124.100E-03    -174.296E-03     342.503E-03    -168.793E-03     115.149E-03
            1825     4.56186E-03     43.7926E-03    -87.6299E+06    -185.329E+06    -47.3487E+06     319.492E+03    -171.500E-03     340.362E-03    -168.861E-03     106.758E-03    -172.813E-03     340.842E-03    -168.702E-03     99.4333E-03
            1826     3.80161E-03     43.6693E-03    -94.1090E+06    -202.655E+06    -63.0900E+06     303.597E+03    -170.653E-03     339.390E-03    -168.737E-03     89.3208E-03    -171.541E-03     339.407E-03    -168.622E-03     83.4581E-03
            1827     3.04173E-03     43.5684E-03    -100.177E+06    -217.094E+06    -77.4383E+06     284.420E+03    -169.840E-03     338.473E-03    -168.633E-03     71.8600E-03    -170.410E-03     338.141E-03    -168.561E-03     67.3274E-03
            1828     2.28098E-03     43.4888E-03    -105.560E+06    -226.763E+06    -90.8771E+06     151.499E+03    -169.231E-03     337.780E-03    -168.550E-03     54.3450E-03    -169.573E-03     337.207E-03    -168.522E-03     51.0291E-03
            1829     1.52115E-03     43.4323E-03    -109.946E+06    -235.172E+06    -102.792E+06     4.71131E+03    -168.878E-03     337.339E-03    -168.461E-03     36.7628E-03    -169.063E-03     336.597E-03    -168.474E-03     34.5710E-03
            1830     760.360E-06     43.3968E-03    -112.821E+06    -240.500E+06    -110.400E+06     281.741E+03    -168.427E-03     336.896E-03    -168.469E-03     20.0460E-03    -168.522E-03     336.057E-03    -168.508E-03     18.8765E-03
            1831     14.4303E-03     45.5197E-03    -4.89930E+06     132.601E+06     93.0165E+06    -79.3170E+03    -168.714E-03     338.762E-03    -170.047E-03     115.809E-03    -176.179E-03     346.410E-03    -169.767E-03     99.7777E-03
            1832     13.6728E-03     45.3133E-03    -10.3158E+06     131.579E+06     94.4800E+06    -419.010E+03    -168.884E-03     338.870E-03    -169.985E-03     188.708E-03    -181.310E-03     351.452E-03    -169.688E-03     166.754E-03
            1833     12.9120E-03     45.0798E-03    -16.5769E+06     123.641E+06     93.8168E+06     406.765E+03    -170.837E-03     340.758E-03    -169.921E-03     218.926E-03    -185.067E-03     355.096E-03    -169.607E-03     194.595E-03
            1834     12.1562E-03     44.7907E-03    -23.0372E+06     116.715E+06     90.4848E+06      938.83E+03    -173.292E-03     343.131E-03    -169.839E-03     247.908E-03    -188.952E-03     358.860E-03    -169.522E-03     221.327E-03
            1835     11.3948E-03     44.4842E-03    -30.1284E+06     106.607E+06     76.1211E+06     279.720E+03    -174.911E-03     344.618E-03    -169.707E-03     253.239E-03    -189.585E-03     359.342E-03    -169.437E-03     226.678E-03
            1836     10.6374E-03     44.1797E-03    -36.8407E+06     95.2662E+06     56.6707E+06    -424.459E+03    -175.833E-03     345.379E-03    -169.546E-03     243.839E-03    -188.320E-03     357.910E-03    -169.348E-03     218.865E-03
            1837     9.87834E-03     43.8934E-03    -43.6031E+06     75.7680E+06     37.2469E+06    -219.507E+03    -175.974E-03     345.359E-03    -169.385E-03     226.716E-03    -185.978E-03     355.369E-03    -169.245E-03     204.245E-03
            1838     9.11938E-03     43.6295E-03    -50.2379E+06     33.1060E+06     22.1136E+06     28.8273E+03    -175.632E-03     344.904E-03    -169.272E-03     207.766E-03    -183.403E-03     352.550E-03    -169.137E-03     188.026E-03
            1839     8.36025E-03     43.3871E-03    -56.2326E+06    -21.0950E+06     10.4857E+06     73.5346E+03    -175.376E-03     344.561E-03    -169.185E-03     190.494E-03    -181.366E-03     350.246E-03    -169.020E-03     173.287E-03
            1840     7.60141E-03     43.1627E-03    -62.3206E+06    -70.7036E+06    -1.70974E+06     113.506E+03    -174.958E-03     344.032E-03    -169.074E-03     174.315E-03    -179.545E-03     348.151E-03    -168.889E-03     159.440E-03
            1841     6.84216E-03     42.9576E-03    -68.5127E+06    -112.114E+06    -12.3125E+06    -219.772E+03    -174.185E-03     343.139E-03    -168.953E-03     157.734E-03    -177.640E-03     345.988E-03    -168.753E-03     145.028E-03
            1842     6.08285E-03     42.7723E-03    -74.6283E+06    -142.342E+06    -22.4428E+06    -339.731E+03    -173.251E-03     342.074E-03    -168.823E-03     140.748E-03    -175.808E-03     343.926E-03    -168.621E-03     130.029E-03
            1843     5.32315E-03     42.6081E-03    -81.3296E+06    -166.553E+06    -33.4043E+06     145.291E+03    -172.287E-03     340.975E-03    -168.688E-03     123.592E-03    -174.141E-03     342.046E-03    -168.496E-03     114.676E-03
            1844     4.56308E-03     42.4643E-03    -88.1640E+06    -184.853E+06    -47.4443E+06     362.953E+03    -171.315E-03     339.852E-03    -168.537E-03     106.359E-03    -172.624E-03     340.329E-03    -168.378E-03     99.0660E-03
            1845     3.80323E-03     42.3421E-03    -94.6544E+06    -202.313E+06    -63.2231E+06     225.205E+03    -170.364E-03     338.755E-03    -168.391E-03     88.9340E-03    -171.249E-03     338.769E-03    -168.276E-03     83.1020E-03
            1846     3.04253E-03     42.2412E-03    -100.437E+06    -216.808E+06    -77.6383E+06     134.247E+03    -169.506E-03     337.779E-03    -168.273E-03     71.3529E-03    -170.074E-03     337.446E-03    -168.201E-03     66.8430E-03
            1847     2.28216E-03     42.1627E-03    -105.856E+06    -226.580E+06    -91.1116E+06     207.991E+03    -168.826E-03     337.014E-03    -168.188E-03     53.8491E-03    -169.166E-03     336.438E-03    -168.162E-03     50.5615E-03
            1848     1.52099E-03     42.1048E-03    -109.770E+06    -234.751E+06    -102.782E+06     241.084E+03    -168.424E-03     336.559E-03    -168.134E-03     36.4190E-03    -168.608E-03     335.817E-03    -168.149E-03     34.2455E-03
            1849     760.978E-06     42.0709E-03    -112.416E+06    -240.127E+06    -110.744E+06    -199.702E+03    -168.207E-03     336.299E-03    -168.092E-03     19.6902E-03    -168.300E-03     335.462E-03    -168.134E-03     18.5118E-03
            1850     14.4326E-03     44.1959E-03    -4.73901E+06     132.861E+06     93.3198E+06     145.681E+03    -168.675E-03     338.697E-03    -170.022E-03     116.433E-03    -176.112E-03     346.318E-03    -169.741E-03     100.453E-03
            1851     13.6691E-03     43.9760E-03    -10.7068E+06     131.053E+06     93.4474E+06     387.535E+03    -168.926E-03     338.884E-03    -169.958E-03     188.839E-03    -181.325E-03     351.439E-03    -169.665E-03     166.876E-03
            1852     12.9150E-03     43.7458E-03    -17.1502E+06     123.136E+06     92.8168E+06     52.9267E+03    -171.250E-03     341.126E-03    -169.876E-03     217.648E-03    -185.443E-03     355.426E-03    -169.566E-03     193.259E-03
            1853     12.1538E-03     43.4576E-03    -23.5951E+06     116.401E+06     89.9796E+06    -428.927E+03    -173.491E-03     343.259E-03    -169.768E-03     247.173E-03    -189.108E-03     358.945E-03    -169.453E-03     220.569E-03
            1854     11.3978E-03     43.1512E-03    -29.7298E+06     107.211E+06     77.5040E+06    -231.286E+03    -175.223E-03     344.839E-03    -169.616E-03     252.720E-03    -189.882E-03     359.549E-03    -169.341E-03     226.107E-03
            1855     10.6383E-03     42.8478E-03    -36.7609E+06     95.5614E+06     57.8592E+06     272.063E+03    -176.118E-03     345.541E-03    -169.424E-03     243.515E-03    -188.592E-03     358.057E-03    -169.220E-03     218.524E-03
            1856     9.87972E-03     42.5614E-03    -43.7015E+06     75.7168E+06     37.4746E+06     398.595E+03    -176.115E-03     345.343E-03    -169.228E-03     225.944E-03    -186.082E-03     355.315E-03    -169.087E-03     203.507E-03
            1857     9.12106E-03     42.2984E-03    -49.7990E+06     33.6318E+06     22.3251E+06     260.711E+03    -175.828E-03     344.908E-03    -169.079E-03     206.838E-03    -183.564E-03     352.521E-03    -168.944E-03     187.119E-03
            1858     8.36242E-03     42.0563E-03    -55.8911E+06    -21.1494E+06     10.1309E+06     291.344E+03    -175.485E-03     344.436E-03    -168.952E-03     189.681E-03    -181.444E-03     350.093E-03    -168.789E-03     172.509E-03
            1859     7.60339E-03     41.8326E-03    -61.8348E+06    -69.9908E+06    -1.77900E+06     327.146E+03    -174.884E-03     343.694E-03    -168.810E-03     173.488E-03    -179.442E-03     347.789E-03    -168.628E-03     158.669E-03
            1860     6.84422E-03     41.6283E-03    -68.0482E+06    -110.991E+06    -12.0786E+06     5.42902E+03    -174.025E-03     342.694E-03    -168.668E-03     157.003E-03    -177.460E-03     345.527E-03    -168.469E-03     144.353E-03
            1861     6.08449E-03     41.4438E-03    -74.9717E+06    -142.676E+06    -22.7263E+06    -66.0261E+03    -173.066E-03     341.584E-03    -168.518E-03     140.026E-03    -175.607E-03     343.419E-03    -168.316E-03     129.359E-03
            1862     5.32470E-03     41.2800E-03    -81.8610E+06    -166.720E+06    -33.5241E+06    -46.1815E+03    -172.066E-03     340.428E-03    -168.362E-03     122.870E-03    -173.909E-03     341.486E-03    -168.169E-03     113.995E-03
            1863     4.56487E-03     41.1370E-03    -88.4493E+06    -184.725E+06    -47.5089E+06    -113.165E+03    -171.049E-03     339.238E-03    -168.189E-03     105.666E-03    -172.350E-03     339.707E-03    -168.030E-03     98.4055E-03
            1864     3.80427E-03     41.0153E-03    -94.7037E+06    -202.186E+06    -63.4928E+06    -2.80903E+03    -170.075E-03     338.096E-03    -168.020E-03     88.3278E-03    -170.954E-03     338.105E-03    -167.907E-03     82.5248E-03
            1865     3.04401E-03     40.9153E-03    -100.688E+06    -216.768E+06    -77.8438E+06     182.837E+03    -169.244E-03     337.117E-03    -167.873E-03     70.9465E-03    -169.808E-03     336.780E-03    -167.802E-03     66.4664E-03
            1866     2.28315E-03     40.8367E-03    -105.591E+06    -226.212E+06    -91.2151E+06     193.117E+03    -168.561E-03     336.297E-03    -167.736E-03     53.5470E-03    -168.898E-03     335.720E-03    -167.711E-03     50.2764E-03
            1867     1.52248E-03     40.7803E-03    -109.842E+06    -234.332E+06    -102.905E+06     164.738E+03    -167.973E-03     335.610E-03    -167.637E-03     36.0298E-03    -168.156E-03     334.869E-03    -167.652E-03     33.8810E-03
            1868     760.574E-06     40.7444E-03    -112.507E+06    -239.584E+06    -110.695E+06     21.1531E+03    -167.640E-03     335.275E-03    -167.635E-03     19.4581E-03    -167.733E-03     334.439E-03    -167.678E-03     18.3028E-03
            1869     14.4269E-03     42.8553E-03    -4.95663E+06     132.617E+06     92.4528E+06     253.223E+03    -169.307E-03     339.332E-03    -170.025E-03     116.143E-03    -176.756E-03     346.966E-03    -169.748E-03     100.019E-03
            1870     13.6757E-03     42.6450E-03    -10.0581E+06     132.071E+06     94.7401E+06     564.828E+03    -169.942E-03     339.862E-03    -169.920E-03     188.458E-03    -182.355E-03     352.433E-03    -169.623E-03     166.364E-03
            1871     12.9130E-03     42.4105E-03    -15.8383E+06     124.681E+06     94.7287E+06     272.962E+03    -171.302E-03     341.104E-03    -169.801E-03     216.563E-03    -185.426E-03     355.339E-03    -169.486E-03     192.212E-03
            1872     12.1580E-03     42.1253E-03    -22.6212E+06     117.100E+06     90.7256E+06    -249.033E+03    -173.512E-03     343.188E-03    -169.676E-03     246.020E-03    -189.049E-03     358.797E-03    -169.359E-03     219.456E-03
            1873     11.3973E-03     41.8181E-03    -30.7128E+06     106.092E+06     76.6895E+06    -441.879E+03    -175.476E-03     344.978E-03    -169.503E-03     252.482E-03    -190.104E-03     359.652E-03    -169.229E-03     225.848E-03
            1874     10.6400E-03     41.5151E-03    -37.7162E+06     94.8516E+06     57.8522E+06    -79.7325E+03    -176.486E-03     345.765E-03    -169.279E-03     242.583E-03    -188.919E-03     358.233E-03    -169.073E-03     217.570E-03
            1875     9.88181E-03     41.2295E-03    -43.6910E+06     75.8154E+06     37.6560E+06     109.951E+03    -176.382E-03     345.420E-03    -169.038E-03     224.873E-03    -186.303E-03     355.346E-03    -168.896E-03     202.448E-03
            1876     9.12329E-03     40.9673E-03    -49.6281E+06     33.7513E+06     22.0738E+06     370.434E+03    -175.955E-03     344.802E-03    -168.847E-03     205.959E-03    -183.653E-03     352.380E-03    -168.714E-03     186.271E-03
            1877     8.36454E-03     40.7256E-03    -55.7327E+06    -20.6582E+06     10.0783E+06     394.433E+03    -175.450E-03     344.138E-03    -168.688E-03     188.840E-03    -181.378E-03     349.766E-03    -168.527E-03     171.722E-03
            1878     7.60563E-03     40.5033E-03    -61.8098E+06     -69.498E+06    -1.83060E+06     164.812E+03    -174.782E-03     343.303E-03    -168.521E-03     172.647E-03    -179.310E-03     347.370E-03    -168.340E-03     157.890E-03
            1879     6.84618E-03     40.2995E-03    -67.8439E+06    -110.962E+06    -11.4940E+06     556.574E+03    -173.931E-03     342.285E-03    -168.354E-03     156.063E-03    -177.342E-03     345.094E-03    -168.152E-03     143.470E-03
            1880     6.08679E-03     40.1160E-03    -74.1861E+06    -141.907E+06    -21.5946E+06     659.942E+03    -172.901E-03     341.074E-03    -168.173E-03     139.060E-03    -175.421E-03     342.890E-03    -167.968E-03     128.454E-03
            1881     5.32691E-03     39.9528E-03    -80.9189E+06    -165.941E+06    -33.2689E+06     167.110E+03    -171.813E-03     339.797E-03    -167.983E-03     121.975E-03    -173.637E-03     340.840E-03    -167.792E-03     113.158E-03
            1882     4.56646E-03     39.8106E-03    -87.7827E+06    -184.768E+06    -47.8703E+06    -42.7969E+03    -170.730E-03     338.516E-03    -167.786E-03     104.790E-03    -172.015E-03     338.972E-03    -167.630E-03     97.5780E-03
            1883     3.80618E-03     39.6896E-03    -94.4604E+06    -202.130E+06    -63.7125E+06     28.7443E+03    -169.724E-03     337.321E-03    -167.597E-03     87.5639E-03    -170.594E-03     337.322E-03    -167.485E-03     81.8000E-03
            1884     3.04505E-03     39.5901E-03    -100.363E+06    -216.664E+06    -77.8735E+06     77.3623E+03    -168.877E-03     336.304E-03    -167.427E-03     70.3523E-03    -169.434E-03     335.961E-03    -167.357E-03     65.9049E-03
            1885     2.28411E-03     39.5120E-03    -105.717E+06    -225.988E+06    -91.0697E+06     130.262E+03    -168.183E-03     335.443E-03    -167.260E-03     53.1157E-03    -168.519E-03     334.865E-03    -167.234E-03     49.8664E-03
            1886     1.52290E-03     39.4555E-03    -109.672E+06    -233.979E+06    -102.934E+06     164.849E+03    -167.629E-03     334.717E-03    -167.087E-03     35.8333E-03    -167.810E-03     333.977E-03    -167.104E-03     33.6998E-03
            1887     762.179E-06     39.4218E-03    -112.019E+06    -239.124E+06    -110.512E+06    -317.688E+03    -167.060E-03     334.073E-03    -167.014E-03     19.2569E-03    -167.151E-03     333.238E-03    -167.057E-03     18.1114E-03
            1888     14.4336E-03     41.5220E-03    -5.70033E+06     132.074E+06     92.3206E+06    -102.829E+03    -170.181E-03     340.187E-03    -170.005E-03     116.094E-03    -177.646E-03     347.833E-03    -169.727E-03     99.8505E-03
            1889     13.6699E-03     41.3072E-03    -10.6081E+06     131.720E+06     94.4653E+06    -456.368E+03    -170.258E-03     340.117E-03    -169.859E-03     187.313E-03    -182.640E-03     352.655E-03    -169.563E-03     165.131E-03
            1890     12.9180E-03     41.0765E-03    -15.7245E+06     124.962E+06     94.9265E+06    -282.732E+03    -171.415E-03     341.138E-03    -169.722E-03     216.114E-03    -185.486E-03     355.321E-03    -169.406E-03     191.771E-03
            1891     12.1566E-03     40.7928E-03    -22.6660E+06     117.202E+06     90.8991E+06     651.240E+03    -173.904E-03     343.481E-03    -169.577E-03     246.079E-03    -189.425E-03     359.074E-03    -169.259E-03     219.487E-03
            1892     11.4002E-03     40.4851E-03    -29.7078E+06     107.245E+06     77.3550E+06     761.538E+03    -176.087E-03     345.449E-03    -169.362E-03     251.780E-03    -190.673E-03     360.086E-03    -169.088E-03     225.101E-03
            1893     10.6419E-03     40.1819E-03    -37.0433E+06     95.3392E+06     57.4877E+06     97.9005E+03    -176.696E-03     345.784E-03    -169.089E-03     241.301E-03    -189.057E-03     358.186E-03    -168.886E-03     216.321E-03
            1894     9.88391E-03     39.8980E-03    -44.2275E+06     75.2713E+06     36.7350E+06     78.4677E+03    -176.498E-03     345.311E-03    -168.813E-03     223.978E-03    -186.371E-03     355.189E-03    -168.675E-03     201.591E-03
            1895     9.12564E-03     39.6360E-03    -50.7582E+06     33.7557E+06     21.3714E+06     263.742E+03    -176.033E-03     344.624E-03    -168.591E-03     205.107E-03    -183.694E-03     352.163E-03    -168.459E-03     185.472E-03
            1896     8.36704E-03     39.3960E-03    -56.9272E+06    -19.7430E+06     9.78882E+06     38.3621E+03    -175.449E-03     343.848E-03    -168.399E-03     187.821E-03    -181.344E-03     349.442E-03    -168.239E-03     170.760E-03
            1897     7.60787E-03     39.1740E-03    -63.0206E+06    -69.3976E+06    -1.89810E+06    -41.0170E+03    -174.764E-03     342.960E-03    -168.196E-03     171.522E-03    -179.268E-03     346.999E-03    -168.014E-03     156.814E-03
            1898     6.84888E-03     38.9714E-03    -68.9375E+06    -111.292E+06    -12.3628E+06    -195.236E+03    -173.829E-03     341.814E-03    -167.985E-03     154.870E-03    -177.214E-03     344.595E-03    -167.786E-03     142.330E-03
            1899     6.08912E-03     38.7886E-03    -74.6967E+06    -141.818E+06    -22.4592E+06    -104.603E+03    -172.701E-03     340.466E-03    -167.765E-03     137.962E-03    -175.201E-03     342.262E-03    -167.563E-03     127.406E-03
            1900     5.32903E-03     38.6265E-03    -80.9974E+06    -165.556E+06    -33.4696E+06     389.847E+03    -171.524E-03     339.068E-03    -167.544E-03     120.929E-03    -173.331E-03     340.097E-03    -167.354E-03     112.170E-03
            1901     4.56884E-03     38.4851E-03    -87.9275E+06    -184.206E+06    -47.7529E+06     406.211E+03    -170.365E-03     337.684E-03    -167.319E-03     103.813E-03    -171.637E-03     338.129E-03    -167.163E-03     96.6614E-03
            1902     3.80775E-03     38.3651E-03    -94.5235E+06    -201.841E+06    -63.6013E+06     150.097E+03    -169.331E-03     336.434E-03    -167.103E-03     86.7246E-03    -170.192E-03     336.428E-03    -166.991E-03     81.0056E-03
            1903     3.04692E-03     38.2660E-03    -100.644E+06    -216.405E+06    -77.8855E+06     96.6327E+03    -168.409E-03     335.318E-03    -166.909E-03     69.6427E-03    -168.962E-03     334.971E-03    -166.838E-03     65.2299E-03
            1904     2.28553E-03     38.1885E-03    -105.743E+06    -225.825E+06    -91.4460E+06    -38.4463E+03    -167.596E-03     334.334E-03    -166.738E-03     52.5878E-03    -167.928E-03     333.753E-03    -166.714E-03     49.3693E-03
            1905     1.52379E-03     38.1329E-03    -109.527E+06    -233.757E+06    -102.997E+06    -175.380E+03    -166.984E-03     333.602E-03    -166.618E-03     35.5813E-03    -167.164E-03     332.862E-03    -166.635E-03     33.4583E-03
            1906     761.634E-06     38.0983E-03    -112.077E+06    -238.942E+06    -110.444E+06     32.7115E+03    -166.727E-03     333.221E-03    -166.494E-03     19.3957E-03    -166.819E-03     332.387E-03    -166.537E-03     18.2564E-03
            1907     14.4278E-03     40.1832E-03    -5.05037E+06     132.850E+06     93.2104E+06    -224.201E+03    -170.414E-03     340.380E-03    -169.965E-03     116.177E-03    -177.835E-03     347.984E-03    -169.684E-03     99.9310E-03
            1908     13.6783E-03     39.9725E-03    -9.97529E+06     132.344E+06     94.8881E+06    -278.412E+03    -170.172E-03     339.984E-03    -169.812E-03     186.857E-03    -182.479E-03     352.450E-03    -169.515E-03     164.734E-03
            1909     12.9144E-03     39.7434E-03    -16.6240E+06     124.152E+06     93.8415E+06    -21.4311E+03    -171.821E-03     341.481E-03    -169.660E-03     215.820E-03    -185.859E-03     355.628E-03    -169.346E-03     191.416E-03
            1910     12.1594E-03     39.4582E-03    -23.5459E+06     116.798E+06     89.9727E+06    -245.728E+03    -174.857E-03     344.321E-03    -169.464E-03     245.276E-03    -190.348E-03     359.883E-03    -169.150E-03     218.515E-03
            1911     11.4016E-03     39.1505E-03    -30.4627E+06     106.866E+06     76.8979E+06    -3.14718E+03    -176.527E-03     345.718E-03    -169.191E-03     250.744E-03    -191.060E-03     360.299E-03    -168.917E-03     224.031E-03
            1912     10.6445E-03     38.8500E-03    -37.1429E+06     95.2483E+06     57.6811E+06     1.02475E+06    -176.845E-03     345.726E-03    -168.881E-03     240.562E-03    -189.146E-03     358.066E-03    -168.677E-03     215.650E-03
            1913     9.88632E-03     38.5659E-03    -44.0507E+06     75.8564E+06     37.0121E+06     1.12834E+06    -176.672E-03     345.244E-03    -168.572E-03     223.063E-03    -186.492E-03     355.069E-03    -168.433E-03     200.735E-03
            1914     9.12809E-03     38.3054E-03    -50.4752E+06     35.3046E+06     21.7967E+06     395.932E+03    -176.174E-03     344.482E-03    -168.308E-03     203.860E-03    -183.786E-03     351.976E-03    -168.177E-03     184.278E-03
            1915     8.36952E-03     38.0660E-03    -56.1620E+06    -19.0853E+06     10.0846E+06     37.1765E+03    -175.573E-03     343.640E-03    -168.067E-03     186.429E-03    -181.422E-03     349.193E-03    -167.908E-03     169.418E-03
            1916     7.61107E-03     37.8454E-03    -61.7020E+06    -69.1117E+06    -1.67459E+06    -28.6924E+03    -174.742E-03     342.556E-03    -167.814E-03     170.136E-03    -179.204E-03     346.559E-03    -167.632E-03     155.485E-03
            1917     6.85164E-03     37.6437E-03    -67.7785E+06    -110.618E+06    -11.9904E+06    -118.729E+03    -173.664E-03     341.223E-03    -167.560E-03     153.568E-03    -177.014E-03     343.975E-03    -167.361E-03     141.096E-03
            1918     6.09205E-03     37.4624E-03    -74.6868E+06    -142.366E+06    -22.7653E+06    -80.1565E+03    -172.484E-03     339.782E-03    -167.299E-03     136.713E-03    -174.958E-03     341.552E-03    -167.098E-03     126.218E-03
            1919     5.33197E-03     37.3011E-03    -81.7368E+06    -165.723E+06    -33.5970E+06     89.7443E+03    -171.187E-03     338.227E-03    -167.040E-03     119.688E-03    -172.978E-03     339.237E-03    -166.850E-03     110.986E-03
            1920     4.57103E-03     37.1610E-03    -88.1976E+06    -183.653E+06    -47.1812E+06     129.636E+03    -169.936E-03     336.721E-03    -166.785E-03     102.772E-03    -171.196E-03     337.153E-03    -166.627E-03     95.6755E-03
            1921     3.81022E-03     37.0415E-03    -94.5157E+06    -201.538E+06    -63.2729E+06     140.169E+03    -168.857E-03     335.397E-03    -166.541E-03     85.8651E-03    -169.709E-03     335.382E-03    -166.428E-03     80.1966E-03
            1922     3.04856E-03     36.9434E-03    -100.553E+06    -216.081E+06    -77.8708E+06     63.1932E+03    -167.836E-03     334.163E-03    -166.326E-03     68.8867E-03    -168.383E-03     333.811E-03    -166.257E-03     64.5143E-03
            1923     2.28658E-03     36.8668E-03    -105.831E+06    -225.403E+06    -91.1839E+06     17.0250E+03    -166.964E-03     333.121E-03    -166.157E-03     52.0024E-03    -167.293E-03     332.539E-03    -166.133E-03     48.8150E-03
            1924     1.52451E-03     36.8112E-03    -110.134E+06    -233.887E+06    -103.439E+06    -7.47086E+03    -166.343E-03     332.401E-03    -166.058E-03     34.9792E-03    -166.522E-03     331.659E-03    -166.076E-03     32.8772E-03
            1925     762.083E-06     36.7781E-03    -112.552E+06    -238.779E+06    -110.968E+06    -117.915E+03    -166.225E-03     332.128E-03    -165.902E-03     18.9488E-03    -166.318E-03     331.295E-03    -165.948E-03     17.8229E-03
            1926     14.4354E-03     38.8465E-03    -4.95399E+06     132.917E+06     92.6040E+06    -198.679E+03    -170.219E-03     340.145E-03    -169.926E-03     115.597E-03    -177.596E-03     347.709E-03    -169.649E-03     99.4045E-03
            1927     13.6703E-03     38.6374E-03    -10.8580E+06     131.457E+06     93.7211E+06    -319.290E+03    -170.289E-03     340.063E-03    -169.774E-03     186.490E-03    -182.550E-03     352.480E-03    -169.481E-03     164.356E-03
            1928     12.9186E-03     38.4077E-03    -16.6115E+06     124.245E+06     93.8916E+06    -172.745E+03    -172.999E-03     342.580E-03    -169.582E-03     214.955E-03    -187.001E-03     356.692E-03    -169.268E-03     190.364E-03
            1929     12.1607E-03     38.1224E-03    -23.2928E+06     117.108E+06     90.0215E+06     145.269E+03    -175.453E-03     344.774E-03    -169.320E-03     244.227E-03    -190.866E-03     360.258E-03    -169.006E-03     217.425E-03
            1930     11.4042E-03     37.8175E-03    -31.0780E+06     106.201E+06     75.3212E+06     418.197E+03    -176.704E-03     345.706E-03    -169.001E-03     249.611E-03    -191.141E-03     360.191E-03    -168.734E-03     222.963E-03
            1931     10.6462E-03     37.5168E-03    -38.3796E+06     94.3448E+06     56.5969E+06     267.114E+03    -177.212E-03     345.868E-03    -168.656E-03     239.507E-03    -189.452E-03     358.143E-03    -168.454E-03     214.597E-03
            1932     9.88895E-03     37.2342E-03    -43.7147E+06     76.9338E+06     38.3305E+06     191.356E+03    -177.029E-03     345.328E-03    -168.299E-03     221.579E-03    -186.791E-03     355.097E-03    -168.156E-03     199.260E-03
            1933     9.13111E-03     36.9746E-03    -48.6720E+06     36.2556E+06     23.2298E+06     234.015E+03    -176.353E-03     344.329E-03    -167.976E-03     202.266E-03    -183.902E-03     351.767E-03    -167.842E-03     182.730E-03
            1934     8.37314E-03     36.7364E-03    -54.3096E+06    -19.1116E+06     10.6718E+06     287.598E+03    -175.614E-03     343.294E-03    -167.680E-03     184.929E-03    -181.410E-03     348.799E-03    -167.520E-03     167.977E-03
            1935     7.61419E-03     36.5173E-03    -60.5029E+06    -68.6654E+06    -1.57382E+06     414.864E+03    -174.642E-03     342.019E-03    -167.376E-03     168.609E-03    -179.057E-03     345.979E-03    -167.197E-03     154.040E-03
            1936     6.85507E-03     36.3171E-03    -67.1765E+06    -110.587E+06    -11.2947E+06     908.957E+03    -173.492E-03     340.573E-03    -167.081E-03     152.198E-03    -176.810E-03     343.293E-03    -166.880E-03     139.807E-03
            1937     6.09521E-03     36.1367E-03    -74.0123E+06    -141.455E+06    -21.4333E+06     1.04823E+06    -172.201E-03     338.978E-03    -166.778E-03     135.333E-03    -174.648E-03     340.723E-03    -166.572E-03     124.927E-03
            1938     5.33483E-03     35.9770E-03    -80.8254E+06    -164.750E+06    -32.9456E+06     214.523E+03    -170.803E-03     337.279E-03    -166.476E-03     118.430E-03    -172.570E-03     338.270E-03    -166.285E-03     109.805E-03
            1939     4.57409E-03     35.8382E-03    -87.8762E+06    -183.814E+06    -47.3290E+06    -32.9906E+03    -169.517E-03     335.697E-03    -166.181E-03     101.701E-03    -170.762E-03     336.115E-03    -166.023E-03     94.6597E-03
            1940     3.81234E-03     35.7194E-03    -94.6434E+06    -201.318E+06    -63.5402E+06     215.219E+03    -168.301E-03     334.203E-03    -165.902E-03     84.7686E-03    -169.142E-03     334.178E-03    -165.791E-03     79.1585E-03
            1941     3.05060E-03     35.6227E-03    -100.530E+06    -215.567E+06    -77.9456E+06     178.104E+03    -167.235E-03     332.897E-03    -165.662E-03     67.8996E-03    -167.773E-03     332.540E-03    -165.594E-03     63.5777E-03
            1942     2.28839E-03     35.5464E-03    -106.280E+06    -225.458E+06    -91.5910E+06     190.243E+03    -166.355E-03     331.816E-03    -165.461E-03     51.0760E-03    -166.681E-03     331.231E-03    -165.438E-03     47.9247E-03
            1943     1.52562E-03     35.4919E-03    -110.598E+06    -233.504E+06    -103.397E+06     216.138E+03    -165.739E-03     331.042E-03    -165.303E-03     34.4647E-03    -165.919E-03     330.300E-03    -165.321E-03     32.3954E-03
            1944     763.239E-06     35.4576E-03    -113.097E+06    -238.566E+06    -111.643E+06     114.114E+03    -165.342E-03     330.528E-03    -165.186E-03     18.9073E-03    -165.436E-03     329.698E-03    -165.235E-03     17.8001E-03
            1945     14.4294E-03     37.5161E-03    -4.62535E+06     133.403E+06     93.1831E+06     100.469E+03    -171.038E-03     340.958E-03    -169.919E-03     115.606E-03    -178.402E-03     348.508E-03    -169.640E-03     99.2810E-03
            1946     13.6779E-03     37.3002E-03    -10.0581E+06     132.385E+06     94.6469E+06     68.4462E+03    -171.615E-03     341.323E-03    -169.707E-03     185.826E-03    -183.812E-03     353.679E-03    -169.411E-03     163.520E-03
            1947     12.9180E-03     37.0708E-03    -17.0897E+06     123.753E+06     93.1986E+06    -109.873E+03    -173.456E-03     342.909E-03    -169.452E-03     213.783E-03    -187.364E-03     356.925E-03    -169.141E-03     189.170E-03
            1948     12.1629E-03     36.7869E-03    -24.4130E+06     116.046E+06     88.8661E+06     242.914E+03    -175.672E-03     344.828E-03    -169.157E-03     242.900E-03    -190.976E-03     360.200E-03    -168.845E-03     216.146E-03
            1949     11.4058E-03     36.4835E-03    -30.7772E+06     106.692E+06     75.7318E+06     502.256E+03    -177.193E-03     345.993E-03    -168.799E-03     248.304E-03    -191.546E-03     360.396E-03    -168.531E-03     221.653E-03
            1950     10.6494E-03     36.1841E-03    -36.7952E+06     96.0489E+06     57.4546E+06    -242.719E+03    -177.771E-03     346.162E-03    -168.391E-03     238.003E-03    -189.950E-03     358.385E-03    -168.189E-03     213.048E-03
            1951     9.89234E-03     35.9018E-03    -43.2345E+06     76.9561E+06     38.0569E+06    -846.379E+03    -177.291E-03     345.258E-03    -167.967E-03     219.804E-03    -186.980E-03     354.956E-03    -167.826E-03     197.504E-03
            1952     9.13492E-03     35.6446E-03    -49.6977E+06     35.2371E+06     22.2857E+06    -226.320E+03    -176.474E-03     344.061E-03    -167.587E-03     200.731E-03    -183.968E-03     351.439E-03    -167.455E-03     181.247E-03
            1953     8.37647E-03     35.4072E-03    -56.1351E+06    -18.9921E+06     9.84315E+06     290.101E+03    -175.552E-03     342.792E-03    -167.240E-03     183.314E-03    -181.302E-03     348.247E-03    -167.082E-03     166.448E-03
            1954     7.61808E-03     35.1900E-03    -62.5183E+06    -68.8741E+06    -2.14156E+06     677.667E+03    -174.496E-03     341.388E-03    -166.892E-03     167.014E-03    -178.873E-03     345.305E-03    -166.712E-03     152.537E-03
            1955     6.85863E-03     34.9912E-03      -68.66E+06    -110.452E+06    -12.2992E+06     799.543E+03    -173.287E-03     339.831E-03    -166.544E-03     150.723E-03    -176.575E-03     342.519E-03    -166.346E-03     138.413E-03
            1956     6.09890E-03     34.8122E-03    -74.5306E+06    -140.174E+06    -21.7805E+06     317.092E+03    -171.840E-03     338.036E-03    -166.196E-03     133.855E-03    -174.260E-03     339.757E-03    -165.994E-03     123.529E-03
            1957     5.33821E-03     34.6544E-03    -80.9077E+06    -164.208E+06    -32.7220E+06     401.178E+03    -170.434E-03     336.287E-03    -165.854E-03     117.058E-03    -172.179E-03     337.258E-03    -165.662E-03     108.508E-03
            1958     4.57685E-03     34.5161E-03    -87.9535E+06    -183.726E+06    -47.5258E+06     510.358E+03    -169.072E-03     334.579E-03    -165.507E-03     100.332E-03    -170.300E-03     334.980E-03    -165.351E-03     93.3656E-03
            1959     3.81547E-03     34.3994E-03    -94.6661E+06    -201.054E+06    -63.6255E+06     468.521E+03    -167.716E-03     332.900E-03    -165.185E-03     83.5316E-03    -168.544E-03     332.863E-03    -165.074E-03     77.9897E-03
            1960     3.05288E-03     34.3032E-03    -100.763E+06    -215.274E+06    -77.8749E+06     599.409E+03    -166.567E-03     331.479E-03    -164.912E-03     67.0208E-03    -167.100E-03     331.116E-03    -164.843E-03     62.7564E-03
            1961     2.29014E-03     34.2280E-03    -105.811E+06    -224.703E+06    -91.1538E+06     433.993E+03    -165.662E-03     330.341E-03    -164.679E-03     50.4373E-03    -165.983E-03     329.753E-03    -164.655E-03     47.3320E-03
            1962     1.52715E-03     34.1743E-03    -110.416E+06    -233.331E+06    -103.796E+06     191.219E+03    -164.924E-03     329.427E-03    -164.503E-03     34.2095E-03    -165.101E-03     328.685E-03    -164.523E-03     32.1657E-03
            1963     763.307E-06     34.1403E-03    -113.314E+06    -238.095E+06    -111.135E+06     281.459E+03    -164.352E-03     328.937E-03    -164.585E-03     18.6936E-03    -164.448E-03     328.109E-03    -164.632E-03     17.5933E-03
            1964     14.4325E-03     36.1699E-03    -4.72955E+06     133.329E+06     92.9617E+06     88.9705E+03    -172.056E-03     341.927E-03    -169.870E-03     113.448E-03    -179.354E-03     349.411E-03    -169.592E-03     97.0463E-03
            1965     13.6752E-03     35.9645E-03    -10.8613E+06     131.752E+06     93.5623E+06     387.443E+03    -172.351E-03     341.953E-03    -169.602E-03     185.286E-03    -184.502E-03     354.263E-03    -169.310E-03     162.867E-03
            1966     12.9219E-03     35.7337E-03    -17.2070E+06     123.727E+06     92.9113E+06     583.487E+03    -173.975E-03     343.282E-03    -169.306E-03     213.154E-03    -187.799E-03     357.214E-03    -168.996E-03     188.531E-03
            1967     12.1649E-03     35.4519E-03    -23.4374E+06     116.977E+06     89.9797E+06     246.518E+03    -176.146E-03     345.116E-03    -168.970E-03     241.391E-03    -191.352E-03     360.393E-03    -168.656E-03     214.623E-03
            1968     11.4088E-03     35.1492E-03    -30.0237E+06     107.375E+06     76.7570E+06    -862.086E+03    -177.814E-03     346.367E-03    -168.553E-03     246.721E-03    -192.099E-03     360.704E-03    -168.281E-03     219.987E-03
            1969     10.6527E-03     34.8493E-03    -36.7375E+06     96.0445E+06     57.5003E+06    -711.453E+03    -178.087E-03     346.165E-03    -168.078E-03     236.312E-03    -190.183E-03     358.304E-03    -167.876E-03     211.380E-03
            1970     9.89615E-03     34.5711E-03    -43.6177E+06     76.3031E+06     37.2716E+06     330.143E+03    -177.519E-03     345.114E-03    -167.595E-03     218.308E-03    -187.137E-03     354.740E-03    -167.456E-03     196.076E-03
            1971     9.13845E-03     34.3137E-03    -50.5741E+06     35.5238E+06     21.8002E+06     601.674E+03    -176.562E-03     343.722E-03    -167.160E-03     198.966E-03    -183.993E-03     351.037E-03    -167.029E-03     179.568E-03
            1972     8.38103E-03     34.0794E-03    -57.0818E+06    -18.1322E+06     9.61438E+06     543.863E+03    -175.444E-03     342.207E-03    -166.763E-03     181.646E-03    -181.139E-03     347.607E-03    -166.606E-03     164.888E-03
            1973     7.62187E-03     33.8633E-03    -63.0176E+06    -69.1347E+06    -2.79861E+06     411.688E+03    -174.400E-03     340.762E-03    -166.362E-03     165.558E-03    -178.737E-03     344.638E-03    -166.185E-03     151.160E-03
            1974     6.86285E-03     33.6661E-03    -68.6305E+06    -109.101E+06    -12.8907E+06     44.5893E+03    -173.065E-03     339.023E-03    -165.958E-03     149.005E-03    -176.312E-03     341.677E-03    -165.765E-03     136.781E-03
            1975     6.10251E-03     33.4894E-03    -74.9120E+06    -139.837E+06    -23.0042E+06    -238.718E+03    -171.525E-03     337.080E-03    -165.554E-03     132.186E-03    -173.913E-03     338.772E-03    -165.358E-03     121.941E-03
            1976     5.34183E-03     33.3324E-03    -81.6241E+06    -165.166E+06    -33.5072E+06     138.577E+03    -170.030E-03     335.192E-03    -165.162E-03     115.516E-03    -171.752E-03     336.135E-03    -164.971E-03     107.043E-03
            1977     4.58071E-03     33.1963E-03    -88.2334E+06    -183.323E+06    -47.2480E+06     672.947E+03    -168.462E-03     333.236E-03    -164.774E-03     98.8888E-03    -169.671E-03     333.618E-03    -164.616E-03     92.0108E-03
            1978     3.81807E-03     33.0808E-03    -94.4377E+06    -200.775E+06    -63.4725E+06     739.549E+03    -167.050E-03     331.469E-03    -164.418E-03     82.4946E-03    -167.865E-03     331.420E-03    -164.308E-03     77.0231E-03
            1979     3.05551E-03     32.9860E-03    -100.227E+06    -214.780E+06    -77.7886E+06     571.184E+03    -165.846E-03     329.963E-03    -164.118E-03     66.1450E-03    -166.370E-03     329.594E-03    -164.050E-03     61.9327E-03
            1980     2.29195E-03     32.9117E-03    -105.802E+06    -224.119E+06    -90.9612E+06     524.263E+03    -164.821E-03     328.696E-03    -163.875E-03     49.8009E-03    -165.138E-03     328.106E-03    -163.852E-03     46.7404E-03
            1981     1.52809E-03     32.8584E-03    -109.861E+06    -232.472E+06    -103.015E+06     453.432E+03    -164.111E-03     327.816E-03    -163.705E-03     33.6318E-03    -164.286E-03     327.074E-03    -163.724E-03     31.6166E-03
            1982     764.186E-06     32.8259E-03    -112.391E+06    -237.597E+06    -111.182E+06    -75.1435E+03    -163.774E-03     327.339E-03    -163.565E-03     18.6241E-03    -163.866E-03     326.511E-03    -163.613E-03     17.5349E-03
            1983     14.4356E-03     34.8417E-03    -4.70168E+06     133.279E+06     92.6141E+06     639.531E+03    -173.237E-03     343.052E-03    -169.815E-03     114.683E-03    -180.544E-03     350.546E-03    -169.538E-03     98.1528E-03
            1984     13.6785E-03     34.6228E-03    -10.8947E+06     131.663E+06     93.1332E+06     417.074E+03    -173.163E-03     342.654E-03    -169.491E-03     184.829E-03    -185.259E-03     354.909E-03    -169.201E-03     162.302E-03
            1985     12.9225E-03     34.3969E-03    -16.7593E+06     124.209E+06     93.3623E+06    -107.155E+03    -174.594E-03     343.739E-03    -169.145E-03     211.134E-03    -188.299E-03     357.555E-03    -168.834E-03     186.472E-03
            1986     12.1674E-03     34.1160E-03    -22.6413E+06     117.797E+06     90.7541E+06    -695.868E+03    -176.879E-03     345.630E-03    -168.751E-03     240.471E-03    -192.020E-03     360.845E-03    -168.435E-03     213.601E-03
            1987     11.4127E-03     33.8128E-03    -29.7728E+06     107.588E+06     76.5753E+06    -342.396E+03    -178.318E-03     346.587E-03    -168.269E-03     245.436E-03    -192.517E-03     360.840E-03    -167.999E-03     218.694E-03
            1988     10.6566E-03     33.5179E-03    -37.7075E+06     95.0547E+06      56.321E+06     200.523E+03    -178.382E-03     346.117E-03    -167.735E-03     234.809E-03    -190.379E-03     358.155E-03    -167.537E-03     209.951E-03
            1989     9.89959E-03     33.2379E-03    -44.6091E+06     75.7154E+06     36.6563E+06     504.524E+03    -177.724E-03     344.923E-03    -167.199E-03     216.677E-03    -187.267E-03     354.470E-03    -167.061E-03     194.514E-03
            1990     9.14341E-03     32.9845E-03    -50.3471E+06     36.2777E+06     21.9794E+06     922.074E+03    -176.574E-03     343.285E-03    -166.710E-03     197.174E-03    -183.932E-03     350.529E-03    -166.580E-03     177.883E-03
            1991     8.38455E-03     32.7518E-03    -55.9986E+06    -17.2986E+06     9.83185E+06     818.844E+03    -175.495E-03     341.751E-03    -166.256E-03     180.047E-03    -181.131E-03     347.099E-03    -166.100E-03     163.374E-03
            1992     7.62645E-03     32.5372E-03    -61.9109E+06    -68.2721E+06    -2.70021E+06     298.067E+03    -174.335E-03     340.127E-03    -165.792E-03     163.735E-03    -178.619E-03     343.956E-03    -165.617E-03     149.421E-03
            1993     6.86693E-03     32.3423E-03    -68.2697E+06    -108.316E+06    -13.1075E+06     174.484E+03    -172.817E-03     338.143E-03    -165.326E-03     147.090E-03    -176.020E-03     340.757E-03    -165.136E-03     134.968E-03
            1994     6.10706E-03     32.1673E-03    -74.6752E+06    -139.746E+06    -23.5579E+06     244.100E+03    -171.208E-03     336.071E-03    -164.863E-03     130.528E-03    -173.560E-03     337.731E-03    -164.670E-03     120.382E-03
            1995     5.34610E-03     32.0124E-03    -81.2953E+06    -165.512E+06    -34.4145E+06     282.475E+03    -169.481E-03     333.901E-03    -164.420E-03     113.961E-03    -171.174E-03     334.817E-03    -164.234E-03     105.585E-03
            1996     4.58383E-03     31.8780E-03    -88.0463E+06    -183.321E+06    -47.7558E+06     443.654E+03    -167.771E-03     331.773E-03    -164.001E-03     97.5022E-03    -168.960E-03     332.136E-03    -163.846E-03     90.7071E-03
            1997     3.82138E-03     31.7644E-03    -94.4644E+06    -200.481E+06    -63.6244E+06     581.966E+03    -166.328E-03     329.951E-03    -163.623E-03     81.3604E-03    -167.131E-03     329.892E-03    -163.513E-03     75.9532E-03
            1998     3.05779E-03     31.6703E-03    -100.446E+06    -214.315E+06    -78.1684E+06     624.973E+03    -165.098E-03     328.392E-03    -163.295E-03     65.1248E-03    -165.615E-03     328.018E-03    -163.229E-03     60.9669E-03
            1999     2.29400E-03     31.5981E-03    -105.676E+06    -223.416E+06    -91.3525E+06     416.500E+03    -164.053E-03     327.072E-03    -163.019E-03     48.9410E-03    -164.366E-03     326.482E-03    -162.999E-03     45.9164E-03
            2000     1.52949E-03     31.5447E-03    -109.891E+06    -231.644E+06    -102.674E+06     420.478E+03    -163.303E-03     326.111E-03    -162.809E-03     32.9675E-03    -163.477E-03     325.371E-03    -162.827E-03     30.9872E-03
            2001     764.868E-06     31.5129E-03    -113.121E+06    -236.936E+06    -110.479E+06     591.979E+03    -162.964E-03     325.488E-03    -162.524E-03     18.4073E-03    -163.060E-03     324.662E-03    -162.569E-03     17.3594E-03
            2002     14.4298E-03     33.4922E-03    -5.20576E+06     132.933E+06     92.5786E+06     627.435E+03    -174.708E-03     344.505E-03    -169.797E-03     114.126E-03    -182.013E-03     351.995E-03    -169.519E-03     97.3546E-03
            2003     13.6806E-03     33.2852E-03    -9.37599E+06     133.446E+06     95.5949E+06     295.676E+03    -174.557E-03     343.949E-03    -169.392E-03     183.101E-03    -186.582E-03     356.137E-03    -169.094E-03     160.402E-03
            2004     12.9258E-03     33.0597E-03    -15.2317E+06     125.762E+06     95.2813E+06    -174.844E+03    -175.247E-03     344.221E-03    -168.974E-03     210.458E-03    -188.872E-03     357.962E-03    -168.658E-03     185.725E-03
            2005     12.1710E-03     32.7785E-03    -22.8231E+06     117.450E+06     90.4307E+06    -112.485E+03    -177.531E-03     346.052E-03    -168.521E-03     239.685E-03    -192.589E-03     361.184E-03    -168.206E-03     212.766E-03
            2006     11.4152E-03     32.4781E-03    -30.9408E+06     106.420E+06     75.0721E+06     431.224E+03    -178.831E-03     346.809E-03    -167.978E-03     244.032E-03    -192.912E-03     360.940E-03    -167.712E-03     217.333E-03
            2007     10.6599E-03     32.1833E-03    -37.6649E+06     95.2929E+06     56.3864E+06     752.088E+03    -178.848E-03     346.233E-03    -167.384E-03     233.110E-03    -190.752E-03     358.178E-03    -167.186E-03     208.290E-03
            2008     9.90469E-03     31.9071E-03    -43.9442E+06     76.2228E+06     37.1342E+06     710.751E+03    -177.832E-03     344.621E-03    -166.789E-03     214.917E-03    -187.287E-03     354.083E-03    -166.650E-03     192.854E-03
            2009     9.14641E-03     31.6551E-03    -50.1422E+06     36.1823E+06     21.5605E+06     583.739E+03    -176.674E-03     342.916E-03    -166.242E-03     195.384E-03    -183.958E-03     350.088E-03    -166.114E-03     176.176E-03
            2010     8.38974E-03     31.4243E-03    -56.0212E+06    -16.6861E+06     9.70621E+06     605.517E+03    -175.648E-03     341.368E-03    -165.720E-03     178.148E-03    -181.230E-03     346.664E-03    -165.566E-03     161.536E-03
            2011     7.63103E-03     31.2121E-03    -62.0724E+06    -67.2172E+06    -2.81771E+06     700.141E+03    -174.213E-03     339.398E-03    -165.185E-03     161.751E-03    -178.445E-03     343.179E-03    -165.012E-03     147.546E-03
            2012     6.87182E-03     31.0195E-03    -68.1553E+06    -107.939E+06    -13.4006E+06     525.036E+03    -172.527E-03     337.187E-03    -164.660E-03     145.274E-03    -175.686E-03     339.760E-03    -164.471E-03     133.261E-03
            2013     6.11123E-03     30.8465E-03    -74.5074E+06    -139.446E+06    -23.8250E+06     512.615E+03    -170.736E-03     334.883E-03    -164.147E-03     128.827E-03    -173.055E-03     336.512E-03    -163.956E-03     118.785E-03
            2014     5.34993E-03     30.6939E-03    -81.1500E+06    -165.174E+06    -34.9649E+06     616.306E+03    -168.856E-03     332.520E-03    -163.664E-03     112.327E-03    -170.521E-03     333.412E-03    -163.482E-03     104.052E-03
            2015     4.58780E-03     30.5620E-03    -87.9659E+06    -183.095E+06    -48.3295E+06     541.445E+03    -167.151E-03     330.361E-03    -163.210E-03     96.1426E-03    -168.321E-03     330.709E-03    -163.059E-03     89.4236E-03
            2016     3.82437E-03     30.4493E-03    -94.5873E+06    -200.250E+06    -64.1117E+06     559.230E+03    -165.662E-03     328.453E-03    -162.791E-03     80.0426E-03    -166.452E-03     328.383E-03    -162.684E-03     74.7015E-03
            2017     3.06057E-03     30.3577E-03    -100.401E+06    -213.983E+06    -78.5662E+06     654.516E+03    -164.322E-03     326.746E-03    -162.424E-03     63.9564E-03    -164.829E-03     326.365E-03    -162.361E-03     59.8558E-03
            2018     2.29598E-03     30.2851E-03    -105.406E+06    -222.560E+06    -91.1943E+06     772.988E+03    -163.237E-03     325.351E-03    -162.115E-03     48.0430E-03    -163.545E-03     324.760E-03    -162.095E-03     45.0642E-03
            2019     1.53119E-03     30.2345E-03    -109.743E+06    -231.109E+06    -103.081E+06     611.969E+03    -162.473E-03     324.322E-03    -161.849E-03     32.5319E-03    -162.645E-03     323.582E-03    -161.870E-03     30.5769E-03
            2020     765.657E-06     30.2016E-03    -112.030E+06    -235.645E+06    -110.416E+06     272.055E+03    -161.891E-03     323.500E-03    -161.609E-03     17.5780E-03    -161.983E-03     322.678E-03    -161.657E-03     16.5612E-03
            2021     14.4378E-03     32.1507E-03    -5.03120E+06     133.095E+06     93.0029E+06    -235.447E+03    -175.359E-03     345.079E-03    -169.720E-03     112.382E-03    -182.547E-03     352.452E-03    -169.440E-03     95.6033E-03
            2022     13.6806E-03     31.9434E-03    -10.3614E+06     132.330E+06     94.4289E+06    -977.736E+03    -174.621E-03     343.903E-03    -169.283E-03     181.188E-03    -186.507E-03     355.949E-03    -168.987E-03     158.463E-03
            2023     12.9273E-03     31.7208E-03    -16.1011E+06     124.892E+06     94.1917E+06     295.567E+03    -176.351E-03     345.171E-03    -168.821E-03     210.052E-03    -189.920E-03     358.854E-03    -168.507E-03     185.157E-03
            2024     12.1728E-03     31.4409E-03    -23.1028E+06     117.175E+06     90.2131E+06     1.24406E+06    -178.459E-03     346.753E-03    -168.294E-03     238.262E-03    -193.402E-03     361.769E-03    -167.980E-03     211.306E-03
            2025     11.4192E-03     31.1422E-03    -30.0826E+06     107.288E+06     76.4323E+06     1.19199E+06    -179.397E-03     347.080E-03    -167.684E-03     242.217E-03    -193.345E-03     361.081E-03    -167.414E-03     215.569E-03
            2026     10.6645E-03     30.8493E-03    -37.3873E+06     95.5837E+06     56.8413E+06     614.031E+03    -179.098E-03     346.125E-03    -167.027E-03     231.245E-03    -190.896E-03     357.965E-03    -166.827E-03     206.500E-03
            2027     9.90762E-03     30.5760E-03    -43.8901E+06     76.3077E+06     37.1837E+06     607.677E+03    -178.084E-03     344.454E-03    -166.370E-03     212.913E-03    -187.451E-03     353.828E-03    -166.231E-03     190.920E-03
            2028     9.15212E-03     30.3260E-03    -49.6467E+06     36.7759E+06     22.0773E+06     862.734E+03    -176.930E-03     342.684E-03    -165.754E-03     193.522E-03    -184.145E-03     349.790E-03    -165.625E-03     174.382E-03
            2029     8.39392E-03     30.0972E-03    -55.9816E+06    -16.1463E+06     9.57636E+06     873.589E+03    -175.618E-03     340.779E-03    -165.161E-03     176.153E-03    -181.139E-03     346.016E-03    -165.009E-03     159.643E-03
            2030     7.63589E-03     29.8878E-03    -62.0056E+06    -66.4179E+06    -2.80895E+06     901.093E+03    -174.026E-03     338.592E-03    -164.566E-03     159.790E-03    -178.207E-03     342.326E-03    -164.394E-03     145.691E-03
            2031     6.87626E-03     29.6978E-03    -68.0979E+06    -107.177E+06    -13.4561E+06     793.902E+03    -172.205E-03     336.190E-03    -163.984E-03     143.430E-03    -175.325E-03     338.726E-03    -163.797E-03     131.520E-03
            2032     6.11598E-03     29.5273E-03    -74.5692E+06    -139.040E+06    -23.9893E+06     726.676E+03    -170.210E-03     333.635E-03    -163.425E-03     126.961E-03    -172.495E-03     335.232E-03    -163.236E-03     117.027E-03
            2033     5.35410E-03     29.3775E-03    -81.2399E+06    -164.935E+06    -35.1318E+06     816.521E+03    -168.295E-03     331.197E-03    -162.902E-03     110.592E-03    -169.934E-03     332.064E-03    -162.720E-03     102.412E-03
            2034     4.59114E-03     29.2470E-03    -87.8834E+06    -182.590E+06    -48.7155E+06     945.231E+03    -166.567E-03     328.966E-03    -162.399E-03     94.5506E-03    -167.718E-03     329.298E-03    -162.250E-03     87.9126E-03
            2035     3.82783E-03     29.1368E-03    -94.1479E+06    -199.676E+06    -64.5019E+06     884.663E+03    -164.963E-03     326.895E-03    -161.932E-03     78.6320E-03    -165.738E-03     326.814E-03    -161.829E-03     73.3666E-03
            2036     3.06342E-03     29.0462E-03    -100.072E+06    -213.702E+06    -78.7554E+06     796.622E+03    -163.513E-03     325.042E-03    -161.530E-03     62.8742E-03    -164.010E-03     324.655E-03    -161.469E-03     58.8299E-03
            2037     2.29824E-03     28.9761E-03    -105.452E+06    -222.114E+06    -91.0835E+06     821.379E+03    -162.308E-03     323.516E-03    -161.208E-03     47.2699E-03    -162.612E-03     322.922E-03    -161.188E-03     44.3379E-03
            2038     1.53224E-03     28.9250E-03    -109.180E+06    -229.678E+06    -102.078E+06     561.225E+03    -161.435E-03     322.420E-03    -160.986E-03     32.1570E-03    -161.605E-03     321.683E-03    -161.005E-03     30.2319E-03
            2039     766.649E-06     28.8940E-03    -111.694E+06    -235.046E+06    -110.343E+06     541.616E+03    -160.881E-03     321.853E-03    -160.972E-03     17.7429E-03    -160.972E-03     321.034E-03    -161.021E-03     16.7241E-03
            2040     14.4343E-03     30.8074E-03    -3.97951E+06     133.749E+06     93.5066E+06    -64.3397E+03    -175.839E-03     345.479E-03    -169.640E-03     111.165E-03    -182.901E-03     352.731E-03    -169.361E-03     94.4137E-03
            2041     13.6830E-03     30.6050E-03    -10.0413E+06     131.868E+06     93.3177E+06     316.658E+03    -175.166E-03     344.338E-03    -169.172E-03     181.117E-03    -186.918E-03     356.252E-03    -168.882E-03     158.378E-03
            2042     12.9286E-03     30.3789E-03    -17.3941E+06     123.344E+06     92.0060E+06     243.654E+03    -177.416E-03     346.071E-03    -168.655E-03     208.513E-03    -190.878E-03     359.643E-03    -168.349E-03     183.492E-03
            2043     12.1768E-03     30.1024E-03    -23.7505E+06     116.698E+06     89.4082E+06     316.920E+03    -179.262E-03     347.318E-03    -168.057E-03     236.070E-03    -194.057E-03     362.184E-03    -167.744E-03     209.082E-03
            2044     11.4226E-03     29.8056E-03    -30.2031E+06     107.348E+06     77.5496E+06     672.532E+03    -179.790E-03     347.178E-03    -167.389E-03     240.603E-03    -193.631E-03     361.069E-03    -167.113E-03     213.995E-03
            2045     10.6674E-03     29.5157E-03    -36.6976E+06     96.2873E+06     58.7755E+06     981.697E+03    -179.453E-03     346.129E-03    -166.676E-03     229.477E-03    -191.158E-03     357.875E-03    -166.468E-03     204.793E-03
            2046     9.91300E-03     29.2444E-03    -43.1801E+06     76.7799E+06     37.7124E+06     1.02724E+06    -178.491E-03     344.434E-03    -165.942E-03     210.842E-03    -187.770E-03     353.722E-03    -165.802E-03     188.902E-03
            2047     9.15577E-03     28.9970E-03    -49.9135E+06     37.1319E+06     21.5983E+06     1.05385E+06    -177.082E-03     342.331E-03    -165.249E-03     191.482E-03    -184.228E-03     349.369E-03    -165.123E-03     172.422E-03
            2048     8.39925E-03     28.7710E-03    -55.7045E+06    -15.3709E+06     9.65167E+06     1.15665E+06    -175.496E-03     340.091E-03    -164.595E-03     174.027E-03    -180.952E-03     345.267E-03    -164.444E-03     157.629E-03
            2049     7.64046E-03     28.5645E-03    -61.8264E+06    -66.0621E+06    -2.55835E+06     1.21939E+06    -173.751E-03     337.700E-03    -163.949E-03     157.710E-03    -177.880E-03     341.383E-03    -163.777E-03     143.724E-03
            2050     6.88115E-03     28.3770E-03    -68.2428E+06    -106.266E+06    -13.2614E+06     1.34399E+06    -171.821E-03     335.139E-03    -163.318E-03     141.449E-03    -174.900E-03     337.637E-03    -163.132E-03     129.653E-03
            2051     6.12004E-03     28.2098E-03    -74.5141E+06    -138.306E+06    -23.9180E+06     1.03135E+06    -169.781E-03     332.490E-03    -162.710E-03     124.997E-03    -172.032E-03     334.056E-03    -162.521E-03     115.165E-03
            2052     5.35814E-03     28.0621E-03    -81.0513E+06    -164.640E+06    -35.2736E+06     937.202E+03    -167.807E-03     329.940E-03    -162.133E-03     108.857E-03    -169.419E-03     330.782E-03    -161.953E-03     100.766E-03
            2053     4.59542E-03     27.9343E-03    -87.5300E+06    -182.405E+06    -49.3471E+06     1.05322E+06    -165.933E-03     327.513E-03    -161.579E-03     92.9683E-03    -167.062E-03     327.826E-03    -161.435E-03     86.4166E-03
            2054     3.83107E-03     27.8259E-03    -93.7663E+06    -199.236E+06    -64.6937E+06     1.38044E+06    -164.148E-03     325.232E-03    -161.084E-03     77.2849E-03    -164.907E-03     325.139E-03    -160.983E-03     72.0987E-03
            2055     3.06597E-03     27.7375E-03    -99.6378E+06    -212.845E+06    -78.0812E+06     1.37797E+06    -162.616E-03     323.295E-03    -160.679E-03     61.8865E-03    -163.105E-03     322.901E-03    -160.616E-03     57.9088E-03
            2056     2.30015E-03     27.6685E-03    -104.668E+06    -220.858E+06    -90.4378E+06     775.888E+03    -161.450E-03     321.805E-03    -160.355E-03     46.6190E-03    -161.750E-03     321.212E-03    -160.335E-03     43.7257E-03
            2057     1.53391E-03     27.6192E-03    -109.189E+06    -228.802E+06    -102.002E+06     428.053E+03    -160.576E-03     320.703E-03    -160.127E-03     31.3626E-03    -160.745E-03     319.968E-03    -160.147E-03     29.4663E-03
            2058     765.972E-06     27.5885E-03    -112.282E+06    -234.189E+06    -109.623E+06     647.431E+03    -160.213E-03     320.118E-03    -159.905E-03     16.9417E-03    -160.308E-03     319.301E-03    -159.950E-03     15.9335E-03
            2059     14.4387E-03     29.4690E-03    -4.69335E+06     132.933E+06     92.0482E+06    -125.070E+03    -176.891E-03     346.533E-03    -169.642E-03     110.941E-03    -183.941E-03     353.771E-03    -169.368E-03     94.0087E-03
            2060     13.6829E-03     29.2609E-03    -10.4273E+06     131.681E+06     93.3396E+06     1.18902E+06    -177.335E-03     346.429E-03    -169.094E-03     181.623E-03    -189.077E-03     358.331E-03    -168.803E-03     158.598E-03
            2061     12.9324E-03     29.0378E-03    -15.9095E+06     124.816E+06     93.7170E+06     1.06504E+06    -178.578E-03     347.057E-03    -168.479E-03     206.875E-03    -191.904E-03     360.498E-03    -168.169E-03     181.790E-03
            2062     12.1789E-03     28.7623E-03    -23.1852E+06     117.090E+06     89.7569E+06     316.714E+03    -179.599E-03     347.413E-03    -167.813E-03     234.014E-03    -194.218E-03     362.105E-03    -167.501E-03     207.104E-03
            2063     11.4257E-03     28.4698E-03    -30.4900E+06     106.940E+06     76.5363E+06     61.9336E+03    -180.206E-03     347.297E-03    -167.090E-03     238.646E-03    -193.929E-03     361.069E-03    -166.818E-03     212.061E-03
            2064     10.6720E-03     28.1810E-03    -37.2105E+06     95.7208E+06     57.9034E+06     263.676E+03    -179.921E-03     346.234E-03    -166.313E-03     227.526E-03    -191.526E-03     357.879E-03    -166.109E-03     202.863E-03
            2065     9.91635E-03     27.9126E-03    -43.5053E+06     76.3358E+06     37.2899E+06     993.626E+03    -178.792E-03     344.303E-03    -165.511E-03     208.774E-03    -187.982E-03     353.502E-03    -165.372E-03     186.899E-03
            2066     9.16140E-03     27.6684E-03    -49.2914E+06     37.5081E+06     21.8178E+06     1.59724E+06    -177.154E-03     341.906E-03    -164.752E-03     189.274E-03    -184.222E-03     348.870E-03    -164.626E-03     170.308E-03
            2067     8.40347E-03     27.4454E-03    -55.8556E+06    -14.4300E+06     9.77797E+06     1.81001E+06    -175.345E-03     339.386E-03    -164.041E-03     171.916E-03    -180.741E-03     344.504E-03    -163.890E-03     155.635E-03
            2068     7.64540E-03     27.2420E-03    -62.1495E+06    -65.2314E+06    -2.62376E+06     1.76400E+06    -173.477E-03     336.822E-03    -163.345E-03     155.657E-03    -177.555E-03     340.455E-03    -163.173E-03     141.791E-03
            2069     6.88529E-03     27.0578E-03    -68.1768E+06    -105.585E+06    -13.0788E+06     1.40851E+06    -171.461E-03     334.127E-03    -162.666E-03     139.340E-03    -174.495E-03     336.583E-03    -162.480E-03     127.654E-03
            2070     6.12463E-03     26.8931E-03    -74.4238E+06    -137.421E+06    -23.7600E+06     1.41969E+06    -169.337E-03     331.346E-03    -162.010E-03     122.956E-03    -171.551E-03     332.877E-03    -161.821E-03     113.235E-03
            2071     5.36241E-03     26.7487E-03    -80.9999E+06    -164.029E+06    -35.1031E+06     1.16661E+06    -167.245E-03     328.635E-03    -161.390E-03     107.167E-03    -168.833E-03     329.455E-03    -161.210E-03     99.1701E-03
            2072     4.59861E-03     26.6229E-03    -87.9239E+06    -182.686E+06    -49.3191E+06     1.38144E+06    -165.224E-03     326.031E-03    -160.807E-03     91.4847E-03    -166.336E-03     326.325E-03    -160.661E-03     85.0222E-03
            2073     3.83424E-03     26.5175E-03    -94.3833E+06    -198.698E+06    -64.7319E+06     1.52621E+06    -163.366E-03     323.659E-03    -160.293E-03     75.9639E-03    -164.116E-03     323.556E-03    -160.191E-03     70.8490E-03
            2074     3.06846E-03     26.4309E-03    -99.9024E+06    -211.264E+06    -77.7660E+06     1.12966E+06    -161.815E-03     321.690E-03    -159.875E-03     60.7775E-03    -162.300E-03     321.296E-03    -159.813E-03     56.8564E-03
            2075     2.30189E-03     26.3634E-03    -104.766E+06    -219.960E+06    -90.1726E+06     967.820E+03    -160.668E-03     320.204E-03    -159.536E-03     45.6956E-03    -160.964E-03     319.609E-03    -159.516E-03     42.8490E-03
            2076     1.53481E-03     26.3147E-03    -108.791E+06    -227.628E+06    -102.095E+06     825.885E+03    -159.976E-03     319.190E-03    -159.214E-03     30.7699E-03    -160.143E-03     318.458E-03    -159.236E-03     28.8996E-03
            2077     768.978E-06     26.2849E-03    -111.560E+06    -232.922E+06    -110.249E+06     58.6282E+03    -159.471E-03     318.130E-03    -158.659E-03     16.6808E-03    -159.562E-03     317.319E-03    -158.711E-03     15.6832E-03
            2078     14.4311E-03     28.1207E-03    -5.48379E+06     132.494E+06     91.7913E+06     22.8912E+03    -178.814E-03     348.486E-03    -169.672E-03     110.711E-03    -185.879E-03     355.736E-03    -169.397E-03     93.4626E-03
            2079     13.6851E-03     27.9145E-03    -10.3083E+06     132.378E+06     94.3027E+06     249.247E+03    -179.314E-03     348.327E-03    -169.013E-03     179.196E-03    -190.971E-03     360.143E-03    -168.718E-03     155.867E-03
            2080     12.9339E-03     27.6937E-03    -16.2048E+06     124.630E+06     93.9972E+06     360.467E+03    -179.243E-03     347.549E-03    -168.306E-03     204.371E-03    -192.375E-03     360.793E-03    -167.993E-03     179.314E-03
            2081     12.1825E-03     27.4244E-03    -22.2534E+06     117.884E+06     90.9330E+06     1.06500E+06    -180.129E-03     347.716E-03    -167.587E-03     232.195E-03    -194.600E-03     362.263E-03    -167.271E-03     205.333E-03
            2082     11.4292E-03     27.1315E-03    -29.4251E+06     107.767E+06     76.7896E+06     998.474E+03    -180.834E-03     347.631E-03    -166.797E-03     236.909E-03    -194.436E-03     361.288E-03    -166.527E-03     210.346E-03
            2083     10.6754E-03     26.8470E-03    -36.8950E+06     95.6916E+06     56.6806E+06     791.783E+03    -180.343E-03     346.289E-03    -165.946E-03     225.343E-03    -191.832E-03     357.823E-03    -165.748E-03     200.736E-03
            2084     9.92140E-03     26.5805E-03    -43.8239E+06     75.2638E+06     36.3400E+06     1.07792E+06    -178.868E-03     343.955E-03    -165.087E-03     206.545E-03    -187.960E-03     353.053E-03    -164.951E-03     184.770E-03
            2085     9.16485E-03     26.3399E-03    -50.4853E+06     37.3664E+06     20.8826E+06     1.78346E+06    -177.074E-03     341.352E-03    -164.278E-03     187.059E-03    -184.066E-03     348.237E-03    -164.155E-03     168.207E-03
            2086     8.40840E-03     26.1206E-03    -56.3795E+06    -13.2872E+06     9.43103E+06     2.04542E+06    -175.177E-03     338.696E-03    -163.519E-03     169.808E-03    -180.512E-03     343.757E-03    -163.371E-03     153.638E-03
            2087     7.64944E-03     25.9205E-03    -62.2340E+06    -64.3562E+06    -2.65302E+06     1.71919E+06    -173.264E-03     336.041E-03    -162.776E-03     153.696E-03    -177.291E-03     339.626E-03    -162.606E-03     139.936E-03
            2088     6.89009E-03     25.7392E-03    -68.2488E+06    -104.700E+06    -13.1433E+06     1.59793E+06    -171.137E-03     333.188E-03    -162.050E-03     137.330E-03    -174.128E-03     335.603E-03    -161.865E-03     125.752E-03
            2089     6.12857E-03     25.5782E-03    -74.5973E+06    -137.035E+06    -23.8927E+06     1.53081E+06    -168.873E-03     330.224E-03    -161.351E-03     121.112E-03    -171.053E-03     331.722E-03    -161.164E-03     111.497E-03
            2090     5.36587E-03     25.4363E-03    -81.1803E+06    -163.541E+06    -35.4319E+06     1.85516E+06    -166.660E-03     327.357E-03    -160.697E-03     105.323E-03    -168.220E-03     328.152E-03    -160.520E-03     97.4313E-03
            2091     4.60228E-03     25.3138E-03    -87.9831E+06    -182.366E+06    -49.5054E+06     1.98959E+06    -164.512E-03     324.606E-03    -160.094E-03     89.7680E-03    -165.603E-03     324.881E-03    -159.950E-03     83.3988E-03
            2092     3.83679E-03     25.2107E-03    -94.2031E+06    -197.028E+06    -64.2862E+06     1.42156E+06    -162.687E-03     322.250E-03    -159.564E-03     74.5729E-03    -163.425E-03     322.141E-03    -159.463E-03     69.5255E-03
            2093     3.07082E-03     25.1261E-03    -99.8453E+06    -209.981E+06    -78.1986E+06     764.126E+03    -161.209E-03     320.317E-03    -159.107E-03     59.6107E-03    -161.687E-03     319.921E-03    -159.049E-03     55.7348E-03
            2094     2.30398E-03     25.0603E-03    -105.025E+06    -219.932E+06    -91.1958E+06     682.693E+03    -159.951E-03     318.675E-03    -158.724E-03     44.8014E-03    -160.242E-03     318.077E-03    -158.709E-03     41.9946E-03
            2095     1.53660E-03     25.0124E-03    -108.887E+06    -226.385E+06    -102.040E+06     793.717E+03    -158.913E-03     317.376E-03    -158.463E-03     30.4169E-03    -159.080E-03     316.649E-03    -158.487E-03     28.5758E-03
            2096     767.511E-06     24.9834E-03    -111.334E+06    -231.337E+06    -109.496E+06     613.787E+03    -158.734E-03     316.783E-03    -158.049E-03     16.4478E-03    -158.828E-03     315.978E-03    -158.099E-03     15.4629E-03
            2097     14.4381E-03     26.7691E-03    -5.22005E+06     132.682E+06     92.3345E+06     73.8542E+03    -180.266E-03     349.892E-03    -169.626E-03     109.711E-03    -187.249E-03     357.060E-03    -169.349E-03     92.3622E-03
            2098     13.6872E-03     26.5669E-03    -10.7446E+06     131.779E+06     93.5401E+06    -354.071E+03    -179.734E-03     348.638E-03    -168.904E-03     176.716E-03    -191.235E-03     360.298E-03    -168.612E-03     153.351E-03
            2099     12.9365E-03     26.3518E-03    -16.5069E+06     124.154E+06     93.2481E+06    -40.6148E+03    -179.746E-03     347.905E-03    -168.158E-03     202.592E-03    -192.724E-03     360.994E-03    -167.848E-03     177.547E-03
            2100     12.1842E-03     26.0824E-03    -23.2583E+06     116.775E+06     89.8985E+06     84.4041E+03    -181.000E-03     348.383E-03    -167.382E-03     230.689E-03    -195.359E-03     362.813E-03    -167.068E-03     203.755E-03
            2101     11.4322E-03     25.7947E-03    -29.8165E+06     107.191E+06     76.9047E+06     943.249E+03    -181.559E-03     348.080E-03    -166.522E-03     234.894E-03    -195.039E-03     361.612E-03    -166.249E-03     208.325E-03
            2102     10.6797E-03     25.5105E-03    -36.4961E+06     95.8801E+06     57.8381E+06     1.86224E+06    -180.577E-03     346.185E-03    -165.607E-03     223.101E-03    -191.948E-03     357.599E-03    -165.404E-03     198.599E-03
            2103     9.92486E-03     25.2503E-03    -43.5502E+06     75.1289E+06     36.7397E+06     2.39619E+06    -178.834E-03     343.532E-03    -164.698E-03     204.439E-03    -187.827E-03     352.531E-03    -164.560E-03     182.802E-03
            2104     9.16961E-03     25.0111E-03    -49.9389E+06     38.2432E+06     20.9227E+06     2.35367E+06    -176.862E-03     340.712E-03    -163.850E-03     185.043E-03    -183.770E-03     347.518E-03    -163.729E-03     166.336E-03
            2105     8.41186E-03     24.7969E-03    -56.0094E+06    -12.4686E+06     9.14809E+06     1.87098E+06    -175.071E-03     338.124E-03    -163.053E-03     167.880E-03    -180.342E-03     343.126E-03    -162.908E-03     151.813E-03
            2106     7.65370E-03     24.5990E-03    -61.9189E+06    -63.7999E+06    -2.76162E+06     1.84632E+06    -173.096E-03     335.361E-03    -162.265E-03     151.644E-03    -177.070E-03     338.897E-03    -162.097E-03     137.981E-03
            2107     6.89345E-03     24.4220E-03    -67.9861E+06    -103.545E+06    -12.9956E+06     1.84519E+06    -170.767E-03     332.265E-03    -161.498E-03     135.226E-03    -173.712E-03     334.639E-03    -161.314E-03     123.762E-03
            2108     6.13223E-03     24.2641E-03    -74.2954E+06    -136.872E+06    -23.9381E+06     1.81925E+06    -168.501E-03     329.263E-03    -160.762E-03     119.186E-03    -170.646E-03     330.728E-03    -160.575E-03     109.662E-03
            2109     5.36962E-03     24.1256E-03    -80.7157E+06    -163.530E+06    -35.7206E+06     2.18411E+06    -166.201E-03     326.267E-03    -160.066E-03     103.257E-03    -167.728E-03     327.031E-03    -159.891E-03     95.4608E-03
            2110     4.60490E-03     24.0064E-03    -86.9068E+06    -180.993E+06    -49.2669E+06     2.20248E+06    -163.976E-03     323.401E-03    -159.425E-03     87.8263E-03    -165.040E-03     323.658E-03    -159.283E-03     81.5395E-03
            2111     3.83960E-03     23.9055E-03    -93.0510E+06    -195.277E+06    -63.2709E+06     1.82001E+06    -162.109E-03     320.970E-03    -158.861E-03     72.8634E-03    -162.830E-03     320.851E-03    -158.759E-03     67.8901E-03
            2112     3.07294E-03     23.8230E-03    -99.0036E+06    -208.726E+06    -78.0196E+06     1.41432E+06    -160.554E-03     318.921E-03    -158.367E-03     58.1412E-03    -161.018E-03     318.519E-03    -158.311E-03     54.3311E-03
            2113     2.30566E-03     23.7587E-03    -104.312E+06    -219.358E+06    -92.0820E+06     926.642E+03    -159.208E-03     317.165E-03    -157.957E-03     43.6835E-03    -159.490E-03     316.565E-03    -157.948E-03     40.9170E-03
            2114     1.53719E-03     23.7129E-03    -108.489E+06    -225.798E+06    -102.477E+06     600.581E+03    -158.115E-03     315.811E-03    -157.696E-03     29.2290E-03    -158.277E-03     315.083E-03    -157.723E-03     27.4155E-03
            2115     768.564E-06     23.6848E-03    -109.989E+06    -229.243E+06    -108.693E+06     503.633E+03    -157.818E-03     315.260E-03    -157.442E-03     16.1364E-03    -157.908E-03     314.462E-03    -157.493E-03     15.1688E-03
            2116     14.4356E-03     25.4202E-03    -4.45661E+06     133.132E+06     92.7101E+06     659.289E+03    -181.294E-03     350.848E-03    -169.554E-03     109.588E-03    -188.157E-03     357.900E-03    -169.277E-03     92.2402E-03
            2117     13.6868E-03     25.2186E-03    -10.3594E+06     131.698E+06     93.1793E+06     39.5624E+03    -179.798E-03     348.595E-03    -168.797E-03     174.122E-03    -191.049E-03     360.007E-03    -168.507E-03     150.911E-03
            2118     12.9371E-03     25.0072E-03    -16.5286E+06     123.881E+06     92.6294E+06     23.7669E+03    -180.351E-03     348.372E-03    -168.020E-03     199.943E-03    -193.140E-03     361.273E-03    -167.713E-03     174.900E-03
            2119     12.1867E-03     24.7413E-03    -23.4091E+06     116.425E+06     88.9712E+06     210.029E+03    -181.737E-03     348.921E-03    -167.183E-03     228.451E-03    -195.948E-03     363.204E-03    -166.873E-03     201.491E-03
            2120     11.4358E-03     24.4540E-03    -30.9770E+06     105.819E+06     75.1784E+06     508.813E+03    -181.780E-03     348.046E-03    -166.266E-03     232.556E-03    -195.106E-03     361.419E-03    -165.998E-03     206.084E-03
            2121     10.6825E-03     24.1774E-03    -38.0612E+06     94.0432E+06     55.8182E+06     1.52948E+06    -180.553E-03     345.869E-03    -165.316E-03     221.497E-03    -191.812E-03     357.166E-03    -165.119E-03     197.126E-03
            2122     9.92860E-03     23.9171E-03    -44.0312E+06     75.1266E+06     36.0549E+06     2.19057E+06    -178.840E-03     343.219E-03    -164.380E-03     202.810E-03    -187.752E-03     352.138E-03    -164.244E-03     181.273E-03
            2123     9.17230E-03     23.6854E-03    -49.6257E+06     39.3324E+06     21.0724E+06     2.43502E+06    -176.971E-03     340.463E-03    -163.492E-03     183.154E-03    -183.807E-03     347.202E-03    -163.372E-03     164.532E-03
            2124     8.41533E-03     23.4715E-03    -55.6008E+06    -11.5114E+06     8.87281E+06     2.36445E+06    -175.071E-03     337.713E-03    -162.642E-03     165.607E-03    -180.272E-03     342.649E-03    -162.500E-03     149.642E-03
            2125     7.65701E-03     23.2790E-03    -61.6944E+06    -62.9281E+06    -3.09534E+06     2.12933E+06    -172.908E-03     334.713E-03    -161.806E-03     149.048E-03    -176.817E-03     338.190E-03    -161.640E-03     135.496E-03
            2126     6.89710E-03     23.1054E-03    -67.7363E+06    -102.622E+06    -12.9234E+06     1.97506E+06    -170.590E-03     331.580E-03    -160.990E-03     132.624E-03    -173.481E-03     333.904E-03    -160.808E-03     121.260E-03
            2127     6.13541E-03     22.9510E-03    -73.8685E+06    -136.580E+06    -23.6843E+06     1.98039E+06    -168.143E-03     328.349E-03    -160.206E-03     116.388E-03    -170.239E-03     329.767E-03    -160.019E-03     106.972E-03
            2128     5.37225E-03     22.8158E-03    -80.1161E+06    -163.341E+06    -35.5355E+06     2.25196E+06    -165.736E-03     325.205E-03    -159.469E-03     100.711E-03    -167.224E-03     325.932E-03    -159.294E-03     93.0148E-03
            2129     4.60826E-03     22.7001E-03    -86.5624E+06    -179.962E+06    -49.2952E+06     2.32824E+06    -163.650E-03     322.422E-03    -158.772E-03     85.5990E-03    -164.688E-03     322.657E-03    -158.632E-03     79.3919E-03
            2130     3.84227E-03     22.6017E-03    -92.7836E+06    -194.099E+06    -63.1316E+06     2.27806E+06    -161.667E-03     319.805E-03    -158.137E-03     70.6995E-03    -162.369E-03     319.671E-03    -158.037E-03     65.8055E-03
            2131     3.07547E-03     22.5217E-03    -98.4654E+06    -207.302E+06    -77.4166E+06     2.08318E+06    -159.808E-03     317.407E-03    -157.598E-03     56.2183E-03    -160.259E-03     316.996E-03    -157.542E-03     52.4848E-03
            2132     2.30729E-03     22.4594E-03    -103.320E+06    -217.634E+06    -90.8559E+06     1.72556E+06    -158.401E-03     315.580E-03    -157.179E-03     42.1871E-03    -158.674E-03     314.977E-03    -157.168E-03     39.4805E-03
            2133     1.53892E-03     22.4149E-03    -107.022E+06    -223.967E+06    -100.853E+06     1.14441E+06    -157.544E-03     314.388E-03    -156.843E-03     28.5023E-03    -157.701E-03     313.662E-03    -156.868E-03     26.7277E-03
            2134     770.223E-06     22.3871E-03    -110.104E+06    -228.407E+06    -108.528E+06     476.103E+03    -156.714E-03     313.398E-03    -156.684E-03     15.8660E-03    -156.804E-03     312.604E-03    -156.736E-03     14.9156E-03
            2135     14.4395E-03     24.0684E-03    -4.54150E+06     132.953E+06     92.6212E+06     539.740E+03    -182.666E-03     352.205E-03    -169.540E-03     107.697E-03    -189.392E-03     359.119E-03    -169.263E-03     90.3057E-03
            2136     13.6907E-03     23.8723E-03    -9.50832E+06     132.293E+06     93.8775E+06     887.942E+03    -180.635E-03     349.360E-03    -168.725E-03     172.778E-03    -191.697E-03     360.585E-03    -168.433E-03     149.596E-03
            2137     12.9397E-03     23.6631E-03    -16.0335E+06     124.078E+06     92.7222E+06     637.866E+03    -181.212E-03     349.105E-03    -167.894E-03     199.001E-03    -193.884E-03     361.892E-03    -167.587E-03     173.903E-03
            2138     12.1898E-03     23.3969E-03    -23.2419E+06     116.280E+06     88.7471E+06     1.20079E+06    -182.024E-03     349.035E-03    -167.011E-03     226.616E-03    -196.065E-03     363.149E-03    -166.702E-03     199.766E-03
            2139     11.4375E-03     23.1171E-03    -30.7286E+06     105.641E+06     74.7705E+06     1.81806E+06    -181.540E-03     347.615E-03    -166.074E-03     230.822E-03    -194.699E-03     360.822E-03    -165.809E-03     204.575E-03
            2140     10.6848E-03     22.8407E-03    -37.8800E+06     93.6722E+06     54.4403E+06     1.49451E+06    -180.613E-03     345.720E-03    -165.107E-03     219.975E-03    -191.770E-03     356.917E-03    -164.916E-03     195.702E-03
            2141     9.93005E-03     22.5870E-03    -44.2727E+06     74.4033E+06     34.4809E+06     1.51430E+06    -179.160E-03     343.289E-03    -164.129E-03     200.499E-03    -187.976E-03     352.112E-03    -164.000E-03     179.008E-03
            2142     9.17512E-03     22.3560E-03    -50.1811E+06     39.3812E+06     20.3058E+06     2.14360E+06    -177.333E-03     340.511E-03    -163.179E-03     180.426E-03    -184.080E-03     347.162E-03    -163.062E-03     161.853E-03
            2143     8.41886E-03     22.1481E-03    -55.8404E+06    -10.3051E+06     8.54261E+06     2.43431E+06    -175.248E-03     337.504E-03    -162.256E-03     162.539E-03    -180.361E-03     342.358E-03    -162.118E-03     146.664E-03
            2144     7.66010E-03     21.9591E-03    -61.5665E+06    -62.0996E+06    -3.74950E+06     2.27870E+06    -172.998E-03     334.342E-03    -161.344E-03     145.635E-03    -176.819E-03     337.736E-03    -161.184E-03     132.199E-03
            2145     6.90035E-03     21.7889E-03    -67.4815E+06    -101.902E+06    -13.3533E+06     2.06138E+06    -170.608E-03     331.056E-03    -160.448E-03     128.869E-03    -173.420E-03     333.305E-03    -160.269E-03     117.622E-03
            2146     6.13930E-03     21.6389E-03    -73.7301E+06    -136.211E+06    -23.3543E+06     2.23572E+06    -167.942E-03     327.526E-03    -159.584E-03     112.280E-03    -169.965E-03     328.871E-03    -159.396E-03     103.007E-03
            2147     5.37595E-03     21.5080E-03    -80.3297E+06    -163.112E+06    -35.2502E+06     2.47586E+06    -165.390E-03     324.157E-03    -158.767E-03     96.6969E-03    -166.822E-03     324.827E-03    -158.590E-03     89.1364E-03
            2148     4.61078E-03     21.3943E-03    -86.4665E+06    -178.728E+06    -49.0762E+06     2.35925E+06    -163.134E-03     321.126E-03    -157.992E-03     81.8178E-03    -164.128E-03     321.322E-03    -157.853E-03     75.7413E-03
            2149     3.84544E-03     21.2994E-03    -92.3311E+06    -193.223E+06    -63.3087E+06     2.13948E+06    -160.986E-03     318.278E-03    -157.292E-03     67.3819E-03    -161.653E-03     318.115E-03    -157.195E-03     62.6031E-03
            2150     3.07795E-03     21.2226E-03    -97.7564E+06    -206.273E+06    -77.3563E+06     2.29502E+06    -159.035E-03     315.737E-03    -156.701E-03     53.6070E-03    -159.464E-03     315.311E-03    -156.647E-03     49.9694E-03
            2151     2.30946E-03     21.1622E-03    -102.129E+06    -215.394E+06    -89.3252E+06     2.15087E+06    -157.547E-03     313.788E-03    -156.241E-03     40.2766E-03    -157.808E-03     313.181E-03    -156.227E-03     37.6537E-03
            2152     1.53977E-03     21.1188E-03    -106.219E+06    -221.721E+06    -99.1457E+06     1.59709E+06    -156.538E-03     312.431E-03    -155.893E-03     27.0950E-03    -156.691E-03     311.707E-03    -155.913E-03     25.3834E-03
            2153     769.525E-06     21.0920E-03    -108.910E+06    -226.273E+06    -106.526E+06     539.113E+03    -156.194E-03     311.495E-03    -155.301E-03     14.3407E-03    -156.282E-03     310.705E-03    -155.348E-03     13.4163E-03
            2154     14.4358E-03     22.7146E-03    -4.77759E+06     132.308E+06     91.3026E+06     46.9439E+03    -183.130E-03     352.715E-03    -169.586E-03     105.810E-03    -189.743E-03     359.517E-03    -169.314E-03     88.4269E-03
            2155     13.6873E-03     22.5236E-03    -10.3452E+06     131.231E+06     92.5162E+06     193.556E+03    -181.842E-03     350.574E-03    -168.731E-03     172.634E-03    -192.822E-03     361.715E-03    -168.444E-03     149.295E-03
            2156     12.9402E-03     22.3144E-03    -16.1945E+06     123.588E+06     92.1257E+06     1.55719E+06    -182.236E-03     350.077E-03    -167.841E-03     198.058E-03    -194.772E-03     362.727E-03    -167.536E-03     172.942E-03
            2157     12.1903E-03     22.0547E-03    -23.2555E+06     115.736E+06     88.4017E+06     2.15562E+06    -182.074E-03     348.997E-03    -166.923E-03     224.729E-03    -195.908E-03     362.903E-03    -166.615E-03     198.074E-03
            2158     11.4391E-03     21.7783E-03    -30.0129E+06     106.018E+06     75.8199E+06     2.11718E+06    -181.856E-03     347.825E-03    -165.968E-03     229.239E-03    -194.892E-03     360.911E-03    -165.699E-03     203.056E-03
            2159     10.6856E-03     21.5056E-03    -36.4865E+06     94.6517E+06     55.9007E+06     2.01039E+06    -181.264E-03     346.211E-03    -164.947E-03     217.405E-03    -192.296E-03     357.288E-03    -164.752E-03     193.139E-03
            2160     9.93291E-03     21.2537E-03    -42.9983E+06     74.1947E+06     34.9664E+06     2.35595E+06    -179.772E-03     343.659E-03    -163.887E-03     197.078E-03    -188.432E-03     352.328E-03    -163.757E-03     175.653E-03
            2161     9.17815E-03     21.0282E-03    -49.2677E+06     39.5063E+06     20.3559E+06     2.70393E+06    -177.879E-03     340.723E-03    -162.844E-03     176.560E-03    -184.477E-03     347.228E-03    -162.728E-03     158.080E-03
            2162     8.42137E-03     20.8235E-03    -55.3927E+06    -9.02987E+06     8.67049E+06     2.60874E+06    -175.901E-03     337.709E-03    -161.808E-03     157.840E-03    -180.871E-03     342.425E-03    -161.671E-03     142.069E-03
            2163     7.66444E-03     20.6391E-03    -61.0335E+06    -60.9526E+06    -3.76440E+06     2.19720E+06    -173.597E-03     334.350E-03    -160.754E-03     140.075E-03    -177.275E-03     337.607E-03    -160.596E-03     126.772E-03
            2164     6.90520E-03     20.4733E-03    -66.5421E+06    -101.413E+06    -13.6296E+06     2.14354E+06    -170.737E-03     330.449E-03    -159.712E-03     122.777E-03    -173.411E-03     332.567E-03    -159.536E-03     111.726E-03
            2165     6.14372E-03     20.3276E-03    -72.5796E+06    -136.493E+06     -22.525E+06     2.82458E+06    -167.922E-03     326.635E-03    -158.713E-03     106.165E-03    -169.829E-03     327.865E-03    -158.523E-03     97.0969E-03
            2166     5.38110E-03     20.2009E-03    -79.0746E+06    -161.911E+06    -33.5294E+06     2.90856E+06    -165.187E-03     322.934E-03    -157.747E-03     90.7267E-03    -166.527E-03     323.516E-03    -157.565E-03     83.3657E-03
            2167     4.61690E-03     20.0912E-03    -85.4872E+06    -177.138E+06    -48.0749E+06     2.40295E+06    -162.400E-03     319.235E-03    -156.836E-03     76.1765E-03    -163.322E-03     319.365E-03    -156.695E-03     70.3089E-03
            2168     3.84946E-03     19.9997E-03    -91.6285E+06    -192.769E+06    -63.4149E+06     2.42174E+06    -159.969E-03     316.005E-03    -156.036E-03     62.0610E-03    -160.580E-03     315.791E-03    -155.940E-03     57.4814E-03
            2169     3.08152E-03     19.9253E-03    -97.0730E+06    -204.774E+06    -77.1522E+06     2.35317E+06    -157.965E-03     313.317E-03    -155.352E-03     48.8710E-03    -158.357E-03     312.861E-03    -155.300E-03     45.3982E-03
            2170     2.31224E-03     19.8677E-03    -101.481E+06    -213.454E+06    -89.1337E+06     1.86575E+06    -156.370E-03     311.149E-03    -154.779E-03     36.5763E-03    -156.611E-03     310.530E-03    -154.768E-03     34.0725E-03
            2171     1.54241E-03     19.8254E-03    -104.281E+06    -219.408E+06    -98.5007E+06     1.16093E+06    -155.096E-03     309.428E-03    -154.332E-03     24.2676E-03    -155.233E-03     308.701E-03    -154.355E-03     22.6346E-03
            2172     771.949E-06     19.8004E-03    -106.663E+06    -223.597E+06    -105.135E+06     433.394E+03    -154.467E-03     308.294E-03    -153.827E-03     13.3283E-03    -154.547E-03     307.507E-03    -153.874E-03     12.4499E-03
            2173     14.4363E-03     21.3642E-03    -4.20244E+06     132.323E+06     91.0212E+06     637.102E+03    -183.969E-03     353.639E-03    -169.670E-03     103.363E-03    -190.461E-03     360.322E-03    -169.400E-03     85.9407E-03
            2174     13.6886E-03     21.1716E-03    -10.3157E+06     130.449E+06     91.1408E+06     932.737E+03    -182.784E-03     351.549E-03    -168.766E-03     170.056E-03    -193.560E-03     362.488E-03    -168.484E-03     146.682E-03
            2175     12.9404E-03     20.9650E-03    -17.2446E+06     121.919E+06     90.2432E+06     1.21475E+06    -182.305E-03     350.148E-03    -167.843E-03     194.911E-03    -194.583E-03     362.537E-03    -167.544E-03     169.978E-03
            2176     12.1905E-03     20.7130E-03    -22.9655E+06     115.691E+06     88.5453E+06     1.73033E+06    -182.541E-03     349.447E-03    -166.906E-03     222.255E-03    -196.185E-03     363.164E-03    -166.598E-03     195.657E-03
            2177     11.4386E-03     20.4373E-03    -29.3597E+06     106.335E+06     76.2859E+06     1.80880E+06    -183.028E-03     348.912E-03    -165.884E-03     226.575E-03    -195.917E-03     361.853E-03    -165.614E-03     200.285E-03
            2178     10.6886E-03     20.1684E-03    -36.2714E+06     94.4125E+06     56.2541E+06     2.28727E+06    -182.499E-03     347.253E-03    -164.754E-03     213.769E-03    -193.331E-03     358.129E-03    -164.557E-03     189.474E-03
            2179     9.93534E-03     19.9209E-03    -42.5465E+06     73.5964E+06     35.4839E+06     3.30306E+06    -181.082E-03     344.640E-03    -163.558E-03     192.300E-03    -189.516E-03     353.082E-03    -163.425E-03     170.915E-03
            2180     9.18154E-03     19.6988E-03    -48.8813E+06     40.5486E+06     20.6371E+06     3.44593E+06    -179.334E-03     341.669E-03    -162.335E-03     169.964E-03    -185.691E-03     347.937E-03    -162.219E-03     151.573E-03
            2181     8.42744E-03     19.4987E-03    -54.6955E+06    -6.72971E+06     9.42248E+06     2.82579E+06    -177.164E-03     338.248E-03    -161.084E-03     149.834E-03    -181.887E-03     342.726E-03    -160.948E-03     134.231E-03
            2182     7.67092E-03     19.3183E-03    -60.5259E+06    -59.5011E+06    -3.07885E+06     2.31535E+06    -174.404E-03     334.206E-03    -159.802E-03     131.220E-03    -177.849E-03     337.234E-03    -159.643E-03     118.171E-03
            2183     6.91276E-03     19.1589E-03    -66.6094E+06    -101.558E+06    -13.7443E+06     2.68880E+06    -171.242E-03     329.764E-03    -158.522E-03     113.422E-03    -173.706E-03     331.671E-03    -158.347E-03     102.681E-03
            2184     6.15223E-03     19.0180E-03    -72.7270E+06    -136.158E+06    -23.1873E+06     2.97504E+06    -167.924E-03     325.203E-03    -157.278E-03     96.7504E-03    -169.654E-03     326.259E-03    -157.091E-03     88.0204E-03
            2185     5.38948E-03     18.8951E-03    -78.7196E+06    -160.037E+06    -33.8602E+06     2.77306E+06    -164.603E-03     320.688E-03    -156.086E-03     81.4659E-03    -165.800E-03     321.137E-03    -155.909E-03     74.4565E-03
            2186     4.62389E-03     18.7915E-03    -84.9552E+06    -176.328E+06    -48.2817E+06     2.84809E+06    -161.441E-03     316.409E-03    -154.968E-03     67.6316E-03    -162.257E-03     316.437E-03    -154.830E-03     62.0894E-03
            2187     3.85755E-03     18.7028E-03    -90.9907E+06    -191.429E+06    -63.0333E+06     2.77550E+06    -158.608E-03     312.580E-03    -153.972E-03     54.5411E-03    -159.147E-03     312.298E-03    -153.877E-03     50.2479E-03
            2188     3.08851E-03     18.6329E-03    -96.2172E+06    -202.764E+06    -76.6156E+06     2.22439E+06    -156.291E-03     309.389E-03    -153.098E-03     42.4919E-03    -156.635E-03     308.894E-03    -153.048E-03     39.2567E-03
            2189     2.31806E-03     18.5768E-03    -100.344E+06    -211.394E+06    -89.1569E+06     1.59925E+06    -154.319E-03     306.667E-03    -152.348E-03     31.4058E-03    -154.530E-03     306.030E-03    -152.342E-03     29.0779E-03
            2190     1.54616E-03     18.5375E-03    -103.718E+06    -217.671E+06    -98.6300E+06     975.092E+03    -152.686E-03     304.458E-03    -151.772E-03     20.7193E-03    -152.810E-03     303.727E-03    -151.799E-03     19.2088E-03
            2191     772.692E-06     18.5138E-03    -106.132E+06    -221.427E+06    -104.643E+06     690.608E+03    -151.758E-03     303.062E-03    -151.304E-03     10.8211E-03    -151.836E-03     302.280E-03    -151.352E-03     10.0293E-03
            2192     14.4329E-03     20.0078E-03    -4.75579E+06     131.461E+06     90.4581E+06     901.802E+03    -185.087E-03     354.869E-03    -169.782E-03     102.985E-03    -191.493E-03     361.462E-03    -169.513E-03     85.5438E-03
            2193     13.6881E-03     19.8173E-03    -10.0377E+06     130.373E+06     91.7159E+06     2.24118E+06    -183.583E-03     352.420E-03    -168.837E-03     168.574E-03    -194.190E-03     363.189E-03    -168.553E-03     145.281E-03
            2194     12.9395E-03     19.6201E-03    -15.8034E+06     122.898E+06     91.3726E+06     1.80705E+06    -182.826E-03     350.703E-03    -167.878E-03     192.241E-03    -194.894E-03     362.887E-03    -167.576E-03     167.359E-03
            2195     12.1894E-03     19.3663E-03    -22.6964E+06     115.434E+06     88.2506E+06     882.202E+03    -183.853E-03     350.724E-03    -166.871E-03     219.107E-03    -197.285E-03     364.230E-03    -166.564E-03     192.359E-03
            2196     11.4416E-03     19.0961E-03    -29.8400E+06     105.195E+06     75.6269E+06     1.54891E+06    -184.986E-03     350.706E-03    -165.720E-03     222.415E-03    -197.599E-03     363.367E-03    -165.451E-03     195.960E-03
            2197     10.6901E-03     18.8291E-03    -36.5339E+06     93.5283E+06     56.3093E+06     2.66837E+06    -184.950E-03     349.347E-03    -164.397E-03     207.334E-03    -195.433E-03     359.869E-03    -164.198E-03     182.939E-03
            2198     9.94049E-03     18.5859E-03    -43.0247E+06     72.7791E+06     35.6020E+06     3.26722E+06    -183.789E-03     346.721E-03    -162.932E-03     183.237E-03    -191.824E-03     354.759E-03    -162.797E-03     161.859E-03
            2199     9.19002E-03     18.3675E-03    -48.4727E+06     42.1073E+06     21.4641E+06     3.64078E+06    -181.661E-03     343.050E-03    -161.389E-03     159.122E-03    -187.608E-03     348.913E-03    -161.272E-03     140.914E-03
            2200     8.43739E-03     18.1729E-03    -54.2170E+06    -4.21053E+06     9.88115E+06     3.18539E+06    -178.815E-03     338.617E-03    -159.803E-03     138.016E-03    -183.158E-03     342.725E-03    -159.669E-03     122.744E-03
            2201     7.68293E-03     17.9990E-03    -60.2544E+06    -58.1492E+06    -2.87058E+06     3.14636E+06    -175.585E-03     333.765E-03    -158.180E-03     118.545E-03    -178.686E-03     336.455E-03    -158.023E-03     105.936E-03
            2202     6.92572E-03     17.8450E-03    -66.2709E+06    -101.147E+06    -13.6032E+06     3.33130E+06    -171.848E-03     328.391E-03    -156.543E-03     100.171E-03    -174.018E-03     330.007E-03    -156.368E-03     89.9112E-03
            2203     6.16643E-03     17.7104E-03    -72.2167E+06    -134.003E+06    -23.6763E+06     3.05102E+06    -167.652E-03     322.598E-03    -154.946E-03     83.8571E-03    -169.149E-03     323.432E-03    -154.765E-03     75.6253E-03
            2204     5.40346E-03     17.5948E-03    -78.4159E+06    -158.861E+06    -35.2742E+06     2.81637E+06    -163.510E-03     316.947E-03    -153.438E-03     69.4873E-03    -164.530E-03     317.228E-03    -153.270E-03     62.9590E-03
            2205     4.63844E-03     17.4950E-03    -84.7238E+06    -175.799E+06    -48.4359E+06     3.02125E+06    -159.653E-03     311.706E-03    -152.053E-03     56.7690E-03    -160.344E-03     311.612E-03    -151.917E-03     51.6524E-03
            2206     3.86945E-03     17.4129E-03    -90.4103E+06    -188.959E+06    -61.9519E+06     2.85497E+06    -156.288E-03     307.109E-03    -150.821E-03     45.6501E-03    -156.748E-03     306.756E-03    -150.726E-03     41.7161E-03
            2207     3.09880E-03     17.3454E-03    -95.5579E+06    -200.890E+06    -76.3767E+06     2.20969E+06    -153.574E-03     303.303E-03    -149.729E-03     35.4071E-03    -153.869E-03     302.766E-03    -149.681E-03     32.4583E-03
            2208     2.32650E-03     17.2939E-03    -100.314E+06    -209.710E+06    -89.2224E+06     1.90620E+06    -151.118E-03     299.917E-03    -148.799E-03     25.6527E-03    -151.303E-03     299.259E-03    -148.796E-03     23.5578E-03
            2209     1.55186E-03     17.2577E-03    -103.849E+06    -215.607E+06     -98.689E+06     1.58043E+06    -149.183E-03     297.271E-03    -148.088E-03     16.8496E-03    -149.298E-03     296.537E-03    -148.119E-03     15.5062E-03
            2210     777.086E-06     17.2345E-03    -105.873E+06    -219.299E+06    -104.952E+06     559.142E+03    -147.720E-03     295.564E-03    -147.844E-03     9.07942E-03    -147.795E-03     294.789E-03    -147.897E-03     8.37142E-03
            2211     14.4321E-03     18.6480E-03    -5.82164E+06     130.045E+06     89.5515E+06     912.644E+03    -185.861E-03     355.791E-03    -169.930E-03     102.215E-03    -192.157E-03     362.269E-03    -169.662E-03     84.8202E-03
            2212     13.6849E-03     18.4652E-03    -9.91457E+06     130.352E+06     92.1865E+06     1.09170E+06    -184.639E-03     353.580E-03    -168.940E-03     164.697E-03    -195.032E-03     364.133E-03    -168.654E-03     141.348E-03
            2213     12.9387E-03     18.2682E-03    -14.8363E+06     123.340E+06     92.3044E+06     1.60263E+06    -184.759E-03     352.647E-03    -167.887E-03     188.216E-03    -196.561E-03     364.566E-03    -167.583E-03     163.110E-03
            2214     12.1925E-03     18.0215E-03    -21.3058E+06     115.860E+06     89.0461E+06     2.54038E+06    -186.610E-03     353.330E-03    -166.720E-03     214.797E-03    -199.695E-03     366.492E-03    -166.412E-03     187.764E-03
            2215     11.4429E-03     17.7498E-03    -29.1174E+06     104.832E+06     75.9263E+06     2.67644E+06    -188.826E-03     354.142E-03    -165.316E-03     215.478E-03    -200.980E-03     366.345E-03    -165.046E-03     188.695E-03
            2216     10.6987E-03     17.4872E-03    -36.3088E+06     92.7353E+06     56.6707E+06     2.76465E+06    -189.382E-03     353.008E-03    -163.626E-03     196.576E-03    -199.302E-03     362.964E-03    -163.424E-03     171.972E-03
            2217     9.95241E-03     17.2472E-03    -42.2703E+06     72.7109E+06     36.5022E+06     3.27131E+06    -187.691E-03     349.410E-03    -161.719E-03     169.806E-03    -195.112E-03     356.835E-03    -161.580E-03     148.535E-03
            2218     9.20481E-03     17.0354E-03    -48.0609E+06     43.2409E+06     21.4634E+06     3.60079E+06    -184.551E-03     344.262E-03    -159.712E-03     143.944E-03    -189.919E-03     349.553E-03    -159.597E-03     126.105E-03
            2219     8.45476E-03     16.8479E-03    -53.8238E+06    -1.57649E+06     9.73095E+06     3.66343E+06    -180.889E-03     338.549E-03    -157.660E-03     121.712E-03    -184.726E-03     342.163E-03    -157.531E-03     106.964E-03
            2220     7.70226E-03     16.6801E-03    -59.3703E+06    -56.3394E+06    -2.66365E+06     3.57641E+06    -176.705E-03     332.280E-03    -155.574E-03     101.834E-03    -179.381E-03     334.553E-03    -155.420E-03     89.8357E-03
            2221     6.94735E-03     16.5342E-03    -64.8257E+06    -99.3426E+06    -13.1978E+06     3.50748E+06    -171.671E-03     325.175E-03    -153.504E-03     83.9860E-03    -173.503E-03     326.464E-03    -153.332E-03     74.3781E-03
            2222     6.18747E-03     16.4080E-03    -71.0238E+06    -132.109E+06    -23.1824E+06     3.75246E+06    -166.451E-03     317.978E-03    -151.526E-03     69.1636E-03    -167.701E-03     318.575E-03    -151.348E-03     61.5582E-03
            2223     5.42445E-03     16.2993E-03    -77.7391E+06    -157.240E+06    -34.7729E+06     3.77312E+06    -161.476E-03     311.158E-03    -149.683E-03     56.6387E-03    -162.326E-03     311.275E-03    -149.516E-03     50.6657E-03
            2224     4.65681E-03     16.2071E-03    -84.0118E+06    -174.163E+06    -48.1139E+06     3.18792E+06    -156.859E-03     304.863E-03    -148.004E-03     45.6802E-03    -157.433E-03     304.660E-03    -147.870E-03     41.0458E-03
            2225     3.88646E-03     16.1311E-03    -89.7767E+06    -187.430E+06    -62.0823E+06     3.04084E+06    -152.852E-03     299.375E-03    -146.523E-03     36.3128E-03    -153.233E-03     298.952E-03    -146.432E-03     32.7859E-03
            2226     3.11321E-03     16.0675E-03    -95.4406E+06    -198.763E+06    -76.4603E+06     3.09882E+06    -149.360E-03     294.628E-03    -145.268E-03     27.9117E-03    -149.610E-03     294.054E-03    -145.224E-03     25.3032E-03
            2227     2.33706E-03     16.0215E-03    -100.327E+06    -207.515E+06    -89.1440E+06     2.44237E+06    -146.632E-03     290.896E-03    -144.264E-03     20.3305E-03    -146.795E-03     290.223E-03    -144.264E-03     18.4868E-03
            2228     1.55958E-03     15.9873E-03    -103.499E+06    -213.227E+06    -98.4904E+06     1.62832E+06    -144.609E-03     288.134E-03    -143.525E-03     13.5519E-03    -144.716E-03     287.400E-03    -143.558E-03     12.3598E-03
            2229     779.455E-06     15.9682E-03    -105.081E+06    -216.629E+06    -104.349E+06     1.34644E+06    -142.974E-03     286.415E-03    -143.441E-03     6.86708E-03    -143.046E-03     285.649E-03    -143.496E-03     6.25309E-03
            2230     14.4287E-03     17.2907E-03    -5.40413E+06     129.861E+06     89.7252E+06     735.893E+03    -187.438E-03     357.476E-03    -170.038E-03     98.4776E-03    -193.540E-03     363.759E-03    -169.769E-03     81.0753E-03
            2231     13.6854E-03     17.1077E-03    -9.38766E+06     129.785E+06     91.2689E+06     503.387E+03    -186.040E-03     355.002E-03    -168.962E-03     160.625E-03    -196.141E-03     365.265E-03    -168.680E-03     137.130E-03
            2232     12.9402E-03     16.9170E-03    -15.5685E+06     121.448E+06     90.2586E+06     1.18098E+06    -188.088E-03     355.850E-03    -167.762E-03     184.159E-03    -199.558E-03     367.434E-03    -167.464E-03     158.587E-03
            2233     12.1939E-03     16.6695E-03    -21.7634E+06     114.584E+06     88.3991E+06     2.41847E+06    -192.336E-03     358.628E-03    -166.292E-03     207.862E-03    -204.928E-03     371.294E-03    -165.985E-03     180.115E-03
            2234     11.4544E-03     16.4001E-03    -27.7657E+06     105.167E+06     77.6911E+06     3.39320E+06    -195.297E-03     359.720E-03    -164.423E-03     204.061E-03    -206.750E-03     371.224E-03    -164.147E-03     176.752E-03
            2235     10.7126E-03     16.1388E-03    -34.1706E+06     93.4870E+06     58.8368E+06     3.54522E+06    -195.051E-03     357.226E-03    -162.175E-03     181.339E-03    -204.147E-03     366.364E-03    -161.967E-03     156.669E-03
            2236     9.97224E-03     15.9062E-03    -40.7345E+06     72.5125E+06     37.4500E+06     4.14778E+06    -192.207E-03     351.891E-03    -159.683E-03     152.188E-03    -198.852E-03     358.542E-03    -159.542E-03     131.201E-03
            2237     9.22872E-03     15.7026E-03    -47.0307E+06     45.4159E+06     21.4937E+06     4.34267E+06    -188.040E-03     345.116E-03    -157.077E-03     125.073E-03    -192.741E-03     349.752E-03    -156.967E-03     107.744E-03
            2238     8.48249E-03     15.5231E-03    -52.5326E+06     1.83357E+06     9.88099E+06     3.60556E+06    -182.993E-03     337.429E-03    -154.436E-03     102.373E-03    -186.277E-03     340.507E-03    -154.313E-03     88.2825E-03
            2239     7.73237E-03     15.3652E-03    -57.8798E+06    -54.2570E+06    -2.31896E+06     3.73139E+06    -176.809E-03     328.634E-03    -151.826E-03     82.8976E-03    -179.046E-03     330.482E-03    -151.675E-03     71.6692E-03
            2240     6.97627E-03     15.2292E-03    -63.9175E+06    -97.2686E+06    -13.2493E+06     4.39170E+06    -170.230E-03     319.551E-03    -149.322E-03     66.5170E-03    -171.734E-03     320.523E-03    -149.154E-03     57.7070E-03
            2241     6.21603E-03     15.1132E-03    -70.2848E+06    -130.806E+06    -23.7807E+06     4.85156E+06    -164.003E-03     310.983E-03    -146.980E-03     53.4972E-03    -165.018E-03     311.353E-03    -146.807E-03     46.6143E-03
            2242     5.45047E-03     15.0127E-03    -76.3640E+06    -154.305E+06    -34.8317E+06     4.71005E+06    -158.080E-03     302.910E-03    -144.831E-03     42.7151E-03    -158.763E-03     302.876E-03    -144.670E-03     37.3832E-03
            2243     4.68107E-03     14.9300E-03    -82.5152E+06    -171.739E+06    -47.7876E+06     4.15293E+06    -152.795E-03     295.700E-03    -142.905E-03     34.1318E-03    -153.255E-03     295.395E-03    -142.775E-03     30.0415E-03
            2244     3.90768E-03     14.8587E-03    -89.2650E+06    -186.386E+06    -62.3930E+06     4.07353E+06    -148.149E-03     289.381E-03    -141.231E-03     27.0400E-03    -148.461E-03     288.893E-03    -141.144E-03     23.9525E-03
            2245     3.13010E-03     14.8046E-03    -95.2410E+06    -196.207E+06    -76.2423E+06     3.83773E+06    -144.123E-03     283.982E-03    -139.859E-03     20.5866E-03    -144.335E-03     283.379E-03    -139.818E-03     18.3254E-03
            2246     2.34963E-03     14.7600E-03    -99.6606E+06    -204.235E+06    -88.2458E+06     3.01928E+06    -141.111E-03     279.928E-03    -138.818E-03     14.7776E-03    -141.254E-03     279.247E-03    -138.818E-03     13.1892E-03
            2247     1.56718E-03     14.7312E-03    -103.177E+06    -210.367E+06    -98.2154E+06     1.98301E+06    -139.123E-03     277.196E-03    -138.073E-03     9.33349E-03    -139.223E-03     276.464E-03    -138.109E-03     8.30778E-03
            2248     784.236E-06     14.7123E-03    -105.004E+06    -213.541E+06    -103.675E+06     1.08849E+06    -138.173E-03     275.491E-03    -137.318E-03     4.72414E-03    -138.247E-03     274.735E-03    -137.374E-03     4.18729E-03
            2249     14.4309E-03     15.9285E-03    -4.60352E+06     129.434E+06     88.9700E+06     538.966E+03    -189.000E-03     359.088E-03    -170.088E-03     96.2577E-03    -194.934E-03     365.208E-03    -169.824E-03     78.6956E-03
            2250     13.6855E-03     15.7534E-03    -9.91106E+06     128.112E+06     89.5319E+06     758.556E+03    -189.889E-03     358.756E-03    -168.867E-03     158.151E-03    -199.708E-03     368.735E-03    -168.591E-03     134.142E-03
            2251     12.9417E-03     15.5581E-03    -15.4773E+06     120.468E+06     89.3656E+06     1.36507E+06    -194.991E-03     362.333E-03    -167.342E-03     177.904E-03    -206.027E-03     373.482E-03    -167.047E-03     151.381E-03
            2252     12.2066E-03     15.3097E-03    -21.7227E+06     113.503E+06     87.5754E+06     1.53595E+06    -200.747E-03     366.088E-03    -165.341E-03     196.709E-03    -212.626E-03     378.039E-03    -165.036E-03     167.960E-03
            2253     11.4710E-03     15.0409E-03    -27.8389E+06     103.996E+06     77.7595E+06     1.99308E+06    -203.219E-03     366.038E-03    -162.819E-03     188.932E-03    -213.765E-03     376.631E-03    -162.541E-03     161.095E-03
            2254     10.7389E-03     14.7875E-03    -33.6071E+06     92.7552E+06     60.1255E+06     3.18540E+06    -201.543E-03     361.422E-03    -159.879E-03     163.032E-03    -209.711E-03     369.629E-03    -159.664E-03     138.389E-03
            2255     10.0023E-03     14.5628E-03    -39.2314E+06     72.2438E+06     39.2795E+06     4.65431E+06    -197.192E-03     353.879E-03    -156.687E-03     131.694E-03    -203.006E-03     359.701E-03    -156.539E-03     111.126E-03
            2256     9.26339E-03     14.3693E-03    -44.3665E+06     48.9777E+06     23.3899E+06     4.89305E+06    -191.316E-03     344.707E-03    -153.391E-03     104.049E-03    -195.340E-03     348.684E-03    -153.281E-03     87.3660E-03
            2257     8.51976E-03     14.2008E-03    -50.0244E+06     5.87750E+06     10.3535E+06     4.67961E+06    -184.062E-03     334.185E-03    -150.123E-03     81.5732E-03    -186.810E-03     336.750E-03    -150.007E-03     68.3040E-03
            2258     7.76989E-03     14.0566E-03    -56.5324E+06    -52.0221E+06    -2.96228E+06     5.24925E+06    -175.845E-03     322.839E-03    -146.994E-03     63.0941E-03    -177.670E-03     324.290E-03    -146.851E-03     52.7638E-03
            2259     7.01377E-03     13.9338E-03    -62.5397E+06     -94.842E+06    -13.6888E+06     5.82747E+06    -167.791E-03     311.859E-03    -144.068E-03     48.6402E-03    -168.997E-03     312.548E-03    -143.908E-03     40.6800E-03
            2260     6.25125E-03     13.8276E-03    -67.9907E+06    -128.399E+06    -24.2490E+06     5.79272E+06    -160.296E-03     301.682E-03    -141.386E-03     37.3886E-03    -161.092E-03     301.851E-03    -141.222E-03     31.2713E-03
            2261     5.48341E-03     13.7397E-03    -74.1353E+06    -151.745E+06    -35.9399E+06     5.75410E+06    -153.431E-03     292.405E-03    -138.974E-03     28.9367E-03    -153.961E-03     292.237E-03    -138.826E-03     24.2683E-03
            2262     4.70972E-03     13.6640E-03    -81.1499E+06    -170.131E+06    -48.7975E+06     6.39744E+06    -147.399E-03     284.266E-03    -136.867E-03     22.6328E-03    -147.759E-03     283.874E-03    -136.747E-03     19.1077E-03
            2263     3.93124E-03     13.6033E-03    -87.7760E+06    -183.556E+06    -61.5879E+06     6.31598E+06    -142.277E-03     277.359E-03    -135.082E-03     17.4404E-03    -142.528E-03     276.823E-03    -134.997E-03     14.8116E-03
            2264     3.14966E-03     13.5527E-03    -93.8050E+06    -192.305E+06    -74.8965E+06     5.00304E+06    -138.166E-03     271.782E-03    -133.616E-03     12.9875E-03    -138.344E-03     271.158E-03    -133.575E-03     11.0668E-03
            2265     2.36523E-03     13.5162E-03    -99.0411E+06    -200.562E+06    -87.6192E+06     3.73660E+06    -134.917E-03     267.406E-03    -132.489E-03     9.25539E-03    -135.045E-03     266.721E-03    -132.493E-03     7.91249E-03
            2266     1.57812E-03     13.4879E-03    -102.617E+06    -206.304E+06    -97.3206E+06     2.54022E+06    -132.733E-03     264.445E-03    -131.712E-03     6.07545E-03    -132.829E-03     263.723E-03    -131.751E-03     5.21583E-03
            2267     789.629E-06     13.4729E-03    -105.343E+06    -210.232E+06    -103.892E+06     1.00217E+06    -131.489E-03     262.759E-03    -131.270E-03     3.34816E-03    -131.567E-03     262.018E-03    -131.332E-03     2.88136E-03
            2268     14.4258E-03     14.5689E-03    -4.11204E+06     128.958E+06     88.9170E+06     861.127E+03    -193.036E-03     363.106E-03    -170.070E-03     94.3499E-03    -198.834E-03     369.090E-03    -169.806E-03     76.2177E-03
            2269     13.6868E-03     14.3868E-03    -9.49290E+06     127.689E+06     89.6392E+06     957.535E+03    -197.832E-03     366.343E-03    -168.511E-03     153.057E-03    -207.361E-03     376.031E-03    -168.234E-03     127.838E-03
            2270     12.9560E-03     14.1898E-03    -14.9411E+06     120.021E+06     89.4299E+06     750.119E+03    -204.909E-03     371.339E-03    -166.430E-03     170.080E-03    -215.447E-03     381.991E-03    -166.135E-03     142.146E-03
            2271     12.2251E-03     13.9396E-03    -20.7559E+06     113.208E+06     87.9814E+06     1.25082E+06    -210.581E-03     374.316E-03    -163.734E-03     184.338E-03    -221.658E-03     385.468E-03    -163.429E-03     154.537E-03
            2272     11.5003E-03     13.6760E-03    -27.1822E+06     103.277E+06     77.8415E+06     1.63638E+06    -211.768E-03     372.217E-03    -160.450E-03     172.255E-03    -221.385E-03     381.883E-03    -160.171E-03     143.961E-03
            2273     10.7718E-03     13.4301E-03    -33.5273E+06     91.4928E+06     60.2938E+06     1.96251E+06    -208.604E-03     365.327E-03    -156.723E-03     143.386E-03    -215.886E-03     372.645E-03    -156.506E-03     118.776E-03
            2274     10.0430E-03     13.2174E-03    -38.6058E+06     71.2744E+06     40.0793E+06     2.96488E+06    -202.174E-03     354.933E-03    -152.759E-03     110.508E-03    -207.220E-03     359.985E-03    -152.606E-03     90.3804E-03
            2275     9.30761E-03     13.0376E-03    -43.4561E+06      49.583E+06     22.8420E+06     4.72424E+06    -193.562E-03     342.320E-03    -148.758E-03     82.8662E-03    -196.980E-03     345.699E-03    -148.653E-03     66.9208E-03
            2276     8.56551E-03     12.8842E-03    -49.3158E+06     9.42295E+06     8.86208E+06     6.69688E+06    -183.764E-03     328.675E-03    -144.912E-03     61.1267E-03    -186.047E-03     330.795E-03    -144.810E-03     48.7793E-03
            2277     7.81537E-03     12.7571E-03    -55.3925E+06    -47.8922E+06    -4.33680E+06     7.40401E+06    -173.942E-03     315.261E-03    -141.319E-03     44.5869E-03    -175.430E-03     316.398E-03    -141.191E-03     35.1515E-03
            2278     7.05755E-03     12.6476E-03    -61.4699E+06    -91.8158E+06    -14.8121E+06     7.22581E+06    -164.529E-03     302.541E-03    -138.012E-03     32.3389E-03    -165.504E-03     303.016E-03    -137.864E-03     25.1604E-03
            2279     6.29239E-03     12.5569E-03    -68.1077E+06    -125.098E+06    -25.3170E+06     7.48127E+06    -155.694E-03     290.728E-03    -135.034E-03     23.1661E-03    -156.334E-03     290.755E-03    -134.880E-03     17.7607E-03
            2280     5.51983E-03     12.4791E-03    -74.9914E+06    -149.838E+06    -38.2807E+06     7.75144E+06    -147.984E-03     280.386E-03    -132.402E-03     16.7696E-03    -148.412E-03     280.126E-03    -132.267E-03     12.7050E-03
            2281     4.74201E-03     12.4155E-03    -81.0301E+06    -168.194E+06    -51.1178E+06     8.05802E+06    -141.370E-03     271.502E-03    -130.132E-03     12.0678E-03    -141.660E-03     271.053E-03    -130.026E-03     9.03383E-03
            2282     3.95940E-03     12.3614E-03    -86.3137E+06    -179.645E+06    -62.0321E+06     7.89233E+06    -135.768E-03     264.008E-03    -128.240E-03     8.81891E-03    -135.971E-03     263.444E-03    -128.165E-03     6.58828E-03
            2283     3.17208E-03     12.3194E-03    -91.7707E+06    -187.589E+06    -73.8565E+06     7.02730E+06    -131.335E-03     258.057E-03    -126.723E-03     6.43239E-03    -131.485E-03     257.427E-03    -126.687E-03     4.82351E-03
            2284     2.38145E-03     12.2859E-03    -96.9891E+06    -195.396E+06    -86.4309E+06     5.37230E+06    -128.027E-03     253.601E-03    -125.574E-03     4.60611E-03    -128.141E-03     252.924E-03    -125.582E-03     3.48793E-03
            2285     1.58864E-03     12.2640E-03    -101.281E+06    -201.687E+06     -96.696E+06     3.66631E+06    -125.712E-03     250.530E-03    -124.818E-03     3.29115E-03    -125.804E-03     249.823E-03    -124.862E-03     2.58069E-03
            2286     794.085E-06     12.2477E-03    -103.629E+06    -205.346E+06    -102.720E+06     2.01643E+06    -124.608E-03     249.030E-03    -124.422E-03     1.40957E-03    -124.687E-03     248.306E-03    -124.487E-03     1.03377E-03
            2287     14.4308E-03     13.1949E-03    -4.12735E+06     128.671E+06     89.7606E+06     239.831E+03    -201.353E-03     371.193E-03    -169.840E-03     92.3292E-03    -207.083E-03     377.105E-03    -169.572E-03     73.0943E-03
            2288     13.7009E-03     13.0124E-03    -8.64288E+06     127.755E+06     90.5224E+06     502.762E+03    -208.177E-03     375.932E-03    -167.754E-03     149.889E-03    -217.506E-03     385.420E-03    -167.474E-03     122.995E-03
            2289     12.9717E-03     12.8083E-03    -14.2790E+06     119.751E+06     89.3635E+06     812.130E+03    -216.241E-03     381.233E-03    -164.992E-03     162.939E-03    -226.289E-03     391.398E-03    -164.698E-03     133.479E-03
            2290     12.2540E-03     12.5583E-03    -20.2874E+06     112.689E+06     87.7210E+06     796.562E+03    -221.147E-03     382.661E-03    -161.514E-03     171.449E-03    -231.471E-03     393.062E-03    -161.210E-03     140.580E-03
            2291     11.5343E-03     12.3036E-03    -26.2345E+06     103.169E+06     79.0619E+06     940.897E+03    -220.803E-03     378.209E-03    -157.406E-03     155.495E-03    -229.596E-03     387.051E-03    -157.122E-03     126.717E-03
            2292     10.8163E-03     12.0671E-03    -31.7343E+06     91.9069E+06     62.3503E+06     1.15726E+06    -215.289E-03     368.153E-03    -152.864E-03     124.220E-03    -221.793E-03     374.696E-03    -152.639E-03     99.7010E-03
            2293     10.0907E-03     11.8717E-03    -37.5514E+06     69.3542E+06     38.7836E+06     2.69877E+06    -206.003E-03     354.153E-03    -148.150E-03     90.7537E-03    -210.409E-03     358.566E-03    -148.002E-03     71.1384E-03
            2294     9.35834E-03     11.7087E-03    -43.8485E+06     46.8716E+06     18.1265E+06     5.54481E+06    -194.221E-03     337.762E-03    -143.541E-03     63.9705E-03    -197.141E-03     340.647E-03    -143.455E-03     48.8448E-03
            2295     8.61578E-03     11.5772E-03    -49.6010E+06     11.1727E+06     4.86525E+06     8.23225E+06    -182.250E-03     321.498E-03    -139.247E-03     45.1733E-03    -184.203E-03     323.304E-03    -139.167E-03     33.6721E-03
            2296     7.86402E-03     11.4659E-03    -55.5465E+06    -42.8616E+06    -6.85194E+06     9.71669E+06    -171.221E-03     306.525E-03    -135.304E-03     30.8086E-03    -172.497E-03     307.476E-03    -135.196E-03     22.1212E-03
            2297     7.10371E-03     11.3752E-03    -62.2756E+06    -87.6953E+06    -17.1959E+06     9.70856E+06    -160.578E-03     292.291E-03    -131.714E-03     20.3882E-03    -161.415E-03     292.648E-03    -131.582E-03     13.8645E-03
            2298     6.33473E-03     11.2985E-03    -68.8180E+06    -121.982E+06    -27.2630E+06     9.61545E+06    -150.975E-03     279.483E-03    -128.508E-03     13.3208E-03    -151.531E-03     279.441E-03    -128.368E-03     8.44495E-03
            2299     5.55882E-03     11.2355E-03    -74.6409E+06    -146.856E+06    -39.7346E+06     9.76281E+06    -142.579E-03     268.264E-03    -125.685E-03     8.44260E-03    -142.950E-03     267.964E-03    -125.563E-03     4.81654E-03
            2300     4.77621E-03     11.1809E-03    -80.3507E+06    -164.616E+06     -52.858E+06     9.38535E+06    -135.300E-03     258.567E-03    -123.267E-03     5.30407E-03    -135.553E-03     258.102E-03    -123.176E-03     2.62230E-03
            2301     3.98766E-03     11.1386E-03    -85.8752E+06    -175.739E+06    -64.1258E+06     8.63992E+06    -129.278E-03     250.552E-03    -121.274E-03     3.49251E-03    -129.461E-03     249.989E-03    -121.215E-03     1.52842E-03
            2302     3.19498E-03     11.1015E-03    -90.4056E+06    -183.151E+06    -74.1481E+06     7.92044E+06    -124.509E-03     244.213E-03    -119.703E-03     2.25385E-03    -124.647E-03     243.591E-03    -119.677E-03     852.301E-06
            2303     2.39895E-03     11.0757E-03    -94.2717E+06    -189.441E+06    -84.1957E+06     7.04455E+06    -121.124E-03     239.644E-03    -118.520E-03     1.37113E-03    -121.230E-03     238.984E-03    -118.530E-03     417.038E-06
            2304     1.60063E-03     11.0542E-03    -97.7304E+06    -195.093E+06    -93.5062E+06     5.24641E+06    -118.849E-03     236.523E-03    -117.674E-03     772.420E-06    -118.934E-03     235.835E-03    -117.717E-03     174.850E-06
            2305     800.984E-06     11.0436E-03     -100.07E+06    -198.726E+06    -99.3836E+06     3.03536E+06    -117.709E-03     234.604E-03    -116.894E-03     821.791E-06    -117.784E-03     233.901E-03    -116.958E-03     519.305E-06
            2306     14.4377E-03     11.8138E-03    -4.05136E+06     128.510E+06     89.5951E+06    -411.142E+03    -211.885E-03     381.289E-03    -169.404E-03     95.5057E-03    -217.700E-03     387.286E-03    -169.136E-03     74.6180E-03
            2307     13.7110E-03     11.6231E-03    -9.76673E+06     126.392E+06     89.1393E+06    -412.993E+03    -220.797E-03     387.468E-03    -166.671E-03     149.305E-03    -230.085E-03     396.912E-03    -166.394E-03     120.318E-03
            2308     12.9999E-03     11.4102E-03    -14.1035E+06     119.626E+06     89.3684E+06     172.939E+03    -228.501E-03     391.640E-03    -163.139E-03     156.767E-03    -238.217E-03     401.473E-03    -162.845E-03     125.584E-03
            2309     12.2863E-03     11.1710E-03    -19.4773E+06     112.917E+06     87.9702E+06     19.8715E+03    -231.879E-03     390.717E-03    -158.838E-03     159.774E-03    -241.598E-03     400.517E-03    -158.534E-03     127.796E-03
            2310     11.5781E-03     10.9175E-03    -25.1649E+06     103.212E+06     78.4516E+06    -212.874E+03    -229.041E-03     382.957E-03    -153.916E-03     141.189E-03    -237.180E-03     391.152E-03    -153.637E-03     111.986E-03
            2311     10.8629E-03     10.7050E-03    -31.2247E+06     90.2990E+06     59.5077E+06     978.161E+03    -220.388E-03     369.033E-03    -148.645E-03     108.501E-03    -226.293E-03     374.984E-03    -148.433E-03     84.1948E-03
            2312     10.1419E-03     10.5226E-03    -37.5462E+06     66.0004E+06     35.7832E+06     4.14618E+06    -207.276E-03     350.659E-03    -143.383E-03     75.6852E-03    -211.201E-03     354.590E-03    -143.246E-03     56.8010E-03
            2313     9.40906E-03     10.3901E-03    -43.5324E+06     43.6363E+06     15.1736E+06     7.73051E+06    -193.101E-03     331.504E-03    -138.403E-03     51.6598E-03    -195.706E-03     334.072E-03    -138.328E-03     37.3477E-03
            2314     8.66397E-03     10.2768E-03    -50.0197E+06     11.7765E+06     404.036E+03     10.9954E+06    -179.785E-03     313.623E-03    -133.838E-03     35.6989E-03    -181.556E-03     315.262E-03    -133.780E-03     24.8941E-03
            2315     7.91014E-03     10.1867E-03    -56.7320E+06    -38.2801E+06    -10.8613E+06     12.6031E+06    -167.382E-03     297.102E-03    -129.720E-03     23.9619E-03    -168.571E-03     297.988E-03    -129.636E-03     15.8604E-03
            2316     7.14613E-03     10.1139E-03    -63.0044E+06    -82.2391E+06    -20.1928E+06     12.2653E+06    -156.329E-03     282.346E-03    -126.017E-03     15.8943E-03    -157.129E-03     282.692E-03    -125.908E-03     9.81395E-03
            2317     6.37358E-03     10.0546E-03    -69.0908E+06    -117.726E+06    -29.3057E+06     11.3629E+06    -146.417E-03     269.133E-03    -122.716E-03     10.7765E-03    -146.963E-03     269.102E-03    -122.592E-03     6.21529E-03
            2318     5.59349E-03     10.0037E-03    -74.9724E+06    -143.591E+06     -39.826E+06     10.8312E+06    -137.629E-03     257.445E-03    -119.816E-03     7.34568E-03    -138.005E-03     257.160E-03    -119.698E-03     3.94736E-03
            2319     4.80617E-03     9.96437E-03    -79.9797E+06    -160.254E+06    -52.2998E+06     10.3666E+06    -130.128E-03     247.447E-03    -117.318E-03     5.11291E-03    -130.390E-03     247.007E-03    -117.231E-03     2.59756E-03
            2320     4.01364E-03     9.92832E-03    -84.4095E+06    -171.046E+06    -64.1414E+06     9.12676E+06    -123.921E-03     239.153E-03    -115.232E-03     3.51181E-03    -124.107E-03     238.617E-03    -115.182E-03     1.66620E-03
            2321     3.21620E-03     9.90259E-03    -88.2864E+06    -178.870E+06    -73.9161E+06     8.04472E+06    -119.026E-03     232.575E-03    -113.549E-03     2.45973E-03    -119.162E-03     231.976E-03    -113.531E-03     1.13872E-03
            2322     2.41499E-03     9.87854E-03    -91.4241E+06    -183.970E+06    -81.7670E+06     7.06465E+06    -115.327E-03     227.568E-03    -112.241E-03     1.60314E-03    -115.432E-03     226.930E-03    -112.250E-03     702.017E-06
            2323     1.61165E-03     9.86428E-03    -93.7688E+06    -187.624E+06    -87.9824E+06     5.38957E+06    -112.740E-03     224.010E-03    -111.270E-03     1.09205E-03    -112.825E-03     223.348E-03    -111.301E-03     530.815E-06
            2324     806.263E-06     9.85241E-03    -95.4122E+06    -190.686E+06    -93.6497E+06     3.36907E+06    -111.256E-03     221.664E-03    -110.409E-03     724.549E-06    -111.326E-03     220.988E-03    -110.462E-03     438.251E-06
            2325     14.4407E-03     10.4103E-03    -3.64051E+06     129.227E+06     89.9124E+06     118.419E+03    -224.092E-03     392.886E-03    -168.794E-03     96.1014E-03    -230.001E-03     398.980E-03    -168.526E-03     73.5322E-03
            2326     13.7353E-03     10.2143E-03    -9.62184E+06     126.899E+06     89.1926E+06    -661.842E+03    -232.858E-03     398.242E-03    -165.384E-03     150.601E-03    -242.277E-03     407.818E-03    -165.109E-03     119.428E-03
            2327     13.0239E-03     10.0047E-03    -14.6678E+06     119.487E+06     88.6792E+06    -1.43673E+06    -240.587E-03     401.696E-03    -161.109E-03     154.748E-03    -250.216E-03     411.442E-03    -160.817E-03     121.734E-03
            2328     12.3251E-03     9.76118E-03    -19.5649E+06     112.640E+06     87.1857E+06    -1.43734E+06    -241.697E-03     397.742E-03    -156.044E-03     153.071E-03    -251.109E-03     407.237E-03    -155.744E-03     119.948E-03
            2329     11.6190E-03     9.53628E-03    -25.8396E+06     101.490E+06     75.5225E+06    -75.7804E+03    -235.735E-03     386.162E-03    -150.427E-03     131.578E-03    -243.445E-03     393.930E-03    -150.159E-03     102.098E-03
            2330     10.9099E-03     9.32928E-03    -33.6514E+06     85.5794E+06     53.0792E+06     3.20612E+06    -222.105E-03     366.753E-03    -144.647E-03     96.5441E-03    -227.531E-03     372.219E-03    -144.457E-03     72.9314E-03
            2331     10.1872E-03     9.18934E-03    -41.8318E+06     63.4626E+06     28.8221E+06     6.41733E+06    -205.014E-03     344.166E-03    -139.152E-03     66.8045E-03    -208.639E-03     347.792E-03    -139.039E-03     48.9139E-03
            2332     9.44972E-03     9.07187E-03    -48.9750E+06     40.0011E+06     9.20646E+06     9.48481E+06    -189.642E-03     323.771E-03    -134.129E-03     48.0817E-03    -192.148E-03     326.225E-03    -134.070E-03     34.5297E-03
            2333     8.70480E-03     8.98800E-03    -54.5340E+06     11.0931E+06    -3.47353E+06     12.6722E+06    -175.548E-03     305.150E-03    -129.602E-03     35.3349E-03    -177.305E-03     306.768E-03    -129.556E-03     25.1027E-03
            2334     7.94506E-03     8.91809E-03    -58.6460E+06    -32.4858E+06    -12.6640E+06     13.3266E+06    -162.552E-03     288.138E-03    -125.586E-03     27.4449E-03    -163.785E-03     289.088E-03    -125.517E-03     19.7436E-03
            2335     7.17672E-03     8.86425E-03    -62.4487E+06    -78.1928E+06    -20.7552E+06     12.6535E+06    -151.605E-03     273.640E-03    -122.035E-03     21.8307E-03    -152.460E-03     274.059E-03    -121.935E-03     15.9975E-03
            2336     6.40056E-03     8.82015E-03    -67.1321E+06    -113.688E+06    -27.1715E+06     12.9841E+06    -142.040E-03     260.929E-03    -118.889E-03     18.1290E-03    -142.640E-03     260.968E-03    -118.763E-03     13.7168E-03
            2337     5.61595E-03     8.78624E-03    -72.9479E+06    -139.065E+06    -36.0680E+06     12.0831E+06    -133.696E-03     249.806E-03    -116.110E-03     15.5636E-03    -134.125E-03     249.589E-03    -115.983E-03     12.2299E-03
            2338     4.82589E-03     8.75543E-03    -78.6266E+06    -155.627E+06    -48.1315E+06     10.2166E+06    -126.668E-03     240.341E-03    -113.673E-03     13.2316E-03    -126.976E-03     239.958E-03    -113.574E-03     10.7187E-03
            2339     4.02990E-03     8.73322E-03    -82.9503E+06    -166.187E+06    -60.0100E+06     8.86926E+06    -120.697E-03     232.275E-03    -111.578E-03     11.0956E-03    -120.917E-03     231.785E-03    -111.517E-03     9.23279E-03
            2340     3.22949E-03     8.71159E-03    -86.4583E+06    -173.759E+06    -70.0396E+06     7.35203E+06    -115.786E-03     225.619E-03    -109.833E-03     9.13980E-03    -115.944E-03     225.057E-03    -109.806E-03     7.79164E-03
            2341     2.42613E-03     8.69727E-03    -89.1826E+06    -178.619E+06    -78.0116E+06     5.27168E+06    -111.879E-03     220.319E-03    -108.440E-03     7.02049E-03    -111.996E-03     219.711E-03    -108.442E-03     6.08171E-03
            2342     1.61873E-03     8.68454E-03    -90.5589E+06    -181.752E+06    -84.0372E+06     3.45206E+06    -108.986E-03     216.396E-03    -107.410E-03     4.85301E-03    -109.072E-03     215.759E-03    -107.435E-03     4.25580E-03
            2343     810.133E-06     8.67814E-03    -91.2543E+06    -184.027E+06    -88.7375E+06     1.79352E+06    -107.329E-03     213.932E-03    -106.603E-03     2.74235E-03    -107.397E-03     213.279E-03    -106.648E-03     2.42711E-03
            2344     14.4642E-03     9.00857E-03    -5.40890E+06     129.483E+06     89.1073E+06    -734.039E+03    -237.349E-03     405.707E-03    -168.358E-03     114.187E-03    -243.965E-03     412.503E-03    -168.092E-03     88.7831E-03
            2345     13.7453E-03     8.79323E-03    -8.56066E+06     129.476E+06     90.8795E+06    -389.410E+03    -247.181E-03     411.425E-03    -164.244E-03     159.919E-03    -257.036E-03     421.445E-03    -163.965E-03     126.159E-03
            2346     13.0541E-03     8.57402E-03    -13.7132E+06     120.924E+06     88.6627E+06    -891.872E+03    -251.002E-03     410.256E-03    -159.254E-03     156.716E-03    -260.729E-03     420.109E-03    -158.966E-03     122.128E-03
            2347     12.3538E-03     8.35480E-03    -20.9091E+06     111.093E+06     83.4084E+06    -352.333E+03    -250.019E-03     403.571E-03    -153.552E-03     150.363E-03    -259.324E-03     412.961E-03    -153.266E-03     116.263E-03
            2348     11.6572E-03     8.13110E-03    -29.1381E+06     96.9641E+06     70.8068E+06     2.33890E+06    -238.408E-03     385.884E-03    -147.476E-03     123.117E-03    -245.687E-03     393.210E-03    -147.220E-03     94.1537E-03
            2349     10.9468E-03     7.97201E-03    -37.5913E+06     79.5208E+06     50.2522E+06     6.60680E+06    -218.114E-03     359.724E-03    -141.610E-03     90.1306E-03    -223.148E-03     364.772E-03    -141.420E-03     68.0311E-03
            2350     10.2178E-03     7.85433E-03    -45.4916E+06     61.8603E+06     27.0358E+06     10.2343E+06    -198.764E-03     335.096E-03    -136.332E-03     68.3029E-03    -202.280E-03     338.599E-03    -136.220E-03     51.7009E-03
            2351     9.47867E-03     7.77032E-03    -52.4845E+06     38.7915E+06     8.08995E+06     11.7314E+06    -182.533E-03     314.225E-03    -131.692E-03     55.7189E-03    -185.083E-03     316.710E-03    -131.632E-03     43.0902E-03
            2352     8.72231E-03     7.70520E-03    -57.9599E+06     11.4750E+06    -2.24872E+06     11.9609E+06    -168.581E-03     296.226E-03    -127.645E-03     47.5912E-03    -170.458E-03     297.949E-03    -127.589E-03     37.9583E-03
            2353     7.95983E-03     7.66082E-03    -61.9006E+06    -27.1463E+06    -9.70944E+06     11.1569E+06    -156.861E-03     280.972E-03    -124.111E-03     42.8976E-03    -158.246E-03     282.074E-03    -124.030E-03     35.4938E-03
            2354     7.18650E-03     7.62197E-03    -64.9778E+06    -76.2077E+06    -17.6575E+06     10.2837E+06    -146.686E-03     267.711E-03    -121.025E-03     39.2816E-03    -147.684E-03     268.262E-03    -120.909E-03     33.5841E-03
            2355     6.40527E-03     7.59558E-03    -67.4767E+06    -112.450E+06    -23.5451E+06     10.7927E+06    -138.365E-03     256.681E-03    -118.316E-03     35.9286E-03    -139.079E-03     256.827E-03    -118.173E-03     31.5418E-03
            2356     5.61899E-03     7.57176E-03    -70.2090E+06    -134.694E+06    -30.5566E+06     11.2954E+06    -131.349E-03     247.252E-03    -115.903E-03     32.9744E-03    -131.861E-03     247.128E-03    -115.759E-03     29.6123E-03
            2357     4.82654E-03     7.55500E-03    -74.6252E+06    -150.466E+06    -40.0714E+06     10.1459E+06    -125.257E-03     239.025E-03    -113.768E-03     29.7057E-03    -125.627E-03     238.713E-03    -113.642E-03     27.1452E-03
            2358     4.03005E-03     7.53896E-03    -79.6411E+06    -160.762E+06    -50.8773E+06     7.65739E+06    -120.122E-03     232.024E-03    -111.901E-03     26.1044E-03    -120.390E-03     231.586E-03    -111.807E-03     24.1739E-03
            2359     3.22967E-03     7.52836E-03    -83.1988E+06    -167.802E+06    -61.7595E+06     4.66520E+06    -115.715E-03     226.029E-03    -110.314E-03     22.0577E-03    -115.906E-03     225.507E-03    -110.258E-03     20.6324E-03
            2360     2.42467E-03     7.51767E-03    -85.5637E+06    -173.934E+06    -71.8501E+06     1.97824E+06    -112.162E-03     221.196E-03    -109.034E-03     17.3930E-03    -112.292E-03     220.612E-03    -109.017E-03     16.3811E-03
            2361     1.61875E-03     7.51178E-03    -87.2626E+06    -178.688E+06    -80.3414E+06     306.476E+03    -109.531E-03     217.613E-03    -108.082E-03     12.1459E-03    -109.619E-03     216.988E-03    -108.098E-03     11.4878E-03
            2362     809.469E-06     7.50691E-03    -88.1288E+06    -181.538E+06    -86.0985E+06    -270.193E+03    -107.654E-03     215.342E-03    -107.689E-03     6.97573E-03    -107.716E-03     214.695E-03    -107.728E-03     6.62714E-03
            2363     14.4339E-03     7.54070E-03    -5.21079E+06     131.589E+06     88.3483E+06    -628.794E+03    -247.256E-03     415.291E-03    -168.035E-03     115.954E-03    -253.973E-03     422.200E-03    -167.776E-03     89.2774E-03
            2364     13.7671E-03     7.34877E-03    -11.2445E+06     127.781E+06     85.8299E+06    -1.51043E+06    -256.207E-03     419.604E-03    -163.397E-03     162.278E-03    -266.316E-03     429.873E-03    -163.137E-03     127.000E-03
            2365     13.0671E-03     7.14561E-03    -16.7582E+06     118.242E+06     82.6556E+06    -249.787E+03    -260.757E-03     418.630E-03    -157.873E-03     162.202E-03    -270.720E-03     428.716E-03    -157.607E-03     126.117E-03
            2366     12.3810E-03     6.91884E-03    -23.1819E+06     107.776E+06     78.1676E+06     3.03339E+06    -253.322E-03     405.089E-03    -151.767E-03     146.915E-03    -262.247E-03     414.100E-03    -151.499E-03     113.334E-03
            2367     11.6831E-03     6.74039E-03    -31.1435E+06     91.5524E+06     66.9127E+06     6.54143E+06    -231.690E-03     377.447E-03    -145.756E-03     118.662E-03    -238.360E-03     384.151E-03    -145.509E-03     92.1521E-03
            2368     10.9622E-03     6.61924E-03    -39.0808E+06     74.6744E+06     50.4113E+06     9.78083E+06    -207.309E-03     347.755E-03    -140.447E-03     95.3186E-03    -212.039E-03     352.478E-03    -140.246E-03     75.6227E-03
            2369     10.2267E-03     6.53569E-03    -45.4890E+06     60.0558E+06     33.2385E+06     12.1757E+06    -187.700E-03     323.665E-03    -135.965E-03     83.0807E-03    -191.200E-03     327.129E-03    -135.820E-03     68.1965E-03
            2370     9.47369E-03     6.47626E-03    -50.7194E+06     39.9694E+06     18.0594E+06     12.9241E+06    -172.277E-03     304.475E-03    -132.198E-03     75.7805E-03    -174.914E-03     307.029E-03    -132.092E-03     64.3557E-03
            2371     8.71394E-03     6.43705E-03    -55.8361E+06     15.5456E+06     8.47644E+06     11.3871E+06    -160.118E-03     289.145E-03    -129.027E-03     71.1645E-03    -162.128E-03     290.993E-03    -128.927E-03     62.2832E-03
            2372     7.94217E-03     6.40537E-03     -60.822E+06    -23.9005E+06     656.293E+03     8.52692E+06    -150.495E-03     276.830E-03    -126.335E-03     67.7019E-03    -152.019E-03     278.055E-03    -126.209E-03     60.7207E-03
            2373     7.16553E-03     6.38728E-03    -65.1083E+06    -75.3877E+06    -8.32183E+06     6.89779E+06    -142.695E-03     266.712E-03    -124.017E-03     64.6943E-03    -143.821E-03     267.366E-03    -123.855E-03     59.1972E-03
            2374     6.38281E-03     6.36909E-03    -69.1943E+06    -111.843E+06    -15.2514E+06     5.97628E+06    -136.284E-03     258.278E-03    -121.994E-03     60.9853E-03    -137.114E-03     258.511E-03    -121.808E-03     56.6614E-03
            2375     5.59501E-03     6.35906E-03    -72.0365E+06    -133.265E+06    -22.6525E+06     5.45777E+06    -131.034E-03     251.236E-03    -120.202E-03     56.4203E-03    -131.641E-03     251.180E-03    -120.018E-03     53.0418E-03
            2376     4.80359E-03     6.34867E-03    -73.0460E+06    -146.689E+06    -30.3213E+06     5.12444E+06    -126.546E-03     245.172E-03    -118.627E-03     51.2071E-03    -126.979E-03     244.912E-03    -118.460E-03     48.6023E-03
            2377     4.00840E-03     6.34285E-03    -74.5845E+06    -155.028E+06    -38.6474E+06     3.39142E+06    -122.777E-03     240.044E-03    -117.267E-03     45.1195E-03    -123.082E-03     239.643E-03    -117.127E-03     43.1380E-03
            2378     3.21003E-03     6.33640E-03    -77.9249E+06    -162.889E+06    -50.4521E+06     461.266E+03    -119.729E-03     235.835E-03    -116.106E-03     37.9431E-03    -119.940E-03     235.333E-03    -116.009E-03     36.4600E-03
            2379     2.41067E-03     6.33341E-03    -81.2770E+06    -171.588E+06    -64.2677E+06    -1.71984E+06    -117.193E-03     232.357E-03    -115.164E-03     29.7542E-03    -117.330E-03     231.777E-03    -115.119E-03     28.6912E-03
            2380     1.60726E-03     6.32942E-03    -84.3179E+06    -178.989E+06    -76.1366E+06    -2.23770E+06    -115.382E-03     229.860E-03    -114.478E-03     20.7445E-03    -115.469E-03     229.225E-03    -114.476E-03     20.0525E-03
            2381     804.547E-06     6.32865E-03    -86.7036E+06    -183.782E+06    -84.0736E+06    -1.58556E+06    -114.132E-03     228.332E-03    -114.200E-03     11.4132E-03    -114.192E-03     227.667E-03    -114.228E-03     11.0417E-03
            2382     14.4915E-03     6.12144E-03    -5.21805E+06     133.248E+06     84.9676E+06     1.61188E+06    -255.310E-03     423.444E-03    -168.134E-03     143.471E-03    -263.054E-03     431.392E-03    -167.895E-03     115.194E-03
            2383     13.7582E-03     5.90436E-03    -11.9709E+06     127.484E+06     80.5917E+06     2.38989E+06    -265.303E-03     428.438E-03    -163.135E-03     183.123E-03    -276.319E-03     439.615E-03    -162.900E-03     146.115E-03
            2384     13.0819E-03     5.67934E-03    -18.8841E+06     115.250E+06     76.0420E+06     2.38627E+06    -265.187E-03     422.492E-03    -157.305E-03     165.454E-03    -274.939E-03     432.377E-03    -157.065E-03     129.845E-03
            2385     12.3937E-03     5.49507E-03    -25.4701E+06     101.511E+06     71.6527E+06     5.00673E+06    -243.600E-03     394.994E-03    -151.394E-03     146.257E-03    -251.617E-03     403.092E-03    -151.146E-03     116.438E-03
            2386     11.6792E-03     5.36381E-03    -31.5663E+06     85.9953E+06     64.7492E+06     8.90151E+06    -214.677E-03     360.949E-03    -146.272E-03     125.577E-03    -220.559E-03     366.853E-03    -146.027E-03     103.386E-03
            2387     10.9467E-03     5.28489E-03    -37.6541E+06     71.7486E+06     54.2874E+06     11.3026E+06    -190.923E-03     333.107E-03    -142.184E-03     113.624E-03    -195.286E-03     337.446E-03    -141.962E-03     97.0824E-03
            2388     10.1953E-03     5.22949E-03    -43.7644E+06     59.9063E+06     41.4496E+06     11.9753E+06    -173.948E-03     312.902E-03    -138.955E-03     107.549E-03    -177.290E-03     316.192E-03    -138.771E-03     94.8529E-03
            2389     9.43632E-03     5.19529E-03    -48.8134E+06     43.4013E+06     30.0873E+06     10.2345E+06    -161.574E-03     297.961E-03    -136.387E-03     103.055E-03    -164.141E-03     300.429E-03    -136.229E-03     93.1542E-03
            2390     8.66586E-03     5.16953E-03    -51.8221E+06     19.6759E+06     25.2213E+06     7.14431E+06    -152.530E-03     286.876E-03    -134.346E-03     99.3018E-03    -154.515E-03     288.678E-03    -134.173E-03     91.4511E-03
            2391     7.89216E-03     5.15662E-03    -55.0961E+06    -23.4358E+06     18.8271E+06     5.06280E+06    -145.857E-03     278.546E-03    -132.689E-03     95.2112E-03    -147.363E-03     279.721E-03    -132.481E-03     88.9459E-03
            2392     7.11211E-03     5.14395E-03    -59.9924E+06    -75.3837E+06     9.31555E+06     3.31765E+06    -140.993E-03     272.295E-03    -131.302E-03     90.5947E-03    -142.113E-03     272.907E-03    -131.059E-03     85.5723E-03
            2393     6.32950E-03     5.13946E-03    -64.5771E+06    -109.277E+06     2.01727E+06     542.541E+03    -137.093E-03     267.203E-03    -130.110E-03     84.9506E-03    -137.930E-03     267.414E-03    -129.848E-03     80.9110E-03
            2394     5.54365E-03     5.13295E-03    -68.2139E+06    -131.383E+06    -9.06252E+06    -3.12520E+06    -133.988E-03     263.052E-03    -129.064E-03     78.0948E-03    -134.602E-03     262.979E-03    -128.820E-03     74.8478E-03
            2395     4.75573E-03     5.13183E-03    -70.1752E+06    -146.160E+06    -21.7394E+06    -5.39369E+06    -131.640E-03     259.790E-03    -128.150E-03     69.8377E-03    -132.077E-03     259.515E-03    -127.945E-03     67.2533E-03
            2396     3.96557E-03     5.12883E-03    -71.1264E+06    -154.080E+06    -31.4017E+06    -5.39840E+06    -129.614E-03     256.997E-03    -127.382E-03     60.4187E-03    -129.919E-03     256.583E-03    -127.213E-03     58.4196E-03
            2397     3.17460E-03     5.12826E-03    -73.1788E+06    -162.448E+06    -43.8960E+06    -4.80955E+06    -128.008E-03     254.768E-03    -126.760E-03     50.1125E-03    -128.211E-03     254.250E-03    -126.637E-03     48.6139E-03
            2398     2.38101E-03     5.12690E-03    -77.1704E+06    -173.407E+06    -60.3662E+06    -4.04509E+06    -126.988E-03     253.244E-03    -126.256E-03     38.8628E-03    -127.113E-03     252.641E-03    -126.194E-03     37.7906E-03
            2399     1.58870E-03     5.12734E-03    -81.5607E+06    -182.432E+06    -73.6644E+06    -2.85234E+06    -126.226E-03     252.097E-03    -125.871E-03     26.7797E-03    -126.303E-03     251.435E-03    -125.856E-03     26.0856E-03
            2400     793.872E-06     5.12551E-03    -84.6936E+06    -188.286E+06    -82.4686E+06    -1.74108E+06    -125.709E-03     251.321E-03    -125.612E-03     14.6397E-03    -125.758E-03     250.625E-03    -125.628E-03     14.2684E-03
            2401     14.4039E-03     4.65703E-03    -6.27733E+06     133.168E+06     80.0370E+06     4.33355E+06    -269.029E-03     438.393E-03    -169.363E-03     170.371E-03    -277.360E-03     446.930E-03    -169.147E-03     140.489E-03
            2402     13.7617E-03     4.40862E-03    -10.2925E+06     128.168E+06     78.9119E+06     4.55643E+06    -273.745E-03     437.706E-03    -163.961E-03     196.207E-03    -284.754E-03     448.906E-03    -163.738E-03     159.269E-03
            2403     13.0780E-03     4.22831E-03    -15.1670E+06     112.575E+06     74.4782E+06     6.48080E+06    -253.036E-03     411.398E-03    -158.363E-03     171.315E-03    -261.694E-03     420.208E-03    -158.131E-03     140.564E-03
            2404     12.3687E-03     4.08961E-03    -22.0342E+06     96.6526E+06     69.9019E+06     8.56532E+06    -220.997E-03     374.575E-03    -153.577E-03     155.868E-03    -227.569E-03     381.232E-03    -153.336E-03     132.534E-03
            2405     11.6388E-03     4.01689E-03    -28.8933E+06     82.5520E+06     66.2539E+06     9.47228E+06    -193.460E-03     343.455E-03    -149.995E-03     143.602E-03    -198.224E-03     348.234E-03    -149.741E-03     126.621E-03
            2406     10.8861E-03     3.96520E-03    -34.2466E+06     72.0539E+06     61.6005E+06     9.22393E+06    -174.989E-03     322.409E-03    -147.420E-03     137.052E-03    -178.591E-03     325.978E-03    -147.167E-03     124.208E-03
            2407     10.1274E-03     3.93543E-03    -37.5345E+06     61.4336E+06     53.8926E+06     7.77473E+06    -163.044E-03     308.581E-03    -145.537E-03     131.085E-03    -165.798E-03     311.270E-03    -145.302E-03     121.082E-03
            2408     9.35812E-03     3.91438E-03    -40.5933E+06     49.1865E+06     47.0441E+06     4.99620E+06    -154.882E-03     299.035E-03    -144.153E-03     125.253E-03    -157.005E-03     301.056E-03    -143.931E-03     117.334E-03
            2409     8.58693E-03     3.90364E-03    -45.6321E+06     20.6154E+06     43.3518E+06     1.76987E+06    -149.442E-03     292.610E-03    -143.168E-03     118.979E-03    -151.091E-03     294.044E-03    -142.915E-03     112.605E-03
            2410     7.81013E-03     3.89493E-03    -51.2402E+06    -25.5338E+06     36.1924E+06    -417.533E+03    -146.072E-03     288.508E-03    -142.436E-03     112.096E-03    -147.333E-03     289.389E-03    -142.144E-03     106.909E-03
            2411     7.03312E-03     3.89256E-03    -54.5382E+06    -72.4554E+06     26.2472E+06    -4.82242E+06    -143.823E-03     285.678E-03    -141.855E-03     104.427E-03    -144.763E-03     286.086E-03    -141.539E-03     100.150E-03
            2412     6.25367E-03     3.88878E-03    -55.7820E+06    -107.271E+06     13.9194E+06    -9.74138E+06    -142.317E-03     283.683E-03    -141.366E-03     95.7880E-03    -142.998E-03     283.737E-03    -141.060E-03     92.2365E-03
            2413     5.47366E-03     3.89008E-03    -57.0489E+06    -130.763E+06    -3.17974E+06    -11.9011E+06    -141.350E-03     282.281E-03    -140.932E-03     86.2980E-03    -141.828E-03     282.092E-03    -140.675E-03     83.3690E-03
            2414     4.69240E-03     3.88807E-03    -60.3441E+06    -149.100E+06    -20.6535E+06    -12.6721E+06    -140.678E-03     281.242E-03    -140.565E-03     75.7692E-03    -141.004E-03     280.873E-03    -140.364E-03     73.3812E-03
            2415     3.91184E-03     3.89022E-03    -64.7368E+06    -159.695E+06    -35.5065E+06    -11.5666E+06    -140.207E-03     280.472E-03    -140.265E-03     64.5815E-03    -140.429E-03     279.987E-03    -140.117E-03     62.6859E-03
            2416     3.12899E-03     3.89031E-03    -69.1531E+06    -169.885E+06    -49.4786E+06    -8.04812E+06    -139.907E-03     279.934E-03    -140.027E-03     52.6625E-03    -140.051E-03     279.357E-03    -139.927E-03     51.2268E-03
            2417     2.34757E-03     3.89100E-03    -73.5520E+06    -179.354E+06    -62.1750E+06    -3.88696E+06    -139.761E-03     279.603E-03    -139.842E-03     40.0105E-03    -139.846E-03     278.954E-03    -139.786E-03     38.9969E-03
            2418     1.56450E-03     3.89052E-03    -77.4828E+06    -186.561E+06    -72.2603E+06    -1.58425E+06    -139.678E-03     279.376E-03    -139.698E-03     27.1990E-03    -139.725E-03     278.679E-03    -139.676E-03     26.5471E-03
            2419     782.929E-06     3.89229E-03    -80.6477E+06    -191.599E+06    -79.6985E+06    -546.626E+03    -139.578E-03     279.173E-03    -139.595E-03     14.8971E-03    -139.605E-03     278.448E-03    -139.599E-03     14.5549E-03
            2420     14.4406E-03     3.14833E-03    -6.96771E+06     133.375E+06     81.2435E+06     4.65991E+06    -282.779E-03     454.865E-03    -172.087E-03     212.068E-03    -291.904E-03     464.205E-03    -171.864E-03     181.092E-03
            2421     13.7324E-03     2.93028E-03    -6.74967E+06     124.917E+06     81.2401E+06     5.58097E+06    -266.666E-03     433.406E-03    -166.740E-03     209.598E-03    -276.291E-03     443.226E-03    -166.505E-03     177.623E-03
            2422     13.0289E-03     2.79585E-03    -12.3602E+06     106.708E+06     75.5516E+06     8.37138E+06    -229.675E-03     391.826E-03    -162.152E-03     179.534E-03    -235.951E-03     398.245E-03    -161.911E-03     157.257E-03
            2423     12.3005E-03     2.72704E-03    -16.3929E+06     95.7161E+06     75.3660E+06     9.77051E+06    -199.395E-03     358.313E-03    -158.918E-03     163.963E-03    -203.770E-03     362.767E-03    -158.656E-03     148.211E-03
            2424     11.5478E-03     2.68148E-03    -20.7000E+06     84.0064E+06     74.7035E+06     8.98838E+06    -180.138E-03     336.902E-03    -156.764E-03     150.788E-03    -183.223E-03     340.002E-03    -156.482E-03     139.383E-03
            2425     10.7930E-03     2.65611E-03    -26.7059E+06     75.6180E+06     68.2012E+06     6.52580E+06    -168.344E-03     323.652E-03    -155.307E-03     140.292E-03    -170.653E-03     325.939E-03    -155.037E-03     131.568E-03
            2426     10.0269E-03     2.63687E-03    -32.6293E+06     66.1190E+06     55.7747E+06     2.61980E+06    -160.777E-03     315.093E-03    -154.316E-03     130.007E-03    -162.538E-03     316.811E-03    -154.086E-03     123.136E-03
            2427     9.26108E-03     2.62787E-03    -37.5542E+06     51.3290E+06     42.9932E+06    -22.4450E+03    -156.120E-03     309.793E-03    -153.673E-03     120.451E-03    -157.490E-03     311.084E-03    -153.478E-03     114.909E-03
            2428     8.48973E-03     2.62080E-03    -41.6981E+06     21.1160E+06     32.0082E+06    -2.27070E+06    -153.477E-03     306.770E-03    -153.294E-03     111.357E-03    -154.538E-03     307.660E-03    -153.104E-03     106.818E-03
            2429     7.71965E-03     2.61817E-03    -44.0553E+06    -22.7560E+06     21.4335E+06    -8.59912E+06    -152.102E-03     305.189E-03    -153.086E-03     102.237E-03    -152.899E-03     305.680E-03    -152.882E-03     98.4040E-03
            2430     6.94734E-03     2.61548E-03    -45.1391E+06    -68.8931E+06     10.8875E+06    -15.5943E+06    -151.531E-03     304.509E-03    -152.978E-03     93.0325E-03    -152.103E-03     304.637E-03    -152.758E-03     89.7365E-03
            2431     6.17548E-03     2.61660E-03    -46.9838E+06    -110.211E+06    -3.00621E+06    -18.7552E+06    -151.410E-03     304.315E-03    -152.906E-03     83.6181E-03    -151.799E-03     304.147E-03    -152.693E-03     80.8010E-03
            2432     5.40321E-03     2.61530E-03    -49.9506E+06    -138.228E+06    -18.3087E+06    -17.0464E+06    -151.419E-03     304.270E-03    -152.851E-03     73.9758E-03    -151.674E-03     303.901E-03    -152.670E-03     71.6194E-03
            2433     4.63167E-03     2.61755E-03    -54.1271E+06    -157.028E+06    -31.5290E+06    -13.0905E+06    -151.546E-03     304.378E-03    -152.832E-03     64.1564E-03    -151.708E-03     303.872E-03    -152.684E-03     62.2388E-03
            2434     3.85816E-03     2.61776E-03    -60.2573E+06    -169.326E+06    -45.6573E+06    -8.87462E+06    -151.985E-03     304.792E-03    -152.808E-03     53.9722E-03    -152.087E-03     304.201E-03    -152.703E-03     52.4546E-03
            2435     3.08766E-03     2.61899E-03    -66.8550E+06    -179.619E+06    -58.4122E+06    -5.01302E+06    -152.376E-03     305.133E-03    -152.757E-03     43.5110E-03    -152.438E-03     304.478E-03    -152.691E-03     42.3536E-03
            2436     2.31531E-03     2.61953E-03    -71.2266E+06    -185.769E+06    -65.6956E+06    -2.16554E+06    -152.430E-03     305.148E-03    -152.718E-03     32.9767E-03    -152.465E-03     304.449E-03    -152.674E-03     32.1445E-03
            2437     1.54396E-03     2.62048E-03    -73.7585E+06    -189.458E+06    -70.4533E+06    -282.354E+03    -152.498E-03     305.217E-03    -152.719E-03     22.3408E-03    -152.513E-03     304.490E-03    -152.690E-03     21.8060E-03
            2438     771.415E-06     2.62009E-03    -75.5472E+06    -192.165E+06    -74.3660E+06     446.471E+03    -152.727E-03     305.394E-03    -152.667E-03     12.1232E-03    -152.729E-03     304.650E-03    -152.651E-03     11.8454E-03
            2439     14.3043E-03     1.57999E-03    -363.651E+03     135.572E+06     93.7829E+06     4.88296E+06    -312.274E-03     489.811E-03    -177.537E-03     242.119E-03    -319.792E-03     497.514E-03    -177.264E-03     215.646E-03
            2440     13.6561E-03     1.45849E-03    -4.15133E+06     120.573E+06     87.9343E+06     5.63307E+06    -262.291E-03     434.200E-03    -171.909E-03     182.662E-03    -267.735E-03     439.822E-03    -171.638E-03     162.735E-03
            2441     12.9384E-03     1.40963E-03    -8.31504E+06     107.333E+06     84.4524E+06     6.66215E+06    -220.621E-03     388.596E-03    -167.975E-03     144.935E-03    -223.499E-03     391.592E-03    -167.696E-03     132.961E-03
            2442     12.1951E-03     1.36719E-03    -11.4249E+06     96.6201E+06     84.1998E+06     5.48371E+06    -195.733E-03     361.193E-03    -165.460E-03     121.064E-03    -197.600E-03     363.120E-03    -165.163E-03     113.152E-03
            2443     11.4530E-03     1.34910E-03    -13.7511E+06     84.6054E+06     81.0073E+06     5.34658E+06    -181.184E-03     345.022E-03    -163.839E-03     103.749E-03    -182.484E-03     346.339E-03    -163.536E-03     97.9861E-03
            2444     10.6960E-03     1.33322E-03    -17.4842E+06     80.1005E+06     67.0798E+06     5.09042E+06    -172.051E-03     334.792E-03    -162.741E-03     92.3667E-03    -173.035E-03     335.802E-03    -162.497E-03     87.9746E-03
            2445     9.94009E-03     1.32685E-03    -22.9990E+06     72.2744E+06     44.8669E+06     2.01747E+06    -166.344E-03     328.359E-03    -162.015E-03     82.7582E-03    -167.115E-03     329.172E-03    -161.862E-03     79.2480E-03
            2446     9.17607E-03     1.32116E-03    -28.3279E+06     51.7826E+06     18.0157E+06    -1.31642E+06    -162.989E-03     324.550E-03    -161.561E-03     74.7862E-03    -163.588E-03     325.177E-03    -161.505E-03     71.8934E-03
            2447     8.41392E-03     1.31870E-03    -31.0669E+06     25.8763E+06    -9.53355E+06    -5.80173E+06    -161.167E-03     322.461E-03    -161.294E-03     67.5600E-03    -161.610E-03     322.910E-03    -161.335E-03     65.1098E-03
            2448     7.64813E-03     1.31649E-03    -33.1319E+06    -16.9109E+06    -27.6968E+06    -11.6412E+06    -160.220E-03     321.443E-03    -161.223E-03     60.9271E-03    -160.519E-03     321.641E-03    -161.289E-03     58.7844E-03
            2449     6.88316E-03     1.31636E-03    -37.6250E+06    -70.1422E+06    -35.6993E+06    -14.9283E+06    -159.920E-03     321.225E-03    -161.305E-03     54.6458E-03    -160.104E-03     321.126E-03    -161.327E-03     52.7686E-03
            2450     6.11773E-03     1.31535E-03    -44.4966E+06    -116.763E+06    -40.6632E+06    -15.0468E+06    -159.999E-03     321.441E-03    -161.442E-03     48.6248E-03    -160.105E-03     321.088E-03    -161.411E-03     47.0052E-03
            2451     5.35252E-03     1.31679E-03    -51.5441E+06    -149.963E+06    -44.5413E+06    -12.7757E+06    -160.210E-03     321.802E-03    -161.592E-03     42.4751E-03    -160.268E-03     321.270E-03    -161.522E-03     41.1114E-03
            2452     4.58611E-03     1.31700E-03    -57.8143E+06    -168.773E+06    -48.6134E+06    -8.01626E+06    -160.599E-03     322.326E-03    -161.727E-03     36.4370E-03    -160.632E-03     321.691E-03    -161.641E-03     35.3413E-03
            2453     3.82273E-03     1.31723E-03    -62.9743E+06    -178.843E+06    -54.8982E+06    -3.17564E+06    -161.012E-03     322.839E-03    -161.827E-03     30.4990E-03    -161.028E-03     322.152E-03    -161.751E-03     29.6565E-03
            2454     3.05681E-03     1.31768E-03    -66.3189E+06    -184.544E+06    -61.2142E+06    -688.967E+03    -161.336E-03     323.242E-03    -161.906E-03     24.5425E-03    -161.337E-03     322.526E-03    -161.848E-03     23.8992E-03
            2455     2.29295E-03     1.31869E-03    -68.6717E+06    -188.461E+06    -65.7179E+06    -171.540E+03    -161.653E-03     323.623E-03    -161.971E-03     18.6925E-03    -161.643E-03     322.887E-03    -161.926E-03     18.2185E-03
            2456     1.52811E-03     1.31905E-03    -70.1828E+06    -190.761E+06    -68.3963E+06    -122.040E+03    -161.856E-03     323.878E-03    -162.021E-03     12.7813E-03    -161.840E-03     323.129E-03    -161.985E-03     12.4664E-03
            2457     764.380E-06     1.31932E-03    -70.6426E+06    -191.863E+06    -69.9369E+06    -25.0162E+03    -162.090E-03     324.062E-03    -161.972E-03     6.92227E-03    -162.068E-03     323.307E-03    -161.941E-03     6.75499E-03


