********************************************************************************
Field Output Report, written Mon Aug 12 20:49:45 2024

Source 1
---------

   ODB: G:/Abaqus_calc_2019/1740/Vel_40/odb/zeides_2a_16_red_2500_cal_75_vel_40_fric_0100.odb
   Step: Step-1
   Frame: Increment   5090686: Step Time =   0.4644

Loc 1 : Nodal values from source 1

Output sorted by column "Nodal Label".

Field Output reported at nodes for region: DIE_2A_16_D0_36-1.Region_1
   Computation algorithm: EXTRAPOLATE_COMPUTE_AVERAGE
   Averaged at nodes
   Averaging regions: ODB_REGIONS

      Node Label     COORD.COOR1     COORD.COOR2
                          @Loc 1          @Loc 1
-------------------------------------------------
               1     15.3788E-03     213.122E-03


Field Output reported at nodes for region: DIE_2A_16_D0_36-1.Region_2
   Computation algorithm: EXTRAPOLATE_COMPUTE_AVERAGE
   Averaged at nodes
   Averaging regions: ODB_REGIONS

      Node Label     COORD.COOR1     COORD.COOR2
                          @Loc 1          @Loc 1
-------------------------------------------------
               1     15.3788E-03     213.122E-03


Field Output reported at nodes for part: WIRE-1
   Computation algorithm: EXTRAPOLATE_COMPUTE_AVERAGE
   Averaged at nodes
   Averaging regions: ODB_REGIONS

      Node Label     COORD.COOR1     COORD.COOR2           S.S11           S.S22           S.S33           S.S12         PE.PE11         PE.PE22         PE.PE33         PE.PE12         LE.LE11         LE.LE22         LE.LE33         LE.LE12
                          @Loc 1          @Loc 1          @Loc 1          @Loc 1          @Loc 1          @Loc 1          @Loc 1          @Loc 1          @Loc 1          @Loc 1          @Loc 1          @Loc 1          @Loc 1          @Loc 1
-------------------------------------------------------------------------------------------------------------------------------------------------------------------------------------------------------------------------------------------------
               1     199.970E-09     98.0932E-03    -85.7068E+06    -100.483E+06    -84.9403E+06     322.029E+03    -295.133E-03     590.362E-03    -295.230E-03     4.64464E-03    -295.293E-03     590.108E-03    -295.385E-03     4.48619E-03
               2     13.4032E-03     100.359E-03    -1.13633E+06     30.9376E+06     61.4752E+06     330.990E+03    -297.242E-03     592.500E-03    -295.258E-03     93.9985E-03    -298.010E-03     593.196E-03    -294.994E-03     84.4314E-03
               3     13.5038E-03     199.244E-03    -30.4208E+06     33.4857E+06     69.9180E+06    -14.6188E+06    -131.029E-03     422.468E-03    -291.439E-03     8.27557E-03    -131.268E-03     422.659E-03    -291.094E-03     7.52414E-03
               4    -2.01692E-06     196.130E-03     33.4397E+06    -16.6997E+06     28.8446E+06    -4.54067E+06    -326.836E-03     654.784E-03    -327.948E-03    -29.3369E-03    -326.851E-03     654.429E-03    -327.828E-03    -29.9737E-03
               5     336.913E-09     263.678E-18    -35.3424E+06    -63.0303E+06    -34.7993E+06     60.9793E+03    -242.181E-03     484.281E-03    -242.100E-03     669.287E-06    -242.215E-03     484.068E-03    -242.132E-03     627.994E-06
               6     13.2517E-03     263.678E-18     7.13738E+06     54.0206E+06     37.6917E+06    -1.44651E+06    -593.638E-03     889.231E-03    -295.593E-03     129.730E-03    -594.678E-03     890.425E-03    -295.493E-03     113.237E-03
               7     669.836E-06     98.0991E-03     -84.682E+06    -98.9693E+06    -82.9829E+06     226.028E+03    -295.135E-03     590.332E-03    -295.197E-03     7.53400E-03    -295.297E-03     590.082E-03    -295.345E-03     7.23905E-03
               8     1.33952E-03     98.1178E-03    -82.3535E+06    -94.9056E+06    -77.1009E+06     223.667E+03    -295.128E-03     590.286E-03    -295.158E-03     13.6870E-03    -295.298E-03     590.050E-03    -295.287E-03     13.0872E-03
               9     2.00984E-03     98.1472E-03    -79.3649E+06    -89.1447E+06    -68.1785E+06     327.134E+03    -295.219E-03     590.382E-03    -295.163E-03     20.3433E-03    -295.405E-03     590.167E-03    -295.259E-03     19.4130E-03
              10     2.67968E-03     98.1892E-03    -75.1808E+06    -81.8743E+06    -57.0477E+06     540.079E+03    -295.342E-03     590.532E-03    -295.190E-03     27.1802E-03    -295.547E-03     590.345E-03    -295.247E-03     25.8762E-03
              11     3.34966E-03     98.2422E-03    -70.2010E+06    -73.7183E+06    -44.3884E+06     731.156E+03    -295.398E-03     590.615E-03    -295.217E-03     34.1431E-03    -295.629E-03     590.464E-03    -295.230E-03     32.3770E-03
              12     4.01972E-03     98.3079E-03    -64.8724E+06    -65.4874E+06    -31.6699E+06     819.469E+03    -295.550E-03     590.785E-03    -295.236E-03     41.2849E-03    -295.812E-03     590.676E-03    -295.205E-03     38.9919E-03
              13     4.68968E-03     98.3857E-03    -59.3555E+06    -57.8804E+06    -20.6334E+06     712.284E+03    -295.793E-03     591.043E-03    -295.250E-03     48.5980E-03    -296.091E-03     590.985E-03    -295.183E-03     45.6764E-03
              14     5.35977E-03     98.4766E-03    -53.7410E+06    -50.8974E+06    -11.3527E+06     533.362E+03    -296.050E-03     591.310E-03    -295.260E-03     56.0152E-03    -296.391E-03     591.313E-03    -295.165E-03     52.3510E-03
              15     6.02982E-03     98.5794E-03    -48.3757E+06    -44.1327E+06    -2.64048E+06     570.931E+03    -296.367E-03     591.638E-03    -295.271E-03     63.6683E-03    -296.767E-03     591.716E-03    -295.150E-03     59.1433E-03
              16     6.69978E-03     98.6953E-03    -43.3919E+06    -27.1844E+06     8.54425E+06     512.284E+03    -296.687E-03     591.969E-03    -295.282E-03     71.4942E-03    -297.181E-03     592.187E-03    -295.137E-03     65.9697E-03
              17     7.36980E-03     98.8233E-03    -38.1802E+06    -10.0951E+06     20.1323E+06     548.455E+03    -296.917E-03     592.208E-03    -295.291E-03     79.3457E-03    -297.523E-03     592.584E-03    -295.121E-03     72.7015E-03
              18     8.04030E-03     98.9637E-03    -32.9351E+06    -3.09477E+06     29.3597E+06     371.673E+03    -297.181E-03     592.477E-03    -295.296E-03     87.1613E-03    -297.902E-03     592.984E-03    -295.097E-03     79.2757E-03
              19     8.71045E-03     99.1155E-03    -27.8603E+06     4.12994E+06     37.6199E+06     286.102E+03    -297.556E-03     592.851E-03    -295.295E-03     94.6944E-03    -298.408E-03     593.509E-03    -295.072E-03     85.5004E-03
              20     9.38064E-03     99.2793E-03    -22.8391E+06     10.6313E+06     44.2902E+06     656.130E+03    -297.931E-03     593.222E-03    -295.291E-03     101.554E-03    -298.922E-03     594.041E-03    -295.052E-03     91.0355E-03
              21     10.0511E-03     99.4508E-03    -18.1519E+06     15.7338E+06     48.7239E+06     574.144E+03    -298.241E-03     593.524E-03    -295.283E-03     107.463E-03    -299.370E-03     594.504E-03    -295.036E-03     95.6554E-03
              22     10.7199E-03     99.6322E-03    -13.7904E+06     19.9063E+06     50.5190E+06     231.482E+03    -298.498E-03     593.765E-03    -295.268E-03     111.863E-03    -299.744E-03     594.887E-03    -295.024E-03     98.9476E-03
              23     11.3924E-03     99.8165E-03    -9.37912E+06     24.1717E+06     53.0890E+06     173.127E+03    -298.561E-03     593.822E-03    -295.261E-03     112.701E-03    -299.841E-03     595.001E-03    -295.017E-03     99.3114E-03
              24     12.0603E-03     100.002E-03    -7.16323E+06     27.2894E+06     55.8290E+06    -139.370E+03    -298.686E-03     593.948E-03    -295.262E-03     115.950E-03    -300.078E-03     595.250E-03    -295.013E-03     101.710E-03
              25     12.7281E-03     100.198E-03    -4.13854E+06     29.5154E+06     58.8970E+06    -74.0751E+03    -298.051E-03     593.310E-03    -295.260E-03     107.020E-03    -299.195E-03     594.374E-03    -295.002E-03     94.6860E-03
              26     13.4016E-03     102.061E-03    -2.25759E+06     29.9414E+06     60.1231E+06    -579.413E+03    -296.735E-03     591.943E-03    -295.208E-03     95.5026E-03    -297.530E-03     592.663E-03    -294.948E-03     85.7068E-03
              27     13.4042E-03     103.777E-03    -1.29340E+06     31.3144E+06     61.7759E+06     217.388E+03    -297.892E-03     593.064E-03    -295.172E-03     93.9815E-03    -298.672E-03     593.771E-03    -294.906E-03     84.2684E-03
              28     13.4010E-03     105.486E-03    -1.13092E+06     31.7158E+06     63.3952E+06     272.978E+03    -297.915E-03     593.142E-03    -295.227E-03     92.8891E-03    -298.673E-03     593.825E-03    -294.955E-03     83.4080E-03
              29     13.4021E-03     107.197E-03    -1.48118E+06     31.1815E+06     62.3389E+06     333.410E+03    -296.496E-03     591.727E-03    -295.232E-03     94.4848E-03    -297.275E-03     592.431E-03    -294.963E-03     84.8724E-03
              30     13.4047E-03     108.902E-03    -2.14681E+06     31.1019E+06     62.8791E+06    -809.387E+03    -297.374E-03     592.538E-03    -295.164E-03     94.9263E-03    -298.181E-03     593.265E-03    -294.891E-03     84.9937E-03
              31     13.4009E-03     110.620E-03    -1.02909E+06     32.6853E+06     65.5206E+06     1.01186E+06    -298.361E-03     593.518E-03    -295.156E-03     93.4703E-03    -299.126E-03     594.205E-03    -294.874E-03     83.9997E-03
              32     13.4054E-03     112.327E-03    -1.90862E+06     31.9713E+06     65.7559E+06     381.548E+03    -297.320E-03     592.511E-03    -295.191E-03     93.4390E-03    -298.083E-03     593.190E-03    -294.906E-03     84.0566E-03
              33     13.4000E-03     114.037E-03    -2.01194E+06     32.1606E+06     66.5852E+06     231.711E+03    -297.225E-03     592.426E-03    -295.201E-03     93.8407E-03    -298.014E-03     593.128E-03    -294.911E-03     84.1617E-03
              34     13.4061E-03     115.749E-03    -1.62373E+06     32.6182E+06     66.8537E+06    -438.738E+03    -297.066E-03     592.232E-03    -295.166E-03     94.5921E-03    -297.867E-03     592.950E-03    -294.877E-03     84.7770E-03
              35     13.4014E-03     117.454E-03    -1.55692E+06     33.3074E+06     68.2044E+06    -206.072E+03    -297.841E-03     592.960E-03    -295.119E-03     94.0882E-03    -298.636E-03     593.671E-03    -294.824E-03     84.3437E-03
              36     13.4064E-03     119.174E-03    -964.227E+03     34.1073E+06     68.9840E+06     523.593E+03    -297.948E-03     593.066E-03    -295.117E-03     93.6442E-03    -298.728E-03     593.762E-03    -294.820E-03     84.0810E-03
              37     13.4012E-03     120.877E-03    -2.63370E+06     32.8736E+06     68.4633E+06    -258.346E+03    -297.562E-03     592.702E-03    -295.140E-03     93.6410E-03    -298.350E-03     593.399E-03    -294.842E-03     84.0308E-03
              38     13.4060E-03     122.592E-03    -2.18095E+06     33.4521E+06     68.7904E+06     444.826E+03    -296.836E-03     591.960E-03    -295.125E-03     94.1738E-03    -297.631E-03     592.667E-03    -294.826E-03     84.5263E-03
              39     13.4034E-03     124.297E-03    -3.01357E+06     33.1569E+06     69.8606E+06    -980.314E+03    -297.516E-03     592.616E-03    -295.100E-03     94.4225E-03    -298.332E-03     593.336E-03    -294.795E-03     84.5547E-03
              40     13.4045E-03     126.012E-03    -1.51276E+06     34.8342E+06     73.1615E+06     493.644E+03    -297.753E-03     592.837E-03    -295.084E-03     94.4139E-03    -298.551E-03     593.541E-03    -294.766E-03     84.7921E-03
              41     13.4061E-03     127.719E-03    -1.44593E+06     37.1677E+06     74.5448E+06     134.546E+03    -297.080E-03     592.133E-03    -295.053E-03     93.9998E-03    -297.888E-03     592.852E-03    -294.732E-03     84.2934E-03
              42     13.4044E-03     129.429E-03    -1.35224E+06     40.1507E+06     76.2043E+06     1.26312E+06    -297.449E-03     592.481E-03    -295.033E-03     94.0547E-03    -298.257E-03     593.207E-03    -294.708E-03     84.4415E-03
              43     13.4070E-03     131.144E-03    -782.835E+03     40.9232E+06     78.5207E+06     225.685E+03    -297.258E-03     592.306E-03    -295.048E-03     94.3032E-03    -298.061E-03     593.023E-03    -294.713E-03     84.7865E-03
              44     13.4035E-03     132.847E-03    -3.60105E+06     38.7483E+06     77.7605E+06    -448.738E+03    -297.343E-03     592.391E-03    -295.048E-03     94.0082E-03    -298.167E-03     593.115E-03    -294.710E-03     84.3022E-03
              45     13.4078E-03     134.561E-03    -1.72749E+06     40.3506E+06     78.8820E+06     401.633E+03    -296.405E-03     591.412E-03    -295.007E-03     94.2422E-03    -297.226E-03     592.142E-03    -294.669E-03     84.5606E-03
              46     13.4062E-03     136.266E-03    -2.65902E+06     40.5425E+06     80.4997E+06    -694.469E+03    -297.346E-03     592.321E-03    -294.975E-03     94.3366E-03    -298.189E-03     593.065E-03    -294.627E-03     84.4251E-03
              47     13.4061E-03     137.981E-03    -1.89647E+06     44.0014E+06     82.0744E+06     1.28098E+06    -297.780E-03     592.735E-03    -294.955E-03     94.3350E-03    -298.603E-03     593.470E-03    -294.605E-03     84.7563E-03
              48     13.4085E-03     139.690E-03    -1.84713E+06     45.1566E+06     83.2239E+06     460.690E+03    -296.816E-03     591.770E-03    -294.954E-03     94.1897E-03    -297.632E-03     592.499E-03    -294.601E-03     84.7383E-03
              49     13.4053E-03     141.396E-03    -2.18492E+06     45.9445E+06      84.498E+06     588.259E+03    -296.963E-03     591.918E-03    -294.954E-03     93.8806E-03    -297.802E-03     592.666E-03    -294.595E-03     84.1879E-03
              50     13.4093E-03     143.108E-03    -1.62753E+06     49.1586E+06     85.3763E+06     24.3225E+03    -296.316E-03     591.223E-03    -294.906E-03     94.6864E-03    -297.169E-03     591.997E-03    -294.548E-03     84.9045E-03
              51     13.4079E-03     144.811E-03    -2.46474E+06     49.5744E+06     87.8611E+06     82.3081E+03    -296.911E-03     591.770E-03    -294.859E-03     94.0282E-03    -297.763E-03     592.534E-03    -294.488E-03     84.3045E-03
              52     13.4090E-03     146.527E-03    -2.70585E+06      51.762E+06     89.5035E+06     698.790E+03    -296.544E-03     591.385E-03    -294.841E-03     93.8337E-03    -297.392E-03     592.148E-03    -294.465E-03     84.2603E-03
              53     13.4098E-03     148.229E-03    -2.57722E+06     55.5746E+06     89.3377E+06     631.661E+03    -295.324E-03     590.071E-03    -294.748E-03     96.3137E-03    -296.194E-03     590.871E-03    -294.378E-03     86.6986E-03
              54     13.4135E-03     149.938E-03    -2.32090E+06     59.2871E+06     91.7663E+06     1.00557E+06    -294.569E-03     589.155E-03    -294.586E-03     96.3590E-03    -295.441E-03     589.963E-03    -294.210E-03     86.8597E-03
              55     13.4151E-03     151.641E-03    -1.84422E+06     60.6561E+06     94.4273E+06    -3.65119E+03    -293.672E-03     588.089E-03    -294.418E-03     97.0369E-03    -294.560E-03     588.913E-03    -294.031E-03     87.4237E-03
              56     13.4188E-03     153.341E-03    -2.88318E+06     62.5205E+06     94.8821E+06     989.879E+03    -293.295E-03     587.440E-03    -294.145E-03     98.5883E-03    -294.202E-03     588.284E-03    -293.757E-03     88.9761E-03
              57     13.4248E-03     155.044E-03    -2.77469E+06     68.2390E+06     96.5665E+06     1.28189E+06    -291.865E-03     585.657E-03    -293.792E-03     97.8953E-03    -292.774E-03     586.517E-03    -293.404E-03     88.3816E-03
              58     13.4295E-03     156.737E-03    -2.08618E+06     73.6224E+06     99.7527E+06     763.478E+03    -290.523E-03     583.954E-03    -293.431E-03     98.4541E-03    -291.450E-03     584.846E-03    -293.036E-03     88.8707E-03
              59     13.4351E-03     158.439E-03    -1.92743E+06     75.5843E+06     100.670E+06     1.01101E+06    -289.833E-03     582.841E-03    -293.009E-03     100.344E-03    -290.778E-03     583.757E-03    -292.612E-03     90.7215E-03
              60     13.4425E-03     160.126E-03    -2.13017E+06     78.1072E+06     101.790E+06     458.056E+03    -289.900E-03     582.449E-03    -292.549E-03     99.5326E-03    -290.871E-03     583.394E-03    -292.150E-03     89.6037E-03
              61     13.4462E-03     161.824E-03    -3.22214E+06     83.8065E+06     104.184E+06     1.55676E+06    -289.935E-03     582.051E-03    -292.116E-03     99.1816E-03    -290.923E-03     583.023E-03    -291.712E-03     89.2437E-03
              62     13.4543E-03     163.517E-03    -1.95980E+06     89.9156E+06     106.806E+06     1.32687E+06    -288.657E-03     580.355E-03    -291.698E-03     99.6242E-03    -289.655E-03     581.355E-03    -291.291E-03     89.6958E-03
              63     13.4581E-03     165.201E-03    -2.10129E+06     94.8875E+06     109.354E+06     1.12182E+06    -288.291E-03     579.552E-03    -291.261E-03     99.7050E-03    -289.322E-03     580.595E-03    -290.848E-03     89.5204E-03
              64     13.4660E-03     166.896E-03    -2.97787E+06     99.7796E+06     110.796E+06     940.520E+03    -289.042E-03     579.841E-03    -290.799E-03     100.043E-03    -290.108E-03     580.928E-03    -290.385E-03     89.5983E-03
              65     13.4697E-03     168.582E-03    -2.95400E+06     105.566E+06     113.422E+06     1.36675E+06    -289.545E-03     579.922E-03    -290.377E-03     99.5806E-03    -290.623E-03     581.035E-03    -289.959E-03     89.0822E-03
              66     13.4761E-03     170.278E-03    -2.37871E+06     111.010E+06     116.016E+06     2.16974E+06    -289.779E-03     579.741E-03    -289.961E-03     101.392E-03    -290.870E-03     580.880E-03    -289.539E-03     90.9702E-03
              67     13.4816E-03     171.963E-03    -3.88310E+06     113.751E+06     117.060E+06     464.017E+03    -291.144E-03     580.656E-03    -289.512E-03     101.666E-03    -292.267E-03     581.829E-03    -289.086E-03     90.9570E-03
              68     13.4860E-03     173.659E-03    -2.95551E+06     117.711E+06     121.061E+06     1.06023E+06    -292.652E-03     581.755E-03    -289.102E-03     101.243E-03    -293.777E-03     582.936E-03    -288.664E-03     90.5191E-03
              69     13.4918E-03     175.353E-03    -2.20966E+06     119.143E+06     124.553E+06     1.26193E+06    -293.425E-03     582.139E-03    -288.714E-03     102.733E-03    -294.545E-03     583.313E-03    -288.261E-03     92.1885E-03
              70     13.4962E-03     177.048E-03    -3.27014E+06     117.773E+06     129.461E+06     254.834E+03    -295.992E-03     584.305E-03    -288.313E-03     104.630E-03    -297.142E-03     585.486E-03    -287.832E-03     93.9083E-03
              71     13.5009E-03     178.751E-03    -2.95964E+06     119.714E+06     139.405E+06     876.440E+03    -300.518E-03     588.452E-03    -287.934E-03     105.924E-03    -301.680E-03     589.625E-03    -287.406E-03     95.2039E-03
              72     13.5036E-03     180.460E-03    -4.70526E+06     115.035E+06     140.243E+06    -1.51610E+06    -306.618E-03     594.209E-03    -287.591E-03     105.740E-03    -307.750E-03     595.327E-03    -287.050E-03     95.2251E-03
              73     13.5043E-03     182.182E-03    -2.44460E+06     112.794E+06     137.612E+06     465.106E+03    -313.745E-03     601.058E-03    -287.314E-03     106.488E-03    -314.828E-03     602.135E-03    -286.786E-03     96.2576E-03
              74     13.5051E-03     183.916E-03    -4.65558E+06     107.246E+06     132.826E+06    -1.50299E+06    -320.701E-03     607.794E-03    -287.093E-03     108.481E-03    -321.760E-03     608.833E-03    -286.577E-03     98.4686E-03
              75     13.5051E-03     185.658E-03    -3.16958E+06     97.0066E+06     126.994E+06    -3.58176E+06    -328.607E-03     615.470E-03    -286.862E-03     110.984E-03    -329.612E-03     616.440E-03    -286.363E-03     101.258E-03
              76     13.5057E-03     187.419E-03    -3.11907E+06     85.4808E+06     125.195E+06    -2.38750E+06    -334.950E-03     621.646E-03    -286.695E-03     111.019E-03    -335.892E-03     622.518E-03    -286.189E-03     101.752E-03
              77     13.5056E-03     189.181E-03    -2.71033E+06     65.5115E+06     125.226E+06    -3.08843E+06    -337.848E-03     624.463E-03    -286.615E-03     112.155E-03    -338.760E-03     625.235E-03    -286.080E-03     102.884E-03
              78     13.5074E-03     190.944E-03    -3.71472E+06     43.8378E+06     126.671E+06    -4.62816E+06    -339.538E-03     626.089E-03    -286.551E-03     112.703E-03    -340.394E-03     626.721E-03    -285.976E-03     103.866E-03
              79     13.5075E-03     192.715E-03    -1.01452E+06     30.5045E+06     136.397E+06    -1.77222E+06    -335.923E-03     622.531E-03    -286.608E-03     110.340E-03    -336.702E-03     623.019E-03    -285.969E-03     102.272E-03
              80     13.5104E-03     194.460E-03    -2.80060E+06     19.9051E+06     141.452E+06    -3.38618E+06    -321.633E-03     608.483E-03    -286.851E-03     105.083E-03    -322.340E-03     608.841E-03    -286.168E-03     97.9586E-03
              81     13.5119E-03     196.171E-03     5.76602E+06     23.1771E+06     144.889E+06     1.55794E+06    -292.455E-03     579.831E-03    -287.376E-03     93.7398E-03    -292.938E-03     579.999E-03    -286.694E-03     89.3859E-03
              82     13.5161E-03     197.819E-03    -1.01797E+06     35.0811E+06     112.298E+06     861.813E+03    -202.167E-03     491.759E-03    -289.592E-03     47.6492E-03    -202.427E-03     491.889E-03    -289.080E-03     46.1089E-03
              83     12.6394E-03     199.094E-03    -26.7898E+06    -5.71828E+06     84.3156E+06    -10.9523E+06    -135.187E-03     430.663E-03    -295.476E-03    -46.5014E-03    -135.293E-03     430.606E-03    -295.007E-03    -47.6348E-03
              84     11.8250E-03     198.854E-03    -22.2640E+06    -12.3182E+06     118.327E+06    -9.17614E+06    -139.607E-03     442.414E-03    -302.808E-03    -149.446E-03    -139.689E-03     442.262E-03    -302.166E-03    -150.498E-03
              85     11.0578E-03     198.593E-03    -14.2841E+06     5.22330E+06     134.479E+06    -12.2281E+06    -142.335E-03     451.142E-03    -308.808E-03    -228.020E-03    -142.544E-03     451.087E-03    -308.122E-03    -228.351E-03
              86     10.3293E-03     198.324E-03    -5.79462E+06    -7.52333E+06     132.062E+06    -13.8998E+06    -148.536E-03     462.436E-03    -313.900E-03    -276.671E-03    -148.805E-03     462.340E-03    -313.221E-03    -276.645E-03
              87     9.61945E-03     198.070E-03    -4.77599E+06    -5.93156E+06     132.157E+06    -14.1557E+06    -159.451E-03     477.872E-03    -318.420E-03    -308.479E-03    -159.790E-03     477.802E-03    -317.744E-03    -308.279E-03
              88     8.92459E-03     197.828E-03    -4.63396E+06    -5.77230E+06     129.869E+06    -14.8502E+06    -174.585E-03     496.918E-03    -322.333E-03    -333.571E-03    -174.947E-03     496.857E-03    -321.669E-03    -333.325E-03
              89     8.24259E-03     197.596E-03    -3.02326E+06    -6.00337E+06     126.478E+06    -16.6624E+06    -191.447E-03     516.943E-03    -325.496E-03    -354.110E-03    -191.788E-03     516.840E-03    -324.851E-03    -353.984E-03
              90     7.57546E-03     197.381E-03     10.1574E+03    -7.21240E+06     122.534E+06    -18.1769E+06    -210.067E-03     537.919E-03    -327.852E-03    -365.641E-03    -210.368E-03     537.719E-03    -327.229E-03    -365.738E-03
              91     6.92449E-03     197.179E-03     3.01020E+06    -8.39408E+06     117.211E+06    -18.4167E+06    -229.151E-03     558.618E-03    -329.467E-03    -364.673E-03    -229.379E-03     558.300E-03    -328.873E-03    -365.099E-03
              92     6.28150E-03     196.998E-03     5.58076E+06    -9.15292E+06     110.174E+06    -17.8145E+06    -247.545E-03     578.029E-03    -330.484E-03    -354.467E-03    -247.676E-03     577.609E-03    -329.928E-03    -355.285E-03
              93     5.64442E-03     196.834E-03     8.26349E+06    -8.23482E+06     102.445E+06    -17.4622E+06    -264.388E-03     595.374E-03    -330.986E-03    -338.036E-03    -264.445E-03     594.892E-03    -330.474E-03    -339.190E-03
              94     5.01226E-03     196.687E-03     10.5073E+06    -7.63944E+06     93.5478E+06    -17.1024E+06    -278.998E-03     610.057E-03    -331.060E-03    -314.823E-03    -279.013E-03     609.530E-03    -330.596E-03    -316.264E-03
              95     4.38462E-03     196.557E-03     12.9972E+06    -7.53127E+06     83.9783E+06    -16.8999E+06    -291.597E-03     622.440E-03    -330.842E-03    -284.893E-03    -291.578E-03     621.886E-03    -330.430E-03    -286.615E-03
              96     3.75794E-03     196.446E-03     16.3184E+06    -7.60326E+06     74.5056E+06    -17.0361E+06    -302.154E-03     632.600E-03    -330.445E-03    -250.525E-03    -302.111E-03     632.051E-03    -330.085E-03    -252.453E-03
              97     3.13193E-03     196.352E-03     19.8013E+06    -8.38392E+06     65.0386E+06    -16.7203E+06    -310.624E-03     640.559E-03    -329.935E-03    -213.467E-03    -310.583E-03     640.040E-03    -329.626E-03    -215.426E-03
              98     2.50581E-03     196.275E-03     23.2160E+06    -9.81408E+06     55.3964E+06     -15.489E+06    -317.229E-03     646.582E-03    -329.353E-03    -173.884E-03    -317.206E-03     646.100E-03    -329.095E-03    -175.750E-03
              99     1.88044E-03     196.214E-03     26.3403E+06    -11.5950E+06     46.0621E+06    -13.2827E+06    -321.993E-03     650.754E-03    -328.761E-03    -132.194E-03    -321.989E-03     650.313E-03    -328.552E-03    -133.859E-03
             100     1.25406E-03     196.171E-03     28.8375E+06    -13.5209E+06     38.4982E+06    -10.0465E+06    -325.115E-03     653.357E-03    -328.242E-03    -89.6176E-03    -325.133E-03     652.959E-03    -328.071E-03    -90.8963E-03
             101     627.579E-06     196.145E-03     31.7477E+06    -15.5949E+06     32.1312E+06    -6.39091E+06    -326.595E-03     654.574E-03    -327.979E-03    -48.8041E-03    -326.618E-03     654.206E-03    -327.842E-03    -49.6430E-03
             102     1.66326E-06     194.307E-03    -29.9876E+06    -42.1690E+06    -29.5414E+06    -6.40245E+06    -303.068E-03     605.569E-03    -302.501E-03    -20.6360E-03    -303.221E-03     605.331E-03    -302.544E-03    -20.9185E-03
             103     25.2123E-09     192.654E-03    -153.804E+06    -100.299E+06    -152.383E+06    -9.42458E+06    -266.991E-03     533.225E-03    -266.234E-03    -5.91592E-03    -267.421E-03     533.142E-03    -266.628E-03    -5.64649E-03
             104    -524.467E-09     191.074E-03    -271.520E+06    -164.156E+06    -271.514E+06    -9.21385E+06    -251.594E-03     503.488E-03    -251.895E-03     2.21581E-03    -252.323E-03     503.452E-03    -252.620E-03     2.84928E-03
             105     620.288E-09     189.519E-03    -296.468E+06    -210.833E+06    -296.384E+06    -4.67832E+06    -250.097E-03     499.520E-03    -249.424E-03     6.42583E-03    -250.843E-03     499.324E-03    -250.170E-03     7.22743E-03
             106     195.540E-09     187.949E-03    -207.808E+06    -219.543E+06    -208.245E+06     1.93465E+06    -254.059E-03     507.296E-03    -253.237E-03     8.40512E-03    -254.476E-03     506.799E-03    -253.659E-03     9.10985E-03
             107     86.8986E-09     186.370E-03    -138.285E+06    -205.349E+06    -136.829E+06     2.44818E+06    -258.819E-03     517.162E-03    -258.343E-03     8.63899E-03    -259.013E-03     516.531E-03    -258.528E-03     9.07721E-03
             108     259.100E-09     184.770E-03    -126.515E+06    -203.642E+06    -126.791E+06    -1.84733E+06    -263.122E-03     525.586E-03    -262.465E-03     8.14848E-03    -263.275E-03     524.934E-03    -262.620E-03     8.31024E-03
             109     261.125E-09     183.164E-03    -132.869E+06    -219.575E+06    -133.094E+06    -2.77344E+06    -266.254E-03     532.297E-03    -266.043E-03     7.31123E-03    -266.407E-03     531.584E-03    -266.197E-03     7.32537E-03
             110    -521.246E-09     181.546E-03    -138.491E+06    -235.408E+06    -138.926E+06    -1.75706E+06    -269.295E-03     538.286E-03    -268.991E-03     6.49716E-03    -269.445E-03     537.511E-03    -269.143E-03     6.51503E-03
             111     1.17090E-06     179.916E-03    -144.123E+06    -247.639E+06    -145.978E+06    -1.72261E+06    -272.114E-03     543.573E-03    -271.459E-03     6.49184E-03    -272.264E-03     542.756E-03    -271.621E-03     6.46088E-03
             112    -961.782E-09     178.284E-03    -153.978E+06    -258.800E+06    -152.050E+06    -1.35338E+06    -274.988E-03     549.483E-03    -274.495E-03     6.82390E-03    -275.162E-03     548.633E-03    -274.657E-03     6.80003E-03
             113     1.41714E-06     176.634E-03    -156.878E+06    -266.614E+06    -159.123E+06    -1.09570E+06    -279.036E-03     556.345E-03    -277.309E-03     6.62380E-03    -279.203E-03     555.470E-03    -277.491E-03     6.62977E-03
             114     432.476E-09     174.977E-03    -163.734E+06    -275.401E+06    -160.886E+06    -1.07490E+06    -282.141E-03     562.786E-03    -280.645E-03     6.49832E-03    -282.328E-03     561.880E-03    -280.813E-03     6.46171E-03
             115    -244.590E-09     173.312E-03    -162.286E+06    -282.322E+06    -162.150E+06    -630.222E+03    -285.064E-03     570.264E-03    -285.200E-03     5.85190E-03    -285.232E-03     569.323E-03    -285.366E-03     5.78216E-03
             116    -140.311E-09     171.626E-03    -155.274E+06    -283.879E+06    -158.119E+06     67.2176E+03    -288.544E-03     577.348E-03    -288.804E-03     5.53790E-03    -288.680E-03     576.383E-03    -288.958E-03     5.39664E-03
             117     134.211E-09     169.933E-03    -155.684E+06    -287.035E+06    -153.596E+06    -705.783E+03    -291.476E-03     582.615E-03    -291.138E-03     5.56122E-03    -291.616E-03     581.628E-03    -291.264E-03     5.44250E-03
             118     326.739E-09     168.235E-03    -145.906E+06    -287.329E+06    -149.025E+06     475.757E+03    -293.937E-03     587.420E-03    -293.482E-03     4.81764E-03    -294.035E-03     586.411E-03    -293.599E-03     4.71387E-03
             119    -216.701E-09     166.526E-03    -143.789E+06    -286.648E+06    -140.886E+06    -163.208E+03    -295.113E-03     591.049E-03    -295.935E-03     4.40422E-03    -295.213E-03     590.029E-03    -296.016E-03     4.29100E-03
             120    -979.214E-09     164.813E-03    -139.691E+06    -285.137E+06    -140.348E+06     686.150E+03    -296.442E-03     593.527E-03    -297.085E-03     4.03982E-03    -296.524E-03     592.508E-03    -297.171E-03     3.96157E-03
             121     1.29860E-06     163.095E-03    -130.369E+06    -276.245E+06    -132.175E+06     1.59342E+06    -297.951E-03     594.873E-03    -296.922E-03     3.93467E-03    -298.011E-03     593.874E-03    -296.993E-03     3.79338E-03
             122    -267.057E-09     161.378E-03    -129.056E+06    -273.266E+06    -129.077E+06    -693.147E+03    -297.708E-03     594.775E-03    -297.067E-03     4.18503E-03    -297.771E-03     593.784E-03    -297.129E-03     3.96855E-03
             123     83.0856E-09     159.661E-03    -128.489E+06    -270.173E+06    -126.945E+06     1.55485E+06    -297.032E-03     594.245E-03    -297.213E-03     3.93582E-03    -297.099E-03     593.265E-03    -297.269E-03     3.77321E-03
             124    -135.967E-09     157.944E-03    -121.116E+06    -260.383E+06    -122.475E+06     544.054E+03    -296.972E-03     593.692E-03    -296.720E-03     4.32330E-03    -297.023E-03     592.745E-03    -296.779E-03     4.12832E-03
             125     503.965E-09     156.229E-03    -120.428E+06    -256.702E+06    -121.759E+06     262.079E+03    -296.619E-03     592.776E-03    -296.157E-03     4.29597E-03    -296.673E-03     591.845E-03    -296.219E-03     4.09149E-03
             126    -275.395E-09     154.518E-03    -119.934E+06    -250.622E+06    -119.405E+06     1.52024E+06    -296.007E-03     592.029E-03    -296.022E-03     4.27070E-03    -296.071E-03     591.124E-03    -296.081E-03     4.08756E-03
             127     21.5584E-09     152.804E-03    -116.682E+06    -242.766E+06    -116.643E+06     1.00600E+06    -295.789E-03     591.529E-03    -295.740E-03     4.03179E-03    -295.852E-03     590.654E-03    -295.802E-03     3.87903E-03
             128     290.105E-09     151.094E-03    -115.573E+06    -236.463E+06    -115.590E+06     637.293E+03    -295.608E-03     590.810E-03    -295.202E-03     4.49410E-03    -295.676E-03     589.964E-03    -295.270E-03     4.33346E-03
             129    -70.2262E-09     149.382E-03    -115.909E+06    -232.100E+06    -116.198E+06     698.688E+03    -295.175E-03     590.435E-03    -295.260E-03     4.82764E-03    -295.251E-03     589.612E-03    -295.336E-03     4.60647E-03
             130    -278.138E-09     147.675E-03    -114.763E+06    -227.283E+06    -113.219E+06     884.729E+03    -294.939E-03     590.136E-03    -295.197E-03     4.25388E-03    -295.020E-03     589.331E-03    -295.267E-03     4.03729E-03
             131     283.821E-09     145.963E-03    -109.946E+06    -218.408E+06    -111.203E+06     970.424E+03    -295.165E-03     589.914E-03    -294.749E-03     4.29985E-03    -295.237E-03     589.144E-03    -294.829E-03     4.14430E-03
             132     245.982E-09     144.256E-03    -110.455E+06    -212.242E+06    -110.573E+06     777.715E+03    -295.007E-03     590.053E-03    -295.046E-03     4.62605E-03    -295.092E-03     589.314E-03    -295.131E-03     4.44236E-03
             133    -840.588E-09     142.545E-03    -109.613E+06    -205.027E+06    -108.100E+06     1.03154E+06    -294.208E-03     589.756E-03    -295.548E-03     4.26825E-03    -294.303E-03     589.047E-03    -295.632E-03     4.13943E-03
             134    -357.203E-09     140.837E-03    -107.459E+06    -199.627E+06    -108.132E+06     398.220E+03    -294.516E-03     589.362E-03    -294.846E-03     3.91680E-03    -294.607E-03     588.677E-03    -294.942E-03     3.78036E-03
             135     1.09734E-06     139.129E-03    -106.750E+06    -194.731E+06    -106.843E+06     923.778E+03    -295.443E-03     589.702E-03    -294.259E-03     4.44022E-03    -295.540E-03     589.039E-03    -294.356E-03     4.17767E-03
             136    -263.046E-09     137.419E-03    -103.912E+06    -187.065E+06    -104.141E+06     588.226E+03    -295.254E-03     590.107E-03    -294.853E-03     4.55793E-03    -295.352E-03     589.474E-03    -294.952E-03     4.35471E-03
             137    -48.2159E-09     135.708E-03    -102.855E+06    -181.789E+06    -103.701E+06     507.679E+03    -294.527E-03     589.610E-03    -295.083E-03     4.30436E-03    -294.628E-03     589.001E-03    -295.188E-03     4.19072E-03
             138    -402.833E-09     134.000E-03    -108.369E+06    -178.358E+06    -105.517E+06     1.08922E+06    -294.520E-03     589.222E-03    -294.701E-03     4.34172E-03    -294.651E-03     588.641E-03    -294.813E-03     4.24131E-03
             139     624.475E-09     132.294E-03    -103.259E+06    -169.975E+06    -105.575E+06     977.006E+03    -295.303E-03     589.965E-03    -294.661E-03     4.36754E-03    -295.421E-03     589.418E-03    -294.793E-03     4.12782E-03
             140    -15.8418E-09     130.581E-03    -102.151E+06    -164.051E+06    -102.368E+06     411.337E+03    -295.269E-03     590.164E-03    -294.895E-03     4.44434E-03    -295.394E-03     589.641E-03    -295.021E-03     4.20306E-03
             141    -105.094E-09     128.872E-03    -104.041E+06    -162.170E+06    -103.880E+06     607.022E+03    -294.864E-03     589.560E-03    -294.696E-03     4.12744E-03    -294.999E-03     589.052E-03    -294.830E-03     4.04369E-03
             142     441.678E-09     127.164E-03    -99.7664E+06    -153.972E+06    -100.023E+06     1.30827E+06    -294.915E-03     589.801E-03    -294.886E-03     4.59133E-03    -295.046E-03     589.322E-03    -295.019E-03     4.42509E-03
             143    -754.615E-09     125.453E-03    -97.9371E+06    -149.216E+06    -97.2227E+06    -257.547E+03    -294.725E-03     589.946E-03    -295.221E-03     4.49711E-03    -294.858E-03     589.484E-03    -295.349E-03     4.30434E-03
             144     398.618E-09     123.742E-03    -97.4187E+06    -146.687E+06    -97.3739E+06     1.05268E+06    -294.756E-03     589.379E-03    -294.623E-03     4.22191E-03    -294.890E-03     588.929E-03    -294.756E-03     4.07145E-03
             145     127.321E-09     122.038E-03    -93.7192E+06    -139.217E+06    -93.4444E+06     584.857E+03    -295.383E-03     590.141E-03    -294.758E-03     4.57612E-03    -295.515E-03     589.717E-03    -294.887E-03     4.37331E-03
             146     175.643E-09     120.323E-03    -93.4884E+06    -136.269E+06    -94.7808E+06     108.193E+03    -295.451E-03     590.559E-03    -295.108E-03     4.35026E-03    -295.585E-03     590.152E-03    -295.249E-03     4.14758E-03
             147    -40.0038E-09     118.612E-03    -95.3782E+06    -130.319E+06    -95.0805E+06     1.36233E+06    -294.648E-03     589.407E-03    -294.759E-03     4.79105E-03    -294.799E-03     589.032E-03    -294.907E-03     4.53463E-03
             148    -254.171E-09     116.907E-03    -96.2912E+06    -125.883E+06    -95.7323E+06    -237.049E+03    -294.497E-03     589.440E-03    -294.943E-03     4.63857E-03    -294.658E-03     589.090E-03    -295.100E-03     4.40788E-03
             149    -57.2328E-09     115.195E-03    -94.1224E+06    -123.910E+06    -94.9091E+06     1.14148E+06    -294.920E-03     590.266E-03    -295.346E-03     4.57835E-03    -295.074E-03     589.922E-03    -295.505E-03     4.44100E-03
             150    -221.762E-09     113.484E-03    -92.6072E+06    -118.880E+06    -92.0609E+06     1.13658E+06    -295.076E-03     590.086E-03    -295.010E-03     4.28106E-03    -295.233E-03     589.760E-03    -295.164E-03     4.17787E-03
             151     582.210E-09     111.776E-03    -91.7546E+06    -116.065E+06    -91.9256E+06    -533.639E+03    -295.200E-03     589.744E-03    -294.544E-03     4.34765E-03    -295.358E-03     589.431E-03    -294.702E-03     4.15027E-03
             152    -75.0288E-09     110.065E-03    -90.9855E+06    -113.689E+06    -90.9575E+06     305.000E+03    -294.813E-03     589.841E-03    -295.028E-03     4.63465E-03    -294.972E-03     589.538E-03    -295.186E-03     4.40956E-03
             153    -731.223E-09     108.356E-03    -91.5404E+06    -110.844E+06    -89.6737E+06     692.840E+03    -294.354E-03     589.787E-03    -295.433E-03     4.19030E-03    -294.522E-03     589.496E-03    -295.588E-03     3.97895E-03
             154     98.4932E-09     106.646E-03    -86.1302E+06    -103.780E+06    -87.6633E+06     867.935E+03    -295.161E-03     590.273E-03    -295.112E-03     4.23670E-03    -295.314E-03     590.007E-03    -295.275E-03     4.04987E-03
             155     575.486E-09     104.934E-03    -87.5775E+06    -101.769E+06    -87.5941E+06     27.5937E+03    -295.672E-03     590.548E-03    -294.877E-03     4.25665E-03    -295.836E-03     590.294E-03    -295.040E-03     4.08884E-03
             156    -194.553E-09     103.223E-03    -86.7510E+06    -101.543E+06    -86.9981E+06     504.802E+03    -295.192E-03     590.118E-03    -294.926E-03     4.34319E-03    -295.353E-03     589.863E-03    -295.088E-03     4.19954E-03
             157     156.365E-09     101.514E-03    -85.8068E+06    -100.900E+06    -85.9289E+06    -449.666E+03    -295.145E-03     590.138E-03    -294.993E-03     4.56580E-03    -295.304E-03     589.884E-03    -295.152E-03     4.34370E-03
             158     71.9724E-09     99.8008E-03    -85.9867E+06    -101.279E+06    -86.1211E+06    -168.051E+03    -295.279E-03     590.175E-03    -294.896E-03     4.62873E-03    -295.438E-03     589.919E-03    -295.055E-03     4.35844E-03
             159    -608.343E-09     96.3798E-03    -84.5891E+06    -99.6941E+06    -84.9664E+06    -75.6113E+03    -295.116E-03     590.516E-03    -295.400E-03     4.48663E-03    -295.271E-03     590.264E-03    -295.558E-03     4.28168E-03
             160     621.271E-09     94.6688E-03    -83.9944E+06    -98.7494E+06    -83.9876E+06     64.2300E+03    -294.969E-03     590.103E-03    -295.134E-03     4.41686E-03    -295.124E-03     589.854E-03    -295.289E-03     4.21097E-03
             161    -866.503E-09     92.9619E-03    -82.6772E+06    -97.2896E+06    -82.7046E+06      64.373E+03    -294.751E-03     590.097E-03    -295.347E-03     4.15760E-03    -294.903E-03     589.852E-03    -295.499E-03     3.96328E-03
             162     303.180E-09     91.2477E-03    -81.2960E+06    -95.3927E+06    -80.6855E+06     483.751E+03    -295.284E-03     590.415E-03    -295.132E-03     4.35102E-03    -295.435E-03     590.174E-03    -295.279E-03     4.22573E-03
             163     457.413E-09     89.5368E-03    -82.4082E+06    -96.6656E+06    -82.8873E+06    -274.729E+03    -295.648E-03     590.259E-03    -294.611E-03     4.69433E-03    -295.800E-03     590.016E-03    -294.766E-03     4.50580E-03
             164     154.476E-09     87.8289E-03    -80.7128E+06    -94.5330E+06    -81.4495E+06     550.996E+03    -295.380E-03     590.200E-03    -294.820E-03     4.63472E-03    -295.529E-03     589.964E-03    -294.973E-03     4.33800E-03
             165    -33.9014E-09     86.1152E-03    -82.7087E+06    -94.9442E+06    -81.4797E+06    -187.346E+03    -295.373E-03     590.659E-03    -295.287E-03     4.79595E-03    -295.531E-03     590.423E-03    -295.437E-03     4.59950E-03
             166     25.6305E-09     84.4053E-03    -79.7991E+06     -92.989E+06    -80.9217E+06     718.578E+03    -295.621E-03     590.853E-03    -295.232E-03     4.27458E-03    -295.768E-03     590.621E-03    -295.386E-03     4.17650E-03
             167     481.866E-09     82.6928E-03    -78.8619E+06    -91.3785E+06    -78.4897E+06    -314.717E+03    -295.577E-03     590.424E-03    -294.847E-03     4.30816E-03    -295.725E-03     590.196E-03    -294.993E-03     4.06257E-03
             168    -19.2502E-09     80.9829E-03    -80.0998E+06    -93.0046E+06    -80.4249E+06    -35.7166E+03    -294.958E-03     590.262E-03    -295.304E-03     4.68255E-03    -295.108E-03     590.031E-03    -295.455E-03     4.47275E-03
             169    -921.636E-09     79.2724E-03    -78.5774E+06    -90.7936E+06    -77.8595E+06     404.408E+03    -294.753E-03     590.639E-03    -295.886E-03     4.53362E-03    -294.902E-03     590.413E-03    -296.029E-03     4.34689E-03
             170     339.846E-09     77.5581E-03    -79.5342E+06    -92.1832E+06    -80.0233E+06    -508.781E+03    -294.949E-03     590.644E-03    -295.695E-03     4.65240E-03    -295.098E-03     590.416E-03    -295.846E-03     4.42941E-03
             171    -773.389E-09     75.8504E-03    -78.2354E+06    -90.2030E+06    -77.6666E+06     876.624E+03    -295.285E-03     590.436E-03    -295.151E-03     4.08033E-03    -295.433E-03     590.212E-03    -295.295E-03     3.92921E-03
             172     1.38049E-06     74.1374E-03    -77.1268E+06    -88.5783E+06    -76.3125E+06    -193.256E+03    -295.570E-03     590.683E-03    -295.113E-03     4.42998E-03    -295.716E-03     590.464E-03    -295.255E-03     4.23462E-03
             173    -1.38125E-06     72.4270E-03    -74.0789E+06    -85.9116E+06    -75.2156E+06     544.832E+03    -295.331E-03     591.026E-03    -295.695E-03     4.24978E-03    -295.468E-03     590.814E-03    -295.839E-03     4.09578E-03
             174     873.529E-09     70.7138E-03    -76.3636E+06    -86.6305E+06    -75.4896E+06    -433.153E+03    -295.489E-03     591.029E-03    -295.540E-03     4.52144E-03    -295.637E-03     590.817E-03    -295.681E-03     4.30667E-03
             175    -438.119E-09     68.9994E-03    -75.5284E+06    -86.8046E+06    -77.0141E+06     392.259E+03    -295.816E-03     590.873E-03    -295.057E-03     5.20726E-03    -295.956E-03     590.661E-03    -295.207E-03     4.98427E-03
             176     989.996E-09     67.2913E-03    -74.9621E+06    -85.7973E+06    -75.2170E+06     67.1046E+03    -295.518E-03     590.670E-03    -295.151E-03     4.55619E-03    -295.660E-03     590.460E-03    -295.294E-03     4.33436E-03
             177    -1.06445E-06     65.5793E-03    -76.8322E+06    -87.5258E+06    -76.1737E+06    -343.659E+03    -294.964E-03     590.835E-03    -295.871E-03     4.40373E-03    -295.111E-03     590.620E-03    -296.013E-03     4.19319E-03
             178    -80.7633E-09     63.8673E-03    -76.0535E+06    -86.5910E+06    -74.2974E+06     82.5289E+03    -295.365E-03     591.215E-03    -295.851E-03     3.98737E-03    -295.512E-03     591.001E-03    -295.986E-03     3.82880E-03
             179     580.914E-09     62.1535E-03    -75.6144E+06    -88.3604E+06    -77.2892E+06    -374.682E+03    -296.038E-03     591.120E-03    -295.082E-03     4.52457E-03    -296.176E-03     590.900E-03    -295.231E-03     4.31531E-03
             180     172.856E-09     60.4423E-03    -77.7711E+06    -89.5381E+06    -76.8594E+06     489.505E+03    -296.002E-03     591.450E-03    -295.448E-03     4.89534E-03    -296.150E-03     591.228E-03    -295.589E-03     4.66172E-03
             181    -189.671E-09     58.7298E-03    -75.9275E+06    -88.5954E+06    -76.4072E+06    -377.148E+03    -295.954E-03     591.938E-03    -295.983E-03     4.14045E-03    -296.095E-03     591.716E-03    -296.127E-03     3.99210E-03
             182     152.978E-09     57.0143E-03    -76.6190E+06    -89.8203E+06    -77.8203E+06    -346.264E+03    -295.229E-03     591.706E-03    -296.477E-03     5.14401E-03    -295.369E-03     591.482E-03    -296.625E-03     4.87581E-03
             183    -1.81402E-06     55.3009E-03    -78.2496E+06    -90.1054E+06    -76.4484E+06     222.401E+03    -295.303E-03     591.666E-03    -296.363E-03     4.90288E-03    -295.452E-03     591.442E-03    -296.501E-03     4.65270E-03
             184     2.05667E-06     53.5891E-03    -74.7282E+06    -88.2546E+06    -75.9653E+06     184.465E+03    -297.138E-03     592.611E-03    -295.473E-03     4.83951E-03    -297.274E-03     592.390E-03    -295.616E-03     4.60133E-03
             185    -95.2365E-09     51.8724E-03    -75.9239E+06    -88.5508E+06    -74.9765E+06    -164.129E+03    -297.262E-03     593.516E-03    -296.254E-03     5.46381E-03    -297.405E-03     593.294E-03    -296.391E-03     5.14940E-03
             186    -525.459E-09     50.1555E-03    -74.6052E+06    -88.1791E+06    -75.0048E+06     132.629E+03    -296.300E-03     593.374E-03    -297.074E-03     4.52282E-03    -296.437E-03     593.151E-03    -297.213E-03     4.30775E-03
             187     95.7691E-09     48.4415E-03    -75.6620E+06    -88.4604E+06    -74.0133E+06    -19.8532E+03    -296.659E-03     593.901E-03    -297.242E-03     4.79645E-03    -296.803E-03     593.677E-03    -297.374E-03     4.54921E-03
             188    -443.730E-09     46.7222E-03    -73.1957E+06    -87.7850E+06    -74.6038E+06     295.281E+03    -297.444E-03     595.060E-03    -297.615E-03     4.69467E-03    -297.576E-03     594.836E-03    -297.755E-03     4.39567E-03
             189     539.663E-09     45.0020E-03    -71.9276E+06    -86.3225E+06    -72.4380E+06     70.9958E+03    -297.985E-03     595.568E-03    -297.583E-03     5.05267E-03    -298.116E-03     595.347E-03    -297.716E-03     4.76152E-03
             190    -116.407E-09     43.2819E-03    -74.1663E+06    -88.5745E+06    -74.4510E+06    -690.113E+03    -298.313E-03     596.206E-03    -297.893E-03     5.40347E-03    -298.449E-03     595.980E-03    -298.029E-03     5.07901E-03
             191     236.317E-09     41.5608E-03    -72.8606E+06    -87.3019E+06    -72.8008E+06     871.399E+03    -298.580E-03     597.145E-03    -298.565E-03     5.07673E-03    -298.713E-03     596.921E-03    -298.697E-03     4.84263E-03
             192    -351.016E-09     39.8371E-03    -70.5755E+06    -84.9127E+06    -70.0163E+06    -377.679E+03    -298.728E-03     597.719E-03    -298.991E-03     4.91711E-03    -298.858E-03     597.500E-03    -299.115E-03     4.59902E-03
             193     107.506E-09     38.1137E-03    -74.0145E+06    -88.3206E+06    -73.4876E+06    -324.666E+03    -298.911E-03     598.353E-03    -299.441E-03     5.50965E-03    -299.048E-03     598.127E-03    -299.573E-03     5.13608E-03
             194    -582.496E-09     36.3864E-03    -72.8991E+06    -87.5123E+06    -73.1158E+06     428.978E+03    -299.460E-03     599.650E-03    -300.190E-03     5.97477E-03    -299.593E-03     599.426E-03    -300.323E-03     5.66429E-03
             195     62.8269E-09     34.6593E-03    -70.9581E+06    -85.3583E+06    -70.3354E+06     217.000E+03    -300.129E-03     600.940E-03    -300.811E-03     5.44185E-03    -300.260E-03     600.720E-03    -300.936E-03     5.10619E-03
             196    -461.565E-09     32.9307E-03     -70.498E+06    -85.3886E+06    -70.2159E+06    -14.8866E+03    -300.847E-03     602.511E-03    -301.664E-03     5.67115E-03    -300.975E-03     602.290E-03    -301.789E-03     5.28595E-03
             197    -241.935E-09     31.1941E-03    -68.4842E+06    -84.4871E+06    -70.1149E+06    -23.4376E+03    -301.850E-03     604.273E-03    -302.424E-03     5.89516E-03    -301.969E-03     604.054E-03    -302.552E-03     5.49109E-03
             198     149.663E-09     29.4595E-03    -69.8476E+06    -84.9275E+06    -69.7455E+06    -93.0961E+03    -302.705E-03     605.252E-03    -302.547E-03     6.19427E-03    -302.832E-03     605.031E-03    -302.671E-03     5.79564E-03
             199     133.895E-09     27.7199E-03    -67.6265E+06    -82.6789E+06    -67.5791E+06     390.726E+03    -302.918E-03     605.768E-03    -302.849E-03     6.38715E-03    -303.041E-03     605.553E-03    -302.969E-03     5.91604E-03
             200    -345.683E-09     25.9858E-03    -65.4955E+06    -80.6516E+06    -65.2951E+06     253.457E+03    -302.911E-03     605.464E-03    -302.553E-03     5.01309E-03    -303.028E-03     605.253E-03    -302.668E-03     4.61371E-03
             201     1.02242E-06     24.2479E-03    -65.2287E+06    -81.2135E+06    -65.9985E+06     126.510E+03    -302.268E-03     603.866E-03    -301.598E-03     5.39186E-03    -302.382E-03     603.652E-03    -301.715E-03     5.03351E-03
             202    -829.854E-09     22.5135E-03    -64.0475E+06    -79.1675E+06    -62.3992E+06     397.413E+03    -299.889E-03     600.961E-03    -301.072E-03     5.91038E-03    -300.006E-03     600.751E-03    -301.177E-03     5.49853E-03
             203    -944.699E-09     20.7907E-03    -62.5808E+06    -79.2956E+06    -62.9519E+06    -758.346E+03    -297.530E-03     596.192E-03    -298.662E-03     4.51760E-03    -297.638E-03     595.979E-03    -298.771E-03     4.07696E-03
             204     1.20177E-06     19.0708E-03    -62.3618E+06    -80.6979E+06    -63.7848E+06     262.735E+03    -294.887E-03     589.342E-03    -294.455E-03     4.30867E-03    -294.991E-03     589.123E-03    -294.566E-03     3.89867E-03
             205    -894.105E-09     17.3736E-03    -61.7708E+06    -80.3556E+06    -61.1207E+06     52.2880E+03    -289.544E-03     580.035E-03    -290.491E-03     3.21697E-03    -289.649E-03     579.812E-03    -290.591E-03     2.84097E-03
             206    -686.642E-09     15.6865E-03    -61.1698E+06    -81.2580E+06    -60.8248E+06    -131.681E+03    -283.046E-03     567.680E-03    -284.634E-03     1.66120E-03    -283.148E-03     567.450E-03    -284.732E-03     1.32204E-03
             207     139.267E-09     14.0267E-03    -60.1408E+06    -82.1867E+06    -59.8738E+06    -249.114E+03    -276.057E-03     552.563E-03    -276.506E-03     1.09346E-03    -276.155E-03     552.325E-03    -276.599E-03     719.901E-06
             208    -177.352E-09     12.3940E-03    -57.4294E+06    -81.9655E+06    -57.9432E+06     87.1270E+03    -267.403E-03     534.887E-03    -267.484E-03    -360.210E-06    -267.491E-03     534.641E-03    -267.572E-03    -788.947E-06
             209     129.257E-09     10.7913E-03    -51.3568E+06    -78.4632E+06    -51.6027E+06     1.10404E+06    -257.995E-03     515.803E-03    -257.808E-03    -1.45236E-03    -258.068E-03     515.557E-03    -257.878E-03    -1.84117E-03
             210     209.272E-09     9.22068E-03    -40.7708E+06    -71.3746E+06    -41.3380E+06     1.25192E+06    -249.518E-03     498.742E-03    -249.223E-03    -874.276E-06    -249.562E-03     498.502E-03    -249.267E-03    -1.28806E-03
             211    -121.149E-09     7.66979E-03    -40.3889E+06    -64.4670E+06    -39.6878E+06     1.20832E+06    -243.280E-03     486.352E-03    -243.072E-03     87.2513E-06    -243.333E-03     486.146E-03    -243.118E-03    -363.492E-06
             212     343.408E-09     6.13855E-03    -38.8450E+06    -62.8704E+06    -37.6699E+06    -479.338E+03    -239.660E-03     479.855E-03    -240.195E-03     1.13281E-03    -239.710E-03     479.653E-03    -240.236E-03     755.813E-06
             213    -1.31003E-06     4.60838E-03    -35.4575E+06    -66.5015E+06    -35.5177E+06    -683.812E+03    -239.282E-03     479.547E-03    -240.265E-03     1.83959E-03    -239.312E-03     479.319E-03    -240.295E-03     1.54832E-03
             214     884.010E-09     3.07569E-03    -37.1343E+06    -66.0591E+06    -37.0612E+06     727.675E+03    -241.151E-03     482.174E-03    -241.023E-03     1.47415E-03    -241.187E-03     481.953E-03    -241.059E-03     1.26851E-03
             215    -277.829E-09     1.53808E-03    -35.3363E+06    -63.3320E+06    -35.3102E+06     285.682E+03    -242.178E-03     483.884E-03    -241.707E-03     878.995E-06    -242.211E-03     483.670E-03    -241.740E-03     776.236E-06
             216     706.078E-06     263.678E-18    -34.8718E+06    -62.3132E+06    -34.1007E+06    -242.535E+03    -242.506E-03     484.744E-03    -242.238E-03     1.07885E-03    -242.540E-03     484.533E-03    -242.268E-03     1.00507E-03
             217     1.41210E-03     263.678E-18    -34.2489E+06    -60.7872E+06    -32.1745E+06     449.866E+03    -243.293E-03     485.859E-03    -242.566E-03     1.44146E-03    -243.330E-03     485.652E-03    -242.589E-03     1.29382E-03
             218     2.11748E-03     263.678E-18    -33.7151E+06    -58.6876E+06    -28.8591E+06     1.03898E+06    -244.226E-03     487.203E-03    -242.977E-03     1.68620E-03    -244.268E-03     487.001E-03    -242.987E-03     1.45854E-03
             219     2.82164E-03     263.678E-18    -32.3148E+06    -55.6229E+06    -24.4685E+06    -138.949E+03    -245.373E-03     488.825E-03    -243.452E-03     2.72129E-03    -245.420E-03     488.631E-03    -243.447E-03     2.37525E-03
             220     3.52501E-03     263.678E-18    -29.9686E+06    -51.5533E+06    -19.2082E+06    -310.337E+03    -246.964E-03     490.981E-03    -244.016E-03     3.69725E-03    -247.014E-03     490.797E-03    -243.994E-03     3.25043E-03
             221     4.22745E-03     263.678E-18    -27.6681E+06    -47.3102E+06    -13.6983E+06     243.937E+03    -249.159E-03     493.872E-03    -244.713E-03     4.37043E-03    -249.212E-03     493.699E-03    -244.673E-03     3.88003E-03
             222     4.92784E-03     263.678E-18    -25.3817E+06    -43.2471E+06    -8.93782E+06     -308.67E+03    -252.098E-03     497.674E-03    -245.576E-03     5.27311E-03    -252.154E-03     497.512E-03    -245.521E-03     4.66261E-03
             223     5.62589E-03     263.678E-18    -22.6067E+06    -38.8996E+06    -4.47316E+06    -581.797E+03    -255.551E-03     502.174E-03    -246.622E-03     6.10047E-03    -255.607E-03     502.025E-03    -246.556E-03     5.33755E-03
             224     6.32151E-03     263.678E-18    -19.8651E+06    -27.7094E+06     2.99222E+06     149.130E+03    -259.554E-03     507.410E-03    -247.856E-03     6.70632E-03    -259.624E-03     507.304E-03    -247.772E-03     5.83917E-03
             225     7.01466E-03     263.678E-18    -17.6923E+06    -16.8332E+06     10.4005E+06     863.410E+03    -264.657E-03     513.956E-03    -249.299E-03     7.35805E-03    -264.745E-03     513.892E-03    -249.197E-03     6.32400E-03
             226     7.70292E-03     263.678E-18    -16.0331E+06    -12.8905E+06     15.1147E+06     1.45736E+06    -271.051E-03     522.047E-03    -250.996E-03     8.00357E-03    -271.146E-03     521.997E-03    -250.878E-03     6.75691E-03
             227     8.38756E-03     263.678E-18    -14.6710E+06    -9.20034E+06     18.9483E+06     1.56909E+06    -279.243E-03     532.249E-03    -253.006E-03     8.30860E-03    -279.346E-03     532.215E-03    -252.877E-03     6.76526E-03
             228     9.06590E-03     263.678E-18    -13.2156E+06    -5.72054E+06     21.1230E+06     705.190E+03    -289.969E-03     545.380E-03    -255.411E-03     8.00785E-03    -290.075E-03     545.361E-03    -255.278E-03     6.17395E-03
             229     9.73598E-03     263.678E-18    -11.3000E+06    -1.63593E+06     22.8595E+06     354.545E+03    -304.596E-03     562.941E-03    -258.346E-03     8.66655E-03    -304.707E-03     562.946E-03    -258.213E-03     6.33440E-03
             230     10.3954E-03     263.678E-18    -10.0455E+06     2.43305E+06     24.1555E+06     700.619E+03    -324.494E-03     586.485E-03    -261.991E-03     8.57549E-03    -324.611E-03     586.514E-03    -261.860E-03     5.69574E-03
             231     11.0402E-03     263.678E-18    -8.35936E+06     7.55903E+06     25.9849E+06     773.579E+03    -350.807E-03     617.352E-03    -266.546E-03     12.7692E-03    -350.945E-03     617.427E-03    -266.415E-03     9.12264E-03
             232     11.6598E-03     263.678E-18    -6.63619E+06     13.3876E+06     27.2974E+06     1.43453E+06    -388.422E-03     660.717E-03    -272.295E-03     18.0692E-03    -388.578E-03     660.845E-03    -272.168E-03     14.0105E-03
             233     12.2665E-03     263.678E-18    -5.76287E+06     19.8021E+06     27.3445E+06     701.038E+03    -448.535E-03     728.353E-03    -279.818E-03     16.9159E-03    -448.686E-03     728.534E-03    -279.702E-03     12.9842E-03
             234     12.8229E-03     263.678E-18     1.00622E+06     38.8679E+06     32.5924E+06    -1.08231E+06    -539.840E-03     829.697E-03    -289.858E-03     72.7536E-03    -540.435E-03     830.405E-03    -289.752E-03     62.4966E-03
             235     13.3687E-03     2.46286E-03     1.73936E+06     46.6287E+06     35.5588E+06    -3.12766E+06    -516.012E-03     810.756E-03    -294.744E-03     133.911E-03    -517.269E-03     812.095E-03    -294.637E-03     117.195E-03
             236     13.3815E-03     4.38926E-03    -5.23478E+06     30.8761E+06     33.8312E+06    -1.88635E+06    -413.910E-03     707.877E-03    -293.966E-03     127.061E-03    -415.170E-03     709.113E-03    -293.834E-03     111.856E-03
             237     13.3934E-03     6.22970E-03    -4.04592E+06     24.0571E+06     36.6267E+06    -365.880E+03    -373.797E-03     667.931E-03    -294.134E-03     113.650E-03    -374.900E-03     668.993E-03    -293.980E-03     99.6632E-03
             238     13.3955E-03     8.04861E-03    -1.66150E+06     23.4085E+06     38.1935E+06    -1.42805E+06    -345.669E-03     640.116E-03    -294.448E-03     109.213E-03    -346.760E-03     641.175E-03    -294.288E-03     95.5885E-03
             239     13.3977E-03     9.81223E-03    -604.549E+03     21.6517E+06     38.4014E+06     122.767E+03    -325.903E-03     620.686E-03    -294.783E-03     110.921E-03    -326.942E-03     621.688E-03    -294.621E-03     98.3786E-03
             240     13.3995E-03     11.5436E-03     464.445E+03     21.7918E+06     40.9450E+06     449.033E+03    -316.232E-03     611.170E-03    -294.938E-03     107.253E-03    -317.199E-03     612.097E-03    -294.766E-03     95.4310E-03
             241     13.3986E-03     13.2826E-03    -1.77658E+06     19.3736E+06     41.5916E+06    -762.426E+03    -308.323E-03     603.432E-03    -295.109E-03     101.112E-03    -309.211E-03     604.262E-03    -294.927E-03     89.9494E-03
             242     13.4000E-03     14.9965E-03    -926.608E+03     18.9565E+06     41.4965E+06     657.374E+03    -300.001E-03     595.284E-03    -295.284E-03     102.790E-03    -300.879E-03     596.106E-03    -295.102E-03     92.0161E-03
             243     13.4001E-03     16.7042E-03    -65.8596E+03     19.6435E+06     43.6699E+06    -60.5517E+03    -296.192E-03     591.583E-03    -295.391E-03     99.1885E-03    -297.030E-03     592.364E-03    -295.201E-03     88.6578E-03
             244     13.3980E-03     18.4047E-03    -2.25484E+06     18.1258E+06     44.8871E+06    -734.327E+03    -292.090E-03     587.610E-03    -295.521E-03     95.8445E-03    -292.897E-03     588.344E-03    -295.320E-03     85.6529E-03
             245     13.4011E-03     20.1022E-03    -1.39112E+06     18.4977E+06     45.1299E+06     372.915E+03    -289.115E-03     584.722E-03    -295.607E-03     95.7923E-03    -289.902E-03     585.438E-03    -295.406E-03     85.8933E-03
             246     13.3966E-03     21.7972E-03    -835.625E+03     19.0193E+06     46.1098E+06    -194.710E+03    -288.712E-03     584.366E-03    -295.654E-03     94.6765E-03    -289.483E-03     585.069E-03    -295.450E-03     84.8514E-03
             247     13.4007E-03     23.4911E-03    -1.57519E+06     18.4620E+06     45.5250E+06    -490.865E+03    -288.116E-03     583.746E-03    -295.630E-03     95.3482E-03    -288.900E-03     584.458E-03    -295.427E-03     85.4415E-03
             248     13.3991E-03     25.1856E-03    -1.44601E+06     18.7793E+06     45.9086E+06    -558.624E+03    -289.309E-03     584.912E-03    -295.603E-03     93.2802E-03    -290.073E-03     585.604E-03    -295.398E-03     83.4577E-03
             249     13.3979E-03     26.8885E-03    -1.06329E+06     19.3972E+06     47.0970E+06     294.998E+03    -289.223E-03     584.832E-03    -295.610E-03     94.2014E-03    -289.969E-03     585.507E-03    -295.401E-03     84.6716E-03
             250     13.4020E-03     28.5779E-03    -1.69930E+06     19.2855E+06     47.2755E+06    -575.114E+03    -290.170E-03     585.709E-03    -295.540E-03     94.8053E-03    -290.937E-03     586.402E-03    -295.329E-03     85.0305E-03
             251     13.3975E-03     30.2847E-03    -915.993E+03     20.3903E+06     48.6796E+06     135.587E+03    -292.115E-03     587.619E-03    -295.504E-03     92.7166E-03    -292.844E-03     588.276E-03    -295.289E-03     83.2417E-03
             252     13.4017E-03     31.9865E-03    -911.977E+03     20.2999E+06     48.3571E+06     244.463E+03    -291.384E-03     586.898E-03    -295.513E-03     93.7821E-03    -292.110E-03     587.552E-03    -295.300E-03     84.4355E-03
             253     13.3983E-03     33.6818E-03    -1.68644E+06     20.1078E+06     49.0099E+06    -385.547E+03    -292.541E-03     588.036E-03    -295.495E-03     93.0690E-03    -293.290E-03     588.709E-03    -295.277E-03     83.3904E-03
             254     13.4004E-03     35.3921E-03    -1.15054E+06     20.5780E+06     48.8392E+06     385.565E+03    -293.168E-03     588.617E-03    -295.449E-03     93.8615E-03    -293.906E-03     589.283E-03    -295.233E-03     84.3382E-03
             255     13.4012E-03     37.0907E-03    -1.53195E+06     20.3932E+06     48.5695E+06    -845.843E+03    -293.496E-03     588.905E-03    -295.409E-03     93.3938E-03    -294.240E-03     589.575E-03    -295.193E-03     83.7443E-03
             256     13.3990E-03     38.7990E-03    -834.175E+03     21.7152E+06     51.1942E+06     617.017E+03    -294.733E-03     590.160E-03    -295.427E-03     92.6913E-03    -295.457E-03     590.809E-03    -295.202E-03     83.2924E-03
             257     13.4004E-03     40.5066E-03    -934.614E+03     21.2327E+06     50.1658E+06     807.325E+03    -294.060E-03     589.516E-03    -295.456E-03     93.0832E-03    -294.772E-03     590.155E-03    -295.235E-03     83.8522E-03
             258     13.3991E-03     42.2064E-03    -1.98611E+06     20.3284E+06     48.9721E+06    -312.901E+03    -293.767E-03     589.188E-03    -295.421E-03     94.2243E-03    -294.523E-03     589.868E-03    -295.203E-03     84.5215E-03
             259     13.4025E-03     43.9135E-03    -1.80826E+06     21.2276E+06     50.5868E+06    -491.950E+03    -295.762E-03     591.117E-03    -295.355E-03     94.0653E-03    -296.526E-03     591.802E-03    -295.130E-03     84.2471E-03
             260     13.3981E-03     45.6271E-03    -530.775E+03     22.3326E+06     51.1679E+06     574.656E+03    -296.653E-03     591.991E-03    -295.338E-03     93.8134E-03    -297.382E-03     592.648E-03    -295.113E-03     84.3699E-03
             261     13.4032E-03     47.3319E-03    -1.65508E+06     21.3215E+06     50.3682E+06     191.193E+03    -296.492E-03     591.823E-03    -295.331E-03     93.8491E-03    -297.231E-03     592.486E-03    -295.108E-03     84.3063E-03
             262     13.3979E-03     49.0418E-03    -1.28927E+06     22.2472E+06     52.3851E+06    -212.444E+03    -297.125E-03     592.453E-03    -295.328E-03     93.1313E-03    -297.870E-03     593.120E-03    -295.097E-03     83.4723E-03
             263     13.4031E-03     50.7549E-03    -418.149E+03     22.9935E+06     52.2256E+06     508.600E+03    -296.771E-03     592.073E-03    -295.302E-03     94.6335E-03    -297.516E-03     592.747E-03    -295.074E-03     85.0500E-03
             264     13.3999E-03     52.4596E-03    -1.68460E+06     21.9248E+06     51.5948E+06    -128.697E+03    -297.065E-03     592.377E-03    -295.311E-03     92.5438E-03    -297.814E-03     593.048E-03    -295.083E-03     82.7936E-03
             265     13.3999E-03     54.1751E-03    -1.02859E+06     22.5685E+06     52.3937E+06    -249.145E+03    -296.691E-03     592.022E-03    -295.330E-03     94.0369E-03    -297.446E-03     592.701E-03    -295.099E-03     84.3140E-03
             266     13.4028E-03     55.8767E-03    -1.72365E+06     22.0812E+06     51.3959E+06    -422.454E+03    -297.111E-03     592.374E-03    -295.263E-03     94.6098E-03    -297.869E-03     593.055E-03    -295.035E-03     84.8783E-03
             267     13.3999E-03     57.5962E-03    -1.18715E+06     23.0810E+06     53.6868E+06     654.799E+03    -298.000E-03     593.304E-03    -295.303E-03     91.7203E-03    -298.726E-03     593.951E-03    -295.067E-03     82.2438E-03
             268     13.3998E-03     59.3032E-03    -1.36690E+06     22.5769E+06     52.8998E+06     53.6325E+03    -296.593E-03     591.944E-03    -295.351E-03     94.7415E-03    -297.342E-03     592.615E-03    -295.117E-03     85.1876E-03
             269     13.4024E-03     61.0085E-03    -1.72543E+06     22.5591E+06     52.5206E+06    -645.794E+03    -297.180E-03     592.454E-03    -295.274E-03     94.9026E-03    -297.955E-03     593.150E-03    -295.041E-03     85.0048E-03
             270     13.4004E-03     62.7264E-03    -822.830E+03     23.4879E+06     53.5472E+06     289.776E+03    -298.242E-03     593.528E-03    -295.286E-03     92.2187E-03    -298.979E-03     594.190E-03    -295.051E-03     82.5984E-03
             271     13.3997E-03     64.4340E-03    -1.73638E+06     22.3236E+06     52.1292E+06     398.012E+03    -297.281E-03     592.611E-03    -295.330E-03     94.0064E-03    -298.025E-03     593.277E-03    -295.100E-03     84.4589E-03
             272     13.4020E-03     66.1427E-03    -2.01765E+06     22.1919E+06     51.7446E+06    -587.181E+03    -297.507E-03     592.798E-03    -295.292E-03     94.2699E-03    -298.267E-03     593.481E-03    -295.062E-03     84.5017E-03
             273     13.3997E-03     67.8584E-03    -177.729E+03     23.7370E+06     52.6786E+06     753.449E+03    -297.156E-03     592.444E-03    -295.289E-03     93.7910E-03    -297.886E-03     593.106E-03    -295.059E-03     84.3407E-03
             274     13.4027E-03     69.5643E-03    -1.83176E+06     22.6008E+06     52.8936E+06    -167.075E+03    -296.830E-03     592.146E-03    -295.316E-03     94.1037E-03    -297.588E-03     592.824E-03    -295.082E-03     84.4071E-03
             275     13.3982E-03     71.2727E-03    -1.54331E+06     23.0104E+06     53.3540E+06    -425.927E+03    -297.488E-03     592.791E-03    -295.302E-03     93.6572E-03    -298.254E-03     593.478E-03    -295.067E-03     83.7979E-03
             276     13.4040E-03     72.9868E-03    -981.673E+03     23.4475E+06     53.1020E+06    -101.792E+03    -297.162E-03     592.437E-03    -295.274E-03     93.9272E-03    -297.912E-03     593.112E-03    -295.042E-03     84.2698E-03
             277     13.3987E-03     74.6939E-03    -1.55251E+06     23.5263E+06     54.9231E+06    -124.316E+03    -297.757E-03     593.059E-03    -295.302E-03     93.1854E-03    -298.512E-03     593.733E-03    -295.060E-03     83.4820E-03
             278     13.4016E-03     76.4097E-03    -1.48847E+06     23.5477E+06     54.5650E+06     557.016E+03    -297.179E-03     592.487E-03    -295.308E-03     94.8889E-03    -297.935E-03     593.162E-03    -295.067E-03     85.3081E-03
             279     13.4017E-03     78.1136E-03    -1.82341E+06     23.5375E+06     53.5221E+06    -329.331E+03    -297.564E-03     592.817E-03    -295.253E-03     94.6470E-03    -298.328E-03     593.504E-03    -295.017E-03     84.8963E-03
             280     13.4007E-03     79.8294E-03    -1.01429E+06     25.0656E+06     56.7752E+06     98.3189E+03    -298.419E-03     593.688E-03    -295.269E-03     92.4675E-03    -299.162E-03     594.352E-03    -295.020E-03     82.8774E-03
             281     13.4012E-03     81.5395E-03    -570.235E+03     24.7821E+06     56.1792E+06     855.701E+03    -296.728E-03     592.011E-03    -295.283E-03     94.0390E-03    -297.471E-03     592.677E-03    -295.037E-03     84.5754E-03
             282     13.4027E-03     83.2463E-03    -2.07077E+06     23.8267E+06     54.5810E+06    -597.222E+03    -297.392E-03     592.653E-03    -295.261E-03     93.6332E-03    -298.166E-03     593.346E-03    -295.020E-03     83.7299E-03
             283     13.3990E-03     84.9606E-03    -1.53840E+06     25.8092E+06     56.5789E+06    -47.0294E+03    -297.744E-03     593.008E-03    -295.264E-03     93.5370E-03    -298.504E-03     593.691E-03    -295.017E-03     83.8485E-03
             284     13.4046E-03     86.6693E-03    -1.06653E+06     26.4088E+06     56.3896E+06    -273.849E+03    -296.958E-03     592.202E-03    -295.243E-03     94.3972E-03    -297.718E-03     592.888E-03    -294.998E-03     84.7636E-03
             285     13.3992E-03     88.3794E-03    -1.47646E+06     26.0065E+06     56.7290E+06     266.991E+03    -297.927E-03     593.159E-03    -295.232E-03     94.0973E-03    -298.688E-03     593.843E-03    -294.984E-03     84.4464E-03
             286     13.4038E-03     90.0944E-03    -1.14399E+06     26.7448E+06     57.6954E+06     803.372E+03    -297.932E-03     593.186E-03    -295.255E-03     93.8384E-03    -298.683E-03     593.861E-03    -295.003E-03     84.3241E-03
             287     13.3991E-03     91.7995E-03    -2.24033E+06     26.5697E+06     58.0005E+06    -381.724E+03    -297.637E-03     592.892E-03    -295.254E-03     93.9156E-03    -298.412E-03     593.584E-03    -295.000E-03     84.1516E-03
             288     13.4045E-03     93.5140E-03    -2.31890E+06     27.0277E+06     59.2986E+06    -415.911E+03    -297.814E-03     593.055E-03    -295.241E-03     93.6421E-03    -298.597E-03     593.754E-03    -294.980E-03     83.7868E-03
             289     13.3991E-03     95.2246E-03    -782.800E+03     29.3497E+06     59.5897E+06     590.827E+03    -296.942E-03     592.184E-03    -295.242E-03     94.0562E-03    -297.701E-03     592.871E-03    -294.985E-03     84.5358E-03
             290     13.4055E-03     96.9335E-03    -1.38871E+06     29.8997E+06     58.3688E+06     383.737E+03    -297.035E-03     592.245E-03    -295.209E-03     94.9471E-03    -297.805E-03     592.946E-03    -294.959E-03     85.3615E-03
             291     13.3994E-03     98.6419E-03    -1.93398E+06     30.0103E+06     59.9035E+06    -194.107E+03    -298.369E-03     593.585E-03    -295.217E-03     92.7039E-03    -299.143E-03     594.286E-03    -294.958E-03     82.9399E-03
             292     670.082E-06     99.8108E-03    -85.1500E+06    -99.5884E+06    -83.6369E+06     81.3482E+03    -295.199E-03     590.196E-03    -294.998E-03     7.33772E-03    -295.361E-03     589.946E-03    -295.148E-03     6.99471E-03
             293     1.34007E-03     99.8278E-03    -82.9683E+06    -95.3899E+06    -77.3925E+06     371.768E+03    -295.165E-03     590.278E-03    -295.114E-03     13.5367E-03    -295.336E-03     590.041E-03    -295.242E-03     12.9640E-03
             294     2.00967E-03     99.8581E-03    -79.9640E+06    -89.6102E+06    -68.4531E+06     428.437E+03    -295.219E-03     590.362E-03    -295.143E-03     20.3111E-03    -295.406E-03     590.146E-03    -295.239E-03     19.3936E-03
             295     2.67970E-03     99.8995E-03    -75.9572E+06    -82.4758E+06    -57.4082E+06     370.331E+03    -295.256E-03     590.422E-03    -295.166E-03     27.0561E-03    -295.464E-03     590.234E-03    -295.224E-03     25.7431E-03
             296     3.34970E-03     99.9529E-03    -70.7166E+06    -74.1479E+06    -44.8671E+06     395.205E+03    -295.423E-03     590.613E-03    -295.191E-03     34.0797E-03    -295.655E-03     590.461E-03    -295.205E-03     32.3114E-03
             297     4.01967E-03     100.018E-03    -65.1233E+06    -65.8452E+06    -32.5653E+06     474.105E+03    -295.668E-03     590.890E-03    -295.223E-03     41.2220E-03    -295.929E-03     590.781E-03    -295.196E-03     38.9235E-03
             298     4.68969E-03     100.097E-03    -59.2940E+06    -57.9115E+06    -21.2686E+06     567.093E+03    -295.857E-03     591.109E-03    -295.252E-03     48.5254E-03    -296.153E-03     591.051E-03    -295.189E-03     45.5998E-03
             299     5.35963E-03     100.187E-03    -53.9731E+06    -50.6945E+06    -11.0848E+06     512.218E+03    -296.065E-03     591.337E-03    -295.272E-03     56.0118E-03    -296.409E-03     591.341E-03    -295.176E-03     52.3374E-03
             300     6.02974E-03     100.290E-03    -49.1714E+06    -44.2464E+06    -2.41340E+06     388.696E+03    -296.329E-03     591.611E-03    -295.281E-03     63.7119E-03    -296.733E-03     591.690E-03    -295.158E-03     59.1847E-03
             301     6.69990E-03     100.406E-03    -43.9261E+06    -27.2214E+06     8.67615E+06     515.256E+03    -296.551E-03     591.833E-03    -295.283E-03     71.5595E-03    -297.048E-03     592.052E-03    -295.136E-03     66.0342E-03
             302     7.37017E-03     100.534E-03    -38.6822E+06    -10.1544E+06     20.2317E+06     509.483E+03    -296.816E-03     592.097E-03    -295.281E-03     79.3250E-03    -297.426E-03     592.475E-03    -295.109E-03     72.6604E-03
             303     8.04023E-03     100.674E-03    -33.5089E+06    -2.68419E+06     29.3728E+06     516.607E+03    -297.199E-03     592.483E-03    -295.283E-03     87.0132E-03    -297.923E-03     592.993E-03    -295.084E-03     79.1211E-03
             304     8.71052E-03     100.826E-03    -28.5065E+06     4.41138E+06     37.7883E+06     354.631E+03    -297.565E-03     592.852E-03    -295.287E-03     94.3597E-03    -298.418E-03     593.510E-03    -295.063E-03     85.1750E-03
             305     9.38092E-03     100.989E-03    -23.4494E+06     10.2407E+06     44.3030E+06    -32.0569E+03    -297.925E-03     593.212E-03    -295.286E-03     101.108E-03    -298.915E-03     594.026E-03    -295.046E-03     90.5878E-03
             306     10.0507E-03     101.163E-03    -18.2677E+06     15.7016E+06     48.7692E+06     63.6804E+03    -298.273E-03     593.554E-03    -295.281E-03     106.940E-03    -299.397E-03     594.528E-03    -295.034E-03     95.1554E-03
             307     10.7223E-03     101.342E-03    -13.8131E+06     20.1581E+06     51.3358E+06     196.398E+03    -298.582E-03     593.857E-03    -295.275E-03     111.726E-03    -299.830E-03     594.979E-03    -295.027E-03     98.8030E-03
             308     11.3895E-03     101.530E-03    -10.5396E+06     23.4303E+06     53.3286E+06     247.157E+03    -298.646E-03     593.918E-03    -295.271E-03     113.642E-03    -299.940E-03     595.103E-03    -295.024E-03     100.235E-03
             309     12.0610E-03     101.712E-03    -6.54020E+06     28.1610E+06     57.3047E+06     699.501E+03    -298.556E-03     593.820E-03    -295.264E-03     118.259E-03    -299.952E-03     595.127E-03    -295.008E-03     104.192E-03
             310     12.7335E-03     101.911E-03    -3.08981E+06     30.6953E+06     60.0641E+06     214.664E+03    -297.647E-03     592.879E-03    -295.232E-03     109.325E-03    -298.802E-03     593.958E-03    -294.972E-03     97.0294E-03
             311     669.666E-06     101.520E-03    -85.5221E+06    -100.040E+06    -84.5720E+06    -206.908E+03    -295.126E-03     590.161E-03    -295.035E-03     7.38449E-03    -295.289E-03     589.910E-03    -295.188E-03     7.04919E-03
             312     1.33969E-03     101.539E-03    -83.8138E+06    -96.3083E+06    -78.8086E+06     240.006E+03    -295.154E-03     590.249E-03    -295.094E-03     13.6118E-03    -295.327E-03     590.010E-03    -295.227E-03     13.0317E-03
             313     2.00978E-03     101.569E-03    -80.3276E+06    -89.8374E+06    -69.0116E+06     372.068E+03    -295.202E-03     590.328E-03    -295.127E-03     20.3001E-03    -295.390E-03     590.112E-03    -295.225E-03     19.3852E-03
             314     2.67974E-03     101.610E-03    -76.0480E+06    -82.4018E+06    -57.7624E+06     278.673E+03    -295.298E-03     590.455E-03    -295.156E-03     27.0317E-03    -295.506E-03     590.268E-03    -295.216E-03     25.7165E-03
             315     3.34983E-03     101.663E-03    -71.0353E+06    -74.2263E+06    -45.3858E+06     210.854E+03    -295.500E-03     590.694E-03    -295.194E-03     33.9871E-03    -295.732E-03     590.542E-03    -295.210E-03     32.2350E-03
             316     4.01968E-03     101.730E-03    -65.6646E+06    -65.9822E+06    -32.9893E+06     187.236E+03    -295.665E-03     590.898E-03    -295.234E-03     41.1081E-03    -295.928E-03     590.790E-03    -295.208E-03     38.8085E-03
             317     4.68954E-03     101.807E-03    -60.4614E+06    -58.3921E+06    -21.7963E+06     254.137E+03    -295.793E-03     591.052E-03    -295.259E-03     48.5230E-03    -296.094E-03     590.995E-03    -295.196E-03     45.5784E-03
             318     5.35969E-03     101.898E-03    -54.9494E+06    -51.0443E+06    -11.6355E+06      525.55E+03    -296.010E-03     591.280E-03    -295.270E-03     56.1800E-03    -296.358E-03     591.285E-03    -295.174E-03     52.5023E-03
             319     6.02967E-03     102.001E-03    -49.5546E+06    -44.2061E+06    -2.44751E+06     762.917E+03    -296.287E-03     591.561E-03    -295.274E-03     63.8865E-03    -296.693E-03     591.642E-03    -295.151E-03     59.3561E-03
             320     6.69983E-03     102.116E-03    -44.5552E+06    -27.3938E+06     8.53411E+06     654.515E+03    -296.507E-03     591.779E-03    -295.272E-03     71.6130E-03    -297.007E-03     591.999E-03    -295.125E-03     66.0809E-03
             321     7.37011E-03     102.244E-03    -39.2258E+06    -9.90659E+06     20.0226E+06     505.333E+03    -296.845E-03     592.115E-03    -295.269E-03     79.3710E-03    -297.458E-03     592.495E-03    -295.098E-03     72.7071E-03
             322     8.04034E-03     102.385E-03    -33.9026E+06    -2.46654E+06     29.3626E+06     214.073E+03    -297.302E-03     592.581E-03    -295.279E-03     87.0514E-03    -298.029E-03     593.093E-03    -295.079E-03     79.1514E-03
             323     8.71039E-03     102.537E-03    -28.3899E+06     4.64929E+06     38.0954E+06     135.360E+03    -297.694E-03     592.986E-03    -295.292E-03     94.4253E-03    -298.550E-03     593.647E-03    -295.067E-03     85.2083E-03
             324     9.38025E-03     102.700E-03    -23.1003E+06     10.8118E+06     45.3100E+06     283.720E+03    -298.030E-03     593.333E-03    -295.302E-03     101.209E-03    -299.022E-03     594.150E-03    -295.058E-03     90.6795E-03
             325     10.0508E-03     102.872E-03    -19.0471E+06     15.3267E+06     49.4828E+06     122.708E+03    -298.223E-03     593.523E-03    -295.299E-03     107.060E-03    -299.352E-03     594.495E-03    -295.047E-03     95.2828E-03
             326     10.7193E-03     103.053E-03    -14.8836E+06     19.3328E+06     51.3200E+06     239.902E+03    -298.075E-03     593.346E-03    -295.271E-03     112.024E-03    -299.322E-03     594.461E-03    -295.021E-03     99.1964E-03
             327     11.3928E-03     103.239E-03    -10.5542E+06     23.4752E+06     53.6988E+06     165.744E+03    -297.866E-03     593.094E-03    -295.227E-03     114.193E-03    -299.158E-03     594.275E-03    -294.977E-03     100.886E-03
             328     12.0626E-03     103.423E-03    -6.51923E+06     28.1802E+06     57.3493E+06    -154.965E+03    -298.187E-03     593.375E-03    -295.188E-03     117.707E-03    -299.583E-03     594.682E-03    -294.933E-03     103.593E-03
             329     12.7322E-03     103.618E-03    -2.86885E+06     31.0926E+06     60.5173E+06     30.3575E+03    -298.211E-03     593.383E-03    -295.172E-03     107.680E-03    -299.355E-03     594.451E-03    -294.910E-03     95.3781E-03
             330     670.302E-06     103.231E-03    -86.0336E+06    -99.9521E+06    -84.5824E+06     120.492E+03    -295.203E-03     590.221E-03    -295.019E-03     7.31264E-03    -295.367E-03     589.971E-03    -295.172E-03     7.01547E-03
             331     1.33998E-03     103.249E-03    -83.8980E+06    -95.9616E+06    -78.7236E+06    -416.571E+03    -295.174E-03     590.297E-03    -295.124E-03     13.4736E-03    -295.347E-03     590.061E-03    -295.257E-03     12.8688E-03
             332     2.00984E-03     103.279E-03    -80.7316E+06    -90.3556E+06    -70.4252E+06    -325.690E+03    -295.187E-03     590.331E-03    -295.144E-03     20.0697E-03    -295.374E-03     590.115E-03    -295.248E-03     19.1378E-03
             333     2.67980E-03     103.321E-03    -76.4862E+06    -82.7477E+06    -58.7438E+06     90.1780E+03    -295.364E-03     590.539E-03    -295.175E-03     26.9597E-03    -295.572E-03     590.352E-03    -295.238E-03     25.6568E-03
             334     3.34940E-03     103.374E-03    -71.5313E+06    -74.3167E+06    -45.6909E+06     347.932E+03    -295.477E-03     590.694E-03    -295.217E-03     33.9984E-03    -295.712E-03     590.544E-03    -295.234E-03     32.2431E-03
             335     4.01944E-03     103.440E-03    -66.4801E+06    -66.2052E+06    -32.9936E+06     402.171E+03    -295.506E-03     590.746E-03    -295.241E-03     41.2414E-03    -295.773E-03     590.638E-03    -295.213E-03     38.9322E-03
             336     4.68969E-03     103.518E-03    -61.1697E+06    -58.4349E+06    -21.2084E+06     303.156E+03    -295.687E-03     590.935E-03    -295.248E-03     48.7186E-03    -295.994E-03     590.878E-03    -295.181E-03     45.7702E-03
             337     5.35976E-03     103.608E-03    -55.8588E+06    -51.5442E+06    -11.6826E+06     231.692E+03    -295.957E-03     591.205E-03    -295.248E-03     56.3137E-03    -296.309E-03     591.209E-03    -295.150E-03     52.6372E-03
             338     6.03006E-03     103.711E-03    -50.0871E+06    -44.8241E+06    -3.13185E+06     328.687E+03    -296.254E-03     591.501E-03    -295.246E-03     63.9601E-03    -296.662E-03     591.580E-03    -295.124E-03     59.4242E-03
             339     6.70017E-03     103.827E-03    -44.3016E+06    -27.2944E+06     8.33486E+06     444.983E+03    -296.580E-03     591.828E-03    -295.248E-03     71.6831E-03    -297.079E-03     592.048E-03    -295.102E-03     66.1478E-03
             340     7.37027E-03     103.955E-03    -38.9965E+06    -9.75789E+06     20.3025E+06     398.726E+03    -296.912E-03     592.167E-03    -295.256E-03     79.5024E-03    -297.524E-03     592.547E-03    -295.083E-03     72.8496E-03
             341     8.04035E-03     104.095E-03    -33.4202E+06    -2.04917E+06     30.1218E+06     470.473E+03    -297.283E-03     592.551E-03    -295.269E-03     87.2770E-03    -298.009E-03     593.064E-03    -295.066E-03     79.3896E-03
             342     8.71044E-03     104.248E-03    -28.4304E+06     4.87484E+06     38.9300E+06     345.212E+03    -297.669E-03     592.950E-03    -295.281E-03     94.8511E-03    -298.528E-03     593.612E-03    -295.052E-03     85.6391E-03
             343     9.38079E-03     104.411E-03    -23.9972E+06     10.2188E+06     45.4264E+06     378.402E+03    -297.913E-03     593.196E-03    -295.283E-03     101.903E-03    -298.915E-03     594.017E-03    -295.036E-03     91.3612E-03
             344     10.0504E-03     104.584E-03    -18.9983E+06     15.5897E+06     50.2769E+06     675.875E+03    -297.903E-03     593.166E-03    -295.264E-03     108.079E-03    -299.044E-03     594.150E-03    -295.007E-03     96.2638E-03
             345     10.7227E-03     104.763E-03    -14.4800E+06     19.9992E+06     52.4870E+06     123.006E+03    -298.090E-03     593.315E-03    -295.225E-03     112.602E-03    -299.347E-03     594.439E-03    -294.971E-03     99.7216E-03
             346     11.3914E-03     104.947E-03    -10.4780E+06     23.8023E+06     54.1788E+06    -307.661E+03    -298.345E-03     593.542E-03    -295.197E-03     113.219E-03    -299.635E-03     594.722E-03    -294.945E-03     99.8426E-03
             347     12.0630E-03     105.133E-03    -6.88708E+06     28.1881E+06     57.6548E+06    -268.429E+03    -298.760E-03     593.956E-03    -295.197E-03     116.082E-03    -300.157E-03     595.262E-03    -294.939E-03     101.822E-03
             348     12.7332E-03     105.330E-03    -3.29364E+06     31.0646E+06     61.4304E+06    -41.9334E+03    -298.541E-03     593.756E-03    -295.215E-03     106.441E-03    -299.679E-03     594.814E-03    -294.948E-03     94.1551E-03
             349     669.465E-06     104.942E-03    -86.5173E+06    -99.8675E+06    -84.8252E+06     140.974E+03    -295.387E-03     590.435E-03    -295.048E-03     7.21000E-03    -295.554E-03     590.186E-03    -295.202E-03     6.91538E-03
             350     1.33951E-03     104.960E-03    -84.5448E+06    -95.7863E+06    -78.4851E+06     361.819E+03    -295.125E-03     590.328E-03    -295.203E-03     13.4164E-03    -295.302E-03     590.093E-03    -295.334E-03     12.8211E-03
             351     2.00951E-03     104.989E-03    -81.7631E+06    -90.1306E+06    -69.4991E+06     163.749E+03    -295.197E-03     590.389E-03    -295.192E-03     20.1843E-03    -295.391E-03     590.174E-03    -295.290E-03     19.2559E-03
             352     2.67943E-03     105.032E-03    -77.6052E+06     -82.874E+06    -58.3208E+06    -211.554E+03    -295.231E-03     590.428E-03    -295.198E-03     27.2047E-03    -295.445E-03     590.242E-03    -295.257E-03     25.8928E-03
             353     3.34967E-03     105.085E-03    -72.8644E+06    -75.1063E+06    -46.2597E+06    -155.880E+03    -295.276E-03     590.474E-03    -295.199E-03     34.2763E-03    -295.516E-03     590.323E-03    -295.215E-03     32.4965E-03
             354     4.01981E-03     105.150E-03    -67.2712E+06    -66.7324E+06    -33.5714E+06     152.461E+03    -295.455E-03     590.656E-03    -295.201E-03     41.4492E-03    -295.725E-03     590.548E-03    -295.175E-03     39.1331E-03
             355     4.68993E-03     105.228E-03    -61.2415E+06    -58.5649E+06    -21.7450E+06     495.081E+03    -295.707E-03     590.917E-03    -295.209E-03     48.7589E-03    -296.013E-03     590.860E-03    -295.144E-03     45.8222E-03
             356     5.36005E-03     105.319E-03    -55.4419E+06    -51.1813E+06    -11.2714E+06     507.024E+03    -295.990E-03     591.210E-03    -295.220E-03     56.2198E-03    -296.341E-03     591.215E-03    -295.122E-03     52.5473E-03
             357     6.03005E-03     105.421E-03    -50.2853E+06    -44.6630E+06    -2.25220E+06     201.570E+03    -296.293E-03     591.523E-03    -295.230E-03     63.7975E-03    -296.702E-03     591.602E-03    -295.104E-03     59.2631E-03
             358     6.70024E-03     105.537E-03    -44.9504E+06    -27.3730E+06     8.66206E+06     54.1613E+03    -296.565E-03     591.800E-03    -295.235E-03     71.5400E-03    -297.067E-03     592.020E-03    -295.087E-03     66.0055E-03
             359     7.37034E-03     105.665E-03    -39.4052E+06    -9.85345E+06     20.2910E+06     178.254E+03    -296.834E-03     592.073E-03    -295.239E-03     79.4692E-03    -297.448E-03     592.453E-03    -295.066E-03     72.8112E-03
             360     8.04060E-03     105.806E-03    -34.2543E+06    -2.65275E+06     30.0357E+06     393.476E+03    -297.149E-03     592.394E-03    -295.245E-03     87.3756E-03    -297.878E-03     592.905E-03    -295.042E-03     79.5009E-03
             361     8.71100E-03     105.958E-03    -28.8492E+06     4.72046E+06     39.4670E+06     780.952E+03    -297.427E-03     592.673E-03    -295.247E-03     94.9279E-03    -298.287E-03     593.333E-03    -295.014E-03     85.7597E-03
             362     9.38107E-03     106.122E-03    -23.8093E+06     10.6675E+06     46.5567E+06     452.144E+03    -297.616E-03     592.849E-03    -295.233E-03     101.789E-03    -298.617E-03     593.668E-03    -294.982E-03     91.2696E-03
             363     10.0526E-03     106.293E-03    -18.6781E+06     16.0327E+06     50.7814E+06    -299.234E+03    -298.000E-03     593.210E-03    -295.210E-03     107.316E-03    -299.138E-03     594.192E-03    -294.952E-03     95.4553E-03
             364     10.7218E-03     106.473E-03    -13.7973E+06     20.7136E+06     52.7681E+06     114.949E+03    -298.652E-03     593.851E-03    -295.199E-03     111.570E-03    -299.905E-03     594.975E-03    -294.945E-03     98.6081E-03
             365     11.3925E-03     106.661E-03    -10.3087E+06     24.2952E+06     54.9751E+06     203.604E+03    -299.065E-03     594.283E-03    -295.217E-03     112.906E-03    -300.357E-03     595.465E-03    -294.962E-03     99.4754E-03
             366     12.0604E-03     106.842E-03    -7.15086E+06     28.3359E+06     58.5478E+06    -60.8297E+03    -299.138E-03     594.385E-03    -295.247E-03     116.710E-03    -300.539E-03     595.692E-03    -294.985E-03     102.486E-03
             367     12.7300E-03     107.042E-03    -3.44184E+06     30.9608E+06     61.3606E+06     235.083E+03    -297.819E-03     593.064E-03    -295.245E-03     107.801E-03    -298.969E-03     594.134E-03    -294.979E-03     95.4908E-03
             368     669.920E-06     106.653E-03    -86.9332E+06    -102.198E+06    -86.1992E+06     1.11555E+06    -295.120E-03     590.231E-03    -295.111E-03     7.38120E-03    -295.284E-03     589.974E-03    -295.268E-03     7.07595E-03
             369     1.33987E-03     106.670E-03    -85.9698E+06    -97.0572E+06    -79.8982E+06     1.18850E+06    -295.124E-03     590.242E-03    -295.117E-03     13.8647E-03    -295.305E-03     590.005E-03    -295.252E-03     13.2685E-03
             370     2.00976E-03     106.701E-03    -82.2796E+06    -89.8752E+06    -69.3275E+06     1.17690E+06    -295.170E-03     590.305E-03    -295.135E-03     20.5510E-03    -295.368E-03     590.093E-03    -295.232E-03     19.6201E-03
             371     2.67975E-03     106.742E-03    -78.3198E+06    -82.5471E+06    -57.5057E+06     1.14078E+06    -295.155E-03     590.302E-03    -295.147E-03     27.3083E-03    -295.375E-03     590.118E-03    -295.201E-03     26.0033E-03
             372     3.34993E-03     106.795E-03    -73.6072E+06    -74.6701E+06    -44.9098E+06     673.199E+03    -295.239E-03     590.390E-03    -295.151E-03     34.1973E-03    -295.485E-03     590.240E-03    -295.160E-03     32.4335E-03
             373     4.02005E-03     106.861E-03    -68.1201E+06    -66.5564E+06    -32.4532E+06     155.917E+03    -295.501E-03     590.664E-03    -295.164E-03     41.3181E-03    -295.776E-03     590.556E-03    -295.131E-03     39.0156E-03
             374     4.68996E-03     106.939E-03    -62.3097E+06    -58.9387E+06    -21.6516E+06    -100.234E+03    -295.778E-03     590.962E-03    -295.184E-03     48.6464E-03    -296.088E-03     590.904E-03    -295.116E-03     45.7039E-03
             375     5.36005E-03     107.029E-03    -56.3215E+06    -51.5754E+06    -11.9813E+06     117.965E+03    -296.014E-03     591.215E-03    -295.201E-03     56.1608E-03    -296.367E-03     591.220E-03    -295.105E-03     52.4813E-03
             376     6.03015E-03     107.132E-03    -50.5693E+06    -44.4518E+06    -2.55421E+06     449.087E+03    -296.276E-03     591.491E-03    -295.214E-03     63.8803E-03    -296.687E-03     591.572E-03    -295.089E-03     59.3413E-03
             377     6.70013E-03     107.247E-03    -45.7702E+06    -27.2765E+06     9.10029E+06     524.617E+03    -296.518E-03     591.739E-03    -295.221E-03     71.7289E-03    -297.026E-03     591.961E-03    -295.070E-03     66.1880E-03
             378     7.37052E-03     107.376E-03    -40.8119E+06    -9.67234E+06     21.2968E+06     295.114E+03    -296.794E-03     592.021E-03    -295.226E-03     79.4971E-03    -297.417E-03     592.402E-03    -295.047E-03     72.8411E-03
             379     8.04085E-03     107.516E-03    -35.2056E+06    -2.48535E+06     30.9737E+06    -150.261E+03    -297.098E-03     592.329E-03    -295.231E-03     87.1467E-03    -297.832E-03     592.840E-03    -295.022E-03     79.2625E-03
             380     8.71105E-03     107.668E-03    -29.5682E+06     4.15412E+06     39.2263E+06    -570.577E+03    -297.336E-03     592.563E-03    -295.226E-03     94.4062E-03    -298.198E-03     593.221E-03    -294.993E-03     85.1886E-03
             381     9.38207E-03     107.830E-03    -23.1939E+06     11.1627E+06     46.4285E+06    -273.309E+03    -297.775E-03     592.993E-03    -295.218E-03     100.881E-03    -298.770E-03     593.811E-03    -294.969E-03     90.3200E-03
             382     10.0513E-03     108.004E-03    -18.4804E+06     16.3681E+06     51.1373E+06     204.041E+03    -298.413E-03     593.635E-03    -295.222E-03     106.662E-03    -299.544E-03     594.610E-03    -294.963E-03     94.8409E-03
             383     10.7214E-03     108.185E-03    -14.8446E+06     19.9723E+06     52.8023E+06     176.581E+03    -298.599E-03     593.824E-03    -295.225E-03     111.615E-03    -299.852E-03     594.942E-03    -294.968E-03     98.7065E-03
             384     11.3908E-03     108.370E-03    -10.4315E+06     24.1871E+06     55.1013E+06     812.817E+03    -298.401E-03     593.617E-03    -295.216E-03     114.003E-03    -299.693E-03     594.798E-03    -294.960E-03     100.696E-03
             385     12.0623E-03     108.557E-03    -6.36161E+06     29.0262E+06     59.2155E+06     1.14368E+06    -298.391E-03     593.590E-03    -295.198E-03     118.490E-03    -299.786E-03     594.893E-03    -294.935E-03     104.506E-03
             386     12.7330E-03     108.750E-03    -3.25462E+06     31.4206E+06     62.1705E+06    -2.15290E+03    -297.914E-03     593.089E-03    -295.175E-03     108.870E-03    -299.073E-03     594.168E-03    -294.905E-03     96.5314E-03
             387     670.231E-06     108.363E-03    -89.4723E+06    -107.344E+06    -87.2927E+06     1.17747E+06    -294.723E-03     589.918E-03    -295.195E-03     7.20956E-03    -294.890E-03     589.640E-03    -295.346E-03     6.87604E-03
             388     1.34006E-03     108.381E-03    -86.5104E+06    -99.3869E+06    -81.3136E+06     1.88855E+06    -295.077E-03     590.056E-03    -294.980E-03     13.5843E-03    -295.255E-03     589.810E-03    -295.117E-03     13.0004E-03
             389     2.00999E-03     108.411E-03    -83.7532E+06    -91.2381E+06    -71.7958E+06     2.04559E+06    -295.084E-03     590.102E-03    -295.018E-03     20.3584E-03    -295.283E-03     589.888E-03    -295.124E-03     19.4537E-03
             390     2.68008E-03     108.452E-03    -79.1099E+06    -82.8802E+06    -58.6483E+06     1.96807E+06    -295.210E-03     590.267E-03    -295.057E-03     27.2077E-03    -295.431E-03     590.083E-03    -295.115E-03     25.9111E-03
             391     3.34992E-03     108.505E-03    -73.6268E+06    -73.9249E+06    -44.6040E+06     1.74515E+06    -295.391E-03     590.495E-03    -295.104E-03     34.1728E-03    -295.639E-03     590.348E-03    -295.113E-03     32.4285E-03
             392     4.01995E-03     108.571E-03    -68.2054E+06    -65.6491E+06    -31.4662E+06     1.41337E+06    -295.531E-03     590.676E-03    -295.145E-03     41.3230E-03    -295.810E-03     590.571E-03    -295.108E-03     39.0388E-03
             393     4.69015E-03     108.649E-03    -63.0060E+06    -58.2524E+06    -19.7313E+06     938.211E+03    -295.734E-03     590.908E-03    -295.174E-03     48.6983E-03    -296.051E-03     590.852E-03    -295.097E-03     45.7744E-03
             394     5.36008E-03     108.739E-03    -57.5417E+06    -51.3806E+06    -9.84371E+06     299.676E+03    -295.955E-03     591.145E-03    -295.190E-03     56.2533E-03    -296.318E-03     591.150E-03    -295.082E-03     52.5720E-03
             395     6.03029E-03     108.842E-03    -52.2993E+06    -45.2070E+06    -1.75000E+06     132.144E+03    -296.184E-03     591.378E-03    -295.194E-03     64.0015E-03    -296.605E-03     591.457E-03    -295.061E-03     59.4528E-03
             396     6.70070E-03     108.958E-03    -46.2908E+06    -27.2759E+06     9.68213E+06     290.844E+03    -296.534E-03     591.729E-03    -295.195E-03     71.8048E-03    -297.045E-03     591.952E-03    -295.040E-03     66.2638E-03
             397     7.37071E-03     109.086E-03    -39.8670E+06    -8.57861E+06     22.2525E+06     67.8274E+03    -296.892E-03     592.099E-03    -295.206E-03     79.4989E-03    -297.514E-03     592.484E-03    -295.025E-03     72.8212E-03
             398     8.04069E-03     109.226E-03    -34.3395E+06    -1.62848E+06     31.5946E+06    -273.260E+03    -297.181E-03     592.401E-03    -295.220E-03     87.1034E-03    -297.916E-03     592.916E-03    -295.009E-03     79.1802E-03
             399     8.71116E-03     109.378E-03    -28.8673E+06     5.03118E+06     40.3250E+06    -376.774E+03    -297.589E-03     592.821E-03    -295.231E-03     94.4085E-03    -298.452E-03     593.481E-03    -294.995E-03     85.1717E-03
             400     9.38059E-03     109.541E-03    -24.4879E+06     10.2985E+06     46.6082E+06    -389.260E+03    -298.009E-03     593.250E-03    -295.241E-03     101.269E-03    -299.011E-03     594.066E-03    -294.987E-03     90.7153E-03
             401     10.0511E-03     109.715E-03    -19.9092E+06     15.1690E+06     50.6113E+06     51.3393E+03    -298.131E-03     593.367E-03    -295.235E-03     107.583E-03    -299.268E-03     594.340E-03    -294.975E-03     95.8196E-03
             402     10.7215E-03     109.895E-03    -15.1394E+06     19.8067E+06     53.0435E+06     500.785E+03    -298.149E-03     593.359E-03    -295.210E-03     112.449E-03    -299.405E-03     594.477E-03    -294.952E-03     99.6112E-03
             403     11.3928E-03     110.080E-03    -11.0681E+06     23.8159E+06     55.4622E+06     211.684E+03    -297.965E-03     593.141E-03    -295.175E-03     114.061E-03    -299.268E-03     594.328E-03    -294.917E-03     100.686E-03
             404     12.0635E-03     110.264E-03    -6.91722E+06     28.7196E+06     59.4571E+06    -142.563E+03    -298.110E-03     593.255E-03    -295.146E-03     116.804E-03    -299.515E-03     594.565E-03    -294.880E-03     102.585E-03
             405     12.7351E-03     110.460E-03    -2.95792E+06     32.0733E+06     63.5599E+06     415.913E+03    -298.419E-03     593.563E-03    -295.145E-03     106.636E-03    -299.559E-03     594.622E-03    -294.869E-03     94.3832E-03
             406     669.797E-06     110.073E-03    -90.4033E+06    -111.012E+06    -89.0639E+06     489.109E+03    -294.877E-03     589.852E-03    -294.975E-03     7.59329E-03    -295.041E-03     589.559E-03    -295.128E-03     7.24575E-03
             407     1.33993E-03     110.091E-03    -88.1789E+06    -103.304E+06    -83.4089E+06     1.20088E+06    -294.990E-03     589.922E-03    -294.932E-03     13.6517E-03    -295.167E-03     589.661E-03    -295.071E-03     13.0645E-03
             408     2.01018E-03     110.120E-03    -84.4556E+06    -93.0696E+06    -73.5355E+06     1.81553E+06    -295.085E-03     590.051E-03    -294.966E-03     20.1705E-03    -295.282E-03     589.831E-03    -295.076E-03     19.2807E-03
             409     2.68016E-03     110.162E-03    -80.0734E+06    -83.7486E+06    -60.8916E+06     1.82712E+06    -295.213E-03     590.227E-03    -295.014E-03     27.0328E-03    -295.434E-03     590.043E-03    -295.081E-03     25.7485E-03
             410     3.35026E-03     110.216E-03    -74.7634E+06    -74.9727E+06    -47.2447E+06     2.01179E+06    -295.361E-03     590.425E-03    -295.065E-03     34.0786E-03    -295.608E-03     590.278E-03    -295.084E-03     32.3419E-03
             411     4.02013E-03     110.282E-03    -68.9686E+06    -65.8848E+06    -32.7673E+06     2.24873E+06    -295.506E-03     590.617E-03    -295.111E-03     41.3693E-03    -295.786E-03     590.514E-03    -295.079E-03     39.0874E-03
             412     4.69015E-03     110.359E-03    -62.9371E+06    -57.2660E+06    -19.2122E+06     2.07316E+06    -295.648E-03     590.791E-03    -295.143E-03     48.7871E-03    -295.968E-03     590.740E-03    -295.064E-03     45.8703E-03
             413     5.36046E-03     110.450E-03    -57.3445E+06    -50.2035E+06    -7.89779E+06     1.69559E+06    -295.891E-03     591.051E-03    -295.160E-03     56.2778E-03    -296.257E-03     591.059E-03    -295.044E-03     52.6182E-03
             414     6.03061E-03     110.552E-03    -51.6919E+06    -43.7444E+06     1.92372E+06     786.848E+03    -296.284E-03     591.462E-03    -295.178E-03     63.9213E-03    -296.708E-03     591.542E-03    -295.030E-03     59.3917E-03
             415     6.70060E-03     110.668E-03    -45.6766E+06    -26.3085E+06     12.3354E+06    -256.150E+03    -296.570E-03     591.756E-03    -295.186E-03     71.6718E-03    -297.083E-03     591.978E-03    -295.020E-03     66.1305E-03
             416     7.37076E-03     110.797E-03    -39.9135E+06    -8.68213E+06     22.3195E+06    -351.158E+03    -296.808E-03     591.995E-03    -295.187E-03     79.4834E-03    -297.430E-03     592.380E-03    -295.005E-03     72.8029E-03
             417     8.04116E-03     110.937E-03    -34.3718E+06    -1.61306E+06     31.5231E+06     196.239E+03    -297.219E-03     592.418E-03    -295.198E-03     87.2646E-03    -297.954E-03     592.933E-03    -294.988E-03     79.3625E-03
             418     8.71103E-03     111.089E-03    -29.5462E+06     4.67683E+06     40.7546E+06     716.836E+03    -297.614E-03     592.830E-03    -295.216E-03     94.9205E-03    -298.480E-03     593.489E-03    -294.976E-03     85.7387E-03
             419     9.38159E-03     111.253E-03    -24.6857E+06     10.5506E+06     48.2057E+06     907.458E+03    -297.838E-03     593.060E-03    -295.222E-03     101.942E-03    -298.844E-03     593.876E-03    -294.960E-03     91.4504E-03
             420     10.0519E-03     111.424E-03    -19.9518E+06     15.7289E+06     52.9731E+06     332.599E+03    -297.965E-03     593.174E-03    -295.208E-03     107.771E-03    -299.110E-03     594.149E-03    -294.937E-03     95.9961E-03
             421     10.7227E-03     111.605E-03    -15.5747E+06     19.8349E+06     54.3500E+06    -426.102E+03    -298.175E-03     593.352E-03    -295.178E-03     112.081E-03    -299.436E-03     594.471E-03    -294.912E-03     99.1872E-03
             422     11.3924E-03     111.790E-03    -11.1728E+06     24.1035E+06     56.5211E+06    -209.548E+03    -298.435E-03     593.596E-03    -295.162E-03     113.032E-03    -299.734E-03     594.778E-03    -294.898E-03     99.6179E-03
             423     12.0624E-03     111.974E-03    -7.20732E+06     29.1012E+06     61.2350E+06     133.311E+03    -298.918E-03     594.093E-03    -295.175E-03     116.673E-03    -300.325E-03     595.400E-03    -294.900E-03     102.452E-03
             424     12.7301E-03     112.172E-03    -3.69297E+06     31.8034E+06     64.6471E+06     205.172E+03    -298.308E-03     593.497E-03    -295.188E-03     107.242E-03    -299.452E-03     594.553E-03    -294.906E-03     95.0480E-03
             425     670.291E-06     111.782E-03    -91.1660E+06    -113.330E+06    -90.2134E+06     93.0835E+03    -295.086E-03     589.806E-03    -294.720E-03     7.35945E-03    -295.249E-03     589.505E-03    -294.875E-03     7.06337E-03
             426     1.34034E-03     111.801E-03    -89.5248E+06    -105.713E+06    -84.7381E+06     725.537E+03    -295.030E-03     589.951E-03    -294.921E-03     13.5650E-03    -295.209E-03     589.683E-03    -295.062E-03     12.9914E-03
             427     2.00997E-03     111.831E-03    -86.2112E+06    -95.1364E+06    -75.4216E+06     950.943E+03    -295.116E-03     590.086E-03    -294.970E-03     20.1426E-03    -295.317E-03     589.862E-03    -295.084E-03     19.2280E-03
             428     2.68000E-03     111.872E-03    -81.6802E+06    -85.0240E+06    -62.6822E+06     1.39836E+06    -295.150E-03     590.164E-03    -295.014E-03     27.0582E-03    -295.375E-03     589.979E-03    -295.086E-03     25.7651E-03
             429     3.34997E-03     111.926E-03    -76.8328E+06    -76.2886E+06    -48.5334E+06     1.52388E+06    -295.221E-03     590.269E-03    -295.048E-03     34.1208E-03    -295.476E-03     590.121E-03    -295.069E-03     32.3644E-03
             430     4.02035E-03     111.991E-03    -70.7208E+06    -67.1501E+06    -34.6176E+06     1.57885E+06    -295.407E-03     590.481E-03    -295.074E-03     41.3693E-03    -295.692E-03     590.377E-03    -295.047E-03     39.0819E-03
             431     4.69047E-03     112.070E-03    -64.3789E+06    -58.3958E+06    -21.5603E+06     2.07663E+06    -295.655E-03     590.756E-03    -295.101E-03     48.6648E-03    -295.977E-03     590.705E-03    -295.031E-03     45.7519E-03
             432     5.36062E-03     112.159E-03    -58.5804E+06    -50.8611E+06    -10.4757E+06     2.67971E+06    -295.970E-03     591.097E-03    -295.127E-03     56.0836E-03    -296.338E-03     591.107E-03    -295.021E-03     52.4420E-03
             433     6.03067E-03     112.263E-03    -52.7946E+06    -39.3630E+06    -72.8506E+03     1.93155E+06    -296.282E-03     591.430E-03    -295.148E-03     63.8096E-03    -296.715E-03     591.536E-03    -295.015E-03     59.2993E-03
             434     6.70060E-03     112.378E-03    -47.5860E+06    -22.8221E+06     11.1063E+06     27.0968E+03    -296.488E-03     591.649E-03    -295.161E-03     71.6879E-03    -297.014E-03     591.893E-03    -295.004E-03     66.1388E-03
             435     7.37106E-03     112.506E-03    -42.3307E+06    -10.3547E+06     22.3879E+06    -396.719E+03    -296.747E-03     591.920E-03    -295.173E-03     79.5020E-03    -297.378E-03     592.298E-03    -294.985E-03     72.8377E-03
             436     8.04120E-03     112.647E-03    -36.6073E+06    -2.96882E+06     32.8862E+06     288.418E+03    -297.103E-03     592.288E-03    -295.185E-03     87.2375E-03    -297.846E-03     592.795E-03    -294.963E-03     79.3759E-03
             437     8.71165E-03     112.799E-03    -30.8845E+06     3.92365E+06     41.9289E+06     531.147E+03    -297.399E-03     592.589E-03    -295.190E-03     94.7411E-03    -298.271E-03     593.243E-03    -294.941E-03     85.5680E-03
             438     9.38200E-03     112.962E-03    -25.1931E+06     10.3754E+06     49.0484E+06     502.474E+03    -297.715E-03     592.900E-03    -295.185E-03     101.559E-03    -298.725E-03     593.715E-03    -294.918E-03     91.0333E-03
             439     10.0523E-03     113.135E-03    -19.6423E+06     16.3107E+06     54.1709E+06     712.336E+03    -298.126E-03     593.303E-03    -295.177E-03     107.366E-03    -299.273E-03     594.281E-03    -294.901E-03     95.5414E-03
             440     10.7220E-03     113.314E-03    -15.0165E+06     21.0032E+06     57.0945E+06     731.544E+03    -298.508E-03     593.680E-03    -295.173E-03     111.948E-03    -299.770E-03     594.798E-03    -294.896E-03     99.0667E-03
             441     11.3926E-03     113.502E-03    -11.4075E+06     24.6152E+06     59.0930E+06    -117.888E+03    -298.857E-03     594.037E-03    -295.180E-03     113.494E-03    -300.159E-03     595.214E-03    -294.903E-03     100.135E-03
             442     12.0622E-03     113.685E-03    -7.80523E+06     28.9112E+06     62.0415E+06    -371.703E+03    -298.982E-03     594.179E-03    -295.197E-03     116.990E-03    -300.395E-03     595.486E-03    -294.917E-03     102.771E-03
             443     12.7350E-03     113.883E-03    -3.94915E+06     31.8181E+06     65.2140E+06     104.361E+03    -298.075E-03     593.278E-03    -295.203E-03     107.392E-03    -299.236E-03     594.349E-03    -294.917E-03     95.0329E-03
             444     669.867E-06     113.493E-03    -92.1069E+06    -116.171E+06    -90.2537E+06     1.14395E+06    -295.045E-03     590.065E-03    -295.020E-03     7.12307E-03    -295.208E-03     589.751E-03    -295.170E-03     6.87969E-03
             445     1.33971E-03     113.511E-03    -90.2806E+06    -107.721E+06    -84.6289E+06     1.35001E+06    -294.959E-03     589.974E-03    -295.015E-03     13.4131E-03    -295.139E-03     589.697E-03    -295.151E-03     12.8495E-03
             446     2.01010E-03     113.541E-03    -87.6703E+06    -96.4073E+06    -75.6460E+06     1.49699E+06    -294.967E-03     589.961E-03    -294.994E-03     20.2565E-03    -295.173E-03     589.733E-03    -295.106E-03     19.3329E-03
             447     2.68009E-03     113.582E-03    -83.8944E+06    -86.4812E+06    -63.7250E+06     1.42890E+06    -295.075E-03     590.076E-03    -295.001E-03     27.1287E-03    -295.307E-03     589.888E-03    -295.073E-03     25.8268E-03
             448     3.35044E-03     113.636E-03    -78.3150E+06    -77.2633E+06    -49.4956E+06     1.61406E+06    -295.222E-03     590.250E-03    -295.029E-03     34.1283E-03    -295.481E-03     590.100E-03    -295.051E-03     32.3855E-03
             449     4.02031E-03     113.702E-03    -72.7037E+06    -68.4451E+06    -35.7482E+06     2.00668E+06    -295.410E-03     590.470E-03    -295.060E-03     41.2106E-03    -295.701E-03     590.363E-03    -295.034E-03     38.9398E-03
             450     4.69056E-03     113.779E-03    -66.9049E+06    -60.3591E+06    -24.0798E+06     2.24049E+06    -295.677E-03     590.764E-03    -295.087E-03     48.5223E-03    -296.005E-03     590.709E-03    -295.022E-03     45.6274E-03
             451     5.36041E-03     113.870E-03    -60.7546E+06    -52.4042E+06    -14.2673E+06     2.33854E+06    -295.974E-03     591.083E-03    -295.109E-03     56.1237E-03    -296.345E-03     591.093E-03    -295.016E-03     52.4860E-03
             452     6.03047E-03     113.973E-03    -55.2345E+06    -35.8070E+06    -2.81747E+06     1.77995E+06    -296.136E-03     591.257E-03    -295.122E-03     63.8824E-03    -296.582E-03     591.389E-03    -295.004E-03     59.3606E-03
             453     6.70112E-03     114.089E-03    -49.3909E+06    -18.9705E+06     9.99412E+06     605.065E+03    -296.395E-03     591.527E-03    -295.132E-03     71.6642E-03    -296.935E-03     591.795E-03    -294.983E-03     66.1220E-03
             454     7.37104E-03     114.217E-03    -43.4427E+06    -11.2058E+06     21.6647E+06     87.6839E+03    -296.754E-03     591.904E-03    -295.150E-03     79.4929E-03    -297.388E-03     592.282E-03    -294.962E-03     72.8263E-03
             455     8.04137E-03     114.357E-03    -37.5765E+06    -3.64268E+06     33.0601E+06     63.6640E+03    -297.058E-03     592.225E-03    -295.167E-03     87.2426E-03    -297.806E-03     592.731E-03    -294.942E-03     79.3529E-03
             456     8.71175E-03     114.509E-03    -31.5681E+06     3.63708E+06     42.9008E+06     9.31877E+03    -297.435E-03     592.612E-03    -295.177E-03     94.5614E-03    -298.312E-03     593.266E-03    -294.922E-03     85.3515E-03
             457     9.38193E-03     114.672E-03    -25.7980E+06     10.2307E+06     50.4480E+06     128.985E+03    -297.805E-03     592.987E-03    -295.182E-03     101.274E-03    -298.819E-03     593.799E-03    -294.907E-03     90.7329E-03
             458     10.0523E-03     114.845E-03    -20.7283E+06     15.6998E+06     55.0206E+06     75.5560E+03    -298.180E-03     593.360E-03    -295.180E-03     107.159E-03    -299.328E-03     594.330E-03    -294.897E-03     95.3699E-03
             459     10.7229E-03     115.026E-03    -15.6866E+06     20.5399E+06     57.1206E+06     264.818E+03    -298.579E-03     593.754E-03    -295.175E-03     111.815E-03    -299.843E-03     594.870E-03    -294.897E-03     98.9230E-03
             460     11.3925E-03     115.211E-03    -11.0005E+06     25.0456E+06     59.6635E+06     788.030E+03    -298.616E-03     593.794E-03    -295.178E-03     113.693E-03    -299.920E-03     594.975E-03    -294.900E-03     100.339E-03
             461     12.0624E-03     115.399E-03    -7.32727E+06     29.6143E+06     63.3766E+06     516.748E+03    -298.690E-03     593.872E-03    -295.182E-03     117.534E-03    -300.103E-03     595.180E-03    -294.897E-03     103.382E-03
             462     12.7298E-03     115.590E-03    -3.55709E+06     32.4207E+06     66.0694E+06    -183.688E+03    -297.984E-03     593.158E-03    -295.174E-03     108.023E-03    -299.152E-03     594.237E-03    -294.885E-03     95.6190E-03
             463     669.769E-06     115.204E-03    -93.3983E+06    -120.252E+06    -92.3571E+06     1.34403E+06    -294.915E-03     590.115E-03    -295.200E-03     7.44417E-03    -295.076E-03     589.786E-03    -295.352E-03     7.15981E-03
             464     1.33999E-03     115.221E-03    -91.5087E+06    -111.183E+06    -86.0557E+06     1.88200E+06    -294.904E-03     589.926E-03    -295.022E-03     13.6509E-03    -295.083E-03     589.635E-03    -295.158E-03     13.0750E-03
             465     2.00997E-03     115.251E-03    -88.5763E+06    -99.3221E+06    -76.7206E+06     2.67606E+06    -294.931E-03     589.912E-03    -294.981E-03     20.3229E-03    -295.136E-03     589.672E-03    -295.092E-03     19.4283E-03
             466     2.68028E-03     115.292E-03    -84.5207E+06    -87.5750E+06    -64.0217E+06     3.02999E+06    -295.073E-03     590.059E-03    -294.986E-03     27.0450E-03    -295.306E-03     589.867E-03    -295.057E-03     25.7781E-03
             467     3.35006E-03     115.346E-03    -79.8274E+06    -78.1838E+06    -50.4745E+06     2.79635E+06    -295.265E-03     590.284E-03    -295.019E-03     34.0527E-03    -295.528E-03     590.133E-03    -295.043E-03     32.3399E-03
             468     4.02036E-03     115.412E-03    -74.2455E+06    -69.5448E+06    -37.6711E+06     2.54803E+06    -295.465E-03     590.521E-03    -295.056E-03     41.2284E-03    -295.759E-03     590.414E-03    -295.036E-03     38.9696E-03
             469     4.69026E-03     115.490E-03    -68.0136E+06    -60.6868E+06    -25.5227E+06     2.25779E+06    -295.633E-03     590.718E-03    -295.085E-03     48.6062E-03    -295.964E-03     590.666E-03    -295.026E-03     45.7094E-03
             470     5.36067E-03     115.580E-03    -61.6351E+06    -51.9249E+06    -13.8647E+06     1.52314E+06    -295.815E-03     590.917E-03    -295.102E-03     56.1977E-03    -296.191E-03     590.930E-03    -295.007E-03     52.5536E-03
             471     6.03099E-03     115.683E-03    -54.8734E+06    -34.4051E+06    -343.446E+03     800.956E+03    -296.082E-03     591.193E-03    -295.111E-03     63.8910E-03    -296.533E-03     591.328E-03    -294.984E-03     59.3518E-03
             472     6.70082E-03     115.799E-03    -48.8599E+06    -18.0164E+06     12.0580E+06     710.573E+03    -296.377E-03     591.496E-03    -295.119E-03     71.7415E-03    -296.919E-03     591.765E-03    -294.961E-03     66.1960E-03
             473     7.37137E-03     115.927E-03    -42.9960E+06    -10.7012E+06     22.1960E+06     577.183E+03    -296.758E-03     591.888E-03    -295.131E-03     79.4782E-03    -297.392E-03     592.267E-03    -294.942E-03     72.8187E-03
             474     8.04167E-03     116.067E-03    -36.9044E+06    -3.12327E+06     32.8666E+06     275.758E+03    -297.175E-03     592.326E-03    -295.151E-03     87.0988E-03    -297.921E-03     592.834E-03    -294.928E-03     79.1949E-03
             475     8.71172E-03     116.219E-03    -31.3236E+06     3.86463E+06     42.9157E+06     102.896E+03    -297.531E-03     592.704E-03    -295.173E-03     94.4833E-03    -298.408E-03     593.359E-03    -294.919E-03     85.2647E-03
             476     9.38201E-03     116.382E-03    -26.0027E+06     10.1742E+06     50.7666E+06     75.0810E+03    -297.912E-03     593.099E-03    -295.188E-03     101.280E-03    -298.926E-03     593.911E-03    -294.911E-03     90.7434E-03
             477     10.0520E-03     116.555E-03    -20.5311E+06     16.0316E+06     55.8827E+06     246.398E+03    -298.190E-03     593.381E-03    -295.191E-03     107.239E-03    -299.339E-03     594.352E-03    -294.905E-03     95.4485E-03
             478     10.7218E-03     116.736E-03    -15.9321E+06     20.4996E+06     57.6897E+06     220.380E+03    -298.355E-03     593.533E-03    -295.178E-03     112.276E-03    -299.623E-03     594.650E-03    -294.896E-03     99.4067E-03
             479     11.3922E-03     116.923E-03    -11.9643E+06     24.1822E+06     58.9024E+06     151.423E+03    -298.274E-03     593.431E-03    -295.157E-03     113.936E-03    -299.582E-03     594.612E-03    -294.881E-03     100.586E-03
             480     12.0636E-03     117.106E-03    -7.17519E+06     29.6020E+06     62.8570E+06     327.810E+03    -298.148E-03     593.284E-03    -295.136E-03     117.499E-03    -299.558E-03     594.591E-03    -294.854E-03     103.375E-03
             481     12.7369E-03     117.306E-03    -3.11989E+06     33.0796E+06     66.7940E+06     107.387E+03    -298.025E-03     593.146E-03    -295.121E-03     107.898E-03    -299.186E-03     594.220E-03    -294.831E-03     95.5775E-03
             482     670.146E-06     116.913E-03    -95.5425E+06    -123.763E+06    -94.3722E+06     210.203E+03    -294.740E-03     589.611E-03    -294.870E-03     7.67635E-03    -294.904E-03     589.270E-03    -295.024E-03     7.32646E-03
             483     1.34011E-03     116.931E-03    -93.3692E+06    -116.315E+06    -88.8635E+06     1.51830E+06    -295.049E-03     589.895E-03    -294.846E-03     13.8643E-03    -295.226E-03     589.585E-03    -294.986E-03     13.2669E-03
             484     2.01017E-03     116.960E-03    -89.9507E+06    -103.389E+06    -79.1784E+06     2.55653E+06    -295.106E-03     590.026E-03    -294.921E-03     20.3694E-03    -295.308E-03     589.772E-03    -295.036E-03     19.4835E-03
             485     2.68007E-03     117.002E-03    -85.3934E+06    -89.9865E+06    -67.0118E+06     3.04656E+06    -295.137E-03     590.103E-03    -294.966E-03     27.1414E-03    -295.367E-03     589.905E-03    -295.047E-03     25.8852E-03
             486     3.35042E-03     117.056E-03    -80.1015E+06    -79.0604E+06    -52.8493E+06     3.21824E+06    -295.264E-03     590.271E-03    -295.007E-03     34.1255E-03    -295.524E-03     590.119E-03    -295.041E-03     32.4209E-03
             487     4.02030E-03     117.122E-03    -74.1522E+06    -69.0692E+06    -38.1230E+06     2.56396E+06    -295.410E-03     590.456E-03    -295.046E-03     41.3353E-03    -295.704E-03     590.352E-03    -295.029E-03     39.0764E-03
             488     4.69053E-03     117.200E-03    -67.8969E+06    -59.5975E+06    -23.9431E+06     1.53226E+06    -295.569E-03     590.645E-03    -295.076E-03     48.7074E-03    -295.903E-03     590.596E-03    -295.011E-03     45.7878E-03
             489     5.36059E-03     117.290E-03    -61.4859E+06    -50.6054E+06    -11.2341E+06     902.192E+03    -295.785E-03     590.880E-03    -295.094E-03     56.2515E-03    -296.167E-03     590.896E-03    -294.988E-03     52.5875E-03
             490     6.03077E-03     117.393E-03    -55.5486E+06    -34.2710E+06     990.419E+03     766.139E+03    -296.042E-03     591.141E-03    -295.099E-03     63.9218E-03    -296.499E-03     591.276E-03    -294.964E-03     59.3803E-03
             491     6.70140E-03     117.508E-03    -49.2557E+06    -17.9544E+06     13.1003E+06     638.556E+03    -296.399E-03     591.505E-03    -295.106E-03     71.6869E-03    -296.944E-03     591.774E-03    -294.943E-03     66.1458E-03
             492     7.37144E-03     117.637E-03    -42.7204E+06    -10.0337E+06     23.9415E+06     438.649E+03    -296.828E-03     591.954E-03    -295.126E-03     79.4419E-03    -297.464E-03     592.333E-03    -294.930E-03     72.7887E-03
             493     8.04138E-03     117.777E-03    -36.9819E+06    -2.90757E+06     34.1816E+06     354.706E+03    -297.212E-03     592.362E-03    -295.151E-03     87.1272E-03    -297.960E-03     592.870E-03    -294.922E-03     79.2294E-03
             494     8.71171E-03     117.929E-03    -31.2677E+06     3.97866E+06     43.3784E+06     457.081E+03    -297.577E-03     592.749E-03    -295.172E-03     94.6111E-03    -298.455E-03     593.404E-03    -294.915E-03     85.3969E-03
             495     9.38185E-03     118.093E-03    -25.7020E+06     10.3563E+06     50.6458E+06     462.616E+03    -297.881E-03     593.064E-03    -295.183E-03     101.535E-03    -298.897E-03     593.878E-03    -294.907E-03     90.9976E-03
             496     10.0521E-03     118.266E-03    -20.7785E+06     15.7239E+06      55.075E+06     407.995E+03    -298.104E-03     593.283E-03    -295.179E-03     107.551E-03    -299.256E-03     594.257E-03    -294.896E-03     95.7555E-03
             497     10.7230E-03     118.446E-03    -15.8469E+06     20.5975E+06     57.4229E+06     718.261E+03    -298.200E-03     593.360E-03    -295.160E-03     112.224E-03    -299.465E-03     594.475E-03    -294.880E-03     99.3899E-03
             498     11.3937E-03     118.633E-03    -11.2015E+06     25.1199E+06     60.1427E+06     169.286E+03    -297.989E-03     593.123E-03    -295.134E-03     113.598E-03    -299.296E-03     594.305E-03    -294.853E-03     100.236E-03
             499     12.0629E-03     118.817E-03    -7.77411E+06     29.4457E+06     63.2906E+06    -502.067E+03    -298.267E-03     593.378E-03    -295.111E-03     117.177E-03    -299.685E-03     594.689E-03    -294.826E-03     102.961E-03
             500     12.7317E-03     119.010E-03    -3.58088E+06     32.9649E+06     66.8495E+06     89.9775E+03    -298.344E-03     593.453E-03    -295.109E-03     107.482E-03    -299.500E-03     594.520E-03    -294.817E-03     95.2080E-03
             501     670.590E-06     118.622E-03    -94.8464E+06    -127.593E+06    -92.8894E+06     1.46524E+06    -294.822E-03     589.601E-03    -294.780E-03     7.41477E-03    -294.979E-03     589.238E-03    -294.922E-03     7.07982E-03
             502     1.34050E-03     118.641E-03    -93.1156E+06    -120.117E+06    -87.5615E+06     1.55833E+06    -295.035E-03     589.879E-03    -294.844E-03     13.3736E-03    -295.207E-03     589.548E-03    -294.973E-03     12.8197E-03
             503     2.01024E-03     118.671E-03    -89.8761E+06    -107.714E+06    -79.3332E+06     2.30347E+06    -295.088E-03     589.999E-03    -294.912E-03     20.1161E-03    -295.282E-03     589.723E-03    -295.022E-03     19.2422E-03
             504     2.68030E-03     118.712E-03    -85.7438E+06    -92.1606E+06    -67.6378E+06     2.87673E+06    -295.147E-03     590.101E-03    -294.954E-03     27.1246E-03    -295.374E-03     589.893E-03    -295.034E-03     25.8661E-03
             505     3.35012E-03     118.766E-03    -80.5309E+06    -78.8105E+06    -53.0848E+06     2.11895E+06    -295.221E-03     590.214E-03    -294.993E-03     34.2074E-03    -295.483E-03     590.064E-03    -295.027E-03     32.4803E-03
             506     4.02040E-03     118.832E-03    -74.3906E+06    -68.3741E+06    -37.3609E+06     1.33444E+06    -295.314E-03     590.342E-03    -295.027E-03     41.3818E-03    -295.612E-03     590.241E-03    -295.007E-03     39.0934E-03
             507     4.69064E-03     118.909E-03    -67.8408E+06    -58.6901E+06    -22.9104E+06     1.16676E+06    -295.540E-03     590.592E-03    -295.052E-03     48.7683E-03    -295.877E-03     590.547E-03    -294.983E-03     45.8412E-03
             508     5.36087E-03     119.000E-03    -61.8860E+06    -50.4922E+06    -11.2190E+06     1.20678E+06    -295.855E-03     590.928E-03    -295.073E-03     56.2335E-03    -296.239E-03     590.946E-03    -294.966E-03     52.5647E-03
             509     6.03119E-03     119.102E-03    -55.6053E+06    -33.9177E+06     1.65162E+06     1.09793E+06    -296.134E-03     591.226E-03    -295.092E-03     63.8040E-03    -296.592E-03     591.361E-03    -294.954E-03     59.2706E-03
             510     6.70110E-03     119.219E-03    -48.8715E+06    -17.3027E+06     14.4881E+06     821.008E+03    -296.421E-03     591.530E-03    -295.109E-03     71.5272E-03    -296.966E-03     591.798E-03    -294.941E-03     66.0014E-03
             511     7.37132E-03     119.347E-03    -43.0986E+06    -10.1636E+06     24.6412E+06     727.497E+03    -296.709E-03     591.833E-03    -295.125E-03     79.4613E-03    -297.347E-03     592.211E-03    -294.924E-03     72.8119E-03
             512     8.04183E-03     119.488E-03    -37.3334E+06    -2.98754E+06     34.9758E+06     817.772E+03    -297.073E-03     592.211E-03    -295.139E-03     87.3843E-03    -297.824E-03     592.718E-03    -294.905E-03     79.5121E-03
             513     8.71190E-03     119.640E-03    -31.4869E+06     3.99399E+06     44.3562E+06     706.155E+03    -297.482E-03     592.632E-03    -295.150E-03     95.0237E-03    -298.362E-03     593.286E-03    -294.889E-03     85.8427E-03
             514     9.38208E-03     119.803E-03    -25.9032E+06     10.3309E+06     51.3354E+06     683.818E+03    -297.829E-03     592.983E-03    -295.154E-03     101.994E-03    -298.849E-03     593.799E-03    -294.875E-03     91.4617E-03
             515     10.0526E-03     119.975E-03    -20.5477E+06     16.1115E+06     56.1070E+06     686.401E+03    -298.157E-03     593.308E-03    -295.151E-03     107.817E-03    -299.314E-03     594.287E-03    -294.864E-03     95.9959E-03
             516     10.7223E-03     120.157E-03    -15.7226E+06     20.9036E+06     58.1424E+06     142.314E+03    -298.239E-03     593.374E-03    -295.135E-03     112.312E-03    -299.516E-03     594.501E-03    -294.852E-03     99.3592E-03
             517     11.3922E-03     120.341E-03    -11.1986E+06     25.4276E+06     60.4294E+06     328.444E+03    -298.168E-03     593.284E-03    -295.117E-03     113.426E-03    -299.479E-03     594.471E-03    -294.835E-03     100.014E-03
             518     12.0651E-03     120.525E-03    -6.86117E+06     30.7692E+06     65.0708E+06     656.045E+03    -298.774E-03     593.893E-03    -295.119E-03     117.060E-03    -300.185E-03     595.200E-03    -294.828E-03     102.903E-03
             519     12.7353E-03     120.727E-03    -3.80243E+06     33.2021E+06     67.9570E+06     48.3927E+03    -298.472E-03     593.606E-03    -295.133E-03     107.568E-03    -299.632E-03     594.673E-03    -294.836E-03     95.2848E-03
             520     669.396E-06     120.332E-03    -92.8453E+06    -133.065E+06    -92.5450E+06     949.165E+03    -295.141E-03     590.257E-03    -295.115E-03     7.18221E-03    -295.281E-03     589.863E-03    -295.251E-03     6.86762E-03
             521     1.33962E-03     120.351E-03    -91.2361E+06    -124.567E+06    -86.2837E+06     2.48180E+06    -294.817E-03     589.879E-03    -295.061E-03     13.3287E-03    -294.975E-03     589.521E-03    -295.180E-03     12.7683E-03
             522     2.01006E-03     120.380E-03    -88.8541E+06    -111.638E+06    -77.0611E+06     3.12285E+06    -294.901E-03     589.884E-03    -294.983E-03     20.1089E-03    -295.088E-03     589.582E-03    -295.078E-03     19.2418E-03
             523     2.68019E-03     120.422E-03    -84.7208E+06    -93.7308E+06    -64.8026E+06     3.11577E+06    -295.050E-03     590.020E-03    -294.970E-03     27.1069E-03    -295.274E-03     589.799E-03    -295.036E-03     25.8528E-03
             524     3.35047E-03     120.476E-03    -79.7804E+06    -77.7623E+06    -50.1347E+06     2.82166E+06    -295.158E-03     590.147E-03    -294.990E-03     34.1347E-03    -295.422E-03     589.998E-03    -295.012E-03     32.4145E-03
             525     4.02062E-03     120.541E-03    -74.5404E+06    -67.5738E+06    -35.8958E+06     2.12369E+06    -295.325E-03     590.342E-03    -295.017E-03     41.2346E-03    -295.626E-03     590.243E-03    -294.990E-03     38.9666E-03
             526     4.69076E-03     120.620E-03    -68.9194E+06    -58.9587E+06    -23.1584E+06     1.70515E+06    -295.548E-03     590.589E-03    -295.041E-03     48.5842E-03    -295.889E-03     590.543E-03    -294.972E-03     45.6789E-03
             527     5.36091E-03     120.710E-03    -62.4017E+06    -50.0427E+06    -10.9540E+06     1.31465E+06    -295.842E-03     590.907E-03    -295.065E-03     56.1536E-03    -296.229E-03     590.927E-03    -294.957E-03     52.4923E-03
             528     6.03077E-03     120.813E-03    -55.4407E+06     -33.328E+06     1.98919E+06     856.254E+03    -296.136E-03     591.219E-03    -295.083E-03     63.9566E-03    -296.595E-03     591.357E-03    -294.945E-03     59.4122E-03
             529     6.70110E-03     120.928E-03    -49.4234E+06    -17.7743E+06     13.9172E+06     1.02245E+06    -296.364E-03     591.459E-03    -295.096E-03     71.8553E-03    -296.911E-03     591.728E-03    -294.929E-03     66.3206E-03
             530     7.37154E-03     121.057E-03    -43.6552E+06    -10.6165E+06     24.3371E+06     1.26112E+06    -296.652E-03     591.759E-03    -295.107E-03     79.6185E-03    -297.292E-03     592.136E-03    -294.907E-03     72.9806E-03
             531     8.04184E-03     121.197E-03    -37.7342E+06    -3.39527E+06     34.8653E+06     1.40256E+06    -296.966E-03     592.083E-03    -295.116E-03     87.3240E-03    -297.718E-03     592.587E-03    -294.882E-03     79.4705E-03
             532     8.71242E-03     121.350E-03    -31.8996E+06     4.92789E+06     44.8962E+06     1.32936E+06    -297.317E-03     592.439E-03    -295.122E-03     94.7697E-03    -298.200E-03     593.096E-03    -294.858E-03     85.6043E-03
             533     9.38310E-03     121.513E-03    -26.3761E+06     11.4875E+06     52.8575E+06     563.614E+03    -297.736E-03     592.861E-03    -295.125E-03     101.664E-03    -298.759E-03     593.678E-03    -294.839E-03     91.1573E-03
             534     10.0528E-03     121.687E-03    -20.9503E+06     16.1461E+06     57.3962E+06     73.6516E+03    -298.000E-03     593.118E-03    -295.118E-03     107.807E-03    -299.161E-03     594.095E-03    -294.824E-03     95.9869E-03
             535     10.7236E-03     121.866E-03    -15.8082E+06     21.3195E+06     59.5010E+06     366.308E+03    -298.287E-03     593.387E-03    -295.100E-03     112.455E-03    -299.567E-03     594.515E-03    -294.811E-03     99.5065E-03
             536     11.3948E-03     122.052E-03    -11.1488E+06     26.0660E+06     62.1262E+06     645.867E+03    -298.864E-03     593.969E-03    -295.105E-03     113.780E-03    -300.180E-03     595.158E-03    -294.816E-03     100.362E-03
             537     12.0614E-03     122.237E-03    -7.42252E+06     30.6534E+06     65.3187E+06     458.963E+03    -299.066E-03     594.195E-03    -295.129E-03     117.373E-03    -300.486E-03     595.509E-03    -294.836E-03     103.166E-03
             538     12.7317E-03     122.434E-03    -4.00426E+06     33.1959E+06     67.6826E+06     361.229E+03    -297.879E-03     593.011E-03    -295.132E-03     107.815E-03    -299.047E-03     594.086E-03    -294.836E-03     95.4883E-03
             539     669.827E-06     122.042E-03    -93.8301E+06    -137.789E+06    -92.4097E+06     877.612E+03    -295.176E-03     590.070E-03    -294.893E-03     7.69391E-03    -295.314E-03     589.653E-03    -295.019E-03     7.37149E-03
             540     1.33996E-03     122.060E-03    -92.0112E+06    -130.194E+06    -86.9846E+06     1.64661E+06    -294.975E-03     589.990E-03    -295.015E-03     13.9746E-03    -295.128E-03     589.606E-03    -295.128E-03     13.3754E-03
             541     2.01008E-03     122.089E-03    -88.0928E+06    -115.463E+06    -77.0873E+06     2.68152E+06    -294.987E-03     589.983E-03    -294.995E-03     20.4056E-03    -295.165E-03     589.662E-03    -295.086E-03     19.5055E-03
             542     2.68019E-03     122.132E-03    -84.2424E+06    -97.6818E+06    -65.1065E+06     3.88755E+06    -295.017E-03     590.003E-03    -294.986E-03     27.0705E-03    -295.233E-03     589.762E-03    -295.048E-03     25.8248E-03
             543     3.35033E-03     122.185E-03    -79.1782E+06    -79.6324E+06    -50.6883E+06     4.88779E+06    -295.126E-03     590.116E-03    -294.991E-03     34.0051E-03    -295.383E-03     589.957E-03    -295.014E-03     32.3193E-03
             544     4.02041E-03     122.252E-03    -73.5360E+06    -66.2845E+06    -34.5881E+06     4.69035E+06    -295.323E-03     590.341E-03    -295.018E-03     41.2079E-03    -295.622E-03     590.244E-03    -294.988E-03     38.9821E-03
             545     4.69056E-03     122.329E-03    -67.5078E+06    -57.1769E+06    -19.6051E+06     3.23726E+06    -295.547E-03     590.599E-03    -295.052E-03     48.6625E-03    -295.888E-03     590.555E-03    -294.969E-03     45.7775E-03
             546     5.36078E-03     122.420E-03    -61.5893E+06    -48.8065E+06    -8.41856E+06     2.01827E+06    -295.761E-03     590.828E-03    -295.067E-03     56.2860E-03    -296.150E-03     590.850E-03    -294.949E-03     52.6432E-03
             547     6.03137E-03     122.523E-03    -56.1133E+06    -33.3744E+06     2.65290E+06     1.75079E+06    -295.976E-03     591.043E-03    -295.068E-03     63.9973E-03    -296.438E-03     591.180E-03    -294.924E-03     59.4774E-03
             548     6.70166E-03     122.639E-03    -50.1806E+06    -18.4146E+06     14.0955E+06     1.60717E+06    -296.297E-03     591.367E-03    -295.069E-03     71.7792E-03    -296.848E-03     591.633E-03    -294.899E-03     66.2572E-03
             549     7.37181E-03     122.766E-03    -43.8825E+06    -10.9595E+06     24.6719E+06     1.58583E+06    -296.681E-03     591.763E-03    -295.081E-03     79.6021E-03    -297.322E-03     592.138E-03    -294.879E-03     72.9749E-03
             550     8.04199E-03     122.908E-03    -37.7788E+06    -3.32572E+06     35.6179E+06     1.50634E+06    -297.033E-03     592.131E-03    -295.098E-03     87.3464E-03    -297.788E-03     592.637E-03    -294.861E-03     79.4796E-03
             551     8.71233E-03     123.059E-03    -31.6403E+06     5.43529E+06     45.7565E+06     1.25671E+06    -297.405E-03     592.516E-03    -295.111E-03     94.7984E-03    -298.291E-03     593.176E-03    -294.844E-03     85.6120E-03
             552     9.38220E-03     123.224E-03    -25.5455E+06     12.5841E+06     53.8384E+06     1.38946E+06    -297.651E-03     592.767E-03    -295.115E-03     101.512E-03    -298.674E-03     593.588E-03    -294.827E-03     90.9859E-03
             553     10.0534E-03     123.395E-03    -20.7180E+06     16.9925E+06     58.9386E+06     1.22792E+06    -297.890E-03     592.998E-03    -295.108E-03     107.172E-03    -299.046E-03     593.970E-03    -294.808E-03     95.3947E-03
             554     10.7239E-03     123.577E-03    -16.5348E+06     21.2768E+06     60.7232E+06     689.202E+03    -298.370E-03     593.465E-03    -295.095E-03     111.707E-03    -299.640E-03     594.575E-03    -294.798E-03     98.8816E-03
             555     11.3924E-03     123.763E-03    -12.4869E+06     25.1315E+06     62.0195E+06     887.452E+03    -298.626E-03     593.718E-03    -295.093E-03     113.892E-03    -299.939E-03     594.897E-03    -294.801E-03     100.575E-03
             556     12.0651E-03     123.950E-03    -8.09348E+06     31.6720E+06     66.1140E+06     1.09732E+06    -298.670E-03     593.769E-03    -295.098E-03     118.001E-03    -300.096E-03     595.086E-03    -294.802E-03     103.880E-03
             557     12.7351E-03     124.144E-03    -4.42870E+06     34.6315E+06     69.2502E+06    -58.3388E+03    -298.134E-03     593.234E-03    -295.100E-03     108.155E-03    -299.314E-03     594.320E-03    -294.797E-03     95.7656E-03
             558     670.737E-06     123.753E-03    -95.7934E+06    -142.649E+06    -94.0925E+06     1.36052E+06    -294.933E-03     589.661E-03    -294.727E-03     7.08258E-03    -295.071E-03     589.225E-03    -294.852E-03     6.80329E-03
             559     1.34040E-03     123.770E-03    -93.4203E+06    -133.536E+06    -87.9283E+06     1.76714E+06    -295.117E-03     590.002E-03    -294.885E-03     13.4698E-03    -295.271E-03     589.605E-03    -294.995E-03     12.9027E-03
             560     2.01002E-03     123.800E-03    -90.5906E+06    -120.754E+06    -79.6105E+06     2.55710E+06    -295.087E-03     590.042E-03    -294.955E-03     20.3304E-03    -295.266E-03     589.702E-03    -295.047E-03     19.4293E-03
             561     2.68014E-03     123.841E-03    -86.1356E+06    -103.585E+06    -67.3052E+06     3.95298E+06    -295.051E-03     590.027E-03    -294.976E-03     27.1952E-03    -295.265E-03     589.763E-03    -295.038E-03     25.9344E-03
             562     3.35027E-03     123.896E-03    -81.4160E+06    -83.6196E+06    -53.3499E+06     4.83766E+06    -295.087E-03     590.065E-03    -294.977E-03     34.2376E-03    -295.347E-03     589.893E-03    -295.005E-03     32.5394E-03
             563     4.02064E-03     123.960E-03    -75.6631E+06    -67.5109E+06    -38.0085E+06     5.29806E+06    -295.251E-03     590.240E-03    -294.989E-03     41.4564E-03    -295.556E-03     590.146E-03    -294.971E-03     39.2305E-03
             564     4.69087E-03     124.040E-03    -69.2407E+06    -54.5852E+06    -22.6353E+06     4.94068E+06    -295.512E-03     590.525E-03    -295.012E-03     48.8240E-03    -295.862E-03     590.501E-03    -294.946E-03     45.9633E-03
             565     5.36106E-03     124.129E-03    -63.1356E+06    -46.6426E+06    -9.19637E+06     3.56159E+06    -295.774E-03     590.815E-03    -295.041E-03     56.2618E-03    -296.172E-03     590.850E-03    -294.928E-03     52.6372E-03
             566     6.03110E-03     124.233E-03    -56.7116E+06    -33.8021E+06     4.13089E+06     2.72792E+06    -295.997E-03     591.058E-03    -295.061E-03     63.8225E-03    -296.464E-03     591.191E-03    -294.909E-03     59.3151E-03
             567     6.70146E-03     124.348E-03    -50.3021E+06    -17.9677E+06     16.3554E+06     2.52539E+06    -296.245E-03     591.311E-03    -295.066E-03     71.5962E-03    -296.800E-03     591.576E-03    -294.885E-03     66.0839E-03
             568     7.37187E-03     124.477E-03    -44.2756E+06    -10.5207E+06     26.6525E+06     2.06137E+06    -296.611E-03     591.686E-03    -295.075E-03     79.4533E-03    -297.258E-03     592.061E-03    -294.862E-03     72.8263E-03
             569     8.04244E-03     124.616E-03    -37.8559E+06    -2.63492E+06     37.1290E+06     1.56857E+06    -297.055E-03     592.143E-03    -295.089E-03     87.2253E-03    -297.812E-03     592.649E-03    -294.844E-03     79.3654E-03
             570     8.71245E-03     124.770E-03    -32.2029E+06     5.25933E+06     46.5663E+06     1.52330E+06    -297.361E-03     592.462E-03    -295.101E-03     94.8114E-03    -298.250E-03     593.120E-03    -294.829E-03     85.6434E-03
             571     9.38326E-03     124.932E-03    -26.9193E+06     11.7002E+06     53.9789E+06     1.61698E+06    -297.728E-03     592.833E-03    -295.106E-03     101.708E-03    -298.757E-03     593.652E-03    -294.814E-03     91.1974E-03
             572     10.0529E-03     125.106E-03    -21.2064E+06     16.8887E+06     59.0547E+06     1.97561E+06    -298.237E-03     593.347E-03    -295.110E-03     107.466E-03    -299.398E-03     594.321E-03    -294.808E-03     95.6791E-03
             573     10.7226E-03     125.286E-03    -16.1178E+06     21.8951E+06     61.7637E+06     2.44513E+06    -298.347E-03     593.454E-03    -295.107E-03     112.108E-03    -299.624E-03     594.573E-03    -294.807E-03     99.2587E-03
             574     11.3947E-03     125.474E-03    -12.0585E+06     26.1037E+06     64.0753E+06     1.51723E+06    -298.113E-03     593.206E-03    -295.093E-03     113.858E-03    -299.430E-03     594.387E-03    -294.793E-03     100.546E-03
             575     12.0633E-03     125.657E-03    -7.98636E+06     32.4106E+06     67.9156E+06     189.967E+03    -298.295E-03     593.373E-03    -295.077E-03     117.063E-03    -299.724E-03     594.692E-03    -294.773E-03     102.863E-03
             576     12.7345E-03     125.855E-03    -3.50610E+06     35.8804E+06     71.8064E+06     197.575E+03    -298.178E-03     593.256E-03    -295.078E-03     107.517E-03    -299.353E-03     594.338E-03    -294.766E-03     95.1599E-03
             577     669.498E-06     125.461E-03    -97.4273E+06    -146.823E+06    -96.2335E+06     461.975E+03    -294.813E-03     589.893E-03    -295.079E-03     7.40528E-03    -294.950E-03     589.442E-03    -295.206E-03     7.08956E-03
             578     1.33980E-03     125.480E-03    -95.5955E+06    -139.043E+06    -90.8855E+06     2.13792E+06    -294.916E-03     589.849E-03    -294.933E-03     13.5370E-03    -295.068E-03     589.432E-03    -295.047E-03     12.9674E-03
             579     2.01033E-03     125.509E-03    -92.7622E+06    -125.708E+06    -81.1756E+06     3.38131E+06    -294.975E-03     589.907E-03    -294.932E-03     20.2678E-03    -295.155E-03     589.547E-03    -295.021E-03     19.3941E-03
             580     2.68031E-03     125.552E-03    -89.0782E+06    -108.680E+06    -69.6328E+06     3.99801E+06    -295.057E-03     589.998E-03    -294.942E-03     27.1536E-03    -295.274E-03     589.716E-03    -295.003E-03     25.9002E-03
             581     3.35059E-03     125.604E-03    -84.0609E+06    -88.1306E+06    -55.8631E+06     4.96769E+06    -295.132E-03     590.086E-03    -294.954E-03     34.0728E-03    -295.394E-03     589.899E-03    -294.984E-03     32.3878E-03
             582     4.02069E-03     125.671E-03    -78.1169E+06    -69.6885E+06    -40.6059E+06     5.32973E+06    -295.258E-03     590.228E-03    -294.971E-03     41.2344E-03    -295.566E-03     590.130E-03    -294.960E-03     39.0193E-03
             583     4.69092E-03     125.748E-03    -71.9232E+06    -55.2136E+06    -25.8264E+06     5.16235E+06    -295.446E-03     590.436E-03    -294.990E-03     48.5804E-03    -295.804E-03     590.417E-03    -294.935E-03     45.7248E-03
             584     5.36112E-03     125.840E-03    -65.1523E+06    -44.1414E+06    -11.7057E+06     4.59405E+06    -295.703E-03     590.715E-03    -295.011E-03     56.1776E-03    -296.112E-03     590.770E-03    -294.912E-03     52.5588E-03
             585     6.03139E-03     125.942E-03    -58.6712E+06    -32.0955E+06     2.23263E+06     3.17024E+06    -295.984E-03     591.017E-03    -295.033E-03     64.0099E-03    -296.462E-03     591.166E-03    -294.890E-03     59.4791E-03
             586     6.70160E-03     126.058E-03    -52.3485E+06    -18.3365E+06     15.0328E+06     2.47319E+06    -296.298E-03     591.346E-03    -295.048E-03     71.8321E-03    -296.861E-03     591.615E-03    -294.870E-03     66.3053E-03
             587     7.37202E-03     126.186E-03    -45.6089E+06    -9.63727E+06     26.4966E+06     2.43377E+06    -296.688E-03     591.754E-03    -295.066E-03     79.5367E-03    -297.343E-03     592.136E-03    -294.854E-03     72.9160E-03
             588     8.04197E-03     126.328E-03    -39.8600E+06    -2.48494E+06     37.3661E+06     2.29423E+06    -297.025E-03     592.113E-03    -295.088E-03     87.1675E-03    -297.792E-03     592.621E-03    -294.840E-03     79.3266E-03
             589     8.71267E-03     126.479E-03    -34.0455E+06     5.25098E+06     47.5437E+06     2.03500E+06    -297.380E-03     592.486E-03    -295.106E-03     94.4042E-03    -298.276E-03     593.142E-03    -294.826E-03     85.2516E-03
             590     9.38284E-03     126.643E-03    -27.8765E+06     11.3781E+06     55.4594E+06     1.90567E+06    -297.726E-03     592.842E-03    -295.116E-03     101.220E-03    -298.755E-03     593.651E-03    -294.815E-03     90.7600E-03
             591     10.0534E-03     126.817E-03    -22.6353E+06     16.1029E+06     59.9004E+06     1.72474E+06    -297.957E-03     593.067E-03    -295.110E-03     107.555E-03    -299.124E-03     594.037E-03    -294.801E-03     95.8083E-03
             592     10.7239E-03     126.997E-03    -17.1457E+06     21.5251E+06     61.9882E+06     1.17659E+06    -298.247E-03     593.338E-03    -295.091E-03     112.482E-03    -299.536E-03     594.463E-03    -294.788E-03     99.5688E-03
             593     11.3928E-03     127.182E-03    -11.0355E+06     27.2058E+06     65.4788E+06     1.75718E+06    -298.219E-03     593.297E-03    -295.078E-03     113.897E-03    -299.536E-03     594.482E-03    -294.774E-03     100.572E-03
             594     12.0650E-03     127.369E-03    -6.54541E+06     33.8972E+06     70.5758E+06     2.28141E+06    -298.369E-03     593.440E-03    -295.070E-03     117.936E-03    -299.792E-03     594.755E-03    -294.757E-03     103.885E-03
             595     12.7341E-03     127.565E-03    -3.24035E+06     37.4497E+06     73.6997E+06     1.03504E+06    -297.907E-03     592.966E-03    -295.059E-03     108.259E-03    -299.086E-03     594.053E-03    -294.740E-03     95.9673E-03
             596     670.315E-06     127.171E-03    -99.5666E+06    -152.086E+06    -97.8696E+06     1.73299E+06    -294.897E-03     589.785E-03    -294.889E-03     7.68049E-03    -295.034E-03     589.314E-03    -295.013E-03     7.39870E-03
             597     1.34039E-03     127.189E-03    -97.9531E+06    -144.605E+06    -92.1452E+06     2.25865E+06    -294.923E-03     589.818E-03    -294.895E-03     13.8023E-03    -295.077E-03     589.378E-03    -295.004E-03     13.2370E-03
             598     2.01009E-03     127.219E-03    -94.3303E+06    -131.389E+06    -83.3435E+06     3.24730E+06    -294.988E-03     589.894E-03    -294.906E-03     20.2702E-03    -295.165E-03     589.512E-03    -294.996E-03     19.3894E-03
             599     2.68044E-03     127.260E-03    -89.8730E+06    -114.039E+06    -71.1017E+06     4.83317E+06    -295.087E-03     590.016E-03    -294.929E-03     27.0703E-03    -295.299E-03     589.710E-03    -294.989E-03     25.8350E-03
             600     3.35029E-03     127.314E-03    -84.9302E+06    -92.0383E+06    -56.7466E+06     5.45507E+06    -295.202E-03     590.156E-03    -294.954E-03     34.0149E-03    -295.461E-03     589.952E-03    -294.981E-03     32.3294E-03
             601     4.02051E-03     127.380E-03    -79.2010E+06    -71.3645E+06    -41.2125E+06     5.41266E+06    -295.276E-03     590.253E-03    -294.978E-03     41.2914E-03    -295.587E-03     590.150E-03    -294.965E-03     39.0673E-03
             602     4.69068E-03     127.459E-03    -73.2989E+06    -58.0775E+06    -25.7535E+06     5.73329E+06    -295.401E-03     590.400E-03    -295.000E-03     48.6691E-03    -295.761E-03     590.369E-03    -294.938E-03     45.8088E-03
             603     5.36113E-03     127.548E-03    -67.1804E+06    -42.6762E+06    -11.7687E+06     5.53866E+06    -295.598E-03     590.604E-03    -295.007E-03     56.1454E-03    -296.019E-03     590.670E-03    -294.906E-03     52.5416E-03
             604     6.03155E-03     127.652E-03    -60.8375E+06    -27.8513E+06     634.926E+03     3.77460E+06    -295.914E-03     590.923E-03    -295.010E-03     63.7597E-03    -296.405E-03     591.098E-03    -294.878E-03     59.2601E-03
             605     6.70198E-03     127.767E-03    -54.1242E+06    -18.8862E+06     12.0980E+06     2.50117E+06    -296.325E-03     591.350E-03    -295.025E-03     71.5874E-03    -296.890E-03     591.621E-03    -294.859E-03     66.0911E-03
             606     7.37188E-03     127.897E-03    -47.4479E+06    -10.2675E+06     24.1681E+06     2.55094E+06    -296.669E-03     591.718E-03    -295.049E-03     79.5147E-03    -297.328E-03     592.102E-03    -294.845E-03     72.9135E-03
             607     8.04250E-03     128.036E-03    -40.9732E+06    -2.38652E+06     36.7236E+06     2.42126E+06    -297.020E-03     592.097E-03    -295.076E-03     87.3373E-03    -297.793E-03     592.609E-03    -294.830E-03     79.4957E-03
             608     8.71242E-03     128.190E-03    -34.6460E+06     4.99124E+06     47.9538E+06     2.54355E+06    -297.428E-03     592.528E-03    -295.100E-03     94.9706E-03    -298.330E-03     593.185E-03    -294.817E-03     85.8269E-03
             609     9.38234E-03     128.353E-03    -28.9694E+06     11.7474E+06     56.4023E+06     2.52326E+06    -297.674E-03     592.784E-03    -295.110E-03     101.963E-03    -298.718E-03     593.603E-03    -294.803E-03     91.4789E-03
             610     10.0530E-03     128.525E-03    -22.9995E+06     17.6833E+06     62.1262E+06     1.83921E+06    -297.840E-03     592.940E-03    -295.101E-03     107.833E-03    -299.016E-03     593.917E-03    -294.782E-03     96.0863E-03
             611     10.7238E-03     128.707E-03    -18.3252E+06     22.4340E+06     64.1019E+06     1.28073E+06    -298.094E-03     593.170E-03    -295.076E-03     112.391E-03    -299.386E-03     594.290E-03    -294.761E-03     99.5625E-03
             612     11.3950E-03     128.894E-03    -14.5903E+06     26.4588E+06     65.0619E+06     467.354E+03    -298.283E-03     593.339E-03    -295.056E-03     113.807E-03    -299.623E-03     594.532E-03    -294.748E-03     100.388E-03
             613     12.0642E-03     129.075E-03    -9.45778E+06     33.1282E+06     68.8458E+06     323.825E+03    -298.244E-03     593.288E-03    -295.044E-03     117.390E-03    -299.688E-03     594.617E-03    -294.735E-03     103.155E-03
             614     12.7365E-03     129.277E-03    -3.96924E+06     39.0175E+06     73.8028E+06     1.03477E+06    -297.802E-03     592.836E-03    -295.035E-03     107.782E-03    -298.984E-03     593.930E-03    -294.717E-03     95.4968E-03
             615     670.112E-06     128.880E-03    -102.240E+06    -158.241E+06    -100.736E+06     1.09501E+06    -294.884E-03     589.642E-03    -294.758E-03     7.24638E-03    -295.022E-03     589.148E-03    -294.884E-03     7.00016E-03
             616     1.34007E-03     128.899E-03    -99.1766E+06    -149.110E+06    -94.0893E+06     2.10194E+06    -294.948E-03     589.791E-03    -294.842E-03     13.6535E-03    -295.099E-03     589.333E-03    -294.953E-03     13.0864E-03
             617     2.01042E-03     128.928E-03    -96.3774E+06    -137.028E+06    -85.2307E+06     3.02434E+06    -295.056E-03     589.946E-03    -294.890E-03     20.3071E-03    -295.232E-03     589.541E-03    -294.978E-03     19.4201E-03
             618     2.68022E-03     128.970E-03    -92.1238E+06    -119.966E+06    -73.4979E+06     3.89325E+06    -295.092E-03     590.018E-03    -294.926E-03     27.1375E-03    -295.303E-03     589.689E-03    -294.986E-03     25.8861E-03
             619     3.35060E-03     129.024E-03    -86.6709E+06    -97.5422E+06    -59.2310E+06     5.51290E+06    -295.125E-03     590.067E-03    -294.942E-03     34.1676E-03    -295.382E-03     589.842E-03    -294.971E-03     32.4785E-03
             620     4.02066E-03     129.090E-03    -81.5026E+06    -75.0319E+06    -43.7005E+06     7.07643E+06    -295.238E-03     590.193E-03    -294.955E-03     41.3997E-03    -295.552E-03     590.078E-03    -294.946E-03     39.1956E-03
             621     4.69103E-03     129.168E-03    -75.6637E+06    -59.5471E+06    -28.0347E+06     6.97720E+06    -295.402E-03     590.377E-03    -294.975E-03     48.7747E-03    -295.769E-03     590.345E-03    -294.919E-03     45.9461E-03
             622     5.36113E-03     129.258E-03    -68.8890E+06    -41.0598E+06    -12.6518E+06     5.60490E+06    -295.663E-03     590.652E-03    -294.989E-03     56.3029E-03    -296.093E-03     590.729E-03    -294.893E-03     52.7132E-03
             623     6.03136E-03     129.361E-03    -61.6226E+06    -24.2799E+06     1.23301E+06     4.16124E+06    -295.983E-03     590.987E-03    -295.004E-03     63.9511E-03    -296.484E-03     591.179E-03    -294.874E-03     59.4673E-03
             624     6.70139E-03     129.478E-03    -55.1177E+06    -18.2165E+06     13.0150E+06     3.25734E+06    -296.255E-03     591.282E-03    -295.027E-03     71.7141E-03    -296.829E-03     591.557E-03    -294.855E-03     66.2250E-03
             625     7.37220E-03     129.605E-03    -49.0133E+06    -10.4722E+06     24.3518E+06     2.67738E+06    -296.545E-03     591.586E-03    -295.041E-03     79.5902E-03    -297.211E-03     591.970E-03    -294.833E-03     72.9923E-03
             626     8.04230E-03     129.747E-03    -42.5679E+06    -2.94551E+06     35.9156E+06     2.70298E+06    -296.894E-03     591.949E-03    -295.054E-03     87.4445E-03    -297.673E-03     592.462E-03    -294.809E-03     79.6140E-03
             627     8.71297E-03     129.899E-03    -36.6147E+06     4.28688E+06     46.8456E+06     2.77122E+06    -297.168E-03     592.231E-03    -295.064E-03     95.0597E-03    -298.079E-03     592.892E-03    -294.783E-03     85.9084E-03
             628     9.38414E-03     130.062E-03    -30.2211E+06     12.8746E+06     56.2812E+06     2.29257E+06    -297.588E-03     592.653E-03    -295.065E-03     101.969E-03    -298.640E-03     593.480E-03    -294.759E-03     91.4792E-03
             629     10.0540E-03     130.236E-03    -24.5610E+06     18.3164E+06     61.8539E+06     2.00441E+06    -298.077E-03     593.142E-03    -295.065E-03     107.960E-03    -299.265E-03     594.128E-03    -294.746E-03     96.1844E-03
             630     10.7238E-03     130.416E-03    -18.8965E+06     23.0734E+06     64.6351E+06     1.93658E+06    -298.205E-03     593.261E-03    -295.056E-03     112.410E-03    -299.505E-03     594.388E-03    -294.739E-03     99.5503E-03
             631     11.3941E-03     130.602E-03    -13.1671E+06     28.5291E+06     67.8564E+06     1.12508E+06    -298.158E-03     593.202E-03    -295.043E-03     113.903E-03    -299.497E-03     594.398E-03    -294.726E-03     100.517E-03
             632     12.0647E-03     130.789E-03    -9.41326E+06     34.0062E+06     71.3172E+06    -326.640E+03    -298.524E-03     593.563E-03    -295.039E-03     117.618E-03    -299.977E-03     594.896E-03    -294.718E-03     103.350E-03
             633     12.7338E-03     130.980E-03    -4.38985E+06     38.9789E+06     75.6363E+06    -393.062E+03    -298.072E-03     593.115E-03    -295.043E-03     107.905E-03    -299.260E-03     594.206E-03    -294.715E-03     95.6004E-03
             634     670.015E-06     130.590E-03    -102.642E+06    -161.814E+06    -101.940E+06     598.446E+03    -295.002E-03     589.926E-03    -294.924E-03     7.19557E-03    -295.135E-03     589.416E-03    -295.050E-03     6.86554E-03
             635     1.34036E-03     130.608E-03    -101.858E+06    -154.797E+06    -97.2093E+06     1.61349E+06    -294.818E-03     589.744E-03    -294.926E-03     13.5115E-03    -294.969E-03     589.266E-03    -295.040E-03     12.9662E-03
             636     2.01020E-03     130.638E-03    -98.7164E+06    -142.026E+06    -87.5047E+06     2.95502E+06    -294.955E-03     589.857E-03    -294.903E-03     20.2904E-03    -295.132E-03     589.434E-03    -294.991E-03     19.4294E-03
             637     2.68041E-03     130.680E-03    -94.7400E+06    -124.756E+06    -75.7576E+06     3.93254E+06    -294.997E-03     589.907E-03    -294.910E-03     27.0848E-03    -295.210E-03     589.561E-03    -294.971E-03     25.8307E-03
             638     3.35046E-03     130.733E-03    -89.7808E+06    -104.776E+06    -61.9613E+06     5.08157E+06    -295.052E-03     589.967E-03    -294.915E-03     34.2241E-03    -295.310E-03     589.713E-03    -294.943E-03     32.5410E-03
             639     4.02087E-03     130.799E-03    -82.8596E+06     -80.032E+06    -46.2326E+06     6.07385E+06    -295.212E-03     590.130E-03    -294.918E-03     41.3802E-03    -295.522E-03     589.996E-03    -294.913E-03     39.1837E-03
             640     4.69096E-03     130.877E-03    -75.2682E+06    -60.7253E+06    -30.1343E+06     6.42957E+06    -295.448E-03     590.385E-03    -294.937E-03     48.7387E-03    -295.807E-03     590.349E-03    -294.891E-03     45.9149E-03
             641     5.36144E-03     130.968E-03    -68.4849E+06    -40.2102E+06    -14.2561E+06     6.33762E+06    -295.664E-03     590.622E-03    -294.957E-03     56.3209E-03    -296.092E-03     590.705E-03    -294.871E-03     52.7451E-03
             642     6.03163E-03     131.072E-03    -62.7846E+06    -22.3864E+06     758.859E+03     5.66520E+06    -295.872E-03     590.847E-03    -294.975E-03     64.1422E-03    -296.382E-03     591.052E-03    -294.848E-03     59.6767E-03
             643     6.70217E-03     131.187E-03    -56.5704E+06    -16.6064E+06     14.0710E+06     4.48544E+06    -296.228E-03     591.228E-03    -295.001E-03     72.0072E-03    -296.813E-03     591.513E-03    -294.824E-03     66.5317E-03
             644     7.37211E-03     131.315E-03    -50.1840E+06    -10.1422E+06     26.0091E+06     3.94478E+06    -296.565E-03     591.586E-03    -295.021E-03     79.7849E-03    -297.242E-03     591.974E-03    -294.804E-03     73.1886E-03
             645     8.04280E-03     131.456E-03    -44.2927E+06    -2.86539E+06     37.4682E+06     3.47432E+06    -296.857E-03     591.895E-03    -295.037E-03     87.4664E-03    -297.648E-03     592.409E-03    -294.782E-03     79.6403E-03
             646     8.71322E-03     131.608E-03    -37.1808E+06     5.33338E+06     48.4682E+06     2.40610E+06    -297.248E-03     592.298E-03    -295.050E-03     94.6997E-03    -298.165E-03     592.960E-03    -294.761E-03     85.5404E-03
             647     9.38304E-03     131.772E-03    -30.5140E+06     12.7146E+06     56.8721E+06     2.02052E+06    -297.576E-03     592.630E-03    -295.054E-03     101.481E-03    -298.627E-03     593.453E-03    -294.744E-03     90.9737E-03
             648     10.0539E-03     131.945E-03    -24.2384E+06     19.4150E+06     62.6752E+06     1.79189E+06    -297.809E-03     592.856E-03    -295.047E-03     107.548E-03    -298.995E-03     593.842E-03    -294.726E-03     95.7780E-03
             649     10.7247E-03     132.127E-03    -18.0318E+06     24.7629E+06     65.7350E+06     697.872E+03    -298.172E-03     593.202E-03    -295.030E-03     112.527E-03    -299.474E-03     594.337E-03    -294.711E-03     99.6358E-03
             650     11.3946E-03     132.313E-03    -12.8021E+06     28.9950E+06     68.4215E+06     235.277E+03    -298.329E-03     593.352E-03    -295.023E-03     113.938E-03    -299.667E-03     594.549E-03    -294.704E-03     100.538E-03
             651     12.0660E-03     132.496E-03    -7.57522E+06     36.1238E+06     74.0708E+06     567.736E+03    -298.624E-03     593.658E-03    -295.033E-03     117.346E-03    -300.067E-03     594.987E-03    -294.704E-03     103.145E-03
             652     12.7361E-03     132.698E-03    -4.20435E+06     39.8082E+06     77.6651E+06     76.8343E+03    -298.173E-03     593.218E-03    -295.045E-03     107.791E-03    -299.368E-03     594.314E-03    -294.708E-03     95.4317E-03
             653     669.627E-06     132.299E-03    -103.581E+06    -166.948E+06    -103.281E+06     1.63353E+06    -295.134E-03     589.950E-03    -294.816E-03     7.27974E-03    -295.262E-03     589.418E-03    -294.940E-03     6.93812E-03
             654     1.33975E-03     132.317E-03    -102.845E+06    -159.741E+06    -97.1568E+06     2.57570E+06    -294.867E-03     589.817E-03    -294.950E-03     13.7426E-03    -295.016E-03     589.315E-03    -295.055E-03     13.1848E-03
             655     2.01022E-03     132.348E-03    -100.001E+06    -147.146E+06    -88.5213E+06     3.21001E+06    -294.780E-03     589.680E-03    -294.900E-03     20.5079E-03    -294.955E-03     589.235E-03    -294.985E-03     19.6482E-03
             656     2.68043E-03     132.389E-03    -95.6472E+06    -129.757E+06    -76.6314E+06     4.12262E+06    -294.947E-03     589.823E-03    -294.876E-03     27.2409E-03    -295.156E-03     589.454E-03    -294.933E-03     26.0024E-03
             657     3.35082E-03     132.443E-03    -90.2759E+06    -109.122E+06    -62.2662E+06     4.79126E+06    -295.160E-03     590.053E-03    -294.893E-03     34.1797E-03    -295.413E-03     589.779E-03    -294.915E-03     32.5085E-03
             658     4.02088E-03     132.508E-03    -84.6631E+06    -83.6667E+06    -47.7966E+06     5.04262E+06    -295.239E-03     590.147E-03    -294.908E-03     41.1958E-03    -295.550E-03     589.999E-03    -294.903E-03     38.9870E-03
             659     4.69132E-03     132.587E-03    -78.6505E+06    -63.3635E+06    -32.7605E+06     5.32039E+06    -295.367E-03     590.289E-03    -294.922E-03     48.6619E-03    -295.736E-03     590.249E-03    -294.880E-03     45.8192E-03
             660     5.36119E-03     132.677E-03    -72.0822E+06    -42.4536E+06    -16.7398E+06     5.69187E+06    -295.526E-03     590.459E-03    -294.932E-03     56.3169E-03    -295.965E-03     590.539E-03    -294.850E-03     52.7244E-03
             661     6.03186E-03     132.780E-03    -64.6900E+06    -23.0432E+06    -1.11337E+06     6.06468E+06    -295.768E-03     590.706E-03    -294.938E-03     64.0393E-03    -296.283E-03     590.913E-03    -294.817E-03     59.5859E-03
             662     6.70219E-03     132.896E-03    -57.4245E+06    -15.0173E+06     12.8225E+06     5.84116E+06    -296.153E-03     591.111E-03    -294.957E-03     71.8607E-03    -296.743E-03     591.406E-03    -294.788E-03     66.4131E-03
             663     7.37274E-03     133.025E-03    -50.5498E+06    -8.93375E+06     26.1014E+06     4.47102E+06    -296.578E-03     591.564E-03    -294.986E-03     79.6418E-03    -297.258E-03     591.957E-03    -294.769E-03     73.0485E-03
             664     8.04290E-03     133.165E-03    -42.9784E+06    -1.34290E+06     39.4190E+06     3.29414E+06    -296.984E-03     592.002E-03    -295.018E-03     87.3881E-03    -297.772E-03     592.519E-03    -294.757E-03     79.5554E-03
             665     8.71308E-03     133.319E-03    -36.0106E+06     6.83915E+06     51.1085E+06     2.92600E+06    -297.352E-03     592.396E-03    -295.044E-03     94.9406E-03    -298.268E-03     593.060E-03    -294.746E-03     85.8017E-03
             666     9.38371E-03     133.481E-03    -29.7136E+06     13.9720E+06     59.8679E+06     1.97336E+06    -297.668E-03     592.725E-03    -295.057E-03     101.873E-03    -298.723E-03     593.551E-03    -294.735E-03     91.3754E-03
             667     10.0539E-03     133.655E-03    -23.1119E+06     20.9549E+06     65.6451E+06     918.309E+03    -297.868E-03     592.922E-03    -295.053E-03     107.621E-03    -299.056E-03     593.911E-03    -294.722E-03     95.8281E-03
             668     10.7244E-03     133.835E-03    -17.7053E+06     26.2862E+06     67.9022E+06     708.247E+03    -298.058E-03     593.092E-03    -295.034E-03     112.024E-03    -299.361E-03     594.228E-03    -294.707E-03     99.1315E-03
             669     11.3954E-03     134.023E-03    -13.2214E+06     30.6982E+06     70.0861E+06     534.062E+03    -298.409E-03     593.436E-03    -295.027E-03     113.556E-03    -299.752E-03     594.637E-03    -294.702E-03     100.158E-03
             670     12.0635E-03     134.208E-03    -9.27791E+06     35.4513E+06     73.2672E+06     16.6723E+03    -298.544E-03     593.576E-03    -295.032E-03     117.381E-03    -299.994E-03     594.907E-03    -294.704E-03     103.170E-03
             671     12.7345E-03     134.403E-03    -4.73915E+06     38.9834E+06     76.6086E+06     86.4294E+03    -297.424E-03     592.444E-03    -295.020E-03     107.900E-03    -298.620E-03     593.539E-03    -294.686E-03     95.5526E-03
             672     670.770E-06     134.009E-03    -105.892E+06    -174.298E+06    -102.941E+06     1.45050E+06    -294.792E-03     589.523E-03    -294.731E-03     7.46833E-03    -294.922E-03     588.957E-03    -294.839E-03     7.18461E-03
             673     1.34034E-03     134.027E-03    -101.863E+06    -165.053E+06    -96.5591E+06     2.49488E+06    -295.001E-03     589.807E-03    -294.806E-03     13.8082E-03    -295.138E-03     589.277E-03    -294.902E-03     13.2152E-03
             674     2.01043E-03     134.056E-03    -98.6966E+06    -152.500E+06    -87.6204E+06     3.80422E+06    -294.912E-03     589.769E-03    -294.856E-03     20.3660E-03    -295.074E-03     589.293E-03    -294.930E-03     19.5027E-03
             675     2.68084E-03     134.098E-03    -94.8804E+06    -134.907E+06    -75.6407E+06     4.85272E+06    -295.009E-03     589.880E-03    -294.871E-03     27.1274E-03    -295.208E-03     589.483E-03    -294.916E-03     25.9272E-03
             676     3.35058E-03     134.152E-03    -89.9676E+06    -112.997E+06    -61.7018E+06     5.62997E+06    -295.145E-03     590.037E-03    -294.892E-03     34.0833E-03    -295.392E-03     589.742E-03    -294.906E-03     32.4316E-03
             677     4.02072E-03     134.218E-03    -84.5204E+06    -86.6019E+06    -46.4953E+06     6.13038E+06    -295.205E-03     590.111E-03    -294.906E-03     41.3788E-03    -295.513E-03     589.946E-03    -294.890E-03     39.1737E-03
             678     4.69083E-03     134.295E-03    -78.3148E+06    -63.5288E+06    -30.1796E+06     5.43841E+06    -295.312E-03     590.229E-03    -294.917E-03     48.8589E-03    -295.684E-03     590.185E-03    -294.862E-03     46.0087E-03
             679     5.36182E-03     134.387E-03    -70.7664E+06    -45.6254E+06    -14.3490E+06     4.94254E+06    -295.551E-03     590.479E-03    -294.928E-03     56.2918E-03    -295.982E-03     590.539E-03    -294.831E-03     52.6940E-03
             680     6.03195E-03     134.489E-03    -63.4848E+06    -26.6664E+06     714.697E+03     5.90242E+06    -295.823E-03     590.762E-03    -294.938E-03     63.8677E-03    -296.329E-03     590.946E-03    -294.804E-03     59.4082E-03
             681     6.70230E-03     134.606E-03    -56.6425E+06    -12.9638E+06     14.2202E+06     5.41718E+06    -296.079E-03     591.029E-03    -294.949E-03     71.7104E-03    -296.669E-03     591.330E-03    -294.777E-03     66.2549E-03
             682     7.37273E-03     134.734E-03    -49.1391E+06    -6.36556E+06     26.5440E+06     4.01293E+06    -296.502E-03     591.468E-03    -294.966E-03     79.5944E-03    -297.179E-03     591.871E-03    -294.753E-03     73.0127E-03
             683     8.04299E-03     134.876E-03    -42.2272E+06    -201.106E+03     39.2868E+06     3.25917E+06    -296.956E-03     591.951E-03    -294.995E-03     87.3998E-03    -297.743E-03     592.473E-03    -294.737E-03     79.5672E-03
             684     8.71357E-03     135.027E-03    -35.2903E+06     7.89102E+06     51.6782E+06     2.32896E+06    -297.316E-03     592.339E-03    -295.024E-03     94.9161E-03    -298.232E-03     593.008E-03    -294.725E-03     85.7528E-03
             685     9.38383E-03     135.192E-03    -28.2398E+06     15.6959E+06     61.6889E+06     2.06999E+06    -297.687E-03     592.730E-03    -295.043E-03     101.671E-03    -298.739E-03     593.558E-03    -294.716E-03     91.1784E-03
             686     10.0541E-03     135.364E-03    -22.9539E+06     21.3675E+06     67.5098E+06     2.14637E+06    -298.014E-03     593.063E-03    -295.050E-03     107.623E-03    -299.205E-03     594.054E-03    -294.710E-03     95.8309E-03
             687     10.7241E-03     135.546E-03    -17.8104E+06     26.6920E+06     69.9626E+06     1.97040E+06    -298.197E-03     593.237E-03    -295.040E-03     112.608E-03    -299.506E-03     594.375E-03    -294.703E-03     99.7418E-03
             688     11.3938E-03     135.731E-03    -12.5821E+06     31.9316E+06     72.1834E+06     1.83025E+06    -298.034E-03     593.054E-03    -295.020E-03     114.554E-03    -299.376E-03     594.255E-03    -294.687E-03     101.297E-03
             689     12.0666E-03     135.919E-03    -8.01898E+06     36.9147E+06     76.2584E+06     1.52807E+06    -298.018E-03     593.016E-03    -294.998E-03     118.307E-03    -299.464E-03     594.343E-03    -294.658E-03     104.264E-03
             690     12.7363E-03     136.113E-03    -4.16242E+06     40.2072E+06     79.6767E+06     318.684E+03    -297.786E-03     592.766E-03    -294.981E-03     108.310E-03    -298.990E-03     593.867E-03    -294.634E-03     95.9203E-03
             691     669.877E-06     135.717E-03    -102.895E+06    -179.402E+06    -102.040E+06     1.09224E+06    -294.629E-03     589.557E-03    -294.928E-03     7.20797E-03    -294.738E-03     588.960E-03    -295.029E-03     6.96940E-03
             692     1.34054E-03     135.736E-03    -101.698E+06    -171.893E+06    -96.7553E+06     2.40667E+06    -294.894E-03     589.689E-03    -294.795E-03     13.3682E-03    -295.020E-03     589.124E-03    -294.882E-03     12.8408E-03
             693     2.01034E-03     135.765E-03    -98.1954E+06    -158.363E+06    -86.8134E+06     3.59359E+06    -295.089E-03     589.944E-03    -294.855E-03     20.1712E-03    -295.241E-03     589.437E-03    -294.917E-03     19.3120E-03
             694     2.68014E-03     135.807E-03    -93.4531E+06    -140.504E+06    -74.4994E+06     4.74487E+06    -295.011E-03     589.908E-03    -294.897E-03     27.1879E-03    -295.197E-03     589.479E-03    -294.930E-03     25.9613E-03
             695     3.35076E-03     135.862E-03    -88.1356E+06    -118.374E+06    -60.3630E+06     5.94462E+06    -294.959E-03     589.855E-03    -294.896E-03     34.2040E-03    -295.192E-03     589.529E-03    -294.898E-03     32.5333E-03
             696     4.02126E-03     135.927E-03    -81.9796E+06    -89.7192E+06    -43.7169E+06     6.47667E+06    -295.140E-03     590.029E-03    -294.889E-03     41.4067E-03    -295.435E-03     589.841E-03    -294.859E-03     39.2087E-03
             697     4.69174E-03     136.006E-03    -75.1701E+06    -62.7758E+06    -26.8250E+06     6.28295E+06    -295.382E-03     590.281E-03    -294.899E-03     48.7368E-03    -295.744E-03     590.231E-03    -294.833E-03     45.9047E-03
             698     5.36137E-03     136.095E-03    -68.8942E+06    -48.8738E+06    -11.4061E+06     6.53453E+06    -295.597E-03     590.523E-03    -294.926E-03     56.3363E-03    -296.019E-03     590.559E-03    -294.812E-03     52.7620E-03
             699     6.03173E-03     136.200E-03    -62.6014E+06    -29.2502E+06     3.10818E+06     6.60813E+06    -295.836E-03     590.774E-03    -294.938E-03     64.0915E-03    -296.338E-03     590.941E-03    -294.789E-03     59.6463E-03
             700     6.70230E-03     136.314E-03    -55.6123E+06    -9.85685E+06     16.6647E+06     5.68517E+06    -296.167E-03     591.112E-03    -294.945E-03     71.8504E-03    -296.760E-03     591.424E-03    -294.767E-03     66.4094E-03
             701     7.37265E-03     136.445E-03    -49.2473E+06    -4.71380E+06     28.7657E+06     4.52949E+06    -296.493E-03     591.462E-03    -294.969E-03     79.6136E-03    -297.175E-03     591.869E-03    -294.747E-03     73.0508E-03
             702     8.04336E-03     136.583E-03    -42.4157E+06     1.62770E+06     41.0018E+06     3.28453E+06    -296.890E-03     591.883E-03    -294.993E-03     87.2829E-03    -297.681E-03     592.411E-03    -294.729E-03     79.4655E-03
             703     8.71342E-03     136.738E-03    -35.9676E+06     8.90872E+06     52.0977E+06     2.70166E+06    -297.306E-03     592.323E-03    -295.016E-03     94.7353E-03    -298.227E-03     592.996E-03    -294.716E-03     85.5883E-03
             704     9.38374E-03     136.900E-03    -30.5144E+06     14.8421E+06     60.6788E+06     2.67330E+06    -297.556E-03     592.586E-03    -295.030E-03     101.764E-03    -298.616E-03     593.414E-03    -294.703E-03     91.2893E-03
             705     10.0542E-03     137.075E-03     -24.099E+06     21.5098E+06     67.1948E+06     2.66695E+06    -297.803E-03     592.829E-03    -295.026E-03     107.883E-03    -298.997E-03     593.819E-03    -294.686E-03     96.1585E-03
             706     10.7250E-03     137.254E-03    -18.3956E+06     27.3462E+06     70.3551E+06     2.60120E+06    -298.042E-03     593.049E-03    -295.007E-03     112.725E-03    -299.355E-03     594.190E-03    -294.668E-03     99.8961E-03
             707     11.3963E-03     137.443E-03    -13.8529E+06     31.5931E+06     72.7048E+06     1.68955E+06    -297.891E-03     592.876E-03    -294.985E-03     114.098E-03    -299.249E-03     594.086E-03    -294.647E-03     100.702E-03
             708     12.0655E-03     137.624E-03    -8.85932E+06     37.9476E+06     77.2070E+06     1.17868E+06    -297.908E-03     592.872E-03    -294.964E-03     117.111E-03    -299.369E-03     594.212E-03    -294.620E-03     102.874E-03
             709     12.7378E-03     137.824E-03    -4.03424E+06     42.8911E+06     80.8863E+06     1.37077E+06    -297.968E-03     592.922E-03    -294.954E-03     107.610E-03    -299.167E-03     594.024E-03    -294.606E-03     95.3156E-03
             710     670.048E-06     137.426E-03    -103.461E+06    -184.795E+06    -102.491E+06     1.22844E+06    -295.034E-03     589.944E-03    -294.910E-03     7.36006E-03    -295.137E-03     589.321E-03    -295.004E-03     7.04797E-03
             711     1.33999E-03     137.444E-03    -101.712E+06    -177.503E+06    -96.5631E+06     2.26319E+06    -294.816E-03     589.752E-03    -294.937E-03     13.5113E-03    -294.934E-03     589.160E-03    -295.015E-03     12.9522E-03
             712     2.01045E-03     137.475E-03    -98.4644E+06    -163.870E+06    -87.0285E+06     3.21933E+06    -294.858E-03     589.753E-03    -294.895E-03     20.2800E-03    -295.003E-03     589.219E-03    -294.950E-03     19.4142E-03
             713     2.68067E-03     137.517E-03    -94.3204E+06    -146.250E+06    -75.1770E+06     4.19382E+06    -294.919E-03     589.800E-03    -294.881E-03     27.2204E-03    -295.100E-03     589.345E-03    -294.908E-03     25.9772E-03
             714     3.35085E-03     137.569E-03    -88.9056E+06    -123.917E+06    -60.7398E+06     5.15692E+06    -295.016E-03     589.895E-03    -294.879E-03     34.2368E-03    -295.244E-03     589.543E-03    -294.874E-03     32.5631E-03
             715     4.02097E-03     137.636E-03    -82.8808E+06    -95.1956E+06    -44.7297E+06     6.77489E+06    -295.162E-03     590.041E-03    -294.879E-03     41.3152E-03    -295.452E-03     589.829E-03    -294.845E-03     39.1288E-03
             716     4.69103E-03     137.714E-03    -77.6177E+06    -66.4014E+06    -28.3067E+06     8.52188E+06    -295.282E-03     590.166E-03    -294.884E-03     48.6960E-03    -295.648E-03     590.103E-03    -294.816E-03     45.8959E-03
             717     5.36192E-03     137.806E-03    -71.9223E+06    -49.8378E+06    -13.4021E+06     8.29736E+06    -295.523E-03     590.420E-03    -294.897E-03     56.3384E-03    -295.955E-03     590.458E-03    -294.787E-03     52.8020E-03
             718     6.03253E-03     137.907E-03    -64.7410E+06    -29.0459E+06     1.34442E+06     7.13385E+06    -295.883E-03     590.791E-03    -294.909E-03     64.0613E-03    -296.392E-03     590.964E-03    -294.766E-03     59.6408E-03
             719     6.70250E-03     138.026E-03    -57.4694E+06    -8.72772E+06     16.1673E+06     6.41392E+06    -296.228E-03     591.158E-03    -294.929E-03     71.7657E-03    -296.831E-03     591.479E-03    -294.753E-03     66.3334E-03
             720     7.37284E-03     138.152E-03    -50.3371E+06    -2.65770E+06     29.7193E+06     5.35963E+06    -296.577E-03     591.545E-03    -294.967E-03     79.5492E-03    -297.269E-03     591.962E-03    -294.742E-03     73.0003E-03
             721     8.04287E-03     138.295E-03    -44.1343E+06     2.69420E+06     42.2486E+06     4.77243E+06    -296.866E-03     591.866E-03    -294.999E-03     87.3446E-03    -297.668E-03     592.398E-03    -294.728E-03     79.5710E-03
             722     8.71353E-03     138.446E-03    -38.1988E+06     9.04621E+06      53.637E+06     4.54519E+06    -297.141E-03     592.160E-03    -295.019E-03     94.8445E-03    -298.072E-03     592.831E-03    -294.708E-03     85.7741E-03
             723     9.38409E-03     138.611E-03    -31.3743E+06     16.2962E+06     62.9007E+06     3.70856E+06    -297.470E-03     592.494E-03    -295.023E-03     101.675E-03    -298.537E-03     593.324E-03    -294.687E-03     91.2592E-03
             724     10.0549E-03     138.782E-03    -25.2791E+06     22.0559E+06     68.2842E+06     2.79965E+06    -297.769E-03     592.783E-03    -295.014E-03     107.514E-03    -298.969E-03     593.773E-03    -294.668E-03     95.7931E-03
             725     10.7250E-03     138.966E-03    -19.7335E+06     27.1551E+06     70.4071E+06     2.41821E+06    -297.908E-03     592.899E-03    -294.991E-03     112.059E-03    -299.225E-03     594.038E-03    -294.650E-03     99.2070E-03
             726     11.3948E-03     139.149E-03    -14.2127E+06     33.0513E+06     73.0870E+06     2.65378E+06    -297.935E-03     592.903E-03    -294.969E-03     113.534E-03    -299.289E-03     594.112E-03    -294.630E-03     100.193E-03
             727     12.0664E-03     139.336E-03    -9.38735E+06     40.2838E+06     77.4443E+06     1.64211E+06    -298.343E-03     593.303E-03    -294.960E-03     117.492E-03    -299.804E-03     594.649E-03    -294.617E-03     103.341E-03
             728     12.7347E-03     139.531E-03    -4.59656E+06     44.4940E+06     81.3314E+06     390.280E+03    -297.776E-03     592.732E-03    -294.956E-03     108.019E-03    -298.976E-03     593.838E-03    -294.607E-03     95.7952E-03
             729     669.948E-06     139.136E-03    -105.864E+06    -191.112E+06    -104.287E+06     1.35386E+06    -295.221E-03     589.799E-03    -294.578E-03     7.48835E-03    -295.324E-03     589.151E-03    -294.669E-03     7.15780E-03
             730     1.34004E-03     139.154E-03    -103.599E+06    -182.221E+06    -97.8806E+06     2.21766E+06    -294.909E-03     589.807E-03    -294.898E-03     13.8338E-03    -295.029E-03     589.196E-03    -294.973E-03     13.2810E-03
             731     2.01013E-03     139.184E-03    -100.675E+06    -169.494E+06    -89.1489E+06     3.30646E+06    -294.797E-03     589.676E-03    -294.879E-03     20.4020E-03    -294.942E-03     589.121E-03    -294.933E-03     19.5263E-03
             732     2.68073E-03     139.225E-03    -96.4561E+06    -151.777E+06    -76.8436E+06     4.58681E+06    -294.904E-03     589.766E-03    -294.861E-03     27.0928E-03    -295.086E-03     589.288E-03    -294.885E-03     25.8593E-03
             733     3.35082E-03     139.279E-03    -91.6561E+06    -129.165E+06    -62.5865E+06     5.71437E+06    -295.044E-03     589.909E-03    -294.865E-03     34.1605E-03    -295.275E-03     589.537E-03    -294.857E-03     32.5019E-03
             734     4.02117E-03     139.345E-03    -86.3054E+06    -103.226E+06    -47.7899E+06     7.13959E+06    -295.110E-03     589.975E-03    -294.865E-03     41.5031E-03    -295.400E-03     589.731E-03    -294.830E-03     39.3285E-03
             735     4.69177E-03     139.424E-03    -79.1042E+06    -73.4256E+06    -31.3556E+06     8.89212E+06    -295.327E-03     590.192E-03    -294.865E-03     48.7437E-03    -295.685E-03     590.100E-03    -294.801E-03     45.9663E-03
             736     5.36193E-03     139.513E-03    -71.4568E+06    -50.0338E+06    -14.9040E+06      9.7083E+06    -295.658E-03     590.544E-03    -294.886E-03     56.0471E-03    -296.083E-03     590.581E-03    -294.784E-03     52.5506E-03
             737     6.03173E-03     139.619E-03    -65.0233E+06    -27.8436E+06     735.288E+03     8.76786E+06    -295.881E-03     590.792E-03    -294.911E-03     63.7147E-03    -296.391E-03     590.970E-03    -294.773E-03     59.3366E-03
             738     6.70248E-03     139.733E-03    -58.7194E+06    -8.71933E+06     15.0523E+06     7.59079E+06    -296.121E-03     591.049E-03    -294.928E-03     71.6160E-03    -296.727E-03     591.372E-03    -294.755E-03     66.2233E-03
             739     7.37270E-03     139.864E-03    -52.3160E+06    -1.84811E+06     28.7805E+06     7.37379E+06    -296.473E-03     591.430E-03    -294.957E-03     79.5660E-03    -297.173E-03     591.855E-03    -294.735E-03     73.0615E-03
             740     8.04334E-03     140.002E-03    -45.6300E+06     4.20695E+06     42.9529E+06     6.45011E+06    -296.800E-03     591.789E-03    -294.990E-03     87.4171E-03    -297.612E-03     592.330E-03    -294.715E-03     79.6747E-03
             741     8.71374E-03     140.157E-03    -38.2046E+06     10.7073E+06     55.5904E+06     4.73257E+06    -297.152E-03     592.164E-03    -295.012E-03     94.8186E-03    -298.089E-03     592.842E-03    -294.694E-03     85.7376E-03
             742     9.38425E-03     140.319E-03    -31.4010E+06     17.0333E+06     64.8373E+06     4.12689E+06    -297.520E-03     592.542E-03    -295.022E-03     101.566E-03    -298.592E-03     593.374E-03    -294.677E-03     91.1325E-03
             743     10.0541E-03     140.494E-03    -25.2401E+06     22.8487E+06     70.6382E+06     4.27596E+06    -297.749E-03     592.766E-03    -295.017E-03     107.597E-03    -298.956E-03     593.760E-03    -294.660E-03     95.8730E-03
             744     10.7248E-03     140.673E-03    -19.4967E+06     28.2028E+06     72.9493E+06     3.79231E+06    -297.900E-03     592.893E-03    -294.993E-03     112.333E-03    -299.220E-03     594.033E-03    -294.641E-03     99.5272E-03
             745     11.3964E-03     140.861E-03    -13.9115E+06     36.0671E+06     75.1741E+06     2.24996E+06    -298.032E-03     592.999E-03    -294.967E-03     113.752E-03    -299.392E-03     594.219E-03    -294.623E-03     100.424E-03
             746     12.0659E-03     141.043E-03    -8.61906E+06     43.0030E+06     79.4452E+06     1.08341E+06    -298.291E-03     593.251E-03    -294.959E-03     117.425E-03    -299.759E-03     594.610E-03    -294.612E-03     103.231E-03
             747     12.7384E-03     141.244E-03    -4.15605E+06     45.3414E+06     83.1066E+06     784.953E+03    -297.740E-03     592.698E-03    -294.957E-03     107.751E-03    -298.951E-03     593.814E-03    -294.602E-03     95.4062E-03
             748     670.522E-06     140.844E-03    -107.137E+06    -196.629E+06    -106.349E+06     1.11452E+06    -294.659E-03     589.438E-03    -294.779E-03     7.20942E-03    -294.757E-03     588.767E-03    -294.871E-03     6.95337E-03
             749     1.34055E-03     140.864E-03    -105.650E+06    -188.331E+06    -100.611E+06     2.49004E+06    -294.875E-03     589.618E-03    -294.743E-03     13.7431E-03    -294.992E-03     588.983E-03    -294.820E-03     13.1942E-03
             750     2.01072E-03     140.892E-03    -102.405E+06    -175.215E+06    -90.7192E+06     3.60832E+06    -294.995E-03     589.799E-03    -294.804E-03     20.4399E-03    -295.138E-03     589.220E-03    -294.855E-03     19.5713E-03
             751     2.68046E-03     140.935E-03    -98.2188E+06    -158.055E+06    -78.8543E+06     4.81282E+06    -294.991E-03     589.834E-03    -294.842E-03     27.2451E-03    -295.169E-03     589.331E-03    -294.865E-03     26.0249E-03
             752     3.35090E-03     140.988E-03    -93.4270E+06    -136.292E+06    -65.5499E+06     6.63341E+06    -295.009E-03     589.861E-03    -294.852E-03     34.1564E-03    -295.234E-03     589.460E-03    -294.847E-03     32.5111E-03
             753     4.02128E-03     141.054E-03    -87.7209E+06    -109.750E+06    -49.7043E+06     8.23792E+06    -295.217E-03     590.080E-03    -294.863E-03     41.2134E-03    -295.501E-03     589.808E-03    -294.825E-03     39.0844E-03
             754     4.69145E-03     141.132E-03    -81.4141E+06    -78.9681E+06    -33.2677E+06     8.84540E+06    -295.469E-03     590.351E-03    -294.882E-03     48.4683E-03    -295.826E-03     590.236E-03    -294.816E-03     45.7192E-03
             755     5.36139E-03     141.224E-03    -75.1298E+06    -53.5815E+06    -18.2451E+06     9.13608E+06    -295.659E-03     590.563E-03    -294.904E-03     56.0685E-03    -296.093E-03     590.593E-03    -294.808E-03     52.5620E-03
             756     6.03221E-03     141.326E-03    -68.0049E+06    -28.2639E+06    -2.62901E+06     9.46329E+06    -295.830E-03     590.748E-03    -294.918E-03     63.8042E-03    -296.350E-03     590.934E-03    -294.792E-03     59.4359E-03
             757     6.70226E-03     141.444E-03    -60.8443E+06    -9.03034E+06     13.6299E+06     9.35072E+06    -296.019E-03     590.954E-03    -294.935E-03     71.5823E-03    -296.632E-03     591.280E-03    -294.765E-03     66.2222E-03
             758     7.37299E-03     141.571E-03    -53.6579E+06    -1.44013E+06     29.0375E+06     8.22650E+06    -296.325E-03     591.284E-03    -294.959E-03     79.4294E-03    -297.032E-03     591.711E-03    -294.734E-03     72.9516E-03
             759     8.04336E-03     141.713E-03    -45.7876E+06     6.95973E+06     43.5648E+06     6.69260E+06    -296.770E-03     591.752E-03    -294.982E-03     87.1599E-03    -297.586E-03     592.304E-03    -294.708E-03     79.4343E-03
             760     8.71376E-03     141.865E-03    -39.1789E+06     13.0346E+06     55.8494E+06     5.66813E+06    -297.165E-03     592.171E-03    -295.006E-03     94.6826E-03    -298.111E-03     592.862E-03    -294.689E-03     85.6076E-03
             761     9.38395E-03     142.030E-03    -33.1248E+06     16.9639E+06     65.0103E+06     4.96928E+06    -297.395E-03     592.412E-03    -295.017E-03     101.664E-03    -298.477E-03     593.248E-03    -294.669E-03     91.2306E-03
             762     10.0552E-03     142.201E-03    -26.5107E+06     23.2664E+06     71.3280E+06     4.15834E+06    -297.668E-03     592.676E-03    -295.008E-03     107.635E-03    -298.884E-03     593.673E-03    -294.646E-03     95.9082E-03
             763     10.7257E-03     142.383E-03    -19.7144E+06     30.3050E+06     74.5304E+06     3.12447E+06    -298.001E-03     592.988E-03    -294.987E-03     112.098E-03    -299.330E-03     594.138E-03    -294.629E-03     99.2404E-03
             764     11.3951E-03     142.569E-03    -14.4223E+06     37.6861E+06     77.0607E+06     2.21577E+06    -297.998E-03     592.966E-03    -294.968E-03     113.664E-03    -299.369E-03     594.196E-03    -294.616E-03     100.292E-03
             765     12.0661E-03     142.755E-03    -9.82221E+06     44.5656E+06     80.9880E+06     2.00546E+06    -298.058E-03     593.010E-03    -294.952E-03     117.929E-03    -299.537E-03     594.378E-03    -294.598E-03     103.788E-03
             766     12.7346E-03     142.950E-03    -4.39700E+06     47.6325E+06     84.1697E+06     1.09698E+06    -297.283E-03     592.209E-03    -294.925E-03     108.515E-03    -298.505E-03     593.340E-03    -294.567E-03     96.1736E-03
             767     669.936E-06     142.554E-03    -108.645E+06    -202.445E+06    -106.391E+06     1.53576E+06    -294.474E-03     589.663E-03    -295.189E-03     7.08417E-03    -294.572E-03     588.965E-03    -295.270E-03     6.81154E-03
             768     1.34048E-03     142.571E-03    -106.289E+06    -194.583E+06    -101.104E+06     2.51922E+06    -294.796E-03     589.617E-03    -294.821E-03     13.2477E-03    -294.906E-03     588.952E-03    -294.890E-03     12.6854E-03
             769     2.01052E-03     142.602E-03    -103.348E+06    -181.938E+06    -92.4324E+06     3.98126E+06    -294.886E-03     589.705E-03    -294.819E-03     20.0132E-03    -295.021E-03     589.095E-03    -294.867E-03     19.1748E-03
             770     2.68090E-03     142.643E-03    -99.5066E+06    -165.161E+06    -80.5997E+06     5.67537E+06    -294.999E-03     589.839E-03    -294.840E-03     26.9480E-03    -295.170E-03     589.304E-03    -294.859E-03     25.7622E-03
             771     3.35100E-03     142.697E-03    -94.2884E+06    -143.352E+06    -66.1913E+06     6.92137E+06    -295.230E-03     590.106E-03    -294.876E-03     33.9687E-03    -295.447E-03     589.671E-03    -294.862E-03     32.3553E-03
             772     4.02104E-03     142.763E-03    -88.0998E+06    -116.569E+06    -50.6037E+06     8.25415E+06    -295.416E-03     590.334E-03    -294.917E-03     41.0539E-03    -295.691E-03     590.029E-03    -294.874E-03     38.9325E-03
             773     4.69098E-03     142.842E-03    -81.9961E+06    -85.2180E+06    -34.4476E+06     10.1263E+06    -295.410E-03     590.349E-03    -294.939E-03     48.3727E-03    -295.760E-03     590.205E-03    -294.868E-03     45.6339E-03
             774     5.36183E-03     142.932E-03    -75.3840E+06    -54.7989E+06    -17.6572E+06     10.2883E+06    -295.494E-03     590.435E-03    -294.941E-03     55.9672E-03    -295.927E-03     590.457E-03    -294.840E-03     52.4914E-03
             775     6.03163E-03     143.037E-03    -68.0750E+06    -31.2088E+06    -1.03352E+06     9.49839E+06    -295.740E-03     590.685E-03    -294.945E-03     63.7326E-03    -296.258E-03     590.853E-03    -294.806E-03     59.3654E-03
             776     6.70233E-03     143.152E-03    -60.4866E+06    -11.5483E+06     14.4836E+06     9.77697E+06    -296.064E-03     591.017E-03    -294.953E-03     71.5288E-03    -296.673E-03     591.328E-03    -294.776E-03     66.1718E-03
             777     7.37264E-03     143.281E-03    -53.4226E+06     1.72602E+06     28.8667E+06     8.89957E+06    -296.426E-03     591.396E-03    -294.970E-03     79.2511E-03    -297.135E-03     591.838E-03    -294.751E-03     72.7826E-03
             778     8.04317E-03     143.422E-03    -47.1747E+06     8.05762E+06     42.7277E+06     7.61299E+06    -296.696E-03     591.692E-03    -294.996E-03     86.9545E-03    -297.518E-03     592.252E-03    -294.726E-03     79.2415E-03
             779     8.71363E-03     143.575E-03    -40.2353E+06     13.3733E+06     55.9949E+06     7.35182E+06    -296.962E-03     591.977E-03    -295.015E-03     94.5088E-03    -297.911E-03     592.669E-03    -294.697E-03     85.4762E-03
             780     9.38455E-03     143.738E-03    -33.0435E+06     19.3115E+06     66.6834E+06     6.38913E+06    -297.349E-03     592.371E-03    -295.022E-03     101.324E-03    -298.433E-03     593.212E-03    -294.668E-03     90.9299E-03
             781     10.0546E-03     143.911E-03    -26.4760E+06     26.7701E+06     73.5603E+06     4.38773E+06    -297.625E-03     592.637E-03    -295.012E-03     107.272E-03    -298.845E-03     593.645E-03    -294.645E-03     95.5600E-03
             782     10.7247E-03     144.093E-03    -21.0109E+06     31.8517E+06     75.5461E+06     2.94758E+06    -297.693E-03     592.673E-03    -294.980E-03     112.429E-03    -299.032E-03     593.832E-03    -294.618E-03     99.5972E-03
             783     11.3961E-03     144.279E-03    -15.6216E+06     37.9375E+06     77.4143E+06     2.82207E+06    -297.642E-03     592.580E-03    -294.938E-03     114.417E-03    -299.019E-03     593.812E-03    -294.583E-03     101.126E-03
             784     12.0669E-03     144.462E-03    -9.02594E+06     47.4564E+06     83.0770E+06     2.07748E+06    -297.657E-03     592.559E-03    -294.901E-03     118.492E-03    -299.141E-03     593.938E-03    -294.542E-03     104.396E-03
             785     12.7400E-03     144.662E-03    -3.95187E+06     50.6458E+06     87.0933E+06     573.853E+03    -297.329E-03     592.201E-03    -294.871E-03     108.473E-03    -298.558E-03     593.342E-03    -294.503E-03     96.1436E-03
             786     670.019E-06     144.262E-03    -109.430E+06    -209.397E+06    -108.086E+06     1.40921E+06    -294.988E-03     590.013E-03    -295.025E-03     7.36290E-03    -295.077E-03     589.284E-03    -295.103E-03     7.04501E-03
             787     1.33976E-03     144.281E-03    -107.423E+06    -201.630E+06    -102.139E+06     2.97518E+06    -294.915E-03     589.900E-03    -294.985E-03     13.4348E-03    -295.019E-03     589.203E-03    -295.047E-03     12.8847E-03
             788     2.01024E-03     144.310E-03    -104.637E+06    -189.146E+06    -93.4415E+06     4.45623E+06    -294.906E-03     589.859E-03    -294.953E-03     19.8930E-03    -295.036E-03     589.217E-03    -294.995E-03     19.0745E-03
             789     2.68053E-03     144.352E-03    -100.183E+06    -171.695E+06    -81.1030E+06     5.51570E+06    -295.104E-03     590.061E-03    -294.956E-03     26.5456E-03    -295.268E-03     589.495E-03    -294.968E-03     25.3724E-03
             790     3.35060E-03     144.406E-03    -94.6935E+06    -149.867E+06    -66.5780E+06     6.75459E+06    -295.276E-03     590.263E-03    -294.987E-03     33.6224E-03    -295.485E-03     589.797E-03    -294.966E-03     32.0213E-03
             791     4.02047E-03     144.473E-03    -89.1095E+06     -124.38E+06    -51.6398E+06     8.33232E+06    -295.267E-03     590.270E-03    -295.003E-03     40.9347E-03    -295.534E-03     589.929E-03    -294.952E-03     38.8091E-03
             792     4.69106E-03     144.551E-03    -82.2009E+06    -92.6779E+06    -35.0296E+06     9.63204E+06    -295.348E-03     590.345E-03    -294.997E-03     48.3937E-03    -295.687E-03     590.165E-03    -294.919E-03     45.6467E-03
             793     5.36089E-03     144.642E-03    -74.8225E+06    -57.8512E+06    -17.1456E+06     10.8329E+06    -295.478E-03     590.463E-03    -294.985E-03     55.9136E-03    -295.905E-03     590.469E-03    -294.878E-03     52.4394E-03
             794     6.03200E-03     144.745E-03    -68.7493E+06    -34.4340E+06    -953.978E+03     11.7128E+06    -295.698E-03     590.680E-03    -294.982E-03     63.5413E-03    -296.214E-03     590.832E-03    -294.837E-03     59.2272E-03
             795     6.70228E-03     144.862E-03    -62.7566E+06    -13.3059E+06     13.1761E+06     11.3795E+06    -296.105E-03     591.085E-03    -294.980E-03     71.3254E-03    -296.719E-03     591.391E-03    -294.804E-03     66.0202E-03
             796     7.37251E-03     144.990E-03    -55.8686E+06     4.15373E+06      27.633E+06     10.2310E+06    -296.441E-03     591.435E-03    -294.994E-03     79.1155E-03    -297.164E-03     591.894E-03    -294.781E-03     72.6648E-03
             797     8.04278E-03     145.131E-03    -48.7748E+06     9.55742E+06     42.7702E+06     8.77046E+06    -296.668E-03     591.694E-03    -295.026E-03     86.7907E-03    -297.501E-03     592.263E-03    -294.755E-03     79.0845E-03
             798     8.71361E-03     145.283E-03    -41.4014E+06     13.9646E+06     56.4534E+06     7.19447E+06    -296.937E-03     591.983E-03    -295.045E-03     94.1919E-03    -297.892E-03     592.677E-03    -294.723E-03     85.1565E-03
             799     9.38390E-03     145.447E-03    -33.6083E+06     21.3673E+06     67.9361E+06     5.95882E+06    -297.171E-03     592.217E-03    -295.046E-03     101.175E-03    -298.260E-03     593.066E-03    -294.688E-03     90.7954E-03
             800     10.0545E-03     145.621E-03    -26.5903E+06     29.2524E+06     75.6194E+06     5.40375E+06    -297.248E-03     592.268E-03    -295.020E-03     107.427E-03    -298.474E-03     593.284E-03    -294.645E-03     95.7659E-03
             801     10.7261E-03     145.800E-03    -20.2933E+06     34.6694E+06     78.5732E+06     4.59644E+06    -297.310E-03     592.277E-03    -294.967E-03     112.272E-03    -298.649E-03     593.439E-03    -294.595E-03     99.5218E-03
             802     11.3970E-03     145.987E-03    -13.9514E+06     41.3383E+06     81.2399E+06     2.75252E+06    -297.403E-03     592.314E-03    -294.911E-03     113.785E-03    -298.779E-03     593.552E-03    -294.545E-03     100.481E-03
             803     12.0678E-03     146.171E-03    -9.35851E+06     49.1209E+06     85.1305E+06     1.43323E+06    -297.740E-03     592.615E-03    -294.875E-03     117.172E-03    -299.230E-03     593.999E-03    -294.507E-03     102.964E-03
             804     12.7371E-03     146.367E-03    -5.38832E+06     52.4268E+06     88.1677E+06     986.189E+03    -297.290E-03     592.141E-03    -294.851E-03     107.461E-03    -298.521E-03     593.283E-03    -294.478E-03     95.1594E-03
             805     670.054E-06     145.973E-03    -110.487E+06    -216.264E+06    -110.116E+06     1.39163E+06    -295.132E-03     590.003E-03    -294.871E-03     7.24894E-03    -295.213E-03     589.244E-03    -294.948E-03     6.94045E-03
             806     1.34030E-03     145.989E-03    -109.281E+06    -208.890E+06    -104.330E+06     2.52424E+06    -295.158E-03     590.186E-03    -295.027E-03     13.4874E-03    -295.258E-03     589.458E-03    -295.088E-03     12.9151E-03
             807     2.01002E-03     146.020E-03    -105.432E+06    -195.920E+06    -94.1911E+06     3.98766E+06    -295.274E-03     590.363E-03    -295.089E-03     19.9960E-03    -295.397E-03     589.689E-03    -295.123E-03     19.1539E-03
             808     2.67976E-03     146.061E-03    -101.249E+06    -178.342E+06    -82.2847E+06     5.53531E+06    -295.238E-03     590.362E-03    -295.124E-03     26.7290E-03    -295.396E-03     589.766E-03    -295.130E-03     25.5490E-03
             809     3.34974E-03     146.116E-03    -96.7380E+06    -157.260E+06    -68.4736E+06     6.98669E+06    -295.077E-03     590.193E-03    -295.116E-03     33.7961E-03    -295.283E-03     589.696E-03    -295.090E-03     32.1816E-03
             810     4.02052E-03     146.181E-03    -90.7379E+06    -131.287E+06    -52.7451E+06     8.17773E+06    -295.140E-03     590.224E-03    -295.084E-03     41.0087E-03    -295.404E-03     589.853E-03    -295.026E-03     38.8717E-03
             811     4.69064E-03     146.260E-03    -84.7809E+06    -100.272E+06    -36.6259E+06     9.94991E+06    -295.357E-03     590.415E-03    -295.058E-03     48.3103E-03    -295.696E-03     590.203E-03    -294.973E-03     45.5798E-03
             812     5.36139E-03     146.351E-03    -78.9223E+06    -65.8440E+06    -20.6322E+06     12.1667E+06    -295.584E-03     590.624E-03    -295.040E-03     55.6279E-03    -296.013E-03     590.599E-03    -294.933E-03     52.1890E-03
             813     6.03121E-03     146.454E-03    -71.7368E+06    -38.4689E+06    -4.85195E+06     13.3307E+06    -295.849E-03     590.887E-03    -295.037E-03     63.1784E-03    -296.367E-03     591.027E-03    -294.902E-03     58.8971E-03
             814     6.70157E-03     146.571E-03    -64.5114E+06    -13.1346E+06     11.6008E+06     12.7962E+06    -296.022E-03     591.061E-03    -295.039E-03     70.9801E-03    -296.641E-03     591.371E-03    -294.869E-03     65.7040E-03
             815     7.37220E-03     146.699E-03    -57.3810E+06     5.78165E+06     28.0858E+06     11.2827E+06    -296.244E-03     591.288E-03    -295.045E-03     78.8089E-03    -296.975E-03     591.755E-03    -294.830E-03     72.3901E-03
             816     8.04282E-03     146.840E-03    -49.6309E+06     12.1533E+06     43.4225E+06     9.52161E+06    -296.635E-03     591.699E-03    -295.063E-03     86.5822E-03    -297.476E-03     592.280E-03    -294.792E-03     78.8993E-03
             817     8.71288E-03     146.992E-03    -42.1397E+06     17.6323E+06     57.5632E+06     7.34889E+06    -296.868E-03     591.946E-03    -295.078E-03     94.2170E-03    -297.833E-03     592.657E-03    -294.755E-03     85.1961E-03
             818     9.38361E-03     147.156E-03    -35.1871E+06     22.8032E+06     69.0664E+06     5.62227E+06    -296.879E-03     591.948E-03    -295.069E-03     101.220E-03    -297.981E-03     592.805E-03    -294.705E-03     90.8337E-03
             819     10.0553E-03     147.327E-03    -27.8428E+06     29.7915E+06     77.2713E+06     4.49342E+06    -297.053E-03     592.084E-03    -295.030E-03     107.047E-03    -298.287E-03     593.101E-03    -294.647E-03     95.3605E-03
             820     10.7254E-03     147.510E-03    -20.3403E+06     36.9401E+06     81.1626E+06     3.60687E+06    -297.329E-03     592.305E-03    -294.976E-03     111.621E-03    -298.675E-03     593.474E-03    -294.594E-03     98.8062E-03
             821     11.3961E-03     147.694E-03    -14.4979E+06     43.0234E+06     83.2132E+06     3.36759E+06    -297.306E-03     592.226E-03    -294.921E-03     113.376E-03    -298.688E-03     593.468E-03    -294.546E-03     100.071E-03
             822     12.0672E-03     147.880E-03    -9.75960E+06     50.9759E+06     86.9281E+06     3.14856E+06    -297.261E-03     592.127E-03    -294.866E-03     117.836E-03    -298.751E-03     593.512E-03    -294.491E-03     103.791E-03
             823     12.7382E-03     148.078E-03    -4.84544E+06     55.9133E+06     89.3809E+06     1.76133E+06    -296.331E-03     591.123E-03    -294.792E-03     109.421E-03    -297.572E-03     592.286E-03    -294.419E-03     97.2097E-03
             824     670.108E-06     147.681E-03    -112.939E+06    -223.327E+06    -110.812E+06     1.67138E+06    -295.082E-03     590.240E-03    -295.158E-03     7.12087E-03    -295.164E-03     589.450E-03    -295.224E-03     6.82896E-03
             825     1.33980E-03     147.700E-03    -110.366E+06    -214.789E+06    -104.835E+06     2.80761E+06    -295.264E-03     590.411E-03    -295.147E-03     13.3140E-03    -295.360E-03     589.656E-03    -295.199E-03     12.7939E-03
             826     2.00967E-03     147.730E-03    -107.735E+06    -202.779E+06    -95.9052E+06     3.83937E+06    -295.257E-03     590.441E-03    -295.184E-03     20.1953E-03    -295.379E-03     589.739E-03    -295.214E-03     19.3520E-03
             827     2.67962E-03     147.772E-03    -103.341E+06    -185.835E+06    -84.1481E+06     5.26502E+06    -295.178E-03     590.362E-03    -295.184E-03     27.1322E-03    -295.334E-03     589.735E-03    -295.186E-03     25.9127E-03
             828     3.35012E-03     147.824E-03    -97.6362E+06    -164.131E+06    -69.9299E+06     6.66256E+06    -295.245E-03     590.415E-03    -295.170E-03     33.9895E-03    -295.444E-03     589.887E-03    -295.140E-03     32.3534E-03
             829     4.02004E-03     147.891E-03    -91.7955E+06    -139.132E+06    -54.5374E+06     8.58062E+06    -295.391E-03     590.554E-03    -295.163E-03     40.8658E-03    -295.645E-03     590.147E-03    -295.101E-03     38.7483E-03
             830     4.69037E-03     147.969E-03    -85.6063E+06    -110.406E+06    -38.5515E+06     11.1391E+06    -295.529E-03     590.688E-03    -295.159E-03     47.8947E-03    -295.853E-03     590.428E-03    -295.068E-03     45.2022E-03
             831     5.36032E-03     148.060E-03    -78.2541E+06    -74.1268E+06    -21.1340E+06     13.1581E+06    -295.706E-03     590.857E-03    -295.151E-03     55.2446E-03    -296.118E-03     590.789E-03    -295.035E-03     51.8380E-03
             832     6.03075E-03     148.164E-03    -71.0060E+06    -42.8749E+06    -4.28889E+06     13.8921E+06    -295.857E-03     591.001E-03    -295.144E-03     62.9436E-03    -296.365E-03     591.117E-03    -295.000E-03     58.6699E-03
             833     6.70111E-03     148.280E-03    -63.8280E+06    -14.0384E+06     12.3412E+06     13.7993E+06    -295.969E-03     591.100E-03    -295.130E-03     70.7940E-03    -296.584E-03     591.403E-03    -294.956E-03     65.5301E-03
             834     7.37158E-03     148.409E-03    -56.6698E+06     7.96218E+06     28.1751E+06     12.5850E+06    -296.134E-03     591.248E-03    -295.114E-03     78.5405E-03    -296.864E-03     591.723E-03    -294.902E-03     72.1555E-03
             835     8.04210E-03     148.549E-03    -49.7445E+06     14.8923E+06     43.1339E+06     10.4959E+06    -296.349E-03     591.458E-03    -295.110E-03     86.3935E-03    -297.191E-03     592.052E-03    -294.844E-03     78.7510E-03
             836     8.71304E-03     148.702E-03    -42.5055E+06     21.7402E+06     58.8722E+06     8.79015E+06    -296.564E-03     591.670E-03    -295.106E-03     93.9576E-03    -297.538E-03     592.399E-03    -294.781E-03     84.9571E-03
             837     9.38415E-03     148.863E-03    -35.1900E+06     26.4099E+06     71.6712E+06     6.83292E+06    -296.851E-03     591.942E-03    -295.091E-03     100.840E-03    -297.959E-03     592.812E-03    -294.720E-03     90.4699E-03
             838     10.0540E-03     149.038E-03    -28.4847E+06     32.5997E+06     80.2200E+06     4.98754E+06    -297.017E-03     592.073E-03    -295.056E-03     107.001E-03    -298.263E-03     593.101E-03    -294.661E-03     95.3187E-03
             839     10.7255E-03     149.216E-03    -23.0638E+06     37.8046E+06     82.7638E+06     4.07396E+06    -297.002E-03     591.990E-03    -294.988E-03     112.131E-03    -298.369E-03     593.169E-03    -294.596E-03     99.3210E-03
             840     11.3966E-03     149.404E-03    -17.4863E+06     43.1109E+06     83.1310E+06     3.48713E+06    -296.704E-03     591.600E-03    -294.896E-03     114.381E-03    -298.109E-03     592.855E-03    -294.517E-03     101.088E-03
             841     12.0677E-03     149.586E-03    -10.5235E+06     53.6490E+06     87.5232E+06     2.17711E+06    -296.060E-03     590.847E-03    -294.787E-03     118.585E-03    -297.570E-03     592.256E-03    -294.411E-03     104.512E-03
             842     12.7416E-03     149.782E-03    -4.58009E+06     58.9424E+06     91.1421E+06     1.08145E+06    -295.134E-03     589.790E-03    -294.656E-03     109.583E-03    -296.383E-03     590.968E-03    -294.279E-03     97.4004E-03
             843     669.669E-06     149.392E-03    -115.226E+06    -229.575E+06    -113.862E+06     1.09943E+06    -295.235E-03     590.485E-03    -295.250E-03     7.66300E-03    -295.315E-03     589.671E-03    -295.319E-03     7.34245E-03
             844     1.33964E-03     149.410E-03    -112.724E+06    -221.914E+06    -107.494E+06     2.51472E+06    -295.250E-03     590.490E-03    -295.240E-03     13.6610E-03    -295.343E-03     589.707E-03    -295.292E-03     13.1228E-03
             845     2.00974E-03     149.440E-03    -109.067E+06    -209.101E+06    -97.8388E+06     4.05496E+06    -295.193E-03     590.424E-03    -295.232E-03     20.0890E-03    -295.309E-03     589.695E-03    -295.260E-03     19.2605E-03
             846     2.68018E-03     149.481E-03    -104.763E+06    -192.157E+06    -85.6781E+06     4.94866E+06    -295.345E-03     590.576E-03    -295.231E-03     26.6390E-03    -295.495E-03     589.921E-03    -295.229E-03     25.4469E-03
             847     3.34976E-03     149.535E-03    -99.5994E+06    -171.810E+06    -72.1838E+06     6.52789E+06    -295.555E-03     590.811E-03    -295.256E-03     33.4080E-03    -295.748E-03     590.250E-03    -295.224E-03     31.8062E-03
             848     4.01962E-03     149.601E-03    -93.6444E+06    -147.649E+06    -56.6960E+06     8.37161E+06    -295.633E-03     590.919E-03    -295.286E-03     40.5029E-03    -295.881E-03     590.474E-03    -295.219E-03     38.3991E-03
             849     4.68953E-03     149.679E-03    -86.5045E+06    -119.033E+06    -39.6783E+06     9.55864E+06    -295.700E-03     590.999E-03    -295.299E-03     47.8357E-03    -296.014E-03     590.698E-03    -295.199E-03     45.1165E-03
             850     5.35971E-03     149.771E-03    -79.4429E+06    -85.0107E+06    -23.1569E+06     11.9518E+06    -295.719E-03     591.003E-03    -295.284E-03     55.2782E-03    -296.119E-03     590.886E-03    -295.161E-03     51.8458E-03
             851     6.03001E-03     149.873E-03    -72.7862E+06    -49.3015E+06    -6.63829E+06     14.7307E+06    -295.809E-03     591.062E-03    -295.253E-03     62.8407E-03    -296.312E-03     591.151E-03    -295.110E-03     58.5861E-03
             852     6.70043E-03     149.990E-03    -65.5677E+06    -14.3622E+06     10.2166E+06     14.6038E+06    -295.967E-03     591.187E-03    -295.220E-03     70.5136E-03    -296.587E-03     591.493E-03    -295.053E-03     65.2670E-03
             853     7.37092E-03     150.117E-03    -57.8328E+06     8.88773E+06     26.3065E+06     13.1385E+06    -296.015E-03     591.204E-03    -295.189E-03     78.2696E-03    -296.748E-03     591.687E-03    -294.987E-03     71.8885E-03
             854     8.04168E-03     150.258E-03    -50.6644E+06     16.8690E+06     42.4610E+06     12.1267E+06    -296.065E-03     591.232E-03    -295.168E-03     86.0810E-03    -296.911E-03     591.836E-03    -294.907E-03     78.4713E-03
             855     8.71270E-03     150.409E-03    -43.7060E+06     25.1422E+06     59.3860E+06     10.3085E+06    -296.305E-03     591.450E-03    -295.144E-03     93.6981E-03    -297.287E-03     592.193E-03    -294.821E-03     84.7584E-03
             856     9.38302E-03     150.574E-03    -36.5551E+06     30.8083E+06     73.1461E+06     8.34270E+06    -296.511E-03     591.622E-03    -295.111E-03     100.853E-03    -297.633E-03     592.511E-03    -294.737E-03     90.5376E-03
             857     10.0549E-03     150.744E-03    -29.8840E+06     35.6659E+06     82.0895E+06     6.80303E+06    -296.441E-03     591.488E-03    -295.047E-03     107.399E-03    -297.702E-03     592.531E-03    -294.645E-03     95.7789E-03
             858     10.7258E-03     150.925E-03    -22.6107E+06     39.2191E+06     85.3539E+06     5.48043E+06    -296.163E-03     591.100E-03    -294.937E-03     112.867E-03    -297.536E-03     592.284E-03    -294.534E-03     100.141E-03
             859     11.3976E-03     151.109E-03    -15.8484E+06     45.6712E+06     86.4714E+06     3.93254E+06    -295.708E-03     590.498E-03    -294.790E-03     115.263E-03    -297.119E-03     591.764E-03    -294.401E-03     102.019E-03
             860     12.0706E-03     151.293E-03    -10.4804E+06     58.0177E+06     90.5202E+06     1.82369E+06    -295.568E-03     590.209E-03    -294.641E-03     119.145E-03    -297.098E-03     591.645E-03    -294.257E-03     105.029E-03
             861     12.7415E-03     151.484E-03    -4.87436E+06     61.5514E+06     93.7351E+06     357.418E+03    -294.684E-03     589.178E-03    -294.494E-03     110.007E-03    -295.954E-03     590.377E-03    -294.108E-03     97.7185E-03
             862     670.096E-06     151.101E-03    -115.126E+06    -234.434E+06    -113.752E+06     1.04753E+06    -295.461E-03     590.748E-03    -295.287E-03     7.26913E-03    -295.534E-03     589.910E-03    -295.349E-03     6.98504E-03
             863     1.33989E-03     151.120E-03    -113.500E+06    -228.599E+06    -108.413E+06     2.02407E+06    -295.351E-03     590.718E-03    -295.367E-03     13.1414E-03    -295.437E-03     589.903E-03    -295.413E-03     12.6122E-03
             864     2.00965E-03     151.149E-03    -110.205E+06    -216.015E+06    -99.6915E+06     3.45253E+06    -295.516E-03     590.896E-03    -295.380E-03     19.5534E-03    -295.625E-03     590.136E-03    -295.405E-03     18.7313E-03
             865     2.67897E-03     151.192E-03    -106.146E+06    -198.556E+06    -87.9550E+06     5.16305E+06    -295.631E-03     591.050E-03    -295.419E-03     26.2325E-03    -295.776E-03     590.368E-03    -295.417E-03     25.0471E-03
             866     3.34889E-03     151.245E-03    -101.348E+06    -178.780E+06    -73.7002E+06     6.38073E+06    -295.612E-03     591.061E-03    -295.450E-03     33.1027E-03    -295.801E-03     590.470E-03    -295.412E-03     31.4919E-03
             867     4.01900E-03     151.311E-03    -95.2082E+06    -154.475E+06    -57.9953E+06     7.38288E+06    -295.668E-03     591.124E-03    -295.457E-03     40.3093E-03    -295.911E-03     590.649E-03    -295.384E-03     38.2001E-03
             868     4.68893E-03     151.390E-03    -89.2198E+06    -127.115E+06    -42.1503E+06     9.29411E+06    -295.690E-03     591.136E-03    -295.446E-03     47.5854E-03    -296.002E-03     590.802E-03    -295.343E-03     44.8715E-03
             869     5.35917E-03     151.480E-03    -82.6525E+06    -95.5984E+06    -25.9450E+06     11.4036E+06    -295.725E-03     591.142E-03    -295.417E-03     55.0318E-03    -296.121E-03     590.980E-03    -295.288E-03     51.6036E-03
             870     6.02940E-03     151.584E-03    -74.3429E+06    -57.9818E+06    -9.18888E+06     13.0902E+06    -295.845E-03     591.216E-03    -295.371E-03     62.6865E-03    -296.339E-03     591.267E-03    -295.225E-03     58.4283E-03
             871     6.69968E-03     151.699E-03    -66.4483E+06    -17.4488E+06     8.00056E+06     14.6041E+06    -295.829E-03     591.142E-03    -295.313E-03     70.3741E-03    -296.444E-03     591.437E-03    -295.152E-03     65.1397E-03
             872     7.37021E-03     151.827E-03    -59.8820E+06     9.09188E+06     24.6664E+06     14.5374E+06    -295.812E-03     591.071E-03    -295.259E-03     78.1762E-03    -296.553E-03     591.561E-03    -295.062E-03     71.8091E-03
             873     8.04118E-03     151.965E-03    -52.1808E+06     19.2859E+06     41.3958E+06     12.6880E+06    -295.952E-03     591.170E-03    -295.218E-03     86.0292E-03    -296.808E-03     591.789E-03    -294.964E-03     78.4327E-03
             874     8.71195E-03     152.119E-03    -44.3435E+06     26.8177E+06     58.3613E+06     11.2740E+06    -295.899E-03     591.070E-03    -295.171E-03     93.7216E-03    -296.883E-03     591.822E-03    -294.854E-03     84.8309E-03
             875     9.38394E-03     152.280E-03    -37.0652E+06     34.0603E+06     73.5130E+06     9.99062E+06    -295.674E-03     590.769E-03    -295.095E-03     101.075E-03    -296.803E-03     591.674E-03    -294.723E-03     90.8260E-03
             876     10.0549E-03     152.452E-03    -28.9506E+06     40.1567E+06     84.6764E+06     7.57782E+06    -295.447E-03     590.425E-03    -294.977E-03     107.790E-03    -296.715E-03     591.486E-03    -294.570E-03     96.2210E-03
             877     10.7276E-03     152.630E-03    -21.7124E+06     42.1124E+06     88.5400E+06     5.07575E+06    -295.169E-03     589.982E-03    -294.813E-03     113.286E-03    -296.550E-03     591.179E-03    -294.400E-03     100.569E-03
             878     11.4005E-03     152.814E-03    -15.4524E+06     48.7370E+06     89.5255E+06     3.55966E+06    -294.840E-03     589.458E-03    -294.618E-03     115.631E-03    -296.266E-03     590.742E-03    -294.219E-03     102.358E-03
             879     12.0725E-03     152.996E-03    -9.69345E+06     61.7277E+06     93.7749E+06     2.62655E+06    -294.666E-03     589.093E-03    -294.427E-03     120.104E-03    -296.215E-03     590.554E-03    -294.033E-03     105.985E-03
             880     12.7464E-03     153.191E-03    -4.96328E+06     65.0600E+06     95.8149E+06     1.55816E+06    -293.994E-03     588.235E-03    -294.241E-03     111.609E-03    -295.285E-03     589.461E-03    -293.849E-03     99.3428E-03
             881     669.200E-06     152.813E-03    -116.116E+06    -240.508E+06    -114.803E+06     1.55535E+06    -295.713E-03     591.443E-03    -295.729E-03     6.87546E-03    -295.781E-03     590.577E-03    -295.786E-03     6.60172E-03
             882     1.33902E-03     152.830E-03    -114.417E+06    -234.146E+06    -108.969E+06     2.68498E+06    -295.662E-03     591.373E-03    -295.710E-03     12.8246E-03    -295.744E-03     590.533E-03    -295.750E-03     12.3023E-03
             883     2.00874E-03     152.861E-03    -111.709E+06    -222.373E+06    -100.144E+06     3.68983E+06    -295.677E-03     591.372E-03    -295.695E-03     19.4330E-03    -295.784E-03     590.583E-03    -295.711E-03     18.6096E-03
             884     2.67855E-03     152.903E-03    -107.428E+06    -205.167E+06    -88.6871E+06     4.57968E+06    -295.679E-03     591.362E-03    -295.683E-03     26.2452E-03    -295.820E-03     590.650E-03    -295.673E-03     25.0455E-03
             885     3.34842E-03     152.956E-03    -101.939E+06    -184.924E+06    -74.5937E+06     5.95098E+06    -295.737E-03     591.411E-03    -295.674E-03     33.0216E-03    -295.919E-03     590.791E-03    -295.631E-03     31.4124E-03
             886     4.01806E-03     153.022E-03    -96.5608E+06    -162.203E+06    -59.5584E+06     7.99413E+06    -295.715E-03     591.374E-03    -295.659E-03     39.9724E-03    -295.950E-03     590.863E-03    -295.582E-03     37.8897E-03
             887     4.68820E-03     153.100E-03    -90.1040E+06    -135.034E+06    -43.2707E+06     9.62930E+06    -295.699E-03     591.326E-03    -295.627E-03     47.1483E-03    -296.001E-03     590.954E-03    -295.517E-03     44.4547E-03
             888     5.35825E-03     153.190E-03    -82.7474E+06    -102.851E+06    -26.2482E+06     10.8144E+06    -295.754E-03     591.336E-03    -295.581E-03     54.6009E-03    -296.138E-03     591.136E-03    -295.443E-03     51.1873E-03
             889     6.02851E-03     153.293E-03    -75.7012E+06    -65.3685E+06    -9.25101E+06     12.0918E+06    -295.669E-03     591.184E-03    -295.515E-03     62.2913E-03    -296.157E-03     591.198E-03    -295.357E-03     58.0413E-03
             890     6.69905E-03     153.409E-03    -68.2683E+06    -25.6971E+06     7.85477E+06     13.7809E+06    -295.554E-03     590.979E-03    -295.425E-03     70.0091E-03    -296.164E-03     591.233E-03    -295.250E-03     64.7842E-03
             891     7.37016E-03     153.535E-03    -60.0265E+06     7.23233E+06     24.3332E+06     14.9489E+06    -295.583E-03     590.911E-03    -295.328E-03     77.8249E-03    -296.317E-03     591.387E-03    -295.130E-03     71.5246E-03
             892     8.04081E-03     153.676E-03    -52.5113E+06     22.9897E+06     40.1622E+06     13.7570E+06    -295.519E-03     590.762E-03    -295.243E-03     85.8466E-03    -296.377E-03     591.398E-03    -294.999E-03     78.3144E-03
             893     8.71220E-03     153.825E-03    -45.0999E+06     28.1032E+06     56.5996E+06     11.4035E+06    -295.226E-03     590.378E-03    -295.153E-03     93.7335E-03    -296.213E-03     591.141E-03    -294.845E-03     84.8532E-03
             894     9.38362E-03     153.986E-03    -37.0361E+06     37.1285E+06     73.4028E+06     9.25336E+06    -294.827E-03     589.855E-03    -295.028E-03     101.148E-03    -295.960E-03     590.775E-03    -294.661E-03     90.9108E-03
             895     10.0570E-03     154.156E-03    -29.1101E+06     43.8030E+06     86.1940E+06     7.68547E+06    -294.488E-03     589.350E-03    -294.863E-03     107.618E-03    -295.764E-03     590.429E-03    -294.453E-03     96.0507E-03
             896     10.7296E-03     154.334E-03    -22.0098E+06     46.4617E+06     91.6549E+06     6.37550E+06    -294.279E-03     588.936E-03    -294.657E-03     112.870E-03    -295.671E-03     590.150E-03    -294.235E-03     100.173E-03
             897     11.4021E-03     154.517E-03    -16.2909E+06     52.7560E+06     92.1812E+06     4.39245E+06    -293.680E-03     588.094E-03    -294.414E-03     115.301E-03    -295.116E-03     589.393E-03    -294.006E-03     102.084E-03
             898     12.0765E-03     154.698E-03    -10.7634E+06     62.8778E+06     94.6113E+06     3.24086E+06    -293.307E-03     587.469E-03    -294.161E-03     120.180E-03    -294.854E-03     588.925E-03    -293.764E-03     106.218E-03
             899     12.7504E-03     154.890E-03    -5.37305E+06     68.4432E+06     96.9395E+06     2.27719E+06    -292.652E-03     586.567E-03    -293.915E-03     111.413E-03    -293.938E-03     587.796E-03    -293.522E-03     99.3232E-03
             900     669.614E-06     154.524E-03    -119.010E+06    -247.688E+06    -117.338E+06     1.87928E+06    -296.067E-03     592.102E-03    -296.035E-03     7.12854E-03    -296.135E-03     591.208E-03    -296.090E-03     6.82591E-03
             901     1.33870E-03     154.543E-03    -116.577E+06    -239.683E+06    -111.035E+06     2.56648E+06    -296.060E-03     592.112E-03    -296.053E-03     13.0174E-03    -296.141E-03     591.251E-03    -296.091E-03     12.4600E-03
             902     2.00804E-03     154.572E-03    -113.046E+06    -228.074E+06    -101.336E+06     3.49574E+06    -295.880E-03     591.912E-03    -296.032E-03     19.2720E-03    -295.983E-03     591.098E-03    -296.044E-03     18.4328E-03
             903     2.67793E-03     154.614E-03    -108.553E+06    -211.057E+06    -88.9063E+06     4.75094E+06    -295.815E-03     591.799E-03    -295.984E-03     25.8302E-03    -295.951E-03     591.059E-03    -295.965E-03     24.6582E-03
             904     3.34737E-03     154.668E-03    -103.483E+06    -192.186E+06    -74.6582E+06     6.21650E+06    -295.869E-03     591.817E-03    -295.948E-03     32.5416E-03    -296.047E-03     591.162E-03    -295.893E-03     30.9653E-03
             905     4.01725E-03     154.733E-03    -97.1349E+06    -169.817E+06    -59.1765E+06     7.53721E+06    -295.820E-03     591.733E-03    -295.913E-03     39.4331E-03    -296.048E-03     591.184E-03    -295.821E-03     37.3406E-03
             906     4.68713E-03     154.811E-03    -90.1232E+06    -141.656E+06    -42.9624E+06     8.78548E+06    -295.746E-03     591.602E-03    -295.856E-03     46.7018E-03    -296.038E-03     591.196E-03    -295.735E-03     44.0094E-03
             907     5.35723E-03     154.901E-03    -83.0703E+06    -110.232E+06    -25.9702E+06     10.4663E+06    -295.650E-03     591.432E-03    -295.783E-03     54.1481E-03    -296.023E-03     591.194E-03    -295.632E-03     50.7588E-03
             908     6.02756E-03     155.003E-03    -75.6760E+06    -72.9473E+06    -8.32669E+06     12.4068E+06    -295.432E-03     591.113E-03    -295.681E-03     61.6953E-03    -295.908E-03     591.085E-03    -295.508E-03     57.4767E-03
             909     6.69850E-03     155.117E-03    -68.0223E+06    -33.4278E+06     8.58957E+06     14.0421E+06    -295.259E-03     590.809E-03    -295.551E-03     69.4898E-03    -295.853E-03     591.019E-03    -295.361E-03     64.3300E-03
             910     7.36900E-03     155.244E-03    -60.6560E+06     3.14341E+06     25.0830E+06     14.9177E+06    -295.038E-03     590.441E-03    -295.403E-03     77.4958E-03    -295.766E-03     590.892E-03    -295.194E-03     71.2618E-03
             911     8.04066E-03     155.382E-03    -53.1294E+06     24.8010E+06     40.8843E+06     14.4145E+06    -294.676E-03     589.923E-03    -295.247E-03     85.6318E-03    -295.536E-03     590.563E-03    -295.001E-03     78.1756E-03
             912     8.71273E-03     155.531E-03    -45.5919E+06     32.7404E+06     56.7720E+06     12.2385E+06    -294.344E-03     589.428E-03    -295.084E-03     93.6310E-03    -295.336E-03     590.211E-03    -294.782E-03     84.8297E-03
             913     9.38553E-03     155.691E-03    -38.6487E+06     40.5666E+06     73.6540E+06     9.91511E+06    -294.050E-03     588.959E-03    -294.909E-03     101.181E-03    -295.194E-03     589.896E-03    -294.543E-03     90.9983E-03
             914     10.0576E-03     155.859E-03    -31.7963E+06     46.5370E+06     86.8775E+06     7.93818E+06    -293.716E-03     588.421E-03    -294.705E-03     107.841E-03    -295.009E-03     589.514E-03    -294.292E-03     96.3394E-03
             915     10.7310E-03     156.036E-03    -24.4546E+06     48.4523E+06     92.3306E+06     6.56338E+06    -293.152E-03     587.602E-03    -294.450E-03     113.482E-03    -294.562E-03     588.829E-03    -294.023E-03     100.862E-03
             916     11.4053E-03     156.217E-03    -17.1179E+06     55.6919E+06     93.7967E+06     5.75963E+06    -292.697E-03     586.852E-03    -294.155E-03     115.989E-03    -294.147E-03     588.168E-03    -293.742E-03     102.829E-03
             917     12.0798E-03     156.395E-03    -11.1943E+06     66.7429E+06     96.9337E+06     4.01124E+06    -292.403E-03     586.268E-03    -293.865E-03     120.382E-03    -293.972E-03     587.754E-03    -293.461E-03     106.362E-03
             918     12.7542E-03     156.591E-03    -5.29498E+06     72.2847E+06     99.5696E+06     1.77129E+06    -291.360E-03     584.940E-03    -293.579E-03     111.662E-03    -292.671E-03     586.200E-03    -293.179E-03     99.4553E-03
             919     669.015E-06     156.238E-03    -119.709E+06    -253.521E+06    -119.124E+06     786.857E+03    -296.497E-03     592.766E-03    -296.269E-03     6.94917E-03    -296.557E-03     591.847E-03    -296.323E-03     6.65767E-03
             920     1.33825E-03     156.256E-03    -117.751E+06    -245.823E+06    -112.470E+06     2.24348E+06    -296.340E-03     592.714E-03    -296.375E-03     12.7285E-03    -296.416E-03     591.826E-03    -296.410E-03     12.1725E-03
             921     2.00757E-03     156.285E-03    -114.708E+06    -233.817E+06    -102.747E+06     3.65776E+06    -296.307E-03     592.668E-03    -296.362E-03     19.0204E-03    -296.408E-03     591.830E-03    -296.370E-03     18.1720E-03
             922     2.67653E-03     156.326E-03    -110.420E+06    -217.190E+06    -90.0962E+06     4.74041E+06    -296.160E-03     592.494E-03    -296.334E-03     25.5302E-03    -296.295E-03     591.727E-03    -296.309E-03     24.3738E-03
             923     3.34639E-03     156.380E-03    -104.788E+06    -198.187E+06    -74.9923E+06     5.69403E+06    -295.932E-03     592.209E-03    -296.277E-03     32.1920E-03    -296.107E-03     591.526E-03    -296.213E-03     30.6105E-03
             924     4.01599E-03     156.445E-03    -98.3928E+06    -175.944E+06    -58.9194E+06     6.71704E+06    -295.855E-03     592.056E-03    -296.200E-03     39.1100E-03    -296.080E-03     591.477E-03    -296.097E-03     37.0158E-03
             925     4.68583E-03     156.522E-03    -91.4589E+06    -148.775E+06    -42.8993E+06     8.24368E+06    -295.744E-03     591.853E-03    -296.109E-03     46.3379E-03    -296.031E-03     591.411E-03    -295.975E-03     43.6687E-03
             926     5.35607E-03     156.611E-03    -84.1872E+06    -117.926E+06    -26.4888E+06     9.80264E+06    -295.458E-03     591.451E-03    -295.992E-03     53.6749E-03    -295.823E-03     591.174E-03    -295.832E-03     50.3148E-03
             927     6.02668E-03     156.713E-03    -76.7352E+06    -83.0151E+06    -9.61262E+06     12.1553E+06    -295.140E-03     590.983E-03    -295.843E-03     61.2383E-03    -295.601E-03     590.905E-03    -295.659E-03     57.0694E-03
             928     6.69727E-03     156.826E-03    -69.5585E+06    -41.4457E+06     7.48372E+06     14.8571E+06    -294.722E-03     590.377E-03    -295.655E-03     69.2733E-03    -295.307E-03     590.546E-03    -295.456E-03     64.1948E-03
             929     7.36920E-03     156.952E-03    -62.0974E+06    -908.155E+03     24.6350E+06     15.9052E+06    -294.228E-03     589.663E-03    -295.435E-03     77.3675E-03    -294.954E-03     590.094E-03    -295.220E-03     71.2050E-03
             930     8.04122E-03     157.088E-03    -54.8912E+06     25.0163E+06     40.3214E+06     15.3975E+06    -293.778E-03     588.978E-03    -295.200E-03     85.3666E-03    -294.641E-03     589.619E-03    -294.955E-03     77.9926E-03
             931     8.71369E-03     157.236E-03    -47.9351E+06     37.6412E+06     56.7223E+06     13.6228E+06    -293.378E-03     588.346E-03    -294.968E-03     93.3625E-03    -294.382E-03     589.149E-03    -294.669E-03     84.6917E-03
             932     9.38659E-03     157.393E-03    -39.8155E+06     44.1109E+06     74.0128E+06     11.2299E+06    -293.009E-03     587.740E-03    -294.732E-03     101.070E-03    -294.154E-03     588.686E-03    -294.368E-03     91.0591E-03
             933     10.0607E-03     157.563E-03    -32.0154E+06     49.6271E+06     88.2882E+06     9.63151E+06    -292.440E-03     586.905E-03    -294.466E-03     108.151E-03    -293.732E-03     588.004E-03    -294.050E-03     96.8338E-03
             934     10.7349E-03     157.735E-03    -25.4695E+06     52.5311E+06     95.2734E+06     7.44077E+06    -291.994E-03     586.149E-03    -294.155E-03     114.003E-03    -293.417E-03     587.392E-03    -293.718E-03     101.480E-03
             935     11.4101E-03     157.915E-03    -19.0008E+06     59.0095E+06     95.8260E+06     5.03917E+06    -291.806E-03     585.619E-03    -293.813E-03     117.019E-03    -293.281E-03     586.957E-03    -293.391E-03     103.886E-03
             936     12.0834E-03     158.097E-03    -12.0221E+06     71.4589E+06     99.0113E+06     3.12362E+06    -291.497E-03     584.983E-03    -293.485E-03     121.690E-03    -293.109E-03     586.519E-03    -293.076E-03     107.514E-03
             937     12.7599E-03     158.281E-03    -5.23942E+06     76.1760E+06     101.488E+06     1.45273E+06    -290.567E-03     583.737E-03    -293.171E-03     113.129E-03    -291.916E-03     585.045E-03    -292.766E-03     100.728E-03
             938     668.807E-06     157.952E-03    -121.902E+06    -258.661E+06    -120.865E+06     1.21962E+06    -296.795E-03     593.540E-03    -296.745E-03     6.84820E-03    -296.857E-03     592.601E-03    -296.797E-03     6.55421E-03
             939     1.33783E-03     157.970E-03    -121.011E+06    -252.159E+06    -114.955E+06     2.19614E+06    -296.635E-03     593.381E-03    -296.746E-03     12.5802E-03    -296.715E-03     592.469E-03    -296.780E-03     12.0322E-03
             940     2.00673E-03     157.999E-03    -116.976E+06    -239.619E+06    -104.827E+06     3.22995E+06    -296.614E-03     593.324E-03    -296.709E-03     18.8671E-03    -296.715E-03     592.462E-03    -296.716E-03     18.0275E-03
             941     2.67600E-03     158.040E-03    -112.108E+06    -222.740E+06    -91.8353E+06      4.5048E+06    -296.443E-03     593.113E-03    -296.670E-03     25.2264E-03    -296.575E-03     592.323E-03    -296.644E-03     24.0843E-03
             942     3.34504E-03     158.092E-03    -106.817E+06    -203.412E+06    -76.8720E+06     5.54489E+06    -296.122E-03     592.717E-03    -296.595E-03     31.8484E-03    -296.296E-03     592.012E-03    -296.529E-03     30.2858E-03
             943     4.01499E-03     158.157E-03    -100.599E+06    -181.492E+06    -60.4499E+06     6.52718E+06    -295.812E-03     592.294E-03    -296.482E-03     38.7791E-03    -296.036E-03     591.692E-03    -296.376E-03     36.7282E-03
             944     4.68491E-03     158.233E-03    -93.4457E+06    -155.498E+06    -43.7564E+06     7.71149E+06    -295.520E-03     591.859E-03    -296.338E-03     46.0069E-03    -295.804E-03     591.386E-03    -296.196E-03     43.3858E-03
             945     5.35503E-03     158.322E-03    -86.0416E+06    -126.040E+06    -27.5770E+06     9.63330E+06    -295.125E-03     591.285E-03    -296.161E-03     53.5048E-03    -295.483E-03     590.970E-03    -295.991E-03     50.1924E-03
             946     6.02575E-03     158.422E-03    -78.5344E+06    -92.9615E+06    -11.0677E+06     11.7682E+06    -294.620E-03     590.566E-03    -295.946E-03     61.2781E-03    -295.071E-03     590.441E-03    -295.753E-03     57.1704E-03
             947     6.69743E-03     158.534E-03    -70.5505E+06    -52.1101E+06     6.09281E+06     14.3695E+06    -294.029E-03     589.716E-03    -295.687E-03     69.2055E-03    -294.598E-03     589.831E-03    -295.478E-03     64.2004E-03
             948     7.36921E-03     158.657E-03    -63.0440E+06    -7.35143E+06     23.1113E+06     17.0152E+06    -293.372E-03     588.758E-03    -295.386E-03     77.2833E-03    -294.084E-03     589.153E-03    -295.168E-03     71.2588E-03
             949     8.04172E-03     158.793E-03    -55.9488E+06     25.7233E+06     39.7045E+06     16.9660E+06    -292.824E-03     587.897E-03    -295.073E-03     85.4750E-03    -293.686E-03     588.537E-03    -294.831E-03     78.2616E-03
             950     8.71519E-03     158.937E-03    -48.0635E+06     42.0493E+06     56.8785E+06     14.5840E+06    -292.401E-03     587.172E-03    -294.771E-03     93.6769E-03    -293.403E-03     587.988E-03    -294.478E-03     85.1755E-03
             951     9.38906E-03     159.096E-03    -40.1728E+06     48.0242E+06     73.6211E+06     11.9897E+06    -291.782E-03     586.248E-03    -294.466E-03     101.351E-03    -292.927E-03     587.207E-03    -294.110E-03     91.4909E-03
             952     10.0634E-03     159.259E-03    -32.2930E+06     51.0675E+06     88.2084E+06     10.1206E+06    -291.189E-03     585.328E-03    -294.139E-03     108.160E-03    -292.479E-03     586.429E-03    -293.725E-03     96.9414E-03
             953     10.7392E-03     159.434E-03    -23.9958E+06     57.4373E+06     98.5130E+06     8.86138E+06    -290.995E-03     584.781E-03    -293.786E-03     114.181E-03    -292.419E-03     586.038E-03    -293.342E-03     101.775E-03
             954     11.4133E-03     159.612E-03    -16.9317E+06     65.2268E+06     100.641E+06     6.49527E+06    -290.566E-03     583.971E-03    -293.404E-03     117.152E-03    -292.042E-03     585.326E-03    -292.971E-03     104.143E-03
             955     12.0916E-03     159.789E-03    -10.5226E+06     75.9893E+06     102.744E+06     3.82899E+06    -290.468E-03     583.502E-03    -293.034E-03     121.875E-03    -292.080E-03     585.048E-03    -292.615E-03     107.803E-03
             956     12.7658E-03     159.981E-03    -4.56708E+06     80.6539E+06     104.065E+06     1.68888E+06    -290.349E-03     583.055E-03    -292.706E-03     112.986E-03    -291.712E-03     584.387E-03    -292.296E-03     100.491E-03
             957     668.604E-06     159.668E-03    -126.478E+06    -265.944E+06    -123.928E+06     1.95248E+06    -297.068E-03     594.234E-03    -297.167E-03     6.64341E-03    -297.137E-03     593.270E-03    -297.217E-03     6.36198E-03
             958     1.33723E-03     159.685E-03    -123.035E+06    -256.409E+06    -116.794E+06     2.42269E+06    -297.033E-03     594.140E-03    -297.106E-03     12.4360E-03    -297.114E-03     593.212E-03    -297.140E-03     11.9235E-03
             959     2.00606E-03     159.715E-03    -119.635E+06    -244.669E+06    -106.918E+06     2.86604E+06    -296.781E-03     593.834E-03    -297.053E-03     18.5911E-03    -296.885E-03     592.954E-03    -297.059E-03     17.7909E-03
             960     2.67491E-03     159.755E-03    -114.998E+06    -228.818E+06    -94.2006E+06     4.08764E+06    -296.484E-03     593.439E-03    -296.956E-03     25.0681E-03    -296.618E-03     592.626E-03    -296.928E-03     23.9308E-03
             961     3.34437E-03     159.806E-03    -109.065E+06    -208.634E+06    -78.8348E+06     5.24301E+06    -296.233E-03     593.071E-03    -296.837E-03     31.8019E-03    -296.407E-03     592.345E-03    -296.771E-03     30.2793E-03
             962     4.01364E-03     159.869E-03    -102.415E+06    -186.579E+06    -62.1822E+06     6.18988E+06    -295.753E-03     592.443E-03    -296.690E-03     38.6874E-03    -295.974E-03     591.819E-03    -296.582E-03     36.6835E-03
             963     4.68388E-03     159.945E-03    -95.7148E+06    -162.210E+06    -45.5258E+06     7.57412E+06    -295.103E-03     591.589E-03    -296.486E-03     45.9335E-03    -295.384E-03     591.087E-03    -296.340E-03     43.3639E-03
             964     5.35481E-03     160.031E-03    -88.1768E+06    -133.711E+06    -28.6872E+06     8.92105E+06    -294.518E-03     590.748E-03    -296.231E-03     53.4428E-03    -294.871E-03     590.397E-03    -296.052E-03     50.2072E-03
             965     6.02611E-03     160.130E-03    -79.9836E+06    -101.577E+06    -12.1003E+06     10.6150E+06    -293.924E-03     589.860E-03    -295.936E-03     61.2249E-03    -294.363E-03     589.690E-03    -295.733E-03     57.2242E-03
             966     6.69775E-03     160.240E-03    -72.2653E+06    -63.6874E+06     4.40296E+06     13.2104E+06    -293.215E-03     588.818E-03    -295.603E-03     69.2336E-03    -293.768E-03     588.875E-03    -295.383E-03     64.3465E-03
             967     7.37041E-03     160.362E-03    -64.2040E+06    -17.3934E+06     21.9633E+06     16.2441E+06    -292.441E-03     587.669E-03    -295.228E-03     77.4230E-03    -293.135E-03     588.010E-03    -295.000E-03     71.5458E-03
             968     8.04424E-03     160.494E-03    -55.5675E+06     25.2241E+06     39.7120E+06     17.5317E+06    -291.796E-03     586.630E-03    -294.834E-03     85.7130E-03    -292.644E-03     587.255E-03    -294.592E-03     78.7186E-03
             969     8.71786E-03     160.640E-03    -48.0634E+06     45.9171E+06     56.3510E+06     16.2795E+06    -291.195E-03     585.648E-03    -294.453E-03     93.9127E-03    -292.191E-03     586.473E-03    -294.168E-03     85.6364E-03
             970     9.39257E-03     160.792E-03    -41.1581E+06     53.0822E+06     73.4053E+06     13.6654E+06    -290.739E-03     584.828E-03    -294.089E-03     101.633E-03    -291.886E-03     585.805E-03    -293.739E-03     91.9615E-03
             971     10.0683E-03     160.957E-03    -33.5091E+06     55.4711E+06     88.2833E+06     10.2234E+06    -290.586E-03     584.317E-03    -293.732E-03     108.479E-03    -291.883E-03     585.437E-03    -293.322E-03     97.3674E-03
             972     10.7429E-03     161.128E-03    -25.8627E+06     59.6021E+06     98.6420E+06     7.76378E+06    -290.176E-03     583.541E-03    -293.364E-03     114.072E-03    -291.608E-03     584.806E-03    -292.920E-03     101.708E-03
             973     11.4209E-03     161.307E-03    -17.6913E+06     70.3439E+06     103.003E+06     6.45494E+06    -289.742E-03     582.710E-03    -292.968E-03     116.507E-03    -291.231E-03     584.087E-03    -292.529E-03     103.477E-03
             974     12.0946E-03     161.482E-03    -10.9101E+06     80.8401E+06     105.738E+06     4.50825E+06    -289.937E-03     582.529E-03    -292.592E-03     121.232E-03    -291.567E-03     584.101E-03    -292.165E-03     107.077E-03
             975     12.7729E-03     161.673E-03    -5.89921E+06     85.0571E+06     106.362E+06     2.40404E+06    -290.062E-03     582.331E-03    -292.269E-03     112.560E-03    -291.445E-03     583.687E-03    -291.852E-03     100.019E-03
             976     668.459E-06     161.385E-03    -128.163E+06    -270.666E+06     -127.46E+06         964.417    -297.544E-03     594.765E-03    -297.222E-03     6.84757E-03    -297.609E-03     593.785E-03    -297.281E-03     6.56194E-03
             977     1.33679E-03     161.402E-03    -125.806E+06    -262.551E+06    -121.102E+06     1.98420E+06    -297.214E-03     594.560E-03    -297.347E-03     12.5237E-03    -297.293E-03     593.612E-03    -297.389E-03     12.0359E-03
             978     2.00533E-03     161.430E-03    -122.579E+06    -249.727E+06    -109.726E+06     3.72258E+06    -296.824E-03     594.078E-03    -297.255E-03     18.6440E-03    -296.930E-03     593.181E-03    -297.263E-03     17.8823E-03
             979     2.67464E-03     161.469E-03    -118.093E+06    -233.188E+06    -95.7727E+06     4.10608E+06    -296.407E-03     593.515E-03    -297.108E-03     25.1757E-03    -296.547E-03     592.686E-03    -297.078E-03     24.0996E-03
             980     3.34392E-03     161.520E-03    -111.788E+06    -213.471E+06    -80.3320E+06     4.61969E+06    -295.935E-03     592.858E-03    -296.923E-03     31.9989E-03    -296.112E-03     592.114E-03    -296.853E-03     30.5352E-03
             981     4.01376E-03     161.583E-03    -105.122E+06    -192.086E+06    -63.8503E+06     5.65482E+06    -295.383E-03     592.087E-03    -296.705E-03     39.0888E-03    -295.606E-03     591.441E-03    -296.593E-03     37.1384E-03
             982     4.68404E-03     161.655E-03    -97.8001E+06    -167.836E+06    -46.9416E+06     6.60068E+06    -294.716E-03     591.159E-03    -296.442E-03     46.3991E-03    -294.995E-03     590.631E-03    -296.292E-03     43.9058E-03
             983     5.35497E-03     161.741E-03    -90.2592E+06    -140.100E+06    -30.2825E+06     7.82718E+06    -293.900E-03     590.027E-03    -296.127E-03     53.7625E-03    -294.247E-03     589.645E-03    -295.945E-03     50.6472E-03
             984     6.02678E-03     161.836E-03    -83.1851E+06    -109.975E+06    -13.8936E+06     9.58977E+06    -293.076E-03     588.840E-03    -295.765E-03     61.5301E-03    -293.511E-03     588.630E-03    -295.554E-03     57.6707E-03
             985     6.69943E-03     161.945E-03    -74.9822E+06    -73.4058E+06     2.68632E+06     11.5845E+06    -292.339E-03     587.700E-03    -295.361E-03     69.5202E-03    -292.880E-03     587.707E-03    -295.132E-03     64.7915E-03
             986     7.37294E-03     162.063E-03    -66.0433E+06    -28.8215E+06     19.6011E+06     14.2421E+06    -291.662E-03     586.591E-03    -294.929E-03     77.4706E-03    -292.336E-03     586.871E-03    -294.693E-03     71.7555E-03
             987     8.04636E-03     162.196E-03    -58.0127E+06     19.4222E+06     36.8435E+06     17.1670E+06    -290.875E-03     585.354E-03    -294.479E-03     85.4973E-03    -291.711E-03     585.946E-03    -294.239E-03     78.6841E-03
             988     8.72172E-03     162.336E-03    -50.3024E+06     48.1148E+06     53.7767E+06     17.1797E+06    -290.275E-03     584.320E-03    -294.045E-03     93.2697E-03    -291.266E-03     585.147E-03    -293.773E-03     85.2021E-03
             989     9.39741E-03     162.490E-03    -42.0602E+06     58.2696E+06     72.1485E+06     14.6723E+06    -289.963E-03     583.615E-03    -293.652E-03     100.637E-03    -291.099E-03     584.600E-03    -293.315E-03     91.2014E-03
             990     10.0723E-03     162.652E-03    -34.6401E+06     63.0440E+06     89.0318E+06     11.5816E+06    -289.684E-03     582.961E-03    -293.277E-03     107.796E-03    -290.977E-03     584.097E-03    -292.873E-03     96.9357E-03
             991     10.7488E-03     162.823E-03    -26.9506E+06     64.7568E+06     100.739E+06     8.07257E+06    -289.648E-03     582.554E-03    -292.905E-03     113.863E-03    -291.086E-03     583.833E-03    -292.457E-03     101.620E-03
             992     11.4232E-03     162.997E-03    -19.7150E+06     72.7984E+06     104.149E+06     5.72877E+06    -289.717E-03     582.238E-03    -292.521E-03     116.568E-03    -291.221E-03     583.629E-03    -292.077E-03     103.533E-03
             993     12.1021E-03     163.176E-03    -12.5804E+06     84.3914E+06     107.113E+06     4.69915E+06    -289.971E-03     582.142E-03    -292.171E-03     121.199E-03    -291.622E-03     583.738E-03    -291.740E-03     106.981E-03
             994     12.7759E-03     163.364E-03    -5.15827E+06     90.3726E+06     109.181E+06     2.81878E+06    -289.449E-03     581.307E-03    -291.859E-03     112.648E-03    -290.847E-03     582.692E-03    -291.436E-03     100.050E-03
             995     668.244E-06     163.102E-03    -131.347E+06    -274.945E+06    -130.115E+06     1.83034E+06    -297.534E-03     594.661E-03    -297.127E-03     6.83385E-03    -297.605E-03     593.668E-03    -297.189E-03     6.59080E-03
             996     1.33683E-03     163.119E-03    -130.857E+06    -268.162E+06    -124.057E+06     1.97979E+06    -296.921E-03     594.173E-03    -297.252E-03     12.8652E-03    -297.013E-03     593.209E-03    -297.294E-03     12.4018E-03
             997     2.00580E-03     163.146E-03    -126.334E+06    -254.824E+06    -113.390E+06     2.33910E+06    -296.619E-03     593.715E-03    -297.097E-03     19.2960E-03    -296.731E-03     592.803E-03    -297.111E-03     18.5708E-03
             998     2.67461E-03     163.184E-03    -120.394E+06    -237.276E+06    -98.7245E+06     3.55805E+06    -296.179E-03     593.110E-03    -296.931E-03     25.9083E-03    -296.320E-03     592.268E-03    -296.906E-03     24.8816E-03
             999     3.34423E-03     163.234E-03    -114.867E+06    -218.005E+06    -82.5725E+06     4.58832E+06    -295.447E-03     592.161E-03    -296.714E-03     32.6186E-03    -295.629E-03     591.400E-03    -296.644E-03     31.2251E-03
            1000     4.01482E-03     163.293E-03    -108.154E+06    -196.300E+06    -65.3162E+06     5.11724E+06    -294.746E-03     591.182E-03    -296.437E-03     39.6392E-03    -294.973E-03     590.519E-03    -296.322E-03     37.8208E-03
            1001     4.68555E-03     163.366E-03    -100.640E+06    -171.977E+06    -48.1485E+06     5.60754E+06    -294.056E-03     590.174E-03    -296.118E-03     46.9423E-03    -294.338E-03     589.628E-03    -295.964E-03     44.5994E-03
            1002     5.35703E-03     163.447E-03    -92.9316E+06    -146.109E+06    -31.7307E+06     6.56112E+06    -293.251E-03     589.011E-03    -295.760E-03     54.5391E-03    -293.598E-03     588.601E-03    -295.572E-03     51.5606E-03
            1003     6.02933E-03     163.542E-03    -84.3426E+06    -116.511E+06    -14.9956E+06     7.98477E+06    -292.457E-03     587.820E-03    -295.363E-03     62.1473E-03    -292.881E-03     587.575E-03    -295.147E-03     58.4434E-03
            1004     6.70259E-03     163.646E-03    -75.4650E+06    -81.9906E+06     1.48375E+06     10.0732E+06    -291.738E-03     586.675E-03    -294.936E-03     69.7790E-03    -292.259E-03     586.632E-03    -294.701E-03     65.2418E-03
            1005     7.37581E-03     163.766E-03    -67.2282E+06    -39.6220E+06     18.2701E+06     12.7959E+06    -290.998E-03     585.484E-03    -294.486E-03     77.6254E-03    -291.649E-03     585.703E-03    -294.240E-03     72.1110E-03
            1006     8.05078E-03     163.892E-03    -58.8329E+06     9.51311E+06     35.8031E+06     15.3627E+06    -290.367E-03     584.388E-03    -294.021E-03     85.5127E-03    -291.178E-03     584.921E-03    -293.771E-03     78.8841E-03
            1007     8.72542E-03     164.034E-03    -49.8717E+06     47.1467E+06     52.6822E+06     16.8707E+06    -289.886E-03     583.458E-03    -293.572E-03     93.2374E-03    -290.858E-03     584.267E-03    -293.304E-03     85.3771E-03
            1008     9.40015E-03     164.184E-03    -42.2790E+06     62.5321E+06     69.6635E+06     15.7191E+06    -289.356E-03     582.518E-03    -293.162E-03     100.723E-03    -290.483E-03     583.515E-03    -292.843E-03     91.4879E-03
            1009     10.0773E-03     164.345E-03    -34.1483E+06     69.2497E+06     88.9983E+06     13.0011E+06    -289.047E-03     581.832E-03    -292.785E-03     107.733E-03    -290.329E-03     582.980E-03    -292.390E-03     97.1078E-03
            1010     10.7538E-03     164.513E-03    -26.2504E+06     72.1064E+06     103.432E+06     9.91865E+06    -289.241E-03     581.662E-03    -292.421E-03     113.608E-03    -290.668E-03     582.952E-03    -291.970E-03     101.613E-03
            1011     11.4316E-03     164.692E-03    -19.6064E+06     76.4428E+06     107.057E+06     6.90299E+06    -289.645E-03     581.703E-03    -292.058E-03     116.583E-03    -291.147E-03     583.097E-03    -291.605E-03     103.676E-03
            1012     12.1047E-03     164.865E-03    -12.9261E+06     89.1208E+06     110.375E+06     4.29909E+06    -289.812E-03     581.540E-03    -291.728E-03     121.927E-03    -291.494E-03     583.173E-03    -291.287E-03     107.601E-03
            1013     12.7830E-03     165.058E-03    -5.94015E+06     95.8011E+06     111.733E+06     2.02579E+06    -289.044E-03     580.464E-03    -291.421E-03     113.304E-03    -290.486E-03     581.902E-03    -290.992E-03     100.449E-03
            1014     668.678E-06     164.819E-03    -137.518E+06    -281.321E+06    -136.076E+06     1.09085E+06    -296.463E-03     593.344E-03    -296.881E-03     7.09844E-03    -296.547E-03     592.336E-03    -296.954E-03     6.86629E-03
            1015     1.33772E-03     164.834E-03    -133.528E+06    -270.852E+06    -127.047E+06     1.67777E+06    -296.351E-03     592.964E-03    -296.613E-03     13.3386E-03    -296.447E-03     591.994E-03    -296.662E-03     12.8948E-03
            1016     2.00698E-03     164.861E-03    -130.086E+06    -257.991E+06    -116.225E+06     2.01837E+06    -295.963E-03     592.433E-03    -296.470E-03     19.9388E-03    -296.084E-03     591.513E-03    -296.488E-03     19.2965E-03
            1017     2.67660E-03     164.898E-03    -125.073E+06    -242.038E+06    -102.173E+06     2.51472E+06    -295.429E-03     591.713E-03    -296.285E-03     26.7750E-03    -295.580E-03     590.858E-03    -296.263E-03     25.8412E-03
            1018     3.34674E-03     164.945E-03    -118.088E+06    -221.535E+06    -85.3478E+06     3.14429E+06    -294.890E-03     590.949E-03    -296.059E-03     33.7118E-03    -295.077E-03     590.178E-03    -295.993E-03     32.4338E-03
            1019     4.01692E-03     165.004E-03    -110.690E+06    -199.607E+06    -67.7043E+06     3.78567E+06    -294.142E-03     589.933E-03    -295.790E-03     40.6679E-03    -294.372E-03     589.257E-03    -295.679E-03     38.9718E-03
            1020     4.68856E-03     165.072E-03    -102.874E+06    -175.568E+06    -49.8926E+06     4.57668E+06    -293.269E-03     588.733E-03    -295.464E-03     47.7725E-03    -293.551E-03     588.171E-03    -295.310E-03     45.5916E-03
            1021     5.36074E-03     165.154E-03    -94.6033E+06    -149.805E+06    -32.4813E+06     5.08553E+06    -292.623E-03     587.721E-03    -295.098E-03     55.1158E-03    -292.965E-03     587.290E-03    -294.906E-03     52.3384E-03
            1022     6.03345E-03     165.244E-03    -85.9096E+06    -122.112E+06    -15.9113E+06     6.05534E+06    -292.012E-03     586.725E-03    -294.713E-03     62.6430E-03    -292.427E-03     586.448E-03    -294.491E-03     59.1382E-03
            1023     6.70616E-03     165.349E-03    -77.6764E+06    -89.6520E+06     390.737E+03     7.70654E+06    -291.228E-03     585.532E-03    -294.304E-03     70.4041E-03    -291.739E-03     585.448E-03    -294.059E-03     66.0591E-03
            1024     7.38087E-03     165.462E-03    -68.7602E+06    -49.1504E+06     17.1908E+06     9.77857E+06    -290.622E-03     584.491E-03    -293.868E-03     78.1941E-03    -291.253E-03     584.653E-03    -293.612E-03     72.9098E-03
            1025     8.05517E-03     165.591E-03    -59.6243E+06    -3.03604E+06     33.9404E+06     13.5846E+06    -290.104E-03     583.528E-03    -293.424E-03     85.8128E-03    -290.884E-03     583.987E-03    -293.163E-03     79.4418E-03
            1026     8.73039E-03     165.728E-03    -52.0646E+06     42.3341E+06     50.4586E+06     16.3757E+06    -289.358E-03     582.334E-03    -292.976E-03     93.6487E-03    -290.317E-03     583.112E-03    -292.709E-03     86.0186E-03
            1027     9.40740E-03     165.878E-03    -43.8028E+06     66.3206E+06     67.2377E+06     15.5076E+06    -289.094E-03     581.656E-03    -292.562E-03     101.269E-03    -290.215E-03     582.661E-03    -292.258E-03     92.2731E-03
            1028     10.0829E-03     166.035E-03    -35.3166E+06     73.4806E+06     86.7425E+06     13.1528E+06    -289.292E-03     581.511E-03    -292.219E-03     107.937E-03    -290.568E-03     582.671E-03    -291.841E-03     97.4865E-03
            1029     10.7590E-03     166.206E-03    -27.3156E+06     78.4760E+06     103.653E+06     10.5955E+06    -289.260E-03     581.167E-03    -291.907E-03     113.624E-03    -290.689E-03     582.477E-03    -291.462E-03     101.761E-03
            1030     11.4343E-03     166.380E-03    -19.2118E+06     82.7778E+06     110.300E+06     7.75169E+06    -289.069E-03     580.639E-03    -291.570E-03     116.884E-03    -290.577E-03     582.053E-03    -291.110E-03     104.091E-03
            1031     12.1136E-03     166.559E-03    -12.3931E+06     94.7766E+06     114.654E+06     4.76407E+06    -289.251E-03     580.491E-03    -291.240E-03     122.340E-03    -290.945E-03     582.145E-03    -290.787E-03     108.060E-03
            1032     12.7886E-03     166.743E-03    -6.21223E+06     100.989E+06     114.455E+06     2.09098E+06    -289.286E-03     580.230E-03    -290.944E-03     113.561E-03    -290.752E-03     581.700E-03    -290.509E-03     100.589E-03
            1033     669.778E-06     166.532E-03    -142.307E+06    -283.641E+06    -139.194E+06    -164.064E+03    -295.245E-03     590.950E-03    -295.705E-03     7.36129E-03    -295.346E-03     589.942E-03    -295.783E-03     7.15880E-03
            1034     1.33934E-03     166.547E-03    -139.035E+06    -274.588E+06    -132.475E+06     659.544E+03    -295.276E-03     590.713E-03    -295.437E-03     13.8435E-03    -295.387E-03     589.739E-03    -295.499E-03     13.4746E-03
            1035     2.00896E-03     166.573E-03    -134.395E+06    -260.820E+06    -120.065E+06     1.70385E+06    -294.905E-03     590.239E-03    -295.334E-03     20.5945E-03    -295.037E-03     589.316E-03    -295.362E-03     20.0369E-03
            1036     2.67962E-03     166.607E-03    -128.693E+06    -243.652E+06    -104.764E+06     1.76949E+06    -294.379E-03     589.551E-03    -295.171E-03     27.3834E-03    -294.541E-03     588.694E-03    -295.155E-03     26.5761E-03
            1037     3.35029E-03     166.655E-03    -121.878E+06    -223.699E+06    -88.1279E+06     1.69888E+06    -293.853E-03     588.811E-03    -294.958E-03     34.5467E-03    -294.049E-03     588.036E-03    -294.897E-03     33.4213E-03
            1038     4.02175E-03     166.711E-03    -114.160E+06    -202.088E+06    -70.3218E+06     1.97074E+06    -293.314E-03     588.027E-03    -294.713E-03     41.6783E-03    -293.550E-03     587.344E-03    -294.606E-03     40.1502E-03
            1039     4.69331E-03     166.778E-03    -105.801E+06    -178.114E+06    -52.0809E+06     2.38315E+06    -292.737E-03     587.176E-03    -294.439E-03     48.8469E-03    -293.022E-03     586.604E-03    -294.288E-03     46.8476E-03
            1040     5.36574E-03     166.856E-03    -97.0882E+06    -152.916E+06    -34.0693E+06     3.31410E+06    -292.071E-03     586.203E-03    -294.132E-03     56.1894E-03    -292.412E-03     585.756E-03    -293.940E-03     53.6215E-03
            1041     6.03848E-03     166.947E-03    -89.1174E+06    -126.384E+06    -17.0815E+06     4.11388E+06    -291.382E-03     585.170E-03    -293.789E-03     63.7590E-03    -291.797E-03     584.870E-03    -293.562E-03     60.4765E-03
            1042     6.71295E-03     167.047E-03    -80.1134E+06    -95.1319E+06    -744.530E+03     4.93886E+06    -290.945E-03     584.366E-03    -293.421E-03     71.3883E-03    -291.447E-03     584.248E-03    -293.170E-03     67.2853E-03
            1043     7.38669E-03     167.161E-03    -71.4480E+06    -59.4354E+06     14.7020E+06     7.72678E+06    -290.486E-03     583.528E-03    -293.042E-03     79.0212E-03    -291.099E-03     583.634E-03    -292.778E-03     73.9887E-03
            1044     8.06141E-03     167.286E-03    -63.8466E+06    -16.0770E+06     30.2245E+06     11.4859E+06    -289.797E-03     582.440E-03    -292.643E-03     86.6631E-03    -290.559E-03     582.830E-03    -292.376E-03     80.5392E-03
            1045     8.73730E-03     167.421E-03    -54.5999E+06     36.1492E+06     48.0280E+06     14.0962E+06    -289.531E-03     581.770E-03    -292.239E-03     94.0080E-03    -290.470E-03     582.504E-03    -291.972E-03     86.6415E-03
            1046     9.41271E-03     167.568E-03    -45.6789E+06     68.1612E+06     64.8350E+06     14.4752E+06    -289.549E-03     581.434E-03    -291.885E-03     100.884E-03    -290.656E-03     582.433E-03    -291.594E-03     92.1184E-03
            1047     10.0890E-03     167.729E-03    -37.8655E+06     77.7469E+06     83.7706E+06     12.5052E+06    -289.290E-03     580.889E-03    -291.598E-03     107.657E-03    -290.563E-03     582.060E-03    -291.237E-03     97.3815E-03
            1048     10.7650E-03     167.895E-03    -29.3271E+06     84.3439E+06     102.852E+06     9.44916E+06    -289.102E-03     580.428E-03    -291.326E-03     114.300E-03    -290.545E-03     581.768E-03    -290.891E-03     102.512E-03
            1049     11.4427E-03     168.071E-03    -20.7519E+06     88.2585E+06     111.503E+06     6.47493E+06    -289.202E-03     580.231E-03    -291.029E-03     117.536E-03    -290.733E-03     581.679E-03    -290.570E-03     104.694E-03
            1050     12.1179E-03     168.243E-03    -12.7726E+06     99.1420E+06     117.105E+06     4.76147E+06    -289.528E-03     580.277E-03    -290.749E-03     121.784E-03    -291.236E-03     581.952E-03    -290.289E-03     107.404E-03
            1051     12.7957E-03     168.437E-03    -5.92136E+06     106.594E+06     117.456E+06     2.88742E+06    -289.659E-03     580.159E-03    -290.500E-03     112.776E-03    -291.135E-03     581.653E-03    -290.059E-03     99.7212E-03
            1052     670.447E-06     168.240E-03    -146.056E+06    -284.508E+06    -145.622E+06     531.049E+03    -293.864E-03     587.474E-03    -293.609E-03     7.92584E-03    -293.973E-03     586.476E-03    -293.713E-03     7.78499E-03
            1053     1.34144E-03     168.255E-03    -144.201E+06    -275.838E+06    -136.958E+06     148.382E+03    -293.636E-03     587.355E-03    -293.719E-03     14.5180E-03    -293.764E-03     586.389E-03    -293.795E-03     14.2381E-03
            1054     2.01283E-03     168.280E-03    -139.013E+06    -262.054E+06    -124.476E+06    -194.585E+03    -293.422E-03     587.086E-03    -293.664E-03     21.5049E-03    -293.568E-03     586.169E-03    -293.705E-03     21.0308E-03
            1055     2.68348E-03     168.314E-03    -132.676E+06    -244.514E+06    -108.899E+06     152.594E+03    -293.125E-03     586.696E-03    -293.571E-03     28.5299E-03    -293.298E-03     585.845E-03    -293.569E-03     27.8355E-03
            1056     3.35533E-03     168.358E-03    -126.236E+06    -224.263E+06    -91.3654E+06     422.617E+03    -292.589E-03     586.017E-03    -293.427E-03     35.6226E-03    -292.799E-03     585.247E-03    -293.376E-03     34.6560E-03
            1057     4.02751E-03     168.414E-03    -118.201E+06    -202.461E+06    -72.5311E+06     211.628E+03    -292.201E-03     585.441E-03    -293.239E-03     42.8341E-03    -292.449E-03     584.761E-03    -293.137E-03     41.5203E-03
            1058     4.70003E-03     168.480E-03    -109.386E+06    -179.533E+06    -53.9715E+06     145.066E+03    -291.910E-03     584.944E-03    -293.034E-03     50.2293E-03    -292.202E-03     584.367E-03    -292.885E-03     48.4350E-03
            1059     5.37260E-03     168.557E-03    -100.947E+06    -155.619E+06    -36.4395E+06     484.429E+03    -291.429E-03     584.233E-03    -292.805E-03     57.7428E-03    -291.776E-03     583.776E-03    -292.615E-03     55.3633E-03
            1060     6.04675E-03     168.644E-03    -91.1567E+06    -128.791E+06    -18.9674E+06     1.08880E+06    -291.107E-03     583.657E-03    -292.550E-03     65.1147E-03    -291.517E-03     583.341E-03    -292.326E-03     62.0677E-03
            1061     6.72006E-03     168.745E-03    -81.9861E+06    -100.766E+06    -2.88857E+06     2.76694E+06    -290.883E-03     583.168E-03    -292.285E-03     72.4997E-03    -291.373E-03     583.017E-03    -292.034E-03     68.6505E-03
            1062     7.39433E-03     168.857E-03    -73.5262E+06    -68.6019E+06     12.4870E+06     4.91396E+06    -290.406E-03     582.408E-03    -292.002E-03     79.7824E-03    -291.002E-03     582.463E-03    -291.733E-03     74.9581E-03
            1063     8.06991E-03     168.978E-03    -63.0999E+06    -25.8639E+06     29.4220E+06       7.274E+06    -290.203E-03     581.905E-03    -291.702E-03     86.9423E-03    -290.930E-03     582.231E-03    -291.426E-03     81.0272E-03
            1064     8.74492E-03     169.115E-03    -53.2882E+06     25.1597E+06     46.7260E+06     11.4489E+06    -290.240E-03     581.648E-03    -291.408E-03     94.1199E-03    -291.133E-03     582.306E-03    -291.133E-03     87.0209E-03
            1065     9.41958E-03     169.262E-03    -45.4112E+06     66.9671E+06     63.2276E+06     13.9828E+06    -289.848E-03     580.981E-03    -291.132E-03     101.408E-03    -290.933E-03     581.958E-03    -290.847E-03     92.8879E-03
            1066     10.0952E-03     169.417E-03    -37.3718E+06     83.2763E+06     81.8351E+06     12.3286E+06    -289.430E-03     580.323E-03    -290.893E-03     108.405E-03    -290.691E-03     581.510E-03    -290.551E-03     98.3227E-03
            1067     10.7725E-03     169.584E-03    -29.3629E+06     90.0964E+06     101.837E+06     9.49315E+06    -289.465E-03     580.147E-03    -290.682E-03     114.215E-03    -290.898E-03     581.500E-03    -290.260E-03     102.571E-03
            1068     11.4482E-03     169.759E-03    -21.6331E+06     95.0596E+06     113.048E+06     6.23599E+06    -289.803E-03     580.267E-03    -290.464E-03     117.336E-03    -291.342E-03     581.739E-03    -290.005E-03     104.527E-03
            1069     12.1245E-03     169.937E-03    -14.0858E+06     102.625E+06     118.610E+06     3.40625E+06    -290.247E-03     580.504E-03    -290.257E-03     122.511E-03    -291.986E-03     582.213E-03    -289.792E-03     107.963E-03
            1070     12.7990E-03     170.121E-03    -6.44631E+06     110.724E+06     119.183E+06     2.32253E+06    -290.125E-03     580.186E-03    -290.062E-03     114.265E-03    -291.631E-03     581.718E-03    -289.617E-03     101.096E-03
            1071     672.830E-06     169.942E-03    -152.820E+06    -283.983E+06    -150.406E+06    -730.680E+03    -291.528E-03     582.796E-03    -291.267E-03     8.60006E-03    -291.664E-03     581.817E-03    -291.386E-03     8.47260E-03
            1072     1.34467E-03     169.956E-03    -148.204E+06    -274.634E+06    -141.713E+06    -644.922E+03    -291.499E-03     582.916E-03    -291.418E-03     15.2758E-03    -291.641E-03     581.968E-03    -291.513E-03     15.0717E-03
            1073     2.01667E-03     169.980E-03    -144.267E+06    -260.790E+06    -128.839E+06    -872.057E+03    -291.353E-03     582.782E-03    -291.430E-03     22.8296E-03    -291.520E-03     581.885E-03    -291.487E-03     22.4753E-03
            1074     2.68973E-03     170.015E-03    -138.409E+06    -243.585E+06    -112.685E+06    -1.63133E+06    -291.331E-03     582.739E-03    -291.409E-03     30.2823E-03    -291.526E-03     581.905E-03    -291.418E-03     29.7212E-03
            1075     3.36204E-03     170.058E-03    -130.344E+06    -223.289E+06    -94.3559E+06    -2.22788E+06    -291.324E-03     582.708E-03    -291.384E-03     37.5168E-03    -291.549E-03     581.950E-03    -291.343E-03     36.6876E-03
            1076     4.03500E-03     170.113E-03    -121.809E+06    -201.751E+06    -75.3365E+06    -2.28288E+06    -291.091E-03     582.423E-03    -291.333E-03     44.8169E-03    -291.351E-03     581.753E-03    -291.240E-03     43.6463E-03
            1077     4.70828E-03     170.178E-03    -113.474E+06    -178.911E+06    -56.7547E+06    -2.53356E+06    -290.853E-03     582.092E-03    -291.239E-03     52.0050E-03    -291.158E-03     581.523E-03    -291.099E-03     50.3881E-03
            1078     5.38238E-03     170.253E-03    -103.737E+06    -155.298E+06    -38.5213E+06    -3.04299E+06    -290.960E-03     582.091E-03    -291.131E-03     59.2423E-03    -291.312E-03     581.635E-03    -290.948E-03     57.0672E-03
            1079     6.05537E-03     170.341E-03    -94.2883E+06    -131.286E+06    -21.7980E+06    -2.38023E+06    -291.053E-03     582.079E-03    -291.026E-03     66.5905E-03    -291.463E-03     581.752E-03    -290.808E-03     63.7486E-03
            1080     6.72941E-03     170.441E-03    -85.3824E+06    -105.045E+06    -5.92364E+06    -1.39705E+06    -290.865E-03     581.770E-03    -290.905E-03     73.8234E-03    -291.352E-03     581.598E-03    -290.658E-03     70.1692E-03
            1081     7.40418E-03     170.550E-03    -74.8377E+06    -73.5232E+06     10.4158E+06    -468.424E+03    -290.921E-03     581.686E-03    -290.765E-03     80.7475E-03    -291.499E-03     581.708E-03    -290.498E-03     76.1396E-03
            1082     8.07778E-03     170.673E-03    -65.1004E+06    -36.2317E+06     26.1288E+06     2.52650E+06    -291.042E-03     581.662E-03    -290.620E-03     87.9363E-03    -291.742E-03     581.927E-03    -290.343E-03     82.2559E-03
            1083     8.75184E-03     170.808E-03    -56.6720E+06     10.0664E+06     41.6310E+06     7.17761E+06    -290.576E-03     581.024E-03    -290.448E-03     95.2148E-03    -291.443E-03     581.605E-03    -290.172E-03     88.3028E-03
            1084     9.42820E-03     170.952E-03    -47.5791E+06     61.3732E+06     58.8287E+06     11.0071E+06    -290.116E-03     580.360E-03    -290.244E-03     102.042E-03    -291.176E-03     581.298E-03    -289.970E-03     93.7570E-03
            1085     10.1046E-03     171.108E-03    -38.9094E+06     87.3675E+06     77.2153E+06     11.4240E+06    -290.306E-03     580.387E-03    -290.081E-03     108.648E-03    -291.551E-03     581.580E-03    -289.765E-03     98.8091E-03
            1086     10.7789E-03     171.274E-03    -30.2698E+06     95.8205E+06     98.2533E+06     8.94387E+06    -290.530E-03     580.507E-03    -289.978E-03     114.670E-03    -291.955E-03     581.881E-03    -289.581E-03     103.166E-03
            1087     11.4548E-03     171.449E-03    -21.3562E+06     101.850E+06     114.265E+06     6.29085E+06    -290.241E-03     580.102E-03    -289.862E-03     118.122E-03    -291.783E-03     581.599E-03    -289.407E-03     105.415E-03
            1088     12.1310E-03     171.624E-03    -13.6063E+06     107.890E+06     122.312E+06     3.84126E+06    -290.563E-03     580.280E-03    -289.718E-03     123.805E-03    -292.311E-03     582.009E-03    -289.243E-03     109.336E-03
            1089     12.8075E-03     171.815E-03    -6.91339E+06     114.396E+06     121.702E+06     1.51901E+06    -291.149E-03     580.728E-03    -289.579E-03     115.234E-03    -292.678E-03     582.286E-03    -289.127E-03     101.951E-03
            1090     673.784E-06     171.634E-03    -156.312E+06    -281.138E+06    -154.745E+06    -274.471E+03    -288.472E-03     577.166E-03    -288.694E-03     9.00087E-03    -288.624E-03     576.213E-03    -288.833E-03     8.88840E-03
            1091     1.34842E-03     171.649E-03    -154.603E+06    -272.224E+06    -145.790E+06    -1.23371E+06    -288.625E-03     577.218E-03    -288.593E-03     16.3786E-03    -288.796E-03     576.296E-03    -288.703E-03     16.2460E-03
            1092     2.02296E-03     171.673E-03    -148.600E+06    -257.625E+06    -132.269E+06    -2.27461E+06    -288.923E-03     577.572E-03    -288.649E-03     24.1411E-03    -289.111E-03     576.700E-03    -288.721E-03     23.8834E-03
            1093     2.69680E-03     171.707E-03    -141.945E+06    -239.664E+06    -115.394E+06    -3.22473E+06    -289.154E-03     577.897E-03    -288.743E-03     31.8925E-03    -289.368E-03     577.090E-03    -288.766E-03     31.4471E-03
            1094     3.37113E-03     171.752E-03    -134.427E+06    -219.797E+06    -96.8038E+06    -4.25265E+06    -289.538E-03     578.387E-03    -288.848E-03     39.5440E-03    -289.783E-03     577.654E-03    -288.819E-03     38.8391E-03
            1095     4.04465E-03     171.806E-03    -126.199E+06    -198.683E+06    -77.9505E+06    -5.45679E+06    -289.875E-03     578.835E-03    -288.960E-03     47.0076E-03    -290.155E-03     578.187E-03    -288.879E-03     45.9548E-03
            1096     4.71881E-03     171.870E-03    -116.434E+06    -175.967E+06    -59.0060E+06    -6.25113E+06    -290.218E-03     579.280E-03    -289.062E-03     54.2658E-03    -290.535E-03     578.730E-03    -288.933E-03     52.7853E-03
            1097     5.39229E-03     171.947E-03    -107.035E+06    -153.841E+06    -40.9066E+06    -6.26915E+06    -290.605E-03     579.761E-03    -289.156E-03     61.4376E-03    -290.966E-03     579.315E-03    -288.983E-03     59.4374E-03
            1098     6.06644E-03     172.035E-03    -98.0087E+06    -130.916E+06    -24.1706E+06    -6.67297E+06    -290.871E-03     580.104E-03    -289.233E-03     68.5638E-03    -291.290E-03     579.781E-03    -289.022E-03     65.8880E-03
            1099     6.74060E-03     172.132E-03    -87.4612E+06    -105.765E+06    -8.10384E+06     -6.6569E+06    -291.224E-03     580.513E-03    -289.290E-03     75.5065E-03    -291.706E-03     580.334E-03    -289.050E-03     72.0435E-03
            1100     7.41391E-03     172.244E-03    -78.2269E+06    -77.5317E+06     6.82827E+06    -5.19206E+06    -291.539E-03     580.869E-03    -289.330E-03     82.5951E-03    -292.110E-03     580.868E-03    -289.070E-03     78.2246E-03
            1101     8.08821E-03     172.366E-03    -69.3197E+06    -46.3515E+06     21.0884E+06    -2.48949E+06    -291.471E-03     580.811E-03    -289.341E-03     89.7178E-03    -292.156E-03     581.025E-03    -289.067E-03     84.2740E-03
            1102     8.76349E-03     172.499E-03    -58.8855E+06    -2.63389E+06     36.8137E+06     1.39713E+06    -291.336E-03     580.639E-03    -289.304E-03     96.4528E-03    -292.169E-03     581.147E-03    -289.030E-03     89.7817E-03
            1103     9.43752E-03     172.642E-03    -49.0121E+06     49.8395E+06     53.7171E+06     6.03594E+06    -291.388E-03     580.629E-03    -289.241E-03     102.800E-03    -292.410E-03     581.498E-03    -288.973E-03     94.7266E-03
            1104     10.1116E-03     172.798E-03    -39.7633E+06     86.7540E+06     71.7395E+06     8.70626E+06    -291.356E-03     580.553E-03    -289.197E-03     109.230E-03    -292.573E-03     581.729E-03    -288.906E-03     99.6148E-03
            1105     10.7876E-03     172.965E-03    -31.1244E+06     102.630E+06     93.1800E+06     7.12711E+06    -291.156E-03     580.343E-03    -289.186E-03     115.393E-03    -292.574E-03     581.744E-03    -288.824E-03     104.035E-03
            1106     11.4629E-03     173.137E-03    -22.7028E+06     106.563E+06     113.102E+06     4.05532E+06    -291.160E-03     580.339E-03    -289.179E-03     118.739E-03    -292.710E-03     581.860E-03    -288.736E-03     106.026E-03
            1107     12.1384E-03     173.312E-03    -13.9776E+06     111.905E+06     124.599E+06     2.66854E+06    -291.870E-03     581.020E-03    -289.150E-03     124.230E-03    -293.644E-03     582.780E-03    -288.669E-03     109.570E-03
            1108     12.8129E-03     173.505E-03    -6.43147E+06     117.053E+06     124.420E+06     1.82371E+06    -292.551E-03     581.667E-03    -289.116E-03     115.220E-03    -294.098E-03     583.247E-03    -288.654E-03     101.762E-03
            1109     676.552E-06     173.315E-03    -160.307E+06    -277.662E+06    -158.276E+06    -1.17970E+06    -285.210E-03     570.410E-03    -285.200E-03     9.79345E-03    -285.381E-03     569.485E-03    -285.357E-03     9.70045E-03
            1110     1.35323E-03     173.331E-03    -156.150E+06    -266.971E+06    -148.263E+06    -2.29688E+06    -285.606E-03     570.887E-03    -285.281E-03     17.6837E-03    -285.789E-03     569.997E-03    -285.409E-03     17.5524E-03
            1111     2.02899E-03     173.357E-03    -151.084E+06    -252.576E+06    -134.254E+06    -3.49402E+06    -286.178E-03     571.654E-03    -285.476E-03     25.5549E-03    -286.382E-03     570.813E-03    -285.562E-03     25.3431E-03
            1112     2.70505E-03     173.391E-03    -144.343E+06    -234.154E+06    -116.814E+06    -4.71884E+06    -286.770E-03     572.486E-03    -285.715E-03     33.6268E-03    -287.000E-03     571.710E-03    -285.751E-03     33.2560E-03
            1113     3.38051E-03     173.437E-03    -136.764E+06    -213.790E+06    -97.6621E+06    -6.11592E+06    -287.416E-03     573.386E-03    -285.969E-03     41.5164E-03    -287.678E-03     572.685E-03    -285.949E-03     40.9104E-03
            1114     4.05629E-03     173.492E-03    -127.952E+06    -192.075E+06    -78.1619E+06    -7.65062E+06    -288.382E-03     574.631E-03    -286.249E-03     49.1076E-03    -288.676E-03     574.015E-03    -286.175E-03     48.1838E-03
            1115     4.73056E-03     173.559E-03    -119.014E+06    -170.971E+06    -59.4105E+06    -9.07465E+06    -289.406E-03     575.969E-03    -286.563E-03     56.7809E-03    -289.738E-03     575.443E-03    -286.439E-03     55.4394E-03
            1116     5.40493E-03     173.636E-03    -109.610E+06    -150.252E+06    -41.7783E+06    -10.2841E+06    -290.173E-03     577.052E-03    -286.879E-03     64.0899E-03    -290.546E-03     576.623E-03    -286.711E-03     62.2241E-03
            1117     6.07912E-03     173.724E-03    -99.0679E+06    -127.093E+06    -25.0328E+06    -10.8659E+06    -290.926E-03     578.097E-03    -287.171E-03     71.0233E-03    -291.347E-03     577.788E-03    -286.968E-03     68.5192E-03
            1118     6.75254E-03     173.825E-03    -89.8022E+06    -104.983E+06    -9.95415E+06    -10.8962E+06    -291.612E-03     579.055E-03    -287.443E-03     77.9106E-03    -292.095E-03     578.875E-03    -287.210E-03     74.6457E-03
            1119     7.42664E-03     173.935E-03    -80.1836E+06    -79.9099E+06     4.42130E+06    -10.3166E+06    -291.978E-03     579.655E-03    -287.677E-03     84.7249E-03    -292.540E-03     579.636E-03    -287.423E-03     80.5614E-03
            1120     8.10053E-03     174.057E-03    -69.6747E+06    -51.8413E+06     18.8509E+06    -9.03519E+06    -292.274E-03     580.142E-03    -287.868E-03     91.1205E-03    -292.934E-03     580.316E-03    -287.597E-03     85.8659E-03
            1121     8.77375E-03     174.189E-03    -59.4283E+06    -13.3606E+06     33.8151E+06    -6.12483E+06    -292.531E-03     580.546E-03    -288.015E-03     97.4629E-03    -293.325E-03     580.983E-03    -287.740E-03     91.0111E-03
            1122     9.44792E-03     174.335E-03    -49.0678E+06     32.6977E+06     50.2003E+06    -237.320E+03    -292.627E-03     580.754E-03    -288.126E-03     104.185E-03    -293.595E-03     581.518E-03    -287.852E-03     96.3769E-03
            1123     10.1223E-03     174.489E-03    -39.6268E+06     81.6678E+06     67.2476E+06     4.78396E+06    -292.504E-03     580.707E-03    -288.203E-03     110.663E-03    -293.688E-03     581.845E-03    -287.928E-03     101.259E-03
            1124     10.7963E-03     174.654E-03    -30.8999E+06     109.428E+06     87.6788E+06     4.60189E+06    -292.505E-03     580.806E-03    -288.300E-03     116.215E-03    -293.904E-03     582.229E-03    -287.976E-03     105.026E-03
            1125     11.4714E-03     174.827E-03    -22.5830E+06     109.873E+06     109.853E+06     2.79057E+06    -293.132E-03     581.584E-03    -288.452E-03     118.945E-03    -294.663E-03     583.107E-03    -288.029E-03     106.336E-03
            1126     12.1448E-03     175.005E-03    -14.9187E+06     114.485E+06     124.959E+06     1.56592E+06    -293.873E-03     582.464E-03    -288.591E-03     124.307E-03    -295.656E-03     584.238E-03    -288.111E-03     109.545E-03
            1127     12.8179E-03     175.197E-03    -6.60810E+06     118.565E+06     127.218E+06     961.722E+03    -293.786E-03     582.469E-03    -288.683E-03     116.074E-03    -295.344E-03     584.055E-03    -288.209E-03     102.581E-03
            1128     679.576E-06     174.985E-03    -160.781E+06    -271.148E+06    -157.634E+06    -1.72162E+06    -282.154E-03     563.296E-03    -281.143E-03     10.2501E-03    -282.337E-03     562.403E-03    -281.305E-03     10.2017E-03
            1129     1.35760E-03     175.002E-03    -156.213E+06    -260.998E+06    -148.299E+06    -2.91851E+06    -282.371E-03     564.155E-03    -281.784E-03     18.4300E-03    -282.562E-03     563.294E-03    -281.920E-03     18.3288E-03
            1130     2.03648E-03     175.029E-03    -151.387E+06    -246.030E+06    -133.742E+06    -4.24955E+06    -283.072E-03     565.157E-03    -282.086E-03     27.1579E-03    -283.287E-03     564.348E-03    -282.178E-03     26.9548E-03
            1131     2.71410E-03     175.066E-03    -144.486E+06    -227.099E+06    -115.897E+06    -5.88777E+06    -284.150E-03     566.594E-03    -282.444E-03     35.5353E-03    -284.391E-03     565.851E-03    -282.485E-03     35.1945E-03
            1132     3.39150E-03     175.113E-03    -136.195E+06    -206.434E+06    -96.2095E+06    -7.40437E+06    -285.358E-03     568.230E-03    -282.872E-03     43.6566E-03    -285.627E-03     567.561E-03    -282.856E-03     43.1170E-03
            1133     4.06765E-03     175.172E-03    -127.441E+06    -184.477E+06    -76.1637E+06    -8.80626E+06    -286.668E-03     570.009E-03    -283.342E-03     51.6132E-03    -286.970E-03     569.425E-03    -283.270E-03     50.7898E-03
            1134     4.74377E-03     175.241E-03    -118.717E+06    -163.342E+06    -57.2331E+06    -10.5897E+06    -288.074E-03     571.913E-03    -283.839E-03     59.3192E-03    -288.413E-03     571.417E-03    -283.717E-03     58.1181E-03
            1135     5.41890E-03     175.320E-03    -109.420E+06    -142.773E+06    -39.6106E+06    -12.4339E+06    -289.498E-03     573.851E-03    -284.354E-03     66.7619E-03    -289.878E-03     573.451E-03    -284.186E-03     65.0578E-03
            1136     6.09284E-03     175.411E-03    -100.152E+06    -121.601E+06    -23.7894E+06    -13.9192E+06    -290.755E-03     575.617E-03    -284.862E-03     74.1249E-03    -291.184E-03     575.328E-03    -284.660E-03     71.8003E-03
            1137     6.76702E-03     175.512E-03    -90.8415E+06    -100.958E+06    -9.20198E+06    -15.1879E+06    -291.774E-03     577.121E-03    -285.346E-03     81.0733E-03    -292.261E-03     576.953E-03    -285.114E-03     78.0001E-03
            1138     7.44028E-03     175.625E-03    -81.0418E+06    -78.0938E+06     4.70841E+06    -15.7109E+06    -292.649E-03     578.440E-03    -285.791E-03     87.5685E-03    -293.207E-03     578.420E-03    -285.537E-03     83.6129E-03
            1139     8.11343E-03     175.747E-03    -71.7117E+06    -53.3481E+06     18.0485E+06    -15.2332E+06    -293.389E-03     579.585E-03    -286.196E-03     94.0192E-03    -294.040E-03     579.740E-03    -285.925E-03     89.0211E-03
            1140     8.78674E-03     175.882E-03    -63.0116E+06    -21.3284E+06     31.2731E+06    -13.3641E+06    -293.830E-03     580.380E-03    -286.550E-03     100.198E-03    -294.610E-03     580.770E-03    -286.271E-03     93.9811E-03
            1141     9.46001E-03     176.024E-03    -53.1327E+06     15.8177E+06     45.8194E+06    -8.86485E+06    -293.929E-03     580.777E-03    -286.848E-03     106.183E-03    -294.863E-03     581.446E-03    -286.565E-03     98.6186E-03
            1142     10.1334E-03     176.182E-03    -42.1680E+06     70.5256E+06     62.1268E+06    -3.05481E+06    -294.068E-03     581.147E-03    -287.078E-03     111.935E-03    -295.209E-03     582.208E-03    -286.809E-03     102.824E-03
            1143     10.8072E-03     176.345E-03    -32.3376E+06     110.735E+06     81.6687E+06     141.860E+03    -294.628E-03     581.952E-03    -287.325E-03     117.595E-03    -295.997E-03     583.363E-03    -287.030E-03     106.688E-03
            1144     11.4790E-03     176.521E-03    -23.4393E+06     110.426E+06     103.623E+06     357.779E+03    -295.385E-03     583.031E-03    -287.646E-03     121.406E-03    -296.906E-03     584.560E-03    -287.254E-03     108.923E-03
            1145     12.1512E-03     176.698E-03    -14.4448E+06     115.272E+06     123.955E+06     606.123E+03    -295.858E-03     583.813E-03    -287.956E-03     126.782E-03    -297.654E-03     585.608E-03    -287.482E-03     111.945E-03
            1146     12.8245E-03     176.891E-03    -6.63876E+06     120.383E+06     131.483E+06     661.895E+03    -295.986E-03     584.192E-03    -288.206E-03     117.942E-03    -297.571E-03     585.800E-03    -287.713E-03     104.296E-03
            1147     680.877E-06     176.644E-03    -156.712E+06    -263.457E+06    -155.437E+06    -1.79678E+06    -278.721E-03     556.494E-03    -277.773E-03     10.7047E-03    -278.898E-03     555.630E-03    -277.941E-03     10.6710E-03
            1148     1.36281E-03     176.661E-03    -153.979E+06    -253.622E+06    -145.250E+06    -3.41514E+06    -278.872E-03     557.231E-03    -278.360E-03     19.3296E-03    -279.067E-03     556.400E-03    -278.495E-03     19.2202E-03
            1149     2.04314E-03     176.690E-03    -148.244E+06    -238.317E+06    -130.371E+06    -5.09640E+06    -279.919E-03     558.596E-03    -278.677E-03     28.4016E-03    -280.134E-03     557.816E-03    -278.768E-03     28.2106E-03
            1150     2.72346E-03     176.730E-03    -141.162E+06    -219.471E+06    -112.056E+06    -6.51570E+06    -281.300E-03     560.426E-03    -279.126E-03     37.2360E-03    -281.540E-03     559.711E-03    -279.164E-03     36.9242E-03
            1151     3.40221E-03     176.781E-03    -132.832E+06    -198.368E+06    -91.8221E+06    -8.09786E+06    -282.933E-03     562.609E-03    -279.676E-03     45.9272E-03    -283.202E-03     561.968E-03    -279.655E-03     45.4269E-03
            1152     4.08048E-03     176.843E-03    -123.869E+06    -176.691E+06    -71.5641E+06    -9.71512E+06    -284.681E-03     564.975E-03    -280.294E-03     54.4902E-03    -284.982E-03     564.416E-03    -280.216E-03     53.7380E-03
            1153     4.75746E-03     176.915E-03    -114.382E+06    -155.004E+06    -51.7885E+06    -10.9975E+06    -286.531E-03     567.487E-03    -280.956E-03     62.5226E-03    -286.866E-03     567.015E-03    -280.824E-03     61.4399E-03
            1154     5.43331E-03     176.999E-03    -105.434E+06    -133.506E+06    -33.7548E+06    -12.7249E+06    -288.352E-03     569.994E-03    -281.642E-03     70.1811E-03    -288.729E-03     569.620E-03    -281.464E-03     68.6523E-03
            1155     6.10893E-03     177.092E-03    -96.6314E+06    -113.384E+06    -17.9927E+06    -14.9169E+06    -290.089E-03     572.419E-03    -282.330E-03     77.5949E-03    -290.513E-03     572.149E-03    -282.115E-03     75.4952E-03
            1156     6.78295E-03     177.197E-03    -87.5240E+06    -93.4999E+06    -3.59570E+06    -16.4641E+06    -291.683E-03     574.690E-03    -283.006E-03     84.5714E-03    -292.161E-03     574.535E-03    -282.762E-03     81.7767E-03
            1157     7.45662E-03     177.311E-03    -79.5841E+06    -72.5762E+06     9.09625E+06    -17.5780E+06    -293.070E-03     576.724E-03    -283.654E-03     91.3039E-03    -293.620E-03     576.708E-03    -283.388E-03     87.6765E-03
            1158     8.12957E-03     177.437E-03    -71.8314E+06    -50.7389E+06     21.1504E+06    -18.2177E+06    -294.208E-03     578.474E-03    -284.265E-03     97.7705E-03    -294.849E-03     578.618E-03    -283.982E-03     93.1690E-03
            1159     8.80205E-03     177.571E-03    -63.1515E+06    -23.7816E+06     33.2581E+06    -17.4998E+06    -295.126E-03     579.953E-03    -284.826E-03     103.783E-03    -295.880E-03     580.301E-03    -284.534E-03     98.0190E-03
            1160     9.47391E-03     177.718E-03    -54.0103E+06     7.37515E+06     46.5005E+06    -15.7763E+06    -295.875E-03     581.217E-03    -285.342E-03     109.554E-03    -296.774E-03     581.816E-03    -285.042E-03     102.401E-03
            1161     10.1463E-03     177.871E-03    -44.8419E+06     56.4985E+06     60.9115E+06    -11.9090E+06    -296.444E-03     582.239E-03    -285.795E-03     115.134E-03    -297.544E-03     583.204E-03    -285.507E-03     106.413E-03
            1162     10.8178E-03     178.040E-03    -35.0402E+06     103.127E+06     79.0382E+06    -6.86821E+06    -296.957E-03     583.188E-03    -286.231E-03     120.451E-03    -298.293E-03     584.537E-03    -285.935E-03     109.903E-03
            1163     11.4905E-03     178.215E-03    -25.2152E+06     109.268E+06     97.9634E+06    -4.53225E+06    -297.595E-03     584.300E-03    -286.705E-03     124.029E-03    -299.104E-03     585.824E-03    -286.338E-03     111.680E-03
            1164     12.1624E-03     178.397E-03    -16.2277E+06     109.658E+06     117.864E+06    -3.15680E+06    -298.616E-03     585.810E-03    -287.194E-03     128.449E-03    -300.403E-03     587.587E-03    -286.740E-03     113.558E-03
            1165     12.8322E-03     178.587E-03    -7.40166E+06     118.302E+06     134.657E+06    -539.182E+03    -299.894E-03     587.582E-03    -287.688E-03     118.905E-03    -301.478E-03     589.169E-03    -287.175E-03     105.227E-03
            1166     684.025E-06     178.290E-03    -151.874E+06    -254.989E+06    -148.622E+06    -2.26342E+06    -275.098E-03     549.787E-03    -274.689E-03     11.2722E-03    -275.274E-03     548.949E-03    -274.842E-03     11.2259E-03
            1167     1.36703E-03     178.310E-03    -147.572E+06    -244.637E+06    -138.927E+06    -3.99102E+06    -275.715E-03     550.755E-03    -275.039E-03     20.3539E-03    -275.900E-03     549.950E-03    -275.165E-03     20.2531E-03
            1168     2.05020E-03     178.341E-03    -142.235E+06    -229.636E+06    -123.965E+06    -5.66968E+06    -276.867E-03     552.288E-03    -275.422E-03     29.6615E-03    -277.073E-03     551.533E-03    -275.502E-03     29.4849E-03
            1169     2.73201E-03     178.384E-03    -135.062E+06    -210.991E+06    -105.269E+06    -7.48879E+06    -278.256E-03     554.171E-03    -275.914E-03     38.9863E-03    -278.487E-03     553.478E-03    -275.939E-03     38.6961E-03
            1170     3.41346E-03     178.439E-03    -126.329E+06    -190.104E+06    -84.8402E+06    -9.22582E+06    -280.055E-03     556.553E-03    -276.498E-03     48.2433E-03    -280.312E-03     555.932E-03    -276.463E-03     47.7974E-03
            1171     4.09341E-03     178.504E-03    -117.008E+06    -168.449E+06    -64.1915E+06    -10.6551E+06    -282.232E-03     559.412E-03    -277.180E-03     57.3243E-03    -282.517E-03     558.870E-03    -277.087E-03     56.6654E-03
            1172     4.77199E-03     178.583E-03    -107.083E+06    -147.022E+06    -44.1568E+06    -12.0602E+06    -284.447E-03     562.387E-03    -277.939E-03     65.9759E-03    -284.763E-03     561.928E-03    -277.792E-03     65.0244E-03
            1173     5.44972E-03     178.669E-03    -96.7909E+06    -125.394E+06    -25.5069E+06    -13.1903E+06    -286.723E-03     565.465E-03    -278.742E-03     74.1973E-03    -287.072E-03     565.099E-03    -278.547E-03     72.8791E-03
            1174     6.12539E-03     178.769E-03    -87.6268E+06    -105.219E+06    -8.96038E+06    -14.0150E+06    -288.997E-03     568.569E-03    -279.572E-03     81.9485E-03    -289.389E-03     568.302E-03    -279.337E-03     80.1590E-03
            1175     6.80058E-03     178.876E-03    -78.9542E+06    -85.3595E+06     5.88392E+06    -15.2573E+06    -291.109E-03     571.519E-03    -280.410E-03     89.2208E-03    -291.553E-03     571.363E-03    -280.143E-03     86.8309E-03
            1176     7.47446E-03     178.996E-03    -70.1522E+06    -65.5596E+06     19.1212E+06    -16.4603E+06    -293.071E-03     574.308E-03    -281.237E-03     96.0249E-03    -293.577E-03     574.277E-03    -280.945E-03     92.9078E-03
            1177     8.14758E-03     179.123E-03    -61.8887E+06    -45.0306E+06     31.3146E+06    -17.2418E+06    -294.841E-03     576.884E-03    -282.043E-03     102.404E-03    -295.427E-03     577.000E-03    -281.731E-03     98.3849E-03
            1178     8.81983E-03     179.262E-03    -54.4437E+06    -21.8987E+06     42.6763E+06    -17.4695E+06    -296.382E-03     579.198E-03    -282.816E-03     108.263E-03    -297.074E-03     579.495E-03    -282.492E-03     103.148E-03
            1179     9.49201E-03     179.409E-03    -47.3052E+06     7.25959E+06     55.2027E+06    -16.8295E+06    -297.842E-03     581.401E-03    -283.559E-03     113.843E-03    -298.675E-03     581.933E-03    -283.225E-03     107.419E-03
            1180     10.1622E-03     179.568E-03    -39.7491E+06     49.1233E+06     69.0835E+06    -15.0499E+06    -299.092E-03     583.354E-03    -284.262E-03     119.397E-03    -300.124E-03     584.219E-03    -283.930E-03     111.334E-03
            1181     10.8328E-03     179.734E-03    -31.3793E+06     93.0403E+06     84.9065E+06    -11.7120E+06    -300.127E-03     585.066E-03    -284.939E-03     124.500E-03    -301.402E-03     586.314E-03    -284.604E-03     114.458E-03
            1182     11.5020E-03     179.914E-03    -22.6892E+06     104.247E+06     99.3239E+06    -7.71753E+06    -301.337E-03     586.974E-03    -285.637E-03     127.064E-03    -302.795E-03     588.434E-03    -285.259E-03     115.115E-03
            1183     12.1704E-03     180.095E-03    -15.1350E+06     103.572E+06     115.371E+06    -4.18240E+06    -303.284E-03     589.663E-03    -286.379E-03     130.689E-03    -305.038E-03     591.398E-03    -285.931E-03     115.912E-03
            1184     12.8385E-03     180.293E-03    -8.25370E+06     113.186E+06     133.221E+06    -2.05165E+06    -305.584E-03     592.762E-03    -287.177E-03     119.950E-03    -307.149E-03     594.313E-03    -286.663E-03     106.315E-03
            1185     685.811E-06     179.927E-03    -143.573E+06    -244.443E+06    -142.114E+06    -2.56869E+06    -272.147E-03     543.826E-03    -271.680E-03     11.1032E-03    -272.305E-03     543.019E-03    -271.828E-03     11.0814E-03
            1186     1.37156E-03     179.948E-03    -140.585E+06    -234.760E+06    -131.573E+06    -4.48942E+06    -272.634E-03     544.670E-03    -272.036E-03     20.8330E-03    -272.808E-03     543.893E-03    -272.150E-03     20.7937E-03
            1187     2.05620E-03     179.982E-03    -134.595E+06    -219.630E+06    -115.849E+06    -6.72330E+06    -273.699E-03     546.071E-03    -272.372E-03     30.8397E-03    -273.891E-03     545.341E-03    -272.438E-03     30.7295E-03
            1188     2.74061E-03     180.028E-03    -126.760E+06    -201.051E+06    -96.7392E+06    -8.88332E+06    -275.159E-03     547.989E-03    -272.830E-03     40.6787E-03    -275.372E-03     547.319E-03    -272.839E-03     40.4771E-03
            1189     3.42400E-03     180.086E-03    -118.005E+06    -180.896E+06    -76.3113E+06    -10.7971E+06    -277.036E-03     550.438E-03    -273.401E-03     50.5265E-03    -277.273E-03     549.834E-03    -273.349E-03     50.2103E-03
            1190     4.10606E-03     180.158E-03    -108.182E+06    -160.278E+06    -55.6476E+06    -12.4161E+06    -279.166E-03     553.236E-03    -274.071E-03     60.1939E-03    -279.425E-03     552.703E-03    -273.960E-03     59.7137E-03
            1191     4.78713E-03     180.239E-03    -98.1039E+06    -139.707E+06    -35.9818E+06    -13.5039E+06    -281.587E-03     556.407E-03    -274.820E-03     69.6700E-03    -281.870E-03     555.950E-03    -274.655E-03     68.9701E-03
            1192     5.46625E-03     180.333E-03    -88.2440E+06    -119.109E+06    -17.4929E+06    -14.1971E+06    -284.266E-03     559.912E-03    -275.645E-03     78.8531E-03    -284.580E-03     559.539E-03    -275.432E-03     77.8643E-03
            1193     6.14456E-03     180.436E-03    -78.3082E+06    -99.1536E+06    -209.927E+03    -14.6149E+06    -287.042E-03     563.577E-03    -276.536E-03     87.4919E-03    -287.390E-03     563.296E-03    -276.279E-03     86.1289E-03
            1194     6.82076E-03     180.551E-03    -68.8445E+06    -78.7297E+06     15.3923E+06    -14.9403E+06    -289.896E-03     567.370E-03    -277.474E-03     95.4380E-03    -290.289E-03     567.193E-03    -277.183E-03     93.6060E-03
            1195     7.49569E-03     180.674E-03    -60.6967E+06    -60.1005E+06     28.9021E+06    -15.2047E+06    -292.670E-03     571.117E-03    -278.448E-03     102.573E-03    -293.118E-03     571.053E-03    -278.128E-03     100.141E-03
            1196     8.16898E-03     180.808E-03    -53.3414E+06    -40.2476E+06     41.1395E+06    -14.8695E+06    -295.265E-03     574.703E-03    -279.438E-03     109.027E-03    -295.788E-03     574.775E-03    -279.097E-03     105.834E-03
            1197     8.84117E-03     180.949E-03    -46.0725E+06    -18.1203E+06     52.7411E+06    -14.2813E+06    -297.868E-03     578.305E-03    -280.436E-03     114.727E-03    -298.490E-03     578.546E-03    -280.080E-03     110.544E-03
            1198     9.51124E-03     181.102E-03    -39.7673E+06     10.0514E+06     65.0729E+06    -13.8217E+06    -300.248E-03     581.689E-03    -281.441E-03     119.556E-03    -301.008E-03     582.155E-03    -281.072E-03     114.092E-03
            1199     10.1817E-03     181.263E-03    -33.6916E+06     49.4499E+06     78.3481E+06    -13.3842E+06    -302.309E-03     584.740E-03    -282.431E-03     123.793E-03    -303.259E-03     585.519E-03    -282.062E-03     116.710E-03
            1200     10.8500E-03     181.435E-03    -27.2605E+06     86.5017E+06     91.6228E+06    -11.5317E+06    -304.537E-03     587.960E-03    -283.423E-03     127.689E-03    -305.722E-03     589.090E-03    -283.050E-03     118.530E-03
            1201     11.5175E-03     181.617E-03    -20.4434E+06     95.4792E+06     103.064E+06    -8.03887E+06    -306.956E-03     591.421E-03    -284.465E-03     128.987E-03    -308.332E-03     592.765E-03    -284.059E-03     117.676E-03
            1202     12.1832E-03     181.804E-03    -12.7783E+06     95.7732E+06     115.700E+06    -4.57771E+06    -309.756E-03     595.321E-03    -285.565E-03     132.027E-03    -311.445E-03     596.970E-03    -285.107E-03     117.544E-03
            1203     12.8449E-03     182.009E-03    -5.55684E+06     107.848E+06     130.702E+06    -1.23852E+06    -312.544E-03     599.264E-03    -286.720E-03     121.075E-03    -314.056E-03     600.760E-03    -286.214E-03     107.623E-03
            1204     687.213E-06     181.554E-03    -137.557E+06    -232.126E+06    -135.465E+06    -3.16016E+06    -269.331E-03     538.424E-03    -269.093E-03     11.5217E-03    -269.486E-03     537.660E-03    -269.235E-03     11.5457E-03
            1205     1.37474E-03     181.576E-03    -133.826E+06    -222.608E+06    -125.055E+06    -5.90024E+06    -269.635E-03     538.904E-03    -269.270E-03     21.6728E-03    -269.801E-03     538.167E-03    -269.378E-03     21.7183E-03
            1206     2.06227E-03     181.612E-03    -127.526E+06    -207.908E+06    -109.253E+06    -8.50103E+06    -270.471E-03     539.950E-03    -269.480E-03     31.9631E-03    -270.651E-03     539.256E-03    -269.540E-03     32.0220E-03
            1207     2.74892E-03     181.661E-03    -119.665E+06    -190.251E+06    -90.0795E+06    -10.8224E+06    -271.876E-03     541.706E-03    -269.830E-03     42.5215E-03    -272.073E-03     541.063E-03    -269.831E-03     42.5562E-03
            1208     3.43418E-03     181.724E-03    -110.657E+06    -171.035E+06    -69.2711E+06    -12.5916E+06    -273.584E-03     543.892E-03    -270.308E-03     53.2139E-03    -273.799E-03     543.307E-03    -270.246E-03     53.1928E-03
            1209     4.11908E-03     181.798E-03    -101.326E+06    -151.686E+06    -48.6533E+06    -14.0244E+06    -275.575E-03     546.454E-03    -270.879E-03     63.7710E-03    -275.808E-03     545.929E-03    -270.755E-03     63.6594E-03
            1210     4.80253E-03     181.886E-03    -91.7059E+06    -132.776E+06    -29.1501E+06    -14.9901E+06    -278.041E-03     549.581E-03    -271.540E-03     74.2082E-03    -278.293E-03     549.120E-03    -271.360E-03     73.9611E-03
            1211     5.48495E-03     181.984E-03    -82.0752E+06    -113.743E+06    -11.0905E+06    -15.2620E+06    -280.915E-03     553.216E-03    -272.300E-03     84.2537E-03    -281.189E-03     552.825E-03    -272.072E-03     83.8201E-03
            1212     6.16514E-03     182.096E-03    -73.2152E+06    -95.1645E+06     5.33429E+06    -14.8653E+06    -284.199E-03     557.365E-03    -273.165E-03     93.7697E-03    -284.502E-03     557.054E-03    -272.895E-03     93.0859E-03
            1213     6.84386E-03     182.215E-03    -65.6895E+06    -75.8841E+06     20.0698E+06    -13.5280E+06    -287.842E-03     561.979E-03    -274.137E-03     102.546E-03    -288.187E-03     561.763E-03    -273.832E-03     101.534E-03
            1214     7.52012E-03     182.347E-03    -59.3895E+06    -57.2589E+06     33.3092E+06    -11.9631E+06    -291.698E-03     566.913E-03    -275.215E-03     110.169E-03    -292.100E-03     566.804E-03    -274.879E-03     108.699E-03
            1215     8.19457E-03     182.486E-03    -53.4319E+06    -36.4192E+06     45.4899E+06    -11.0883E+06    -295.640E-03     572.025E-03    -276.385E-03     116.597E-03    -296.116E-03     572.051E-03    -276.027E-03     114.486E-03
            1216     8.86659E-03     182.636E-03    -47.4653E+06    -14.9661E+06     56.3214E+06    -10.7699E+06    -299.557E-03     577.188E-03    -277.631E-03     122.032E-03    -300.126E-03     577.373E-03    -277.259E-03     119.042E-03
            1217     9.53677E-03     182.795E-03    -41.8832E+06     13.4166E+06     67.9334E+06    -10.7825E+06    -303.485E-03     582.430E-03    -278.945E-03     126.158E-03    -304.188E-03     582.836E-03    -278.564E-03     121.932E-03
            1218     10.2033E-03     182.962E-03    -35.8764E+06     53.8652E+06     80.9567E+06    -11.0985E+06    -307.321E-03     587.636E-03    -280.314E-03     128.934E-03    -308.212E-03     588.357E-03    -279.936E-03     123.024E-03
            1219     10.8687E-03     183.140E-03    -29.3669E+06     82.3591E+06     92.1740E+06    -10.1359E+06    -310.822E-03     592.565E-03    -281.743E-03     130.871E-03    -311.923E-03     593.588E-03    -281.359E-03     122.809E-03
            1220     11.5307E-03     183.329E-03    -22.7510E+06     88.5127E+06     102.298E+06    -7.91554E+06    -314.019E-03     597.252E-03    -283.233E-03     131.021E-03    -315.315E-03     598.486E-03    -282.817E-03     120.554E-03
            1221     12.1899E-03     183.522E-03    -15.9754E+06     89.7971E+06     112.544E+06    -5.86009E+06    -317.351E-03     602.112E-03    -284.761E-03     133.861E-03    -318.965E-03     603.662E-03    -284.305E-03     120.011E-03
            1222     12.8489E-03     183.734E-03    -8.66794E+06     99.7572E+06     125.203E+06    -3.17854E+06    -319.918E-03     606.229E-03    -286.311E-03     122.908E-03    -321.369E-03     607.641E-03    -285.817E-03     109.891E-03
            1223     689.898E-06     183.172E-03    -131.417E+06    -216.457E+06    -129.508E+06    -4.28524E+06    -266.384E-03     532.526E-03    -266.142E-03     12.3312E-03    -266.539E-03     531.821E-03    -266.286E-03     12.4358E-03
            1224     1.37889E-03     183.196E-03    -127.676E+06    -207.872E+06    -119.607E+06    -7.36532E+06    -266.671E-03     532.978E-03    -266.307E-03     22.7347E-03    -266.833E-03     532.295E-03    -266.418E-03     22.9882E-03
            1225     2.06800E-03     183.232E-03    -122.106E+06    -195.077E+06    -104.723E+06    -9.96373E+06    -267.256E-03     533.721E-03    -266.464E-03     33.7912E-03    -267.428E-03     533.069E-03    -266.528E-03     34.1635E-03
            1226     2.75674E-03     183.285E-03    -115.340E+06    -179.001E+06    -86.2853E+06    -11.8481E+06    -268.232E-03     534.925E-03    -266.693E-03     45.0231E-03    -268.417E-03     534.314E-03    -266.697E-03     45.4966E-03
            1227     3.44567E-03     183.349E-03    -107.719E+06    -161.612E+06    -66.0874E+06    -13.3049E+06    -269.631E-03     536.643E-03    -267.012E-03     56.3158E-03    -269.830E-03     536.077E-03    -266.952E-03     56.8573E-03
            1228     4.13314E-03     183.429E-03    -99.3552E+06    -144.003E+06    -45.7748E+06    -13.9426E+06    -271.564E-03     538.999E-03    -267.435E-03     67.6903E-03    -271.776E-03     538.479E-03    -267.311E-03     68.2659E-03
            1229     4.81983E-03     183.519E-03    -91.6236E+06    -126.530E+06    -26.8924E+06    -13.8927E+06    -273.974E-03     541.944E-03    -267.970E-03     79.0005E-03    -274.202E-03     541.475E-03    -267.788E-03     79.5693E-03
            1230     5.50482E-03     183.626E-03    -84.9159E+06    -110.276E+06    -10.2089E+06    -13.0593E+06    -277.020E-03     545.649E-03    -268.629E-03     90.0260E-03    -277.267E-03     545.232E-03    -268.397E-03     90.5406E-03
            1231     6.18852E-03     183.741E-03    -78.6706E+06    -93.5979E+06     4.79666E+06     -11.437E+06    -280.815E-03     550.251E-03    -269.437E-03     100.497E-03    -281.088E-03     549.899E-03    -269.163E-03     100.894E-03
            1232     6.86958E-03     183.871E-03    -72.5374E+06    -75.6272E+06     18.4876E+06    -9.66075E+06    -285.301E-03     555.715E-03    -270.415E-03     109.998E-03    -285.610E-03     555.445E-03    -270.107E-03     110.174E-03
            1233     7.54832E-03     184.010E-03    -65.7422E+06    -56.4208E+06     31.3810E+06    -7.98497E+06    -290.485E-03     562.065E-03    -271.580E-03     118.093E-03    -290.840E-03     561.896E-03    -271.246E-03     117.908E-03
            1234     8.22326E-03     184.161E-03    -59.1633E+06    -33.8081E+06     43.6361E+06    -7.08076E+06    -296.189E-03     569.129E-03    -272.940E-03     124.594E-03    -296.612E-03     569.096E-03    -272.587E-03     123.842E-03
            1235     8.89491E-03     184.319E-03    -53.5001E+06    -11.1590E+06     54.2167E+06    -7.40393E+06    -302.033E-03     576.516E-03    -274.483E-03     129.210E-03    -302.546E-03     576.644E-03    -274.118E-03     127.612E-03
            1236     9.56312E-03     184.488E-03    -46.8095E+06     20.3636E+06     66.4946E+06    -8.88748E+06    -307.832E-03     584.016E-03    -276.184E-03     132.043E-03    -308.471E-03     584.370E-03    -275.813E-03     129.259E-03
            1237     10.2282E-03     184.668E-03    -39.0761E+06     59.8184E+06     79.2883E+06    -10.5256E+06    -313.374E-03     591.384E-03    -278.010E-03     133.690E-03    -314.187E-03     592.043E-03    -277.644E-03     129.189E-03
            1238     10.8880E-03     184.855E-03    -30.7861E+06     80.7861E+06     89.1301E+06    -10.9836E+06    -318.124E-03     598.059E-03    -279.935E-03     134.934E-03    -319.129E-03     598.985E-03    -279.562E-03     128.116E-03
            1239     11.5462E-03     185.051E-03    -21.8150E+06     83.5222E+06     99.8808E+06    -9.59830E+06    -321.926E-03     603.850E-03    -281.924E-03     134.867E-03    -323.121E-03     604.977E-03    -281.514E-03     125.417E-03
            1240     12.2027E-03     185.253E-03    -13.0311E+06     84.0642E+06     109.926E+06    -6.58937E+06    -325.487E-03     609.400E-03    -283.912E-03     137.573E-03    -327.009E-03     610.857E-03    -283.466E-03     124.424E-03
            1241     12.8543E-03     185.473E-03    -5.96542E+06     90.8542E+06     120.395E+06    -4.19836E+06    -327.973E-03     613.853E-03    -285.880E-03     125.969E-03    -329.351E-03     615.185E-03    -285.401E-03     113.353E-03
            1242     691.373E-06     184.783E-03    -126.471E+06    -201.570E+06    -124.256E+06    -2.97540E+06    -263.057E-03     525.701E-03    -262.644E-03     13.0705E-03    -263.215E-03     525.054E-03    -262.790E-03     13.4064E-03
            1243     1.38355E-03     184.804E-03    -125.426E+06    -194.352E+06    -116.394E+06    -5.12642E+06    -263.184E-03     526.052E-03    -262.868E-03     23.8861E-03    -263.353E-03     525.422E-03    -262.986E-03     24.5454E-03
            1244     2.07518E-03     184.843E-03    -122.888E+06    -183.047E+06    -103.543E+06    -7.14319E+06    -263.606E-03     526.573E-03    -262.968E-03     35.7450E-03    -263.789E-03     525.970E-03    -263.042E-03     36.7010E-03
            1245     2.76699E-03     184.895E-03    -119.067E+06    -169.399E+06    -87.2928E+06    -8.49339E+06    -264.287E-03     527.387E-03    -263.100E-03     47.6470E-03    -264.484E-03     526.811E-03    -263.118E-03     48.8858E-03
            1246     3.45787E-03     184.963E-03    -114.453E+06    -153.781E+06    -68.9705E+06    -8.91553E+06    -265.459E-03     528.755E-03    -263.295E-03     59.6522E-03    -265.669E-03     528.211E-03    -263.251E-03     61.1469E-03
            1247     4.14883E-03     185.044E-03    -109.680E+06    -138.915E+06    -50.4235E+06    -8.86665E+06    -267.243E-03     530.837E-03    -263.593E-03     71.7471E-03    -267.464E-03     530.319E-03    -263.485E-03     73.4565E-03
            1248     4.83856E-03     185.141E-03    -104.206E+06    -123.117E+06    -32.5582E+06    -8.18753E+06    -269.770E-03     533.793E-03    -264.022E-03     83.7269E-03    -270.000E-03     533.308E-03    -263.856E-03     85.5881E-03
            1249     5.52739E-03     185.251E-03    -98.1791E+06    -107.938E+06    -16.1922E+06    -7.29276E+06    -273.196E-03     537.814E-03    -264.618E-03     95.3690E-03    -273.433E-03     537.365E-03    -264.400E-03     97.2974E-03
            1250     6.21375E-03     185.376E-03    -91.6206E+06    -92.3300E+06    -1.67563E+06    -6.69270E+06    -277.637E-03     543.052E-03    -265.415E-03     106.207E-03    -277.884E-03     542.650E-03    -265.157E-03     108.102E-03
            1251     6.89780E-03     185.514E-03    -84.4144E+06    -74.5051E+06     11.5589E+06    -6.26494E+06    -283.126E-03     549.576E-03    -266.450E-03     115.904E-03    -283.392E-03     549.245E-03    -266.162E-03     117.630E-03
            1252     7.57790E-03     185.666E-03    -76.6769E+06    -54.4351E+06     24.1418E+06    -6.58606E+06    -289.678E-03     557.433E-03    -267.755E-03     124.171E-03    -289.978E-03     557.199E-03    -267.445E-03     125.544E-03
            1253     8.25435E-03     185.828E-03    -67.7423E+06    -30.6429E+06     36.7236E+06    -7.75956E+06    -297.207E-03     566.559E-03    -269.352E-03     130.463E-03    -297.561E-03     566.460E-03    -269.026E-03     131.260E-03
            1254     8.92553E-03     186.002E-03    -57.4056E+06    -5.66377E+06     49.2944E+06    -9.22835E+06    -305.301E-03     576.547E-03    -271.247E-03     134.528E-03    -305.729E-03     576.611E-03    -270.909E-03     134.452E-03
            1255     9.59088E-03     186.185E-03    -47.4671E+06     28.7204E+06     63.6554E+06    -11.0304E+06    -313.041E-03     586.438E-03    -273.397E-03     136.631E-03    -313.589E-03     586.738E-03    -273.051E-03     135.303E-03
            1256     10.2512E-03     186.378E-03    -37.8133E+06     65.9117E+06     77.1066E+06    -12.9013E+06    -319.818E-03     595.540E-03    -275.722E-03     137.039E-03    -320.526E-03     596.127E-03    -275.377E-03     133.952E-03
            1257     10.9091E-03     186.578E-03    -28.5755E+06     80.3017E+06     86.4743E+06    -13.2949E+06    -325.609E-03     603.775E-03    -278.166E-03     136.280E-03    -326.493E-03     604.594E-03    -277.808E-03     130.738E-03
            1258     11.5622E-03     186.784E-03    -21.3905E+06     79.8876E+06     96.3463E+06    -12.7177E+06    -330.107E-03     610.780E-03    -280.673E-03     134.373E-03    -331.186E-03     611.789E-03    -280.276E-03     125.961E-03
            1259     12.2112E-03     186.995E-03    -13.3554E+06     75.5933E+06     105.487E+06    -11.2250E+06    -333.332E-03     616.478E-03    -283.146E-03     135.979E-03    -334.727E-03     617.790E-03    -282.709E-03     123.630E-03
            1260     12.8606E-03     187.223E-03    -5.80045E+06     77.9282E+06     116.912E+06    -6.12363E+06    -334.829E-03     620.357E-03    -285.528E-03     124.978E-03    -336.104E-03     621.550E-03    -285.048E-03     112.925E-03
            1261     695.017E-06     186.378E-03    -138.359E+06    -201.887E+06    -134.098E+06     3.42242E+06    -258.812E-03     517.292E-03    -258.480E-03     13.9303E-03    -259.012E-03     516.672E-03    -258.657E-03     14.6723E-03
            1262     1.38910E-03     186.403E-03    -138.637E+06    -192.441E+06    -125.769E+06     4.86400E+06    -258.959E-03     517.615E-03    -258.656E-03     25.3686E-03    -259.176E-03     517.019E-03    -258.805E-03     26.7154E-03
            1263     2.08375E-03     186.440E-03    -138.880E+06    -178.736E+06    -112.693E+06     5.24912E+06    -259.346E-03     518.084E-03    -258.739E-03     37.6486E-03    -259.585E-03     517.521E-03    -258.841E-03     39.5706E-03
            1264     2.77812E-03     186.494E-03    -138.326E+06    -164.208E+06    -96.5730E+06     4.39119E+06    -260.034E-03     518.885E-03    -258.851E-03     50.1410E-03    -260.292E-03     518.348E-03    -258.895E-03     52.5819E-03
            1265     3.47295E-03     186.563E-03    -136.105E+06    -148.676E+06    -78.9434E+06     2.91845E+06    -261.301E-03     520.333E-03    -259.032E-03     62.6930E-03    -261.569E-03     519.818E-03    -259.014E-03     65.5881E-03
            1266     4.16676E-03     186.648E-03    -131.998E+06    -132.583E+06    -60.7476E+06     725.704E+03    -263.342E-03     522.675E-03    -259.333E-03     74.9150E-03    -263.611E-03     522.180E-03    -259.253E-03     78.1769E-03
            1267     4.85995E-03     186.748E-03    -125.139E+06    -117.695E+06    -43.5206E+06    -2.32174E+06    -266.351E-03     526.153E-03    -259.803E-03     86.7171E-03    -266.605E-03     525.671E-03    -259.668E-03     90.2424E-03
            1268     5.55085E-03     186.865E-03    -115.751E+06    -102.672E+06    -27.5448E+06    -5.19655E+06    -270.483E-03     530.969E-03    -260.487E-03     97.9802E-03    -270.713E-03     530.504E-03    -260.308E-03     101.652E-03
            1269     6.23974E-03     186.998E-03    -104.579E+06    -87.5421E+06    -12.4931E+06    -7.87283E+06    -275.760E-03     537.189E-03    -261.429E-03     108.328E-03    -275.966E-03     536.750E-03    -261.213E-03     111.990E-03
            1270     6.92491E-03     187.147E-03    -92.0844E+06    -70.8922E+06     1.97841E+06    -10.2164E+06    -282.282E-03     544.948E-03    -262.666E-03     117.504E-03    -282.474E-03     544.557E-03    -262.420E-03     120.972E-03
            1271     7.60637E-03     187.311E-03    -78.7467E+06    -49.8394E+06     16.6418E+06    -12.2483E+06    -290.126E-03     554.360E-03    -264.234E-03     125.215E-03    -290.326E-03     554.057E-03    -263.964E-03     128.288E-03
            1272     8.28198E-03     187.491E-03    -65.3763E+06    -25.9251E+06     30.9776E+06    -13.7457E+06    -298.975E-03     565.127E-03    -266.152E-03     131.032E-03    -299.209E-03     564.950E-03    -265.865E-03     133.463E-03
            1273     8.95164E-03     187.682E-03    -54.3634E+06     80.6702E+03     44.8094E+06    -14.8905E+06    -308.331E-03     576.745E-03    -268.414E-03     135.060E-03    -308.641E-03     576.735E-03    -268.111E-03     136.529E-03
            1274     9.61549E-03     187.885E-03    -44.2270E+06     34.4521E+06     60.5059E+06    -15.7111E+06    -317.691E-03     588.672E-03    -270.981E-03     137.001E-03    -318.125E-03     588.899E-03    -270.664E-03     137.132E-03
            1275     10.2735E-03     188.094E-03    -35.6737E+06     68.3762E+06     74.8631E+06    -14.9361E+06    -326.153E-03     599.937E-03    -273.784E-03     136.570E-03    -326.753E-03     600.440E-03    -273.457E-03     134.846E-03
            1276     10.9245E-03     188.309E-03    -29.8177E+06     83.0151E+06     84.4847E+06    -14.9695E+06    -332.986E-03     609.720E-03    -276.734E-03     134.850E-03    -333.775E-03     610.456E-03    -276.389E-03     130.584E-03
            1277     11.5719E-03     188.529E-03    -22.1102E+06     84.0960E+06     95.9180E+06    -17.2044E+06    -337.605E-03     617.336E-03    -279.731E-03     132.408E-03    -338.589E-03     618.263E-03    -279.341E-03     125.067E-03
            1278     12.2176E-03     188.749E-03    -14.1820E+06     65.7765E+06     102.061E+06    -15.4706E+06    -339.944E-03     622.570E-03    -282.626E-03     134.335E-03    -341.226E-03     623.741E-03    -282.191E-03     122.761E-03
            1279     12.8598E-03     188.982E-03    -6.94121E+06     56.4244E+06     113.087E+06    -7.76526E+06    -339.244E-03     624.565E-03    -285.321E-03     124.954E-03    -340.441E-03     625.610E-03    -284.828E-03     113.224E-03
            1280     697.845E-06     187.962E-03    -204.860E+06    -215.009E+06    -201.800E+06     3.30755E+06    -253.919E-03     507.368E-03    -253.449E-03     14.0281E-03    -254.332E-03     506.874E-03    -253.849E-03     15.1430E-03
            1281     1.39648E-03     187.985E-03    -197.026E+06    -202.334E+06    -184.264E+06     5.90122E+06    -254.095E-03     507.820E-03    -253.725E-03     25.8452E-03    -254.496E-03     507.336E-03    -254.067E-03     27.8253E-03
            1282     2.09439E-03     188.025E-03     -185.42E+06    -183.899E+06    -158.607E+06     7.39151E+06    -254.865E-03     508.771E-03    -253.906E-03     38.1200E-03    -255.247E-03     508.301E-03    -254.164E-03     40.9831E-03
            1283     2.79242E-03     188.078E-03    -171.168E+06    -163.859E+06    -128.770E+06     7.10127E+06    -256.098E-03     510.288E-03    -254.190E-03     50.3283E-03    -256.448E-03     509.821E-03    -254.349E-03     53.9945E-03
            1284     3.48944E-03     188.150E-03    -156.075E+06    -144.259E+06    -99.8679E+06     4.77890E+06    -258.066E-03     512.658E-03    -254.592E-03     62.2602E-03    -258.373E-03     512.187E-03    -254.656E-03     66.6155E-03
            1285     4.18576E-03     188.238E-03    -140.314E+06    -125.301E+06    -74.3567E+06     1.57164E+06    -260.940E-03     516.093E-03    -255.153E-03     73.5679E-03    -261.193E-03     515.618E-03    -255.139E-03     78.4936E-03
            1286     4.87998E-03     188.344E-03    -125.802E+06    -107.821E+06    -52.5273E+06    -2.33415E+06    -264.852E-03     520.773E-03    -255.922E-03     84.2697E-03    -265.052E-03     520.297E-03    -255.846E-03     89.6250E-03
            1287     5.57242E-03     188.468E-03    -113.183E+06    -92.2979E+06    -34.6047E+06    -6.98781E+06    -269.844E-03     526.782E-03    -256.938E-03     94.1940E-03    -270.000E-03     526.310E-03    -256.814E-03     99.7969E-03
            1288     6.26117E-03     188.611E-03    -101.759E+06    -76.9126E+06    -19.0625E+06    -11.5103E+06    -275.967E-03     534.205E-03    -258.237E-03     103.140E-03    -276.094E-03     533.753E-03    -258.074E-03     108.784E-03
            1289     6.94647E-03     188.772E-03    -91.1434E+06    -59.2299E+06    -4.09798E+06    -16.7769E+06    -283.338E-03     543.191E-03    -259.853E-03     111.091E-03    -283.457E-03     542.790E-03    -259.655E-03     116.537E-03
            1290     7.62622E-03     188.953E-03    -80.5855E+06    -40.7205E+06     9.60305E+06    -21.6655E+06    -291.747E-03     553.548E-03    -261.802E-03     117.962E-03    -291.878E-03     553.224E-03    -261.578E-03     122.939E-03
            1291     8.30069E-03     189.149E-03    -70.4044E+06    -19.3606E+06     23.3192E+06    -25.4153E+06    -300.866E-03     564.947E-03    -264.081E-03     123.604E-03    -301.041E-03     564.738E-03    -263.834E-03     127.794E-03
            1292     8.96936E-03     189.361E-03    -57.5694E+06     6.50183E+06     39.0177E+06    -28.7264E+06    -310.586E-03     577.263E-03    -266.677E-03     127.756E-03    -310.827E-03     577.213E-03    -266.408E-03     130.814E-03
            1293     9.63121E-03     189.585E-03    -43.1785E+06     30.4264E+06     54.9898E+06    -28.0254E+06    -320.464E-03     590.029E-03    -269.565E-03     130.080E-03    -320.790E-03     590.154E-03    -269.272E-03     131.661E-03
            1294     10.2855E-03     189.816E-03    -29.8310E+06     55.1111E+06     69.5995E+06    -21.4445E+06    -329.712E-03     602.394E-03    -272.681E-03     130.728E-03    -330.162E-03     602.735E-03    -272.370E-03     130.400E-03
            1295     10.9347E-03     190.049E-03    -17.6440E+06     84.2882E+06     87.4151E+06    -15.7482E+06    -337.205E-03     613.150E-03    -275.945E-03     130.469E-03    -337.834E-03     613.765E-03    -275.605E-03     127.650E-03
            1296     11.5792E-03     190.284E-03    -10.7147E+06     87.5497E+06     101.113E+06    -12.6698E+06    -341.778E-03     621.009E-03    -279.231E-03     129.124E-03    -342.609E-03     621.821E-03    -278.837E-03     123.184E-03
            1297     12.2204E-03     190.511E-03    -8.63034E+06     56.7138E+06     103.696E+06    -9.02590E+06    -342.963E-03     625.315E-03    -282.352E-03     131.924E-03    -344.108E-03     626.331E-03    -281.903E-03     121.423E-03
            1298     12.8643E-03     190.748E-03    -5.83606E+06     40.6522E+06     115.072E+06    -5.87945E+06    -341.118E-03     626.318E-03    -285.200E-03     124.269E-03    -342.228E-03     627.218E-03    -284.675E-03     113.176E-03
            1299     701.646E-06     189.526E-03    -292.091E+06    -206.929E+06    -289.152E+06    -7.60333E+06    -250.100E-03     499.743E-03    -249.643E-03     11.5140E-03    -250.836E-03     499.545E-03    -250.365E-03     12.7337E-03
            1300     1.40274E-03     189.552E-03    -279.818E+06    -194.818E+06    -268.701E+06    -13.5077E+06    -250.538E-03     500.530E-03    -249.992E-03     21.6010E-03    -251.245E-03     500.331E-03    -250.647E-03     23.7549E-03
            1301     2.10382E-03     189.592E-03    -260.823E+06    -176.546E+06    -237.846E+06    -18.9232E+06    -251.757E-03     502.102E-03    -250.345E-03     31.6031E-03    -252.419E-03     501.900E-03    -250.900E-03     34.7859E-03
            1302     2.80363E-03     189.650E-03    -236.764E+06    -155.253E+06    -201.014E+06    -23.6132E+06    -253.733E-03     504.623E-03    -250.890E-03     41.7377E-03    -254.330E-03     504.411E-03    -251.327E-03     45.9231E-03
            1303     3.50238E-03     189.725E-03    -209.686E+06    -135.534E+06    -162.258E+06    -27.2184E+06    -256.525E-03     508.169E-03    -251.644E-03     51.6924E-03    -257.037E-03     507.926E-03    -251.955E-03     56.8242E-03
            1304     4.19895E-03     189.819E-03    -182.346E+06    -118.190E+06    -125.764E+06    -29.8460E+06    -260.268E-03     512.887E-03    -252.619E-03     61.1528E-03    -260.685E-03     512.602E-03    -252.812E-03     67.1497E-03
            1305     4.89336E-03     189.933E-03    -155.582E+06    -99.9041E+06    -92.4184E+06    -31.5665E+06    -265.095E-03     518.935E-03    -253.840E-03     70.0570E-03    -265.417E-03     518.619E-03    -253.932E-03     76.7895E-03
            1306     5.58387E-03     190.067E-03    -129.955E+06    -85.9728E+06    -62.5370E+06    -32.3655E+06    -270.979E-03     526.324E-03    -255.345E-03     78.1109E-03    -271.207E-03     525.968E-03    -255.345E-03     85.3673E-03
            1307     6.27116E-03     190.220E-03    -106.418E+06    -71.0062E+06    -36.0922E+06    -32.6198E+06    -277.832E-03     534.973E-03    -257.141E-03     85.2073E-03    -277.984E-03     534.601E-03    -257.064E-03     92.7353E-03
            1308     6.95324E-03     190.396E-03    -85.0802E+06    -51.3116E+06    -11.7370E+06    -32.0341E+06    -285.374E-03     544.598E-03    -259.224E-03     91.6646E-03    -285.476E-03     544.252E-03    -259.085E-03     99.1699E-03
            1309     7.63069E-03     190.591E-03    -66.9864E+06    -32.6496E+06     9.72360E+06    -31.6370E+06    -293.394E-03     554.968E-03    -261.574E-03     97.6319E-03    -293.473E-03     554.667E-03    -261.381E-03     104.762E-03
            1310     8.30289E-03     190.806E-03    -51.4099E+06    -7.73227E+06     29.3839E+06    -33.2985E+06    -301.973E-03     566.136E-03    -264.163E-03     102.987E-03    -302.065E-03     565.935E-03    -263.930E-03     109.332E-03
            1311     8.96891E-03     191.037E-03    -39.7547E+06     12.2915E+06     44.9098E+06    -33.9124E+06    -310.828E-03     577.803E-03    -266.975E-03     107.702E-03    -310.962E-03     577.712E-03    -266.711E-03     112.843E-03
            1312     9.62882E-03     191.282E-03    -33.0603E+06     24.5060E+06     56.1292E+06    -31.3423E+06    -319.356E-03     589.324E-03    -269.968E-03     112.061E-03    -319.564E-03     589.342E-03    -269.675E-03     115.571E-03
            1313     10.2842E-03     191.534E-03    -28.4090E+06     41.8520E+06     67.3896E+06    -28.3305E+06    -327.555E-03     600.641E-03    -273.086E-03     116.149E-03    -327.889E-03     600.830E-03    -272.768E-03     117.542E-03
            1314     10.9331E-03     191.789E-03    -24.4651E+06     66.5441E+06     85.1751E+06    -21.1769E+06    -334.782E-03     611.083E-03    -276.301E-03     118.766E-03    -335.304E-03     611.510E-03    -275.936E-03     117.580E-03
            1315     11.5778E-03     192.038E-03    -19.4736E+06     72.6561E+06     97.5303E+06    -11.2810E+06    -339.491E-03     618.986E-03    -279.496E-03     119.579E-03    -340.211E-03     619.615E-03    -279.085E-03     115.216E-03
            1316     12.2211E-03     192.276E-03    -11.9978E+06     50.2932E+06     104.796E+06    -6.40208E+06    -340.666E-03     623.201E-03    -282.535E-03     122.935E-03    -341.662E-03     624.030E-03    -282.067E-03     113.947E-03
            1317     12.8636E-03     192.508E-03    -4.41384E+06     33.6703E+06     123.950E+06    -3.71937E+06    -338.102E-03     623.411E-03    -285.309E-03     118.263E-03    -339.084E-03     624.138E-03    -284.732E-03     108.311E-03
            1318     701.157E-06     191.086E-03    -268.860E+06    -160.448E+06    -265.497E+06    -15.5672E+06    -251.972E-03     503.921E-03    -251.949E-03     4.07398E-03    -252.702E-03     503.891E-03    -252.654E-03     5.08412E-03
            1319     1.40208E-03     191.111E-03    -261.199E+06    -150.430E+06    -249.349E+06    -28.5432E+06    -252.774E-03     504.987E-03    -252.214E-03     7.83398E-03    -253.504E-03     504.973E-03    -252.863E-03     9.67799E-03
            1320     2.10205E-03     191.155E-03    -249.300E+06    -136.658E+06    -226.287E+06    -41.1516E+06    -254.017E-03     506.748E-03    -252.731E-03     11.6512E-03    -254.743E-03     506.753E-03    -253.302E-03     14.4161E-03
            1321     2.80112E-03     191.216E-03    -233.769E+06    -121.091E+06    -198.667E+06    -51.7948E+06    -255.965E-03     509.426E-03    -253.461E-03     15.6470E-03    -256.677E-03     509.448E-03    -253.939E-03     19.3690E-03
            1322     3.49811E-03     191.297E-03    -215.181E+06    -108.422E+06    -168.843E+06    -60.1084E+06    -258.630E-03     513.058E-03    -254.429E-03     19.8619E-03    -259.312E-03     513.075E-03    -254.804E-03     24.5745E-03
            1323     4.19300E-03     191.398E-03    -193.901E+06    -96.9026E+06    -138.123E+06    -66.3626E+06    -262.135E-03     517.780E-03    -255.645E-03     24.2895E-03    -262.775E-03     517.782E-03    -255.914E-03     30.0164E-03
            1324     4.88437E-03     191.521E-03    -171.116E+06    -84.9762E+06    -108.752E+06    -70.5481E+06    -266.448E-03     523.559E-03    -257.111E-03     28.9844E-03    -267.036E-03     523.549E-03    -257.283E-03     35.6974E-03
            1325     5.57256E-03     191.665E-03    -147.272E+06    -77.4220E+06    -81.6961E+06    -72.7708E+06    -271.611E-03     530.443E-03    -258.831E-03     34.2445E-03    -272.131E-03     530.398E-03    -258.914E-03     41.8545E-03
            1326     6.25527E-03     191.833E-03    -123.655E+06    -69.2640E+06    -56.9875E+06    -72.5422E+06    -277.648E-03     538.446E-03    -260.798E-03     40.2783E-03    -278.093E-03     538.371E-03    -260.803E-03     48.6420E-03
            1327     6.93368E-03     192.021E-03    -101.965E+06    -57.4457E+06    -34.3005E+06    -69.6208E+06    -284.312E-03     547.310E-03    -262.998E-03     46.5239E-03    -284.693E-03     547.224E-03    -262.938E-03     55.3853E-03
            1328     7.60747E-03     192.231E-03    -82.0603E+06    -40.7277E+06    -11.1785E+06    -64.3884E+06    -291.278E-03     556.688E-03    -265.409E-03     52.6921E-03    -291.607E-03     556.613E-03    -265.287E-03     61.7066E-03
            1329     8.27616E-03     192.462E-03    -65.7086E+06    -14.4474E+06     14.2427E+06    -57.5823E+06    -298.146E-03     566.130E-03    -267.984E-03     59.4737E-03    -298.452E-03     566.112E-03    -267.796E-03     68.1729E-03
            1330     8.94035E-03     192.710E-03    -53.7224E+06    -2.56355E+06     37.6437E+06    -47.9429E+06    -304.849E-03     575.522E-03    -270.673E-03     67.0245E-03    -305.132E-03     575.499E-03    -270.403E-03     74.8392E-03
            1331     9.60117E-03     192.970E-03    -43.8049E+06     10.9065E+06     56.9914E+06    -37.7933E+06    -311.405E-03     584.800E-03    -273.395E-03     74.5750E-03    -311.689E-03     584.806E-03    -273.062E-03     80.7909E-03
            1332     10.2577E-03     193.240E-03    -35.9499E+06     31.2012E+06     77.0299E+06    -28.6677E+06    -317.440E-03     593.565E-03    -276.125E-03     82.3398E-03    -317.780E-03     593.669E-03    -275.733E-03     86.1918E-03
            1333     10.9116E-03     193.514E-03    -29.1031E+06     41.3441E+06     93.8134E+06    -18.4604E+06    -322.383E-03     601.190E-03    -278.807E-03     90.1807E-03    -322.820E-03     601.404E-03    -278.355E-03     90.9072E-03
            1334     11.5618E-03     193.780E-03    -21.5257E+06     57.2597E+06     101.532E+06    -11.4075E+06    -326.141E-03     607.464E-03    -281.324E-03     97.6722E-03    -326.732E-03     607.894E-03    -280.868E-03     94.8052E-03
            1335     12.2089E-03     194.028E-03    -14.7815E+06     45.6166E+06     110.597E+06    -8.75571E+06    -328.213E-03     611.931E-03    -283.718E-03     106.936E-03    -329.017E-03     612.527E-03    -283.210E-03     100.073E-03
            1336     12.8564E-03     194.264E-03    -7.29455E+06     22.6011E+06     129.817E+06    -5.65985E+06    -325.135E-03     611.011E-03    -285.876E-03     108.775E-03    -325.952E-03     611.506E-03    -285.249E-03     100.694E-03
            1337     692.804E-06     192.665E-03    -151.724E+06    -96.3476E+06    -148.305E+06    -15.6623E+06    -266.884E-03     533.460E-03    -266.576E-03    -10.5512E-03    -267.320E-03     533.392E-03    -266.957E-03    -10.0563E-03
            1338     1.38485E-03     192.693E-03    -146.439E+06    -88.1907E+06    -135.696E+06    -28.3012E+06    -266.956E-03     534.113E-03    -267.157E-03    -19.7716E-03    -267.407E-03     534.072E-03    -267.495E-03    -18.8405E-03
            1339     2.07629E-03     192.738E-03    -139.032E+06    -79.1278E+06    -117.072E+06    -40.3337E+06    -267.432E-03     535.180E-03    -267.747E-03    -28.7172E-03    -267.906E-03     535.165E-03    -268.016E-03    -27.3281E-03
            1340     2.76597E-03     192.803E-03    -130.389E+06     -70.343E+06    -97.0813E+06    -50.6756E+06    -268.106E-03     536.659E-03    -268.552E-03    -37.4231E-03    -268.606E-03     536.675E-03    -268.747E-03    -35.5016E-03
            1341     3.45426E-03     192.887E-03    -121.648E+06    -63.2831E+06    -78.3730E+06    -59.4352E+06    -268.828E-03     538.379E-03    -269.551E-03    -45.5799E-03    -269.360E-03     538.431E-03    -269.674E-03    -43.0074E-03
            1342     4.14003E-03     192.994E-03    -113.453E+06    -57.5828E+06    -61.7745E+06    -66.6783E+06    -269.501E-03     540.209E-03    -270.708E-03    -52.4551E-03    -270.075E-03     540.308E-03    -270.769E-03    -49.1018E-03
            1343     4.82367E-03     193.122E-03    -106.123E+06    -53.4046E+06    -47.2887E+06    -72.0537E+06    -270.214E-03     542.212E-03    -271.998E-03    -57.6345E-03    -270.840E-03     542.367E-03    -272.003E-03    -53.3862E-03
            1344     5.50424E-03     193.274E-03    -100.520E+06    -51.4418E+06    -35.3359E+06    -75.6701E+06    -271.064E-03     544.469E-03    -273.404E-03    -60.7409E-03    -271.754E-03     544.685E-03    -273.361E-03    -55.5001E-03
            1345     6.18340E-03     193.449E-03    -96.4971E+06    -50.6661E+06    -24.8976E+06    -77.9516E+06    -272.128E-03     547.043E-03    -274.916E-03    -61.4229E-03    -272.883E-03     547.317E-03    -274.827E-03    -55.1761E-03
            1346     6.85902E-03     193.649E-03    -92.6896E+06    -48.2062E+06    -14.2682E+06    -78.7785E+06    -273.649E-03     550.162E-03    -276.514E-03    -59.1476E-03    -274.459E-03     550.496E-03    -276.381E-03    -51.9744E-03
            1347     7.53014E-03     193.870E-03    -88.9331E+06    -41.2684E+06    -2.28964E+06    -77.4109E+06    -275.639E-03     553.802E-03    -278.163E-03    -53.2978E-03    -276.487E-03     554.190E-03    -277.986E-03    -45.4207E-03
            1348     8.19817E-03     194.111E-03    -83.4555E+06    -27.3717E+06     14.8616E+06    -72.2169E+06    -277.923E-03     557.743E-03    -279.821E-03    -43.9343E-03    -278.787E-03     558.175E-03    -279.586E-03    -35.6461E-03
            1349     8.86454E-03     194.369E-03    -73.8116E+06    -22.2682E+06     35.4328E+06    -64.1004E+06    -280.376E-03     561.810E-03    -281.434E-03    -31.3690E-03    -281.188E-03     562.191E-03    -281.117E-03    -23.1184E-03
            1350     9.52767E-03     194.643E-03    -61.5588E+06    -13.7556E+06     54.8880E+06    -54.6919E+06    -282.885E-03     565.774E-03    -282.888E-03    -14.2674E-03    -283.594E-03     566.081E-03    -282.505E-03    -6.66055E-03
            1351     10.1887E-03     194.925E-03    -47.8130E+06    -652.553E+03     75.4135E+06    -41.9471E+06    -285.640E-03     569.760E-03    -284.120E-03     8.46501E-03    -286.222E-03     569.984E-03    -283.673E-03     14.8372E-03
            1352     10.8490E-03     195.208E-03    -32.5880E+06     8.94540E+06     93.8585E+06    -28.4217E+06    -289.005E-03     574.107E-03    -285.102E-03     34.6022E-03    -289.457E-03     574.232E-03    -284.598E-03     38.9337E-03
            1353     11.5124E-03     195.484E-03    -18.7987E+06     39.4494E+06     113.934E+06    -19.0638E+06    -293.858E-03     579.752E-03    -285.894E-03     60.4616E-03    -294.287E-03     579.944E-03    -285.354E-03     61.8646E-03
            1354     12.1774E-03     195.747E-03    -8.39698E+06     31.1679E+06     128.099E+06    -7.27301E+06    -298.194E-03     584.829E-03    -286.635E-03     83.0352E-03    -298.691E-03     585.048E-03    -286.028E-03     80.5434E-03
            1355     12.8430E-03     195.987E-03     870.590E+03     12.2296E+06     137.250E+06     1.31838E+06    -296.006E-03     583.195E-03    -287.189E-03     93.4552E-03    -296.517E-03     583.360E-03    -286.521E-03     88.9133E-03
            1356     669.650E-06     194.319E-03    -29.9529E+06    -39.6527E+06    -27.2917E+06    -10.4252E+06    -302.611E-03     605.486E-03    -302.875E-03    -34.5770E-03    -302.769E-03     605.252E-03    -302.911E-03    -34.9151E-03
            1357     1.33924E-03     194.347E-03    -29.1626E+06    -35.0558E+06    -19.5036E+06    -18.2248E+06    -301.506E-03     604.992E-03    -303.486E-03    -63.6446E-03    -301.669E-03     604.758E-03    -303.490E-03    -64.1394E-03
            1358     2.00767E-03     194.393E-03    -27.8680E+06    -30.9200E+06    -7.61482E+06    -24.9438E+06    -299.851E-03     603.894E-03    -304.042E-03    -93.5487E-03    -300.017E-03     603.649E-03    -303.995E-03    -94.1824E-03
            1359     2.67525E-03     194.458E-03    -26.5819E+06    -27.0239E+06     5.40202E+06    -30.3114E+06    -297.308E-03     602.050E-03    -304.742E-03    -122.816E-03    -297.481E-03     601.799E-03    -304.637E-03    -123.453E-03
            1360     3.34085E-03     194.543E-03    -25.5771E+06    -23.6582E+06     17.9726E+06    -34.4162E+06    -293.608E-03     599.129E-03    -305.521E-03    -150.742E-03    -293.798E-03     598.883E-03    -305.360E-03    -151.238E-03
            1361     4.00569E-03     194.647E-03    -25.3851E+06    -21.5159E+06     29.0920E+06    -37.3228E+06    -288.593E-03     594.901E-03    -306.308E-03    -176.493E-03    -288.817E-03     594.673E-03    -306.094E-03    -176.696E-03
            1362     4.66965E-03     194.773E-03    -26.1775E+06    -20.8152E+06     38.8735E+06    -39.1486E+06    -282.307E-03     589.363E-03    -307.056E-03    -199.620E-03    -282.592E-03     589.177E-03    -306.794E-03    -199.353E-03
            1363     5.33339E-03     194.921E-03    -27.4847E+06    -20.8496E+06     47.9577E+06    -40.1371E+06    -274.857E-03     582.587E-03    -307.730E-03    -219.363E-03    -275.223E-03     582.468E-03    -307.420E-03    -218.506E-03
            1364     5.99528E-03     195.092E-03    -28.4942E+06    -21.4287E+06     56.8999E+06    -40.7660E+06    -266.175E-03     574.443E-03    -308.268E-03    -234.596E-03    -266.630E-03     574.406E-03    -307.911E-03    -233.113E-03
            1365     6.65805E-03     195.285E-03    -29.0375E+06    -21.7395E+06     65.8051E+06    -41.0487E+06    -256.301E-03     564.877E-03    -308.575E-03    -243.924E-03    -256.855E-03     564.933E-03    -308.173E-03    -241.785E-03
            1366     7.32398E-03     195.502E-03    -28.9611E+06    -20.1317E+06     74.5531E+06    -41.0947E+06    -245.971E-03     554.546E-03    -308.575E-03    -246.631E-03    -246.616E-03     554.701E-03    -308.131E-03    -243.859E-03
            1367     7.99272E-03     195.738E-03    -28.6951E+06    -16.8954E+06     82.3661E+06    -40.2405E+06    -235.940E-03     544.150E-03    -308.211E-03    -241.932E-03    -236.645E-03     544.397E-03    -307.733E-03    -238.599E-03
            1368     8.66256E-03     195.995E-03    -29.3372E+06    -15.3944E+06     88.3973E+06    -38.5285E+06    -226.349E-03     533.743E-03    -307.394E-03    -228.408E-03    -227.064E-03     534.031E-03    -306.887E-03    -224.702E-03
            1369     9.33929E-03     196.262E-03    -30.4515E+06    -15.1816E+06     93.6650E+06    -36.6886E+06    -217.520E-03     523.549E-03    -306.029E-03    -205.756E-03    -218.193E-03     523.806E-03    -305.495E-03    -201.881E-03
            1370     10.0262E-03     196.542E-03    -30.9103E+06    -14.1582E+06     98.6400E+06    -34.4710E+06    -210.306E-03     514.393E-03    -304.087E-03    -175.271E-03    -210.876E-03     514.552E-03    -303.528E-03    -171.424E-03
            1371     10.7225E-03     196.829E-03    -30.0574E+06    -10.7191E+06     105.265E+06    -30.3503E+06    -206.687E-03     508.357E-03    -301.670E-03    -138.597E-03    -207.109E-03     508.387E-03    -301.084E-03    -135.137E-03
            1372     11.4209E-03     197.118E-03    -23.4972E+06     14.5493E+06     124.998E+06    -22.6007E+06    -207.052E-03     505.969E-03    -298.917E-03    -94.7304E-03    -207.354E-03     505.972E-03    -298.279E-03    -92.4540E-03
            1373     12.1159E-03     197.401E-03    -13.0834E+06     2.32199E+06     128.635E+06    -8.83759E+06    -208.834E-03     504.552E-03    -295.718E-03    -40.3382E-03    -209.031E-03     504.463E-03    -295.059E-03    -40.6344E-03
            1374     12.8115E-03     197.645E-03    -4.66659E+06     1.40693E+06     114.634E+06     462.768E+03    -205.933E-03     497.713E-03    -291.780E-03     18.7656E-03    -206.131E-03     497.670E-03    -291.202E-03     17.0060E-03
            1375     12.7359E-03     98.4902E-03    -3.07502E+06     30.2577E+06     58.8296E+06    -116.211E+03    -298.533E-03     593.739E-03    -295.206E-03     106.678E-03    -299.673E-03     594.806E-03    -294.952E-03     94.3002E-03
            1376     12.0635E-03     98.2914E-03    -6.26170E+06     27.7071E+06     55.4616E+06     19.8795E+03    -298.303E-03     593.509E-03    -295.206E-03     116.805E-03    -299.692E-03     594.813E-03    -294.959E-03     102.642E-03
            1377     11.3903E-03     98.1079E-03    -10.3472E+06     22.9091E+06     51.5891E+06     209.233E+03    -298.058E-03     593.289E-03    -295.231E-03     113.265E-03    -299.337E-03     594.463E-03    -294.991E-03     99.9634E-03
            1378     10.7219E-03     97.9209E-03    -14.2150E+06     19.2758E+06     49.7645E+06     397.348E+03    -298.193E-03     593.458E-03    -295.265E-03     111.741E-03    -299.432E-03     594.571E-03    -295.024E-03     98.9127E-03
            1379     10.0503E-03     97.7412E-03    -18.3630E+06     15.2789E+06     47.9143E+06     441.473E+03    -298.129E-03     593.422E-03    -295.293E-03     107.243E-03    -299.253E-03     594.396E-03    -295.049E-03     95.4729E-03
            1380     9.38027E-03     97.5678E-03    -22.7061E+06     10.5981E+06     44.0487E+06     534.479E+03    -297.913E-03     593.220E-03    -295.307E-03     101.291E-03    -298.901E-03     594.037E-03    -295.069E-03     90.7826E-03
            1381     8.71018E-03     97.4052E-03    -27.3105E+06     4.49670E+06     37.7429E+06     718.017E+03    -297.565E-03     592.877E-03    -295.312E-03     94.4776E-03    -298.414E-03     593.535E-03    -295.090E-03     85.2863E-03
            1382     8.03981E-03     97.2530E-03    -32.5461E+06    -3.13825E+06     29.0144E+06     555.257E+03    -297.281E-03     592.589E-03    -295.308E-03     87.0822E-03    -297.999E-03     593.095E-03    -295.111E-03     79.2022E-03
            1383     7.37002E-03     97.1126E-03    -37.6333E+06    -10.1706E+06     19.6366E+06     434.106E+03    -296.991E-03     592.286E-03    -295.295E-03     79.3355E-03    -297.594E-03     592.663E-03    -295.128E-03     72.6763E-03
            1384     6.69998E-03     96.9843E-03    -42.9373E+06    -27.3406E+06     7.96112E+06     610.631E+03    -296.670E-03     591.954E-03    -295.284E-03     71.6185E-03    -297.162E-03     592.173E-03    -295.143E-03     66.0807E-03
            1385     6.02987E-03     96.8690E-03    -48.3946E+06    -44.2816E+06    -2.83789E+06     886.832E+03    -296.389E-03     591.666E-03    -295.277E-03     63.9078E-03    -296.789E-03     591.745E-03    -295.157E-03     59.3792E-03
            1386     5.35978E-03     96.7658E-03    -53.7076E+06    -50.6394E+06    -11.2200E+06     1.10369E+06    -296.085E-03     591.351E-03    -295.266E-03     56.2144E-03    -296.427E-03     591.355E-03    -295.171E-03     52.5601E-03
            1387     4.68973E-03     96.6755E-03    -59.1983E+06    -57.7313E+06    -21.0778E+06     924.614E+03    -295.768E-03     591.022E-03    -295.255E-03     48.6642E-03    -296.065E-03     590.965E-03    -295.190E-03     45.7411E-03
            1388     4.01951E-03     96.5972E-03    -64.7503E+06    -65.3499E+06    -32.2193E+06     854.452E+03    -295.536E-03     590.781E-03    -295.245E-03     41.2447E-03    -295.797E-03     590.673E-03    -295.217E-03     38.9533E-03
            1389     3.34941E-03     96.5320E-03    -69.8992E+06    -72.9810E+06    -43.7204E+06     850.934E+03    -295.424E-03     590.655E-03    -295.231E-03     34.0119E-03    -295.655E-03     590.506E-03    -295.243E-03     32.2613E-03
            1390     2.67949E-03     96.4778E-03    -74.4400E+06    -80.7119E+06    -55.8388E+06     696.567E+03    -295.314E-03     590.524E-03    -295.209E-03     27.0455E-03    -295.519E-03     590.340E-03    -295.263E-03     25.7393E-03
            1391     2.00958E-03     96.4369E-03    -78.8198E+06    -88.4357E+06    -67.7715E+06     457.777E+03    -295.221E-03     590.409E-03    -295.188E-03     20.2581E-03    -295.406E-03     590.197E-03    -295.285E-03     19.3364E-03
            1392     1.33996E-03     96.4070E-03    -82.2430E+06    -94.5053E+06    -76.8461E+06     263.154E+03    -295.144E-03     590.336E-03    -295.192E-03     13.6045E-03    -295.315E-03     590.102E-03    -295.319E-03     13.0180E-03
            1393     669.665E-06     96.3888E-03    -84.0279E+06    -98.2883E+06    -82.7100E+06     93.8298E+03    -295.104E-03     590.405E-03    -295.301E-03     7.40045E-03    -295.264E-03     590.158E-03    -295.450E-03     7.08452E-03
            1394     12.7292E-03     96.7759E-03    -2.93615E+06     29.9891E+06     57.6863E+06     124.669E+03    -298.021E-03     593.242E-03    -295.220E-03     108.694E-03    -299.171E-03     594.320E-03    -294.971E-03     96.3566E-03
            1395     12.0606E-03     96.5831E-03    -6.54448E+06     27.3975E+06     55.1160E+06     254.813E+03    -298.748E-03     593.982E-03    -295.235E-03     118.082E-03    -300.151E-03     595.300E-03    -294.989E-03     103.864E-03
            1396     11.3926E-03     96.3971E-03    -10.4225E+06     22.8027E+06     51.5138E+06     436.608E+03    -298.422E-03     593.666E-03    -295.244E-03     113.973E-03    -299.709E-03     594.848E-03    -295.005E-03     100.630E-03
            1397     10.7202E-03     96.2116E-03    -14.2388E+06     19.1124E+06     49.4695E+06     270.387E+03    -298.344E-03     593.609E-03    -295.265E-03     112.071E-03    -299.586E-03     594.725E-03    -295.025E-03     99.2319E-03
            1398     10.0509E-03     96.0302E-03    -18.2489E+06     15.2108E+06     47.6216E+06     303.964E+03    -298.162E-03     593.449E-03    -295.287E-03     107.108E-03    -299.283E-03     594.421E-03    -295.045E-03     95.3409E-03
            1399     9.38063E-03     95.8575E-03    -22.8508E+06     10.1814E+06     43.1282E+06     268.076E+03    -297.811E-03     593.111E-03    -295.300E-03     101.071E-03    -298.798E-03     593.928E-03    -295.066E-03     90.5319E-03
            1400     8.71015E-03     95.6948E-03    -27.8408E+06     4.32033E+06     36.3550E+06     359.055E+03    -297.548E-03     592.854E-03    -295.306E-03     94.3096E-03    -298.396E-03     593.513E-03    -295.090E-03     85.1169E-03
            1401     8.04018E-03     95.5422E-03    -32.6317E+06    -2.87180E+06     28.1154E+06     541.992E+03    -297.249E-03     592.552E-03    -295.304E-03     86.9857E-03    -297.965E-03     593.061E-03    -295.112E-03     79.1087E-03
            1402     7.36986E-03     95.4018E-03    -37.9477E+06    -10.6956E+06     19.0827E+06     777.515E+03    -296.854E-03     592.156E-03    -295.303E-03     79.4251E-03    -297.458E-03     592.532E-03    -295.137E-03     72.7696E-03
            1403     6.69955E-03     95.2740E-03    -43.3043E+06    -27.6642E+06     7.74162E+06     1.05832E+06    -296.601E-03     591.906E-03    -295.305E-03     71.7513E-03    -297.094E-03     592.124E-03    -295.163E-03     66.2279E-03
            1404     6.02946E-03     95.1580E-03    -48.3628E+06    -44.1932E+06    -3.18105E+06     1.09210E+06    -296.401E-03     591.703E-03    -295.302E-03     63.9642E-03    -296.800E-03     591.783E-03    -295.184E-03     59.4390E-03
            1405     5.35953E-03     95.0552E-03    -53.4038E+06    -50.3647E+06    -11.6890E+06     1.03576E+06    -296.120E-03     591.410E-03    -295.290E-03     56.2476E-03    -296.461E-03     591.417E-03    -295.198E-03     52.5783E-03
            1406     4.68954E-03     94.9646E-03    -58.8346E+06    -57.2074E+06    -21.3227E+06     1.06831E+06    -295.862E-03     591.136E-03    -295.274E-03     48.7101E-03    -296.158E-03     591.082E-03    -295.213E-03     45.7777E-03
            1407     4.01962E-03     94.8871E-03    -64.1367E+06    -64.6084E+06    -32.2083E+06     847.021E+03    -295.674E-03     590.923E-03    -295.249E-03     41.2848E-03    -295.933E-03     590.819E-03    -295.224E-03     38.9854E-03
            1408     3.34978E-03     94.8207E-03    -69.3030E+06    -72.4993E+06    -44.1080E+06     648.035E+03    -295.468E-03     590.687E-03    -295.219E-03     34.0031E-03    -295.696E-03     590.539E-03    -295.234E-03     32.2465E-03
            1409     2.67978E-03     94.7679E-03    -74.2623E+06    -80.4184E+06    -56.0563E+06     805.264E+03    -295.301E-03     590.493E-03    -295.193E-03     26.9784E-03    -295.505E-03     590.311E-03    -295.249E-03     25.6839E-03
            1410     2.00964E-03     94.7258E-03    -77.8950E+06    -87.2350E+06    -66.7782E+06     823.826E+03    -295.217E-03     590.390E-03    -295.173E-03     20.1035E-03    -295.400E-03     590.180E-03    -295.268E-03     19.1789E-03
            1411     1.33953E-03     94.6963E-03    -81.1313E+06    -93.3136E+06    -76.0382E+06     560.122E+03    -295.221E-03     590.362E-03    -295.141E-03     13.5205E-03    -295.389E-03     590.131E-03    -295.269E-03     12.9255E-03
            1412     670.049E-06     94.6780E-03    -83.4042E+06    -97.4669E+06    -82.1000E+06     231.657E+03    -295.116E-03     590.242E-03    -295.126E-03     7.38331E-03    -295.275E-03     589.997E-03    -295.275E-03     7.06774E-03
            1413     12.7328E-03     95.0684E-03    -2.82755E+06     29.4699E+06     58.1118E+06     685.636E+03    -297.786E-03     593.040E-03    -295.254E-03     107.425E-03    -298.922E-03     594.102E-03    -295.002E-03     95.1603E-03
            1414     12.0614E-03     94.8691E-03    -6.58335E+06     27.2293E+06     54.7937E+06     415.601E+03    -298.698E-03     593.965E-03    -295.268E-03     116.846E-03    -300.091E-03     595.273E-03    -295.024E-03     102.638E-03
            1415     11.3898E-03     94.6874E-03    -10.1303E+06     22.9426E+06     51.2646E+06     337.985E+03    -298.784E-03     594.048E-03    -295.264E-03     113.338E-03    -300.067E-03     595.228E-03    -295.027E-03     99.9609E-03
            1416     10.7216E-03     94.5002E-03    -13.8356E+06     19.2974E+06     49.1577E+06     578.987E+03    -298.562E-03     593.827E-03    -295.265E-03     111.863E-03    -299.803E-03     594.945E-03    -295.028E-03     98.9850E-03
            1417     10.0509E-03     94.3197E-03    -18.0598E+06     15.1577E+06     47.0777E+06     413.401E+03    -298.100E-03     593.382E-03    -295.282E-03     107.276E-03    -299.225E-03     594.360E-03    -295.042E-03     95.4652E-03
            1418     9.38043E-03     94.1476E-03    -22.5317E+06     10.2757E+06     42.7869E+06     358.681E+03    -297.813E-03     593.112E-03    -295.299E-03     101.482E-03    -298.800E-03     593.932E-03    -295.067E-03     90.9425E-03
            1419     8.71036E-03     93.9839E-03    -27.2575E+06     4.00397E+06     36.0327E+06     477.126E+03    -297.576E-03     592.882E-03    -295.306E-03     94.6835E-03    -298.422E-03     593.541E-03    -295.092E-03     85.4885E-03
            1420     8.04005E-03     93.8318E-03    -32.5863E+06    -3.72505E+06     27.4605E+06     820.212E+03    -297.200E-03     592.508E-03    -295.308E-03     87.1606E-03    -297.915E-03     593.014E-03    -295.118E-03     79.2852E-03
            1421     7.36970E-03     93.6918E-03    -37.9865E+06    -11.0155E+06     18.5423E+06     1.17103E+06    -296.867E-03     592.176E-03    -295.309E-03     79.3576E-03    -297.469E-03     592.550E-03    -295.145E-03     72.7237E-03
            1422     6.69958E-03     93.5630E-03    -43.0253E+06    -27.7226E+06     7.52864E+06     1.22338E+06    -296.634E-03     591.944E-03    -295.310E-03     71.4518E-03    -297.124E-03     592.160E-03    -295.169E-03     65.9447E-03
            1423     6.02956E-03     93.4475E-03    -47.7877E+06    -43.7844E+06    -3.02795E+06     1.22048E+06    -296.354E-03     591.661E-03    -295.307E-03     63.6377E-03    -296.750E-03     591.741E-03    -295.190E-03     59.1183E-03
            1424     5.35943E-03     93.3441E-03    -53.0795E+06    -49.9439E+06    -11.5571E+06     1.18972E+06    -296.068E-03     591.370E-03    -295.301E-03     55.9943E-03    -296.408E-03     591.377E-03    -295.210E-03     52.3209E-03
            1425     4.68936E-03     93.2542E-03    -57.9136E+06    -56.3760E+06    -20.7948E+06     1.01807E+06    -295.878E-03     591.167E-03    -295.288E-03     48.5746E-03    -296.171E-03     591.115E-03    -295.227E-03     45.6447E-03
            1426     4.01951E-03     93.1753E-03    -63.1583E+06    -63.8782E+06    -31.9718E+06     912.010E+03    -295.669E-03     590.933E-03    -295.264E-03     41.3307E-03    -295.925E-03     590.831E-03    -295.240E-03     39.0285E-03
            1427     3.34951E-03     93.1107E-03    -68.6594E+06    -72.2577E+06    -44.7000E+06     987.553E+03    -295.506E-03     590.737E-03    -295.231E-03     34.2045E-03    -295.731E-03     590.591E-03    -295.250E-03     32.4414E-03
            1428     2.67951E-03     93.0566E-03    -73.0266E+06    -79.7190E+06    -56.3363E+06     834.223E+03    -295.418E-03     590.609E-03    -295.191E-03     27.1730E-03    -295.616E-03     590.429E-03    -295.251E-03     25.8641E-03
            1429     2.00993E-03     93.0154E-03    -77.1781E+06    -86.6870E+06    -66.7080E+06     660.774E+03    -295.298E-03     590.442E-03    -295.144E-03     20.2059E-03    -295.478E-03     590.234E-03    -295.240E-03     19.2756E-03
            1430     1.34005E-03     92.9858E-03    -79.9313E+06    -92.0238E+06    -74.9186E+06     786.902E+03    -295.183E-03     590.280E-03    -295.097E-03     13.6380E-03    -295.349E-03     590.052E-03    -295.222E-03     13.0514E-03
            1431     670.009E-06     92.9665E-03    -81.6873E+06    -95.6338E+06    -80.4122E+06     475.255E+03    -294.943E-03     590.154E-03    -295.211E-03     7.34329E-03    -295.099E-03     589.914E-03    -295.356E-03     7.03112E-03
            1432     12.7309E-03     93.3575E-03    -2.99530E+06     28.8700E+06     58.6466E+06     393.416E+03    -298.264E-03     593.504E-03    -295.240E-03     107.547E-03    -299.402E-03     594.564E-03    -294.984E-03     95.2277E-03
            1433     12.0607E-03     93.1609E-03    -5.82515E+06     27.8060E+06     55.3324E+06     1.12473E+06    -298.586E-03     593.827E-03    -295.241E-03     116.639E-03    -299.958E-03     595.117E-03    -294.996E-03     102.619E-03
            1434     11.3920E-03     92.9744E-03    -9.71351E+06     23.0840E+06     51.0323E+06     778.043E+03    -298.470E-03     593.715E-03    -295.245E-03     112.577E-03    -299.739E-03     594.884E-03    -295.009E-03     99.2804E-03
            1435     10.7207E-03     92.7900E-03    -13.5757E+06     19.3045E+06     48.7693E+06     494.884E+03    -298.273E-03     593.534E-03    -295.261E-03     111.661E-03    -299.513E-03     594.653E-03    -295.025E-03     98.7704E-03
            1436     10.0505E-03     92.6097E-03    -17.6795E+06     15.2256E+06     46.5193E+06     609.343E+03    -298.014E-03     593.302E-03    -295.288E-03     107.359E-03    -299.137E-03     594.281E-03    -295.052E-03     95.5556E-03
            1437     9.38029E-03     92.4369E-03    -22.2395E+06     10.2639E+06     42.1311E+06     717.179E+03    -297.859E-03     593.166E-03    -295.307E-03     101.467E-03    -298.842E-03     593.984E-03    -295.079E-03     90.9589E-03
            1438     8.70998E-03     92.2733E-03    -27.2968E+06     3.22524E+06     35.8385E+06     958.713E+03    -297.576E-03     592.893E-03    -295.318E-03     94.5648E-03    -298.420E-03     593.548E-03    -295.103E-03     85.3783E-03
            1439     8.03973E-03     92.1215E-03    -32.2305E+06    -4.31785E+06     27.9669E+06     1.25477E+06    -297.311E-03     592.628E-03    -295.317E-03     86.9865E-03    -298.023E-03     593.129E-03    -295.124E-03     79.1195E-03
            1440     7.36985E-03     91.9806E-03    -37.1617E+06    -10.9476E+06     18.9664E+06     1.36373E+06    -297.017E-03     592.321E-03    -295.304E-03     79.1879E-03    -297.615E-03     592.693E-03    -295.139E-03     72.5499E-03
            1441     6.69982E-03     91.8527E-03    -42.0540E+06    -27.2008E+06     7.53257E+06     1.43829E+06    -296.649E-03     591.942E-03    -295.293E-03     71.4373E-03    -297.134E-03     592.160E-03    -295.155E-03     65.9209E-03
            1442     6.02970E-03     91.7365E-03    -47.1861E+06    -43.3295E+06    -3.13778E+06     1.25279E+06    -296.320E-03     591.611E-03    -295.291E-03     63.6565E-03    -296.714E-03     591.693E-03    -295.175E-03     59.1329E-03
            1443     5.35957E-03     91.6341E-03    -52.0922E+06    -49.3583E+06    -11.0891E+06     987.650E+03    -296.035E-03     591.325E-03    -295.290E-03     56.0122E-03    -296.372E-03     591.334E-03    -295.198E-03     52.3410E-03
            1444     4.68962E-03     91.5427E-03    -57.3738E+06    -56.1843E+06    -20.7436E+06     1.16444E+06    -295.783E-03     591.067E-03    -295.284E-03     48.5510E-03    -296.074E-03     591.015E-03    -295.223E-03     45.6264E-03
            1445     4.01942E-03     91.4655E-03    -62.8093E+06    -63.7274E+06    -31.9690E+06     1.49223E+06    -295.606E-03     590.878E-03    -295.272E-03     41.1881E-03    -295.859E-03     590.775E-03    -295.248E-03     38.9049E-03
            1446     3.34934E-03     91.3992E-03    -67.5370E+06    -71.0023E+06    -43.1459E+06     1.29008E+06    -295.508E-03     590.760E-03    -295.251E-03     34.0068E-03    -295.731E-03     590.616E-03    -295.266E-03     32.2618E-03
            1447     2.67972E-03     91.3459E-03    -72.1451E+06    -78.5425E+06    -54.7971E+06     820.208E+03    -295.365E-03     590.587E-03    -295.222E-03     27.0823E-03    -295.564E-03     590.410E-03    -295.278E-03     25.7688E-03
            1448     2.00951E-03     91.3045E-03    -76.1705E+06    -85.6089E+06    -65.7689E+06     396.595E+03    -295.284E-03     590.476E-03    -295.192E-03     20.4250E-03    -295.463E-03     590.271E-03    -295.286E-03     19.4905E-03
            1449     1.33982E-03     91.2748E-03    -79.4388E+06    -91.3934E+06    -74.4383E+06    -80.9384E+03    -295.195E-03     590.367E-03    -295.172E-03     13.8256E-03    -295.359E-03     590.140E-03    -295.296E-03     13.2047E-03
            1450     669.718E-06     91.2573E-03    -81.1033E+06    -94.6807E+06    -79.4617E+06     75.7798E+03    -295.189E-03     590.338E-03    -295.148E-03     7.42050E-03    -295.345E-03     590.100E-03    -295.291E-03     7.11093E-03
            1451     12.7326E-03     91.6490E-03    -3.92834E+06     27.7427E+06     57.1130E+06    -108.828E+03    -298.549E-03     593.798E-03    -295.249E-03     108.189E-03    -299.697E-03     594.864E-03    -294.998E-03     95.8188E-03
            1452     12.0629E-03     91.4481E-03    -6.92292E+06     26.8429E+06     54.6628E+06     466.007E+03    -298.945E-03     594.186E-03    -295.241E-03     117.852E-03    -300.338E-03     595.491E-03    -294.997E-03     103.728E-03
            1453     11.3912E-03     91.2663E-03    -9.56917E+06     23.2314E+06     51.5170E+06     828.561E+03    -298.333E-03     593.579E-03    -295.246E-03     113.693E-03    -299.615E-03     594.760E-03    -295.009E-03     100.356E-03
            1454     10.7211E-03     91.0793E-03    -13.0572E+06     19.6810E+06     49.0935E+06     824.354E+03    -298.256E-03     593.526E-03    -295.269E-03     111.970E-03    -299.498E-03     594.648E-03    -295.033E-03     99.0801E-03
            1455     10.0506E-03     90.9000E-03    -17.5568E+06     15.2718E+06     46.6026E+06     738.951E+03    -298.172E-03     593.465E-03    -295.292E-03     107.179E-03    -299.290E-03     594.440E-03    -295.056E-03     95.4088E-03
            1456     9.38035E-03     90.7258E-03    -21.9921E+06     9.67379E+06     42.3924E+06     942.160E+03    -297.891E-03     593.198E-03    -295.306E-03     101.248E-03    -298.872E-03     594.011E-03    -295.076E-03     90.7403E-03
            1457     8.71016E-03     90.5635E-03    -26.4698E+06     2.65190E+06     36.0054E+06     1.23243E+06    -297.626E-03     592.937E-03    -295.311E-03     94.3359E-03    -298.464E-03     593.586E-03    -295.096E-03     85.1570E-03
            1458     8.04013E-03     90.4100E-03    -31.4052E+06    -4.44196E+06     27.8516E+06     1.45571E+06    -297.336E-03     592.640E-03    -295.304E-03     86.8871E-03    -298.043E-03     593.139E-03    -295.113E-03     79.0184E-03
            1459     7.36997E-03     90.2702E-03    -36.2649E+06    -10.6996E+06     19.5227E+06     1.63283E+06    -296.947E-03     592.241E-03    -295.295E-03     79.2303E-03    -297.542E-03     592.613E-03    -295.129E-03     72.5850E-03
            1460     6.69979E-03     90.1417E-03    -41.5626E+06    -26.7358E+06     8.37635E+06     1.57207E+06    -296.616E-03     591.906E-03    -295.290E-03     71.5369E-03    -297.102E-03     592.125E-03    -295.149E-03     66.0170E-03
            1461     6.02965E-03     90.0264E-03    -46.4001E+06    -42.5148E+06    -2.69381E+06     1.48104E+06    -296.320E-03     591.607E-03    -295.287E-03     63.7983E-03    -296.713E-03     591.692E-03    -295.171E-03     59.2766E-03
            1462     5.35967E-03     89.9228E-03    -51.3706E+06    -48.9483E+06    -11.5050E+06     1.59195E+06    -296.019E-03     591.303E-03    -295.284E-03     56.1804E-03    -296.352E-03     591.314E-03    -295.196E-03     52.5231E-03
            1463     4.68942E-03     89.8329E-03    -57.3246E+06    -56.1144E+06    -20.8644E+06     1.53232E+06    -295.802E-03     591.085E-03    -295.282E-03     48.6714E-03    -296.093E-03     591.033E-03    -295.222E-03     45.7551E-03
            1464     4.01946E-03     89.7542E-03    -62.2193E+06    -62.6428E+06    -30.2100E+06     1.09362E+06    -295.653E-03     590.925E-03    -295.272E-03     41.2539E-03    -295.908E-03     590.825E-03    -295.242E-03     38.9723E-03
            1465     3.34976E-03     89.6886E-03    -66.9525E+06    -69.7992E+06    -41.5090E+06     692.031E+03    -295.443E-03     590.695E-03    -295.252E-03     34.0475E-03    -295.667E-03     590.555E-03    -295.262E-03     32.2870E-03
            1466     2.67937E-03     89.6352E-03    -72.1352E+06    -77.7526E+06    -53.7063E+06     542.764E+03    -295.315E-03     590.550E-03    -295.235E-03     27.0484E-03    -295.516E-03     590.374E-03    -295.286E-03     25.7322E-03
            1467     2.00960E-03     89.5938E-03    -76.0595E+06    -84.6250E+06    -64.4952E+06     530.642E+03    -295.274E-03     590.490E-03    -295.216E-03     20.1048E-03    -295.455E-03     590.287E-03    -295.305E-03     19.1803E-03
            1468     1.33946E-03     89.5638E-03    -78.7314E+06    -90.2476E+06    -73.6019E+06     431.301E+03    -295.241E-03     590.427E-03    -295.186E-03     13.2946E-03    -295.405E-03     590.204E-03    -295.309E-03     12.6989E-03
            1469     669.924E-06     89.5461E-03    -81.1950E+06    -94.7641E+06    -80.2882E+06     31.7283E+03    -295.449E-03     590.339E-03    -294.890E-03     7.32735E-03    -295.604E-03     590.102E-03    -295.036E-03     7.01475E-03
            1470     12.7298E-03     89.9334E-03    -3.06419E+06     27.8306E+06     56.3045E+06     349.098E+03    -298.415E-03     593.664E-03    -295.249E-03     107.123E-03    -299.545E-03     594.718E-03    -295.003E-03     94.8343E-03
            1471     12.0598E-03     89.7390E-03    -6.50757E+06     25.8363E+06     53.2746E+06    -439.991E+03    -298.454E-03     593.706E-03    -295.252E-03     116.811E-03    -299.847E-03     595.013E-03    -295.014E-03     102.538E-03
            1472     11.3907E-03     89.5539E-03    -9.72111E+06     21.9259E+06     50.3843E+06    -167.266E+03    -298.296E-03     593.568E-03    -295.272E-03     113.579E-03    -299.582E-03     594.751E-03    -295.038E-03     100.144E-03
            1473     10.7205E-03     89.3698E-03    -13.0793E+06     19.6127E+06     49.0938E+06     593.907E+03    -298.537E-03     593.829E-03    -295.292E-03     112.119E-03    -299.777E-03     594.950E-03    -295.056E-03     99.2405E-03
            1474     10.0506E-03     89.1878E-03    -16.7381E+06     15.2047E+06     47.4562E+06     855.910E+03    -298.336E-03     593.643E-03    -295.307E-03     107.504E-03    -299.455E-03     594.619E-03    -295.067E-03     95.7171E-03
            1475     9.38056E-03     89.0166E-03    -21.2031E+06     8.60526E+06     43.0255E+06     1.23630E+06    -298.054E-03     593.366E-03    -295.312E-03     101.591E-03    -299.033E-03     594.176E-03    -295.079E-03     91.0701E-03
            1476     8.71032E-03     88.8516E-03    -25.7649E+06     2.14246E+06     36.7338E+06     1.71486E+06    -297.723E-03     593.032E-03    -295.309E-03     94.6938E-03    -298.559E-03     593.678E-03    -295.091E-03     85.5221E-03
            1477     8.04018E-03     88.7002E-03    -30.6529E+06    -4.04479E+06     28.6158E+06     1.79223E+06    -297.287E-03     592.588E-03    -295.301E-03     87.1186E-03    -297.994E-03     593.089E-03    -295.108E-03     79.2497E-03
            1478     7.36986E-03     88.5591E-03    -36.1349E+06    -10.8102E+06     19.3899E+06     1.71614E+06    -296.884E-03     592.179E-03    -295.295E-03     79.3741E-03    -297.479E-03     592.551E-03    -295.130E-03     72.7303E-03
            1479     6.69974E-03     88.4315E-03    -40.8629E+06    -26.3599E+06     8.24390E+06     1.91736E+06    -296.582E-03     591.877E-03    -295.295E-03     71.5805E-03    -297.065E-03     592.097E-03    -295.156E-03     66.0624E-03
            1480     6.02968E-03     88.3154E-03    -46.1980E+06    -42.0878E+06    -2.49475E+06     2.17043E+06    -296.307E-03     591.604E-03    -295.298E-03     63.8775E-03    -296.699E-03     591.691E-03    -295.182E-03     59.3692E-03
            1481     5.35941E-03     88.2128E-03    -51.6035E+06    -48.2887E+06    -10.2174E+06     2.06878E+06    -296.077E-03     591.376E-03    -295.299E-03     56.1907E-03    -296.414E-03     591.388E-03    -295.206E-03     52.5450E-03
            1482     4.68949E-03     88.1216E-03    -55.9893E+06    -53.9826E+06    -18.5989E+06     1.48041E+06    -295.881E-03     591.170E-03    -295.289E-03     48.6511E-03    -296.172E-03     591.124E-03    -295.223E-03     45.7346E-03
            1483     4.01961E-03     88.0435E-03    -61.5286E+06    -61.2201E+06    -29.5678E+06     858.245E+03    -295.614E-03     590.884E-03    -295.270E-03     41.2605E-03    -295.869E-03     590.789E-03    -295.240E-03     38.9633E-03
            1484     3.34926E-03     87.9779E-03    -67.3010E+06    -69.3003E+06    -41.6897E+06     654.107E+03    -295.434E-03     590.687E-03    -295.253E-03     34.0626E-03    -295.660E-03     590.549E-03    -295.263E-03     32.2966E-03
            1485     2.67966E-03     87.9245E-03    -71.6746E+06    -76.8402E+06    -53.8142E+06     581.803E+03    -295.378E-03     590.605E-03    -295.226E-03     27.0918E-03    -295.578E-03     590.433E-03    -295.280E-03     25.7834E-03
            1486     2.00977E-03     87.8824E-03    -75.7596E+06    -84.1050E+06    -65.1918E+06     335.364E+03    -295.303E-03     590.491E-03    -295.189E-03     20.2396E-03    -295.482E-03     590.292E-03    -295.283E-03     19.3065E-03
            1487     1.34019E-03     87.8536E-03    -79.4168E+06    -90.0891E+06    -73.8271E+06     356.245E+03    -295.225E-03     590.376E-03    -295.151E-03     13.5855E-03    -295.392E-03     590.155E-03    -295.274E-03     12.9959E-03
            1488     670.003E-06     87.8346E-03    -80.7867E+06    -93.5003E+06    -79.3435E+06     533.009E+03    -295.287E-03     590.263E-03    -294.976E-03     7.48021E-03    -295.442E-03     590.030E-03    -295.120E-03     7.12472E-03
            1489     12.7338E-03     88.2244E-03    -2.51583E+06     27.9094E+06     55.7749E+06     136.661E+03    -298.189E-03     593.421E-03    -295.231E-03     107.187E-03    -299.318E-03     594.478E-03    -294.989E-03     94.8669E-03
            1490     12.0630E-03     88.0301E-03    -5.26264E+06     26.5480E+06     52.9616E+06     157.669E+03    -298.351E-03     593.594E-03    -295.243E-03     116.693E-03    -299.729E-03     594.893E-03    -295.009E-03     102.530E-03
            1491     11.3907E-03     87.8448E-03    -9.24980E+06     20.7293E+06     49.1769E+06     119.709E+03    -298.311E-03     593.575E-03    -295.264E-03     113.206E-03    -299.578E-03     594.740E-03    -295.035E-03     99.8791E-03
            1492     10.7205E-03     87.6576E-03    -13.3630E+06     18.8679E+06     47.1639E+06     95.5062E+03    -298.309E-03     593.595E-03    -295.286E-03     111.576E-03    -299.541E-03     594.710E-03    -295.058E-03     98.7034E-03
            1493     10.0501E-03     87.4781E-03    -17.3077E+06     14.4590E+06     45.6748E+06     394.494E+03    -298.233E-03     593.544E-03    -295.310E-03     107.260E-03    -299.351E-03     594.519E-03    -295.078E-03     95.4465E-03
            1494     9.37995E-03     87.3044E-03    -21.5632E+06     6.92143E+06     41.9236E+06     1.10789E+06    -298.079E-03     593.402E-03    -295.323E-03     101.482E-03    -299.055E-03     594.204E-03    -295.092E-03     90.9608E-03
            1495     8.71011E-03     87.1417E-03    -26.2451E+06     1.65025E+06     36.1150E+06     1.63253E+06    -297.675E-03     592.997E-03    -295.322E-03     94.7049E-03    -298.513E-03     593.644E-03    -295.106E-03     85.5187E-03
            1496     8.03989E-03     86.9889E-03    -31.0068E+06    -4.12496E+06     28.6055E+06     1.89263E+06    -297.255E-03     592.576E-03    -295.321E-03     87.3030E-03    -297.964E-03     593.077E-03    -295.127E-03     79.4342E-03
            1497     7.36990E-03     86.8491E-03    -35.9204E+06    -10.5008E+06     19.8585E+06     2.16647E+06    -296.923E-03     592.242E-03    -295.319E-03     79.6275E-03    -297.519E-03     592.615E-03    -295.153E-03     72.9908E-03
            1498     6.69968E-03     86.7205E-03    -41.5746E+06    -26.5474E+06     8.36949E+06     2.25516E+06    -296.647E-03     591.965E-03    -295.317E-03     71.7804E-03    -297.135E-03     592.186E-03    -295.177E-03     66.2591E-03
            1499     6.02940E-03     86.6053E-03    -46.2195E+06    -41.1264E+06    -1.39258E+06     2.21077E+06    -296.421E-03     591.736E-03    -295.315E-03     63.8843E-03    -296.817E-03     591.826E-03    -295.195E-03     59.3683E-03
            1500     5.35954E-03     86.5015E-03    -50.7151E+06    -46.1756E+06    -8.82867E+06     1.61445E+06    -296.151E-03     591.456E-03    -295.305E-03     56.1824E-03    -296.489E-03     591.475E-03    -295.208E-03     52.5251E-03
            1501     4.68960E-03     86.4110E-03    -56.2347E+06    -52.6684E+06    -18.4241E+06     1.24033E+06    -295.828E-03     591.118E-03    -295.290E-03     48.6997E-03    -296.122E-03     591.079E-03    -295.225E-03     45.7657E-03
            1502     4.01941E-03     86.3328E-03    -61.5784E+06    -60.2037E+06    -29.8842E+06     1.20501E+06    -295.577E-03     590.854E-03    -295.277E-03     41.3485E-03    -295.834E-03     590.765E-03    -295.250E-03     39.0440E-03
            1503     3.34968E-03     86.2674E-03    -66.6185E+06    -68.2295E+06    -42.3172E+06     879.458E+03    -295.456E-03     590.717E-03    -295.261E-03     34.2196E-03    -295.680E-03     590.585E-03    -295.277E-03     32.4632E-03
            1504     2.67953E-03     86.2132E-03    -71.6815E+06    -76.2877E+06    -54.3386E+06     645.206E+03    -295.298E-03     590.548E-03    -295.251E-03     27.2953E-03    -295.498E-03     590.381E-03    -295.308E-03     25.9856E-03
            1505     2.00951E-03     86.1724E-03     -75.878E+06    -83.4866E+06    -65.0530E+06     722.759E+03    -295.194E-03     590.456E-03    -295.262E-03     20.5870E-03    -295.375E-03     590.260E-03    -295.356E-03     19.6571E-03
            1506     1.33932E-03     86.1418E-03    -78.5638E+06    -88.9473E+06    -73.5912E+06     309.051E+03    -295.229E-03     590.518E-03    -295.289E-03     13.9197E-03    -295.394E-03     590.302E-03    -295.414E-03     13.3014E-03
            1507     669.723E-06     86.1251E-03    -81.2121E+06    -93.1543E+06    -79.4072E+06    -180.796E+03    -295.317E-03     590.612E-03    -295.295E-03     7.65155E-03    -295.475E-03     590.382E-03    -295.439E-03     7.30989E-03
            1508     12.7296E-03     86.5139E-03    -2.86448E+06     27.6058E+06     55.3218E+06    -316.594E+03    -297.922E-03     593.175E-03    -295.254E-03     107.945E-03    -299.054E-03     594.235E-03    -295.013E-03     95.6518E-03
            1509     12.0594E-03     86.3184E-03    -6.47972E+06     25.4373E+06     52.2467E+06     66.2134E+03    -298.844E-03     594.108E-03    -295.265E-03     117.423E-03    -300.226E-03     595.407E-03    -295.031E-03     103.290E-03
            1510     11.3916E-03     86.1339E-03    -9.86528E+06     20.0923E+06     48.6218E+06     890.386E+03    -298.606E-03     593.873E-03    -295.267E-03     113.771E-03    -299.883E-03     595.046E-03    -295.039E-03     100.406E-03
            1511     10.7210E-03     85.9486E-03    -13.6359E+06     19.5637E+06     46.2306E+06     1.04275E+06    -298.366E-03     593.643E-03    -295.277E-03     112.191E-03    -299.609E-03     594.773E-03    -295.055E-03     99.2745E-03
            1512     10.0506E-03     85.7671E-03    -17.9669E+06     14.3375E+06     43.9110E+06     659.369E+03    -298.236E-03     593.535E-03    -295.299E-03     107.352E-03    -299.354E-03     594.513E-03    -295.074E-03     95.5589E-03
            1513     9.38047E-03     85.5940E-03    -22.3477E+06     5.54314E+06     40.0485E+06     518.838E+03    -297.901E-03     593.220E-03    -295.319E-03     101.300E-03    -298.875E-03     594.018E-03    -295.094E-03     90.7748E-03
            1514     8.70995E-03     85.4308E-03    -26.7126E+06     724.794E+03     34.1898E+06     991.909E+03    -297.500E-03     592.830E-03    -295.330E-03     94.5929E-03    -298.337E-03     593.475E-03    -295.121E-03     85.3904E-03
            1515     8.03969E-03     85.2787E-03    -31.3613E+06    -5.08965E+06     26.6411E+06     1.58383E+06    -297.197E-03     592.536E-03    -295.339E-03     87.2776E-03    -297.905E-03     593.037E-03    -295.152E-03     79.3948E-03
            1516     7.36928E-03     85.1379E-03    -36.3452E+06    -11.1167E+06     19.3101E+06     2.16670E+06    -296.925E-03     592.273E-03    -295.347E-03     79.5548E-03    -297.522E-03     592.645E-03    -295.182E-03     72.9107E-03
            1517     6.69923E-03     85.0100E-03    -40.8087E+06    -25.2969E+06     10.0143E+06     2.24628E+06    -296.729E-03     592.079E-03    -295.350E-03     71.7729E-03    -297.216E-03     592.303E-03    -295.204E-03     66.2559E-03
            1518     6.02958E-03     84.8938E-03    -45.5917E+06    -39.2671E+06    -251.681E+03     1.47015E+06    -296.501E-03     591.840E-03    -295.339E-03     64.0694E-03    -296.898E-03     591.937E-03    -295.218E-03     59.5399E-03
            1519     5.35955E-03     84.7909E-03    -50.9434E+06    -45.1162E+06    -9.37372E+06     1.21649E+06    -296.144E-03     591.467E-03    -295.323E-03     56.4412E-03    -296.485E-03     591.494E-03    -295.230E-03     52.7643E-03
            1520     4.68936E-03     84.7002E-03    -56.3894E+06    -52.2417E+06    -19.4969E+06     1.16807E+06    -295.816E-03     591.129E-03    -295.312E-03     48.8774E-03    -296.111E-03     591.094E-03    -295.252E-03     45.9290E-03
            1521     4.01940E-03     84.6224E-03    -61.4482E+06    -59.5828E+06    -29.9739E+06     1.11815E+06    -295.608E-03     590.915E-03    -295.307E-03     41.5106E-03    -295.865E-03     590.829E-03    -295.281E-03     39.2049E-03
            1522     3.34919E-03     84.5561E-03    -66.3984E+06    -67.3204E+06    -41.5043E+06     1.31190E+06    -295.431E-03     590.733E-03    -295.302E-03     34.3292E-03    -295.657E-03     590.604E-03    -295.315E-03     32.5742E-03
            1523     2.67931E-03     84.5031E-03    -70.9982E+06    -75.2841E+06    -53.6239E+06     1.12521E+06    -295.290E-03     590.595E-03    -295.304E-03     27.2362E-03    -295.490E-03     590.430E-03    -295.360E-03     25.9228E-03
            1524     2.00925E-03     84.4611E-03    -74.7076E+06    -82.2728E+06    -64.4552E+06     578.094E+03    -295.223E-03     590.551E-03    -295.328E-03     20.3815E-03    -295.401E-03     590.358E-03    -295.422E-03     19.4554E-03
            1525     1.33953E-03     84.4313E-03    -77.8790E+06    -87.9923E+06    -72.9184E+06     472.914E+03    -295.273E-03     590.643E-03    -295.371E-03     13.6588E-03    -295.436E-03     590.430E-03    -295.495E-03     13.0610E-03
            1526     669.583E-06     84.4123E-03    -79.4934E+06    -91.6495E+06    -78.6213E+06     693.054E+03    -295.480E-03     590.794E-03    -295.314E-03     7.27402E-03    -295.633E-03     590.568E-03    -295.459E-03     6.99599E-03
            1527     12.7320E-03     84.8047E-03    -3.18331E+06     28.0025E+06     55.3090E+06     272.085E+03    -298.214E-03     593.476E-03    -295.262E-03     106.840E-03    -299.345E-03     594.535E-03    -295.021E-03     94.5032E-03
            1528     12.0621E-03     84.6067E-03    -6.44047E+06     24.7694E+06     52.0564E+06     470.984E+03    -298.425E-03     593.697E-03    -295.271E-03     116.480E-03    -299.808E-03     594.994E-03    -295.038E-03     102.273E-03
            1529     11.3899E-03     84.4233E-03    -9.87218E+06     18.8312E+06     48.4721E+06     479.737E+03    -298.430E-03     593.719E-03    -295.289E-03     113.527E-03    -299.706E-03     594.886E-03    -295.060E-03     100.134E-03
            1530     10.7201E-03     84.2373E-03    -13.2210E+06     19.0441E+06     46.8348E+06     982.457E+03    -298.649E-03     593.947E-03    -295.298E-03     112.278E-03    -299.887E-03     595.070E-03    -295.073E-03     99.4005E-03
            1531     10.0504E-03     84.0560E-03    -16.8972E+06     14.3309E+06     44.9521E+06     1.56829E+06    -298.319E-03     593.630E-03    -295.311E-03     107.534E-03    -299.435E-03     594.606E-03    -295.083E-03     95.7431E-03
            1532     9.38010E-03     83.8838E-03    -21.4792E+06     6.13713E+06     40.2908E+06     1.63488E+06    -297.847E-03     593.174E-03    -295.327E-03     101.551E-03    -298.821E-03     593.977E-03    -295.104E-03     91.0185E-03
            1533     8.70985E-03     83.7206E-03    -26.5127E+06     412.606E+03     34.1530E+06     1.44120E+06    -297.526E-03     592.869E-03    -295.342E-03     94.7002E-03    -298.363E-03     593.513E-03    -295.134E-03     85.5010E-03
            1534     8.03956E-03     83.5680E-03    -31.8362E+06    -5.84643E+06     26.7613E+06     1.59151E+06    -297.246E-03     592.598E-03    -295.352E-03     87.1536E-03    -297.954E-03     593.094E-03    -295.163E-03     79.2736E-03
            1535     7.36955E-03     83.4275E-03    -37.0184E+06    -12.2882E+06     18.3631E+06     1.91243E+06    -296.941E-03     592.294E-03    -295.353E-03     79.3636E-03    -297.537E-03     592.662E-03    -295.190E-03     72.7202E-03
            1536     6.69941E-03     83.2988E-03    -42.4498E+06    -23.1387E+06     8.02692E+06     1.72352E+06    -296.633E-03     591.984E-03    -295.351E-03     71.6281E-03    -297.129E-03     592.223E-03    -295.215E-03     66.1005E-03
            1537     6.02900E-03     83.1830E-03    -47.5177E+06    -36.6339E+06    -3.05344E+06     840.934E+03    -296.339E-03     591.688E-03    -295.349E-03     63.9841E-03    -296.747E-03     591.806E-03    -295.242E-03     59.4293E-03
            1538     5.35901E-03     83.0798E-03    -51.8147E+06     -45.726E+06    -11.7291E+06     319.637E+03    -296.084E-03     591.437E-03    -295.353E-03     56.3852E-03    -296.425E-03     591.466E-03    -295.271E-03     52.6775E-03
            1539     4.68914E-03     82.9895E-03    -56.1876E+06    -52.1159E+06    -19.8588E+06     652.609E+03    -295.876E-03     591.231E-03    -295.355E-03     48.8933E-03    -296.170E-03     591.198E-03    -295.298E-03     45.9365E-03
            1540     4.01914E-03     82.9112E-03    -61.1336E+06    -59.2163E+06    -29.8208E+06     747.768E+03    -295.657E-03     591.008E-03    -295.351E-03     41.5237E-03    -295.914E-03     590.923E-03    -295.325E-03     39.2038E-03
            1541     3.34930E-03     82.8457E-03    -65.9842E+06    -66.9537E+06    -41.2588E+06     534.203E+03    -295.498E-03     590.841E-03    -295.343E-03     34.3218E-03    -295.723E-03     590.713E-03    -295.357E-03     32.5368E-03
            1542     2.67924E-03     82.7916E-03    -70.2070E+06    -74.4189E+06    -52.8666E+06     538.863E+03    -295.477E-03     590.801E-03    -295.323E-03     27.1628E-03    -295.675E-03     590.638E-03    -295.378E-03     25.8450E-03
            1543     2.00954E-03     82.7504E-03    -73.9962E+06    -81.2412E+06    -63.1492E+06     742.847E+03    -295.428E-03     590.714E-03    -295.285E-03     20.1604E-03    -295.606E-03     590.523E-03    -295.376E-03     19.2435E-03
            1544     1.33950E-03     82.7197E-03    -76.9398E+06    -86.9935E+06    -71.8768E+06     556.442E+03    -295.310E-03     590.552E-03    -295.242E-03     13.4809E-03    -295.472E-03     590.341E-03    -295.364E-03     12.9202E-03
            1545     669.891E-06     82.7012E-03    -78.5523E+06    -90.5183E+06    -77.2075E+06    -59.1470E+03    -295.417E-03     590.452E-03    -295.035E-03     7.23983E-03    -295.569E-03     590.228E-03    -295.176E-03     6.92055E-03
            1546     12.7316E-03     83.0928E-03    -2.96680E+06     26.3365E+06     54.3108E+06     265.843E+03    -298.107E-03     593.375E-03    -295.268E-03     107.943E-03    -299.243E-03     594.436E-03    -295.030E-03     95.5706E-03
            1547     12.0604E-03     82.8984E-03    -5.46788E+06     25.4136E+06     52.4966E+06     1.18093E+06    -298.759E-03     594.040E-03    -295.281E-03     117.653E-03    -300.135E-03     595.334E-03    -295.047E-03     103.586E-03
            1548     11.3909E-03     82.7132E-03    -8.84047E+06     19.8052E+06     49.3636E+06     872.345E+03    -298.724E-03     594.010E-03    -295.286E-03     113.149E-03    -299.984E-03     595.166E-03    -295.055E-03     99.8641E-03
            1549     10.7206E-03     82.5255E-03    -12.8227E+06     17.2609E+06     46.9317E+06     854.017E+03    -298.445E-03     593.736E-03    -295.291E-03     111.290E-03    -299.667E-03     594.838E-03    -295.063E-03     98.4633E-03
            1550     10.0502E-03     82.3459E-03    -17.1249E+06     13.0237E+06     44.6786E+06     1.71832E+06    -298.010E-03     593.324E-03    -295.315E-03     106.935E-03    -299.119E-03     594.290E-03    -295.085E-03     95.1665E-03
            1551     9.37988E-03     82.1730E-03    -21.4210E+06     6.52804E+06     41.3422E+06     2.30650E+06    -297.827E-03     593.172E-03    -295.344E-03     101.312E-03    -298.800E-03     593.972E-03    -295.116E-03     90.8124E-03
            1552     8.70973E-03     82.0100E-03    -26.3264E+06     763.489E+03     35.9112E+06     2.39234E+06    -297.621E-03     592.980E-03    -295.359E-03     94.5793E-03    -298.458E-03     593.623E-03    -295.142E-03     85.3973E-03
            1553     8.03966E-03     81.8572E-03    -31.1585E+06    -5.21491E+06     28.2785E+06     2.30272E+06    -297.288E-03     592.649E-03    -295.361E-03     87.2229E-03    -297.997E-03     593.146E-03    -295.167E-03     79.3482E-03
            1554     7.36946E-03     81.7167E-03    -35.8177E+06    -11.3677E+06     19.3905E+06     1.88395E+06    -296.933E-03     592.292E-03    -295.359E-03     79.5788E-03    -297.527E-03     592.662E-03    -295.193E-03     72.9278E-03
            1555     6.69929E-03     81.5882E-03    -40.3922E+06    -21.9644E+06     9.69190E+06     1.48505E+06    -296.599E-03     591.961E-03    -295.362E-03     71.8136E-03    -297.089E-03     592.202E-03    -295.223E-03     66.2684E-03
            1556     6.02939E-03     81.4725E-03    -45.0659E+06    -34.7938E+06    -1.21996E+06     1.42468E+06    -296.297E-03     591.663E-03    -295.366E-03     63.9693E-03    -296.698E-03     591.784E-03    -295.257E-03     59.4188E-03
            1557     5.35910E-03     81.3690E-03    -50.5679E+06    -44.2445E+06    -11.6814E+06     953.693E+03    -296.064E-03     591.434E-03    -295.370E-03     56.2556E-03    -296.401E-03     591.468E-03    -295.291E-03     52.5602E-03
            1558     4.68894E-03     81.2784E-03    -56.2371E+06    -52.0016E+06    -20.7671E+06     78.1681E+03    -295.878E-03     591.252E-03    -295.374E-03     48.7068E-03    -296.171E-03     591.221E-03    -295.321E-03     45.7321E-03
            1559     4.01900E-03     81.2002E-03    -61.0803E+06    -59.3107E+06    -30.8049E+06    -100.130E+03    -295.732E-03     591.097E-03    -295.365E-03     41.3112E-03    -295.986E-03     591.013E-03    -295.344E-03     38.9703E-03
            1560     3.34896E-03     81.1346E-03    -65.6142E+06    -66.6982E+06    -41.7747E+06     119.827E+03    -295.628E-03     590.968E-03    -295.340E-03     34.1117E-03    -295.850E-03     590.842E-03    -295.357E-03     32.3240E-03
            1561     2.67929E-03     81.0803E-03    -70.1362E+06    -74.1984E+06    -52.6789E+06     71.3589E+03    -295.533E-03     590.833E-03    -295.301E-03     27.1124E-03    -295.730E-03     590.672E-03    -295.355E-03     25.7828E-03
            1562     2.00960E-03     81.0387E-03    -73.9063E+06    -81.0495E+06    -62.9468E+06    -185.222E+03    -295.440E-03     590.685E-03    -295.244E-03     20.3079E-03    -295.618E-03     590.495E-03    -295.334E-03     19.3644E-03
            1563     1.34017E-03     81.0090E-03    -76.5802E+06    -86.4007E+06    -71.0551E+06    -147.523E+03    -295.297E-03     590.481E-03    -295.184E-03     13.8491E-03    -295.459E-03     590.270E-03    -295.303E-03     13.2436E-03
            1564     669.998E-06     80.9905E-03    -78.8124E+06    -90.7381E+06    -77.3476E+06     19.9066E+03    -295.080E-03     590.310E-03    -295.230E-03     7.69731E-03    -295.233E-03     590.085E-03    -295.371E-03     7.37061E-03
            1565     12.7294E-03     81.3839E-03    -2.48980E+06     24.8880E+06     54.7345E+06     406.373E+03    -297.971E-03     593.263E-03    -295.292E-03     107.558E-03    -299.091E-03     594.304E-03    -295.051E-03     95.3123E-03
            1566     12.0603E-03     81.1849E-03    -6.28860E+06     24.1999E+06     51.1514E+06     409.867E+03    -299.126E-03     594.415E-03    -295.289E-03     116.766E-03    -300.503E-03     595.708E-03    -295.060E-03     102.582E-03
            1567     11.3911E-03     81.0009E-03    -9.82735E+06     19.9682E+06     47.7799E+06     799.936E+03    -298.786E-03     594.063E-03    -295.277E-03     113.378E-03    -300.060E-03     595.235E-03    -295.053E-03     99.9859E-03
            1568     10.7212E-03     80.8162E-03    -13.2577E+06     15.6215E+06     46.6734E+06     1.20189E+06    -298.344E-03     593.638E-03    -295.294E-03     112.259E-03    -299.581E-03     594.748E-03    -295.064E-03     99.3529E-03
            1569     10.0506E-03     80.6361E-03    -17.0649E+06     11.8304E+06     45.7027E+06     1.75316E+06    -298.088E-03     593.415E-03    -295.327E-03     107.533E-03    -299.201E-03     594.378E-03    -295.091E-03     95.7605E-03
            1570     9.38007E-03     80.4627E-03    -21.4584E+06     6.35437E+06     41.9055E+06     1.95355E+06    -297.879E-03     593.231E-03    -295.351E-03     101.541E-03    -298.855E-03     594.032E-03    -295.120E-03     91.0262E-03
            1571     8.70979E-03     80.2991E-03    -25.7904E+06     1.15314E+06     35.7949E+06     1.96359E+06    -297.563E-03     592.926E-03    -295.363E-03     94.6871E-03    -298.399E-03     593.571E-03    -295.148E-03     85.4941E-03
            1572     8.03952E-03     80.1467E-03    -29.7868E+06    -4.15429E+06     28.5199E+06     1.77517E+06    -297.240E-03     592.610E-03    -295.371E-03     87.3949E-03    -297.945E-03     593.112E-03    -295.179E-03     79.5079E-03
            1573     7.36929E-03     80.0060E-03    -34.5373E+06    -10.2015E+06     20.3963E+06     1.60714E+06    -296.936E-03     592.312E-03    -295.376E-03     79.6632E-03    -297.528E-03     592.686E-03    -295.209E-03     72.9959E-03
            1574     6.69916E-03     79.8774E-03    -39.6573E+06    -21.1204E+06     11.0404E+06     1.49228E+06    -296.619E-03     592.002E-03    -295.383E-03     71.7969E-03    -297.110E-03     592.245E-03    -295.240E-03     66.2435E-03
            1575     6.02884E-03     79.7615E-03    -44.6571E+06    -34.3253E+06     650.074E+03     1.35329E+06    -296.364E-03     591.752E-03    -295.388E-03     64.0463E-03    -296.766E-03     591.872E-03    -295.270E-03     59.4895E-03
            1576     5.35900E-03     79.6583E-03    -49.7284E+06    -43.1437E+06    -9.11707E+06     1.36819E+06    -296.144E-03     591.530E-03    -295.386E-03     56.3426E-03    -296.483E-03     591.566E-03    -295.297E-03     52.6443E-03
            1577     4.68912E-03     79.5672E-03    -54.5716E+06    -50.2067E+06    -19.4913E+06     1.28390E+06    -295.936E-03     591.309E-03    -295.374E-03     48.7088E-03    -296.225E-03     591.283E-03    -295.319E-03     45.7459E-03
            1578     4.01913E-03     79.4894E-03    -60.0893E+06    -58.3349E+06    -30.7054E+06     675.601E+03    -295.784E-03     591.136E-03    -295.352E-03     41.3114E-03    -296.035E-03     591.056E-03    -295.334E-03     38.9826E-03
            1579     3.34952E-03     79.4228E-03    -65.4477E+06    -66.2723E+06    -41.4246E+06     17.1792E+03    -295.635E-03     590.958E-03    -295.323E-03     34.2187E-03    -295.858E-03     590.834E-03    -295.339E-03     32.4174E-03
            1580     2.67959E-03     79.3696E-03    -69.8424E+06    -73.9750E+06    -52.9723E+06    -306.088E+03    -295.436E-03     590.726E-03    -295.290E-03     27.2740E-03    -295.633E-03     590.566E-03    -295.346E-03     25.9282E-03
            1581     2.00948E-03     79.3273E-03    -73.7274E+06    -81.2816E+06    -63.9877E+06    -263.197E+03    -295.284E-03     590.559E-03    -295.275E-03     20.4540E-03    -295.459E-03     590.370E-03    -295.370E-03     19.5009E-03
            1582     1.33924E-03     79.2983E-03    -77.0040E+06    -87.3229E+06    -72.7970E+06    -106.873E+03    -295.256E-03     590.539E-03    -295.283E-03     13.8949E-03    -295.417E-03     590.327E-03    -295.408E-03     13.2760E-03
            1583     669.685E-06     79.2792E-03    -78.5733E+06    -90.4334E+06    -77.2962E+06     172.272E+03    -295.008E-03     590.596E-03    -295.588E-03     7.62083E-03    -295.160E-03     590.372E-03    -295.729E-03     7.30252E-03
            1584     12.7322E-03     79.6726E-03    -2.96378E+06     24.7068E+06     55.2991E+06     264.506E+03    -298.600E-03     593.859E-03    -295.259E-03     106.467E-03    -299.716E-03     594.892E-03    -295.014E-03     94.2058E-03
            1585     12.0617E-03     79.4742E-03    -6.04450E+06     23.0614E+06     52.1793E+06     678.250E+03    -298.257E-03     593.518E-03    -295.261E-03     116.535E-03    -299.630E-03     594.800E-03    -295.025E-03     102.396E-03
            1586     11.3903E-03     79.2909E-03    -9.22177E+06     18.7876E+06     48.6597E+06     1.21992E+06    -297.970E-03     593.265E-03    -295.295E-03     113.343E-03    -299.239E-03     594.426E-03    -295.065E-03     100.006E-03
            1587     10.7193E-03     79.1051E-03    -12.9026E+06     14.4253E+06     47.1292E+06     1.36706E+06    -298.328E-03     593.664E-03    -295.336E-03     112.260E-03    -299.563E-03     594.767E-03    -295.103E-03     99.3520E-03
            1588     10.0497E-03     78.9247E-03    -16.5275E+06     11.0481E+06     46.1042E+06     1.42409E+06    -298.326E-03     593.690E-03    -295.363E-03     107.738E-03    -299.444E-03     594.654E-03    -295.125E-03     95.8921E-03
            1589     9.37986E-03     78.7521E-03    -20.4667E+06     6.86526E+06     42.2707E+06     1.52701E+06    -297.985E-03     593.362E-03    -295.376E-03     101.909E-03    -298.962E-03     594.167E-03    -295.145E-03     91.3603E-03
            1590     8.70961E-03     78.5886E-03    -24.6220E+06     1.94137E+06     36.1584E+06     1.31253E+06    -297.645E-03     593.030E-03    -295.385E-03     95.0373E-03    -298.480E-03     593.679E-03    -295.171E-03     85.8261E-03
            1591     8.03928E-03     78.4362E-03    -29.4189E+06    -3.99318E+06     28.3769E+06     1.26524E+06    -297.331E-03     592.718E-03    -295.388E-03     87.4379E-03    -298.034E-03     593.221E-03    -295.197E-03     79.5362E-03
            1592     7.36920E-03     78.2948E-03    -34.1421E+06    -9.98177E+06     20.4344E+06     1.37844E+06    -296.940E-03     592.332E-03    -295.392E-03     79.6574E-03    -297.531E-03     592.707E-03    -295.226E-03     72.9755E-03
            1593     6.69911E-03     78.1668E-03    -39.1391E+06    -20.5545E+06     11.4613E+06     1.31116E+06    -296.637E-03     592.038E-03    -295.401E-03     71.8634E-03    -297.128E-03     592.284E-03    -295.257E-03     66.2949E-03
            1594     6.02916E-03     78.0507E-03    -44.5863E+06    -34.0296E+06     606.720E+03     1.25469E+06    -296.405E-03     591.808E-03    -295.403E-03     64.1336E-03    -296.808E-03     591.931E-03    -295.286E-03     59.5551E-03
            1595     5.35901E-03     77.9469E-03    -49.3911E+06    -42.8582E+06    -9.17046E+06     1.27687E+06    -296.180E-03     591.578E-03    -295.399E-03     56.4772E-03    -296.518E-03     591.616E-03    -295.311E-03     52.7633E-03
            1596     4.68898E-03     77.8564E-03    -53.9947E+06    -49.2978E+06    -17.4536E+06     1.26828E+06    -295.972E-03     591.365E-03    -295.393E-03     48.9364E-03    -296.263E-03     591.340E-03    -295.331E-03     45.9730E-03
            1597     4.01920E-03     77.7776E-03    -59.0744E+06    -56.7129E+06    -27.9163E+06     1.16832E+06    -295.756E-03     591.132E-03    -295.377E-03     41.6150E-03    -296.009E-03     591.055E-03    -295.348E-03     39.2857E-03
            1598     3.34901E-03     77.7123E-03    -64.2486E+06    -65.2050E+06    -40.9170E+06     962.009E+03    -295.558E-03     590.911E-03    -295.353E-03     34.4939E-03    -295.778E-03     590.790E-03    -295.370E-03     32.6967E-03
            1599     2.67916E-03     77.6578E-03    -69.1634E+06    -73.5960E+06    -53.3795E+06     965.038E+03    -295.422E-03     590.761E-03    -295.339E-03     27.4341E-03    -295.615E-03     590.602E-03    -295.399E-03     26.0986E-03
            1600     2.00939E-03     77.6173E-03    -73.6931E+06    -81.0896E+06    -64.0304E+06     919.071E+03    -295.365E-03     590.698E-03    -295.333E-03     20.4843E-03    -295.540E-03     590.509E-03    -295.428E-03     19.5542E-03
            1601     1.33977E-03     77.5862E-03    -76.5158E+06    -86.4548E+06    -71.9122E+06     610.038E+03    -295.345E-03     590.673E-03    -295.328E-03     13.6790E-03    -295.506E-03     590.464E-03    -295.451E-03     13.0834E-03
            1602     669.709E-06     77.5688E-03    -78.3908E+06    -90.2567E+06    -77.4464E+06    -39.7889E+03    -295.144E-03     590.654E-03    -295.510E-03     7.47834E-03    -295.295E-03     590.431E-03    -295.653E-03     7.13931E-03
            1603     12.7321E-03     77.9614E-03    -2.76806E+06     23.9059E+06     53.5161E+06     126.998E+03    -298.197E-03     593.461E-03    -295.264E-03     108.589E-03    -299.321E-03     594.505E-03    -295.027E-03     96.3294E-03
            1604     12.0613E-03     77.7665E-03    -6.01790E+06     21.4531E+06     52.1857E+06     279.553E+03    -298.524E-03     593.815E-03    -295.291E-03     118.257E-03    -299.901E-03     595.096E-03    -295.053E-03     104.181E-03
            1605     11.3905E-03     77.5816E-03    -8.95371E+06     18.0345E+06     50.6345E+06     610.895E+03    -298.311E-03     593.634E-03    -295.323E-03     113.797E-03    -299.584E-03     594.793E-03    -295.083E-03     100.440E-03
            1606     10.7205E-03     77.3948E-03    -11.7957E+06     15.3404E+06     48.7372E+06     1.17331E+06    -298.273E-03     593.625E-03    -295.351E-03     111.772E-03    -299.499E-03     594.722E-03    -295.113E-03     98.8954E-03
            1607     10.0498E-03     77.2137E-03    -15.9701E+06     11.1737E+06     45.2902E+06     1.08061E+06    -298.088E-03     593.465E-03    -295.377E-03     107.299E-03    -299.196E-03     594.425E-03    -295.144E-03     95.4856E-03
            1608     9.37925E-03     77.0413E-03    -20.0163E+06     6.86199E+06     41.4273E+06     1.01654E+06    -297.968E-03     593.367E-03    -295.399E-03     101.553E-03    -298.938E-03     594.170E-03    -295.172E-03     91.0137E-03
            1609     8.70904E-03     76.8777E-03    -24.5219E+06     1.85292E+06     36.2876E+06     1.16522E+06    -297.740E-03     593.149E-03    -295.409E-03     94.8417E-03    -298.573E-03     593.797E-03    -295.195E-03     85.6197E-03
            1610     8.03935E-03     76.7246E-03    -29.2854E+06    -3.85676E+06     29.2572E+06     1.24004E+06    -297.377E-03     592.788E-03    -295.411E-03     87.4316E-03    -298.084E-03     593.292E-03    -295.217E-03     79.4958E-03
            1611     7.36913E-03     76.5848E-03    -33.9704E+06    -9.87372E+06     20.9191E+06     1.11647E+06    -296.988E-03     592.399E-03    -295.411E-03     79.7083E-03    -297.581E-03     592.775E-03    -295.242E-03     72.9959E-03
            1612     6.69881E-03     76.4555E-03    -38.6748E+06    -20.5342E+06     10.9580E+06     1.40046E+06    -296.660E-03     592.073E-03    -295.413E-03     71.8820E-03    -297.149E-03     592.319E-03    -295.272E-03     66.3034E-03
            1613     6.02874E-03     76.3396E-03    -43.4418E+06    -33.3824E+06     313.841E+03     1.55033E+06    -296.410E-03     591.825E-03    -295.415E-03     64.1632E-03    -296.809E-03     591.950E-03    -295.302E-03     59.5936E-03
            1614     5.35876E-03     76.2361E-03    -48.4899E+06    -41.9454E+06    -8.63242E+06     1.18838E+06    -296.136E-03     591.556E-03    -295.420E-03     56.5351E-03    -296.472E-03     591.596E-03    -295.332E-03     52.8278E-03
            1615     4.68890E-03     76.1447E-03    -53.8956E+06    -49.1452E+06    -18.0009E+06     984.120E+03    -295.857E-03     591.284E-03    -295.427E-03     49.0668E-03    -296.148E-03     591.261E-03    -295.367E-03     46.0935E-03
            1616     4.01876E-03     76.0670E-03    -59.0525E+06    -56.7893E+06    -29.0417E+06     1.35746E+06    -295.699E-03     591.128E-03    -295.429E-03     41.8086E-03    -295.950E-03     591.053E-03    -295.407E-03     39.4759E-03
            1617     3.34908E-03     76.0004E-03    -64.1873E+06    -64.7340E+06    -40.3699E+06     1.90777E+06    -295.585E-03     591.013E-03    -295.429E-03     34.5241E-03    -295.805E-03     590.894E-03    -295.444E-03     32.7475E-03
            1618     2.67906E-03     75.9476E-03    -68.5736E+06    -72.1990E+06    -51.2665E+06     1.87135E+06    -295.520E-03     590.942E-03    -295.422E-03     27.4450E-03    -295.715E-03     590.786E-03    -295.474E-03     26.1308E-03
            1619     2.00919E-03     75.9046E-03    -71.9511E+06    -78.7094E+06    -61.2367E+06     1.26922E+06    -295.538E-03     590.931E-03    -295.393E-03     20.5162E-03    -295.712E-03     590.748E-03    -295.481E-03     19.5833E-03
            1620     1.33941E-03     75.8759E-03    -75.3884E+06    -84.8766E+06    -70.1919E+06     623.155E+03    -295.490E-03     590.818E-03    -295.328E-03     13.7589E-03    -295.650E-03     590.613E-03    -295.446E-03     13.1540E-03
            1621     669.958E-06     75.8561E-03    -77.6638E+06    -89.0008E+06    -75.9933E+06     612.261E+03    -295.357E-03     590.576E-03    -295.218E-03     7.30196E-03    -295.509E-03     590.356E-03    -295.357E-03     7.00153E-03
            1622     12.7283E-03     76.2494E-03    -3.05282E+06     23.5771E+06     53.8194E+06     257.936E+03    -298.016E-03     593.334E-03    -295.319E-03     107.506E-03    -299.139E-03     594.375E-03    -295.080E-03     95.2012E-03
            1623     12.0589E-03     76.0545E-03    -5.67929E+06     21.7443E+06     51.5311E+06     250.613E+03    -298.741E-03     594.074E-03    -295.333E-03     116.719E-03    -300.118E-03     595.358E-03    -295.098E-03     102.491E-03
            1624     11.3901E-03     75.8694E-03    -9.28417E+06     17.2230E+06     47.5365E+06    -236.284E+03    -298.605E-03     593.943E-03    -295.337E-03     113.937E-03    -299.883E-03     595.111E-03    -295.111E-03     100.468E-03
            1625     10.7200E-03     75.6847E-03    -13.0917E+06     13.6725E+06     45.8970E+06    -383.583E+03    -298.482E-03     593.840E-03    -295.358E-03     112.561E-03    -299.718E-03     594.945E-03    -295.129E-03     99.6030E-03
            1626     10.0497E-03     75.5038E-03    -16.2471E+06     10.9373E+06     45.5691E+06     311.465E+03    -298.283E-03     593.669E-03    -295.386E-03     107.627E-03    -299.394E-03     594.629E-03    -295.151E-03     95.8115E-03
            1627     9.37946E-03     75.3304E-03    -20.1621E+06     6.76839E+06     41.8942E+06     555.546E+03    -298.032E-03     593.432E-03    -295.400E-03     101.367E-03    -299.004E-03     594.235E-03    -295.171E-03     90.7943E-03
            1628     8.70958E-03     75.1665E-03    -24.4097E+06     1.66029E+06     35.7144E+06     615.581E+03    -297.629E-03     593.035E-03    -295.405E-03     94.5268E-03    -298.462E-03     593.683E-03    -295.194E-03     85.2691E-03
            1629     8.03885E-03     75.0143E-03    -29.0767E+06    -4.20838E+06     28.0096E+06     698.277E+03    -297.236E-03     592.649E-03    -295.413E-03     87.2390E-03    -297.939E-03     593.152E-03    -295.224E-03     79.2986E-03
            1630     7.36885E-03     74.8729E-03    -33.8754E+06    -10.2151E+06     20.1511E+06     1.13827E+06    -296.954E-03     592.377E-03    -295.422E-03     79.6455E-03    -297.544E-03     592.751E-03    -295.258E-03     72.9514E-03
            1631     6.69910E-03     74.7451E-03    -38.8486E+06    -20.6465E+06     10.9177E+06     1.29000E+06    -296.676E-03     592.107E-03    -295.431E-03     71.9845E-03    -297.165E-03     592.353E-03    -295.290E-03     66.4209E-03
            1632     6.02886E-03     74.6286E-03    -43.6870E+06    -32.9596E+06     567.325E+03     1.18452E+06    -296.363E-03     591.802E-03    -295.439E-03     64.2907E-03    -296.764E-03     591.929E-03    -295.325E-03     59.7207E-03
            1633     5.35889E-03     74.5247E-03    -48.6319E+06    -41.5695E+06    -9.59821E+06     1.41308E+06    -296.049E-03     591.499E-03    -295.450E-03     56.6987E-03    -296.385E-03     591.543E-03    -295.367E-03     52.9848E-03
            1634     4.68853E-03     74.4345E-03    -53.7194E+06    -49.0288E+06    -19.6166E+06     1.88455E+06    -295.875E-03     591.339E-03    -295.464E-03     49.1651E-03    -296.162E-03     591.318E-03    -295.413E-03     46.2100E-03
            1635     4.01857E-03     74.3552E-03    -58.7700E+06    -56.4615E+06    -29.1072E+06     1.88383E+06    -295.738E-03     591.215E-03    -295.477E-03     41.6305E-03    -295.988E-03     591.141E-03    -295.456E-03     39.3151E-03
            1636     3.34843E-03     74.2895E-03    -63.2290E+06    -63.4897E+06    -39.0096E+06     1.31105E+06    -295.644E-03     591.124E-03    -295.480E-03     34.3528E-03    -295.864E-03     591.007E-03    -295.491E-03     32.5714E-03
            1637     2.67881E-03     74.2352E-03    -67.2391E+06    -70.6074E+06    -49.9116E+06     797.315E+03    -295.632E-03     591.092E-03    -295.461E-03     27.3244E-03    -295.824E-03     590.941E-03    -295.510E-03     26.0048E-03
            1638     2.00920E-03     74.1936E-03    -70.9932E+06    -77.4689E+06    -60.2429E+06     797.816E+03    -295.542E-03     590.968E-03    -295.426E-03     20.4168E-03    -295.714E-03     590.788E-03    -295.512E-03     19.4697E-03
            1639     1.33965E-03     74.1631E-03    -73.5250E+06    -82.9113E+06    -68.7392E+06     926.011E+03    -295.458E-03     590.848E-03    -295.390E-03     13.7294E-03    -295.614E-03     590.647E-03    -295.506E-03     13.1176E-03
            1640     669.724E-06     74.1460E-03    -75.8343E+06    -86.9703E+06    -74.4689E+06     348.074E+03    -295.508E-03     590.750E-03    -295.242E-03     7.44473E-03    -295.655E-03     590.536E-03    -295.378E-03     7.12817E-03
            1641     12.7329E-03     74.5409E-03    -3.13861E+06     23.3890E+06     53.4788E+06    -294.086E+03    -298.205E-03     593.508E-03    -295.304E-03     106.772E-03    -299.325E-03     594.546E-03    -295.066E-03     94.4345E-03
            1642     12.0617E-03     74.3440E-03    -5.84931E+06     21.3630E+06     50.5247E+06     67.2855E+03    -298.402E-03     593.719E-03    -295.317E-03     116.537E-03    -299.767E-03     594.992E-03    -295.087E-03     102.409E-03
            1643     11.3896E-03     74.1601E-03    -8.53565E+06     17.7902E+06     47.4476E+06     762.164E+03    -298.293E-03     593.633E-03    -295.341E-03     113.163E-03    -299.550E-03     594.785E-03    -295.117E-03     99.8569E-03
            1644     10.7191E-03     73.9728E-03    -12.3661E+06     14.1264E+06     45.3589E+06     329.133E+03    -298.508E-03     593.872E-03    -295.365E-03     111.713E-03    -299.731E-03     594.971E-03    -295.140E-03     98.7988E-03
            1645     10.0495E-03     73.7925E-03    -16.6590E+06     10.2110E+06     43.8977E+06    -361.916E+03    -298.407E-03     593.790E-03    -295.383E-03     107.311E-03    -299.519E-03     594.752E-03    -295.154E-03     95.4241E-03
            1646     9.37978E-03     73.6191E-03    -20.7953E+06     5.99979E+06     40.9426E+06    -385.262E+03    -297.976E-03     593.374E-03    -295.398E-03     101.669E-03    -298.952E-03     594.179E-03    -295.172E-03     91.0572E-03
            1647     8.70925E-03     73.4564E-03    -25.1572E+06     918.914E+03     35.3303E+06    -44.3921E+03    -297.595E-03     593.007E-03    -295.412E-03     94.9811E-03    -298.432E-03     593.655E-03    -295.200E-03     85.7200E-03
            1648     8.03948E-03     73.3034E-03    -29.6621E+06    -4.94883E+06     27.2432E+06     320.232E+03    -297.242E-03     592.662E-03    -295.421E-03     87.5271E-03    -297.944E-03     593.163E-03    -295.234E-03     79.6040E-03
            1649     7.36898E-03     73.1628E-03    -34.2976E+06    -11.0197E+06     18.7862E+06     539.311E+03    -296.844E-03     592.279E-03    -295.435E-03     79.8286E-03    -297.432E-03     592.652E-03    -295.276E-03     73.1442E-03
            1650     6.69833E-03     73.0336E-03    -38.7607E+06    -21.0522E+06     9.86182E+06     923.969E+03    -296.588E-03     592.045E-03    -295.457E-03     72.1950E-03    -297.075E-03     592.291E-03    -295.321E-03     66.6276E-03
            1651     6.02858E-03     72.9175E-03    -43.7351E+06    -33.1993E+06    -874.371E+03     1.44141E+06    -296.360E-03     591.833E-03    -295.473E-03     64.4648E-03    -296.760E-03     591.962E-03    -295.365E-03     59.8828E-03
            1652     5.35812E-03     72.8145E-03    -48.6750E+06    -41.6834E+06    -10.2817E+06     1.80133E+06    -296.180E-03     591.664E-03    -295.485E-03     56.6956E-03    -296.515E-03     591.709E-03    -295.405E-03     52.9852E-03
            1653     4.68838E-03     72.7224E-03    -53.0389E+06    -48.1859E+06    -17.6337E+06     1.54016E+06    -296.023E-03     591.517E-03    -295.494E-03     48.9776E-03    -296.311E-03     591.497E-03    -295.436E-03     46.0152E-03
            1654     4.01867E-03     72.6442E-03    -57.4091E+06    -54.7701E+06    -27.1570E+06     904.789E+03    -295.816E-03     591.305E-03    -295.489E-03     41.4806E-03    -296.065E-03     591.235E-03    -295.462E-03     39.1427E-03
            1655     3.34893E-03     72.5779E-03    -62.0285E+06    -62.2720E+06    -38.8312E+06     719.958E+03    -295.681E-03     591.155E-03    -295.474E-03     34.3185E-03    -295.897E-03     591.042E-03    -295.488E-03     32.5305E-03
            1656     2.67903E-03     72.5234E-03    -66.4726E+06    -69.7549E+06    -50.0372E+06     810.198E+03    -295.581E-03     591.039E-03    -295.457E-03     27.3058E-03    -295.772E-03     590.890E-03    -295.510E-03     25.9789E-03
            1657     2.00925E-03     72.4818E-03    -70.2455E+06    -76.6498E+06    -60.5148E+06     512.225E+03    -295.468E-03     590.913E-03    -295.445E-03     20.4410E-03    -295.638E-03     590.736E-03    -295.534E-03     19.4838E-03
            1658     1.33918E-03     72.4521E-03    -73.3525E+06    -82.1256E+06    -68.4522E+06     226.779E+03    -295.406E-03     590.864E-03    -295.458E-03     13.7934E-03    -295.562E-03     590.667E-03    -295.575E-03     13.1474E-03
            1659     669.620E-06     72.4334E-03    -74.3224E+06    -85.0207E+06    -73.2296E+06     393.879E+03    -295.367E-03     590.952E-03    -295.585E-03     7.37707E-03    -295.511E-03     590.744E-03    -295.720E-03     7.04774E-03
            1660     12.7289E-03     72.8284E-03    -2.50529E+06     23.4075E+06     52.0378E+06    -24.2644E+03    -297.900E-03     593.188E-03    -295.287E-03     107.635E-03    -299.021E-03     594.232E-03    -295.058E-03     95.3199E-03
            1661     12.0592E-03     72.6341E-03    -6.07588E+06     20.8615E+06     49.4505E+06    -247.526E+03    -298.581E-03     593.891E-03    -295.311E-03     117.121E-03    -299.954E-03     595.174E-03    -295.085E-03     102.934E-03
            1662     11.3906E-03     72.4492E-03    -9.43024E+06     17.1017E+06     47.3003E+06    -234.425E+03    -298.520E-03     593.851E-03    -295.330E-03     113.487E-03    -299.787E-03     595.008E-03    -295.105E-03     100.113E-03
            1663     10.7207E-03     72.2629E-03    -12.1382E+06     14.5511E+06     46.3117E+06     439.665E+03    -298.378E-03     593.733E-03    -295.355E-03     112.105E-03    -299.602E-03     594.831E-03    -295.127E-03     99.2343E-03
            1664     10.0499E-03     72.0812E-03    -15.6010E+06     10.9804E+06     43.9378E+06     583.749E+03    -298.055E-03     593.440E-03    -295.385E-03     107.583E-03    -299.162E-03     594.403E-03    -295.158E-03     95.7588E-03
            1665     9.37908E-03     71.9092E-03    -20.2522E+06     5.85881E+06     39.0949E+06     231.228E+03    -297.801E-03     593.215E-03    -295.414E-03     101.908E-03    -298.772E-03     594.021E-03    -295.197E-03     91.3311E-03
            1666     8.70898E-03     71.7451E-03    -25.2735E+06     268.384E+03     33.4142E+06     136.305E+03    -297.577E-03     593.017E-03    -295.440E-03     95.2312E-03    -298.410E-03     593.665E-03    -295.237E-03     85.9945E-03
            1667     8.03850E-03     71.5925E-03    -30.0136E+06    -5.17029E+06     27.5018E+06     262.117E+03    -297.290E-03     592.753E-03    -295.464E-03     87.8495E-03    -297.996E-03     593.255E-03    -295.275E-03     79.9184E-03
            1668     7.36853E-03     71.4521E-03    -34.9964E+06    -11.3139E+06     19.6963E+06     254.698E+03    -297.012E-03     592.490E-03    -295.477E-03     80.1016E-03    -297.607E-03     592.863E-03    -295.311E-03     73.3930E-03
            1669     6.69870E-03     71.3230E-03    -40.1264E+06    -22.2629E+06     8.52728E+06     389.940E+03    -296.697E-03     592.176E-03    -295.480E-03     72.0676E-03    -297.187E-03     592.421E-03    -295.347E-03     66.4730E-03
            1670     6.02798E-03     71.2068E-03    -44.0315E+06    -33.7782E+06    -1.39616E+06     755.593E+03    -296.474E-03     591.959E-03    -295.485E-03     64.0282E-03    -296.873E-03     592.086E-03    -295.379E-03     59.4326E-03
            1671     5.35857E-03     71.1023E-03    -47.7892E+06    -40.8855E+06    -8.47433E+06     562.537E+03    -296.272E-03     591.763E-03    -295.491E-03     56.3787E-03    -296.606E-03     591.807E-03    -295.405E-03     52.6467E-03
            1672     4.68871E-03     71.0113E-03    -52.6112E+06    -47.2440E+06    -17.3412E+06     264.545E+03    -295.981E-03     591.471E-03    -295.490E-03     48.9792E-03    -296.270E-03     591.455E-03    -295.432E-03     45.9755E-03
            1673     4.01854E-03     70.9326E-03    -57.6126E+06    -54.3217E+06    -27.8844E+06     451.917E+03    -295.822E-03     591.305E-03    -295.483E-03     41.6820E-03    -296.072E-03     591.238E-03    -295.460E-03     39.3219E-03
            1674     3.34869E-03     70.8661E-03    -62.4793E+06    -61.9221E+06    -38.8504E+06     486.848E+03    -295.691E-03     591.162E-03    -295.471E-03     34.4949E-03    -295.910E-03     591.052E-03    -295.485E-03     32.6826E-03
            1675     2.67890E-03     70.8122E-03    -67.0257E+06    -69.3911E+06    -49.9247E+06     229.891E+03    -295.493E-03     590.958E-03    -295.465E-03     27.4446E-03    -295.687E-03     590.813E-03    -295.517E-03     26.0847E-03
            1676     2.00897E-03     70.7701E-03    -70.4809E+06    -75.7947E+06    -59.6448E+06     205.682E+03    -295.464E-03     590.935E-03    -295.472E-03     20.5071E-03    -295.637E-03     590.763E-03    -295.558E-03     19.5453E-03
            1677     1.33953E-03     70.7404E-03    -73.0317E+06    -81.2203E+06    -68.1377E+06     20.0139E+03    -295.467E-03     590.941E-03    -295.474E-03     13.6649E-03    -295.623E-03     590.748E-03    -295.591E-03     13.0401E-03
            1678     669.611E-06     70.7216E-03    -75.3289E+06    -85.2768E+06    -73.8827E+06    -356.417E+03    -295.449E-03     590.956E-03    -295.507E-03     7.39874E-03    -295.597E-03     590.748E-03    -295.643E-03     7.05685E-03
            1679     12.7324E-03     71.1219E-03    -3.12260E+06     23.1361E+06     52.6942E+06    -37.3089E+03    -298.113E-03     593.424E-03    -295.312E-03     107.608E-03    -299.242E-03     594.472E-03    -295.077E-03     95.2153E-03
            1680     12.0612E-03     70.9218E-03    -5.74858E+06     21.4090E+06     50.4512E+06     196.865E+03    -298.614E-03     593.943E-03    -295.329E-03     117.392E-03    -299.990E-03     595.228E-03    -295.099E-03     103.208E-03
            1681     11.3899E-03     70.7391E-03    -8.89012E+06     17.2269E+06     46.4127E+06    -7.25352E+03    -298.517E-03     593.858E-03    -295.341E-03     114.005E-03    -299.788E-03     595.025E-03    -295.121E-03     100.581E-03
            1682     10.7193E-03     70.5514E-03    -12.7415E+06     13.4101E+06     43.9153E+06    -292.646E+03    -298.305E-03     593.673E-03    -295.368E-03     112.741E-03    -299.537E-03     594.780E-03    -295.150E-03     99.8071E-03
            1683     10.0491E-03     70.3718E-03    -16.3723E+06     10.0841E+06     42.9034E+06    -26.3517E+03    -298.001E-03     593.414E-03    -295.413E-03     107.953E-03    -299.110E-03     594.377E-03    -295.190E-03     96.1315E-03
            1684     9.37897E-03     70.1981E-03    -20.1418E+06     6.05571E+06     39.6845E+06     725.623E+03    -297.847E-03     593.298E-03    -295.452E-03     101.986E-03    -298.815E-03     594.102E-03    -295.233E-03     91.4573E-03
            1685     8.70859E-03     70.0345E-03    -24.3412E+06     1.00291E+06     33.8102E+06     759.609E+03    -297.609E-03     593.084E-03    -295.475E-03     95.0557E-03    -298.439E-03     593.733E-03    -295.272E-03     85.8198E-03
            1686     8.03840E-03     69.8820E-03    -28.9339E+06    -4.88287E+06     26.0092E+06     400.787E+03    -297.350E-03     592.838E-03    -295.487E-03     87.5253E-03    -298.050E-03     593.342E-03    -295.308E-03     79.5699E-03
            1687     7.36819E-03     69.7401E-03    -33.0106E+06    -10.1141E+06      19.208E+06     11.9341E+03    -297.120E-03     592.617E-03    -295.497E-03     79.8153E-03    -297.706E-03     592.994E-03    -295.338E-03     73.0773E-03
            1688     6.69813E-03     69.6118E-03    -36.7003E+06    -22.9628E+06     11.9401E+06    -415.922E+03    -296.909E-03     592.415E-03    -295.506E-03     72.0816E-03    -297.387E-03     592.647E-03    -295.360E-03     66.4607E-03
            1689     6.02900E-03     69.4951E-03    -41.6689E+06    -35.4921E+06     2.83743E+06    -172.394E+03    -296.600E-03     592.104E-03    -295.504E-03     64.3955E-03    -296.992E-03     592.213E-03    -295.378E-03     59.7830E-03
            1690     5.35858E-03     69.3913E-03    -47.4003E+06    -40.3306E+06    -7.32824E+06     492.351E+03    -296.200E-03     591.694E-03    -295.494E-03     56.7306E-03    -296.536E-03     591.739E-03    -295.403E-03     52.9838E-03
            1691     4.68832E-03     69.3001E-03    -52.6893E+06    -46.9859E+06    -17.5726E+06     630.700E+03    -295.980E-03     591.473E-03    -295.493E-03     49.1990E-03    -296.269E-03     591.459E-03    -295.436E-03     46.2058E-03
            1692     4.01864E-03     69.2210E-03    -57.7413E+06    -54.0831E+06    -27.0859E+06     273.633E+03    -295.834E-03     591.326E-03    -295.492E-03     41.7331E-03    -296.086E-03     591.260E-03    -295.466E-03     39.3654E-03
            1693     3.34880E-03     69.1546E-03    -62.6833E+06    -61.5063E+06    -37.9924E+06    -11.5987E+03    -295.655E-03     591.138E-03    -295.483E-03     34.4451E-03    -295.877E-03     591.029E-03    -295.493E-03     32.6108E-03
            1694     2.67892E-03     69.1007E-03    -66.8819E+06    -68.9274E+06    -49.4597E+06    -141.886E+03    -295.579E-03     591.047E-03    -295.468E-03     27.3624E-03    -295.774E-03     590.904E-03    -295.519E-03     25.9919E-03
            1695     2.00914E-03     69.0587E-03    -70.5689E+06    -75.8777E+06    -60.2287E+06    -361.896E+03    -295.506E-03     590.955E-03    -295.449E-03     20.4275E-03    -295.679E-03     590.783E-03    -295.538E-03     19.4588E-03
            1696     1.33927E-03     69.0277E-03    -73.6414E+06    -81.5086E+06    -68.5933E+06    -183.927E+03    -295.444E-03     590.883E-03    -295.440E-03     13.6022E-03    -295.602E-03     590.690E-03    -295.558E-03     12.9824E-03
            1697     669.721E-06     69.0110E-03    -75.1195E+06    -85.1916E+06    -74.3691E+06     252.603E+03    -295.633E-03     590.882E-03    -295.249E-03     7.68338E-03    -295.780E-03     590.676E-03    -295.388E-03     7.33475E-03
            1698     12.7286E-03     69.4079E-03    -3.07491E+06     22.8953E+06     51.9446E+06    -117.220E+03    -297.966E-03     593.295E-03    -295.329E-03     107.995E-03    -299.093E-03     594.342E-03    -295.098E-03     95.6412E-03
            1699     12.0592E-03     69.2131E-03    -6.08964E+06     20.6853E+06     48.9884E+06    -266.651E+03    -298.695E-03     594.043E-03    -295.348E-03     117.648E-03    -300.073E-03     595.332E-03    -295.125E-03     103.433E-03
            1700     11.3895E-03     69.0269E-03    -8.75417E+06     17.2247E+06     46.3092E+06     73.5291E+03    -298.287E-03     593.659E-03    -295.372E-03     113.823E-03    -299.554E-03     594.822E-03    -295.153E-03     100.436E-03
            1701     10.7196E-03     68.8423E-03    -11.8270E+06     14.1822E+06     44.5726E+06     582.728E+03    -298.261E-03     593.672E-03    -295.410E-03     112.443E-03    -299.486E-03     594.776E-03    -295.191E-03     99.5443E-03
            1702     10.0489E-03     68.6606E-03    -16.1632E+06     10.0353E+06     42.3011E+06     251.587E+03    -298.216E-03     593.663E-03    -295.447E-03     107.906E-03    -299.324E-03     594.626E-03    -295.227E-03     96.0718E-03
            1703     9.37856E-03     68.4876E-03    -20.4924E+06     5.62808E+06     39.1409E+06    -142.537E+03    -298.035E-03     593.509E-03    -295.474E-03     101.849E-03    -299.007E-03     594.315E-03    -295.257E-03     91.2545E-03
            1704     8.70839E-03     68.3235E-03    -24.4740E+06      983.01E+03     34.2423E+06    -121.253E+03    -297.741E-03     593.231E-03    -295.490E-03     94.8929E-03    -298.574E-03     593.881E-03    -295.285E-03     85.6093E-03
            1705     8.03848E-03     68.1704E-03    -28.3113E+06    -4.10515E+06     27.3943E+06    -246.454E+03    -297.409E-03     592.906E-03    -295.497E-03     87.4786E-03    -298.110E-03     593.412E-03    -295.313E-03     79.4992E-03
            1706     7.36849E-03     68.0296E-03    -33.2260E+06    -10.3600E+06     19.2187E+06    -217.306E+03    -297.048E-03     592.551E-03    -295.503E-03     79.9155E-03    -297.636E-03     592.929E-03    -295.344E-03     73.1588E-03
            1707     6.69844E-03     67.8999E-03    -39.3950E+06    -22.3038E+06     8.47431E+06     73.8398E+03    -296.786E-03     592.294E-03    -295.508E-03     72.2448E-03    -297.275E-03     592.539E-03    -295.376E-03     66.6135E-03
            1708     6.02782E-03     67.7837E-03    -44.5427E+06    -35.2558E+06    -2.07475E+06    -466.935E+03    -296.548E-03     592.058E-03    -295.510E-03     64.5021E-03    -296.949E-03     592.182E-03    -295.405E-03     59.8560E-03
            1709     5.35819E-03     67.6801E-03    -48.4335E+06    -42.3303E+06    -8.59518E+06    -775.114E+03    -296.307E-03     591.825E-03    -295.518E-03     56.7870E-03    -296.644E-03     591.865E-03    -295.430E-03     53.0065E-03
            1710     4.68855E-03     67.5886E-03    -52.3372E+06    -47.2367E+06    -15.2166E+06    -312.486E+03    -296.073E-03     591.594E-03    -295.521E-03     49.2638E-03    -296.364E-03     591.575E-03    -295.452E-03     46.2493E-03
            1711     4.01858E-03     67.5092E-03    -56.9818E+06    -53.5839E+06    -25.4596E+06    -129.388E+03    -295.838E-03     591.348E-03    -295.510E-03     41.8399E-03    -296.090E-03     591.282E-03    -295.477E-03     39.4562E-03
            1712     3.34867E-03     67.4435E-03    -61.8591E+06    -61.2921E+06    -37.5979E+06    -227.982E+03    -295.712E-03     591.204E-03    -295.492E-03     34.5734E-03    -295.931E-03     591.095E-03    -295.501E-03     32.7285E-03
            1713     2.67887E-03     67.3887E-03    -66.3760E+06    -68.9040E+06     -49.494E+06    -196.429E+03    -295.650E-03     591.113E-03    -295.463E-03     27.5002E-03    -295.842E-03     590.968E-03    -295.514E-03     26.1282E-03
            1714     2.00940E-03     67.3467E-03    -70.5629E+06    -76.0820E+06    -60.2058E+06     129.450E+03    -295.527E-03     590.957E-03    -295.430E-03     20.5116E-03    -295.700E-03     590.783E-03    -295.518E-03     19.5426E-03
            1715     1.33952E-03     67.3172E-03    -73.7437E+06    -81.9888E+06    -69.0995E+06     62.8180E+03    -295.465E-03     590.861E-03    -295.396E-03     13.7475E-03    -295.622E-03     590.666E-03    -295.516E-03     13.1245E-03
            1716     669.719E-06     67.2975E-03    -75.0533E+06    -85.2304E+06    -74.1603E+06    -78.5559E+03    -295.503E-03     590.768E-03    -295.265E-03     7.48390E-03    -295.650E-03     590.561E-03    -295.403E-03     7.13702E-03
            1717     12.7309E-03     67.6983E-03    -2.26644E+06     23.0910E+06     50.8679E+06     314.711E+03    -297.659E-03     592.964E-03    -295.305E-03     107.024E-03    -298.767E-03     593.999E-03    -295.081E-03     94.7846E-03
            1718     12.0604E-03     67.5008E-03    -5.58226E+06     20.5988E+06     47.9233E+06    -51.8713E+03    -298.119E-03     593.463E-03    -295.345E-03     116.751E-03    -299.488E-03     594.747E-03    -295.127E-03     102.538E-03
            1719     11.3895E-03     67.3181E-03    -9.24798E+06     16.4525E+06     45.0976E+06    -215.498E+03    -298.257E-03     593.642E-03    -295.385E-03     113.684E-03    -299.523E-03     594.803E-03    -295.170E-03     100.289E-03
            1720     10.7183E-03     67.1308E-03    -12.8759E+06     13.2866E+06     44.1167E+06    -201.897E+03    -298.453E-03     593.875E-03    -295.422E-03     112.017E-03    -299.678E-03     594.974E-03    -295.202E-03     99.1022E-03
            1721     10.0485E-03     66.9499E-03    -15.8464E+06     10.5191E+06     43.3233E+06     203.872E+03    -298.291E-03     593.742E-03    -295.451E-03     107.221E-03    -299.397E-03     594.703E-03    -295.226E-03     95.3630E-03
            1722     9.37864E-03     66.7760E-03    -19.5436E+06     6.34024E+06     39.3902E+06     56.4075E+03    -297.963E-03     593.432E-03    -295.469E-03     101.477E-03    -298.932E-03     594.241E-03    -295.253E-03     90.8485E-03
            1723     8.70874E-03     66.6125E-03    -24.0606E+06     1.12770E+06     33.8587E+06    -394.318E+03    -297.641E-03     593.130E-03    -295.489E-03     94.9788E-03    -298.473E-03     593.782E-03    -295.286E-03     85.6824E-03
            1724     8.03838E-03     66.4594E-03    -29.2939E+06    -4.87381E+06     27.3355E+06    -164.209E+03    -297.335E-03     592.843E-03    -295.509E-03     87.7328E-03    -298.040E-03     593.348E-03    -295.322E-03     79.7587E-03
            1725     7.36814E-03     66.3183E-03    -34.5195E+06    -11.1833E+06     19.6074E+06     302.153E+03    -297.051E-03     592.574E-03    -295.523E-03     80.1133E-03    -297.646E-03     592.950E-03    -295.359E-03     73.3721E-03
            1726     6.69795E-03     66.1890E-03    -38.5797E+06    -21.7694E+06     10.0214E+06     126.996E+03    -296.767E-03     592.299E-03    -295.532E-03     72.2966E-03    -297.256E-03     592.544E-03    -295.394E-03     66.6655E-03
            1727     6.02841E-03     66.0724E-03    -42.6144E+06    -33.5711E+06    -221.397E+03    -276.466E+03    -296.539E-03     592.075E-03    -295.536E-03     64.3841E-03    -296.936E-03     592.202E-03    -295.426E-03     59.7290E-03
            1728     5.35828E-03     65.9683E-03    -47.4761E+06    -41.3178E+06    -9.36806E+06    -1.13258E+06    -296.333E-03     591.867E-03    -295.534E-03     56.7939E-03    -296.667E-03     591.913E-03    -295.452E-03     52.9867E-03
            1729     4.68830E-03     65.8768E-03    -52.8651E+06    -48.3961E+06    -18.2619E+06    -1.78428E+06    -296.054E-03     591.588E-03    -295.534E-03     49.4056E-03    -296.343E-03     591.570E-03    -295.478E-03     46.3271E-03
            1730     4.01840E-03     65.7982E-03    -57.8782E+06    -55.3188E+06    -28.0239E+06    -1.27845E+06    -295.851E-03     591.384E-03    -295.533E-03     42.0534E-03    -296.102E-03     591.314E-03    -295.509E-03     39.6416E-03
            1731     3.34864E-03     65.7312E-03    -62.0404E+06    -62.0494E+06    -38.4933E+06    -633.088E+03    -295.761E-03     591.283E-03    -295.522E-03     34.7891E-03    -295.979E-03     591.172E-03    -295.535E-03     32.9368E-03
            1732     2.67904E-03     65.6772E-03    -66.9314E+06    -69.8560E+06    -50.0907E+06    -152.814E+03    -295.619E-03     591.123E-03    -295.504E-03     27.7176E-03    -295.812E-03     590.976E-03    -295.556E-03     26.3356E-03
            1733     2.00888E-03     65.6351E-03    -70.6916E+06    -76.5316E+06    -60.2431E+06     61.4393E+03    -295.559E-03     591.047E-03    -295.487E-03     20.7570E-03    -295.732E-03     590.872E-03    -295.575E-03     19.7757E-03
            1734     1.33946E-03     65.6049E-03    -72.9543E+06     -81.288E+06    -67.7096E+06     73.5667E+03    -295.541E-03     591.001E-03    -295.460E-03     14.0571E-03    -295.698E-03     590.806E-03    -295.575E-03     13.4107E-03
            1735     669.887E-06     65.5867E-03    -75.4676E+06    -85.5513E+06    -73.6878E+06    -98.4829E+03    -295.227E-03     590.882E-03    -295.655E-03     7.63641E-03    -295.376E-03     590.674E-03    -295.790E-03     7.29467E-03
            1736     12.7317E-03     65.9903E-03    -2.80670E+06     22.9114E+06     51.5819E+06     95.8215E+03    -297.917E-03     593.227E-03    -295.310E-03     108.389E-03    -299.036E-03     594.268E-03    -295.081E-03     96.1389E-03
            1737     12.0595E-03     65.7931E-03    -5.50563E+06     21.1004E+06     49.4738E+06     842.153E+03    -298.373E-03     593.718E-03    -295.344E-03     117.682E-03    -299.735E-03     594.991E-03    -295.120E-03     103.660E-03
            1738     11.3888E-03     65.6064E-03    -8.60198E+06     17.2817E+06     46.3364E+06     529.041E+03    -298.532E-03     593.900E-03    -295.368E-03     113.024E-03    -299.791E-03     595.055E-03    -295.149E-03     99.6544E-03
            1739     10.7200E-03     65.4201E-03    -12.0301E+06     13.8918E+06     44.2167E+06    -207.881E+03    -298.430E-03     593.817E-03    -295.386E-03     111.421E-03    -299.653E-03     594.918E-03    -295.168E-03     98.4546E-03
            1740     10.0497E-03     65.2388E-03    -16.1875E+06     9.90242E+06     42.2416E+06    -649.378E+03    -298.028E-03     593.446E-03    -295.418E-03     107.242E-03    -299.135E-03     594.408E-03    -295.198E-03     95.3659E-03
            1741     9.37908E-03     65.0660E-03    -20.1748E+06     5.77414E+06     39.2884E+06    -336.742E+03    -297.729E-03     593.187E-03    -295.459E-03     101.769E-03    -298.699E-03     593.993E-03    -295.241E-03     91.1847E-03
            1742     8.70826E-03     64.9016E-03    -24.4034E+06     863.918E+03     34.0363E+06     286.016E+03    -297.507E-03     593.000E-03    -295.493E-03     95.0747E-03    -298.340E-03     593.651E-03    -295.289E-03     85.8077E-03
            1743     8.03811E-03     64.7486E-03    -28.9048E+06    -4.99430E+06     26.1316E+06     294.826E+03    -297.289E-03     592.802E-03    -295.513E-03     87.6781E-03    -297.991E-03     593.308E-03    -295.333E-03     79.7000E-03
            1744     7.36809E-03     64.6068E-03    -32.8709E+06    -10.3087E+06     18.8161E+06    -194.200E+03    -297.035E-03     592.564E-03    -295.530E-03     80.0349E-03    -297.622E-03     592.944E-03    -295.373E-03     73.2676E-03
            1745     6.69821E-03     64.4777E-03    -37.7279E+06    -20.8146E+06     11.3052E+06    -835.085E+03    -296.746E-03     592.298E-03    -295.553E-03     72.3840E-03    -297.234E-03     592.546E-03    -295.412E-03     66.7195E-03
            1746     6.02783E-03     64.3607E-03    -43.1265E+06    -33.7831E+06     1.51059E+06    -1.24245E+06    -296.490E-03     592.060E-03    -295.570E-03     64.7713E-03    -296.894E-03     592.186E-03    -295.451E-03     60.0916E-03
            1747     5.35804E-03     64.2569E-03    -47.5469E+06    -41.3085E+06    -8.70828E+06    -623.227E+03    -296.268E-03     591.842E-03    -295.574E-03     57.1155E-03    -296.604E-03     591.888E-03    -295.489E-03     53.3073E-03
            1748     4.68812E-03     64.1653E-03    -52.2869E+06    -48.0312E+06    -19.1036E+06    -292.840E+03    -296.076E-03     591.650E-03    -295.575E-03     49.5156E-03    -296.361E-03     591.635E-03    -295.525E-03     46.4532E-03
            1749     4.01824E-03     64.0866E-03    -57.9160E+06    -56.1024E+06    -29.9273E+06    -836.542E+03    -295.890E-03     591.465E-03    -295.575E-03     42.1841E-03    -296.138E-03     591.395E-03    -295.560E-03     39.7623E-03
            1750     3.34840E-03     64.0192E-03    -63.3708E+06    -63.9647E+06    -40.7146E+06    -786.943E+03    -295.709E-03     591.289E-03    -295.580E-03     34.9574E-03    -295.928E-03     591.174E-03    -295.599E-03     33.0858E-03
            1751     2.67838E-03     63.9657E-03    -67.1112E+06    -70.6048E+06    -50.8611E+06    -659.543E+03    -295.650E-03     591.235E-03    -295.585E-03     27.8434E-03    -295.842E-03     591.086E-03    -295.639E-03     26.4342E-03
            1752     2.00905E-03     63.9229E-03    -70.3073E+06    -76.9639E+06    -60.8311E+06    -814.300E+03    -295.632E-03     591.211E-03    -295.579E-03     20.8347E-03    -295.802E-03     591.034E-03    -295.669E-03     19.8267E-03
            1753     1.33911E-03     63.8932E-03    -73.2064E+06    -82.3350E+06    -68.8351E+06    -587.501E+03    -295.572E-03     591.149E-03    -295.578E-03     13.9409E-03    -295.727E-03     590.952E-03    -295.696E-03     13.2733E-03
            1754     669.324E-06     63.8744E-03    -75.1975E+06    -85.5006E+06    -73.0661E+06    -132.638E+03    -295.455E-03     591.172E-03    -295.717E-03     7.30253E-03    -295.604E-03     590.962E-03    -295.849E-03     6.96980E-03
            1755     12.7281E-03     64.2799E-03    -3.47656E+06     22.3928E+06     51.5070E+06    -102.999E+03    -298.439E-03     593.772E-03    -295.332E-03     107.425E-03    -299.563E-03     594.813E-03    -295.102E-03     95.0829E-03
            1756     12.0601E-03     64.0806E-03    -6.14815E+06     20.8137E+06     49.7808E+06    -480.733E+03    -299.050E-03     594.379E-03    -295.329E-03     116.742E-03    -300.429E-03     595.666E-03    -295.102E-03     102.451E-03
            1757     11.3912E-03     63.8960E-03    -8.59581E+06     17.4574E+06     47.0640E+06    -115.689E+03    -298.256E-03     593.594E-03    -295.338E-03     113.419E-03    -299.524E-03     594.756E-03    -295.115E-03     99.9998E-03
            1758     10.7197E-03     63.7095E-03    -11.8453E+06     14.1732E+06     45.0833E+06     363.973E+03    -297.986E-03     593.368E-03    -295.382E-03     112.729E-03    -299.217E-03     594.476E-03    -295.160E-03     99.8133E-03
            1759     10.0490E-03     63.5293E-03    -15.7071E+06     10.4605E+06     43.2761E+06     352.560E+03    -298.010E-03     593.446E-03    -295.435E-03     108.383E-03    -299.124E-03     594.415E-03    -295.212E-03     96.5321E-03
            1760     9.37853E-03     63.3553E-03    -20.3109E+06     5.57547E+06     39.1091E+06    -23.0169E+03    -297.916E-03     593.388E-03    -295.471E-03     102.195E-03    -298.892E-03     594.197E-03    -295.255E-03     91.5852E-03
            1761     8.70869E-03     63.1912E-03    -24.5643E+06     486.176E+03     33.2818E+06    -282.810E+03    -297.613E-03     593.107E-03    -295.495E-03     95.2183E-03    -298.447E-03     593.759E-03    -295.293E-03     85.9256E-03
            1762     8.03838E-03     63.0375E-03    -28.6242E+06    -4.69601E+06     26.7085E+06    -456.972E+03    -297.273E-03     592.790E-03    -295.517E-03     87.8092E-03    -297.977E-03     593.298E-03    -295.335E-03     79.8101E-03
            1763     7.36812E-03     62.8958E-03    -34.1198E+06    -11.3827E+06     18.4272E+06     20.1602E+03    -296.929E-03     592.469E-03    -295.540E-03     80.2094E-03    -297.522E-03     592.847E-03    -295.382E-03     73.4301E-03
            1764     6.69773E-03     62.7665E-03    -39.7437E+06    -18.6000E+06     8.67963E+06     246.201E+03    -296.626E-03     592.186E-03    -295.561E-03     72.4927E-03    -297.126E-03     592.454E-03    -295.433E-03     66.8201E-03
            1765     6.02785E-03     62.6498E-03    -44.7905E+06    -31.5787E+06     -2.9018E+06    -1.02144E+06    -296.384E-03     591.966E-03    -295.582E-03     64.7906E-03    -296.793E-03     592.113E-03    -295.486E-03     60.0906E-03
            1766     5.35763E-03     62.5450E-03    -49.7058E+06    -44.1667E+06    -12.1282E+06    -1.94322E+06    -296.198E-03     591.812E-03    -295.615E-03     57.1942E-03    -296.537E-03     591.854E-03    -295.539E-03     53.3423E-03
            1767     4.68776E-03     62.4537E-03    -53.9565E+06    -49.7462E+06    -18.7524E+06    -1.04741E+06    -296.085E-03     591.728E-03    -295.643E-03     49.7349E-03    -296.378E-03     591.708E-03    -295.587E-03     46.6435E-03
            1768     4.01802E-03     62.3743E-03    -58.1864E+06    -56.0728E+06    -28.5198E+06    -25.2796E+03    -295.945E-03     591.594E-03    -295.649E-03     42.2713E-03    -296.198E-03     591.524E-03    -295.626E-03     39.8377E-03
            1769     3.34810E-03     62.3082E-03    -62.7621E+06    -63.7256E+06    -40.2324E+06    -274.003E+03    -295.799E-03     591.445E-03    -295.646E-03     34.9483E-03    -296.017E-03     591.331E-03    -295.664E-03     33.0692E-03
            1770     2.67850E-03     62.2529E-03    -66.9377E+06    -70.9433E+06    -51.1623E+06    -585.538E+03    -295.733E-03     591.376E-03    -295.643E-03     27.7517E-03    -295.924E-03     591.226E-03    -295.699E-03     26.3344E-03
            1771     2.00857E-03     62.2110E-03    -70.8409E+06    -77.6847E+06    -61.1031E+06    -421.673E+03    -295.697E-03     591.330E-03    -295.633E-03     20.7141E-03    -295.868E-03     591.151E-03    -295.723E-03     19.7004E-03
            1772     1.33921E-03     62.1805E-03    -74.0192E+06    -83.4363E+06    -69.5798E+06    -451.988E+03    -295.679E-03     591.287E-03    -295.608E-03     13.7619E-03    -295.835E-03     591.086E-03    -295.728E-03     13.1100E-03
            1773     669.780E-06     62.1625E-03    -75.3832E+06    -87.0503E+06    -75.1754E+06    -451.606E+03    -295.854E-03     591.191E-03    -295.337E-03     7.36992E-03    -295.998E-03     590.976E-03    -295.477E-03     7.01689E-03
            1774     12.7321E-03     62.5653E-03    -2.48918E+06     23.1510E+06     51.8549E+06    -13.2574E+03    -298.390E-03     593.670E-03    -295.280E-03     106.173E-03    -299.503E-03     594.705E-03    -295.050E-03     93.8348E-03
            1775     12.0615E-03     62.3708E-03    -5.77285E+06     20.5034E+06     48.5248E+06    -283.512E+03    -298.058E-03     593.354E-03    -295.296E-03     116.982E-03    -299.429E-03     594.636E-03    -295.075E-03     102.791E-03
            1776     11.3892E-03     62.1861E-03    -9.24010E+06     16.4866E+06     45.7996E+06    -195.270E+03    -297.789E-03     593.140E-03    -295.352E-03     114.384E-03    -299.058E-03     594.303E-03    -295.133E-03     101.041E-03
            1777     10.7187E-03     62.0011E-03    -12.8086E+06     13.3747E+06     44.7901E+06    -123.607E+03    -298.141E-03     593.555E-03    -295.414E-03     112.766E-03    -299.375E-03     594.661E-03    -295.191E-03     99.8444E-03
            1778     10.0483E-03     61.8173E-03    -16.0289E+06     10.3388E+06     43.7625E+06     145.861E+03    -298.160E-03     593.619E-03    -295.460E-03     107.761E-03    -299.273E-03     594.586E-03    -295.233E-03     95.8834E-03
            1779     9.37869E-03     61.6444E-03    -19.6283E+06     6.28420E+06     40.0877E+06     198.593E+03    -297.920E-03     593.409E-03    -295.489E-03     101.915E-03    -298.893E-03     594.219E-03    -295.269E-03     91.2942E-03
            1780     8.70822E-03     61.4799E-03    -24.5125E+06     660.632E+03     34.0374E+06    -33.9639E+03    -297.619E-03     593.132E-03    -295.513E-03     95.4288E-03    -298.457E-03     593.787E-03    -295.308E-03     86.1222E-03
            1781     8.03812E-03     61.3267E-03    -29.8716E+06    -5.77608E+06     26.2725E+06     322.775E+03    -297.258E-03     592.794E-03    -295.536E-03     88.1348E-03    -297.968E-03     593.302E-03    -295.353E-03     80.1278E-03
            1782     7.36788E-03     61.1850E-03    -34.5314E+06    -11.9196E+06     17.7633E+06     408.690E+03    -296.915E-03     592.475E-03    -295.560E-03     80.4478E-03    -297.511E-03     592.855E-03    -295.404E-03     73.6522E-03
            1783     6.69785E-03     61.0555E-03    -38.5453E+06    -17.3790E+06     10.1893E+06     3.93628E+03    -296.595E-03     592.188E-03    -295.593E-03     72.6977E-03    -297.095E-03     592.460E-03    -295.461E-03     66.9885E-03
            1784     6.02754E-03     60.9382E-03    -42.8956E+06    -29.5266E+06    -110.813E+03     81.0948E+03    -296.368E-03     591.993E-03    -295.626E-03     64.9921E-03    -296.777E-03     592.146E-03    -295.521E-03     60.2783E-03
            1785     5.35758E-03     60.8341E-03    -48.5773E+06    -43.1747E+06    -11.9531E+06    -249.183E+03    -296.212E-03     591.866E-03    -295.653E-03     57.2904E-03    -296.549E-03     591.911E-03    -295.580E-03     53.4441E-03
            1786     4.68745E-03     60.7416E-03    -54.7835E+06    -51.1600E+06    -21.5121E+06    -1.19974E+06    -296.049E-03     591.731E-03    -295.681E-03     49.6965E-03    -296.341E-03     591.709E-03    -295.635E-03     46.5835E-03
            1787     4.01755E-03     60.6624E-03    -59.2233E+06    -57.6438E+06    -30.2510E+06    -1.38648E+06    -295.985E-03     591.684E-03    -295.700E-03     42.2239E-03    -296.237E-03     591.610E-03    -295.682E-03     39.7624E-03
            1788     3.34803E-03     60.5956E-03    -63.0692E+06    -64.0433E+06    -40.0591E+06    -792.820E+03    -295.929E-03     591.625E-03    -295.696E-03     34.9501E-03    -296.148E-03     591.509E-03    -295.712E-03     33.0518E-03
            1789     2.67833E-03     60.5408E-03    -67.7306E+06    -71.6149E+06    -51.1435E+06    -336.997E+03    -295.776E-03     591.461E-03    -295.685E-03     27.8562E-03    -295.971E-03     591.309E-03    -295.738E-03     26.4307E-03
            1790     2.00890E-03     60.4987E-03    -71.5885E+06    -78.3254E+06    -61.0807E+06    -88.9639E+03    -295.669E-03     591.356E-03    -295.688E-03     20.9239E-03    -295.843E-03     591.175E-03    -295.776E-03     19.9050E-03
            1791     1.33914E-03     60.4678E-03    -74.3569E+06    -83.7230E+06    -69.2928E+06     33.6733E+03    -295.670E-03     591.372E-03    -295.703E-03     14.1691E-03    -295.828E-03     591.170E-03    -295.820E-03     13.5067E-03
            1792     669.557E-06     60.4503E-03    -76.6729E+06    -87.8365E+06    -74.8873E+06     257.207E+03    -295.849E-03     591.429E-03    -295.580E-03     7.83395E-03    -295.999E-03     591.212E-03    -295.716E-03     7.46755E-03
            1793     12.7317E-03     60.8587E-03    -2.31391E+06     23.3306E+06     52.3134E+06     125.103E+03    -297.646E-03     592.945E-03    -295.299E-03     109.014E-03    -298.775E-03     593.997E-03    -295.068E-03     96.6949E-03
            1794     12.0595E-03     60.6617E-03    -5.38778E+06     21.0629E+06     49.7297E+06     781.509E+03    -298.248E-03     593.593E-03    -295.345E-03     118.350E-03    -299.616E-03     594.873E-03    -295.119E-03     104.319E-03
            1795     11.3894E-03     60.4781E-03    -9.30718E+06     16.5669E+06     46.1253E+06     306.340E+03    -298.532E-03     593.908E-03    -295.376E-03     113.696E-03    -299.799E-03     595.066E-03    -295.156E-03     100.319E-03
            1796     10.7193E-03     60.2879E-03    -12.3323E+06     13.6360E+06     44.5169E+06    -317.490E+03    -298.399E-03     593.799E-03    -295.400E-03     111.900E-03    -299.628E-03     594.903E-03    -295.179E-03     98.9274E-03
            1797     10.0497E-03     60.1083E-03    -16.2399E+06     9.82349E+06     42.6478E+06    -543.858E+03    -297.933E-03     593.372E-03    -295.439E-03     107.653E-03    -299.045E-03     594.338E-03    -295.217E-03     95.7630E-03
            1798     9.37837E-03     59.9334E-03    -20.6297E+06     5.27839E+06     39.3104E+06    -138.870E+03    -297.648E-03     593.137E-03    -295.488E-03     102.070E-03    -298.626E-03     593.945E-03    -295.269E-03     91.4551E-03
            1799     8.70825E-03     59.7695E-03    -25.0385E+06     201.688E+03     33.9116E+06     482.963E+03    -297.428E-03     592.960E-03    -295.532E-03     95.4079E-03    -298.269E-03     593.614E-03    -295.326E-03     86.0905E-03
            1800     8.03779E-03     59.6156E-03    -29.2821E+06    -5.33117E+06     26.5045E+06     375.077E+03    -297.165E-03     592.732E-03    -295.567E-03     88.2292E-03    -297.877E-03     593.244E-03    -295.384E-03     80.1815E-03
            1801     7.36767E-03     59.4740E-03    -33.5704E+06    -11.0168E+06     18.7162E+06    -64.5372E+03    -296.876E-03     592.479E-03    -295.603E-03     80.7309E-03    -297.474E-03     592.864E-03    -295.445E-03     73.8863E-03
            1802     6.69737E-03     59.3442E-03    -38.6419E+06    -17.1815E+06     11.1536E+06    -205.612E+03    -296.592E-03     592.238E-03    -295.646E-03     73.0714E-03    -297.098E-03     592.513E-03    -295.509E-03     67.3267E-03
            1803     6.02725E-03     59.2273E-03    -44.0463E+06    -30.2981E+06     939.226E+03    -148.824E+03    -296.415E-03     592.101E-03    -295.686E-03     65.3468E-03    -296.833E-03     592.252E-03    -295.574E-03     60.6058E-03
            1804     5.35722E-03     59.1218E-03    -48.2986E+06    -42.7624E+06    -9.54325E+06     339.407E+03    -296.317E-03     592.032E-03    -295.716E-03     57.6358E-03    -296.657E-03     592.077E-03    -295.631E-03     53.7842E-03
            1805     4.68758E-03     59.0303E-03    -52.6697E+06    -49.2687E+06    -19.2808E+06     378.165E+03    -296.165E-03     591.897E-03    -295.731E-03     49.9386E-03    -296.454E-03     591.879E-03    -295.680E-03     46.8307E-03
            1806     4.01765E-03     58.9502E-03    -58.6077E+06    -57.5371E+06    -30.7018E+06    -313.946E+03    -296.006E-03     591.746E-03    -295.740E-03     42.4585E-03    -296.256E-03     591.673E-03    -295.725E-03     39.9975E-03
            1807     3.34785E-03     58.8829E-03    -63.9903E+06    -65.3857E+06    -41.5622E+06    -700.338E+03    -295.895E-03     591.642E-03    -295.748E-03     35.1122E-03    -296.115E-03     591.524E-03    -295.768E-03     33.1928E-03
            1808     2.67820E-03     58.8288E-03    -68.2935E+06    -72.6306E+06    -52.3319E+06    -694.961E+03    -295.791E-03     591.545E-03    -295.754E-03     28.0281E-03    -295.986E-03     591.391E-03    -295.811E-03     26.5753E-03
            1809     2.00833E-03     58.7858E-03    -71.9295E+06    -79.1652E+06    -62.1024E+06    -563.858E+03    -295.683E-03     591.462E-03    -295.778E-03     21.0485E-03    -295.857E-03     591.279E-03    -295.870E-03     20.0086E-03
            1810     1.33868E-03     58.7561E-03    -74.7044E+06    -84.3980E+06    -69.9313E+06    -262.409E+03    -295.682E-03     591.523E-03    -295.841E-03     14.2217E-03    -295.840E-03     591.319E-03    -295.960E-03     13.5473E-03
            1811     669.103E-06     58.7361E-03    -75.8989E+06    -87.6699E+06    -74.9444E+06    -219.921E+03    -295.842E-03     591.775E-03    -295.933E-03     7.53748E-03    -295.988E-03     591.558E-03    -296.070E-03     7.22086E-03
            1812     12.7274E-03     59.1475E-03    -3.67997E+06     22.2081E+06     51.9637E+06    -266.254E+03    -298.014E-03     593.379E-03    -295.365E-03     107.597E-03    -299.140E-03     594.420E-03    -295.132E-03     95.2497E-03
            1813     12.0589E-03     58.9505E-03    -6.42263E+06     20.6138E+06     50.2444E+06    -333.206E+03    -299.103E-03     594.477E-03    -295.373E-03     116.548E-03    -300.483E-03     595.761E-03    -295.143E-03     102.251E-03
            1814     11.3901E-03     58.7639E-03    -8.41461E+06     17.6026E+06     47.5958E+06     61.9914E+03    -298.541E-03     593.914E-03    -295.373E-03     113.617E-03    -299.813E-03     595.081E-03    -295.149E-03     100.160E-03
            1815     10.7203E-03     58.5798E-03    -11.9600E+06     13.9909E+06     45.1194E+06     328.285E+03    -298.188E-03     593.591E-03    -295.404E-03     113.025E-03    -299.426E-03     594.706E-03    -295.181E-03     100.050E-03
            1816     10.0484E-03     58.3974E-03    -16.2502E+06     9.86288E+06     42.9705E+06     383.394E+03    -297.983E-03     593.436E-03    -295.453E-03     108.549E-03    -299.104E-03     594.410E-03    -295.229E-03     96.6417E-03
            1817     9.37880E-03     58.2237E-03    -20.7184E+06     5.03686E+06     38.7462E+06     265.394E+03    -297.663E-03     593.164E-03    -295.501E-03     102.495E-03    -298.646E-03     593.979E-03    -295.284E-03     91.8331E-03
            1818     8.70796E-03     58.0588E-03    -24.5117E+06     336.621E+03     33.2339E+06    -65.7709E+03    -297.270E-03     592.822E-03    -295.552E-03     95.8197E-03    -298.112E-03     593.482E-03    -295.351E-03     86.4753E-03
            1819     8.03768E-03     57.9050E-03    -28.8283E+06    -5.02010E+06     26.6576E+06    -257.929E+03    -296.999E-03     592.608E-03    -295.609E-03     88.6688E-03    -297.713E-03     593.124E-03    -295.427E-03     80.5970E-03
            1820     7.36712E-03     57.7630E-03    -34.0125E+06    -11.2671E+06     19.0658E+06    -81.6610E+03    -296.792E-03     592.458E-03    -295.665E-03     81.1040E-03    -297.396E-03     592.845E-03    -295.504E-03     74.2361E-03
            1821     6.69689E-03     57.6331E-03    -38.9399E+06    -17.3906E+06     11.2951E+06     94.9859E+03    -296.623E-03     592.340E-03    -295.717E-03     73.3540E-03    -297.132E-03     592.617E-03    -295.579E-03     67.5939E-03
            1822     6.02683E-03     57.5154E-03    -43.6081E+06    -30.2302E+06     682.054E+03     44.1750E+03    -296.478E-03     592.236E-03    -295.758E-03     65.6712E-03    -296.896E-03     592.390E-03    -295.648E-03     60.9027E-03
            1823     5.35685E-03     57.4104E-03    -48.6651E+06    -43.4264E+06    -10.0004E+06    -237.273E+03    -296.312E-03     592.109E-03    -295.797E-03     58.0581E-03    -296.655E-03     592.155E-03    -295.714E-03     54.1608E-03
            1824     4.68680E-03     57.3174E-03    -53.4032E+06    -49.6674E+06    -18.0155E+06     61.2698E+03    -296.207E-03     592.040E-03    -295.833E-03     50.5298E-03    -296.503E-03     592.023E-03    -295.774E-03     47.3766E-03
            1825     4.01733E-03     57.2381E-03    -58.1756E+06    -56.7311E+06    -28.3761E+06     633.207E+03    -296.085E-03     591.937E-03    -295.852E-03     43.0408E-03    -296.340E-03     591.867E-03    -295.827E-03     40.5413E-03
            1826     3.34750E-03     57.1707E-03    -63.2780E+06    -64.8236E+06    -40.5902E+06     561.991E+03    -295.947E-03     591.811E-03    -295.864E-03     35.6245E-03    -296.168E-03     591.695E-03    -295.881E-03     33.6930E-03
            1827     2.67784E-03     57.1159E-03    -67.8637E+06    -72.5008E+06    -52.0712E+06     211.725E+03    -295.937E-03     591.809E-03    -295.873E-03     28.2781E-03    -296.130E-03     591.656E-03    -295.930E-03     26.8213E-03
            1828     2.00842E-03     57.0736E-03    -71.8810E+06    -79.5261E+06    -62.5302E+06    -54.8116E+03    -295.952E-03     591.815E-03    -295.863E-03     21.0432E-03    -296.125E-03     591.631E-03    -295.956E-03     20.0101E-03
            1829     1.33894E-03     57.0426E-03    -74.7631E+06    -84.9267E+06    -70.5387E+06    -153.035E+03    -295.890E-03     591.733E-03    -295.844E-03     14.0402E-03    -296.046E-03     591.527E-03    -295.965E-03     13.4008E-03
            1830     669.585E-06     57.0234E-03    -76.2903E+06    -88.4717E+06    -75.7596E+06    -238.486E+03    -295.526E-03     591.683E-03    -296.157E-03     7.89511E-03    -295.672E-03     591.464E-03    -296.297E-03     7.53629E-03
            1831     12.7316E-03     57.4342E-03    -2.74954E+06     22.8242E+06     52.0164E+06     137.123E+03    -298.181E-03     593.484E-03    -295.302E-03     105.690E-03    -299.286E-03     594.508E-03    -295.071E-03     93.4297E-03
            1832     12.0616E-03     57.2393E-03    -5.89678E+06     20.2931E+06     48.6534E+06    -732.837E+03    -298.027E-03     593.351E-03    -295.324E-03     116.544E-03    -299.400E-03     594.633E-03    -295.101E-03     102.296E-03
            1833     11.3895E-03     57.0556E-03    -9.32912E+06     16.3251E+06     45.9374E+06    -624.678E+03    -297.829E-03     593.207E-03    -295.378E-03     114.041E-03    -299.104E-03     594.373E-03    -295.158E-03     100.611E-03
            1834     10.7176E-03     56.8687E-03    -12.7870E+06     13.2575E+06     44.8616E+06     198.461E+03    -298.071E-03     593.512E-03    -295.441E-03     112.852E-03    -299.311E-03     594.623E-03    -295.217E-03     99.8817E-03
            1835     10.0489E-03     56.6862E-03    -16.1140E+06     10.0093E+06     43.2980E+06     528.456E+03    -297.978E-03     593.474E-03    -295.496E-03     108.433E-03    -299.102E-03     594.451E-03    -295.270E-03     96.4978E-03
            1836     9.37789E-03     56.5134E-03    -19.7264E+06     5.96467E+06     39.7203E+06     259.887E+03    -297.614E-03     593.164E-03    -295.549E-03     102.828E-03    -298.600E-03     593.985E-03    -295.331E-03     92.1445E-03
            1837     8.70772E-03     56.3484E-03    -24.3899E+06     599.721E+03     34.0658E+06     50.1771E+03    -297.251E-03     592.861E-03    -295.610E-03     96.3003E-03    -298.099E-03     593.526E-03    -295.406E-03     86.9316E-03
            1838     8.03685E-03     56.1950E-03    -29.2414E+06    -5.39421E+06     26.5629E+06     74.1353E+03    -296.946E-03     592.621E-03    -295.675E-03     89.0770E-03    -297.665E-03     593.140E-03    -295.492E-03     80.9851E-03
            1839     7.36658E-03     56.0515E-03    -33.6455E+06    -11.2008E+06     18.6381E+06    -16.1733E+03    -296.756E-03     592.496E-03    -295.740E-03     81.5050E-03    -297.361E-03     592.888E-03    -295.582E-03     74.6049E-03
            1840     6.69638E-03     55.9219E-03    -38.7006E+06    -17.3952E+06     10.9065E+06    -163.876E+03    -296.604E-03     592.409E-03    -295.805E-03     73.8504E-03    -297.115E-03     592.690E-03    -295.669E-03     68.0455E-03
            1841     6.02621E-03     55.8033E-03    -43.5454E+06    -30.3457E+06     860.017E+03    -73.9738E+03    -296.480E-03     592.344E-03    -295.864E-03     66.1875E-03    -296.902E-03     592.501E-03    -295.752E-03     61.3677E-03
            1842     5.35625E-03     55.6985E-03    -48.3827E+06    -43.5024E+06    -9.85068E+06     250.917E+03    -296.346E-03     592.261E-03    -295.916E-03     58.4924E-03    -296.691E-03     592.309E-03    -295.832E-03     54.5502E-03
            1843     4.68636E-03     55.6053E-03    -53.6835E+06    -50.4374E+06    -19.0772E+06     265.710E+03    -296.176E-03     592.143E-03    -295.967E-03     50.8563E-03    -296.473E-03     592.125E-03    -295.911E-03     47.6725E-03
            1844     4.01630E-03     55.5250E-03    -58.4332E+06    -57.2863E+06    -28.7179E+06     231.979E+03    -296.105E-03     592.119E-03    -296.014E-03     43.2916E-03    -296.361E-03     592.048E-03    -295.990E-03     40.7524E-03
            1845     3.34685E-03     55.4580E-03    -63.0570E+06    -64.4678E+06    -39.3291E+06     572.230E+03    -296.116E-03     592.162E-03    -296.047E-03     35.9484E-03    -296.339E-03     592.046E-03    -296.058E-03     33.9853E-03
            1846     2.67732E-03     55.4026E-03    -67.3715E+06    -71.7972E+06    -50.5178E+06     720.518E+03    -296.154E-03     592.207E-03    -296.053E-03     28.6575E-03    -296.349E-03     592.054E-03    -296.104E-03     27.1900E-03
            1847     2.00802E-03     55.3599E-03    -71.2273E+06    -78.7797E+06    -61.1395E+06     629.091E+03    -296.212E-03     592.233E-03    -296.022E-03     21.5006E-03    -296.385E-03     592.051E-03    -296.110E-03     20.4495E-03
            1848     1.33893E-03     55.3292E-03    -74.4212E+06    -84.6437E+06    -69.8211E+06     509.660E+03    -296.142E-03     592.089E-03    -295.948E-03     14.4651E-03    -296.299E-03     591.884E-03    -296.066E-03     13.7710E-03
            1849     669.387E-06     55.3109E-03    -76.9379E+06    -88.5430E+06    -74.8536E+06     319.480E+03    -295.681E-03     591.814E-03    -296.133E-03     7.90669E-03    -295.831E-03     591.595E-03    -296.267E-03     7.51418E-03
            1850     12.7324E-03     55.7292E-03    -1.87981E+06     23.2836E+06     51.6642E+06     280.843E+03    -297.576E-03     592.867E-03    -295.291E-03     108.876E-03    -298.695E-03     593.912E-03    -295.063E-03     96.6424E-03
            1851     12.0589E-03     55.5300E-03    -5.08386E+06     20.9516E+06     49.1978E+06     722.016E+03    -298.011E-03     593.357E-03    -295.347E-03     118.361E-03    -299.381E-03     594.641E-03    -295.124E-03     104.286E-03
            1852     11.3891E-03     55.3466E-03    -9.38145E+06     16.1096E+06     45.3469E+06     240.811E+03    -298.113E-03     593.510E-03    -295.397E-03     114.096E-03    -299.388E-03     594.677E-03    -295.180E-03     100.666E-03
            1853     10.7201E-03     55.1577E-03    -12.5499E+06     13.0497E+06     43.6914E+06    -292.015E+03    -297.944E-03     593.398E-03    -295.453E-03     112.787E-03    -299.182E-03     594.510E-03    -295.235E-03     99.7990E-03
            1854     10.0477E-03     54.9774E-03    -16.2125E+06     9.61257E+06     42.4460E+06    -514.350E+03    -297.558E-03     593.089E-03    -295.531E-03     108.612E-03    -298.682E-03     594.066E-03    -295.309E-03     96.6771E-03
            1855     9.37747E-03     54.8020E-03    -20.1920E+06     5.49130E+06     39.4769E+06    -204.160E+03    -297.411E-03     593.024E-03    -295.614E-03     103.061E-03    -298.402E-03     593.849E-03    -295.395E-03     92.3472E-03
            1856     8.70663E-03     54.6387E-03    -24.4802E+06     480.464E+03     33.9922E+06     119.551E+03    -297.236E-03     592.925E-03    -295.689E-03     96.5274E-03    -298.091E-03     593.596E-03    -295.484E-03     87.0950E-03
            1857     8.03653E-03     54.4834E-03    -28.8821E+06    -5.09275E+06     26.8860E+06     214.235E+03    -296.966E-03     592.727E-03    -295.761E-03     89.4756E-03    -297.691E-03     593.254E-03    -295.577E-03     81.3281E-03
            1858     7.36594E-03     54.3415E-03    -33.4371E+06    -10.9928E+06     19.0417E+06     287.460E+03    -296.717E-03     592.555E-03    -295.838E-03     82.0055E-03    -297.327E-03     592.953E-03    -295.679E-03     75.0653E-03
            1859     6.69545E-03     54.2095E-03    -38.0806E+06    -16.9488E+06     11.1200E+06     269.283E+03    -296.563E-03     592.481E-03    -295.918E-03     74.3000E-03    -297.077E-03     592.768E-03    -295.783E-03     68.4534E-03
            1860     6.02534E-03     54.0921E-03    -43.4522E+06    -30.6303E+06     267.907E+03     66.3712E+03    -296.465E-03     592.458E-03    -295.993E-03     66.5314E-03    -296.889E-03     592.617E-03    -295.884E-03     61.6720E-03
            1861     5.35528E-03     53.9854E-03    -48.5435E+06    -44.1648E+06    -10.4766E+06    -19.7550E+03    -296.384E-03     592.446E-03    -296.062E-03     58.8852E-03    -296.732E-03     592.495E-03    -295.980E-03     54.8886E-03
            1862     4.68558E-03     53.8929E-03    -53.1280E+06    -50.4912E+06    -19.1593E+06     148.623E+03    -296.277E-03     592.405E-03    -296.127E-03     51.2347E-03    -296.574E-03     592.389E-03    -296.073E-03     47.9917E-03
            1863     4.01589E-03     53.8122E-03    -58.1064E+06    -57.5161E+06    -29.1039E+06     271.803E+03    -296.212E-03     592.398E-03    -296.186E-03     43.5951E-03    -296.467E-03     592.327E-03    -296.164E-03     41.0298E-03
            1864     3.34612E-03     53.7442E-03    -62.8267E+06    -64.6537E+06    -39.4954E+06     228.615E+03    -296.242E-03     592.475E-03    -296.232E-03     36.0926E-03    -296.465E-03     592.359E-03    -296.245E-03     34.1046E-03
            1865     2.67680E-03     53.6888E-03    -67.1693E+06    -71.8254E+06    -50.2068E+06     362.042E+03    -296.239E-03     592.503E-03    -296.264E-03     28.8296E-03    -296.434E-03     592.350E-03    -296.313E-03     27.3330E-03
            1866     2.00747E-03     53.6455E-03    -70.8390E+06    -78.3363E+06    -60.0553E+06     493.314E+03    -296.219E-03     592.514E-03    -296.295E-03     21.7665E-03    -296.392E-03     592.332E-03    -296.379E-03     20.6863E-03
            1867     1.33811E-03     53.6151E-03    -73.5282E+06    -83.6661E+06    -68.2375E+06     303.644E+03    -296.306E-03     592.624E-03    -296.318E-03     14.7693E-03    -296.463E-03     592.420E-03    -296.431E-03     14.0507E-03
            1868     669.354E-06     53.5966E-03    -74.7247E+06    -87.1900E+06    -73.9862E+06     156.862E+03    -296.756E-03     592.653E-03    -295.897E-03     8.04596E-03    -296.898E-03     592.437E-03    -296.033E-03     7.65530E-03
            1869     12.7269E-03     54.0151E-03    -3.27498E+06     22.1235E+06     51.1985E+06    -178.638E+03    -297.699E-03     593.049E-03    -295.350E-03     107.472E-03    -298.825E-03     594.093E-03    -295.122E-03     95.0885E-03
            1870     12.0600E-03     53.8210E-03    -5.87719E+06     20.4831E+06      49.177E+06     347.623E+03    -298.397E-03     593.784E-03    -295.387E-03     117.157E-03    -299.771E-03     595.067E-03    -295.162E-03     102.970E-03
            1871     11.3895E-03     53.6339E-03    -8.24255E+06     17.1565E+06     46.3427E+06     491.554E+03    -297.969E-03     593.399E-03    -295.430E-03     114.394E-03    -299.243E-03     594.570E-03    -295.211E-03     100.983E-03
            1872     10.7175E-03     53.4495E-03    -11.8908E+06     13.6362E+06     44.2914E+06     177.951E+03    -297.763E-03     593.264E-03    -295.501E-03     113.604E-03    -299.010E-03     594.389E-03    -295.282E-03     100.569E-03
            1873     10.0479E-03     53.2668E-03    -15.8646E+06     9.84059E+06     42.4898E+06     100.999E+03    -297.521E-03     593.112E-03    -295.591E-03     109.214E-03    -298.654E-03     594.100E-03    -295.370E-03     97.2216E-03
            1874     9.37666E-03     53.0931E-03    -20.1339E+06     5.21325E+06     38.5090E+06    -40.9102E+03    -297.270E-03     592.953E-03    -295.683E-03     103.522E-03    -298.266E-03     593.785E-03    -295.469E-03     92.7654E-03
            1875     8.70623E-03     52.9270E-03    -24.3718E+06     214.291E+03     32.9979E+06    -110.090E+03    -297.104E-03     592.880E-03    -295.777E-03     97.0019E-03    -297.962E-03     593.557E-03    -295.577E-03     87.5371E-03
            1876     8.03532E-03     52.7735E-03    -28.8293E+06    -5.31871E+06     26.1598E+06    -10.8689E+03    -296.956E-03     592.823E-03    -295.867E-03     89.9525E-03    -297.685E-03     593.355E-03    -295.686E-03     81.7532E-03
            1877     7.36494E-03     52.6294E-03    -33.6600E+06    -11.3168E+06     18.5931E+06    -15.6616E+03    -296.767E-03     592.724E-03    -295.956E-03     82.4733E-03    -297.384E-03     593.127E-03    -295.798E-03     75.4661E-03
            1878     6.69478E-03     52.4988E-03    -38.5176E+06    -17.3695E+06     10.8629E+06     77.1569E+03    -296.561E-03     592.611E-03    -296.050E-03     74.7734E-03    -297.083E-03     592.902E-03    -295.914E-03     68.8558E-03
            1879     6.02452E-03     52.3791E-03    -42.9655E+06    -30.4520E+06     490.853E+03     311.357E+03    -296.453E-03     592.595E-03    -296.142E-03     67.0239E-03    -296.879E-03     592.759E-03    -296.033E-03     62.1026E-03
            1880     5.35461E-03     52.2736E-03    -47.9415E+06    -44.0110E+06    -10.2409E+06     287.730E+03    -296.384E-03     592.618E-03    -296.234E-03     59.3404E-03    -296.733E-03     592.670E-03    -296.152E-03     55.2924E-03
            1881     4.68452E-03     52.1792E-03    -53.0276E+06    -50.6067E+06    -18.9276E+06     147.526E+03    -296.368E-03     592.689E-03    -296.321E-03     51.7280E-03    -296.668E-03     592.675E-03    -296.265E-03     48.4370E-03
            1882     4.01499E-03     52.0988E-03    -57.6205E+06    -57.4049E+06    -28.8320E+06     130.597E+03    -296.433E-03     592.820E-03    -296.387E-03     44.1423E-03    -296.689E-03     592.751E-03    -296.365E-03     41.5282E-03
            1883     3.34568E-03     52.0300E-03    -62.2116E+06    -64.6031E+06    -39.5972E+06     118.142E+03    -296.426E-03     592.862E-03    -296.436E-03     36.5587E-03    -296.647E-03     592.747E-03    -296.450E-03     34.5307E-03
            1884     2.67626E-03     51.9744E-03    -66.7565E+06    -71.9325E+06    -50.3986E+06    -60.1394E+03    -296.385E-03     592.866E-03    -296.481E-03     29.0428E-03    -296.579E-03     592.714E-03    -296.532E-03     27.5027E-03
            1885     2.00685E-03     51.9313E-03    -70.1436E+06    -78.2604E+06    -60.1096E+06    -141.974E+03    -296.377E-03     592.913E-03    -296.536E-03     21.7152E-03    -296.547E-03     592.731E-03    -296.622E-03     20.6095E-03
            1886     1.33768E-03     51.8997E-03    -72.4684E+06    -83.1586E+06    -67.7905E+06     18.6865E+03    -296.437E-03     593.055E-03    -296.617E-03     14.5043E-03    -296.590E-03     592.851E-03    -296.730E-03     13.7855E-03
            1887     668.363E-06     51.8809E-03    -74.7495E+06    -86.9497E+06    -73.0318E+06    -2.02579E+03    -296.879E-03     593.339E-03    -296.460E-03     8.20713E-03    -297.024E-03     593.122E-03    -296.591E-03     7.77734E-03
            1888     12.7332E-03     52.3087E-03    -2.58871E+06     22.4596E+06     50.9974E+06     67.5392E+03    -297.604E-03     592.936E-03    -295.332E-03     106.816E-03    -298.713E-03     593.968E-03    -295.106E-03     94.5358E-03
            1889     12.0592E-03     52.1088E-03    -5.52889E+06     20.3605E+06     48.5201E+06        -665.756    -297.829E-03     593.215E-03    -295.386E-03     117.272E-03    -299.193E-03     594.491E-03    -295.165E-03     103.170E-03
            1890     11.3880E-03     51.9271E-03    -8.79805E+06     16.5103E+06     45.8387E+06    -63.4206E+03    -297.525E-03     592.986E-03    -295.461E-03     114.041E-03    -298.799E-03     594.155E-03    -295.243E-03     100.620E-03
            1891     10.7179E-03     51.7381E-03    -12.0093E+06     13.4779E+06     44.3626E+06     202.001E+03    -297.442E-03     592.998E-03    -295.557E-03     113.043E-03    -298.686E-03     594.119E-03    -295.337E-03     100.029E-03
            1892     10.0464E-03     51.5575E-03    -15.6615E+06     9.89768E+06     42.4400E+06     382.027E+03    -297.290E-03     592.956E-03    -295.665E-03     109.234E-03    -298.425E-03     593.946E-03    -295.445E-03     97.2362E-03
            1893     9.37600E-03     51.3825E-03    -19.6048E+06     5.60277E+06     38.7362E+06     416.293E+03    -297.153E-03     592.930E-03    -295.778E-03     104.057E-03    -298.155E-03     593.770E-03    -295.564E-03     93.2691E-03
            1894     8.70483E-03     51.2174E-03    -24.0560E+06     419.190E+03     33.0874E+06     226.155E+03    -297.046E-03     592.934E-03    -295.888E-03     97.5603E-03    -297.911E-03     593.619E-03    -295.688E-03     88.0412E-03
            1895     8.03446E-03     51.0618E-03    -28.6686E+06    -5.30451E+06     25.9547E+06     30.3633E+03    -296.919E-03     592.911E-03    -295.993E-03     90.3676E-03    -297.655E-03     593.452E-03    -295.813E-03     82.0935E-03
            1896     7.36407E-03     50.9184E-03    -33.4227E+06    -11.4164E+06     17.8665E+06     6.99351E+03    -296.719E-03     592.817E-03    -296.097E-03     83.0328E-03    -297.341E-03     593.228E-03    -295.943E-03     75.9467E-03
            1897     6.69359E-03     50.7864E-03    -38.3562E+06    -17.5412E+06     10.1137E+06     5.76942E+03    -296.564E-03     592.775E-03    -296.211E-03     75.5124E-03    -297.090E-03     593.073E-03    -296.079E-03     69.5263E-03
            1898     6.02341E-03     50.6672E-03    -43.4244E+06    -30.9351E+06     248.192E+03     3.02251E+03    -296.509E-03     592.835E-03    -296.327E-03     67.7589E-03    -296.942E-03     593.004E-03    -296.218E-03     62.7617E-03
            1899     5.35328E-03     50.5600E-03    -47.8784E+06    -44.0478E+06    -9.88375E+06     246.451E+03    -296.513E-03     592.948E-03    -296.435E-03     59.9000E-03    -296.866E-03     593.003E-03    -296.351E-03     55.7920E-03
            1900     4.68368E-03     50.4662E-03    -52.4134E+06    -50.2810E+06    -18.4490E+06     441.471E+03    -296.520E-03     593.053E-03    -296.533E-03     52.1445E-03    -296.820E-03     593.042E-03    -296.476E-03     48.8165E-03
            1901     4.01394E-03     50.3839E-03    -57.2446E+06    -57.1838E+06    -28.2847E+06     297.836E+03    -296.554E-03     593.169E-03    -296.615E-03     44.4651E-03    -296.811E-03     593.102E-03    -296.591E-03     41.8069E-03
            1902     3.34464E-03     50.3153E-03    -61.7140E+06    -64.3624E+06    -39.1013E+06     111.907E+03    -296.605E-03     593.285E-03    -296.680E-03     36.8970E-03    -296.827E-03     593.172E-03    -296.693E-03     34.8037E-03
            1903     2.67549E-03     50.2593E-03    -65.6316E+06    -71.4939E+06    -50.2358E+06     56.2880E+03    -296.691E-03     593.414E-03    -296.723E-03     29.4191E-03    -296.881E-03     593.263E-03    -296.776E-03     27.8239E-03
            1904     2.00672E-03     50.2155E-03    -69.4856E+06    -78.2679E+06    -60.3921E+06    -12.2184E+03    -296.768E-03     593.511E-03    -296.743E-03     21.9790E-03    -296.935E-03     593.329E-03    -296.831E-03     20.8442E-03
            1905     1.33783E-03     50.1844E-03    -72.7129E+06      -83.72E+06    -68.1809E+06    -53.0863E+03    -296.800E-03     593.536E-03    -296.736E-03     14.6892E-03    -296.952E-03     593.331E-03    -296.850E-03     13.9531E-03
            1906     669.169E-06     50.1646E-03    -74.2161E+06    -87.0010E+06    -73.1385E+06     39.7390E+03    -296.560E-03     593.459E-03    -296.900E-03     7.79564E-03    -296.701E-03     593.241E-03    -297.032E-03     7.40839E-03
            1907     12.7275E-03     50.5959E-03    -2.37398E+06     22.5004E+06     50.7769E+06     354.279E+03    -297.404E-03     592.733E-03    -295.329E-03     107.847E-03    -298.516E-03     593.770E-03    -295.105E-03     95.6073E-03
            1908     12.0594E-03     50.4026E-03    -5.49259E+06     20.2004E+06     48.1685E+06     185.938E+03    -297.651E-03     593.046E-03    -295.395E-03     117.176E-03    -299.019E-03     594.326E-03    -295.175E-03     103.026E-03
            1909     11.3889E-03     50.2153E-03    -8.73627E+06     16.2346E+06     45.0498E+06    -31.3117E+03    -297.227E-03     592.710E-03    -295.483E-03     114.187E-03    -298.502E-03     593.880E-03    -295.268E-03     100.763E-03
            1910     10.7173E-03     50.0310E-03    -12.3690E+06     12.7588E+06     43.0591E+06    -134.309E+03    -297.111E-03     592.712E-03    -295.600E-03     113.638E-03    -298.359E-03     593.836E-03    -295.385E-03     100.631E-03
            1911     10.0462E-03     49.8477E-03    -15.8635E+06     9.53965E+06     41.9416E+06    -87.2093E+03    -297.028E-03     592.766E-03    -295.738E-03     109.650E-03    -298.169E-03     593.762E-03    -295.519E-03     97.6238E-03
            1912     9.37458E-03     49.6730E-03    -19.8153E+06     5.38242E+06     38.6807E+06    -54.1636E+03    -296.999E-03     592.872E-03    -295.873E-03     104.137E-03    -298.008E-03     593.718E-03    -295.659E-03     93.2778E-03
            1913     8.70409E-03     49.5063E-03    -23.9128E+06     502.347E+03     33.2463E+06     199.498E+03    -296.843E-03     592.848E-03    -296.005E-03     97.8434E-03    -297.716E-03     593.541E-03    -295.804E-03     88.2550E-03
            1914     8.03334E-03     49.3507E-03    -28.4467E+06    -5.24814E+06     25.8288E+06     361.034E+03    -296.674E-03     592.812E-03    -296.138E-03     91.0468E-03    -297.418E-03     593.362E-03    -295.960E-03     82.7120E-03
            1915     7.36256E-03     49.2069E-03    -33.1559E+06    -11.2852E+06     17.8460E+06     368.500E+03    -296.649E-03     592.924E-03    -296.275E-03     83.7965E-03    -297.278E-03     593.344E-03    -296.121E-03     76.6482E-03
            1916     6.69217E-03     49.0742E-03    -37.9224E+06    -17.2540E+06     10.2487E+06     357.054E+03    -296.641E-03     593.051E-03    -296.410E-03     76.0806E-03    -297.171E-03     593.356E-03    -296.279E-03     70.0350E-03
            1917     6.02200E-03     48.9542E-03    -42.8610E+06    -30.8337E+06     7.78925E+03     238.829E+03    -296.655E-03     593.191E-03    -296.537E-03     68.2347E-03    -297.090E-03     593.366E-03    -296.430E-03     63.1744E-03
            1918     5.35226E-03     48.8464E-03    -47.6066E+06    -44.2845E+06    -10.2657E+06     71.8014E+03    -296.707E-03     593.360E-03    -296.653E-03     60.4009E-03    -297.062E-03     593.419E-03    -296.571E-03     56.2248E-03
            1919     4.68253E-03     48.7516E-03    -51.9948E+06    -50.2065E+06    -18.3091E+06     7.15773E+03    -296.750E-03     593.508E-03    -296.757E-03     52.6625E-03    -297.053E-03     593.500E-03    -296.701E-03     49.2557E-03
            1920     4.01330E-03     48.6692E-03    -56.5854E+06    -57.0937E+06    -28.3192E+06     86.3050E+03    -296.737E-03     593.581E-03    -296.845E-03     44.8542E-03    -296.994E-03     593.517E-03    -296.822E-03     42.1246E-03
            1921     3.34385E-03     48.6000E-03    -61.3283E+06    -64.5120E+06    -39.3453E+06     234.423E+03    -296.748E-03     593.673E-03    -296.926E-03     37.1808E-03    -296.968E-03     593.561E-03    -296.940E-03     35.0382E-03
            1922     2.67485E-03     48.5428E-03    -65.5544E+06    -71.4143E+06    -49.5924E+06     373.912E+03    -296.872E-03     593.869E-03    -296.997E-03     29.7750E-03    -297.064E-03     593.719E-03    -297.046E-03     28.1462E-03
            1923     2.00586E-03     48.4992E-03    -69.1469E+06    -77.8678E+06    -59.3497E+06     412.232E+03    -297.033E-03     594.068E-03    -297.035E-03     22.4315E-03    -297.202E-03     593.887E-03    -297.119E-03     21.2790E-03
            1924     1.33729E-03     48.4673E-03    -71.9228E+06    -83.3876E+06    -67.8433E+06     113.383E+03    -297.127E-03     594.148E-03    -297.021E-03     15.2438E-03    -297.277E-03     593.944E-03    -297.135E-03     14.4982E-03
            1925     668.738E-06     48.4482E-03    -74.3817E+06    -87.1457E+06    -72.7931E+06    -91.0693E+03    -296.896E-03     594.017E-03    -297.121E-03     8.23328E-03    -297.039E-03     593.798E-03    -297.250E-03     7.82956E-03
            1926     12.7324E-03     48.8889E-03    -3.01181E+06     22.0903E+06     51.1994E+06    -49.2607E+03    -297.457E-03     592.810E-03    -295.354E-03     107.121E-03    -298.571E-03     593.844E-03    -295.125E-03     94.8378E-03
            1927     12.0593E-03     48.6912E-03    -5.79540E+06     20.0403E+06     48.4547E+06     219.225E+03    -297.416E-03     592.839E-03    -295.423E-03     117.372E-03    -298.785E-03     594.118E-03    -295.201E-03     103.254E-03
            1928     11.3876E-03     48.5094E-03    -8.28812E+06     16.6066E+06     45.4904E+06     419.502E+03    -296.944E-03     592.472E-03    -295.528E-03     114.505E-03    -298.221E-03     593.646E-03    -295.312E-03     101.098E-03
            1929     10.7160E-03     48.3208E-03    -11.6808E+06     13.3757E+06     43.6847E+06     308.683E+03    -296.918E-03     592.582E-03    -295.664E-03     113.903E-03    -298.175E-03     593.719E-03    -295.448E-03     100.816E-03
            1930     10.0450E-03     48.1390E-03    -15.6260E+06     9.64651E+06     41.8409E+06     85.4381E+03    -296.950E-03     592.764E-03    -295.814E-03     110.036E-03    -298.101E-03     593.772E-03    -295.596E-03     97.9185E-03
            1931     9.37445E-03     47.9628E-03    -19.7256E+06     5.19545E+06     38.0183E+06     93.3240E+03    -296.744E-03     592.711E-03    -295.967E-03     104.745E-03    -297.761E-03     593.566E-03    -295.755E-03     93.8488E-03
            1932     8.70310E-03     47.7964E-03    -24.2132E+06    -61.8617E+03     32.2774E+06     113.652E+03    -296.513E-03     592.644E-03    -296.131E-03     98.5712E-03    -297.393E-03     593.344E-03    -295.935E-03     88.9500E-03
            1933     8.03167E-03     47.6406E-03    -28.7286E+06    -5.64439E+06     25.3459E+06     270.870E+03    -296.525E-03     592.827E-03    -296.302E-03     91.6748E-03    -297.276E-03     593.383E-03    -296.126E-03     83.2997E-03
            1934     7.36105E-03     47.4944E-03    -33.1725E+06    -11.2885E+06     18.0101E+06     392.480E+03    -296.654E-03     593.120E-03    -296.465E-03     84.2058E-03    -297.290E-03     593.545E-03    -296.311E-03     77.0061E-03
            1935     6.69082E-03     47.3618E-03    -37.6450E+06    -16.9495E+06     10.6986E+06     325.368E+03    -296.711E-03     593.329E-03    -296.618E-03     76.5186E-03    -297.248E-03     593.641E-03    -296.485E-03     70.3895E-03
            1936     6.02077E-03     47.2402E-03    -42.2680E+06    -30.4213E+06     510.323E+03     149.464E+03    -296.770E-03     593.530E-03    -296.759E-03     68.7937E-03    -297.211E-03     593.711E-03    -296.651E-03     63.6467E-03
            1937     5.35089E-03     47.1324E-03    -46.7933E+06    -43.9911E+06    -10.0206E+06     35.0960E+03    -296.882E-03     593.769E-03    -296.887E-03     61.0217E-03    -297.240E-03     593.834E-03    -296.806E-03     56.7546E-03
            1938     4.68143E-03     47.0362E-03    -51.4991E+06    -50.3863E+06    -18.7467E+06     117.463E+03    -296.924E-03     593.925E-03    -297.001E-03     53.1829E-03    -297.227E-03     593.921E-03    -296.947E-03     49.6991E-03
            1939     4.01203E-03     46.9536E-03    -56.3796E+06    -57.2791E+06    -28.4455E+06     128.777E+03    -296.928E-03     594.033E-03    -297.104E-03     45.4193E-03    -297.188E-03     593.971E-03    -297.082E-03     42.6095E-03
            1940     3.34313E-03     46.8837E-03    -61.1776E+06    -64.4685E+06    -38.8161E+06     13.4536E+03    -296.982E-03     594.183E-03    -297.201E-03     37.8198E-03    -297.206E-03     594.073E-03    -297.213E-03     35.6131E-03
            1941     2.67401E-03     46.8265E-03    -65.6059E+06    -71.7034E+06    -49.5721E+06    -29.8478E+03    -297.088E-03     594.375E-03    -297.287E-03     30.2143E-03    -297.281E-03     594.225E-03    -297.336E-03     28.5594E-03
            1942     2.00531E-03     46.7814E-03    -68.9550E+06    -77.9400E+06    -59.2113E+06     146.971E+03    -297.232E-03     594.589E-03    -297.356E-03     22.6351E-03    -297.401E-03     594.407E-03    -297.440E-03     21.4412E-03
            1943     1.33670E-03     46.7495E-03    -71.5128E+06    -82.8381E+06    -66.6326E+06     495.089E+03    -297.309E-03     594.730E-03    -297.420E-03     15.1526E-03    -297.461E-03     594.526E-03    -297.530E-03     14.3690E-03
            1944     668.091E-06     46.7303E-03    -72.8981E+06    -86.3401E+06    -72.1323E+06     498.839E+03    -297.380E-03     594.914E-03    -297.535E-03     8.06401E-03    -297.518E-03     594.696E-03    -297.664E-03     7.62412E-03
            1945     12.7278E-03     47.1786E-03    -2.64702E+06     21.8677E+06     49.9863E+06    -68.5413E+03    -297.071E-03     592.441E-03    -295.370E-03     107.321E-03    -298.179E-03     593.472E-03    -295.148E-03     95.0851E-03
            1946     12.0581E-03     46.9838E-03    -5.84903E+06     19.6911E+06     47.7796E+06    -503.941E+03    -297.103E-03     592.566E-03    -295.463E-03     117.163E-03    -298.477E-03     593.850E-03    -295.244E-03     102.973E-03
            1947     11.3874E-03     46.7996E-03    -8.91676E+06     16.1280E+06     45.4868E+06    -198.072E+03    -296.741E-03     592.330E-03    -295.589E-03     114.731E-03    -298.033E-03     593.516E-03    -295.372E-03     101.219E-03
            1948     10.7163E-03     46.6137E-03    -11.4575E+06     13.6720E+06     44.2892E+06     468.949E+03    -296.801E-03     592.542E-03    -295.741E-03     114.530E-03    -298.069E-03     593.689E-03    -295.523E-03     101.406E-03
            1949     10.0446E-03     46.4292E-03    -15.1336E+06     9.95242E+06     41.9759E+06     716.516E+03    -296.566E-03     592.480E-03    -295.914E-03     110.898E-03    -297.724E-03     593.498E-03    -295.696E-03     98.7859E-03
            1950     9.37273E-03     46.2536E-03    -19.3963E+06     5.33976E+06     37.9339E+06     681.061E+03    -296.470E-03     592.572E-03    -296.102E-03     105.716E-03    -297.497E-03     593.439E-03    -295.892E-03     94.7838E-03
            1951     8.70122E-03     46.0870E-03    -23.9285E+06     148.001E+03     32.4034E+06     558.459E+03    -296.586E-03     592.876E-03    -296.291E-03     99.3531E-03    -297.476E-03     593.588E-03    -296.094E-03     89.6687E-03
            1952     8.03067E-03     45.9287E-03    -28.4137E+06    -5.36011E+06     25.6568E+06     358.202E+03    -296.665E-03     593.135E-03    -296.470E-03     92.2295E-03    -297.425E-03     593.701E-03    -296.293E-03     83.7696E-03
            1953     7.35996E-03     45.7831E-03    -32.8212E+06    -11.1169E+06     17.8985E+06     110.516E+03    -296.635E-03     593.279E-03    -296.644E-03     84.7977E-03    -297.278E-03     593.714E-03    -296.491E-03     77.5013E-03
            1954     6.68941E-03     45.6479E-03    -37.2475E+06    -16.8591E+06     10.2544E+06     3.66275E+03    -296.673E-03     593.492E-03    -296.820E-03     77.1449E-03    -297.216E-03     593.813E-03    -296.690E-03     70.9220E-03
            1955     6.01929E-03     45.5269E-03    -41.9079E+06    -30.4504E+06     203.789E+03     70.6603E+03    -296.828E-03     593.815E-03    -296.987E-03     69.4276E-03    -297.273E-03     594.003E-03    -296.881E-03     64.1922E-03
            1956     5.34959E-03     45.4167E-03    -46.6202E+06    -44.1506E+06    -10.0962E+06     223.327E+03    -296.980E-03     594.119E-03    -297.139E-03     61.6901E-03    -297.343E-03     594.189E-03    -297.058E-03     57.3473E-03
            1957     4.68022E-03     45.3207E-03    -51.3854E+06    -50.3886E+06    -18.3950E+06     164.121E+03    -297.037E-03     594.316E-03    -297.279E-03     53.8273E-03    -297.345E-03     594.316E-03    -297.224E-03     50.2559E-03
            1958     4.01097E-03     45.2371E-03    -56.5664E+06    -57.4790E+06    -28.0923E+06     81.2823E+03    -297.109E-03     594.518E-03    -297.409E-03     46.0379E-03    -297.374E-03     594.459E-03    -297.384E-03     43.1533E-03
            1959     3.34174E-03     45.1665E-03    -60.9049E+06    -64.3639E+06    -38.4068E+06     261.702E+03    -297.285E-03     594.804E-03    -297.519E-03     38.3304E-03    -297.510E-03     594.696E-03    -297.529E-03     36.0707E-03
            1960     2.67324E-03     45.1084E-03    -64.8478E+06    -71.2955E+06    -49.1436E+06     305.820E+03    -297.458E-03     595.059E-03    -297.601E-03     30.6467E-03    -297.651E-03     594.911E-03    -297.649E-03     28.9455E-03
            1961     2.00475E-03     45.0631E-03    -68.8924E+06    -78.0627E+06    -59.0838E+06     10.3862E+03    -297.548E-03     595.213E-03    -297.665E-03     22.9728E-03    -297.717E-03     595.032E-03    -297.747E-03     21.7413E-03
            1962     1.33638E-03     45.0307E-03    -71.5958E+06    -83.1499E+06    -66.7056E+06    -315.602E+03    -297.639E-03     595.361E-03    -297.721E-03     15.3118E-03    -297.791E-03     595.156E-03    -297.830E-03     14.4896E-03
            1963     668.272E-06     45.0111E-03    -72.2481E+06    -85.8056E+06    -71.2279E+06    -191.891E+03    -297.842E-03     595.507E-03    -297.665E-03     8.26159E-03    -297.979E-03     595.290E-03    -297.792E-03     7.80449E-03
            1964     12.7306E-03     45.4675E-03    -2.34222E+06     22.0044E+06     49.9211E+06    -53.1908E+03    -296.619E-03     592.003E-03    -295.383E-03     106.134E-03    -297.718E-03     593.026E-03    -295.162E-03     93.9217E-03
            1965     12.0588E-03     45.2768E-03    -5.36772E+06     19.7662E+06     47.2491E+06    -289.961E+03    -296.259E-03     591.766E-03    -295.507E-03     116.943E-03    -297.636E-03     593.057E-03    -295.291E-03     102.706E-03
            1966     11.3860E-03     45.0923E-03     -8.8602E+06     15.5611E+06     43.7614E+06    -96.0848E+03    -296.288E-03     591.960E-03    -295.672E-03     116.211E-03    -297.591E-03     593.159E-03    -295.463E-03     102.692E-03
            1967     10.7141E-03     44.9039E-03    -12.5297E+06     12.1989E+06     42.0876E+06    -79.8778E+03    -296.577E-03     592.435E-03    -295.858E-03     115.625E-03    -297.856E-03     593.591E-03    -295.648E-03     102.479E-03
            1968     10.0427E-03     44.7217E-03    -15.7852E+06     9.28635E+06     41.4038E+06     293.968E+03    -296.503E-03     592.563E-03    -296.061E-03     111.850E-03    -297.677E-03     593.595E-03    -295.844E-03     99.6539E-03
            1969     9.37095E-03     44.5445E-03    -19.4665E+06     5.39021E+06     38.3618E+06     550.694E+03    -296.598E-03     592.862E-03    -296.264E-03     106.272E-03    -297.639E-03     593.742E-03    -296.052E-03     95.2400E-03
            1970     8.70020E-03     44.3756E-03    -23.3712E+06     698.949E+03     33.0544E+06     640.238E+03    -296.683E-03     593.140E-03    -296.458E-03     99.8433E-03    -297.584E-03     593.866E-03    -296.260E-03     90.0474E-03
            1971     8.02909E-03     44.2177E-03    -27.5483E+06    -4.72766E+06     25.8581E+06     450.929E+03    -296.665E-03     593.312E-03    -296.647E-03     93.0547E-03    -297.436E-03     593.894E-03    -296.471E-03     84.4712E-03
            1972     7.35845E-03     44.0702E-03    -32.1538E+06    -10.6655E+06     17.9731E+06     271.308E+03    -296.671E-03     593.512E-03    -296.840E-03     85.7179E-03    -297.324E-03     593.960E-03    -296.688E-03     78.3079E-03
            1973     6.68806E-03     43.9353E-03    -37.1163E+06    -16.8703E+06     10.0695E+06     265.159E+03    -296.711E-03     593.748E-03    -297.037E-03     78.0150E-03    -297.262E-03     594.078E-03    -296.908E-03     71.7048E-03
            1974     6.01791E-03     43.8117E-03    -41.6209E+06    -30.4675E+06    -63.8025E+03     247.309E+03    -296.851E-03     594.080E-03    -297.230E-03     70.2576E-03    -297.302E-03     594.276E-03    -297.126E-03     64.9364E-03
            1975     5.34818E-03     43.7017E-03    -46.5817E+06    -44.3808E+06    -10.2437E+06     180.297E+03    -296.989E-03     594.406E-03    -297.417E-03     62.4886E-03    -297.357E-03     594.481E-03    -297.336E-03     58.0619E-03
            1976     4.67854E-03     43.6039E-03    -51.7292E+06    -50.8560E+06    -18.4918E+06     308.322E+03    -297.161E-03     594.754E-03    -297.593E-03     54.6093E-03    -297.475E-03     594.758E-03    -297.537E-03     50.9619E-03
            1977     4.00947E-03     43.5199E-03    -55.7450E+06    -57.1426E+06    -28.0389E+06     493.072E+03    -297.444E-03     595.182E-03    -297.738E-03     46.6882E-03    -297.708E-03     595.127E-03    -297.715E-03     43.7465E-03
            1978     3.34091E-03     43.4482E-03    -60.2632E+06    -64.1904E+06    -38.5294E+06     345.338E+03    -297.658E-03     595.505E-03    -297.847E-03     38.8070E-03    -297.882E-03     595.399E-03    -297.860E-03     36.4966E-03
            1979     2.67226E-03     43.3892E-03    -64.7161E+06    -71.1744E+06    -48.5872E+06     206.876E+03    -297.764E-03     595.699E-03    -297.935E-03     31.0129E-03    -297.959E-03     595.553E-03    -297.981E-03     29.2375E-03
            1980     2.00401E-03     43.3437E-03    -67.8486E+06    -77.3119E+06    -58.2168E+06     119.692E+03    -297.869E-03     595.877E-03    -298.007E-03     23.3423E-03    -298.037E-03     595.697E-03    -298.088E-03     22.0755E-03
            1981     1.33593E-03     43.3106E-03    -70.7453E+06    -82.9026E+06    -66.7144E+06    -99.8440E+03    -298.005E-03     596.066E-03    -298.061E-03     15.7319E-03    -298.153E-03     595.862E-03    -298.172E-03     14.8947E-03
            1982     667.890E-06     43.2910E-03    -73.1906E+06    -87.0236E+06    -72.4117E+06    -457.285E+03    -298.193E-03     596.181E-03    -297.988E-03     8.66663E-03    -298.332E-03     595.961E-03    -298.117E-03     8.17339E-03
            1983     12.7295E-03     43.7605E-03    -2.45541E+06     21.8661E+06     50.0466E+06    -79.3351E+03    -295.771E-03     591.197E-03    -295.426E-03     106.973E-03    -296.876E-03     592.226E-03    -295.204E-03     94.7514E-03
            1984     12.0563E-03     43.5723E-03    -5.09299E+06     19.8856E+06     47.3087E+06     315.394E+03    -295.886E-03     591.476E-03    -295.590E-03     117.876E-03    -297.252E-03     592.757E-03    -295.375E-03     103.840E-03
            1985     11.3845E-03     43.3838E-03    -8.44175E+06     15.8538E+06     43.9811E+06     553.707E+03    -296.064E-03     591.846E-03    -295.782E-03     116.363E-03    -297.364E-03     593.045E-03    -295.573E-03     102.893E-03
            1986     10.7128E-03     43.1966E-03    -11.9158E+06     12.6167E+06     42.2590E+06     480.867E+03    -296.319E-03     592.309E-03    -295.990E-03     115.338E-03    -297.599E-03     593.469E-03    -295.779E-03     102.164E-03
            1987     10.0407E-03     43.0121E-03    -15.8613E+06     9.00734E+06     40.6899E+06    -44.8576E+03    -296.572E-03     592.774E-03    -296.202E-03     111.653E-03    -297.756E-03     593.815E-03    -295.988E-03     99.3396E-03
            1988     9.37010E-03     42.8340E-03    -19.6508E+06     5.01236E+06     37.6010E+06    -128.880E+03    -296.582E-03     592.995E-03    -296.413E-03     106.750E-03    -297.636E-03     593.888E-03    -296.204E-03     95.5900E-03
            1989     8.69854E-03     42.6652E-03    -23.4342E+06     447.052E+03     32.4763E+06     15.2108E+03    -296.539E-03     593.167E-03    -296.628E-03     100.735E-03    -297.455E-03     593.908E-03    -296.433E-03     90.8138E-03
            1990     8.02753E-03     42.5059E-03    -27.5123E+06    -4.81156E+06     25.6360E+06     271.489E+03    -296.555E-03     593.403E-03    -296.849E-03     93.9006E-03    -297.337E-03     593.997E-03    -296.674E-03     85.2248E-03
            1991     7.35673E-03     42.3575E-03    -32.0833E+06    -10.6951E+06     17.8486E+06     480.427E+03    -296.648E-03     593.720E-03    -297.072E-03     86.6927E-03    -297.312E-03     594.180E-03    -296.920E-03     79.1971E-03
            1992     6.68634E-03     42.2212E-03    -37.0090E+06    -16.7455E+06     10.3078E+06     421.690E+03    -296.809E-03     594.104E-03    -297.295E-03     79.1270E-03    -297.372E-03     594.446E-03    -297.166E-03     72.7113E-03
            1993     6.01628E-03     42.0971E-03    -42.0042E+06    -30.6491E+06     416.046E+03     451.204E+03    -296.954E-03     594.468E-03    -297.514E-03     71.2861E-03    -297.417E-03     594.672E-03    -297.406E-03     65.8674E-03
            1994     5.34637E-03     41.9856E-03    -46.3613E+06    -44.3502E+06    -10.0392E+06     577.385E+03    -297.166E-03     594.887E-03    -297.721E-03     63.2904E-03    -297.541E-03     594.969E-03    -297.640E-03     58.7683E-03
            1995     4.67709E-03     41.8870E-03    -50.6816E+06    -50.4636E+06    -18.7425E+06     447.035E+03    -297.443E-03     595.351E-03    -297.908E-03     55.1840E-03    -297.757E-03     595.361E-03    -297.855E-03     51.4653E-03
            1996     4.00812E-03     41.8010E-03    -55.4125E+06    -57.0483E+06    -27.8843E+06     204.232E+03    -297.721E-03     595.788E-03    -298.067E-03     47.1769E-03    -297.988E-03     595.736E-03    -298.043E-03     44.1617E-03
            1997     3.33959E-03     41.7284E-03    -59.7088E+06    -63.9005E+06    -38.1022E+06     304.483E+03    -297.966E-03     596.153E-03    -298.187E-03     39.3222E-03    -298.192E-03     596.050E-03    -298.198E-03     36.9349E-03
            1998     2.67147E-03     41.6695E-03    -63.6449E+06    -70.9179E+06    -49.0135E+06     270.574E+03    -298.119E-03     596.394E-03    -298.275E-03     31.4035E-03    -298.310E-03     596.249E-03    -298.325E-03     29.5677E-03
            1999     2.00329E-03     41.6228E-03    -67.4162E+06    -77.4424E+06    -58.6710E+06     415.001E+03    -298.157E-03     596.519E-03    -298.361E-03     23.6118E-03    -298.323E-03     596.340E-03    -298.445E-03     22.2742E-03
            2000     1.33531E-03     41.5897E-03    -70.2066E+06    -82.3740E+06    -65.8760E+06     854.916E+03    -298.291E-03     596.753E-03    -298.462E-03     16.0703E-03    -298.439E-03     596.551E-03    -298.570E-03     15.2001E-03
            2001     667.612E-06     41.5689E-03    -72.0539E+06    -85.7935E+06    -70.7506E+06     914.517E+03    -298.504E-03     597.045E-03    -298.540E-03     8.68429E-03    -298.641E-03     596.827E-03    -298.665E-03     8.23554E-03
            2002     12.7269E-03     42.0566E-03    -2.94305E+06     21.0394E+06     48.8562E+06    -26.7925E+03    -295.093E-03     590.609E-03    -295.516E-03     107.420E-03    -296.204E-03     591.644E-03    -295.298E-03     95.1826E-03
            2003     12.0559E-03     41.8623E-03    -5.47715E+06     19.6893E+06     47.4763E+06     433.366E+03    -296.441E-03     592.135E-03    -295.694E-03     117.781E-03    -297.816E-03     593.422E-03    -295.477E-03     103.667E-03
            2004     11.3843E-03     41.6786E-03    -8.50382E+06     16.1729E+06     45.1378E+06     372.039E+03    -296.332E-03     592.201E-03    -295.869E-03     115.936E-03    -297.641E-03     593.406E-03    -295.655E-03     102.367E-03
            2005     10.7116E-03     41.4877E-03    -11.4842E+06     13.2933E+06     43.6108E+06     219.145E+03    -296.163E-03     592.240E-03    -296.076E-03     115.359E-03    -297.455E-03     593.411E-03    -295.861E-03     102.086E-03
            2006     10.0407E-03     41.3030E-03    -14.9822E+06     9.73242E+06     41.3243E+06     295.764E+03    -296.114E-03     592.425E-03    -296.311E-03     111.951E-03    -297.303E-03     593.475E-03    -296.096E-03     99.6116E-03
            2007     9.36815E-03     41.1248E-03    -19.0952E+06     5.17063E+06     37.0676E+06     92.7336E+03    -296.158E-03     592.717E-03    -296.559E-03     107.373E-03    -297.220E-03     593.622E-03    -296.353E-03     96.1638E-03
            2008     8.69682E-03     40.9542E-03    -23.5945E+06     22.5249E+03     31.5947E+06    -58.7414E+03    -296.289E-03     593.104E-03    -296.816E-03     101.526E-03    -297.216E-03     593.856E-03    -296.623E-03     91.5378E-03
            2009     8.02576E-03     40.7939E-03    -28.1333E+06    -5.45289E+06     25.0303E+06     39.9084E+03    -296.484E-03     593.556E-03    -297.072E-03     94.8359E-03    -297.281E-03     594.161E-03    -296.898E-03     86.0705E-03
            2010     7.35476E-03     40.6451E-03    -32.5261E+06    -11.0398E+06     17.8074E+06     197.090E+03    -296.657E-03     593.982E-03    -297.325E-03     87.5341E-03    -297.333E-03     594.452E-03    -297.173E-03     79.9352E-03
            2011     6.68421E-03     40.5063E-03    -37.1773E+06    -16.8904E+06     10.2875E+06     351.252E+03    -296.824E-03     594.401E-03    -297.576E-03     79.9068E-03    -297.399E-03     594.753E-03    -297.447E-03     73.3752E-03
            2012     6.01420E-03     40.3817E-03    -41.7372E+06    -30.6641E+06      48.103E+03     364.190E+03    -297.160E-03     594.976E-03    -297.815E-03     72.0604E-03    -297.632E-03     595.190E-03    -297.710E-03     66.5150E-03
            2013     5.34478E-03     40.2683E-03    -46.0469E+06    -44.1619E+06    -9.75117E+06     253.193E+03    -297.481E-03     595.516E-03    -298.035E-03     64.0638E-03    -297.863E-03     595.606E-03    -297.953E-03     59.4209E-03
            2014     4.67570E-03     40.1686E-03    -50.2710E+06    -49.8424E+06    -17.3019E+06     276.976E+03    -297.717E-03     595.951E-03    -298.234E-03     56.0824E-03    -298.039E-03     595.968E-03    -298.176E-03     52.2513E-03
            2015     4.00706E-03     40.0814E-03    -54.8852E+06    -56.7497E+06    -27.4848E+06     298.148E+03    -297.958E-03     596.363E-03    -298.405E-03     48.0559E-03    -298.229E-03     596.317E-03    -298.380E-03     44.9380E-03
            2016     3.33848E-03     40.0084E-03    -59.8453E+06    -64.3602E+06    -38.8160E+06     231.345E+03    -298.214E-03     596.760E-03    -298.546E-03     40.0540E-03    -298.443E-03     596.660E-03    -298.560E-03     37.5731E-03
            2017     2.67034E-03     39.9472E-03    -64.1546E+06    -71.1364E+06    -48.6271E+06     506.380E+03    -298.464E-03     597.123E-03    -298.658E-03     31.9915E-03    -298.661E-03     596.980E-03    -298.705E-03     30.0743E-03
            2018     2.00272E-03     39.9018E-03    -67.4037E+06    -76.8783E+06    -57.2198E+06     548.572E+03    -298.624E-03     597.362E-03    -298.738E-03     24.0014E-03    -298.794E-03     597.186E-03    -298.815E-03     22.5996E-03
            2019     1.33482E-03     39.8671E-03    -69.5437E+06    -81.5801E+06    -64.7445E+06     143.704E+03    -298.728E-03     597.522E-03    -298.794E-03     16.2405E-03    -298.876E-03     597.321E-03    -298.899E-03     15.3542E-03
            2020     667.304E-06     39.8457E-03    -70.4716E+06    -84.2925E+06    -69.0881E+06    -207.905E+03    -298.751E-03     597.656E-03    -298.904E-03     8.61328E-03    -298.885E-03     597.441E-03    -299.026E-03     8.13724E-03
            2021     12.7267E-03     40.3485E-03    -3.01494E+06     20.9027E+06     49.0121E+06     135.668E+03    -295.009E-03     590.560E-03    -295.551E-03     106.477E-03    -296.109E-03     591.582E-03    -295.332E-03     94.3613E-03
            2022     12.0543E-03     40.1547E-03    -5.71921E+06     19.3650E+06     47.1597E+06     57.4455E+03    -296.031E-03     591.769E-03    -295.738E-03     117.159E-03    -297.417E-03     593.067E-03    -295.522E-03     102.889E-03
            2023     11.3829E-03     39.9692E-03     -8.1367E+06     16.2250E+06     44.6677E+06     151.351E+03    -296.050E-03     591.981E-03    -295.931E-03     115.886E-03    -297.367E-03     593.197E-03    -295.719E-03     102.218E-03
            2024     10.7121E-03     39.7808E-03    -11.7484E+06     12.6791E+06     42.4617E+06    -245.721E+03    -295.796E-03     591.958E-03    -296.162E-03     116.399E-03    -297.104E-03     593.147E-03    -295.951E-03     103.038E-03
            2025     10.0386E-03     39.5954E-03    -15.2986E+06     9.34663E+06     41.0409E+06    -36.9936E+03    -295.742E-03     592.179E-03    -296.438E-03     113.323E-03    -296.948E-03     593.246E-03    -296.224E-03     100.924E-03
            2026     9.36717E-03     39.4153E-03    -19.1458E+06     5.24028E+06     37.6352E+06     285.883E+03    -295.950E-03     592.676E-03    -296.725E-03     108.353E-03    -297.027E-03     593.594E-03    -296.517E-03     97.0862E-03
            2027     8.69525E-03     39.2441E-03    -23.4956E+06     113.195E+03     31.8631E+06     429.781E+03    -296.138E-03     593.150E-03    -297.012E-03     102.320E-03    -297.077E-03     593.914E-03    -296.819E-03     92.2671E-03
            2028     8.02350E-03     39.0821E-03    -28.0193E+06    -5.48429E+06     24.8038E+06     249.587E+03    -296.387E-03     593.684E-03    -297.297E-03     95.5628E-03    -297.195E-03     594.301E-03    -297.124E-03     86.6964E-03
            2029     7.35306E-03     38.9306E-03    -32.4210E+06    -11.0760E+06     17.5099E+06     174.834E+03    -296.626E-03     594.206E-03    -297.580E-03     88.3665E-03    -297.316E-03     594.690E-03    -297.429E-03     80.6302E-03
            2030     6.68263E-03     38.7927E-03    -36.7911E+06    -16.6210E+06     10.3342E+06     72.2150E+03    -296.904E-03     594.764E-03    -297.860E-03     80.9348E-03    -297.490E-03     595.131E-03    -297.731E-03     74.2668E-03
            2031     6.01250E-03     38.6642E-03    -41.4165E+06    -30.4554E+06     358.868E+03    -138.321E+03    -297.284E-03     595.411E-03    -298.127E-03     73.1575E-03    -297.766E-03     595.637E-03    -298.021E-03     67.4752E-03
            2032     5.34313E-03     38.5508E-03    -45.8490E+06    -44.2049E+06    -9.70716E+06    -154.147E+03    -297.654E-03     596.026E-03    -298.372E-03     65.2147E-03    -298.046E-03     596.126E-03    -298.290E-03     60.4267E-03
            2033     4.67396E-03     38.4490E-03    -50.7597E+06    -50.5444E+06    -18.1866E+06     45.2761E+03    -297.924E-03     596.521E-03    -298.597E-03     57.2311E-03    -298.256E-03     596.546E-03    -298.541E-03     53.2546E-03
            2034     4.00516E-03     38.3612E-03    -55.7285E+06    -57.2703E+06    -27.4136E+06     490.903E+03    -298.259E-03     597.056E-03    -298.797E-03     49.1360E-03    -298.541E-03     597.016E-03    -298.770E-03     45.8948E-03
            2035     3.33715E-03     38.2862E-03    -60.0963E+06    -63.7963E+06    -36.7264E+06     553.649E+03    -298.554E-03     597.519E-03    -298.965E-03     40.9096E-03    -298.793E-03     597.425E-03    -298.969E-03     38.3163E-03
            2036     2.66925E-03     38.2254E-03    -63.7987E+06    -70.2619E+06    -46.7894E+06    -163.588E+03    -298.770E-03     597.871E-03    -299.101E-03     32.7377E-03    -298.972E-03     597.733E-03    -299.141E-03     30.7200E-03
            2037     2.00151E-03     38.1773E-03    -66.8928E+06    -76.2667E+06    -56.4799E+06    -765.422E+03    -299.137E-03     598.322E-03    -299.185E-03     24.7106E-03    -299.309E-03     598.149E-03    -299.259E-03     23.2245E-03
            2038     1.33475E-03     38.1436E-03    -69.7796E+06    -81.6294E+06    -64.6400E+06    -803.493E+03    -299.284E-03     598.475E-03    -299.191E-03     16.7478E-03    -299.435E-03     598.276E-03    -299.295E-03     15.7717E-03
            2039     667.445E-06     38.1218E-03    -72.5220E+06    -86.1800E+06    -70.8763E+06    -519.409E+03    -299.056E-03     598.364E-03    -299.309E-03     9.16129E-03    -299.195E-03     598.146E-03    -299.433E-03     8.61361E-03
            2040     12.7285E-03     38.6443E-03    -2.62604E+06     21.2818E+06     49.4649E+06     210.158E+03    -294.878E-03     590.399E-03    -295.522E-03     106.494E-03    -295.980E-03     591.424E-03    -295.301E-03     94.3602E-03
            2041     12.0558E-03     38.4490E-03    -5.45254E+06     19.0850E+06     46.2862E+06    -280.574E+03    -294.900E-03     590.639E-03    -295.739E-03     117.842E-03    -296.287E-03     591.940E-03    -295.528E-03     103.631E-03
            2042     11.3829E-03     38.2619E-03    -8.09983E+06     15.6317E+06     43.2823E+06     77.5904E+03    -294.972E-03     590.972E-03    -296.000E-03     116.615E-03    -296.292E-03     592.193E-03    -295.794E-03     102.990E-03
            2043     10.7088E-03     38.0745E-03    -11.4461E+06     12.5103E+06     41.5674E+06     481.922E+03    -295.362E-03     591.650E-03    -296.288E-03     117.029E-03    -296.675E-03     592.846E-03    -296.082E-03     103.680E-03
            2044     10.0375E-03     37.8867E-03    -15.1944E+06     9.11762E+06     40.2470E+06     391.392E+03    -295.611E-03     592.207E-03    -296.596E-03     114.203E-03    -296.832E-03     593.290E-03    -296.386E-03     101.719E-03
            2045     9.36495E-03     37.7063E-03    -19.2766E+06     4.96156E+06     37.1212E+06     300.295E+03    -295.897E-03     592.806E-03    -296.909E-03     109.472E-03    -296.992E-03     593.743E-03    -296.703E-03     98.0864E-03
            2046     8.69326E-03     37.5332E-03    -23.3740E+06     272.917E+03     32.1797E+06     273.292E+03    -296.197E-03     593.415E-03    -297.218E-03     103.406E-03    -297.156E-03     594.199E-03    -297.024E-03     93.2072E-03
            2047     8.02255E-03     37.3697E-03    -27.5369E+06    -5.02865E+06     25.3673E+06     259.882E+03    -296.266E-03     593.795E-03    -297.529E-03     96.6919E-03    -297.091E-03     594.431E-03    -297.355E-03     87.6779E-03
            2048     7.35083E-03     37.2179E-03    -31.9818E+06    -10.8046E+06     17.5380E+06     31.4006E+03    -296.518E-03     594.366E-03    -297.848E-03     89.7097E-03    -297.224E-03     594.869E-03    -297.698E-03     81.8255E-03
            2049     6.68030E-03     37.0759E-03    -36.5271E+06    -16.4948E+06     10.1932E+06    -158.991E+03    -296.959E-03     595.124E-03    -298.165E-03     82.2596E-03    -297.560E-03     595.507E-03    -298.037E-03     75.4279E-03
            2050     6.01051E-03     36.9481E-03    -41.2251E+06    -30.4983E+06     102.428E+03    -44.5776E+03    -297.318E-03     595.787E-03    -298.468E-03     74.5191E-03    -297.814E-03     596.028E-03    -298.364E-03     68.6743E-03
            2051     5.34077E-03     36.8313E-03    -46.1123E+06    -44.7654E+06    -10.4590E+06     199.267E+03    -297.751E-03     596.507E-03    -298.756E-03     66.5745E-03    -298.155E-03     596.618E-03    -298.676E-03     61.6386E-03
            2052     4.67202E-03     36.7291E-03    -50.8011E+06    -50.7369E+06    -18.0896E+06     289.439E+03    -298.239E-03     597.256E-03    -299.017E-03     58.3915E-03    -298.581E-03     597.290E-03    -298.960E-03     54.2598E-03
            2053     4.00364E-03     36.6393E-03    -55.3334E+06    -56.9262E+06    -26.4603E+06    -221.384E+03    -298.552E-03     597.797E-03    -299.245E-03     50.1739E-03    -298.841E-03     597.765E-03    -299.215E-03     46.7757E-03
            2054     3.33555E-03     36.5630E-03    -59.0988E+06    -63.1018E+06    -36.3267E+06    -827.690E+03    -298.847E-03     598.294E-03    -299.447E-03     41.9997E-03    -299.089E-03     598.207E-03    -299.451E-03     39.2442E-03
            2055     2.66790E-03     36.5016E-03    -63.0121E+06    -70.0429E+06    -47.6246E+06    -681.197E+03    -299.288E-03     598.890E-03    -299.603E-03     33.7251E-03    -299.489E-03     598.758E-03    -299.648E-03     31.5945E-03
            2056     2.00068E-03     36.4523E-03    -67.1209E+06    -77.0763E+06    -58.2005E+06    -92.1517E+03    -299.579E-03     599.282E-03    -299.703E-03     25.3104E-03    -299.750E-03     599.110E-03    -299.785E-03     23.7632E-03
            2057     1.33338E-03     36.4173E-03    -70.4587E+06    -82.7273E+06    -66.3372E+06     309.143E+03    -299.708E-03     599.475E-03    -299.768E-03     17.0098E-03    -299.859E-03     599.275E-03    -299.877E-03     15.9559E-03
            2058     666.609E-06     36.3972E-03    -72.5004E+06    -86.4133E+06    -71.5044E+06     422.507E+03    -299.618E-03     599.610E-03    -299.992E-03     9.46103E-03    -299.756E-03     599.392E-03    -300.119E-03     8.90229E-03
            2059     12.7278E-03     36.9401E-03    -2.18072E+06     21.1485E+06     48.2925E+06    -32.9658E+03    -294.035E-03     589.568E-03    -295.533E-03     107.804E-03    -295.142E-03     590.603E-03    -295.319E-03     95.6606E-03
            2060     12.0545E-03     36.7444E-03    -5.23630E+06     18.9780E+06     45.7836E+06     333.625E+03    -294.430E-03     590.230E-03    -295.801E-03     119.717E-03    -295.823E-03     591.540E-03    -295.592E-03     105.605E-03
            2061     11.3805E-03     36.5586E-03    -8.73536E+06     14.9915E+06     42.8540E+06     151.272E+03    -294.611E-03     590.711E-03    -296.100E-03     117.783E-03    -295.949E-03     591.947E-03    -295.895E-03     104.114E-03
            2062     10.7089E-03     36.3663E-03    -11.2998E+06     12.6486E+06     41.9226E+06     558.859E+03    -295.056E-03     591.477E-03    -296.421E-03     117.495E-03    -296.381E-03     592.686E-03    -296.214E-03     104.080E-03
            2063     10.0354E-03     36.1799E-03    -14.6344E+06     9.46449E+06     40.2699E+06     771.041E+03    -295.419E-03     592.173E-03    -296.754E-03     114.793E-03    -296.653E-03     593.272E-03    -296.545E-03     102.220E-03
            2064     9.36321E-03     35.9967E-03    -18.4184E+06     5.39310E+06     36.6983E+06     679.751E+03    -295.738E-03     592.829E-03    -297.091E-03     110.226E-03    -296.847E-03     593.786E-03    -296.889E-03     98.7164E-03
            2065     8.69175E-03     35.8215E-03    -22.5651E+06     568.458E+03     31.4757E+06      411.51E+03    -295.854E-03     593.292E-03    -297.438E-03     104.508E-03    -296.831E-03     594.099E-03    -297.248E-03     94.1444E-03
            2066     8.01950E-03     35.6582E-03    -26.9814E+06    -4.76255E+06     25.0454E+06     255.022E+03    -296.152E-03     593.947E-03    -297.795E-03     98.2199E-03    -296.999E-03     594.609E-03    -297.624E-03     89.0240E-03
            2067     7.34892E-03     35.5034E-03    -31.5081E+06    -10.3463E+06     18.0285E+06     314.566E+03    -296.548E-03     594.703E-03    -298.155E-03     91.2962E-03    -297.275E-03     595.230E-03    -298.004E-03     83.2304E-03
            2068     6.67833E-03     35.3607E-03    -36.4121E+06    -16.3898E+06     10.4094E+06     376.903E+03    -296.904E-03     595.417E-03    -298.513E-03     83.8424E-03    -297.525E-03     595.821E-03    -298.384E-03     76.8353E-03
            2069     6.00804E-03     35.2298E-03    -41.3161E+06    -30.7397E+06    -11.4179E+03     274.315E+03    -297.424E-03     596.284E-03    -298.860E-03     76.0171E-03    -297.937E-03     596.541E-03    -298.756E-03     69.9886E-03
            2070     5.33876E-03     35.1125E-03    -45.8904E+06    -44.6806E+06    -9.59957E+06     44.9384E+03    -297.960E-03     597.149E-03    -299.189E-03     67.9976E-03    -298.379E-03     597.275E-03    -299.106E-03     62.8751E-03
            2071     4.66968E-03     35.0068E-03    -49.7735E+06    -49.9612E+06    -17.1271E+06    -531.948E+03    -298.417E-03     597.909E-03    -299.492E-03     59.8341E-03    -298.769E-03     597.956E-03    -299.433E-03     55.5084E-03
            2072     4.00165E-03     34.9161E-03    -53.7416E+06    -56.1895E+06    -27.7851E+06    -720.983E+03    -298.860E-03     598.615E-03    -299.756E-03     51.5494E-03    -299.151E-03     598.597E-03    -299.735E-03     47.9652E-03
            2073     3.33350E-03     34.8396E-03    -59.0222E+06    -64.1855E+06    -39.8924E+06    -64.9441E+03    -299.317E-03     599.303E-03    -299.986E-03     43.1426E-03    -299.559E-03     599.223E-03    -300.006E-03     40.2728E-03
            2074     2.66615E-03     34.7745E-03    -63.7237E+06    -71.5225E+06    -50.2523E+06     737.979E+03    -299.752E-03     599.931E-03    -300.179E-03     34.6582E-03    -299.956E-03     599.800E-03    -300.234E-03     32.4304E-03
            2075     1.99957E-03     34.7257E-03    -67.0771E+06    -77.4077E+06    -58.9078E+06     991.051E+03    -300.079E-03     600.408E-03    -300.329E-03     26.1306E-03    -300.252E-03     600.239E-03    -300.414E-03     24.5011E-03
            2076     1.33293E-03     34.6904E-03    -69.2804E+06    -81.8183E+06    -65.5173E+06     699.050E+03    -300.354E-03     600.781E-03    -300.428E-03     17.4939E-03    -300.502E-03     600.584E-03    -300.536E-03     16.4085E-03
            2077     666.416E-06     34.6685E-03    -70.4166E+06    -84.3586E+06    -69.1596E+06     366.828E+03    -300.313E-03     600.949E-03    -300.637E-03     9.30806E-03    -300.447E-03     600.735E-03    -300.758E-03     8.72516E-03
            2078     12.7260E-03     35.2347E-03    -2.74465E+06     20.5165E+06     47.8590E+06     86.2620E+03    -293.539E-03     589.124E-03    -295.585E-03     107.320E-03    -294.653E-03     590.162E-03    -295.371E-03     95.1175E-03
            2079     12.0525E-03     35.0421E-03    -5.57341E+06     18.6727E+06     45.6811E+06    -20.5760E+03    -293.982E-03     589.859E-03    -295.878E-03     119.070E-03    -295.390E-03     591.182E-03    -295.668E-03     104.790E-03
            2080     11.3805E-03     34.8507E-03    -8.44045E+06     15.2476E+06     43.1779E+06    -46.5691E+03    -294.338E-03     590.539E-03    -296.201E-03     118.320E-03    -295.694E-03     591.794E-03    -295.995E-03     104.535E-03
            2081     10.7065E-03     34.6619E-03    -11.7706E+06     12.1772E+06     41.5865E+06    -166.740E+03    -294.862E-03     591.406E-03    -296.544E-03     118.379E-03    -296.210E-03     592.636E-03    -296.337E-03     104.834E-03
            2082     10.0341E-03     34.4712E-03    -15.1409E+06     9.01212E+06     40.0834E+06    -14.3036E+03    -295.140E-03     592.046E-03    -296.906E-03     115.756E-03    -296.399E-03     593.167E-03    -296.697E-03     103.030E-03
            2083     9.36216E-03     34.2871E-03    -18.5707E+06     5.18986E+06     36.6327E+06     235.550E+03    -295.198E-03     592.487E-03    -297.289E-03     111.616E-03    -296.337E-03     593.472E-03    -297.086E-03     99.9250E-03
            2084     8.68905E-03     34.1125E-03    -22.3104E+06     598.080E+03     31.1479E+06     564.675E+03    -295.479E-03     593.169E-03    -297.691E-03     106.130E-03    -296.482E-03     594.006E-03    -297.504E-03     95.5929E-03
            2085     8.01760E-03     33.9449E-03    -26.4899E+06    -4.71642E+06     24.2177E+06     791.858E+03    -295.970E-03     594.069E-03    -298.099E-03     99.7941E-03    -296.839E-03     594.757E-03    -297.933E-03     90.4184E-03
            2086     7.34614E-03     33.7890E-03    -30.9766E+06    -10.3903E+06     16.8684E+06     918.549E+03    -296.469E-03     594.975E-03    -298.507E-03     93.0582E-03    -297.218E-03     595.529E-03    -298.362E-03     84.7865E-03
            2087     6.67531E-03     33.6443E-03    -35.5063E+06    -15.8350E+06     10.2598E+06     919.198E+03    -296.996E-03     595.909E-03    -298.914E-03     85.6785E-03    -297.637E-03     596.339E-03    -298.788E-03     78.4548E-03
            2088     6.00540E-03     33.5112E-03    -39.9232E+06    -29.7740E+06     1.59651E+06     485.514E+03    -297.574E-03     596.885E-03    -299.311E-03     77.7838E-03    -298.104E-03     597.163E-03    -299.202E-03     71.5474E-03
            2089     5.33603E-03     33.3913E-03    -44.3027E+06    -43.6642E+06    -8.87078E+06    -158.780E+03    -298.116E-03     597.800E-03    -299.684E-03     69.8047E-03    -298.549E-03     597.946E-03    -299.600E-03     64.4584E-03
            2090     4.66751E-03     33.2846E-03    -49.4921E+06    -50.1729E+06    -19.7471E+06     47.8220E+03    -298.598E-03     598.629E-03    -300.032E-03     61.5784E-03    -298.959E-03     598.694E-03    -299.986E-03     57.0663E-03
            2091     3.99867E-03     33.1921E-03    -55.0170E+06    -57.8279E+06    -30.5545E+06     1.04604E+06    -299.309E-03     599.658E-03    -300.349E-03     53.0482E-03    -299.611E-03     599.648E-03    -300.338E-03     49.3248E-03
            2092     3.33176E-03     33.1119E-03    -59.2994E+06    -64.5009E+06    -39.5647E+06     1.49723E+06    -299.954E-03     600.564E-03    -300.610E-03     44.3027E-03    -300.205E-03     600.491E-03    -300.629E-03     41.2988E-03
            2093     2.66482E-03     33.0481E-03    -62.9187E+06    -70.6446E+06    -48.4029E+06     981.696E+03    -300.257E-03     601.087E-03    -300.830E-03     35.5468E-03    -300.466E-03     600.962E-03    -300.878E-03     33.1952E-03
            2094     1.99752E-03     32.9961E-03    -65.7696E+06    -76.0564E+06    -56.5965E+06     293.370E+03    -300.629E-03     601.655E-03    -301.026E-03     26.7662E-03    -300.804E-03     601.490E-03    -301.103E-03     25.0203E-03
            2095     1.33159E-03     32.9603E-03    -67.8506E+06    -80.4293E+06    -63.3966E+06    -140.594E+03    -301.031E-03     602.195E-03    -301.164E-03     18.0514E-03    -301.179E-03     602.001E-03    -301.266E-03     16.8778E-03
            2096     665.928E-06     32.9378E-03    -69.7268E+06    -83.9628E+06    -68.3602E+06    -159.563E+03    -301.009E-03     602.447E-03    -301.438E-03     9.73935E-03    -301.142E-03     602.233E-03    -301.557E-03     9.09517E-03
            2097     12.7277E-03     33.5345E-03    -2.97359E+06     20.4326E+06     48.3889E+06    -200.043E+03    -293.285E-03     588.926E-03    -295.641E-03     107.927E-03    -294.413E-03     589.976E-03    -295.425E-03     95.6557E-03
            2098     12.0540E-03     33.3377E-03    -5.33406E+06     19.0503E+06     46.5376E+06     396.491E+03    -293.961E-03     589.911E-03    -295.950E-03     120.532E-03    -295.388E-03     591.251E-03    -295.737E-03     106.228E-03
            2099     11.3785E-03     33.1489E-03    -8.01383E+06     15.6353E+06     43.7292E+06     643.338E+03    -293.997E-03     590.289E-03    -296.292E-03     119.136E-03    -295.371E-03     591.563E-03    -296.084E-03     105.281E-03
            2100     10.7057E-03     32.9537E-03    -11.5358E+06     12.2457E+06     41.5687E+06     183.289E+03    -294.262E-03     590.934E-03    -296.673E-03     119.437E-03    -295.635E-03     592.190E-03    -296.466E-03     105.771E-03
            2101     10.0331E-03     32.7644E-03    -15.2851E+06     8.75526E+06     39.8669E+06    -155.219E+03    -294.472E-03     591.564E-03    -297.092E-03     117.425E-03    -295.765E-03     592.718E-03    -296.883E-03     104.533E-03
            2102     9.35876E-03     32.5798E-03    -19.3059E+06     4.59337E+06     36.5280E+06    -210.032E+03    -294.796E-03     592.332E-03    -297.536E-03     113.435E-03    -295.970E-03     593.348E-03    -297.332E-03     101.571E-03
            2103     8.68682E-03     32.4009E-03    -23.5333E+06    -290.947E+03     31.1432E+06    -147.509E+03    -295.310E-03     593.300E-03    -297.990E-03     107.907E-03    -296.350E-03     594.165E-03    -297.800E-03     97.1665E-03
            2104     8.01462E-03     32.2329E-03    -27.5654E+06    -5.55576E+06     24.0560E+06     102.755E+03    -295.806E-03     594.252E-03    -298.445E-03     101.623E-03    -296.712E-03     594.970E-03    -298.277E-03     92.0045E-03
            2105     7.34296E-03     32.0744E-03    -31.5160E+06    -10.9583E+06     16.3488E+06     507.058E+03    -296.402E-03     595.303E-03    -298.901E-03     94.7382E-03    -297.181E-03     595.884E-03    -298.758E-03     86.2244E-03
            2106     6.67250E-03     31.9263E-03    -35.7380E+06    -16.5727E+06     8.60761E+06     1.03061E+06    -297.028E-03     596.381E-03    -299.353E-03     87.2844E-03    -297.693E-03     596.835E-03    -299.234E-03     79.8181E-03
            2107     6.00244E-03     31.7921E-03    -40.7851E+06    -27.9009E+06    -2.23828E+06     1.33832E+06    -297.621E-03     597.412E-03    -299.791E-03     79.5745E-03    -298.177E-03     597.731E-03    -299.703E-03     73.0995E-03
            2108     5.33299E-03     31.6691E-03    -46.3046E+06    -42.4553E+06    -14.1139E+06     1.25304E+06    -298.325E-03     598.541E-03    -300.216E-03     71.4183E-03    -298.780E-03     598.722E-03    -300.158E-03     65.8736E-03
            2109     4.66385E-03     31.5612E-03    -50.9784E+06    -51.6473E+06    -21.6244E+06     1.48706E+06    -299.157E-03     599.773E-03    -300.615E-03     62.7707E-03    -299.535E-03     599.849E-03    -300.575E-03     58.0928E-03
            2110     3.99666E-03     31.4647E-03    -54.6849E+06    -57.3411E+06    -27.8739E+06     1.25432E+06    -299.812E-03     600.778E-03    -300.966E-03     54.0005E-03    -300.126E-03     600.776E-03    -300.943E-03     50.1131E-03
            2111     3.32905E-03     31.3840E-03    -58.1258E+06    -62.9694E+06    -36.2191E+06     197.844E+03    -300.341E-03     601.608E-03    -301.267E-03     45.2207E-03    -300.601E-03     601.544E-03    -301.273E-03     42.0185E-03
            2112     2.66249E-03     31.3172E-03    -61.4891E+06    -69.1406E+06    -45.9101E+06    -320.995E+03    -300.927E-03     602.441E-03    -301.513E-03     36.4266E-03    -301.141E-03     602.324E-03    -301.554E-03     33.8917E-03
            2113     1.99708E-03     31.2659E-03    -65.0216E+06    -75.4868E+06    -55.5570E+06    -412.437E+03    -301.306E-03     603.017E-03    -301.711E-03     27.5546E-03    -301.483E-03     602.856E-03    -301.785E-03     25.6689E-03
            2114     1.33085E-03     31.2271E-03    -68.2589E+06    -81.0486E+06    -63.6522E+06    -153.024E+03    -301.579E-03     603.475E-03    -301.896E-03     18.4809E-03    -301.730E-03     603.281E-03    -301.998E-03     17.2291E-03
            2115     665.009E-06     31.2056E-03    -69.0693E+06    -83.9840E+06    -68.6430E+06     73.5627E+03    -301.800E-03     604.007E-03    -302.207E-03     9.86569E-03    -301.930E-03     603.793E-03    -302.328E-03     9.19973E-03
            2116     12.7232E-03     31.8295E-03    -2.49400E+06     20.3221E+06     47.3680E+06     146.502E+03    -292.535E-03     588.215E-03    -295.679E-03     107.900E-03    -293.655E-03     589.260E-03    -295.468E-03     95.7332E-03
            2117     12.0499E-03     31.6337E-03    -5.44881E+06     18.4446E+06     45.1586E+06    -86.1091E+03    -293.480E-03     589.503E-03    -296.022E-03     120.240E-03    -294.923E-03     590.860E-03    -295.815E-03     105.769E-03
            2118     11.3787E-03     31.4433E-03    -8.24177E+06     15.1080E+06     42.8670E+06     81.5535E+03    -293.282E-03     589.689E-03    -296.408E-03     120.480E-03    -294.689E-03     590.997E-03    -296.203E-03     106.444E-03
            2119     10.7043E-03     31.2505E-03    -11.1237E+06     12.4559E+06     41.6537E+06     656.612E+03    -293.537E-03     590.390E-03    -296.853E-03     121.828E-03    -294.949E-03     591.686E-03    -296.646E-03     108.018E-03
            2120     10.0290E-03     31.0582E-03    -14.4983E+06     9.35312E+06     40.2174E+06     817.078E+03    -294.139E-03     591.468E-03    -297.330E-03     119.063E-03    -295.463E-03     592.658E-03    -297.121E-03     106.021E-03
            2121     9.35706E-03     30.8707E-03    -18.5408E+06     5.15073E+06     36.7592E+06     550.004E+03    -294.609E-03     592.425E-03    -297.817E-03     114.744E-03    -295.813E-03     593.475E-03    -297.613E-03     102.696E-03
            2122     8.68373E-03     30.6911E-03    -23.1625E+06     3.54419E+03     31.4830E+06     263.989E+03    -295.014E-03     593.334E-03    -298.320E-03     109.640E-03    -296.088E-03     594.235E-03    -298.129E-03     98.6860E-03
            2123     8.01143E-03     30.5199E-03    -28.1528E+06    -5.81587E+06     24.6824E+06    -5.19625E+03    -295.749E-03     594.580E-03    -298.831E-03     103.533E-03    -296.692E-03     595.331E-03    -298.658E-03     93.6809E-03
            2124     7.34040E-03     30.3586E-03    -33.0087E+06    -12.0052E+06     16.3654E+06    -17.5443E+03    -296.474E-03     595.804E-03    -299.330E-03     96.6694E-03    -297.291E-03     596.414E-03    -299.183E-03     87.8913E-03
            2125     6.66923E-03     30.2091E-03    -37.6122E+06    -18.4966E+06     6.67419E+06     622.270E+03    -297.120E-03     596.939E-03    -299.819E-03     89.1071E-03    -297.817E-03     597.417E-03    -299.704E-03     81.3966E-03
            2126     5.99903E-03     30.0710E-03    -41.7066E+06    -29.0350E+06    -3.37726E+06     1.83193E+06    -297.994E-03     598.287E-03    -300.293E-03     80.8643E-03    -298.572E-03     598.624E-03    -300.207E-03     74.1762E-03
            2127     5.32968E-03     29.9468E-03    -45.1340E+06    -41.1544E+06    -11.4990E+06     2.27155E+06    -298.928E-03     599.665E-03    -300.737E-03     72.1454E-03    -299.399E-03     599.863E-03    -300.669E-03     66.4051E-03
            2128     4.66212E-03     29.8338E-03    -48.6927E+06    -49.0897E+06    -18.3846E+06     937.225E+03    -299.642E-03     600.777E-03    -301.135E-03     63.4272E-03    -300.029E-03     600.871E-03    -301.085E-03     58.5362E-03
            2129     3.99430E-03     29.7370E-03    -52.8015E+06    -55.4976E+06    -26.9459E+06    -376.355E+03    -300.183E-03     601.678E-03    -301.495E-03     54.7127E-03    -300.504E-03     601.692E-03    -301.472E-03     50.5930E-03
            2130     3.32751E-03     29.6539E-03    -57.2796E+06    -62.6185E+06    -37.2272E+06    -313.440E+03    -300.764E-03     602.584E-03    -301.820E-03     45.8492E-03    -301.027E-03     602.530E-03    -301.833E-03     42.5007E-03
            2131     2.66106E-03     29.5851E-03    -61.3913E+06    -69.5479E+06    -47.4684E+06     248.122E+03    -301.404E-03     603.502E-03    -302.098E-03     36.7852E-03    -301.618E-03     603.389E-03    -302.145E-03     34.1656E-03
            2132     1.99478E-03     29.5315E-03    -64.7429E+06     -75.635E+06    -56.5487E+06     630.428E+03    -301.945E-03     604.253E-03    -302.307E-03     27.7265E-03    -302.121E-03     604.094E-03    -302.387E-03     25.7800E-03
            2133     1.32979E-03     29.4936E-03    -67.3141E+06    -80.5730E+06    -63.8924E+06     479.638E+03    -302.275E-03     604.733E-03    -302.458E-03     18.6472E-03    -302.423E-03     604.541E-03    -302.563E-03     17.3373E-03
            2134     664.997E-06     29.4688E-03    -69.0719E+06    -83.7513E+06    -68.3347E+06     58.4947E+03    -302.542E-03     605.076E-03    -302.535E-03     10.1112E-03    -302.673E-03     604.864E-03    -302.655E-03     9.40835E-03
            2135     12.7276E-03     30.1291E-03    -2.49280E+06     20.2164E+06     47.3400E+06     78.0230E+03    -291.936E-03     587.620E-03    -295.684E-03     107.610E-03    -293.065E-03     588.674E-03    -295.473E-03     95.3769E-03
            2136     12.0531E-03     29.9320E-03    -5.07678E+06     18.3146E+06     44.6300E+06     116.029E+03    -291.732E-03     587.825E-03    -296.092E-03     121.453E-03    -293.193E-03     589.202E-03    -295.888E-03     106.982E-03
            2137     11.3752E-03     29.7423E-03    -8.08801E+06     14.6257E+06      41.467E+06     111.753E+03    -292.344E-03     588.908E-03    -296.564E-03     122.055E-03    -293.778E-03     590.244E-03    -296.366E-03     107.927E-03
            2138     10.7001E-03     29.5460E-03    -11.5204E+06     11.5913E+06     39.8946E+06     101.156E+03    -293.323E-03     590.383E-03    -297.059E-03     122.678E-03    -294.764E-03     591.708E-03    -296.860E-03     108.683E-03
            2139     10.0282E-03     29.3508E-03    -14.6308E+06     8.81156E+06     38.9522E+06     465.082E+03    -293.778E-03     591.353E-03    -297.575E-03     120.179E-03    -295.135E-03     592.576E-03    -297.372E-03     106.934E-03
            2140     9.35361E-03     29.1629E-03    -18.1287E+06     5.01918E+06     35.6342E+06     1.00600E+06    -294.264E-03     592.375E-03    -298.111E-03     116.463E-03    -295.504E-03     593.465E-03    -297.914E-03     104.193E-03
            2141     8.68069E-03     28.9807E-03    -21.8991E+06     487.517E+03     30.4071E+06     1.39555E+06    -294.991E-03     593.650E-03    -298.659E-03     111.296E-03    -296.094E-03     594.589E-03    -298.476E-03     100.120E-03
            2142     8.00836E-03     28.8064E-03    -25.9737E+06    -4.74148E+06     23.6044E+06     1.54525E+06    -295.741E-03     594.948E-03    -299.207E-03     105.075E-03    -296.704E-03     595.734E-03    -299.045E-03     95.0278E-03
            2143     7.33630E-03     28.6424E-03    -30.2635E+06    -10.0440E+06     16.8754E+06     695.441E+03    -296.672E-03     596.420E-03    -299.747E-03     97.9375E-03    -297.505E-03     597.060E-03    -299.605E-03     88.9670E-03
            2144     6.66596E-03     28.4900E-03    -34.1123E+06    -19.8953E+06     10.5406E+06    -262.772E+03    -297.774E-03     598.036E-03    -300.262E-03     89.9011E-03    -298.477E-03     598.516E-03    -300.131E-03     81.9708E-03
            2145     5.99640E-03     28.3491E-03    -37.3626E+06    -32.7537E+06     3.83423E+06     301.787E+03    -298.743E-03     599.471E-03    -300.728E-03     81.2677E-03    -299.319E-03     599.788E-03    -300.607E-03     74.3756E-03
            2146     5.32838E-03     28.2204E-03    -41.0990E+06    -40.4701E+06    -4.07630E+06     1.13964E+06    -299.392E-03     600.536E-03    -301.145E-03     72.6132E-03    -299.868E-03     600.734E-03    -301.047E-03     66.6791E-03
            2147     4.65992E-03     28.1073E-03    -45.9477E+06    -46.4202E+06    -14.9498E+06     1.65337E+06    -299.951E-03     601.476E-03    -301.525E-03     63.9878E-03    -300.345E-03     601.585E-03    -301.465E-03     58.9373E-03
            2148     3.99256E-03     28.0071E-03    -51.1778E+06    -54.2997E+06    -27.2030E+06     1.97416E+06    -300.665E-03     602.533E-03    -301.868E-03     54.9297E-03    -300.986E-03     602.558E-03    -301.851E-03     50.7213E-03
            2149     3.32584E-03     27.9221E-03    -56.3000E+06    -62.3706E+06    -38.5945E+06     1.89558E+06    -301.313E-03     603.476E-03    -302.163E-03     45.7252E-03    -301.573E-03     603.426E-03    -302.184E-03     42.3150E-03
            2150     2.65992E-03     27.8514E-03    -60.5946E+06    -69.3122E+06    -48.3441E+06     1.54562E+06    -301.782E-03     604.198E-03    -302.416E-03     36.5745E-03    -301.994E-03     604.089E-03    -302.469E-03     33.9053E-03
            2151     1.99484E-03     27.7964E-03    -63.4964E+06    -74.5927E+06    -56.0087E+06     1.24797E+06    -302.225E-03     604.856E-03    -302.630E-03     27.4858E-03    -302.398E-03     604.701E-03    -302.710E-03     25.5075E-03
            2152     1.32969E-03     27.7561E-03    -65.6731E+06    -78.6431E+06    -61.8799E+06     983.011E+03    -302.632E-03     605.417E-03    -302.785E-03     18.6558E-03    -302.778E-03     605.230E-03    -302.885E-03     17.3257E-03
            2153     664.638E-06     27.7330E-03    -67.1467E+06    -81.5412E+06    -65.9721E+06     566.693E+03    -302.868E-03     605.715E-03    -302.846E-03     10.3507E-03    -302.997E-03     605.507E-03    -302.961E-03     9.60626E-03
            2154     12.7249E-03     28.4309E-03    -2.49316E+06     19.9378E+06     46.9085E+06    -110.019E+03    -290.850E-03     586.607E-03    -295.758E-03     110.030E-03    -292.004E-03     587.687E-03    -295.548E-03     97.7128E-03
            2155     12.0472E-03     28.2344E-03    -5.08017E+06     18.3043E+06     44.8262E+06     398.287E+03    -291.648E-03     587.863E-03    -296.215E-03     123.027E-03    -293.124E-03     589.256E-03    -296.010E-03     108.578E-03
            2156     11.3738E-03     28.0403E-03    -8.06005E+06     14.7442E+06     41.9228E+06     508.019E+03    -292.121E-03     588.829E-03    -296.708E-03     122.306E-03    -293.571E-03     590.182E-03    -296.508E-03     108.097E-03
            2157     10.7007E-03     27.8406E-03    -11.0585E+06     11.7411E+06     39.7449E+06     381.177E+03    -292.587E-03     589.828E-03    -297.241E-03     123.476E-03    -294.052E-03     591.181E-03    -297.044E-03     109.359E-03
            2158     10.0243E-03     27.6468E-03    -14.7823E+06     8.08278E+06     37.2759E+06     233.819E+03    -293.207E-03     591.021E-03    -297.813E-03     121.695E-03    -294.597E-03     592.278E-03    -297.617E-03     108.271E-03
            2159     9.35065E-03     27.4542E-03    -18.5383E+06     4.03833E+06     33.5653E+06     365.522E+03    -294.251E-03     592.643E-03    -298.393E-03     117.632E-03    -295.520E-03     593.764E-03    -298.204E-03     105.152E-03
            2160     8.67775E-03     27.2693E-03    -21.7609E+06    -61.7639E+03     28.4795E+06     499.775E+03    -295.328E-03     594.281E-03    -298.953E-03     111.982E-03    -296.453E-03     595.246E-03    -298.779E-03     100.584E-03
            2161     8.00540E-03     27.0930E-03    -24.5990E+06    -4.15974E+06     22.6125E+06     314.346E+03    -296.326E-03     595.815E-03    -299.489E-03     105.049E-03    -297.300E-03     596.622E-03    -299.334E-03     94.7895E-03
            2162     7.33433E-03     26.9253E-03    -27.8814E+06    -8.29703E+06     17.5413E+06     396.558E+03    -297.319E-03     597.320E-03    -300.001E-03     97.1999E-03    -298.151E-03     597.973E-03    -299.860E-03     88.0930E-03
            2163     6.66410E-03     26.7685E-03    -32.4635E+06    -18.8610E+06     10.7614E+06     362.278E+03    -298.323E-03     598.796E-03    -300.474E-03     89.0150E-03    -299.023E-03     599.283E-03    -300.345E-03     80.9984E-03
            2164     5.99557E-03     26.6245E-03    -37.9930E+06     -33.849E+06     761.938E+03    -224.292E+03    -299.052E-03     599.953E-03    -300.900E-03     80.6889E-03    -299.631E-03     600.274E-03    -300.792E-03     73.6915E-03
            2165     5.32649E-03     26.4952E-03    -42.9662E+06    -43.0668E+06    -8.44739E+06     400.594E+03    -299.706E-03     600.999E-03    -301.293E-03     72.0663E-03    -300.184E-03     601.195E-03    -301.210E-03     66.0591E-03
            2166     4.65893E-03     26.3786E-03    -46.9980E+06    -48.4353E+06    -16.0080E+06     1.93017E+06    -300.439E-03     602.084E-03    -301.645E-03     62.9843E-03    -300.833E-03     602.186E-03    -301.587E-03     57.9092E-03
            2167     3.99213E-03     26.2762E-03    -50.8426E+06    -54.0090E+06    -24.2835E+06     2.92842E+06    -301.076E-03     603.015E-03    -301.939E-03     53.8940E-03    -301.398E-03     603.035E-03    -301.908E-03     49.6953E-03
            2168     3.32611E-03     26.1889E-03    -54.4985E+06    -59.8906E+06    -33.5018E+06     3.01848E+06    -301.584E-03     603.757E-03    -302.173E-03     44.7701E-03    -301.845E-03     603.709E-03    -302.175E-03     41.3545E-03
            2169     2.66030E-03     26.1172E-03    -58.0695E+06    -66.0800E+06    -43.0618E+06     2.20501E+06    -301.926E-03     604.289E-03    -302.363E-03     35.8352E-03    -302.137E-03     604.184E-03    -302.398E-03     33.1536E-03
            2170     1.99446E-03     26.0602E-03    -61.5913E+06    -72.1775E+06    -52.2659E+06     1.19497E+06    -302.190E-03     604.715E-03    -302.525E-03     26.9483E-03    -302.362E-03     604.564E-03    -302.593E-03     24.9429E-03
            2171     1.32912E-03     26.0201E-03    -63.8350E+06    -76.8103E+06    -59.5450E+06     507.968E+03    -302.508E-03     605.160E-03    -302.652E-03     18.1580E-03    -302.651E-03     604.976E-03    -302.746E-03     16.8070E-03
            2172     664.695E-06     25.9932E-03    -64.9916E+06    -79.6397E+06    -63.9514E+06     255.305E+03    -302.801E-03     605.428E-03    -302.628E-03     9.45699E-03    -302.924E-03     605.224E-03    -302.738E-03     8.75762E-03
            2173     12.7211E-03     26.7299E-03    -2.44788E+06     19.7049E+06     46.4185E+06     77.9511E+03    -290.307E-03     586.147E-03    -295.839E-03     108.483E-03    -291.460E-03     587.226E-03    -295.632E-03     96.1178E-03
            2174     12.0496E-03     26.5334E-03    -5.27928E+06     17.8974E+06     44.0128E+06     38.1756E+03    -291.445E-03     587.758E-03    -296.313E-03     122.411E-03    -292.947E-03     589.178E-03    -296.111E-03     107.685E-03
            2175     11.3740E-03     26.3382E-03    -8.25204E+06     14.1743E+06     40.8757E+06     138.797E+03    -291.594E-03     588.427E-03    -296.834E-03     123.955E-03    -293.082E-03     589.818E-03    -296.638E-03     109.551E-03
            2176     10.6963E-03     26.1406E-03    -11.0993E+06     11.5148E+06     39.4685E+06     340.527E+03    -292.250E-03     589.662E-03    -297.412E-03     124.973E-03    -293.748E-03     591.047E-03    -297.215E-03     110.701E-03
            2177     10.0226E-03     25.9404E-03    -14.2144E+06     8.58738E+06     37.9123E+06     532.202E+03    -293.476E-03     591.480E-03    -298.004E-03     122.067E-03    -294.881E-03     592.755E-03    -297.806E-03     108.529E-03
            2178     9.34893E-03     25.7458E-03    -17.6781E+06     4.80116E+06     34.3779E+06    -1.69301E+03    -294.791E-03     593.358E-03    -298.567E-03     117.307E-03    -296.064E-03     594.485E-03    -298.377E-03     104.738E-03
            2179     8.67587E-03     25.5576E-03    -21.6203E+06     337.969E+03     29.6491E+06    -680.924E+03    -296.137E-03     595.224E-03    -299.087E-03     111.083E-03    -297.262E-03     596.188E-03    -298.908E-03     99.6051E-03
            2180     8.00494E-03     25.3762E-03    -26.0799E+06    -4.80826E+06     23.9414E+06    -643.184E+03    -297.389E-03     596.939E-03    -299.550E-03     103.604E-03    -298.364E-03     597.735E-03    -299.386E-03     93.2924E-03
            2181     7.33485E-03     25.2073E-03    -30.8845E+06    -10.9028E+06     16.0781E+06     370.834E+03    -298.204E-03     598.160E-03    -299.956E-03     95.6318E-03    -299.036E-03     598.797E-03    -299.815E-03     86.5186E-03
            2182     6.66546E-03     25.0468E-03    -35.6460E+06    -17.8738E+06     5.61177E+06     1.30042E+06    -298.606E-03     598.937E-03    -300.330E-03     87.2770E-03    -299.305E-03     599.430E-03    -300.225E-03     79.3069E-03
            2183     5.99562E-03     24.9019E-03    -39.6621E+06    -31.8132E+06    -5.67851E+06     1.12584E+06    -299.228E-03     599.920E-03    -300.692E-03     78.5851E-03    -299.796E-03     600.251E-03    -300.617E-03     71.6587E-03
            2184     5.32786E-03     24.7681E-03    -43.5043E+06    -44.8651E+06    -13.3290E+06     597.359E+03    -300.077E-03     601.098E-03    -301.021E-03     69.7897E-03    -300.536E-03     601.283E-03    -300.960E-03     63.8357E-03
            2185     4.66076E-03     24.6494E-03    -47.4148E+06    -49.7853E+06    -17.8639E+06     366.017E+03    -300.666E-03     601.957E-03    -301.291E-03     60.8802E-03    -301.049E-03     602.047E-03    -301.239E-03     55.8227E-03
            2186     3.99392E-03     24.5455E-03    -50.8275E+06    -54.3131E+06    -23.5081E+06     237.389E+03    -301.035E-03     602.541E-03    -301.506E-03     52.1240E-03    -301.352E-03     602.553E-03    -301.471E-03     47.9159E-03
            2187     3.32736E-03     24.4560E-03    -53.5727E+06    -58.7226E+06    -30.4504E+06     108.286E+03    -301.356E-03     603.028E-03    -301.672E-03     43.2706E-03    -301.615E-03     602.977E-03    -301.662E-03     39.8373E-03
            2188     2.66154E-03     24.3834E-03    -56.8496E+06    -64.3566E+06    -39.6446E+06     323.741E+03    -301.642E-03     603.423E-03    -301.781E-03     34.4370E-03    -301.852E-03     603.318E-03    -301.804E-03     31.7378E-03
            2189     1.99619E-03     24.3258E-03    -59.9390E+06    -70.2800E+06    -49.2028E+06     449.413E+03    -301.829E-03     603.663E-03    -301.834E-03     25.7604E-03    -301.998E-03     603.513E-03    -301.892E-03     23.7742E-03
            2190     1.33111E-03     24.2838E-03    -62.3425E+06    -75.2993E+06    -57.2588E+06     343.285E+03    -301.841E-03     603.701E-03    -301.860E-03     17.3090E-03    -301.980E-03     603.518E-03    -301.947E-03     15.9912E-03
            2191     665.348E-06     24.2582E-03    -64.4448E+06    -79.5116E+06    -63.5173E+06     258.352E+03    -302.024E-03     603.759E-03    -301.735E-03     9.31259E-03    -302.145E-03     603.553E-03    -301.844E-03     8.64174E-03
            2192     12.7264E-03     25.0346E-03    -2.13530E+06     19.4419E+06     45.3631E+06    -95.0982E+03    -289.610E-03     585.463E-03    -295.853E-03     109.343E-03    -290.777E-03     586.560E-03    -295.651E-03     96.9024E-03
            2193     12.0462E-03     24.8340E-03    -4.57114E+06     17.8327E+06     43.0200E+06     559.661E+03    -290.340E-03     586.725E-03    -296.385E-03     124.373E-03    -291.857E-03     588.165E-03    -296.189E-03     109.694E-03
            2194     11.3694E-03     24.6394E-03    -7.63964E+06     14.2415E+06     40.0612E+06     558.664E+03    -291.612E-03     588.561E-03    -296.949E-03     124.332E-03    -293.113E-03     589.969E-03    -296.758E-03     109.830E-03
            2195     10.6965E-03     24.4363E-03    -10.5968E+06     11.6151E+06     38.7974E+06     205.589E+03    -293.140E-03     590.644E-03    -297.505E-03     124.490E-03    -294.641E-03     592.037E-03    -297.312E-03     110.096E-03
            2196     10.0220E-03     24.2345E-03    -13.8359E+06     8.86097E+06     38.1213E+06     11.0276E+03    -294.564E-03     592.601E-03    -298.036E-03     121.327E-03    -295.963E-03     593.872E-03    -297.839E-03     107.739E-03
            2197     9.34868E-03     24.0363E-03    -17.4959E+06     5.33137E+06     35.8910E+06     113.784E+03    -296.035E-03     594.552E-03    -298.517E-03     115.793E-03    -297.292E-03     595.662E-03    -298.320E-03     103.257E-03
            2198     8.67780E-03     23.8430E-03    -21.7634E+06     655.021E+03     31.3157E+06     445.805E+03    -297.276E-03     596.206E-03    -298.930E-03     108.996E-03    -298.381E-03     597.145E-03    -298.743E-03     97.6029E-03
            2199     8.00698E-03     23.6604E-03    -26.5080E+06    -5.26277E+06     23.7707E+06     729.507E+03    -298.225E-03     597.499E-03    -299.274E-03     101.492E-03    -299.178E-03     598.271E-03    -299.110E-03     91.2987E-03
            2200     7.33743E-03     23.4861E-03    -30.4541E+06    -10.8846E+06     15.5467E+06     57.9964E+03    -298.854E-03     598.422E-03    -299.568E-03     93.3019E-03    -299.662E-03     599.038E-03    -299.430E-03     84.2648E-03
            2201     6.66821E-03     23.3275E-03    -33.1672E+06    -20.0652E+06     7.80306E+06    -48.0114E+03    -299.299E-03     599.130E-03    -299.831E-03     84.7695E-03    -299.967E-03     599.587E-03    -299.715E-03     76.8594E-03
            2202     6.00024E-03     23.1777E-03    -36.4056E+06    -32.9338E+06    -746.213E+03     1.60056E+06    -299.805E-03     599.862E-03    -300.057E-03     75.9620E-03    -300.344E-03     600.157E-03    -299.960E-03     69.1662E-03
            2203     5.33231E-03     23.0428E-03    -40.4840E+06    -41.6836E+06    -8.54898E+06     1.86354E+06    -300.170E-03     600.404E-03    -300.234E-03     67.0417E-03    -300.611E-03     600.578E-03    -300.158E-03     61.2167E-03
            2204     4.66467E-03     22.9217E-03    -44.6687E+06    -47.2958E+06    -15.8519E+06     204.434E+03    -300.415E-03     600.781E-03    -300.366E-03     58.2110E-03    -300.780E-03     600.866E-03    -300.312E-03     53.2385E-03
            2205     3.99792E-03     22.8164E-03    -48.6997E+06    -53.1971E+06    -24.3997E+06    -1.19640E+06    -300.563E-03     601.015E-03    -300.451E-03     49.4757E-03    -300.862E-03     601.022E-03    -300.426E-03     45.3096E-03
            2206     3.33145E-03     22.7262E-03    -53.0877E+06    -59.9045E+06    -34.1897E+06    -1.63544E+06    -300.617E-03     601.116E-03    -300.500E-03     40.9644E-03    -300.860E-03     601.058E-03    -300.507E-03     37.5681E-03
            2207     2.66498E-03     22.6517E-03    -56.5624E+06    -65.8695E+06    -43.2205E+06    -1.34959E+06    -300.722E-03     601.232E-03    -300.510E-03     32.5428E-03    -300.919E-03     601.120E-03    -300.549E-03     29.8732E-03
            2208     1.99872E-03     22.5938E-03    -59.4353E+06    -71.2155E+06    -51.4170E+06    -790.733E+03    -300.666E-03     601.151E-03    -300.485E-03     24.3917E-03    -300.826E-03     600.996E-03    -300.553E-03     22.4221E-03
            2209     1.33223E-03     22.5520E-03    -62.1276E+06    -75.8994E+06    -58.1297E+06    -180.619E+03    -300.505E-03     600.972E-03    -300.467E-03     16.5010E-03    -300.640E-03     600.785E-03    -300.557E-03     15.1990E-03
            2210     666.115E-06     22.5269E-03    -63.5339E+06    -78.3577E+06    -61.4651E+06     259.644E+03    -300.179E-03     600.949E-03    -300.770E-03     9.24649E-03    -300.300E-03     600.744E-03    -300.871E-03     8.54876E-03
            2211     12.7200E-03     23.3382E-03    -2.55831E+06     18.8322E+06     44.5762E+06    -187.871E+03    -289.222E-03     585.113E-03    -295.892E-03     110.184E-03    -290.400E-03     586.220E-03    -295.692E-03     97.6790E-03
            2212     12.0462E-03     23.1386E-03    -4.63126E+06     17.5948E+06     42.4813E+06     374.649E+03    -290.878E-03     587.299E-03    -296.421E-03     123.743E-03    -292.395E-03     588.739E-03    -296.227E-03     109.022E-03
            2213     11.3717E-03     22.9365E-03    -7.18707E+06     14.5747E+06     40.2625E+06     312.308E+03    -292.506E-03     589.448E-03    -296.942E-03     123.598E-03    -294.000E-03     590.851E-03    -296.752E-03     109.074E-03
            2214     10.6961E-03     22.7323E-03    -10.3299E+06     11.8203E+06     38.9426E+06     136.031E+03    -294.594E-03     592.013E-03    -297.418E-03     123.381E-03    -296.081E-03     593.392E-03    -297.226E-03     108.979E-03
            2215     10.0234E-03     22.5265E-03    -13.7060E+06     8.83608E+06     37.7224E+06     213.533E+03    -296.319E-03     594.143E-03    -297.824E-03     119.333E-03    -297.696E-03     595.393E-03    -297.629E-03     105.730E-03
            2216     9.35279E-03     22.3235E-03    -17.4840E+06     4.83864E+06     34.3693E+06     434.951E+03    -297.560E-03     595.713E-03    -298.153E-03     113.435E-03    -298.789E-03     596.797E-03    -297.962E-03     100.923E-03
            2217     8.68173E-03     22.1296E-03    -21.1709E+06     295.604E+03     29.0434E+06     688.454E+03    -298.466E-03     596.878E-03    -298.411E-03     106.398E-03    -299.536E-03     597.789E-03    -298.236E-03     95.1002E-03
            2218     8.01231E-03     21.9424E-03    -24.1435E+06    -3.86422E+06     23.4044E+06     73.9298E+03    -299.010E-03     597.626E-03    -298.616E-03     98.5013E-03    -299.924E-03     598.373E-03    -298.458E-03     88.4150E-03
            2219     7.34304E-03     21.7686E-03    -27.5247E+06    -8.49987E+06     18.1575E+06    -913.806E+03    -299.516E-03     598.288E-03    -298.772E-03     89.9990E-03    -300.291E-03     598.883E-03    -298.629E-03     81.0633E-03
            2220     6.67474E-03     21.6052E-03    -31.9178E+06    -22.9757E+06     10.0640E+06    -871.243E+03    -300.131E-03     598.991E-03    -298.860E-03     81.1378E-03    -300.768E-03     599.404E-03    -298.730E-03     73.3411E-03
            2221     6.00689E-03     21.4556E-03    -35.9027E+06    -36.4968E+06     2.25577E+06     84.4603E+03    -300.307E-03     599.184E-03    -298.877E-03     72.1811E-03    -300.821E-03     599.435E-03    -298.760E-03     65.4943E-03
            2222     5.33941E-03     21.3190E-03    -38.9136E+06    -39.8102E+06    -3.49744E+06     572.939E+03    -300.082E-03     598.928E-03    -298.847E-03     63.1712E-03    -300.505E-03     599.083E-03    -298.750E-03     57.4724E-03
            2223     4.67237E-03     21.1974E-03    -42.4373E+06    -44.6390E+06    -12.3665E+06     489.745E+03    -299.837E-03     598.618E-03    -298.781E-03     54.4257E-03    -300.183E-03     598.690E-03    -298.716E-03     49.6132E-03
            2224     4.00497E-03     21.0908E-03    -47.1342E+06    -51.9642E+06    -23.7493E+06     458.544E+03    -299.627E-03     598.310E-03    -298.682E-03     45.8581E-03    -299.907E-03     598.307E-03    -298.657E-03     41.8648E-03
            2225     3.33755E-03     21.0007E-03    -51.5874E+06    -59.5912E+06    -35.1472E+06     400.858E+03    -299.358E-03     597.917E-03    -298.559E-03     37.6069E-03    -299.583E-03     597.848E-03    -298.573E-03     34.3810E-03
            2226     2.67024E-03     20.9255E-03    -55.7837E+06    -66.5657E+06    -45.0575E+06     149.885E+03    -298.959E-03     597.396E-03    -298.437E-03     29.6333E-03    -299.142E-03     597.274E-03    -298.484E-03     27.1061E-03
            2227     2.00286E-03     20.8677E-03    -59.2332E+06    -72.1779E+06    -52.7433E+06    -22.6668E+03    -298.658E-03     596.990E-03    -298.332E-03     21.9154E-03    -298.810E-03     596.828E-03    -298.405E-03     20.0199E-03
            2228     1.33535E-03     20.8266E-03    -61.2033E+06    -76.1598E+06    -58.6036E+06    -228.363E+03    -298.458E-03     596.685E-03    -298.226E-03     14.5708E-03    -298.586E-03     596.495E-03    -298.320E-03     13.2977E-03
            2229     667.814E-06     20.7994E-03    -62.3118E+06    -78.6366E+06    -62.1203E+06    -588.296E+03    -297.935E-03     596.351E-03    -298.416E-03     7.72336E-03    -298.048E-03     596.143E-03    -298.522E-03     7.02486E-03
            2230     12.7243E-03     21.6413E-03    -2.96063E+06     18.7605E+06     45.1411E+06    -332.521E+03    -290.081E-03     585.975E-03    -295.894E-03     109.684E-03    -291.273E-03     587.092E-03    -295.691E-03     97.0558E-03
            2231     12.0474E-03     21.4384E-03    -5.75812E+06     17.1947E+06     43.2554E+06    -333.233E+03    -292.354E-03     588.712E-03    -296.358E-03     124.181E-03    -293.908E-03     590.181E-03    -296.158E-03     109.173E-03
            2232     11.3717E-03     21.2358E-03    -7.93022E+06     14.2939E+06     40.7129E+06    -100.081E+03    -294.556E-03     591.322E-03    -296.766E-03     123.531E-03    -296.065E-03     592.736E-03    -296.572E-03     108.827E-03
            2233     10.6997E-03     21.0244E-03    -10.7929E+06     11.5500E+06     38.8557E+06    -109.357E+03    -296.719E-03     593.808E-03    -297.089E-03     121.420E-03    -298.192E-03     595.171E-03    -296.895E-03     106.945E-03
            2234     10.0295E-03     20.8150E-03    -13.8539E+06     8.48020E+06     36.8215E+06    -30.0619E+03    -298.190E-03     595.509E-03    -297.319E-03     116.843E-03    -299.540E-03     596.733E-03    -297.127E-03     103.256E-03
            2235     9.35838E-03     20.6120E-03    -16.8936E+06     4.78364E+06     32.8205E+06    -46.9579E+03    -299.259E-03     596.719E-03    -297.460E-03     110.649E-03    -300.452E-03     597.774E-03    -297.279E-03     98.2087E-03
            2236     8.68961E-03     20.4130E-03    -19.7414E+06     998.981E+03     28.2417E+06    -733.519E+03    -299.904E-03     597.428E-03    -297.524E-03     102.843E-03    -300.934E-03     598.309E-03    -297.356E-03     91.6257E-03
            2237     8.02075E-03     20.2272E-03    -23.1048E+06    -3.19782E+06     23.5696E+06    -1.04628E+06    -300.282E-03     597.799E-03    -297.517E-03     94.2002E-03    -301.158E-03     598.513E-03    -297.361E-03     84.2191E-03
            2238     7.35244E-03     20.0498E-03    -27.3898E+06    -8.46609E+06     18.3803E+06    -452.596E+03    -300.576E-03     598.009E-03    -297.433E-03     85.0764E-03    -301.314E-03     598.567E-03    -297.289E-03     76.3295E-03
            2239     6.68505E-03     19.8855E-03    -31.7559E+06    -23.0432E+06     9.75328E+06    -389.394E+03    -300.657E-03     597.920E-03    -297.263E-03     75.7939E-03    -301.258E-03     598.298E-03    -297.135E-03     68.2064E-03
            2240     6.01811E-03     19.7350E-03    -35.5806E+06    -36.6148E+06     725.396E+03    -1.33042E+06    -300.421E-03     597.435E-03    -297.014E-03     66.7403E-03    -300.903E-03     597.659E-03    -296.906E-03     60.1918E-03
            2241     5.35104E-03     19.5989E-03    -39.6392E+06    -41.2477E+06     -6.3837E+06    -1.48161E+06    -299.838E-03     596.547E-03    -296.710E-03     57.8246E-03    -300.235E-03     596.676E-03    -296.624E-03     52.2555E-03
            2242     4.68312E-03     19.4778E-03    -43.7525E+06    -46.6508E+06    -14.0430E+06    -196.520E+03    -299.041E-03     595.415E-03    -296.374E-03     49.0206E-03    -299.367E-03     595.461E-03    -296.313E-03     44.3854E-03
            2243     4.01524E-03     19.3715E-03    -47.4082E+06    -52.3937E+06    -22.1721E+06     1.01478E+06    -298.183E-03     594.209E-03    -296.026E-03     40.5625E-03    -298.449E-03     594.184E-03    -295.992E-03     36.7676E-03
            2244     3.34728E-03     19.2815E-03    -51.2313E+06    -58.6279E+06    -31.0269E+06     1.46617E+06    -297.292E-03     592.974E-03    -295.683E-03     32.7188E-03    -297.510E-03     592.892E-03    -295.679E-03     29.6603E-03
            2245     2.67865E-03     19.2079E-03    -54.7331E+06    -64.9324E+06    -40.3266E+06     1.35746E+06    -296.409E-03     591.781E-03    -295.372E-03     25.4873E-03    -296.588E-03     591.651E-03    -295.400E-03     23.0884E-03
            2246     2.00916E-03     19.1508E-03    -57.7244E+06    -70.7431E+06    -49.1307E+06     739.612E+03    -295.739E-03     590.847E-03    -295.108E-03     18.7742E-03    -295.887E-03     590.680E-03    -295.167E-03     17.0021E-03
            2247     1.33999E-03     19.1083E-03    -60.3566E+06    -75.5185E+06    -56.0067E+06     295.928E+03    -295.240E-03     590.129E-03    -294.889E-03     12.4055E-03    -295.367E-03     589.934E-03    -294.972E-03     11.2292E-03
            2248     670.006E-06     19.0855E-03    -61.8765E+06    -79.0753E+06    -61.2943E+06     265.277E+03    -294.941E-03     589.563E-03    -294.622E-03     6.78333E-03    -295.052E-03     589.351E-03    -294.724E-03     6.13455E-03
            2249     12.7218E-03     19.9424E-03    -2.36756E+06     19.0769E+06     44.5802E+06     126.490E+03    -291.227E-03     587.043E-03    -295.817E-03     111.162E-03    -292.438E-03     588.184E-03    -295.618E-03     98.4225E-03
            2250     12.0479E-03     19.7386E-03    -5.29232E+06     17.4640E+06     42.5933E+06    -714.486E+03    -294.979E-03     591.152E-03    -296.173E-03     124.373E-03    -296.552E-03     592.645E-03    -295.977E-03     109.117E-03
            2251     11.3771E-03     19.5273E-03    -8.22327E+06     14.2142E+06     40.3593E+06    -783.283E+03    -297.538E-03     593.941E-03    -296.402E-03     122.319E-03    -299.055E-03     595.361E-03    -296.209E-03     107.386E-03
            2252     10.7071E-03     19.3147E-03    -10.7552E+06     11.6240E+06     38.5740E+06    -358.067E+03    -299.314E-03     595.832E-03    -296.518E-03     120.089E-03    -300.776E-03     597.185E-03    -296.326E-03     105.568E-03
            2253     10.0360E-03     19.1042E-03    -13.6188E+06     8.72703E+06     36.6870E+06    -707.407E+03    -300.772E-03     597.296E-03    -296.524E-03     114.133E-03    -302.091E-03     598.492E-03    -296.333E-03     100.586E-03
            2254     9.36860E-03     18.8958E-03    -16.6140E+06     5.48244E+06     34.2791E+06    -1.23470E+06    -301.569E-03     597.985E-03    -296.416E-03     106.346E-03    -302.725E-03     599.002E-03    -296.228E-03     93.9767E-03
            2255     8.70058E-03     18.6990E-03    -20.3002E+06     1.19092E+06     30.1567E+06    -1.33069E+06    -301.938E-03     598.137E-03    -296.199E-03     97.5582E-03    -302.932E-03     598.976E-03    -296.021E-03     86.4434E-03
            2256     8.03349E-03     18.5095E-03    -24.5971E+06    -4.26967E+06     23.6306E+06    -958.460E+03    -302.141E-03     598.008E-03    -295.867E-03     88.0535E-03    -302.978E-03     598.675E-03    -295.707E-03     78.2282E-03
            2257     7.36757E-03     18.3329E-03    -28.6977E+06    -10.0637E+06     15.9499E+06    -519.682E+03    -301.860E-03     597.286E-03    -295.426E-03     78.3013E-03    -302.556E-03     597.798E-03    -295.290E-03     69.7345E-03
            2258     6.70077E-03     18.1689E-03    -32.7002E+06    -20.7145E+06     6.59495E+06    -581.362E+03    -301.134E-03     596.034E-03    -294.900E-03     68.6314E-03    -301.699E-03     596.391E-03    -294.790E-03     61.2272E-03
            2259     6.03366E-03     18.0186E-03    -36.8792E+06    -34.4978E+06    -3.52349E+06    -1.30136E+06    -300.262E-03     594.567E-03    -294.306E-03     59.1544E-03    -300.712E-03     594.774E-03    -294.220E-03     52.8122E-03
            2260     5.36630E-03     17.8840E-03    -40.7170E+06    -43.3206E+06    -10.7685E+06    -1.38977E+06    -299.191E-03     592.844E-03    -293.653E-03     50.0014E-03    -299.553E-03     592.939E-03    -293.585E-03     44.6403E-03
            2261     4.69917E-03     17.7642E-03    -44.4649E+06    -48.8830E+06    -16.2482E+06    -1.17873E+06    -297.731E-03     590.698E-03    -292.966E-03     41.4585E-03    -298.030E-03     590.712E-03    -292.912E-03     36.9807E-03
            2262     4.03074E-03     17.6610E-03    -48.1107E+06    -54.0289E+06    -22.1248E+06    -1.12057E+06    -295.982E-03     588.273E-03    -292.291E-03     33.8168E-03    -296.231E-03     588.224E-03    -292.254E-03     30.1337E-03
            2263     3.36072E-03     17.5728E-03    -51.2213E+06    -59.1077E+06    -29.1454E+06    -814.232E+03    -294.318E-03     585.985E-03    -291.668E-03     26.8132E-03    -294.525E-03     585.885E-03    -291.654E-03     23.8608E-03
            2264     2.68979E-03     17.5018E-03    -54.0584E+06    -64.4488E+06    -37.2484E+06    -668.301E+03    -292.919E-03     584.029E-03    -291.110E-03     20.4532E-03    -293.091E-03     583.887E-03    -291.125E-03     18.1635E-03
            2265     2.01860E-03     17.4452E-03    -56.8903E+06    -70.1720E+06    -46.0594E+06    -323.299E+03    -291.659E-03     582.301E-03    -290.642E-03     14.7530E-03    -291.803E-03     582.126E-03    -290.689E-03     13.0762E-03
            2266     1.34565E-03     17.4065E-03    -59.0536E+06    -75.2217E+06    -54.0884E+06    -76.3151E+03    -290.723E-03     581.026E-03    -290.303E-03     9.56172E-03    -290.844E-03     580.825E-03    -290.378E-03     8.44887E-03
            2267     673.091E-06     17.3805E-03    -60.8160E+06    -78.8476E+06    -59.3103E+06    -57.2360E+03    -289.976E-03     580.306E-03    -290.330E-03     5.17866E-03    -290.085E-03     580.089E-03    -290.424E-03     4.56801E-03
            2268     12.7252E-03     18.2473E-03    -2.40874E+06     19.4012E+06     44.6494E+06    -122.281E+03    -294.306E-03     589.948E-03    -295.642E-03     110.712E-03    -295.522E-03     591.096E-03    -295.444E-03     97.7995E-03
            2269     12.0532E-03     18.0266E-03    -3.81416E+06     18.6689E+06     42.4105E+06     552.224E+03    -297.792E-03     593.608E-03    -295.816E-03     123.678E-03    -299.357E-03     595.103E-03    -295.626E-03     108.371E-03
            2270     11.3832E-03     17.8193E-03    -7.20125E+06     14.5406E+06     38.5282E+06    -187.873E+03    -300.564E-03     596.406E-03    -295.842E-03     121.487E-03    -302.075E-03     597.831E-03    -295.660E-03     106.445E-03
            2271     10.7130E-03     17.6016E-03    -10.5585E+06     11.6758E+06     37.3647E+06    -1.04392E+06    -302.982E-03     598.687E-03    -295.706E-03     117.546E-03    -304.428E-03     600.030E-03    -295.520E-03     102.891E-03
            2272     10.0485E-03     17.3866E-03    -13.4132E+06     9.36149E+06     37.5202E+06    -1.24767E+06    -304.297E-03     599.700E-03    -295.402E-03     109.807E-03    -305.591E-03     600.870E-03    -295.209E-03     96.1792E-03
            2273     9.38202E-03     17.1811E-03    -16.8880E+06     5.71331E+06     35.1594E+06    -1.34520E+06    -304.873E-03     599.808E-03    -294.935E-03     100.808E-03    -305.997E-03     600.791E-03    -294.743E-03     88.4130E-03
            2274     8.71697E-03     16.9814E-03    -21.0237E+06     740.465E+03     30.0983E+06    -1.10405E+06    -304.947E-03     599.259E-03    -294.312E-03     90.6199E-03    -305.897E-03     600.050E-03    -294.132E-03     79.5902E-03
            2275     8.05266E-03     16.7934E-03    -25.1122E+06    -4.77497E+06     23.5221E+06    -989.131E+03    -304.427E-03     597.971E-03    -293.544E-03     80.0578E-03    -305.217E-03     598.587E-03    -293.383E-03     70.3758E-03
            2276     7.38712E-03     16.6176E-03    -28.8474E+06    -10.3983E+06     16.0788E+06    -1.27777E+06    -303.434E-03     596.085E-03    -292.650E-03     69.4076E-03    -304.084E-03     596.549E-03    -292.513E-03     60.9684E-03
            2277     6.72213E-03     16.4558E-03    -32.2736E+06    -20.6282E+06     6.62782E+06    -1.18361E+06    -302.026E-03     593.672E-03    -291.646E-03     58.7364E-03    -302.544E-03     593.984E-03    -291.536E-03     51.4894E-03
            2278     6.05624E-03     16.3090E-03    -35.6675E+06    -33.7748E+06    -2.85970E+06    -569.118E+03    -300.091E-03     590.659E-03    -290.569E-03     48.6427E-03    -300.495E-03     590.826E-03    -290.482E-03     42.5101E-03
            2279     5.38946E-03     16.1762E-03    -39.5069E+06    -42.6251E+06    -9.46204E+06    -891.806E+03    -297.762E-03     587.229E-03    -289.467E-03     39.7152E-03    -298.087E-03     587.290E-03    -289.396E-03     34.5386E-03
            2280     4.72055E-03     16.0612E-03    -43.2513E+06    -48.3392E+06    -15.1827E+06    -1.78755E+06    -295.310E-03     583.684E-03    -288.374E-03     31.9404E-03    -295.580E-03     583.672E-03    -288.317E-03     27.5962E-03
            2281     4.05015E-03     15.9617E-03    -46.7855E+06    -54.2278E+06    -22.7977E+06    -2.50345E+06    -292.816E-03     580.131E-03    -287.315E-03     25.0403E-03    -293.039E-03     580.060E-03    -287.282E-03     21.4590E-03
            2282     3.37841E-03     15.8786E-03    -50.2028E+06    -60.3902E+06    -31.4194E+06    -2.88313E+06    -290.355E-03     576.691E-03    -286.336E-03     19.0885E-03    -290.539E-03     576.572E-03    -286.333E-03     16.2074E-03
            2283     2.70522E-03     15.8097E-03    -53.7299E+06    -66.8019E+06    -40.5064E+06    -2.40838E+06    -288.132E-03     573.615E-03    -285.483E-03     14.0608E-03    -288.286E-03     573.457E-03    -285.511E-03     11.8259E-03
            2284     2.02995E-03     15.7581E-03    -56.7549E+06    -72.5068E+06    -48.6139E+06    -1.75434E+06    -286.335E-03     571.122E-03    -284.787E-03     9.86638E-03    -286.467E-03     570.933E-03    -284.842E-03     8.21908E-03
            2285     1.35447E-03     15.7197E-03    -58.9697E+06    -76.8712E+06    -54.7672E+06    -1.01283E+06    -284.972E-03     569.238E-03    -284.266E-03     6.22465E-03    -285.087E-03     569.026E-03    -284.343E-03     5.14603E-03
            2286     677.248E-06     15.6977E-03    -60.5801E+06    -80.0717E+06    -59.2171E+06    -325.311E+03    -283.709E-03     568.051E-03    -284.343E-03     3.04816E-03    -283.814E-03     567.826E-03    -284.435E-03     2.48230E-03
            2287     12.7294E-03     16.5351E-03    -2.12709E+06     19.3439E+06     42.6114E+06    -348.958E+03    -298.530E-03     593.932E-03    -295.402E-03     113.806E-03    -299.803E-03     595.143E-03    -295.214E-03     100.433E-03
            2288     12.0595E-03     16.3238E-03    -5.49122E+06     17.2839E+06     40.3309E+06    -730.139E+03    -302.207E-03     597.543E-03    -295.336E-03     124.994E-03    -303.828E-03     599.089E-03    -295.151E-03     109.229E-03
            2289     11.3897E-03     16.1020E-03    -7.07462E+06     15.2831E+06     39.1185E+06    -326.811E+03    -305.095E-03     600.167E-03    -295.072E-03     119.428E-03    -306.613E-03     601.601E-03    -294.888E-03     104.125E-03
            2290     10.7278E-03     15.8823E-03    -9.16893E+06     13.3779E+06     38.4906E+06    -270.963E+03    -307.460E-03     602.044E-03    -294.584E-03     113.407E-03    -308.890E-03     603.377E-03    -294.397E-03     98.5532E-03
            2291     10.0622E-03     15.6684E-03    -12.8503E+06     9.72582E+06     36.3969E+06    -809.511E+03    -308.843E-03     602.706E-03    -293.862E-03     104.233E-03    -310.108E-03     603.854E-03    -293.676E-03     90.4319E-03
            2292     9.40035E-03     15.4597E-03    -16.4280E+06     5.61542E+06     33.0072E+06    -920.915E+03    -309.338E-03     602.250E-03    -292.912E-03     92.9696E-03    -310.413E-03     603.193E-03    -292.732E-03     80.4872E-03
            2293     8.73906E-03     15.2629E-03    -19.8692E+06     1.05234E+06     28.4085E+06    -1.01182E+06    -308.749E-03     600.504E-03    -291.756E-03     81.2608E-03    -309.641E-03     601.250E-03    -291.587E-03     70.1975E-03
            2294     8.07664E-03     15.0773E-03    -23.3624E+06    -4.01546E+06     22.6271E+06    -1.29865E+06    -307.507E-03     597.927E-03    -290.419E-03     69.3782E-03    -308.236E-03     598.494E-03    -290.267E-03     59.7045E-03
            2295     7.41488E-03     14.9050E-03    -26.6768E+06    -8.99637E+06     16.9782E+06    -1.99811E+06    -305.579E-03     594.507E-03    -288.928E-03     57.2992E-03    -306.167E-03     594.921E-03    -288.792E-03     48.9083E-03
            2296     6.75130E-03     14.7473E-03    -30.0215E+06    -22.7082E+06     9.15458E+06    -1.97570E+06    -302.919E-03     590.240E-03    -287.321E-03     46.0957E-03    -303.379E-03     590.488E-03    -287.199E-03     38.9027E-03
            2297     6.08653E-03     14.6057E-03    -33.1319E+06    -35.9015E+06     1.47431E+06    -965.844E+03    -299.631E-03     585.284E-03    -285.654E-03     36.0583E-03    -299.986E-03     585.391E-03    -285.546E-03     29.9584E-03
            2298     5.41868E-03     14.4813E-03    -36.4185E+06    -40.4980E+06    -5.01160E+06    -662.011E+03    -295.814E-03     579.802E-03    -283.988E-03     27.2407E-03    -296.101E-03     579.831E-03    -283.901E-03     22.0967E-03
            2299     4.74869E-03     14.3716E-03    -40.2641E+06    -46.6241E+06    -13.7341E+06    -1.24072E+06    -291.941E-03     574.326E-03    -282.385E-03     19.8454E-03    -292.174E-03     574.289E-03    -282.328E-03     15.5481E-03
            2300     4.07655E-03     14.2786E-03    -44.2842E+06    -53.7431E+06    -23.3731E+06    -1.53844E+06    -288.298E-03     569.191E-03    -280.893E-03     14.0711E-03    -288.489E-03     569.099E-03    -280.868E-03     10.5188E-03
            2301     3.40179E-03     14.2013E-03    -48.8909E+06    -61.6773E+06    -33.7794E+06    -1.28772E+06    -284.906E-03     564.456E-03    -279.550E-03     9.87924E-03    -285.067E-03     564.319E-03    -279.559E-03     7.00446E-03
            2302     2.72425E-03     14.1392E-03    -52.9268E+06    -68.8095E+06    -43.0839E+06    -1.02853E+06    -281.919E-03     560.323E-03    -278.404E-03     6.68789E-03    -282.056E-03     560.149E-03    -278.443E-03     4.45079E-03
            2303     2.04528E-03     14.0908E-03    -56.0871E+06    -74.6253E+06    -50.7517E+06    -709.646E+03    -279.509E-03     556.993E-03    -277.484E-03     4.24025E-03    -279.628E-03     556.790E-03    -277.548E-03     2.61638E-03
            2304     1.36409E-03     14.0566E-03    -58.5808E+06    -79.1365E+06    -56.5111E+06    -496.678E+03    -277.706E-03     554.519E-03    -276.813E-03     2.48000E-03    -277.812E-03     554.295E-03    -276.896E-03     1.40622E-03
            2305     682.540E-06     14.0363E-03    -59.8136E+06    -81.4857E+06    -59.1940E+06    -377.718E+03    -276.509E-03     553.035E-03    -276.526E-03     1.41482E-03    -276.610E-03     552.800E-03    -276.617E-03     814.200E-06
            2306     12.7290E-03     14.8245E-03    -1.86127E+06     19.7186E+06     41.1161E+06     18.0664E+03    -303.523E-03     598.684E-03    -295.161E-03     115.922E-03    -304.848E-03     599.954E-03    -294.982E-03     102.080E-03
            2307     12.0640E-03     14.6001E-03    -4.34507E+06     18.6698E+06     39.7723E+06    -1.10341E+06    -308.962E-03     603.719E-03    -294.757E-03     124.635E-03    -310.638E-03     605.331E-03    -294.579E-03     108.175E-03
            2308     11.4053E-03     14.3817E-03    -7.44411E+06     15.3128E+06     37.8837E+06    -1.45883E+06    -311.850E-03     605.904E-03    -294.053E-03     117.338E-03    -313.406E-03     607.378E-03    -293.875E-03     101.407E-03
            2309     10.7403E-03     14.1588E-03    -9.85119E+06     12.8769E+06     36.6553E+06    -1.05709E+06    -313.704E-03     606.774E-03    -293.070E-03     108.218E-03    -315.128E-03     608.104E-03    -292.891E-03     92.9386E-03
            2310     10.0832E-03     13.9416E-03    -12.0619E+06     10.2107E+06     34.8254E+06    -683.793E+03    -314.745E-03     606.541E-03    -291.797E-03     95.7531E-03    -315.963E-03     607.653E-03    -291.620E-03     81.7057E-03
            2311     9.42575E-03     13.7352E-03    -15.1707E+06     6.05779E+06     31.0225E+06    -765.507E+03    -314.705E-03     604.938E-03    -290.233E-03     82.7569E-03    -315.722E-03     605.835E-03    -290.065E-03     70.0906E-03
            2312     8.76753E-03     13.5424E-03    -18.2260E+06     1.57095E+06     26.4487E+06    -1.16316E+06    -313.813E-03     602.208E-03    -288.396E-03     68.8853E-03    -314.638E-03     602.901E-03    -288.239E-03     57.6333E-03
            2313     8.11004E-03     13.3606E-03    -21.0028E+06    -2.95440E+06     21.6448E+06    -1.58930E+06    -311.492E-03     597.810E-03    -286.318E-03     54.8885E-03    -312.150E-03     598.323E-03    -286.175E-03     45.0156E-03
            2314     7.45045E-03     13.1949E-03    -24.5364E+06    -8.24384E+06     16.4986E+06    -1.69651E+06    -307.807E-03     591.885E-03    -284.078E-03     41.9711E-03    -308.331E-03     592.248E-03    -283.948E-03     33.3943E-03
            2315     6.78902E-03     13.0462E-03    -28.4851E+06    -22.7999E+06     8.15508E+06    -1.71138E+06    -303.331E-03     585.085E-03    -281.754E-03     30.6095E-03    -303.736E-03     585.286E-03    -281.639E-03     23.2121E-03
            2316     6.12397E-03     12.9136E-03    -32.0427E+06    -37.0137E+06    -591.930E+03    -2.10493E+06    -298.294E-03     577.713E-03    -279.419E-03     20.9145E-03    -298.602E-03     577.779E-03    -279.322E-03     14.5718E-03
            2317     5.45664E-03     12.7986E-03    -35.0101E+06    -41.7738E+06    -6.93196E+06    -1.70514E+06    -292.974E-03     570.120E-03    -277.146E-03     13.2459E-03    -293.220E-03     570.114E-03    -277.070E-03     7.85597E-03
            2318     4.78522E-03     12.7000E-03    -38.2664E+06    -47.4597E+06    -14.7651E+06    -254.053E+03    -287.514E-03     562.529E-03    -275.014E-03     7.59069E-03    -287.714E-03     562.465E-03    -274.964E-03     3.07546E-03
            2319     4.10918E-03     12.6164E-03    -42.4799E+06    -54.7366E+06    -23.9607E+06     1.15123E+06    -282.387E-03     555.486E-03    -273.098E-03     3.66209E-03    -282.553E-03     555.373E-03    -273.077E-03    -51.7641E-06
            2320     3.42975E-03     12.5475E-03    -46.4579E+06    -61.7817E+06    -32.7377E+06     1.95167E+06    -278.041E-03     549.472E-03    -271.431E-03     1.00032E-03    -278.181E-03     549.318E-03    -271.438E-03    -1.99168E-03
            2321     2.74788E-03     12.4923E-03    -49.9934E+06    -68.1236E+06    -40.5579E+06     2.03645E+06    -274.361E-03     544.384E-03    -270.023E-03    -498.531E-06    -274.482E-03     544.198E-03    -270.055E-03    -2.83731E-03
            2322     2.06309E-03     12.4498E-03    -53.2102E+06    -73.6680E+06    -47.2212E+06     1.63694E+06    -271.320E-03     540.228E-03    -268.909E-03    -1.11063E-03    -271.428E-03     540.016E-03    -268.961E-03    -2.83674E-03
            2323     1.37669E-03     12.4205E-03    -55.6170E+06    -78.0506E+06    -52.8056E+06     1.01719E+06    -269.161E-03     537.272E-03    -268.111E-03    -1.09030E-03    -269.260E-03     537.042E-03    -268.181E-03    -2.24432E-03
            2324     688.372E-06     12.4016E-03    -57.0262E+06    -80.9850E+06    -56.6859E+06     399.890E+03    -267.872E-03     535.510E-03    -267.637E-03    -621.582E-06    -267.963E-03     535.268E-03    -267.721E-03    -1.27111E-03
            2325     12.7355E-03     13.1021E-03    -2.25425E+06     20.4770E+06     41.5832E+06    -524.206E+03    -310.670E-03     605.457E-03    -294.787E-03     114.513E-03    -312.013E-03     606.744E-03    -294.606E-03     100.307E-03
            2326     12.0752E-03     12.8697E-03    -3.59770E+06     19.9725E+06     39.7524E+06     73.0712E+03    -315.615E-03     609.582E-03    -293.967E-03     123.012E-03    -317.318E-03     611.229E-03    -293.792E-03     106.100E-03
            2327     11.4141E-03     12.6478E-03    -6.10095E+06     16.4771E+06     35.9239E+06    -606.875E+03    -320.119E-03     612.869E-03    -292.750E-03     113.006E-03    -321.687E-03     614.371E-03    -292.586E-03     96.3989E-03
            2328     10.7646E-03     12.4234E-03    -9.43462E+06     12.8205E+06     33.2901E+06    -1.62254E+06    -322.323E-03     613.446E-03    -291.123E-03     101.264E-03    -323.740E-03     614.780E-03    -290.962E-03     85.2880E-03
            2329     10.1104E-03     12.2096E-03    -12.4427E+06     9.46424E+06     31.9299E+06    -1.69903E+06    -322.824E-03     611.948E-03    -289.125E-03     86.3119E-03    -324.007E-03     613.031E-03    -288.961E-03     71.7548E-03
            2330     9.45675E-03     12.0070E-03    -14.8348E+06     6.09022E+06     29.6424E+06    -1.80963E+06    -322.270E-03     609.024E-03    -286.754E-03     69.0794E-03    -323.218E-03     609.859E-03    -286.594E-03     55.9981E-03
            2331     8.80540E-03     11.8156E-03    -17.1896E+06     1.95335E+06     25.6301E+06    -1.91078E+06    -319.697E-03     603.745E-03    -284.049E-03     52.3462E-03    -320.446E-03     604.370E-03    -283.898E-03     40.6527E-03
            2332     8.15246E-03     11.6445E-03    -20.1282E+06    -3.30860E+06     20.0213E+06    -1.76736E+06    -315.303E-03     596.411E-03    -281.108E-03     37.6371E-03    -315.894E-03     596.865E-03    -280.974E-03     27.2447E-03
            2333     7.49635E-03     11.4908E-03    -23.4845E+06    -9.46241E+06     13.1317E+06    -909.333E+03    -309.477E-03     587.525E-03    -278.048E-03     24.8545E-03    -309.938E-03     587.835E-03    -277.935E-03     15.7742E-03
            2334     6.83598E-03     11.3538E-03    -26.9174E+06    -20.5820E+06     4.03020E+06    -469.289E+03    -302.674E-03     577.657E-03    -274.983E-03     14.4322E-03    -303.026E-03     577.831E-03    -274.894E-03     6.58640E-03
            2335     6.17164E-03     11.2363E-03    -30.4510E+06    -35.1046E+06    -6.25460E+06    -977.986E+03    -295.464E-03     567.484E-03    -272.020E-03     6.76813E-03    -295.729E-03     567.535E-03    -271.956E-03    -22.8637E-06
            2336     5.50091E-03     11.1343E-03    -34.1674E+06    -45.1089E+06    -14.1549E+06    -586.960E+03    -288.297E-03     557.549E-03    -269.252E-03     1.47351E-03    -288.505E-03     557.515E-03    -269.208E-03    -4.35880E-03
            2337     4.82549E-03     11.0495E-03    -37.6823E+06    -51.1004E+06    -19.4484E+06     1.04493E+06    -281.666E-03     548.400E-03    -266.734E-03    -2.01334E-03    -281.839E-03     548.312E-03    -266.703E-03    -6.94915E-03
            2338     4.14580E-03     10.9786E-03    -40.5583E+06    -56.2138E+06    -24.5565E+06     2.48164E+06    -275.680E-03     540.168E-03    -264.488E-03    -4.17139E-03    -275.825E-03     540.038E-03    -264.471E-03    -8.26005E-03
            2339     3.46180E-03     10.9198E-03    -43.0090E+06    -61.0858E+06    -30.1321E+06     3.13531E+06    -270.348E-03     532.894E-03    -262.547E-03    -5.23735E-03    -270.470E-03     532.730E-03    -262.547E-03    -8.55238E-03
            2340     2.77383E-03     10.8733E-03    -45.3239E+06    -65.9444E+06    -36.0944E+06     3.33997E+06    -265.910E-03     526.853E-03    -260.943E-03    -5.28973E-03    -266.015E-03     526.661E-03    -260.962E-03    -7.89251E-03
            2341     2.08304E-03     10.8385E-03    -47.2845E+06    -70.3945E+06    -41.7834E+06     3.15276E+06    -262.493E-03     522.178E-03    -259.685E-03    -4.56013E-03    -262.583E-03     521.965E-03    -259.723E-03    -6.49139E-03
            2342     1.38973E-03     10.8132E-03    -49.0255E+06    -74.0881E+06    -46.1622E+06     2.44844E+06    -260.093E-03     518.847E-03    -258.754E-03    -3.31808E-03    -260.173E-03     518.617E-03    -258.806E-03    -4.60883E-03
            2343     695.681E-06     10.7982E-03    -50.6558E+06    -77.1314E+06    -49.8175E+06     1.55336E+06    -258.566E-03     516.653E-03    -258.087E-03    -2.04054E-03    -258.641E-03     516.411E-03    -258.150E-03    -2.72101E-03
            2344     12.7433E-03     11.3681E-03    -1.73376E+06     21.2704E+06     39.2483E+06    -279.881E+03    -320.234E-03     614.598E-03    -294.365E-03     119.279E-03    -321.692E-03     616.012E-03    -294.197E-03     104.075E-03
            2345     12.0850E-03     11.1360E-03    -4.80272E+06     19.2416E+06     36.2585E+06    -1.43937E+06    -326.476E-03     619.449E-03    -292.973E-03     123.683E-03    -328.288E-03     621.208E-03    -292.813E-03     105.584E-03
            2346     11.4378E-03     10.8961E-03    -6.56317E+06     16.5512E+06     34.3206E+06    -1.21028E+06    -330.381E-03     621.463E-03    -291.081E-03     107.849E-03    -331.958E-03     622.977E-03    -290.924E-03     90.5187E-03
            2347     10.7868E-03     10.6789E-03    -8.46914E+06     14.2040E+06     33.2371E+06    -778.311E+03    -333.267E-03     621.927E-03    -288.660E-03     90.8912E-03    -334.627E-03     623.214E-03    -288.502E-03     74.3554E-03
            2348     10.1417E-03     10.4644E-03    -10.8251E+06     11.0914E+06     31.4960E+06    -1.65933E+06    -333.896E-03     619.601E-03    -285.704E-03     71.2175E-03    -335.002E-03     620.621E-03    -285.547E-03     55.8621E-03
            2349     9.50044E-03     10.2655E-03    -13.5356E+06     6.78200E+06     28.3770E+06    -2.44988E+06    -330.802E-03     613.117E-03    -282.315E-03     51.0471E-03    -331.664E-03     613.879E-03    -282.163E-03     37.1069E-03
            2350     8.85476E-03     10.0901E-03    -16.6132E+06     1.25875E+06     23.2810E+06    -2.22536E+06    -324.925E-03     603.587E-03    -278.662E-03     34.4127E-03    -325.597E-03     604.143E-03    -278.523E-03     21.9461E-03
            2351     8.20429E-03     9.93094E-03    -19.8279E+06    -5.30134E+06     15.9578E+06    -1.30398E+06    -317.563E-03     592.456E-03    -274.892E-03     20.6308E-03    -318.082E-03     592.844E-03    -274.776E-03     9.62515E-03
            2352     7.55003E-03     9.79354E-03    -22.9179E+06    -12.3401E+06     7.53192E+06     33.3346E+03    -309.007E-03     580.144E-03    -271.138E-03     9.93904E-03    -309.406E-03     580.400E-03    -271.049E-03     322.063E-06
            2353     6.88947E-03     9.67683E-03    -26.1313E+06    -19.5154E+06    -827.335E+03     1.16567E+06    -299.752E-03     567.287E-03    -267.535E-03     2.80503E-03    -300.068E-03     567.445E-03    -267.473E-03    -5.57619E-03
            2354     6.22126E-03     9.57628E-03    -29.3360E+06    -33.5561E+06    -10.4155E+06     1.86037E+06    -290.670E-03     554.856E-03    -264.186E-03    -1.90401E-03    -290.912E-03     554.905E-03    -264.147E-03    -9.16371E-03
            2355     5.54770E-03     9.49360E-03    -32.3010E+06    -46.8617E+06    -17.8278E+06     2.48274E+06    -282.276E-03     543.425E-03    -261.149E-03    -4.86445E-03    -282.462E-03     543.380E-03    -261.123E-03    -11.1029E-03
            2356     4.86757E-03     9.42320E-03     -34.832E+06    -51.8452E+06    -21.3163E+06     2.67232E+06    -274.782E-03     533.222E-03    -258.440E-03    -6.38812E-03    -274.936E-03     533.128E-03    -258.421E-03    -11.7012E-03
            2357     4.18254E-03     9.36551E-03    -37.2309E+06    -56.2445E+06    -24.8592E+06     2.54744E+06    -268.182E-03     524.243E-03    -256.061E-03    -6.74930E-03    -268.313E-03     524.111E-03    -256.050E-03    -11.2113E-03
            2358     3.49284E-03     9.31979E-03    -39.2017E+06    -60.3036E+06    -28.8000E+06     2.67753E+06    -262.421E-03     516.455E-03    -254.034E-03    -6.24686E-03    -262.531E-03     516.292E-03    -254.034E-03    -9.88195E-03
            2359     2.79901E-03     9.28324E-03    -40.6292E+06    -63.9890E+06    -33.1692E+06     2.73959E+06    -257.723E-03     510.095E-03    -252.372E-03    -5.42419E-03    -257.814E-03     509.906E-03    -252.386E-03    -8.27307E-03
            2360     2.10200E-03     9.25560E-03    -41.7000E+06    -67.3149E+06    -37.6369E+06     2.67067E+06    -254.140E-03     505.202E-03    -251.062E-03    -4.37119E-03    -254.214E-03     504.993E-03    -251.092E-03    -6.47938E-03
            2361     1.40302E-03     9.23608E-03    -41.8867E+06    -69.6445E+06    -40.9042E+06     2.44496E+06    -251.485E-03     501.596E-03    -250.110E-03    -2.98964E-03    -251.544E-03     501.372E-03    -250.153E-03    -4.38567E-03
            2362     701.693E-06     9.22418E-03    -41.2447E+06    -70.9320E+06    -41.6630E+06     1.71996E+06    -249.946E-03     499.422E-03    -249.476E-03    -1.56754E-03    -249.994E-03     499.187E-03    -249.522E-03    -2.30304E-03
            2363     12.7394E-03     9.61011E-03    -1.35870E+06     22.4606E+06     37.6108E+06    -242.133E+03    -332.035E-03     625.929E-03    -293.894E-03     119.674E-03    -333.544E-03     627.403E-03    -293.737E-03     103.633E-03
            2364     12.1011E-03     9.36744E-03    -3.91093E+06     20.7633E+06     34.8980E+06    -893.510E+03    -341.265E-03     633.006E-03    -291.741E-03     118.728E-03    -343.089E-03     634.790E-03    -291.591E-03     99.6440E-03
            2365     11.4571E-03     9.13942E-03    -6.74603E+06     17.1952E+06     32.7856E+06    -1.41178E+06    -345.971E-03     634.840E-03    -288.869E-03     96.6702E-03    -347.487E-03     636.303E-03    -288.720E-03     78.4377E-03
            2366     10.8220E-03     8.91110E-03    -8.50504E+06     14.9268E+06     32.2767E+06    -2.37515E+06    -347.241E-03     632.582E-03    -285.340E-03     72.4857E-03    -348.476E-03     633.752E-03    -285.188E-03     55.0291E-03
            2367     10.1903E-03     8.70232E-03    -9.94512E+06     11.7358E+06     30.5539E+06    -2.58947E+06    -343.856E-03     625.151E-03    -281.295E-03     50.6065E-03    -344.837E-03     626.057E-03    -281.145E-03     34.2947E-03
            2368     9.55187E-03     8.52154E-03    -12.1607E+06     6.48634E+06     25.8433E+06    -1.69545E+06    -336.772E-03     613.728E-03    -276.955E-03     32.2765E-03    -337.523E-03     614.390E-03    -276.818E-03     17.6057E-03
            2369     8.90975E-03     8.36246E-03    -15.0668E+06    -291.904E+03     18.6291E+06    -767.665E+03    -327.560E-03     600.080E-03    -272.520E-03     17.8019E-03    -328.129E-03     600.546E-03    -272.405E-03     4.82939E-03
            2370     8.26266E-03     8.22614E-03    -18.2752E+06    -7.74369E+06     10.5641E+06     640.227E+03    -316.406E-03     584.583E-03    -268.177E-03     7.53977E-03    -316.844E-03     584.903E-03    -268.086E-03    -3.78922E-03
            2371     7.60566E-03     8.11229E-03    -21.4403E+06    -14.7524E+06     3.49106E+06     1.94897E+06    -304.818E-03     568.911E-03    -264.093E-03     1.31871E-03    -305.170E-03     569.126E-03    -264.023E-03    -8.56621E-03
            2372     6.94068E-03     8.01726E-03    -24.0568E+06    -20.3952E+06    -1.37302E+06     2.88073E+06    -293.925E-03     554.279E-03    -260.354E-03    -2.00424E-03    -294.219E-03     554.420E-03    -260.296E-03    -10.6321E-03
            2373     6.26882E-03     7.93961E-03    -26.6241E+06    -33.2477E+06    -8.44961E+06     3.92747E+06    -283.945E-03     540.928E-03    -256.983E-03    -3.44728E-03    -284.179E-03     540.973E-03    -256.939E-03    -10.8704E-03
            2374     5.58900E-03     7.87409E-03    -28.9502E+06    -45.5642E+06    -15.2343E+06     4.27975E+06    -275.139E-03     529.130E-03    -253.991E-03    -3.64257E-03    -275.323E-03     529.092E-03    -253.959E-03    -9.97868E-03
            2375     4.90407E-03     7.82136E-03    -31.1058E+06    -49.9306E+06    -18.8272E+06     3.88406E+06    -267.338E-03     518.722E-03    -251.383E-03    -3.19647E-03    -267.493E-03     518.642E-03    -251.360E-03    -8.54286E-03
            2376     4.21290E-03     7.77826E-03    -33.0734E+06    -54.2570E+06    -22.7895E+06     3.45145E+06    -260.609E-03     509.772E-03    -249.162E-03    -2.50077E-03    -260.738E-03     509.654E-03    -249.150E-03    -6.93234E-03
            2377     3.51723E-03     7.74427E-03    -35.0662E+06    -58.3795E+06    -26.9134E+06     2.91154E+06    -255.172E-03     502.486E-03    -247.315E-03    -1.67958E-03    -255.277E-03     502.335E-03    -247.314E-03    -5.26190E-03
            2378     2.81824E-03     7.71753E-03    -36.8461E+06    -61.9650E+06    -30.6137E+06     2.28321E+06    -250.840E-03     496.653E-03    -245.812E-03    -811.142E-06    -250.926E-03     496.474E-03    -245.822E-03    -3.61598E-03
            2379     2.11639E-03     7.69742E-03    -38.0535E+06    -64.6528E+06    -33.5696E+06     1.57430E+06    -247.444E-03     492.093E-03    -244.648E-03    -276.613E-06    -247.514E-03     491.892E-03    -244.667E-03    -2.35197E-03
            2380     1.41190E-03     7.68362E-03    -39.1466E+06    -66.8278E+06    -36.4746E+06     1.12808E+06    -245.027E-03     488.854E-03    -243.827E-03     13.2238E-06    -245.084E-03     488.638E-03    -243.856E-03    -1.35564E-03
            2381     706.263E-06     7.67550E-03    -40.0151E+06    -66.1206E+06    -38.8567E+06     1.12957E+06    -243.679E-03     486.966E-03    -243.287E-03     117.479E-06    -243.731E-03     486.752E-03    -243.327E-03    -619.390E-06
            2382     12.7592E-03     7.83883E-03    -3.18404E+06     23.1881E+06     37.2982E+06    -991.512E+03    -350.686E-03     643.743E-03    -293.057E-03     114.610E-03    -352.157E-03     645.177E-03    -292.899E-03     97.9801E-03
            2383     12.1163E-03     7.58249E-03    -4.78637E+06     22.2600E+06     35.4831E+06    -449.095E+03    -359.347E-03     649.179E-03    -289.832E-03     103.725E-03    -360.998E-03     650.791E-03    -289.679E-03     84.3262E-03
            2384     11.4946E-03     7.34107E-03    -4.98728E+06     20.2483E+06     33.4245E+06    -1.92640E+06    -363.160E-03     648.918E-03    -285.758E-03     76.3202E-03    -364.510E-03     650.230E-03    -285.613E-03     57.1085E-03
            2385     10.8737E-03     7.12477E-03    -6.59411E+06     15.6551E+06     29.6866E+06    -3.27837E+06    -359.932E-03     640.977E-03    -281.045E-03     52.9601E-03    -361.021E-03     642.020E-03    -280.909E-03     34.5190E-03
            2386     10.2438E-03     6.93755E-03    -9.42920E+06     9.23461E+06     24.8106E+06    -2.53409E+06    -350.707E-03     626.741E-03    -276.034E-03     30.6945E-03    -351.506E-03     627.477E-03    -275.909E-03     14.1394E-03
            2387     9.61087E-03     6.77673E-03    -11.9469E+06     2.99015E+06     19.9079E+06    -993.133E+03    -338.122E-03     609.150E-03    -271.028E-03     14.8405E-03    -338.713E-03     609.658E-03    -270.915E-03     298.750E-06
            2388     8.97008E-03     6.64348E-03    -14.4464E+06    -3.39480E+06     14.4285E+06     1.01846E+06    -324.143E-03     590.395E-03    -266.251E-03     5.87869E-03    -324.604E-03     590.754E-03    -266.153E-03    -6.81170E-03
            2389     8.31704E-03     6.53804E-03    -17.2085E+06    -9.80980E+06     8.97345E+06     2.63910E+06    -310.071E-03     571.931E-03    -261.860E-03     1.94812E-03    -310.452E-03     572.192E-03    -261.776E-03    -9.07054E-03
            2390     7.65509E-03     6.45142E-03    -19.8594E+06    -15.5003E+06     4.59670E+06     3.49680E+06    -297.035E-03     554.969E-03    -257.934E-03     1.02476E-03    -297.364E-03     555.160E-03    -257.860E-03    -8.49447E-03
            2391     6.98404E-03     6.38093E-03    -22.5276E+06    -20.5317E+06     1.12865E+06     3.85108E+06    -285.545E-03     540.028E-03    -254.483E-03     1.36780E-03    -285.834E-03     540.161E-03    -254.415E-03    -6.77295E-03
            2392     6.30447E-03     6.32424E-03    -24.8195E+06    -32.6892E+06    -4.98319E+06     4.16992E+06    -275.752E-03     527.228E-03    -251.475E-03     2.61290E-03    -275.992E-03     527.277E-03    -251.417E-03    -4.28046E-03
            2393     5.61923E-03     6.27791E-03    -26.4091E+06    -44.0427E+06    -11.0023E+06     4.52599E+06    -267.323E-03     516.208E-03    -248.885E-03     3.99314E-03    -267.514E-03     516.180E-03    -248.838E-03    -1.77550E-03
            2394     4.92714E-03     6.24051E-03    -28.1829E+06    -47.6075E+06    -14.4345E+06     4.50759E+06    -260.185E-03     506.882E-03    -246.697E-03     5.02453E-03    -260.345E-03     506.815E-03    -246.659E-03     245.422E-06
            2395     4.23114E-03     6.21124E-03    -30.2601E+06    -51.3957E+06    -18.0617E+06     3.98375E+06    -254.396E-03     499.276E-03    -244.880E-03     5.70596E-03    -254.530E-03     499.172E-03    -244.852E-03     1.80757E-03
            2396     3.53120E-03     6.18743E-03    -32.2148E+06    -55.1723E+06    -22.0398E+06     3.15540E+06    -249.773E-03     493.169E-03    -243.396E-03     5.87006E-03    -249.881E-03     493.031E-03    -243.380E-03     2.75219E-03
            2397     2.82810E-03     6.16917E-03    -34.0379E+06    -58.8144E+06    -26.2766E+06     2.14843E+06    -246.168E-03     488.387E-03    -242.218E-03     5.51025E-03    -246.255E-03     488.219E-03    -242.215E-03     3.10086E-03
            2398     2.12270E-03     6.15529E-03    -35.8545E+06    -62.2274E+06    -30.3788E+06     1.20540E+06    -243.538E-03     484.852E-03    -241.314E-03     4.55466E-03    -243.606E-03     484.659E-03    -241.323E-03     2.79309E-03
            2399     1.41605E-03     6.14625E-03    -37.4461E+06    -65.0263E+06    -34.2963E+06     427.647E+03    -241.766E-03     482.389E-03    -240.623E-03     3.12906E-03    -241.821E-03     482.179E-03    -240.646E-03     1.94642E-03
            2400     708.522E-06     6.13941E-03    -38.4919E+06    -64.5259E+06    -36.9176E+06    -199.858E+03    -240.357E-03     480.615E-03    -240.258E-03     1.76258E-03    -240.406E-03     480.405E-03    -240.293E-03     1.11996E-03
            2401     12.7666E-03     6.03254E-03    -3.97510E+06     25.8858E+06     36.8882E+06    -1.25638E+06    -380.089E-03     672.092E-03    -292.002E-03     115.619E-03    -381.604E-03     673.577E-03    -291.849E-03     97.7003E-03
            2402     12.1601E-03     5.75581E-03    -3.42003E+06     25.4021E+06     34.8072E+06    -3.72383E+06    -385.826E-03     673.091E-03    -287.265E-03     95.8918E-03    -387.482E-03     674.731E-03    -287.123E-03     74.4682E-03
            2403     11.5443E-03     5.52969E-03    -3.73897E+06     19.8577E+06     30.0979E+06    -4.02716E+06    -380.812E-03     662.612E-03    -281.800E-03     58.3172E-03    -381.994E-03     663.777E-03    -281.673E-03     38.2988E-03
            2404     10.9246E-03     5.32472E-03    -5.40916E+06     13.4468E+06     25.5303E+06    -1.61122E+06    -368.262E-03     644.319E-03    -276.057E-03     29.5180E-03    -369.066E-03     645.091E-03    -275.941E-03     11.7882E-03
            2405     10.3056E-03     5.16679E-03    -7.86143E+06     6.76028E+06     21.1840E+06     217.835E+03    -350.694E-03     621.163E-03    -270.469E-03     11.3097E-03    -351.244E-03     621.656E-03    -270.362E-03    -3.98556E-03
            2406     9.67127E-03     5.04478E-03    -11.2854E+06    -66.8239E+03     17.2377E+06     1.57469E+06    -331.841E-03     597.194E-03    -265.353E-03     5.33784E-03    -332.284E-03     597.551E-03    -265.250E-03    -7.85682E-03
            2407     9.02095E-03     4.94817E-03    -14.5468E+06    -6.00499E+06     14.2948E+06     2.63948E+06    -314.424E-03     575.271E-03    -260.847E-03     4.32977E-03    -314.807E-03     575.542E-03    -260.746E-03    -6.90177E-03
            2408     8.36046E-03     4.87333E-03    -17.0004E+06    -10.7712E+06     12.0679E+06     3.12121E+06    -299.564E-03     556.512E-03    -256.948E-03     5.17641E-03    -299.901E-03     556.716E-03    -256.847E-03    -4.31754E-03
            2409     7.68953E-03     4.81395E-03    -19.2265E+06    -15.3074E+06     9.20050E+06     3.46841E+06    -286.959E-03     540.559E-03    -253.600E-03     7.44898E-03    -287.263E-03     540.714E-03    -253.504E-03    -553.194E-06
            2410     7.00997E-03     4.76768E-03    -21.4239E+06    -19.8028E+06     5.65701E+06     3.76320E+06    -276.384E-03     527.136E-03    -250.752E-03     9.65444E-03    -276.654E-03     527.244E-03    -250.664E-03     2.98320E-03
            2411     6.32421E-03     4.72929E-03    -23.6157E+06    -31.6292E+06    -1.17502E+06     3.78905E+06    -267.706E-03     516.054E-03    -248.348E-03     11.4326E-03    -267.930E-03     516.085E-03    -248.273E-03     5.89516E-03
            2412     5.63209E-03     4.69952E-03    -25.7739E+06    -42.8399E+06    -7.29445E+06     3.60711E+06    -260.646E-03     506.987E-03    -246.341E-03     12.5002E-03    -260.826E-03     506.945E-03    -246.278E-03     7.94717E-03
            2413     4.93631E-03     4.67540E-03    -27.4031E+06    -45.6411E+06    -9.59055E+06     3.30895E+06    -254.953E-03     499.638E-03    -244.685E-03     12.7384E-03    -255.106E-03     499.561E-03    -244.628E-03     9.00230E-03
            2414     4.23632E-03     4.65602E-03    -28.8665E+06    -48.6075E+06    -12.9249E+06     2.85740E+06    -250.489E-03     493.813E-03    -243.323E-03     12.2549E-03    -250.617E-03     493.703E-03    -243.276E-03     9.22753E-03
            2415     3.53389E-03     4.64068E-03    -30.6039E+06    -52.2086E+06    -17.5925E+06     2.08121E+06    -247.013E-03     489.223E-03    -242.211E-03     11.1205E-03    -247.116E-03     489.083E-03    -242.178E-03     8.71491E-03
            2416     2.82948E-03     4.62862E-03    -32.4688E+06    -56.2186E+06    -23.1124E+06     1.51016E+06    -244.299E-03     485.620E-03    -241.321E-03     9.35596E-03    -244.379E-03     485.452E-03    -241.308E-03     7.51528E-03
            2417     2.12353E-03     4.61956E-03    -34.0740E+06    -60.0903E+06    -28.8416E+06     997.146E+03    -242.295E-03     482.933E-03    -240.637E-03     7.42754E-03    -242.356E-03     482.742E-03    -240.645E-03     6.08535E-03
            2418     1.41667E-03     4.61246E-03    -34.9504E+06    -63.1471E+06    -33.3538E+06     139.394E+03    -240.892E-03     481.040E-03    -240.149E-03     5.30273E-03    -240.936E-03     480.833E-03    -240.173E-03     4.38971E-03
            2419     708.630E-06     4.61035E-03    -35.3047E+06    -65.4495E+06    -35.2966E+06    -505.278E+03    -239.798E-03     479.907E-03    -240.109E-03     2.99308E-03    -239.831E-03     479.685E-03    -240.139E-03     2.49436E-03
            2420     12.7827E-03     4.13672E-03    -2.26676E+06     31.2963E+06     34.0134E+06    -3.62540E+06    -420.251E-03     711.104E-03    -290.853E-03     111.192E-03    -421.764E-03     712.623E-03    -290.725E-03     91.5892E-03
            2421     12.1852E-03     3.88480E-03    -1.22675E+06     25.3520E+06     29.4306E+06    -4.64378E+06    -417.473E-03     701.700E-03    -284.227E-03     68.0839E-03    -418.838E-03     703.087E-03    -284.115E-03     46.1785E-03
            2422     11.5940E-03     3.67483E-03    -4.47198E+06     15.2596E+06     23.1439E+06    -2.13699E+06    -394.587E-03     671.945E-03    -277.359E-03     27.1235E-03    -395.339E-03     672.690E-03    -277.259E-03     9.12539E-03
            2423     10.9935E-03     3.52558E-03    -6.84369E+06     8.56065E+06     21.0100E+06     330.308E+03    -366.318E-03     637.380E-03    -271.062E-03     9.42189E-03    -366.785E-03     637.805E-03    -270.959E-03    -5.25592E-03
            2424     10.3616E-03     3.41689E-03    -8.99996E+06     3.32505E+06     20.6328E+06     1.95738E+06    -340.252E-03     605.902E-03    -265.650E-03     5.65171E-03    -340.615E-03     606.191E-03    -265.538E-03    -6.33193E-03
            2425     9.71374E-03     3.34041E-03    -11.1537E+06    -1.06265E+06     20.5314E+06     3.25068E+06    -319.433E-03     580.537E-03    -261.104E-03     7.28911E-03    -319.754E-03     580.759E-03    -260.983E-03    -2.58056E-03
            2426     9.05477E-03     3.27950E-03    -13.3831E+06    -5.45582E+06     19.1205E+06     3.38499E+06    -302.478E-03     559.770E-03    -257.291E-03     9.86812E-03    -302.768E-03     559.940E-03    -257.169E-03     1.73409E-03
            2427     8.38376E-03     3.23413E-03    -15.8178E+06    -10.0738E+06     16.3536E+06     3.02846E+06    -288.727E-03     542.835E-03    -254.108E-03     12.0582E-03    -288.986E-03     542.956E-03    -253.988E-03     5.39453E-03
            2428     7.70454E-03     3.19921E-03    -18.3681E+06    -14.7248E+06     12.7694E+06     2.81075E+06    -277.829E-03     529.284E-03    -251.455E-03     14.0180E-03    -278.063E-03     529.365E-03    -251.343E-03     8.54950E-03
            2429     7.01919E-03     3.17103E-03    -20.9510E+06    -19.0970E+06     9.20519E+06     2.66998E+06    -269.150E-03     518.396E-03    -249.246E-03     15.3674E-03    -269.361E-03     518.439E-03    -249.142E-03     10.8677E-03
            2430     6.32786E-03     3.14950E-03    -23.1431E+06    -30.3164E+06     2.37312E+06     2.40903E+06    -262.230E-03     509.632E-03    -247.402E-03     15.7398E-03    -262.403E-03     509.609E-03    -247.313E-03     12.0422E-03
            2431     5.63290E-03     3.13129E-03    -24.7405E+06    -40.8686E+06    -4.25717E+06     1.84550E+06    -256.712E-03     502.587E-03    -245.875E-03     15.3711E-03    -256.848E-03     502.503E-03    -245.801E-03     12.3424E-03
            2432     4.93426E-03     3.11685E-03    -26.2749E+06    -43.9196E+06    -7.64807E+06     1.06654E+06    -252.438E-03     497.055E-03    -244.617E-03     14.5155E-03    -252.554E-03     496.944E-03    -244.553E-03     12.0227E-03
            2433     4.23371E-03     3.10533E-03    -27.9437E+06    -47.3533E+06    -11.9827E+06     664.205E+03    -249.115E-03     492.683E-03    -243.568E-03     13.1182E-03    -249.213E-03     492.548E-03    -243.518E-03     11.0876E-03
            2434     3.53100E-03     3.09551E-03    -29.6751E+06    -51.1015E+06    -17.2032E+06     814.116E+03    -246.437E-03     489.136E-03    -242.699E-03     11.2621E-03    -246.517E-03     488.979E-03    -242.668E-03     9.65384E-03
            2435     2.82671E-03     3.08847E-03    -31.5029E+06    -55.0882E+06    -22.8967E+06     791.451E+03    -244.306E-03     486.309E-03    -242.003E-03     9.35262E-03    -244.370E-03     486.132E-03    -241.992E-03     8.09928E-03
            2436     2.12112E-03     3.08277E-03    -33.1127E+06    -58.8057E+06    -28.1541E+06     583.023E+03    -242.621E-03     484.119E-03    -241.498E-03     7.39034E-03    -242.672E-03     483.925E-03    -241.505E-03     6.45798E-03
            2437     1.41391E-03     3.07934E-03    -34.7884E+06    -62.2051E+06    -32.4766E+06     633.629E+03    -241.519E-03     482.729E-03    -241.210E-03     5.10678E-03    -241.561E-03     482.521E-03    -241.232E-03     4.49218E-03
            2438     706.637E-06     3.07651E-03    -36.4575E+06    -64.9846E+06    -35.7451E+06     727.675E+03    -241.161E-03     482.234E-03    -241.074E-03     2.67600E-03    -241.199E-03     482.016E-03    -241.105E-03     2.34515E-03
            2439     12.7970E-03     2.14979E-03    -340.134E+03     36.3616E+06     31.6505E+06    -3.43930E+06    -491.600E-03     781.637E-03    -290.037E-03     88.9953E-03    -492.636E-03     782.744E-03    -289.931E-03     73.6074E-03
            2440     12.2472E-03     1.94011E-03    -3.54602E+06     21.4511E+06     26.2934E+06    -1.25247E+06    -440.996E-03     722.181E-03    -281.185E-03     28.0408E-03    -441.553E-03     722.771E-03    -281.079E-03     15.7826E-03
            2441     11.6608E-03     1.82563E-03    -6.20132E+06     12.8978E+06     23.6479E+06     891.613E+03    -393.290E-03     666.957E-03    -273.668E-03     10.6372E-03    -393.570E-03     667.217E-03    -273.559E-03     758.352E-06
            2442     11.0319E-03     1.75172E-03    -8.35497E+06     6.63087E+06     22.4767E+06     919.188E+03    -355.967E-03     623.587E-03    -267.620E-03     8.70350E-03    -356.207E-03     623.768E-03    -267.505E-03     567.715E-06
            2443     10.3904E-03     1.70259E-03    -10.0254E+06     2.06044E+06     22.5052E+06     1.38852E+06    -328.669E-03     591.471E-03    -262.801E-03     8.81676E-03    -328.877E-03     591.593E-03    -262.677E-03     2.54361E-03
            2444     9.73388E-03     1.66095E-03    -11.5470E+06    -1.63935E+06     22.6649E+06     1.59858E+06    -308.579E-03     567.494E-03    -258.915E-03     9.59450E-03    -308.763E-03     567.571E-03    -258.783E-03     4.63080E-03
            2445     9.06527E-03     1.63476E-03    -12.8880E+06    -5.10239E+06     21.7093E+06     1.97908E+06    -293.276E-03     549.018E-03    -255.741E-03     10.7384E-03    -293.446E-03     549.064E-03    -255.607E-03     6.73460E-03
            2446     8.38867E-03     1.61291E-03    -14.7852E+06    -9.26445E+06     18.6783E+06     2.29240E+06    -281.538E-03     534.666E-03    -253.129E-03     11.8146E-03    -281.693E-03     534.684E-03    -253.000E-03     8.55152E-03
            2447     7.70557E-03     1.59745E-03    -16.9130E+06    -13.6011E+06     14.5924E+06     2.07150E+06    -272.550E-03     523.510E-03    -250.960E-03     12.0875E-03    -272.690E-03     523.501E-03    -250.843E-03     9.45208E-03
            2448     7.01648E-03     1.58466E-03    -19.1693E+06    -17.7383E+06     10.4929E+06     1.47772E+06    -265.506E-03     514.654E-03    -249.149E-03     12.0411E-03    -265.635E-03     514.624E-03    -249.043E-03     9.86738E-03
            2449     6.32429E-03     1.57414E-03    -21.3725E+06    -28.6631E+06     3.28487E+06     695.904E+03    -259.995E-03     507.614E-03    -247.620E-03     11.3390E-03    -260.099E-03     507.533E-03    -247.531E-03     9.54468E-03
            2450     5.62839E-03     1.56637E-03    -23.2206E+06    -39.3663E+06    -3.94899E+06     21.3765E+03    -255.565E-03     501.893E-03    -246.328E-03     10.4266E-03    -255.645E-03     501.763E-03    -246.257E-03     8.92580E-03
            2451     4.92993E-03     1.55928E-03    -25.1283E+06    -43.1075E+06    -8.33097E+06    -77.9286E+03    -251.967E-03     497.214E-03    -245.246E-03     9.33202E-03    -252.038E-03     497.067E-03    -245.189E-03     8.10596E-03
            2452     4.22916E-03     1.55301E-03    -27.5388E+06    -47.3025E+06    -13.4624E+06    -51.1574E+03    -249.083E-03     493.426E-03    -244.343E-03     8.12219E-03    -249.147E-03     493.264E-03    -244.302E-03     7.11433E-03
            2453     3.52685E-03     1.54893E-03    -29.8209E+06    -51.4248E+06    -18.7091E+06    -69.5844E+03    -246.754E-03     490.357E-03    -243.603E-03     6.94001E-03    -246.812E-03     490.181E-03    -243.579E-03     6.10689E-03
            2454     2.82290E-03     1.54537E-03    -31.5743E+06    -55.0855E+06    -23.7375E+06     258.571E+03    -244.959E-03     487.974E-03    -243.015E-03     5.61586E-03    -245.010E-03     487.786E-03    -243.008E-03     4.96231E-03
            2455     2.11783E-03     1.54317E-03    -33.4436E+06    -58.6498E+06    -28.4622E+06     701.671E+03    -243.648E-03     486.213E-03    -242.565E-03     4.08896E-03    -243.693E-03     486.013E-03    -242.573E-03     3.60740E-03
            2456     1.41264E-03     1.54105E-03    -34.9821E+06    -61.4992E+06    -32.2693E+06     849.747E+03    -242.744E-03     484.978E-03    -242.234E-03     2.68293E-03    -242.785E-03     484.770E-03    -242.256E-03     2.38302E-03
            2457     706.778E-06     1.53905E-03    -35.3837E+06    -62.9365E+06    -34.5756E+06     551.492E+03    -242.281E-03     484.183E-03    -241.902E-03     1.46202E-03    -242.317E-03     483.970E-03    -241.932E-03     1.31008E-03


