********************************************************************************
Field Output Report, written Mon Aug 12 21:10:53 2024

Source 1
---------

   ODB: G:/Abaqus_calc_2019/1740/Vel_40/odb/zeides_2a_24_red_150_cal_50_vel_40_fric_050.odb
   Step: Step-1
   Frame: Increment   1633196: Step Time =   0.2144

Loc 1 : Nodal values from source 1

Output sorted by column "Nodal Label".

Field Output reported at nodes for region: DIE_2A_24_D0_36-1.Region_1
   Computation algorithm: EXTRAPOLATE_COMPUTE_AVERAGE
   Averaged at nodes
   Averaging regions: ODB_REGIONS

      Node Label     COORD.COOR1     COORD.COOR2
                          @Loc 1          @Loc 1
-------------------------------------------------
               1     21.4163E-03     113.554E-03


Field Output reported at nodes for region: DIE_2A_24_D0_36-1.Region_2
   Computation algorithm: EXTRAPOLATE_COMPUTE_AVERAGE
   Averaged at nodes
   Averaging regions: ODB_REGIONS

      Node Label     COORD.COOR1     COORD.COOR2
                          @Loc 1          @Loc 1
-------------------------------------------------
               1     21.4163E-03     113.554E-03


Field Output reported at nodes for part: WIRE-1
   Computation algorithm: EXTRAPOLATE_COMPUTE_AVERAGE
   Averaged at nodes
   Averaging regions: ODB_REGIONS

      Node Label     COORD.COOR1     COORD.COOR2           S.S11           S.S22           S.S33           S.S12         PE.PE11         PE.PE22         PE.PE33         PE.PE12         LE.LE11         LE.LE22         LE.LE33         LE.LE12
                          @Loc 1          @Loc 1          @Loc 1          @Loc 1          @Loc 1          @Loc 1          @Loc 1          @Loc 1          @Loc 1          @Loc 1          @Loc 1          @Loc 1          @Loc 1          @Loc 1
-------------------------------------------------------------------------------------------------------------------------------------------------------------------------------------------------------------------------------------------------
               1    -13.1940E-09     56.3904E-03    -18.8655E+06    -66.0948E+06    -18.9533E+06    -37.1056E+03    -15.7052E-03     31.4046E-03    -15.6994E-03     2.09863E-03    -15.6762E-03     31.1290E-03    -15.6709E-03     2.09783E-03
               2     17.7240E-03     57.2845E-03    -1.96524E+06     180.936E+06     87.6224E+06     408.621E+03    -18.6348E-03     34.3117E-03    -15.6769E-03     163.034E-03    -21.5510E-03     37.6091E-03    -15.4983E-03     165.908E-03
               3     17.5446E-03     114.078E-03     2.26682E+06    -11.8561E+06     23.8072E+06     5.70119E+06     11.4253E-03     10.7226E-03    -22.1479E-03     2.80466E-03     11.4108E-03     10.6171E-03    -22.0149E-03     2.87821E-03
               4    -504.214E-09     113.019E-03     20.5807E+06    -694.090E+03     21.7957E+06    -1.04574E+06    -18.4785E-03     37.4560E-03    -18.9775E-03    -280.847E-06    -18.4067E-03     37.3907E-03    -18.8974E-03    -294.479E-06
               5     363.778E-09    -83.2667E-18    -8.08873E+06    -45.9073E+06    -7.60119E+06     6.25073E+03    -13.3973E-03     26.7293E-03    -13.3320E-03     273.327E-06    -13.3600E-03     26.5226E-03    -13.2917E-03     273.513E-06
               6     17.6461E-03    -83.2667E-18     15.1106E+06     111.583E+06     77.0065E+06     1.08835E+06    -36.9497E-03     55.2445E-03    -18.2948E-03     45.5324E-03    -37.2184E-03     55.7366E-03    -18.0935E-03     45.3991E-03
               7     886.023E-06     56.3923E-03    -18.5592E+06    -65.6533E+06    -17.9846E+06     41.1853E+03    -15.7028E-03     31.4059E-03    -15.7031E-03     3.48789E-03    -15.6744E-03     31.1306E-03    -15.6709E-03     3.48790E-03
               8     1.77200E-03     56.3969E-03    -17.7057E+06    -64.6273E+06    -15.3869E+06     82.3502E+03    -15.6995E-03     31.4108E-03    -15.7112E-03     6.43308E-03    -15.6721E-03     31.1357E-03    -15.6688E-03     6.43318E-03
               9     2.65804E-03     56.4042E-03    -16.3669E+06    -63.5166E+06    -11.7713E+06     118.609E+03    -15.7019E-03     31.4233E-03    -15.7214E-03     9.59968E-03    -15.6747E-03     31.1467E-03    -15.6644E-03     9.59974E-03
              10     3.54405E-03     56.4148E-03    -14.7119E+06    -62.0900E+06    -7.85085E+06     140.489E+03    -15.7108E-03     31.4425E-03    -15.7317E-03     12.8763E-03    -15.6832E-03     31.1651E-03    -15.6596E-03     12.8761E-03
              11     4.43011E-03     56.4282E-03    -12.8989E+06    -60.6663E+06    -4.32433E+06     166.989E+03    -15.7277E-03     31.4674E-03    -15.7396E-03     16.2833E-03    -15.6985E-03     31.1896E-03    -15.6546E-03     16.2828E-03
              12     5.31614E-03     56.4451E-03    -11.2033E+06    -59.5059E+06    -1.58613E+06     226.960E+03    -15.7539E-03     31.4981E-03    -15.7442E-03     19.8425E-03    -15.7222E-03     31.2199E-03    -15.6496E-03     19.8420E-03
              13     6.20221E-03     56.4651E-03    -9.71700E+06    -58.0617E+06     315.539E+03     220.436E+03    -15.7892E-03     31.5338E-03    -15.7446E-03     23.5721E-03    -15.7553E-03     31.2584E-03    -15.6447E-03     23.5706E-03
              14     7.08825E-03     56.4889E-03    -8.28426E+06    -57.5842E+06     2.08767E+06     296.416E+03    -15.8348E-03     31.5807E-03    -15.7459E-03     27.4464E-03    -15.7977E-03     31.3037E-03    -15.6399E-03     27.4447E-03
              15     7.97435E-03     56.5161E-03    -7.09310E+06    -56.0941E+06     3.26568E+06     314.389E+03    -15.8977E-03     31.6414E-03    -15.7437E-03     31.4796E-03    -15.8595E-03     31.3694E-03    -15.6358E-03     31.4765E-03
              16     8.86037E-03     56.5475E-03    -6.09502E+06    -53.1417E+06     3.74735E+06     261.207E+03    -15.9594E-03     31.6961E-03    -15.7367E-03     35.6042E-03    -15.9228E-03     31.4383E-03    -15.6321E-03     35.5982E-03
              17     9.74649E-03     56.5824E-03    -5.29399E+06    -53.1406E+06     3.64825E+06     262.878E+03    -16.0239E-03     31.7548E-03    -15.7309E-03     39.7208E-03    -15.9855E-03     31.4984E-03    -15.6279E-03     39.7118E-03
              18     10.6325E-03     56.6214E-03    -4.71198E+06    -49.6139E+06     387.417E+03     353.747E+03    -16.0891E-03     31.7926E-03    -15.7034E-03     43.9110E-03    -16.0520E-03     31.5615E-03    -15.6227E-03     43.8991E-03
              19     11.5187E-03     56.6641E-03    -4.08189E+06    -37.4881E+06     1.99014E+06     390.506E+03    -16.0985E-03     31.7834E-03    -15.6850E-03     48.2634E-03    -16.0842E-03     31.6158E-03    -15.6148E-03     48.2470E-03
              20     12.4050E-03     56.7108E-03    -3.60414E+06    -31.6396E+06     2.06066E+06     368.605E+03    -16.2107E-03     31.8757E-03    -15.6650E-03     54.8749E-03    -16.2144E-03     31.7483E-03    -15.6036E-03     54.8514E-03
              21     13.2916E-03     56.7663E-03    -3.84227E+06    -29.3220E+06    -6.94747E+06     273.351E+03    -16.4387E-03     32.0486E-03    -15.6099E-03     58.4951E-03    -16.4513E-03     31.9636E-03    -15.5966E-03     58.4624E-03
              22     14.1765E-03     56.8195E-03    -4.51626E+06    -5.12369E+06    -6.49473E+06    -8.87321E+03    -16.5078E-03     32.0845E-03    -15.5767E-03     62.3344E-03    -16.5879E-03     32.1492E-03    -15.5952E-03     62.2943E-03
              23     15.0633E-03     56.8817E-03    -4.74914E+06     36.7195E+06    -6.58256E+06    -228.907E+03    -17.0423E-03     32.5482E-03    -15.5059E-03     87.0125E-03    -17.3197E-03     32.9582E-03    -15.5852E-03     86.9870E-03
              24     15.9504E-03     56.9802E-03    -4.47328E+06     92.2644E+06    -12.4002E+06     104.190E+03    -18.6226E-03     33.9929E-03    -15.3703E-03     133.911E-03    -19.8366E-03     35.5545E-03    -15.5596E-03     134.258E-03
              25     16.8357E-03     57.1322E-03    -3.11890E+06     153.582E+06     37.2895E+06     451.413E+03    -19.1361E-03     34.6252E-03    -15.4892E-03     161.886E-03    -21.5993E-03     37.5145E-03    -15.5209E-03     163.674E-03
              26     17.7231E-03     58.2647E-03    -1.72776E+06     181.122E+06     87.2797E+06     93.4999E+03    -18.2295E-03     33.9126E-03    -15.6831E-03     160.767E-03    -21.0953E-03     37.1621E-03    -15.5068E-03     163.609E-03
              27     17.7242E-03     59.2361E-03    -3.32449E+06     179.764E+06     86.7524E+06    -1.22945E+06    -19.0538E-03     34.7120E-03    -15.6582E-03     158.505E-03    -21.8789E-03     37.9120E-03    -15.4803E-03     161.275E-03
              28     17.7231E-03     60.2172E-03    -2.63769E+06     180.557E+06     87.3003E+06     43.7216E+03    -20.2434E-03     35.8691E-03    -15.6257E-03     158.355E-03    -23.0695E-03     39.0739E-03    -15.4472E-03     161.090E-03
              29     17.7244E-03     61.2026E-03    -2.01921E+06     181.887E+06     87.3542E+06     654.946E+03    -18.9225E-03     34.5874E-03    -15.6648E-03     163.189E-03    -21.8466E-03     37.8969E-03    -15.4889E-03     166.048E-03
              30     17.7229E-03     62.1757E-03    -2.09430E+06     182.162E+06     87.1876E+06     412.568E+03    -17.8125E-03     33.5083E-03    -15.6958E-03     163.117E-03    -20.7344E-03     36.8167E-03    -15.5210E-03     166.024E-03
              31     17.7244E-03     63.1502E-03    -2.32692E+06     182.112E+06     86.8410E+06        1.65E+03    -18.7421E-03     34.4046E-03    -15.6625E-03     160.648E-03    -21.6129E-03     37.6620E-03    -15.4890E-03     163.475E-03
              32     17.7232E-03     64.1317E-03    -2.68442E+06     182.817E+06     88.2431E+06     6.04175E+03    -19.6434E-03     35.2907E-03    -15.6473E-03     161.702E-03    -22.5447E-03     38.5758E-03    -15.4673E-03     164.506E-03
              33     17.7240E-03     65.1122E-03    -1.46085E+06     184.528E+06     88.2283E+06     1.19689E+06    -18.8075E-03     34.4780E-03    -15.6705E-03     164.199E-03    -21.7588E-03     37.8235E-03    -15.4948E-03     167.084E-03
              34     17.7234E-03     66.0877E-03    -1.97500E+06     184.506E+06     87.5193E+06     431.120E+03    -18.4346E-03     34.1114E-03    -15.6769E-03     164.793E-03    -21.3928E-03     37.4639E-03    -15.5039E-03     167.694E-03
              35     17.7240E-03     67.0651E-03    -2.14872E+06     184.651E+06     88.6168E+06     317.228E+03    -18.6643E-03     34.3418E-03    -15.6775E-03     162.434E-03    -21.5763E-03     37.6448E-03    -15.4990E-03     165.294E-03
              36     17.7231E-03     68.0418E-03    -2.08381E+06     184.757E+06     88.2208E+06     156.219E+03    -18.4122E-03     34.0921E-03    -15.6799E-03     160.047E-03    -21.2760E-03     37.3486E-03    -15.5037E-03     162.879E-03
              37     17.7241E-03     69.0165E-03    -3.29756E+06     183.660E+06     87.3824E+06    -1.17431E+06    -19.3838E-03     35.0306E-03    -15.6468E-03     157.838E-03    -22.2073E-03     38.2410E-03    -15.4714E-03     160.592E-03
              38     17.7233E-03     69.9975E-03    -2.74796E+06     184.749E+06     88.9935E+06     32.4991E+03    -20.3106E-03     35.9425E-03    -15.6319E-03     159.053E-03    -23.1650E-03     39.1851E-03    -15.4508E-03     161.808E-03
              39     17.7239E-03     70.9826E-03    -864.990E+03     186.715E+06     88.6598E+06     1.11252E+06    -18.5296E-03     34.2063E-03    -15.6767E-03     162.902E-03    -21.4544E-03     37.5340E-03    -15.5029E-03     165.782E-03
              40     17.7235E-03     71.9539E-03    -2.86996E+06     184.930E+06     87.4586E+06    -588.028E+03    -18.2106E-03     33.8944E-03    -15.6838E-03     162.659E-03    -21.1347E-03     37.2112E-03    -15.5105E-03     165.541E-03
              41     17.7236E-03     72.9300E-03    -2.41063E+06     185.105E+06     87.9808E+06     104.611E+03    -19.7569E-03     35.3966E-03    -15.6396E-03     159.415E-03    -22.6176E-03     38.6507E-03    -15.4647E-03     162.199E-03
              42     17.7238E-03     73.9154E-03    -1.96806E+06     185.772E+06     87.6956E+06     440.148E+03    -19.5214E-03     35.1678E-03    -15.6464E-03     162.870E-03    -22.4530E-03     38.4975E-03    -15.4744E-03     165.700E-03
              43     17.7235E-03     74.8919E-03    -1.98607E+06     185.964E+06     87.7754E+06     277.848E+03    -18.3236E-03     34.0062E-03    -15.6827E-03     163.517E-03    -21.2656E-03     37.3469E-03    -15.5105E-03     166.411E-03
              44     17.7236E-03     75.8653E-03    -1.65264E+06     186.047E+06     87.3462E+06     523.471E+03    -18.4994E-03     34.1709E-03    -15.6716E-03     161.550E-03    -21.3951E-03     37.4680E-03    -15.5022E-03     164.416E-03
              45     17.7237E-03     76.8457E-03    -2.98088E+06     184.686E+06     86.6992E+06    -642.384E+03    -19.3571E-03     35.0006E-03    -15.6435E-03     159.360E-03    -22.2151E-03     38.2522E-03    -15.4735E-03     162.144E-03
              46     17.7236E-03     77.8215E-03    -2.12701E+06     185.449E+06     86.8001E+06    -48.1545E+03    -19.2110E-03     34.8543E-03    -15.6434E-03     159.709E-03    -22.0746E-03     38.1170E-03    -15.4752E-03     162.519E-03
              47     17.7239E-03     78.8048E-03    -1.81383E+06     185.933E+06     87.0567E+06     380.698E+03    -19.4438E-03     35.0877E-03    -15.6439E-03     163.425E-03    -22.3804E-03     38.4254E-03    -15.4756E-03     166.267E-03
              48     17.7234E-03     79.7821E-03    -2.74794E+06     185.053E+06     87.6871E+06    -435.534E+03    -19.5108E-03     35.1631E-03    -15.6524E-03     161.233E-03    -22.4161E-03     38.4614E-03    -15.4783E-03     164.044E-03
              49     17.7236E-03     80.7551E-03    -2.04369E+06     185.248E+06     86.3876E+06     219.043E+03    -19.3128E-03     34.9564E-03    -15.6436E-03     158.606E-03    -22.1653E-03     38.2088E-03    -15.4773E-03     161.422E-03
              50     17.7238E-03     81.7399E-03    -2.02909E+06     184.957E+06     85.5383E+06     82.6651E+03    -19.4987E-03     35.1320E-03    -15.6333E-03     161.453E-03    -22.3986E-03     38.4333E-03    -15.4709E-03     164.272E-03
              51     17.7235E-03     82.7178E-03    -2.03083E+06     184.677E+06     85.7305E+06    -227.146E+03    -18.8259E-03     34.4796E-03    -15.6537E-03     162.113E-03    -21.7394E-03     37.7928E-03    -15.4899E-03     164.964E-03
              52     17.7238E-03     83.6917E-03    -2.13430E+06     183.959E+06     84.4805E+06    -134.242E+03    -18.9235E-03     34.5622E-03    -15.6387E-03     160.672E-03    -21.8064E-03     37.8456E-03    -15.4800E-03     163.512E-03
              53     17.7239E-03     84.6726E-03    -2.34712E+06     183.095E+06     83.5389E+06    -383.752E+03    -19.5035E-03     35.1152E-03    -15.6117E-03     159.654E-03    -22.3613E-03     38.3724E-03    -15.4561E-03     162.444E-03
              54     17.7240E-03     85.6507E-03    -1.80233E+06     183.422E+06     83.1987E+06     212.128E+03    -18.9504E-03     34.5702E-03    -15.6198E-03     160.472E-03    -21.8226E-03     37.8459E-03    -15.4672E-03     163.305E-03
              55     17.7241E-03     86.6290E-03    -2.17023E+06     183.904E+06     82.8434E+06     362.973E+03    -19.3255E-03     34.9302E-03    -15.6047E-03     162.160E-03    -22.2351E-03     38.2447E-03    -15.4540E-03     164.996E-03
              56     17.7242E-03     87.6083E-03    -2.59163E+06     185.054E+06     83.9008E+06     561.549E+03    -20.3939E-03     35.9726E-03    -15.5787E-03     163.370E-03    -23.3377E-03     39.3208E-03    -15.4238E-03     166.180E-03
              57     17.7241E-03     88.5904E-03    -1.70273E+06     186.687E+06     84.2568E+06     1.04344E+06    -19.6890E-03     35.2811E-03    -15.5921E-03     163.817E-03    -22.6461E-03     38.6506E-03    -15.4391E-03     166.674E-03
              58     17.7244E-03     89.5651E-03    -1.92766E+06     186.456E+06     81.3545E+06     9.73391E+03    -18.2553E-03     33.8509E-03    -15.5955E-03     160.255E-03    -21.1336E-03     37.1484E-03    -15.4563E-03     163.125E-03
              59     17.7249E-03     90.5364E-03    -2.45297E+06     185.689E+06     79.9197E+06    -408.921E+03    -19.2443E-03     34.7829E-03    -15.5386E-03     157.584E-03    -22.0618E-03     38.0192E-03    -15.4047E-03     160.381E-03
              60     17.7252E-03     91.5239E-03    -2.04084E+06     186.212E+06     81.1332E+06     330.038E+03    -20.4498E-03     35.9527E-03    -15.5029E-03     161.551E-03    -23.3503E-03     39.2718E-03    -15.3643E-03     164.334E-03
              61     17.7253E-03     92.5049E-03    -1.95749E+06     185.909E+06     81.0989E+06    -250.706E+03    -19.1308E-03     34.6567E-03    -15.5259E-03     162.951E-03    -22.0630E-03     38.0069E-03    -15.3872E-03     165.799E-03
              62     17.7257E-03     93.4730E-03    -2.52417E+06     184.269E+06     79.5647E+06    -774.179E+03    -19.2272E-03     34.7165E-03    -15.4893E-03     158.943E-03    -22.0764E-03     37.9803E-03    -15.3550E-03     161.752E-03
              63     17.7263E-03     94.4569E-03    -2.21643E+06     183.463E+06     79.5486E+06    -217.592E+03    -21.0334E-03     36.4505E-03    -15.4172E-03     159.109E-03    -23.8819E-03     39.7119E-03    -15.2822E-03     161.835E-03
              64     17.7265E-03     95.4409E-03    -1.72606E+06     182.539E+06     78.3889E+06    -457.870E+03    -20.3213E-03     35.7279E-03    -15.4066E-03     160.414E-03    -23.2014E-03     39.0226E-03    -15.2768E-03     163.186E-03
              65     17.7273E-03     96.4126E-03    -1.75172E+06     180.646E+06     76.8318E+06    -777.867E+03    -20.0841E-03     35.4610E-03    -15.3770E-03     160.527E-03    -22.9667E-03     38.7560E-03    -15.2522E-03     163.330E-03
              66     17.7277E-03     97.3979E-03    -2.30178E+06     178.600E+06     79.1006E+06    -502.097E+03    -21.7031E-03     37.0347E-03    -15.3316E-03     162.733E-03    -24.6300E-03     40.3582E-03    -15.1917E-03     165.471E-03
              67     17.7276E-03     98.3810E-03    -2.01243E+06     176.024E+06     78.8849E+06    -986.799E+03    -21.0755E-03     36.4060E-03    -15.3305E-03     162.113E-03    -23.9836E-03     39.7031E-03    -15.1884E-03     164.846E-03
              68     17.7286E-03     99.3505E-03    -3.35905E+06     171.940E+06     79.3350E+06    -2.19500E+06    -22.2577E-03     37.5399E-03    -15.2822E-03     158.666E-03    -25.0887E-03     40.7395E-03    -15.1300E-03     161.297E-03
              69     17.7283E-03     100.339E-03    -2.79188E+06     169.188E+06     84.5669E+06    -1.29339E+06    -25.2629E-03     40.4828E-03    -15.2199E-03     157.543E-03    -28.0721E-03     43.6379E-03    -15.0384E-03     160.009E-03
              70     17.7288E-03     101.326E-03    -2.74298E+06     165.638E+06     85.3733E+06    -2.39739E+06    -24.8901E-03     40.1126E-03    -15.2225E-03     157.131E-03    -27.6902E-03     43.2433E-03    -15.0318E-03     159.568E-03
              71     17.7292E-03     102.299E-03    -3.13997E+06     160.331E+06     86.1298E+06    -3.07119E+06    -26.7767E-03     41.9371E-03    -15.1604E-03     155.833E-03    -29.5424E-03     45.0113E-03    -14.9577E-03     158.171E-03
              72     17.7297E-03     103.296E-03    -1.55207E+06     158.426E+06     89.3925E+06    -326.342E+03    -29.4426E-03     44.5313E-03    -15.0887E-03     160.238E-03    -32.2848E-03     47.6720E-03    -14.8692E-03     162.503E-03
              73     17.7303E-03     104.292E-03    -848.999E+03     154.531E+06     91.3276E+06    -428.101E+03    -28.9254E-03     44.0247E-03    -15.0993E-03     170.356E-03    -31.9536E-03     47.3339E-03    -14.8655E-03     172.687E-03
              74     17.7310E-03     105.271E-03    -3.56275E+06     148.516E+06     94.2040E+06    -2.96486E+06    -31.2686E-03     46.3008E-03    -15.0322E-03     171.883E-03    -34.3052E-03     49.5789E-03    -14.7714E-03     174.025E-03
              75     17.7316E-03     106.265E-03    -2.80569E+06     141.728E+06     96.0937E+06    -3.83797E+06    -35.7333E-03     50.6237E-03    -14.8903E-03     171.458E-03    -38.6917E-03     53.7971E-03    -14.6113E-03     173.251E-03
              76     17.7330E-03     107.264E-03    -2.54308E+06     132.619E+06     95.5976E+06    -4.42189E+06    -39.1106E-03     53.8912E-03    -14.7806E-03     179.311E-03    -42.1299E-03     57.0959E-03    -14.4913E-03     180.835E-03
              77     17.7333E-03     108.266E-03    -737.114E+03     122.137E+06     82.5754E+06    -5.42736E+06    -39.3405E-03     54.0054E-03    -14.6649E-03     183.773E-03    -42.2920E-03     57.1485E-03    -14.4281E-03     185.090E-03
              78     17.7361E-03     109.255E-03     2.14661E+06     107.738E+06     66.6537E+06    -6.90883E+06    -39.6831E-03     54.2112E-03    -14.5281E-03     188.426E-03    -42.4778E-03     57.2032E-03    -14.3542E-03     189.442E-03
              79     17.7357E-03     110.260E-03    -19.3678E+06     78.3540E+06     29.1425E+06    -18.3444E+06    -36.7812E-03     51.2062E-03    -14.4251E-03     190.070E-03    -39.2061E-03     53.7575E-03    -14.3649E-03     190.612E-03
              80     17.7388E-03     111.243E-03     4.60192E+06     36.6818E+06     7.46715E+06    -21.4042E+06    -19.8072E-03     34.4914E-03    -14.6842E-03     179.725E-03    -21.1390E-03     35.9504E-03    -14.7068E-03     180.017E-03
              81     17.7391E-03     112.186E-03     14.6942E+06     10.0900E+06     11.1186E+06    -9.42965E+06     1.59161E-03     14.2327E-03    -15.8244E-03     135.137E-03     1.23315E-03     14.6508E-03    -15.8047E-03     135.266E-03
              82     17.6923E-03     113.118E-03    -7.26524E+06    -3.83569E+06     13.2584E+06     919.582E+03     10.9996E-03     8.40762E-03    -19.4072E-03     50.2332E-03     10.9250E-03     8.39810E-03    -19.3248E-03     50.2599E-03
              83     16.6550E-03     113.935E-03     1.48473E+06     9.01357E+06     43.2225E+06     1.48369E+06     8.02764E-03     14.7403E-03    -22.7680E-03     10.8699E-03     7.95695E-03     14.7183E-03    -22.5671E-03     10.8889E-03
              84     15.7538E-03     113.810E-03    -2.91076E+06     5.99134E+06     55.9234E+06    -2.58730E+06    -7.11763E-03     30.7089E-03    -23.5913E-03     19.2928E-03    -7.22600E-03     30.6604E-03    -23.3162E-03     19.2541E-03
              85     14.8904E-03     113.672E-03    -6.05666E+06    -5.31689E+06     37.5974E+06    -4.52508E+06    -20.4306E-03     44.0127E-03    -23.5821E-03     13.7326E-03    -20.5174E-03     43.9340E-03    -23.3776E-03     13.6635E-03
              86     14.0251E-03     113.563E-03    -1.66469E+06    -2.71381E+06     38.0079E+06    -5.24464E+06    -22.1396E-03     45.4462E-03    -23.3066E-03     5.25516E-03    -22.2057E-03     45.3752E-03    -23.1102E-03     5.17716E-03
              87     13.1567E-03     113.475E-03     3.61901E+06    -675.725E+03     51.4838E+06    -3.71909E+06    -23.5980E-03     46.6802E-03    -23.0822E-03     1.70448E-03    -23.6573E-03     46.5941E-03    -22.8290E-03     1.64681E-03
              88     12.2846E-03     113.403E-03     7.65961E+06     549.432E+03     49.7740E+06    -3.99186E+06    -26.1234E-03     48.8081E-03    -22.6847E-03    -14.5722E-06    -26.1608E-03     48.7255E-03    -22.4477E-03    -75.7944E-06
              89     11.4170E-03     113.337E-03     12.0489E+06    -2.80033E+06     47.8327E+06    -2.88942E+06    -27.1201E-03     49.2812E-03    -22.1611E-03    -652.463E-06    -27.1276E-03     49.1783E-03    -21.9354E-03    -698.925E-06
              90     10.5457E-03     113.281E-03     14.6476E+06     574.668E+03     48.2639E+06    -1.71029E+06    -26.5730E-03     48.1661E-03    -21.5931E-03    -758.609E-06    -26.5724E-03     48.0762E-03    -21.3739E-03    -788.641E-06
              91     9.67441E-03     113.232E-03     15.9834E+06    -829.578E+03     47.3940E+06    -1.55121E+06    -25.4002E-03     46.4493E-03    -21.0490E-03    -793.054E-06    -25.3895E-03     46.3518E-03    -20.8340E-03    -819.677E-06
              92     8.80019E-03     113.191E-03     16.7066E+06      42.627E+03     45.3522E+06    -1.18796E+06    -23.8780E-03     44.4398E-03    -20.5618E-03    -519.621E-06    -23.8616E-03     44.3490E-03    -20.3593E-03    -540.087E-06
              93     7.92432E-03     113.155E-03     16.9296E+06    -240.181E+03     42.4261E+06    -1.23669E+06    -22.6818E-03     42.8299E-03    -20.1481E-03    -320.774E-06    -22.6593E-03     42.7418E-03    -19.9602E-03    -340.771E-06
              94     7.04653E-03     113.125E-03     17.0279E+06     177.045E+03     39.7391E+06    -1.34503E+06    -21.7055E-03     41.5005E-03    -19.7950E-03    -182.513E-06    -21.6790E-03     41.4183E-03    -19.6213E-03    -203.087E-06
              95     6.16809E-03     113.099E-03     17.3160E+06    -213.546E+03     35.9315E+06    -1.41809E+06    -20.8348E-03     40.3285E-03    -19.4937E-03    -75.4843E-06    -20.8008E-03     40.2495E-03    -19.3388E-03    -96.3401E-06
              96     5.28821E-03     113.078E-03     17.7227E+06     115.124E+03     32.3628E+06    -1.42096E+06    -20.1350E-03     39.3832E-03    -19.2481E-03    -22.0517E-06    -20.0941E-03     39.3105E-03    -19.1122E-03    -42.4139E-06
              97     4.40788E-03     113.060E-03     18.3678E+06    -163.177E+03     29.1297E+06    -1.51742E+06    -19.5944E-03     38.6505E-03    -19.0561E-03    -12.7841E-06    -19.5452E-03     38.5803E-03    -18.9369E-03    -33.9546E-06
              98     3.52677E-03     113.045E-03     19.2369E+06    -341.030E+03     25.5170E+06    -1.29619E+06    -19.1950E-03     38.1045E-03    -18.9094E-03    -23.8700E-06    -19.1359E-03     38.0374E-03    -18.8092E-03    -41.8030E-06
              99     2.64534E-03     113.034E-03     19.9480E+06    -234.550E+03     23.5672E+06    -944.035E+03    -18.9404E-03     37.7527E-03    -18.8123E-03    -70.6409E-06    -18.8750E-03     37.6879E-03    -18.7230E-03    -83.6980E-06
             100     1.76360E-03     113.026E-03     20.4613E+06    -115.383E+03     21.5492E+06    -829.984E+03    -18.7816E-03     37.5333E-03    -18.7517E-03    -128.253E-06    -18.7109E-03     37.4713E-03    -18.6734E-03    -139.538E-06
             101     881.663E-06     113.021E-03     20.6702E+06    -534.663E+03     20.7059E+06    -969.128E+03    -18.6028E-03     37.4548E-03    -18.8520E-03    -221.335E-06    -18.5292E-03     37.3916E-03    -18.7776E-03    -234.126E-06
             102     73.8483E-09     112.035E-03     18.6599E+06    -1.38900E+06     17.3979E+06    -546.146E+03    -17.0876E-03     34.3393E-03    -17.2518E-03     277.502E-06    -17.0178E-03     34.2798E-03    -17.1898E-03     270.252E-06
             103     56.8823E-09     111.057E-03     12.6589E+06    -3.07496E+06     13.0783E+06    -119.910E+03    -14.6073E-03     29.1482E-03    -14.5409E-03     914.900E-06    -14.5586E-03     29.0954E-03    -14.4894E-03     913.078E-06
             104    -63.8985E-09     110.082E-03     7.09262E+06    -6.15361E+06     7.91103E+06    -1.50841E+06    -12.8084E-03     25.5945E-03    -12.7861E-03     1.17434E-03    -12.7755E-03     25.5419E-03    -12.7479E-03     1.15460E-03
             105     120.208E-09     109.111E-03    -1.92920E+06    -11.0720E+06    -2.33327E+06    -1.88312E+06    -11.6028E-03     23.1346E-03    -11.5318E-03     1.50747E-03    -11.5930E-03     23.0855E-03    -11.5246E-03     1.48294E-03
             106    -55.4714E-09     108.142E-03    -15.8176E+06    -17.1662E+06    -15.2239E+06    -1.83132E+06    -10.8255E-03     21.6256E-03    -10.8001E-03     1.75786E-03    -10.8576E-03     21.5848E-03    -10.8284E-03     1.73405E-03
             107     41.4734E-09     107.173E-03    -31.4080E+06    -24.2154E+06    -31.3212E+06    -2.55607E+06    -10.4581E-03     20.9219E-03    -10.4639E-03     1.93697E-03    -10.5346E-03     20.8919E-03    -10.5398E-03     1.90387E-03
             108    -38.4791E-09     106.205E-03    -50.3390E+06    -32.3538E+06    -50.1538E+06    -2.68604E+06    -10.4086E-03     20.8215E-03    -10.4128E-03     2.08325E-03    -10.5406E-03     20.8055E-03    -10.5437E-03     2.04850E-03
             109     28.0910E-09     105.237E-03    -70.4847E+06    -41.2801E+06    -70.7623E+06    -2.71705E+06    -10.5758E-03     21.1683E-03    -10.5925E-03     2.19296E-03    -10.7657E-03     21.1668E-03    -10.7843E-03     2.15784E-03
             110    -52.7552E-09     104.268E-03    -75.3234E+06    -48.5209E+06    -75.7159E+06    -1.67930E+06    -10.9522E-03     21.9159E-03    -10.9637E-03     2.24982E-03    -11.1486E-03     21.8923E-03    -11.1627E-03     2.22810E-03
             111     50.1696E-09     103.298E-03    -61.6601E+06    -51.1320E+06    -62.2423E+06     24.9846E+03    -11.4734E-03     22.9385E-03    -11.4651E-03     2.27100E-03    -11.6173E-03     22.8625E-03    -11.6127E-03     2.27128E-03
             112    -41.6441E-09     102.328E-03    -47.1947E+06    -48.0451E+06    -47.6450E+06     1.76267E+06    -12.0047E-03     24.0321E-03    -12.0274E-03     2.26402E-03    -12.1019E-03     23.9295E-03    -12.1276E-03     2.28671E-03
             113    -14.7853E-09     101.356E-03    -37.5473E+06    -40.5620E+06    -37.6812E+06     2.70211E+06    -12.5201E-03     25.0951E-03    -12.5750E-03     2.22820E-03    -12.5944E-03     25.0015E-03    -12.6502E-03     2.26299E-03
             114    -30.1798E-09     100.383E-03    -31.9109E+06    -31.7286E+06    -31.7516E+06     2.60769E+06    -13.0294E-03     26.0773E-03    -13.0479E-03     2.20699E-03    -13.0969E-03     26.0110E-03    -13.1144E-03     2.24054E-03
             115     41.8597E-09     99.4093E-03    -27.9591E+06    -23.9366E+06    -27.7969E+06     2.06963E+06    -13.4817E-03     26.9500E-03    -13.4683E-03     2.21893E-03    -13.5464E-03     26.9112E-03    -13.5321E-03     2.24551E-03
             116    -30.2695E-09     98.4348E-03    -24.6881E+06    -17.8653E+06    -24.5483E+06     1.53838E+06    -13.8604E-03     27.7040E-03    -13.8436E-03     2.20505E-03    -13.9223E-03     27.6861E-03    -13.9047E-03     2.22474E-03
             117     47.8422E-09     97.4595E-03    -20.9965E+06    -13.6884E+06    -20.7372E+06     818.589E+03    -14.1957E-03     28.3562E-03    -14.1605E-03     2.17363E-03    -14.2507E-03     28.3484E-03    -14.2139E-03     2.18400E-03
             118    -2.22842E-09     96.4837E-03    -17.2090E+06    -12.3480E+06    -16.9381E+06    -79.0982E+03    -14.4735E-03     28.9188E-03    -14.4453E-03     2.15639E-03    -14.5171E-03     28.9066E-03    -14.4871E-03     2.15517E-03
             119     7.63950E-09     95.5073E-03    -14.5930E+06    -13.5316E+06    -14.4746E+06    -714.168E+03    -14.6815E-03     29.3795E-03    -14.6980E-03     2.14816E-03    -14.7138E-03     29.3541E-03    -14.7296E-03     2.13871E-03
             120    -43.1869E-09     94.5306E-03    -12.6762E+06    -15.8393E+06    -12.8113E+06    -761.157E+03    -14.8435E-03     29.7393E-03    -14.8958E-03     2.13840E-03    -14.8653E-03     29.6971E-03    -14.9185E-03     2.12833E-03
             121    -17.6462E-09     93.5535E-03    -11.5339E+06    -18.3032E+06    -11.3858E+06    -845.937E+03    -15.0028E-03     30.0353E-03    -15.0326E-03     2.10982E-03    -15.0174E-03     29.9771E-03    -15.0462E-03     2.09865E-03
             122     25.3029E-09     92.5764E-03    -11.4126E+06    -21.6336E+06    -11.3842E+06    -1.21963E+06    -15.1275E-03     30.2703E-03    -15.1429E-03     2.09698E-03    -15.1366E-03     30.1953E-03    -15.1519E-03     2.08097E-03
             123    -61.9629E-09     91.5989E-03    -12.0589E+06    -25.4577E+06    -12.1285E+06    -1.18802E+06    -15.1936E-03     30.4437E-03    -15.2500E-03     2.10184E-03    -15.1994E-03     30.3515E-03    -15.2563E-03     2.08623E-03
             124    -4.15967E-09     90.6213E-03    -13.2152E+06    -29.1775E+06    -13.2021E+06    -1.15546E+06    -15.2773E-03     30.5710E-03    -15.2937E-03     2.10542E-03    -15.2819E-03     30.4635E-03    -15.2983E-03     2.09022E-03
             125     39.2128E-09     89.6436E-03    -14.3921E+06    -32.7760E+06    -14.4412E+06    -1.04809E+06    -15.3597E-03     30.6558E-03    -15.2962E-03     2.12035E-03    -15.3631E-03     30.5338E-03    -15.3000E-03     2.10652E-03
             126     35.6119E-09     88.6660E-03    -15.7169E+06    -36.1700E+06    -15.6538E+06    -1.04936E+06    -15.3706E-03     30.7139E-03    -15.3433E-03     2.11388E-03    -15.3740E-03     30.5786E-03    -15.3463E-03     2.10003E-03
             127    -63.4565E-09     87.6882E-03    -16.9607E+06    -39.3311E+06    -17.1065E+06    -951.081E+03    -15.3574E-03     30.7624E-03    -15.4050E-03     2.09699E-03    -15.3603E-03     30.6152E-03    -15.4089E-03     2.08441E-03
             128     3.21974E-09     86.7105E-03    -18.2759E+06    -42.1930E+06    -18.1773E+06    -877.050E+03    -15.3957E-03     30.8087E-03    -15.4129E-03     2.08612E-03    -15.3995E-03     30.6506E-03    -15.4162E-03     2.07449E-03
             129     25.6092E-09     85.7326E-03    -18.9508E+06    -44.9094E+06    -19.0689E+06    -845.771E+03    -15.4299E-03     30.8344E-03    -15.4045E-03     2.08582E-03    -15.4319E-03     30.6651E-03    -15.4073E-03     2.07460E-03
             130    -12.7427E-09     84.7549E-03    -19.7602E+06    -47.4244E+06    -19.6991E+06    -746.072E+03    -15.4183E-03     30.8513E-03    -15.4329E-03     2.07649E-03    -15.4198E-03     30.6714E-03    -15.4340E-03     2.06655E-03
             131    -27.2527E-09     83.7770E-03    -20.3973E+06    -49.7547E+06    -20.4748E+06    -717.324E+03    -15.4075E-03     30.8756E-03    -15.4681E-03     2.08954E-03    -15.4076E-03     30.6862E-03    -15.4688E-03     2.07998E-03
             132    -43.0666E-09     82.7992E-03    -20.8349E+06    -51.7765E+06    -20.8618E+06    -605.283E+03    -15.4057E-03     30.8933E-03    -15.4875E-03     2.10417E-03    -15.4045E-03     30.6949E-03    -15.4866E-03     2.09604E-03
             133    -33.9960E-09     81.8213E-03    -21.1011E+06    -53.7059E+06    -21.0793E+06    -614.654E+03    -15.4581E-03     30.9188E-03    -15.4607E-03     2.08601E-03    -15.4552E-03     30.7115E-03    -15.4576E-03     2.07776E-03
             134     104.748E-09     80.8435E-03    -21.2136E+06    -55.4502E+06    -21.2849E+06    -520.224E+03    -15.5085E-03     30.9522E-03    -15.4437E-03     2.10609E-03    -15.5033E-03     30.7367E-03    -15.4390E-03     2.09906E-03
             135    -63.4114E-09     79.8656E-03    -21.3639E+06    -57.0074E+06    -21.3171E+06    -487.875E+03    -15.4891E-03     30.9766E-03    -15.4874E-03     2.11195E-03    -15.4824E-03     30.7535E-03    -15.4804E-03     2.10534E-03
             136     23.5704E-09     78.8877E-03    -21.2842E+06    -58.4375E+06    -21.3607E+06    -424.976E+03    -15.4859E-03     30.9971E-03    -15.5112E-03     2.10320E-03    -15.4766E-03     30.7668E-03    -15.5024E-03     2.09740E-03
             137    -31.6174E-09     77.9097E-03    -21.3393E+06    -59.6251E+06    -21.3119E+06    -323.567E+03    -15.4962E-03     31.0199E-03    -15.5236E-03     2.10203E-03    -15.4855E-03     30.7836E-03    -15.5128E-03     2.09754E-03
             138    -10.6580E-09     76.9319E-03    -21.2642E+06    -60.6175E+06    -21.2743E+06    -322.147E+03    -15.5192E-03     31.0585E-03    -15.5393E-03     2.08733E-03    -15.5068E-03     30.8172E-03    -15.5270E-03     2.08287E-03
             139     15.1595E-09     75.9538E-03    -21.1651E+06    -61.5430E+06    -21.1647E+06    -286.697E+03    -15.5502E-03     31.0867E-03    -15.5365E-03     2.09351E-03    -15.5361E-03     30.8405E-03    -15.5224E-03     2.08950E-03
             140     2.62053E-09     74.9760E-03    -21.0953E+06    -62.3878E+06    -21.1099E+06    -280.540E+03    -15.5693E-03     31.1117E-03    -15.5424E-03     2.09240E-03    -15.5537E-03     30.8610E-03    -15.5269E-03     2.08846E-03
             141     24.9901E-09     73.9979E-03    -21.0067E+06    -63.0720E+06    -21.0192E+06    -211.316E+03    -15.6035E-03     31.1523E-03    -15.5488E-03     2.09021E-03    -15.5866E-03     30.8979E-03    -15.5319E-03     2.08717E-03
             142     42.3173E-09     73.0198E-03      -20.91E+06    -63.8498E+06    -20.8175E+06    -290.570E+03    -15.5921E-03     31.1677E-03    -15.5756E-03     2.10432E-03    -15.5739E-03     30.9090E-03    -15.5568E-03     2.10025E-03
             143    -81.3468E-09     72.0418E-03    -20.4831E+06    -64.4737E+06    -20.6625E+06    -164.643E+03    -15.5793E-03     31.1914E-03    -15.6121E-03     2.05656E-03    -15.5582E-03     30.9287E-03    -15.5923E-03     2.05414E-03
             144     58.1125E-09     71.0638E-03    -20.5573E+06    -64.7824E+06    -20.4448E+06    -112.205E+03    -15.6207E-03     31.2428E-03    -15.6221E-03     2.03944E-03    -15.5999E-03     30.9784E-03    -15.6006E-03     2.03770E-03
             145    -37.9776E-09     70.0856E-03    -20.3440E+06    -65.2992E+06    -20.3967E+06    -224.536E+03    -15.6349E-03     31.2773E-03    -15.6424E-03     2.09800E-03    -15.6123E-03     31.0099E-03    -15.6202E-03     2.09479E-03
             146     1.83868E-09     69.1074E-03    -20.1097E+06    -65.6003E+06    -20.1691E+06    -39.9026E+03    -15.6285E-03     31.2942E-03    -15.6657E-03     2.13005E-03    -15.6047E-03     31.0247E-03    -15.6423E-03     2.12921E-03
             147    -34.4648E-09     68.1292E-03    -20.0288E+06    -65.8370E+06    -19.9152E+06    -96.0682E+03    -15.6602E-03     31.3169E-03    -15.6567E-03     2.13731E-03    -15.6360E-03     31.0457E-03    -15.6318E-03     2.13575E-03
             148     72.5168E-09     67.1510E-03    -19.7124E+06    -66.0237E+06    -19.8375E+06    -15.8088E+03    -15.6974E-03     31.3420E-03    -15.6446E-03     2.16606E-03    -15.6715E-03     31.0693E-03    -15.6195E-03     2.16553E-03
             149    -20.5222E-09     66.1728E-03    -19.8693E+06    -66.1918E+06    -19.6954E+06    -39.2234E+03    -15.6896E-03     31.3519E-03    -15.6623E-03     2.18567E-03    -15.6644E-03     31.0784E-03    -15.6360E-03     2.18483E-03
             150     16.6481E-09     65.1946E-03    -19.4999E+06    -66.4495E+06    -19.6401E+06    -88.3316E+03    -15.6471E-03     31.3471E-03    -15.6999E-03     2.15951E-03    -15.6198E-03     31.0716E-03    -15.6735E-03     2.15804E-03
             151    -110.086E-09     64.2165E-03    -19.4808E+06    -66.4494E+06    -19.4377E+06     34.3964E+03    -15.6624E-03     31.3610E-03    -15.6986E-03     2.06688E-03    -15.6353E-03     31.0853E-03    -15.6712E-03     2.06702E-03
             152     137.996E-09     63.2382E-03    -19.3980E+06    -66.4397E+06    -19.3916E+06    -85.4189E+03    -15.7092E-03     31.3944E-03    -15.6852E-03     2.04079E-03    -15.6817E-03     31.1185E-03    -15.6577E-03     2.03940E-03
             153    -125.160E-09     62.2600E-03    -19.4635E+06    -66.5078E+06    -19.5107E+06         389.617    -15.6848E-03     31.4046E-03    -15.7197E-03     2.06491E-03    -15.6574E-03     31.1286E-03    -15.6926E-03     2.06461E-03
             154     47.9983E-09     61.2816E-03    -19.3978E+06    -66.4742E+06    -19.3270E+06    -60.5538E+03    -15.6838E-03     31.4008E-03    -15.7170E-03     2.06078E-03    -15.6563E-03     31.1246E-03    -15.6891E-03     2.05970E-03
             155    -30.8661E-09     60.3035E-03    -19.1722E+06    -66.5428E+06    -19.2764E+06    -3.59798E+03    -15.7278E-03     31.4118E-03    -15.6839E-03     2.06318E-03    -15.6992E-03     31.1349E-03    -15.6560E-03     2.06283E-03
             156     88.3258E-09     59.3252E-03    -19.1695E+06    -66.4605E+06    -19.0420E+06     1.92791E+03    -15.7221E-03     31.4220E-03    -15.6999E-03     2.05012E-03    -15.6940E-03     31.1451E-03    -15.6709E-03     2.04985E-03
             157    -106.860E-09     58.3470E-03    -18.8662E+06    -66.4082E+06    -19.0089E+06     20.2617E+03    -15.6823E-03     31.4177E-03    -15.7354E-03     2.05674E-03    -15.6527E-03     31.1407E-03    -15.7068E-03     2.05670E-03
             158     27.6044E-09     57.3686E-03    -19.0731E+06    -66.1942E+06    -18.9539E+06     47.0757E+03    -15.6910E-03     31.4183E-03    -15.7273E-03     2.07485E-03    -15.6629E-03     31.1425E-03    -15.6984E-03     2.07515E-03
             159     6.14832E-09     55.4120E-03    -18.8597E+06    -65.9073E+06    -18.8348E+06     99.4881E+03    -15.7000E-03     31.3785E-03    -15.6785E-03     2.06632E-03    -15.6714E-03     31.1037E-03    -15.6498E-03     2.06729E-03
             160     37.2978E-09     54.4340E-03    -18.9643E+06    -65.7936E+06    -18.9061E+06    -52.6836E+03    -15.6972E-03     31.3507E-03    -15.6535E-03     2.01237E-03    -15.6692E-03     31.0767E-03    -15.6251E-03     2.01140E-03
             161    -4.39148E-09     53.4557E-03    -18.8863E+06    -65.7516E+06    -18.9552E+06     12.5478E+03    -15.6704E-03     31.3382E-03    -15.6678E-03     2.00576E-03    -15.6420E-03     31.0644E-03    -15.6399E-03     2.00563E-03
             162    -26.4907E-09     52.4777E-03    -19.1470E+06    -65.6212E+06    -19.0947E+06     3.52206E+03    -15.6357E-03     31.3263E-03    -15.6907E-03     2.04805E-03    -15.6086E-03     31.0537E-03    -15.6632E-03     2.04780E-03
             163    -41.3919E-09     51.4992E-03    -19.0558E+06    -65.6429E+06    -19.0871E+06    -12.3493E+03    -15.6249E-03     31.2737E-03    -15.6488E-03     2.06701E-03    -15.5973E-03     31.0009E-03    -15.6214E-03     2.06654E-03
             164     64.6450E-09     50.5214E-03    -18.9492E+06     -65.524E+06    -19.0061E+06     53.0969E+03    -15.6024E-03     31.2249E-03    -15.6224E-03     2.08803E-03    -15.5746E-03     30.9523E-03    -15.5950E-03     2.08840E-03
             165    -126.032E-09     49.5430E-03    -18.9818E+06    -65.2124E+06    -19.0121E+06     64.2390E+03    -15.5349E-03     31.1831E-03    -15.6483E-03     2.05236E-03    -15.5077E-03     30.9122E-03    -15.6212E-03     2.05288E-03
             166    -15.7779E-09     48.5654E-03    -18.8428E+06    -65.0045E+06    -18.8899E+06     27.9766E+03    -15.5026E-03     31.1322E-03    -15.6296E-03     2.00395E-03    -15.4752E-03     30.8620E-03    -15.6024E-03     2.00402E-03
             167    -69.7269E-09     47.5871E-03    -18.8449E+06    -64.7103E+06    -18.9059E+06     47.3151E+03    -15.5263E-03     31.0782E-03    -15.5519E-03     1.97987E-03    -15.4993E-03     30.8094E-03    -15.5252E-03     1.98020E-03
             168     107.441E-09     46.6095E-03    -19.2105E+06    -64.6252E+06    -19.1656E+06    -22.0450E+03    -15.5186E-03     31.0141E-03    -15.4955E-03     2.02575E-03    -15.4932E-03     30.7467E-03    -15.4697E-03     2.02516E-03
             169    -105.450E-09     45.6313E-03    -19.0529E+06    -64.5011E+06    -19.1532E+06     51.3104E+03    -15.4524E-03     30.9452E-03    -15.4928E-03     2.09256E-03    -15.4264E-03     30.6782E-03    -15.4674E-03     2.09290E-03
             170     28.7357E-09     44.6537E-03    -19.1521E+06    -64.3376E+06    -19.1247E+06     65.2300E+03    -15.4062E-03     30.8353E-03    -15.4291E-03     2.07126E-03    -15.3809E-03     30.5692E-03    -15.4037E-03     2.07180E-03
             171     5.72282E-09     43.6759E-03    -18.9920E+06    -64.1955E+06    -19.0904E+06     28.2691E+03    -15.3529E-03     30.7211E-03    -15.3682E-03     2.03517E-03    -15.3271E-03     30.4554E-03    -15.3430E-03     2.03523E-03
             172    -70.3897E-09     42.6987E-03    -19.0061E+06    -63.9651E+06    -19.0024E+06     6.92102E+03    -15.2715E-03     30.6313E-03    -15.3598E-03     1.93777E-03    -15.2462E-03     30.3667E-03    -15.3345E-03     1.93758E-03
             173    -23.3125E-09     41.7209E-03    -19.2422E+06    -63.8509E+06    -19.2901E+06     42.9553E+03    -15.2321E-03     30.5156E-03    -15.2835E-03     1.90908E-03    -15.2077E-03     30.2523E-03    -15.2595E-03     1.90937E-03
             174     23.6399E-09     40.7439E-03    -19.4837E+06    -63.6344E+06    -19.4349E+06     104.432E+03    -15.1858E-03     30.3792E-03    -15.1934E-03     1.91248E-03    -15.1628E-03     30.1175E-03    -15.1700E-03     1.91356E-03
             175    -38.4752E-09     39.7664E-03    -19.3930E+06    -63.2409E+06    -19.3976E+06     59.5584E+03    -15.1095E-03     30.2272E-03    -15.1177E-03     1.89323E-03    -15.0866E-03     29.9673E-03    -15.0949E-03     1.89373E-03
             176     36.9346E-09     38.7896E-03    -19.3327E+06    -62.9429E+06    -19.3897E+06     58.1142E+03    -15.0028E-03     30.0325E-03    -15.0298E-03     1.87405E-03    -14.9800E-03     29.7740E-03    -15.0074E-03     1.87453E-03
             177    -85.6100E-09     37.8125E-03    -19.3727E+06    -62.7380E+06    -19.4215E+06     11.6829E+03    -14.9004E-03     29.8246E-03    -14.9242E-03     1.75811E-03    -14.8781E-03     29.5672E-03    -14.9023E-03     1.75802E-03
             178     89.9828E-09     36.8364E-03    -19.6113E+06    -62.5908E+06    -19.6404E+06     35.1257E+03    -14.8184E-03     29.6345E-03    -14.8161E-03     1.69083E-03    -14.7972E-03     29.3785E-03    -14.7951E-03     1.69106E-03
             179    -91.9284E-09     35.8594E-03    -19.7198E+06    -62.3164E+06    -19.6542E+06     45.8644E+03    -14.6908E-03     29.3973E-03    -14.7065E-03     1.71375E-03    -14.6706E-03     29.1429E-03    -14.6858E-03     1.71411E-03
             180     65.4384E-09     34.8836E-03    -19.5923E+06    -62.1675E+06    -19.6244E+06    -26.8502E+03    -14.5442E-03     29.1048E-03    -14.5606E-03     1.75957E-03    -14.5235E-03     28.8509E-03    -14.5402E-03     1.75897E-03
             181    -69.8505E-09     33.9073E-03    -19.2515E+06    -62.0046E+06    -19.4114E+06     82.2151E+03    -14.3632E-03     28.7812E-03    -14.4179E-03     1.73969E-03    -14.3414E-03     28.5273E-03    -14.3972E-03     1.74049E-03
             182    -26.0405E-09     32.9323E-03    -19.0566E+06    -61.7090E+06    -19.0455E+06        -943.469    -14.1914E-03     28.4453E-03    -14.2539E-03     1.70554E-03    -14.1696E-03     28.1921E-03    -14.2320E-03     1.70528E-03
             183     9.84089E-09     31.9565E-03    -18.9606E+06    -61.4427E+06    -19.0204E+06     88.7160E+03    -14.0471E-03     28.0816E-03    -14.0345E-03     1.66990E-03    -14.0252E-03     27.8295E-03    -14.0130E-03     1.67081E-03
             184     26.8151E-09     30.9823E-03    -19.2495E+06    -60.9995E+06    -19.1729E+06     174.439E+03    -13.8247E-03     27.6580E-03    -13.8332E-03     1.60454E-03    -13.8047E-03     27.4087E-03    -13.8127E-03     1.60656E-03
             185    -78.8505E-09     30.0074E-03    -19.1112E+06    -60.5323E+06    -19.1637E+06     15.8244E+03    -13.5831E-03     27.1992E-03    -13.6161E-03     1.50381E-03    -13.5631E-03     26.9521E-03    -13.5964E-03     1.50380E-03
             186     70.7385E-09     29.0340E-03    -18.9456E+06    -60.2192E+06    -18.9916E+06     45.0348E+03    -13.3600E-03     26.7335E-03    -13.3736E-03     1.48209E-03    -13.3398E-03     26.4875E-03    -13.3538E-03     1.48246E-03
             187    -88.4021E-09     28.0600E-03    -18.6580E+06    -59.6924E+06    -18.7167E+06     129.542E+03    -13.1085E-03     26.2477E-03    -13.1392E-03     1.44232E-03    -13.0881E-03     26.0035E-03    -13.1192E-03     1.44379E-03
             188     49.8572E-09     27.0875E-03    -18.3065E+06    -59.1070E+06    -18.2435E+06     150.553E+03    -12.8386E-03     25.7140E-03    -12.8754E-03     1.39635E-03    -12.8179E-03     25.4716E-03    -12.8544E-03     1.39809E-03
             189    -76.9429E-09     26.1146E-03    -17.9662E+06    -58.3760E+06    -18.0159E+06     184.394E+03    -12.5556E-03     25.1370E-03    -12.5815E-03     1.35776E-03    -12.5346E-03     24.8974E-03    -12.5608E-03     1.35995E-03
             190     56.5518E-09     25.1431E-03    -17.6683E+06    -57.5687E+06    -17.7351E+06     289.181E+03    -12.2629E-03     24.5526E-03    -12.2898E-03     1.33675E-03    -12.2420E-03     24.3162E-03    -12.2694E-03     1.34030E-03
             191    -85.6373E-09     24.1715E-03    -16.9972E+06    -56.5921E+06    -17.1179E+06     294.154E+03    -11.9517E-03     23.9590E-03    -12.0072E-03     1.26773E-03    -11.9298E-03     23.7255E-03    -11.9861E-03     1.27136E-03
             192     13.7717E-09     23.2010E-03    -16.6365E+06    -55.6225E+06    -16.6384E+06     365.886E+03    -11.6775E-03     23.3470E-03    -11.6695E-03     1.17910E-03    -11.6558E-03     23.1172E-03    -11.6479E-03     1.18366E-03
             193     71.5814E-09     22.2307E-03    -15.9550E+06    -54.1821E+06    -15.7876E+06     551.385E+03    -11.4221E-03     22.7734E-03    -11.3513E-03     1.10720E-03    -11.4003E-03     22.5486E-03    -11.3285E-03     1.11417E-03
             194    -29.7098E-09     21.2614E-03    -14.3279E+06    -51.8607E+06    -14.3938E+06     688.699E+03    -11.1116E-03     22.2143E-03    -11.1027E-03     989.473E-06    -11.0871E-03     21.9967E-03    -11.0787E-03     998.226E-06
             195     2.29495E-09     20.2920E-03    -13.2596E+06    -49.5727E+06    -13.0972E+06     647.281E+03    -10.8413E-03     21.6888E-03    -10.8475E-03     898.663E-06    -10.8167E-03     21.4792E-03    -10.8219E-03     906.899E-06
             196     15.5641E-09     19.3238E-03    -11.3638E+06    -47.4247E+06    -11.4121E+06     684.594E+03    -10.6187E-03     21.2177E-03    -10.5990E-03     844.357E-06    -10.5902E-03     21.0137E-03    -10.5708E-03     853.088E-06
             197     716.318E-12     18.3552E-03    -9.33773E+06    -45.1545E+06    -9.25333E+06     634.668E+03    -10.3742E-03     20.7355E-03    -10.3613E-03     796.180E-06    -10.3420E-03     20.5368E-03    -10.3286E-03     804.263E-06
             198     6.60777E-09     17.3880E-03    -6.80176E+06    -42.7893E+06    -7.03057E+06     697.558E+03    -10.1241E-03     20.2631E-03    -10.1390E-03     797.440E-06    -10.0858E-03     20.0693E-03    -10.1023E-03     806.343E-06
             199    -43.5911E-09     16.4202E-03    -4.56833E+06    -40.4134E+06    -4.57358E+06     722.833E+03    -9.90022E-03     19.7986E-03    -9.89833E-03     699.380E-06    -9.85775E-03     19.6098E-03    -9.85598E-03     708.621E-06
             200     83.5341E-09     15.4541E-03    -4.05512E+06    -38.9031E+06    -3.80320E+06     462.650E+03    -9.59643E-03     19.2134E-03    -9.61696E-03     680.009E-06    -9.55469E-03     19.0304E-03    -9.57369E-03     685.902E-06
             201    -157.550E-09     14.4870E-03    -4.60808E+06    -37.8636E+06    -4.71423E+06     213.090E+03    -9.18914E-03     18.5112E-03    -9.32202E-03     582.460E-06    -9.15037E-03     18.3354E-03    -9.28401E-03     585.136E-06
             202    -6.93750E-09     13.5229E-03    -6.84211E+06    -37.6899E+06    -7.22661E+06     10.1485E+03    -8.76768E-03     17.6124E-03    -8.84470E-03     311.960E-06    -8.73669E-03     17.4444E-03    -8.81626E-03     312.032E-06
             203     29.5744E-09     12.5569E-03    -9.38215E+06    -37.3229E+06    -9.73052E+06     95.4907E+03    -8.27673E-03     16.4910E-03    -8.21428E-03     372.057E-06    -8.25531E-03     16.3322E-03    -8.19521E-03     373.232E-06
             204     55.1702E-09     11.5951E-03    -12.8623E+06    -37.3089E+06    -12.4694E+06      94.179E+03    -7.67052E-03     15.2129E-03    -7.54241E-03     162.593E-06    -7.66256E-03     15.0632E-03    -7.53201E-03     163.756E-06
             205     93.4517E-09     10.6319E-03    -16.3762E+06    -37.9718E+06    -15.9393E+06    -50.7967E+03    -7.10006E-03     13.9655E-03    -6.86549E-03     140.066E-06    -7.10365E-03     13.8226E-03    -6.86638E-03     139.354E-06
             206     182.194E-09     9.67204E-03    -18.2879E+06    -37.9836E+06    -17.9764E+06    -159.349E+03    -6.59583E-03     13.0870E-03    -6.49120E-03     127.351E-06    -6.60598E-03     12.9498E-03    -6.49949E-03     125.223E-06
             207    -267.476E-09     8.71134E-03    -19.2429E+06    -38.7091E+06    -19.0540E+06    -36.5990E+03    -6.56153E-03     13.1245E-03    -6.56301E-03     393.114E-06    -6.57387E-03     12.9866E-03    -6.57425E-03     392.581E-06
             208     351.978E-09     7.75018E-03    -17.2189E+06    -38.6480E+06    -17.2543E+06    -208.541E+03    -7.05767E-03     14.1082E-03    -7.05057E-03     559.631E-06    -7.06258E-03     13.9651E-03    -7.05584E-03     556.872E-06
             209    -424.422E-09     6.78875E-03    -14.7590E+06    -39.6560E+06    -14.7600E+06    -137.593E+03    -7.84915E-03     15.7538E-03    -7.90461E-03     704.364E-06    -7.84396E-03     15.5983E-03    -7.89951E-03     702.538E-06
             210     397.749E-09     5.82337E-03    -10.8730E+06    -39.9821E+06    -10.6886E+06    -279.787E+03    -8.93050E-03     17.8785E-03    -8.94804E-03     824.947E-06    -8.91130E-03     17.7099E-03    -8.92774E-03     821.280E-06
             211    -400.310E-09     4.85856E-03    -7.32167E+06    -41.3154E+06    -7.54325E+06    -270.562E+03    -10.0321E-03     20.0949E-03    -10.0627E-03     824.697E-06    -9.99783E-03     19.9099E-03    -10.0299E-03     821.165E-06
             212     345.924E-09     3.88852E-03    -4.46667E+06    -42.1235E+06    -4.62514E+06    -296.196E+03    -11.1117E-03     22.2345E-03    -11.1229E-03     769.015E-06    -11.0661E-03     22.0371E-03    -11.0784E-03     765.143E-06
             213    -313.307E-09     2.91982E-03    -2.87303E+06    -43.0571E+06    -2.78032E+06    -656.433E+03    -12.0583E-03     24.1200E-03    -12.0617E-03     565.276E-06    -12.0061E-03     23.9130E-03    -12.0090E-03     556.738E-06
             214     275.656E-09     1.94636E-03    -3.83038E+06    -45.0304E+06    -4.09675E+06    -204.800E+03    -12.7743E-03     25.5835E-03    -12.8092E-03     475.242E-06    -12.7221E-03     25.3699E-03    -12.7588E-03     472.566E-06
             215    -303.059E-09     974.003E-06    -6.26497E+06    -45.3828E+06    -6.01861E+06    -90.3020E+03    -13.2359E-03     26.4546E-03    -13.2186E-03     225.430E-06    -13.1925E-03     26.2455E-03    -13.1738E-03     224.284E-06
             216     887.591E-06    -83.2667E-18    -7.87188E+06    -45.8919E+06    -7.70736E+06    -51.9135E+03    -13.4147E-03     26.7740E-03    -13.3593E-03     187.161E-06    -13.3762E-03     26.5672E-03    -13.3199E-03     186.503E-06
             217     1.77660E-03    -83.2667E-18    -7.73849E+06    -46.4613E+06    -8.68691E+06    -346.933E+03    -13.4763E-03     26.8769E-03    -13.4006E-03     359.180E-06    -13.4350E-03     26.6684E-03    -13.3655E-03     354.679E-06
             218     2.66306E-03    -83.2667E-18    -7.73404E+06    -47.4718E+06    -10.0786E+06    -372.730E+03    -13.5823E-03     27.0169E-03    -13.4346E-03     546.488E-06    -13.5375E-03     26.8054E-03    -13.4050E-03     541.633E-06
             219     3.55259E-03    -83.2667E-18    -7.90190E+06    -48.7621E+06    -11.9445E+06    -365.568E+03    -13.7506E-03     27.2307E-03    -13.4801E-03     802.438E-06    -13.7021E-03     27.0156E-03    -13.4576E-03     797.683E-06
             220     4.43799E-03    -83.2667E-18    -7.93210E+06    -50.6899E+06    -14.7045E+06    -910.881E+03    -13.9420E-03     27.4779E-03    -13.5359E-03     984.543E-06    -13.8868E-03     27.2573E-03    -13.5244E-03     972.699E-06
             221     5.32797E-03    -83.2667E-18    -7.70709E+06    -53.0101E+06    -18.0573E+06    -926.430E+03    -14.2038E-03     27.8067E-03    -13.6030E-03     1.29760E-03    -14.1393E-03     27.5790E-03    -13.6052E-03     1.28556E-03
             222     6.21211E-03    -83.2667E-18    -6.84265E+06    -55.1825E+06    -22.1205E+06    -2.09384E+06    -14.4492E-03     28.1264E-03    -13.6772E-03     1.44226E-03    -14.3714E-03     27.8925E-03    -13.6978E-03     1.41510E-03
             223     7.10246E-03    -83.2667E-18    -5.47123E+06    -56.7967E+06    -26.0195E+06    -2.11885E+06    -14.7905E-03     28.5526E-03    -13.7621E-03     1.86985E-03    -14.6978E-03     28.3143E-03    -13.8019E-03     1.84233E-03
             224     7.98528E-03    -83.2667E-18    -3.76723E+06    -58.8230E+06    -30.4257E+06    -2.79236E+06    -15.1377E-03     28.9958E-03    -13.8581E-03     2.08433E-03    -15.0271E-03     28.7513E-03    -13.9194E-03     2.04809E-03
             225     8.87544E-03    -83.2667E-18    -989.174E+03    -59.1456E+06    -34.2180E+06    -3.90324E+06    -15.5541E-03     29.5198E-03    -13.9657E-03     2.48719E-03    -15.4236E-03     29.2751E-03    -14.0496E-03     2.43643E-03
             226     9.75768E-03    -83.2667E-18     1.48955E+06    -56.8722E+06    -37.6282E+06    -2.73141E+06    -16.0971E-03     30.1873E-03    -14.0902E-03     3.11557E-03    -15.9527E-03     29.9554E-03    -14.1981E-03     3.08004E-03
             227     10.6456E-03    -83.2667E-18     5.94756E+06    -51.0396E+06    -40.7519E+06    -4.48818E+06    -16.6409E-03     30.8683E-03    -14.2274E-03     3.58968E-03    -16.4780E-03     30.6636E-03    -14.3658E-03     3.53117E-03
             228     11.5290E-03    -83.2667E-18     10.7245E+06    -38.5689E+06    -41.7997E+06    -5.35540E+06    -17.4475E-03     31.8371E-03    -14.3897E-03     4.42012E-03    -17.2774E-03     31.6894E-03    -14.5583E-03     4.35037E-03
             229     12.4130E-03    -83.2667E-18     14.8290E+06    -16.9992E+06    -36.2661E+06    -5.09420E+06    -18.4576E-03     33.0677E-03    -14.6101E-03     5.03732E-03    -18.3063E-03     33.0139E-03    -14.7883E-03     4.97019E-03
             230     13.2972E-03    -83.2667E-18     18.7717E+06     16.2311E+06    -24.2535E+06    -3.24397E+06    -20.0790E-03     34.9838E-03    -14.9047E-03     6.79806E-03    -19.9737E-03     35.0730E-03    -15.0768E-03     6.75482E-03
             231     14.1744E-03    -83.2667E-18     20.4019E+06     51.8248E+06    -2.52504E+06    -1.11573E+06    -22.4135E-03     37.7518E-03    -15.3383E-03     9.75968E-03    -22.3832E-03     37.9853E-03    -15.4556E-03     9.74266E-03
             232     15.0552E-03    -83.2667E-18     17.7003E+06     77.5127E+06     35.1217E+06     4.40941E+06    -27.2967E-03     43.3383E-03    -16.0416E-03     17.6000E-03    -27.3721E-03     43.6495E-03    -16.0040E-03     17.6538E-03
             233     15.9184E-03    -83.2667E-18     1.41892E+06     78.7838E+06     51.7590E+06     8.62414E+06    -31.7608E-03     48.6610E-03    -16.9003E-03     22.2973E-03    -31.9458E-03     48.9803E-03    -16.7578E-03     22.3929E-03
             234     16.7919E-03    -83.2667E-18     1.76241E+06     90.9880E+06     61.5890E+06     3.95542E+06    -34.7750E-03     52.5848E-03    -17.8097E-03     33.2246E-03    -35.0254E-03     52.9843E-03    -17.6363E-03     33.1869E-03
             235     17.6915E-03     1.01214E-03    -4.24569E+06     109.031E+06     68.7619E+06     1.86364E+06    -45.2083E-03     62.6882E-03    -17.4799E-03     55.0435E-03    -45.6348E-03     63.2923E-03    -17.2880E-03     54.8376E-03
             236     17.6880E-03     2.04961E-03    -12.4797E+06     118.966E+06     69.9917E+06     9.28051E+06    -55.4104E-03     71.7182E-03    -16.3079E-03     71.1970E-03    -56.0592E-03     72.5506E-03    -16.1123E-03     70.9420E-03
             237     17.7144E-03     3.08434E-03     3.21164E+06     140.013E+06     85.2472E+06     9.26591E+06    -51.7924E-03     67.5454E-03    -15.7530E-03     96.5429E-03    -52.6830E-03     68.7013E-03    -15.5344E-03     96.3413E-03
             238     17.7131E-03     4.10308E-03     1.42716E+06     149.611E+06     91.4975E+06     2.41475E+06    -49.6544E-03     65.1034E-03    -15.4490E-03     113.539E-03    -50.8269E-03     66.5495E-03    -15.2106E-03     113.348E-03
             239     17.7163E-03     5.11878E-03    -2.63154E+06     153.165E+06     89.5124E+06     2.05693E+06    -48.8744E-03     64.2078E-03    -15.3334E-03     117.846E-03    -50.2390E-03     65.8478E-03    -15.1042E-03     117.802E-03
             240     17.7202E-03     6.12491E-03    -2.26555E+06     155.905E+06     89.9890E+06     395.843E+03    -45.2214E-03     60.5562E-03    -15.3347E-03     125.169E-03    -46.7496E-03     62.3697E-03    -15.1076E-03     125.327E-03
             241     17.7158E-03     7.13745E-03    -2.92255E+06     158.660E+06     91.0320E+06     1.39050E+06    -43.3574E-03     58.7621E-03    -15.4047E-03     130.115E-03    -45.0374E-03     60.7317E-03    -15.1754E-03     130.460E-03
             242     17.7195E-03     8.13677E-03    -2.73332E+06     161.322E+06     87.4938E+06     2.35599E+06    -39.7589E-03     55.2068E-03    -15.4479E-03     139.059E-03    -41.6119E-03     57.3695E-03    -15.2404E-03     139.648E-03
             243     17.7190E-03     9.13970E-03    -3.51456E+06     162.582E+06     86.4559E+06     473.167E+03    -38.2025E-03     53.6450E-03    -15.4425E-03     145.414E-03    -40.1866E-03     55.9439E-03    -15.2408E-03     146.140E-03
             244     17.7196E-03     10.1401E-03    -2.91016E+06     164.374E+06     86.7694E+06     1.01056E+06    -36.0918E-03     51.5812E-03    -15.4894E-03     149.498E-03    -38.1836E-03     53.9947E-03    -15.2897E-03     150.397E-03
             245     17.7196E-03     11.1294E-03     -2.3072E+06     165.742E+06     86.0565E+06     1.06729E+06    -34.7351E-03     50.2291E-03    -15.4940E-03     150.486E-03    -36.8910E-03     52.7154E-03    -15.3007E-03     151.524E-03
             246     17.7206E-03     12.1242E-03    -2.12721E+06     166.555E+06     85.5907E+06     460.388E+03    -34.3342E-03     49.8019E-03    -15.4677E-03     149.258E-03    -36.5149E-03     52.3183E-03    -15.2782E-03     150.380E-03
             247     17.7206E-03     13.1193E-03    -1.89385E+06     167.715E+06     85.4598E+06     322.993E+03    -33.2327E-03     48.7030E-03    -15.4703E-03     152.418E-03    -35.5090E-03     51.3203E-03    -15.2835E-03     153.670E-03
             248     17.7214E-03     14.1102E-03    -1.92687E+06     168.409E+06     84.8040E+06     412.514E+03    -32.5474E-03     48.0095E-03    -15.4620E-03     154.763E-03    -34.9047E-03     50.7119E-03    -15.2794E-03     156.127E-03
             249     17.7215E-03     15.1040E-03    -2.14274E+06     168.666E+06     83.8392E+06     666.350E+03    -31.4842E-03     46.9485E-03    -15.4643E-03     156.619E-03    -33.9094E-03     49.7218E-03    -15.2865E-03     158.113E-03
             250     17.7221E-03     16.0924E-03    -2.02493E+06     169.375E+06     83.7334E+06     363.414E+03    -30.7388E-03     46.2046E-03    -15.4658E-03     157.922E-03    -33.2201E-03     49.0371E-03    -15.2898E-03     159.519E-03
             251     17.7220E-03     17.0816E-03    -2.01616E+06     169.809E+06     83.7749E+06     223.595E+03    -30.5964E-03     46.0506E-03    -15.4541E-03     157.886E-03    -33.1112E-03     48.9181E-03    -15.2786E-03     159.543E-03
             252     17.7225E-03     18.0722E-03    -1.95009E+06     170.209E+06     83.2594E+06     244.421E+03    -30.0349E-03     45.4876E-03    -15.4528E-03     159.044E-03    -32.6021E-03     48.4108E-03    -15.2804E-03     160.789E-03
             253     17.7225E-03     19.0601E-03    -2.11328E+06     170.298E+06     82.6694E+06     167.166E+03    -28.8812E-03     44.3493E-03    -15.4681E-03     159.973E-03    -31.4947E-03     47.3201E-03    -15.2986E-03     161.834E-03
             254     17.7229E-03     20.0475E-03    -1.79420E+06     170.399E+06     82.4644E+06     181.434E+03    -28.0657E-03     43.5444E-03    -15.4787E-03     160.951E-03    -30.7199E-03     46.5580E-03    -15.3109E-03     162.904E-03
             255     17.7228E-03     21.0334E-03    -2.25067E+06     170.201E+06     83.0781E+06     31.7990E+03    -27.6489E-03     43.1364E-03    -15.4875E-03     160.764E-03    -30.3277E-03     46.1704E-03    -15.3156E-03     162.784E-03
             256     17.7229E-03     22.0197E-03    -1.06585E+06     171.036E+06     81.0548E+06     745.788E+03    -26.7454E-03     42.2246E-03    -15.4792E-03     161.690E-03    -29.4539E-03     45.3014E-03    -15.3204E-03     163.810E-03
             257     17.7242E-03     23.0054E-03     610.455E+03     173.196E+06     80.3706E+06    -121.647E+03    -25.8172E-03     41.2872E-03    -15.4701E-03     162.840E-03    -28.5602E-03     44.4142E-03    -15.3202E-03     165.038E-03
             258     17.7233E-03     23.9890E-03    -2.21403E+06     172.720E+06     83.9821E+06    -1.07895E+06    -25.7821E-03     41.2901E-03    -15.5080E-03     162.605E-03    -28.5682E-03     44.4380E-03    -15.3353E-03     164.843E-03
             259     17.7227E-03     24.9739E-03    -4.25247E+06     171.861E+06     83.3353E+06     1.35521E+06    -25.2197E-03     40.7627E-03    -15.5430E-03     163.085E-03    -28.0365E-03     43.9329E-03    -15.3694E-03     165.422E-03
             260     17.7235E-03     25.9575E-03    -2.85597E+06     173.695E+06     81.5779E+06     1.27989E+06    -23.9352E-03     39.4875E-03    -15.5522E-03     163.558E-03    -26.7607E-03     42.6828E-03    -15.3921E-03     165.976E-03
             261     17.7232E-03     26.9374E-03    -1.87946E+06     174.899E+06     83.6419E+06    -99.8220E+03    -23.7279E-03     39.2848E-03    -15.5569E-03     162.985E-03    -26.5526E-03     42.4812E-03    -15.3895E-03     165.413E-03
             262     17.7233E-03     27.9223E-03    -2.34530E+06     174.810E+06     84.5209E+06     288.633E+03    -23.1934E-03     38.7685E-03    -15.5751E-03     162.471E-03    -26.0202E-03     41.9625E-03    -15.4026E-03     164.950E-03
             263     17.7233E-03     28.9018E-03    -2.20215E+06     175.184E+06     84.1964E+06     570.128E+03    -22.2338E-03     37.8281E-03    -15.5943E-03     162.400E-03    -25.0621E-03     41.0263E-03    -15.4242E-03     164.944E-03
             264     17.7234E-03     29.8820E-03    -2.50762E+06     175.287E+06     84.8556E+06     604.718E+03    -21.9399E-03     37.5453E-03    -15.6053E-03     160.925E-03    -24.7443E-03     40.7169E-03    -15.4316E-03     163.481E-03
             265     17.7231E-03     30.8631E-03    -2.12932E+06     175.596E+06     84.6535E+06     297.356E+03    -20.7517E-03     36.3806E-03    -15.6289E-03     158.103E-03    -23.5051E-03     39.5043E-03    -15.4571E-03     160.679E-03
             266     17.7237E-03     31.8374E-03    -2.69385E+06     174.848E+06     84.3331E+06    -1.28648E+06    -21.2410E-03     36.8451E-03    -15.6040E-03     156.050E-03    -23.9604E-03     39.9311E-03    -15.4320E-03     158.580E-03
             267     17.7234E-03     32.8205E-03    -2.84995E+06     175.294E+06     85.3150E+06    -478.505E+03    -22.8329E-03     38.3960E-03    -15.5631E-03     156.817E-03    -25.5813E-03     41.5095E-03    -15.3866E-03     159.316E-03
             268     17.7238E-03     33.8104E-03    -1.27462E+06     177.704E+06     85.6536E+06     1.57707E+06    -20.7752E-03     36.3977E-03    -15.6225E-03     163.062E-03    -23.6550E-03     39.6557E-03    -15.4501E-03     165.762E-03
             269     17.7233E-03     34.7854E-03    -1.39500E+06     177.707E+06     84.5604E+06       317.2E+03    -18.5012E-03     34.1793E-03    -15.6781E-03     164.437E-03    -21.4032E-03     37.4620E-03    -15.5110E-03     167.241E-03
             270     17.7238E-03     35.7563E-03    -3.47705E+06     175.684E+06     85.0634E+06    -1.37540E+06    -20.4738E-03     36.1026E-03    -15.6288E-03     158.849E-03    -23.2715E-03     39.2651E-03    -15.4532E-03     161.486E-03
             271     17.7231E-03     36.7405E-03    -2.63775E+06     176.831E+06     86.0036E+06     80.1899E+03    -21.7128E-03     37.3074E-03    -15.5946E-03     156.720E-03    -24.4794E-03     40.4432E-03    -15.4172E-03     159.306E-03
             272     17.7240E-03     37.7241E-03    -1.89169E+06     177.965E+06     84.8150E+06     476.263E+03    -19.9550E-03     35.5858E-03    -15.6308E-03     161.135E-03    -22.8117E-03     38.8218E-03    -15.4620E-03     163.871E-03
             273     17.7234E-03     38.7002E-03    -2.51942E+06     177.845E+06     84.9630E+06     63.7567E+03    -19.8016E-03     35.4421E-03    -15.6404E-03     164.568E-03    -22.7328E-03     38.7493E-03    -15.4699E-03     167.360E-03
             274     17.7239E-03     39.6829E-03    -1.39687E+06     178.967E+06     86.1984E+06     1.02256E+06    -19.6214E-03     35.2743E-03    -15.6528E-03     165.106E-03    -22.5622E-03     38.5955E-03    -15.4793E-03     167.921E-03
             275     17.7233E-03     40.6593E-03    -1.50640E+06     178.654E+06     86.1599E+06     348.878E+03    -18.2426E-03     33.9326E-03    -15.6900E-03     163.692E-03    -21.1513E-03     37.2204E-03    -15.5161E-03     166.541E-03
             276     17.7237E-03     41.6305E-03    -3.15457E+06     176.909E+06     85.2847E+06    -1.20254E+06    -19.4721E-03     35.1201E-03    -15.6479E-03     158.804E-03    -22.2883E-03     38.3059E-03    -15.4735E-03     161.529E-03
             277     17.7236E-03     42.6109E-03    -3.17275E+06     177.537E+06     86.2678E+06    -239.632E+03    -21.4525E-03     37.0483E-03    -15.5958E-03     158.302E-03    -24.2675E-03     40.2324E-03    -15.4173E-03     160.956E-03
             278     17.7237E-03     43.6008E-03    -835.302E+03     180.099E+06     86.4201E+06     1.49552E+06    -19.3194E-03     34.9723E-03    -15.6529E-03     164.012E-03    -22.2461E-03     38.2850E-03    -15.4807E-03     166.849E-03
             279     17.7237E-03     44.5724E-03    -1.91504E+06     179.229E+06     85.1694E+06    -105.257E+03    -17.7664E-03     33.4586E-03    -15.6922E-03     165.742E-03    -20.7259E-03     36.8007E-03    -15.5234E-03     168.658E-03
             280     17.7236E-03     45.5451E-03    -3.13782E+06     178.491E+06     86.2768E+06    -393.629E+03    -19.7055E-03     35.3510E-03    -15.6455E-03     160.560E-03    -22.5642E-03     38.5821E-03    -15.4684E-03     163.321E-03
             281     17.7236E-03     46.5298E-03    -2.02507E+06     179.619E+06     87.1922E+06     450.291E+03    -19.5674E-03     35.2188E-03    -15.6514E-03     159.723E-03    -22.4101E-03     38.4391E-03    -15.4729E-03     162.485E-03
             282     17.7236E-03     47.5055E-03    -2.48740E+06     179.169E+06     85.9357E+06    -669.547E+03    -18.4136E-03     34.0868E-03    -15.6732E-03     160.117E-03    -21.2658E-03     37.3171E-03    -15.4997E-03     162.927E-03
             283     17.7238E-03     48.4793E-03    -3.52880E+06     178.163E+06     85.7848E+06    -1.05462E+06    -20.1349E-03     35.7594E-03    -15.6245E-03     159.405E-03    -22.9792E-03     38.9749E-03    -15.4488E-03     162.138E-03
             284     17.7237E-03     49.4670E-03    -1.59143E+06     180.214E+06     87.2834E+06     1.08485E+06    -20.2221E-03     35.8521E-03    -15.6301E-03     162.960E-03    -23.1423E-03     39.1534E-03    -15.4526E-03     165.764E-03
             285     17.7237E-03     50.4472E-03    -917.978E+03     180.980E+06     86.0290E+06     1.06743E+06    -17.5949E-03     33.2932E-03    -15.6982E-03     167.634E-03    -20.6033E-03     36.6914E-03    -15.5292E-03     170.608E-03
             286     17.7238E-03     51.4162E-03    -3.09730E+06     178.777E+06     86.1403E+06    -737.103E+03    -18.1071E-03     33.7990E-03    -15.6919E-03     164.162E-03    -21.0440E-03     37.1099E-03    -15.5159E-03     167.049E-03
             287     17.7233E-03     52.3936E-03    -1.88825E+06     179.189E+06     86.5797E+06     36.7659E+03    -19.1586E-03     34.8132E-03    -15.6546E-03     158.240E-03    -21.9722E-03     38.0052E-03    -15.4788E-03     161.009E-03
             288     17.7242E-03     53.3736E-03    -2.33763E+06     179.012E+06     85.5219E+06    -419.538E+03    -19.2192E-03     34.8625E-03    -15.6433E-03     160.378E-03    -22.0789E-03     38.1014E-03    -15.4719E-03     163.173E-03
             289     17.7234E-03     54.3524E-03    -2.48973E+06     179.480E+06     86.9776E+06    -28.4713E+03    -19.7423E-03     35.3842E-03    -15.6420E-03     162.711E-03    -22.6570E-03     38.6751E-03    -15.4637E-03     165.525E-03
             290     17.7240E-03     55.3347E-03    -1.56166E+06     180.646E+06     87.1642E+06     1.26875E+06    -18.7629E-03     34.4354E-03    -15.6725E-03     165.193E-03    -21.7274E-03     37.7829E-03    -15.4964E-03     168.090E-03
             291     17.7234E-03     56.3096E-03    -2.10768E+06     180.404E+06     86.2858E+06     460.003E+03    -18.0826E-03     33.7688E-03    -15.6863E-03     165.634E-03    -21.0535E-03     37.1225E-03    -15.5134E-03     168.564E-03
             292     885.969E-06     57.3706E-03    -18.7002E+06    -65.7865E+06    -18.0050E+06     22.7443E+03    -15.6954E-03     31.4147E-03    -15.7193E-03     3.48009E-03    -15.6674E-03     31.1391E-03    -15.6869E-03     3.47986E-03
             293     1.77202E-03     57.3751E-03    -17.7319E+06    -64.7708E+06    -15.4203E+06     81.7622E+03    -15.7026E-03     31.4182E-03    -15.7155E-03     6.44093E-03    -15.6751E-03     31.1425E-03    -15.6730E-03     6.44102E-03
             294     2.65801E-03     57.3826E-03    -16.3874E+06    -63.6391E+06    -11.8073E+06     114.149E+03    -15.7077E-03     31.4333E-03    -15.7256E-03     9.60465E-03    -15.6804E-03     31.1562E-03    -15.6686E-03     9.60465E-03
             295     3.54406E-03     57.3929E-03    -14.7503E+06     -62.158E+06    -7.93921E+06     91.4413E+03    -15.7154E-03     31.4512E-03    -15.7358E-03     12.8831E-03    -15.6878E-03     31.1736E-03    -15.6640E-03     12.8822E-03
             296     4.43007E-03     57.4066E-03    -13.0325E+06    -60.8080E+06    -4.41189E+06     100.197E+03    -15.7317E-03     31.4757E-03    -15.7440E-03     16.2912E-03    -15.7028E-03     31.1975E-03    -15.6590E-03     16.2898E-03
             297     5.31614E-03     57.4232E-03    -11.2960E+06    -59.6937E+06    -1.63578E+06     175.235E+03    -15.7587E-03     31.5075E-03    -15.7488E-03     19.8510E-03    -15.7271E-03     31.2286E-03    -15.6540E-03     19.8498E-03
             298     6.20216E-03     57.4435E-03    -9.71447E+06    -58.1353E+06     365.859E+03     242.117E+03    -15.7917E-03     31.5409E-03    -15.7492E-03     23.5771E-03    -15.7578E-03     31.2651E-03    -15.6490E-03     23.5759E-03
             299     7.08825E-03     57.4671E-03    -8.36202E+06    -57.7811E+06     1.98517E+06     233.901E+03    -15.8426E-03     31.5927E-03    -15.7502E-03     27.4624E-03    -15.8054E-03     31.3150E-03    -15.6443E-03     27.4599E-03
             300     7.97427E-03     57.4946E-03    -7.08599E+06    -56.2145E+06     3.12875E+06     334.715E+03    -15.8942E-03     31.6415E-03    -15.7473E-03     31.5092E-03    -15.8556E-03     31.3691E-03    -15.6399E-03     31.5064E-03
             301     8.86039E-03     57.5256E-03    -6.00803E+06    -53.2402E+06     3.79172E+06     342.148E+03    -15.9439E-03     31.6835E-03    -15.7396E-03     35.6305E-03    -15.9067E-03     31.4250E-03    -15.6347E-03     35.6256E-03
             302     9.74645E-03     57.5607E-03    -5.11184E+06    -53.1538E+06     3.80007E+06     266.309E+03    -16.0128E-03     31.7452E-03    -15.7325E-03     39.7725E-03    -15.9737E-03     31.4883E-03    -15.6290E-03     39.7635E-03
             303     10.6326E-03     57.5995E-03    -4.51064E+06    -49.6888E+06     570.971E+03     324.178E+03    -16.0503E-03     31.7533E-03    -15.7030E-03     43.9004E-03    -16.0123E-03     31.5212E-03    -15.6216E-03     43.8882E-03
             304     11.5188E-03     57.6421E-03    -4.07615E+06    -37.6976E+06     1.96240E+06     373.532E+03    -16.1046E-03     31.7873E-03    -15.6827E-03     48.2859E-03    -16.0900E-03     31.6187E-03    -15.6123E-03     48.2693E-03
             305     12.4048E-03     57.6892E-03    -3.49688E+06    -31.7413E+06     2.09925E+06     329.237E+03    -16.2590E-03     31.9237E-03    -15.6647E-03     54.9086E-03    -16.2621E-03     31.7956E-03    -15.6031E-03     54.8845E-03
             306     13.2906E-03     57.7439E-03    -3.21111E+06    -29.1358E+06    -6.44520E+06      276.93E+03    -16.2758E-03     31.8826E-03    -15.6069E-03     58.7460E-03    -16.2861E-03     31.7968E-03    -15.5922E-03     58.7139E-03
             307     14.1779E-03     57.7984E-03    -3.49774E+06    -5.20897E+06    -5.90031E+06     539.190E+03    -16.2097E-03     31.7691E-03    -15.5594E-03     62.3948E-03    -16.2845E-03     31.8301E-03    -15.5763E-03     62.3630E-03
             308     15.0639E-03     57.8590E-03     -4.4473E+06     36.9355E+06    -6.17940E+06     502.806E+03    -16.9988E-03     32.4774E-03    -15.4786E-03     87.1411E-03    -17.2757E-03     32.8875E-03    -15.5566E-03     87.1254E-03
             309     15.9491E-03     57.9594E-03    -5.69967E+06     92.2797E+06    -12.8778E+06    -309.969E+03    -19.0695E-03     34.4223E-03    -15.3529E-03     134.267E-03    -20.2963E-03     35.9938E-03    -15.5428E-03     134.606E-03
             310     16.8378E-03     58.1081E-03    -3.98656E+06     153.096E+06     36.4284E+06    -356.089E+03    -19.2992E-03     34.7882E-03    -15.4890E-03     160.752E-03    -21.7468E-03     37.6595E-03    -15.5231E-03     162.514E-03
             311     886.032E-06     58.3488E-03    -18.6164E+06    -65.8843E+06    -18.0483E+06     34.2149E+03    -15.6937E-03     31.4176E-03    -15.7240E-03     3.47522E-03    -15.6651E-03     31.1414E-03    -15.6917E-03     3.47515E-03
             312     1.77199E-03     58.3534E-03    -17.7615E+06    -64.9051E+06    -15.4626E+06     32.2099E+03    -15.7069E-03     31.4243E-03    -15.7174E-03     6.44450E-03    -15.6793E-03     31.1481E-03    -15.6748E-03     6.44395E-03
             313     2.65803E-03     58.3608E-03    -16.3490E+06    -63.7426E+06    -11.8210E+06     72.1266E+03    -15.7111E-03     31.4392E-03    -15.7281E-03     9.60641E-03    -15.6834E-03     31.1615E-03    -15.6711E-03     9.60587E-03
             314     3.54402E-03     58.3713E-03    -14.7215E+06    -62.2280E+06    -7.90837E+06     86.5919E+03    -15.7177E-03     31.4563E-03    -15.7386E-03     12.8878E-03    -15.6900E-03     31.1783E-03    -15.6666E-03     12.8869E-03
             315     4.43008E-03     58.3847E-03    -13.0157E+06    -60.9340E+06    -4.39356E+06     113.486E+03    -15.7343E-03     31.4810E-03    -15.7467E-03     16.2981E-03    -15.7052E-03     31.2021E-03    -15.6615E-03     16.2969E-03
             316     5.31609E-03     58.4016E-03    -11.3752E+06    -59.8300E+06    -1.69993E+06     121.072E+03    -15.7603E-03     31.5115E-03    -15.7511E-03     19.8596E-03    -15.7288E-03     31.2321E-03    -15.6564E-03     19.8578E-03
             317     6.20217E-03     58.4216E-03    -9.77482E+06    -58.2815E+06     239.369E+03     150.316E+03    -15.7945E-03     31.5458E-03    -15.7513E-03     23.5861E-03    -15.7606E-03     31.2695E-03    -15.6514E-03     23.5837E-03
             318     7.08820E-03     58.4454E-03    -8.28984E+06    -57.8790E+06     2.03167E+06     206.635E+03    -15.8391E-03     31.5915E-03    -15.7524E-03     27.4793E-03    -15.8015E-03     31.3131E-03    -15.6463E-03     27.4764E-03
             319     7.97430E-03     58.4727E-03    -6.98247E+06    -56.4269E+06     3.16681E+06     204.371E+03    -15.8819E-03     31.6304E-03    -15.7485E-03     31.5130E-03    -15.8425E-03     31.3567E-03    -15.6407E-03     31.5085E-03
             320     8.86037E-03     58.5039E-03    -5.83230E+06    -53.2918E+06     3.95227E+06     313.760E+03    -15.9245E-03     31.6639E-03    -15.7393E-03     35.6392E-03    -15.8866E-03     31.4046E-03    -15.6338E-03     35.6340E-03
             321     9.74651E-03     58.5389E-03    -4.83192E+06    -53.1844E+06     4.14148E+06     278.044E+03    -15.9821E-03     31.7128E-03    -15.7307E-03     39.7597E-03    -15.9421E-03     31.4548E-03    -15.6258E-03     39.7510E-03
             322     10.6327E-03     58.5777E-03    -4.20853E+06    -49.6062E+06     1.02217E+06     252.369E+03    -16.0647E-03     31.7657E-03    -15.7010E-03     43.8662E-03    -16.0260E-03     31.5330E-03    -15.6179E-03     43.8530E-03
             323     11.5187E-03     58.6202E-03    -3.85897E+06    -37.8746E+06     2.28327E+06     326.687E+03    -16.0850E-03     31.7657E-03    -15.6807E-03     48.2853E-03    -16.0696E-03     31.5954E-03    -15.6087E-03     48.2681E-03
             324     12.4052E-03     58.6674E-03    -3.52417E+06    -31.8057E+06     2.26472E+06     322.531E+03    -16.1772E-03     31.8360E-03    -15.6587E-03     54.9417E-03    -16.1806E-03     31.7074E-03    -15.5962E-03     54.9176E-03
             325     13.2916E-03     58.7221E-03    -3.55322E+06    -29.2687E+06    -6.15926E+06     297.354E+03    -16.1785E-03     31.7752E-03    -15.5967E-03     58.6314E-03    -16.1906E-03     31.6887E-03    -15.5799E-03     58.5998E-03
             326     14.1773E-03     58.7756E-03    -3.40989E+06    -6.00644E+06     -5.7107E+06     494.538E+03    -16.1093E-03     31.6533E-03    -15.5440E-03     62.2311E-03    -16.1826E-03     31.7097E-03    -15.5589E-03     62.1990E-03
             327     15.0641E-03     58.8375E-03    -3.36335E+06     37.1402E+06    -5.28033E+06     725.369E+03    -16.6412E-03     32.0934E-03    -15.4522E-03     86.7091E-03    -16.9111E-03     32.4985E-03    -15.5275E-03     86.6986E-03
             328     15.9524E-03     58.9365E-03    -3.61977E+06     93.6240E+06    -10.6790E+06     782.790E+03    -18.9017E-03     34.2147E-03    -15.3130E-03     136.074E-03    -20.1422E-03     35.8057E-03    -15.4969E-03     136.431E-03
             329     16.8338E-03     59.0899E-03    -3.49222E+06     153.206E+06     37.5534E+06    -194.066E+03    -19.8672E-03     35.3209E-03    -15.4537E-03     161.840E-03    -22.3133E-03     38.1897E-03    -15.4831E-03     163.578E-03
             330     885.963E-06     59.3271E-03    -18.7843E+06    -65.9860E+06    -18.1307E+06     5.54985E+03    -15.7147E-03     31.4219E-03    -15.7072E-03     3.47038E-03    -15.6867E-03     31.1456E-03    -15.6750E-03     3.46994E-03
             331     1.77202E-03     59.3316E-03    -17.8328E+06    -64.9582E+06    -15.5461E+06     9.76438E+03    -15.7070E-03     31.4261E-03    -15.7192E-03     6.44486E-03    -15.6795E-03     31.1498E-03    -15.6768E-03     6.44402E-03
             332     2.65799E-03     59.3391E-03    -16.4966E+06    -63.8629E+06    -11.9368E+06     7.28929E+03    -15.7090E-03     31.4380E-03    -15.7290E-03     9.61118E-03    -15.6818E-03     31.1601E-03    -15.6722E-03     9.60980E-03
             333     3.54405E-03     59.3495E-03    -14.8360E+06    -62.3415E+06    -8.03383E+06     74.3903E+03    -15.7177E-03     31.4566E-03    -15.7389E-03     12.8944E-03    -15.6902E-03     31.1784E-03    -15.6671E-03     12.8933E-03
             334     4.43005E-03     59.3631E-03    -13.0737E+06    -61.0244E+06    -4.46925E+06     77.2969E+03    -15.7345E-03     31.4816E-03    -15.7471E-03     16.3061E-03    -15.7055E-03     31.2025E-03    -15.6620E-03     16.3045E-03
             335     5.31612E-03     59.3798E-03    -11.3196E+06    -59.9225E+06    -1.71651E+06     85.6857E+03    -15.7598E-03     31.5113E-03    -15.7515E-03     19.8655E-03    -15.7279E-03     31.2314E-03    -15.6568E-03     19.8632E-03
             336     6.20215E-03     59.4000E-03    -9.76578E+06    -58.3648E+06     276.524E+03     62.6090E+03    -15.7933E-03     31.5450E-03    -15.7517E-03     23.5982E-03    -15.7592E-03     31.2682E-03    -15.6515E-03     23.5947E-03
             337     7.08823E-03     59.4236E-03    -8.30895E+06    -57.9947E+06     2.07569E+06     52.8749E+03    -15.8321E-03     31.5845E-03    -15.7524E-03     27.4802E-03    -15.7945E-03     31.3055E-03    -15.6459E-03     27.4753E-03
             338     7.97429E-03     59.4510E-03    -6.99672E+06    -56.5975E+06     3.25016E+06     154.427E+03    -15.8744E-03     31.6224E-03    -15.7480E-03     31.5026E-03    -15.8349E-03     31.3477E-03    -15.6395E-03     31.4974E-03
             339     8.86041E-03     59.4821E-03    -5.87920E+06    -53.4857E+06     3.97946E+06     202.349E+03    -15.9082E-03     31.6459E-03    -15.7376E-03     35.6018E-03    -15.8703E-03     31.3857E-03    -15.6316E-03     35.5951E-03
             340     9.74655E-03     59.5171E-03    -4.95295E+06    -53.2548E+06     4.16123E+06     249.729E+03    -15.9804E-03     31.7087E-03    -15.7283E-03     39.7247E-03    -15.9409E-03     31.4505E-03    -15.6231E-03     39.7156E-03
             341     10.6327E-03     59.5558E-03    -4.21457E+06    -49.8305E+06     1.08569E+06     271.033E+03    -16.0548E-03     31.7536E-03    -15.6988E-03     43.8246E-03    -16.0159E-03     31.5197E-03    -15.6150E-03     43.8117E-03
             342     11.5189E-03     59.5985E-03    -3.82813E+06    -37.6557E+06     2.53596E+06     253.496E+03    -16.0737E-03     31.7519E-03    -15.6782E-03     48.2043E-03    -16.0587E-03     31.5823E-03    -15.6054E-03     48.1861E-03
             343     12.4049E-03     59.6451E-03    -3.37737E+06    -32.1767E+06     2.36429E+06     341.405E+03    -16.1296E-03     31.7843E-03    -15.6547E-03     54.6944E-03    -16.1317E-03     31.6533E-03    -15.5913E-03     54.6706E-03
             344     13.2912E-03     59.7002E-03    -3.13582E+06    -29.5794E+06    -6.06088E+06     460.036E+03    -16.1596E-03     31.7503E-03    -15.5907E-03     58.2950E-03    -16.1692E-03     31.6613E-03    -15.5736E-03     58.2655E-03
             345     14.1781E-03     59.7535E-03    -3.65506E+06    -5.48775E+06    -5.59172E+06     286.390E+03    -16.0881E-03     31.6256E-03    -15.5375E-03     61.9848E-03    -16.1634E-03     31.6847E-03    -15.5522E-03     61.9501E-03
             346     15.0644E-03     59.8153E-03    -3.19205E+06     36.5046E+06    -5.34774E+06     234.002E+03    -16.7675E-03     32.2182E-03    -15.4508E-03     85.7969E-03    -17.0344E-03     32.6189E-03    -15.5258E-03     85.7784E-03
             347     15.9506E-03     59.9127E-03    -3.02148E+06     93.1963E+06    -10.5779E+06     655.506E+03    -18.2558E-03     33.5577E-03    -15.3019E-03     134.418E-03    -19.4780E-03     35.1306E-03    -15.4856E-03     134.790E-03
             348     16.8434E-03     60.0698E-03    -3.12253E+06     153.868E+06     37.8897E+06     497.788E+03    -19.6287E-03     35.0531E-03    -15.4244E-03     160.901E-03    -22.0619E-03     37.9115E-03    -15.4535E-03     162.642E-03
             349     886.028E-06     60.3054E-03    -18.8877E+06    -66.0189E+06    -18.2916E+06    -23.9868E+03    -15.7191E-03     31.4173E-03    -15.6982E-03     3.47863E-03    -15.6913E-03     31.1412E-03    -15.6666E-03     3.47780E-03
             350     1.77197E-03     60.3099E-03    -17.9798E+06    -65.0260E+06    -15.6591E+06    -33.3902E+03    -15.7068E-03     31.4242E-03    -15.7174E-03     6.44968E-03    -15.6798E-03     31.1480E-03    -15.6754E-03     6.44828E-03
             351     2.65804E-03     60.3173E-03    -16.5972E+06    -63.9462E+06    -11.9826E+06     4.40581E+03    -15.7071E-03     31.4351E-03    -15.7280E-03     9.61663E-03    -15.6802E-03     31.1570E-03    -15.6711E-03     9.61521E-03
             352     3.54402E-03     60.3278E-03    -14.9588E+06    -62.4594E+06    -8.14707E+06     1.39473E+03    -15.7168E-03     31.4543E-03    -15.7375E-03     12.9001E-03    -15.6895E-03     31.1758E-03    -15.6660E-03     12.8981E-03
             353     4.43009E-03     60.3413E-03    -13.1580E+06    -61.0248E+06    -4.61901E+06    -14.9506E+03    -15.7320E-03     31.4773E-03    -15.7453E-03     16.3092E-03    -15.7032E-03     31.1985E-03    -15.6608E-03     16.3064E-03
             354     5.31610E-03     60.3581E-03    -11.4176E+06    -60.0557E+06    -1.77384E+06    -19.2777E+03    -15.7574E-03     31.5075E-03    -15.7501E-03     19.8710E-03    -15.7257E-03     31.2272E-03    -15.6554E-03     19.8674E-03
             355     6.20218E-03     60.3782E-03    -9.79494E+06    -58.4118E+06     284.855E+03     22.7412E+03    -15.7876E-03     31.5377E-03    -15.7501E-03     23.5991E-03    -15.7536E-03     31.2607E-03    -15.6498E-03     23.5950E-03
             356     7.08823E-03     60.4019E-03    -8.39829E+06    -58.0405E+06     2.09178E+06    -23.3734E+03    -15.8298E-03     31.5806E-03    -15.7507E-03     27.4727E-03    -15.7926E-03     31.3014E-03    -15.6439E-03     27.4669E-03
             357     7.97432E-03     60.4291E-03    -7.11617E+06    -56.8501E+06     3.18812E+06     49.5225E+03    -15.8710E-03     31.6172E-03    -15.7462E-03     31.4835E-03    -15.8317E-03     31.3416E-03    -15.6375E-03     31.4770E-03
             358     8.86041E-03     60.4603E-03    -5.99210E+06    -53.6205E+06     3.86695E+06     190.904E+03    -15.9196E-03     31.6557E-03    -15.7360E-03     35.5596E-03    -15.8819E-03     31.3951E-03    -15.6303E-03     35.5527E-03
             359     9.74656E-03     60.4951E-03    -5.06477E+06    -53.3527E+06     4.09320E+06     212.015E+03    -15.9875E-03     31.7154E-03    -15.7279E-03     39.6906E-03    -15.9483E-03     31.4570E-03    -15.6228E-03     39.6810E-03
             360     10.6326E-03     60.5342E-03    -4.42259E+06    -50.2322E+06     594.921E+03     226.231E+03    -16.0364E-03     31.7330E-03    -15.6966E-03     43.7378E-03    -15.9972E-03     31.4981E-03    -15.6144E-03     43.7244E-03
             361     11.5188E-03     60.5763E-03    -3.75144E+06    -37.7436E+06     2.19314E+06     325.049E+03    -16.0313E-03     31.7050E-03    -15.6737E-03     48.1545E-03    -16.0153E-03     31.5353E-03    -15.6026E-03     48.1373E-03
             362     12.4051E-03     60.6237E-03    -3.42537E+06    -32.2954E+06     2.05353E+06     349.831E+03    -16.1878E-03     31.8390E-03    -15.6512E-03     54.6939E-03    -16.1896E-03     31.7080E-03    -15.5891E-03     54.6702E-03
             363     13.2916E-03     60.6775E-03    -3.40828E+06    -29.7943E+06    -6.69564E+06     539.856E+03    -16.2834E-03     31.8757E-03    -15.5924E-03     58.1414E-03    -16.2932E-03     31.7871E-03    -15.5777E-03     58.1127E-03
             364     14.1774E-03     60.7320E-03    -3.60673E+06    -4.91244E+06    -5.58074E+06     523.712E+03    -16.1779E-03     31.7258E-03    -15.5480E-03     61.4296E-03    -16.2532E-03     31.7872E-03    -15.5635E-03     61.3977E-03
             365     15.0643E-03     60.7922E-03    -4.11824E+06     36.2948E+06    -5.96150E+06     61.6247E+03    -17.1641E-03     32.6386E-03    -15.4745E-03     85.7813E-03    -17.4373E-03     33.0433E-03    -15.5510E-03     85.7582E-03
             366     15.9499E-03     60.8927E-03    -4.44457E+06     92.0938E+06    -12.0514E+06     148.289E+03    -18.8058E-03     34.1570E-03    -15.3512E-03     133.130E-03    -20.0184E-03     35.7155E-03    -15.5385E-03     133.483E-03
             367     16.8327E-03     61.0409E-03    -3.34479E+06     153.971E+06     37.2249E+06     513.718E+03    -19.1804E-03     34.6574E-03    -15.4770E-03     161.616E-03    -21.6469E-03     37.5506E-03    -15.5093E-03     163.403E-03
             368     885.984E-06     61.2837E-03    -19.0459E+06    -66.0203E+06    -18.3924E+06    -44.3772E+03    -15.6931E-03     31.4047E-03    -15.7116E-03     3.47723E-03    -15.6660E-03     31.1290E-03    -15.6802E-03     3.47614E-03
             369     1.77204E-03     61.2882E-03    -18.1294E+06    -65.0521E+06    -15.7672E+06    -49.6065E+03    -15.7049E-03     31.4171E-03    -15.7122E-03     6.44983E-03    -15.6785E-03     31.1411E-03    -15.6704E-03     6.44822E-03
             370     2.65800E-03     61.2956E-03    -16.7396E+06    -64.0449E+06    -12.1265E+06    -50.1160E+03    -15.7089E-03     31.4333E-03    -15.7244E-03     9.61997E-03    -15.6823E-03     31.1551E-03    -15.6679E-03     9.61785E-03
             371     3.54407E-03     61.3060E-03    -15.0441E+06    -62.4562E+06    -8.24473E+06    -50.9519E+03    -15.7137E-03     31.4485E-03    -15.7348E-03     12.9023E-03    -15.6867E-03     31.1703E-03    -15.6637E-03     12.8996E-03
             372     4.43006E-03     61.3196E-03    -13.3138E+06    -61.0667E+06    -4.73681E+06    -92.5544E+03    -15.7281E-03     31.4706E-03    -15.7425E-03     16.3117E-03    -15.6998E-03     31.1919E-03    -15.6583E-03     16.3078E-03
             373     5.31615E-03     61.3363E-03    -11.5960E+06    -60.1031E+06    -1.91814E+06    -95.5088E+03    -15.7525E-03     31.4996E-03    -15.7471E-03     19.8725E-03    -15.7214E-03     31.2195E-03    -15.6527E-03     19.8679E-03
             374     6.20217E-03     61.3564E-03    -10.0047E+06    -58.5331E+06     101.084E+03    -83.3564E+03    -15.7851E-03     31.5320E-03    -15.7469E-03     23.5952E-03    -15.7517E-03     31.2550E-03    -15.6470E-03     23.5898E-03
             375     7.08827E-03     61.3801E-03    -8.55814E+06    -58.0724E+06     1.94262E+06    -22.6502E+03    -15.8276E-03     31.5752E-03    -15.7476E-03     27.4636E-03    -15.7909E-03     31.2964E-03    -15.6413E-03     27.4577E-03
             376     7.97432E-03     61.4074E-03    -7.31610E+06    -57.0042E+06     2.99910E+06    -42.0514E+03    -15.8768E-03     31.6205E-03    -15.7437E-03     31.4561E-03    -15.8380E-03     31.3447E-03    -15.6354E-03     31.4484E-03
             377     8.86046E-03     61.4384E-03    -6.14436E+06    -53.8239E+06     3.52384E+06     56.7608E+03    -15.9335E-03     31.6675E-03    -15.7340E-03     35.5608E-03    -15.8958E-03     31.4067E-03    -15.6294E-03     35.5521E-03
             378     9.74646E-03     61.4735E-03    -5.13783E+06    -53.5121E+06     3.77524E+06     194.196E+03    -15.9808E-03     31.7071E-03    -15.7263E-03     39.6649E-03    -15.9413E-03     31.4485E-03    -15.6224E-03     39.6550E-03
             379     10.6327E-03     61.5120E-03    -4.46542E+06    -50.4305E+06     374.843E+03     194.620E+03    -16.0270E-03     31.7218E-03    -15.6949E-03     43.7325E-03    -15.9874E-03     31.4863E-03    -15.6134E-03     43.7187E-03
             380     11.5188E-03     61.5548E-03    -3.92207E+06    -38.1429E+06     1.72803E+06     228.456E+03    -16.0472E-03     31.7187E-03    -15.6716E-03     48.0276E-03    -16.0307E-03     31.5480E-03    -15.6019E-03     48.0092E-03
             381     12.4053E-03     61.6010E-03    -3.27011E+06    -32.1722E+06      2.1828E+06     336.069E+03    -16.2289E-03     31.8819E-03    -15.6530E-03     54.6168E-03    -16.2303E-03     31.7512E-03    -15.5907E-03     54.5928E-03
             382     13.2909E-03     61.6567E-03    -3.43775E+06    -30.0557E+06    -6.76918E+06     459.652E+03    -16.4285E-03     32.0285E-03    -15.6000E-03     58.0949E-03    -16.4381E-03     31.9389E-03    -15.5853E-03     58.0647E-03
             383     14.1775E-03     61.7089E-03    -3.42367E+06    -5.58461E+06    -5.93865E+06     601.472E+03    -16.4088E-03     31.9744E-03    -15.5657E-03     61.4381E-03    -16.4824E-03     32.0333E-03    -15.5823E-03     61.4063E-03
             384     15.0632E-03     61.7713E-03    -3.23843E+06     37.0218E+06    -5.35863E+06     642.324E+03    -17.0418E-03     32.5371E-03    -15.4953E-03     86.3923E-03    -17.3124E-03     32.9432E-03    -15.5711E-03     86.3782E-03
             385     15.9497E-03     61.8702E-03    -4.09314E+06     92.2106E+06    -11.9801E+06     336.155E+03    -19.2120E-03     34.5863E-03    -15.3743E-03     134.300E-03    -20.4372E-03     36.1590E-03    -15.5620E-03     134.642E-03
             386     16.8387E-03     62.0220E-03    -3.31420E+06     153.717E+06     36.8856E+06     270.194E+03    -19.2667E-03     34.7743E-03    -15.5076E-03     162.285E-03    -21.7456E-03     37.6802E-03    -15.5413E-03     164.080E-03
             387     886.024E-06     62.2619E-03    -19.1768E+06    -66.0174E+06    -18.5295E+06    -32.5774E+03    -15.6886E-03     31.4007E-03    -15.7121E-03     3.47891E-03    -15.6619E-03     31.1253E-03    -15.6812E-03     3.47797E-03
             388     1.77200E-03     62.2665E-03    -18.2639E+06    -65.0576E+06    -15.9190E+06    -66.1240E+03    -15.6975E-03     31.4065E-03    -15.7090E-03     6.44883E-03    -15.6715E-03     31.1309E-03    -15.6678E-03     6.44701E-03
             389     2.65805E-03     62.2739E-03    -16.8724E+06    -64.0461E+06    -12.2774E+06    -104.811E+03    -15.7044E-03     31.4245E-03    -15.7201E-03     9.61890E-03    -15.6782E-03     31.1467E-03    -15.6641E-03     9.61608E-03
             390     3.54404E-03     62.2843E-03    -15.2112E+06    -62.4929E+06    -8.41028E+06    -126.502E+03    -15.7095E-03     31.4400E-03    -15.7305E-03     12.9051E-03    -15.6831E-03     31.1621E-03    -15.6599E-03     12.9014E-03
             391     4.43012E-03     62.2978E-03    -13.4399E+06    -61.0849E+06    -4.84755E+06    -110.062E+03    -15.7240E-03     31.4623E-03    -15.7383E-03     16.3151E-03    -15.6961E-03     31.1840E-03    -15.6545E-03     16.3110E-03
             392     5.31613E-03     62.3146E-03    -11.7619E+06    -60.1155E+06    -2.08096E+06    -153.662E+03    -15.7501E-03     31.4929E-03    -15.7429E-03     19.8705E-03    -15.7195E-03     31.2133E-03    -15.6491E-03     19.8651E-03
             393     6.20223E-03     62.3346E-03    -10.1791E+06    -58.5880E+06    -99.3075E+03    -167.435E+03    -15.7830E-03     31.5259E-03    -15.7429E-03     23.5942E-03    -15.7501E-03     31.2492E-03    -15.6437E-03     23.5877E-03
             394     7.08825E-03     62.3583E-03    -8.73343E+06    -58.2408E+06     1.66092E+06    -111.291E+03    -15.8272E-03     31.5709E-03    -15.7437E-03     27.4561E-03    -15.7908E-03     31.2919E-03    -15.6383E-03     27.4492E-03
             395     7.97439E-03     62.3856E-03    -7.40186E+06    -56.9860E+06     2.84411E+06    -80.6360E+03    -15.8829E-03     31.6236E-03    -15.7407E-03     31.4608E-03    -15.8444E-03     31.3482E-03    -15.6331E-03     31.4526E-03
             396     8.86038E-03     62.4168E-03    -6.31958E+06    -54.1097E+06     3.28336E+06    -79.4866E+03    -15.9229E-03     31.6541E-03    -15.7312E-03     35.5560E-03    -15.8853E-03     31.3924E-03    -15.6271E-03     35.5456E-03
             397     9.74664E-03     62.4515E-03    -5.31654E+06    -53.7302E+06     3.54474E+06     62.0966E+03    -15.9733E-03     31.6962E-03    -15.7229E-03     39.6471E-03    -15.9340E-03     31.4370E-03    -15.6195E-03     39.6355E-03
             398     10.6326E-03     62.4903E-03    -4.56398E+06    -50.3618E+06     384.930E+03     112.399E+03    -16.0467E-03     31.7396E-03    -15.6929E-03     43.6862E-03    -16.0077E-03     31.5045E-03    -15.6113E-03     43.6713E-03
             399     11.5190E-03     62.5326E-03    -4.15085E+06    -38.2482E+06     1.60356E+06     14.6903E+03    -16.1336E-03     31.8072E-03    -15.6736E-03     48.0244E-03    -16.1181E-03     31.6365E-03    -15.6041E-03     48.0030E-03
             400     12.4047E-03     62.5797E-03    -3.43709E+06    -32.5271E+06     2.02629E+06     70.2533E+03    -16.2629E-03     31.9223E-03    -15.6594E-03     54.6332E-03    -16.2644E-03     31.7903E-03    -15.5971E-03     54.6057E-03
             401     13.2916E-03     62.6341E-03    -2.78617E+06    -30.2371E+06    -6.53845E+06     393.026E+03    -16.3066E-03     31.9101E-03    -15.6035E-03     58.3086E-03    -16.3129E-03     31.8181E-03    -15.5883E-03     58.2780E-03
             402     14.1769E-03     62.6882E-03    -3.15606E+06    -6.09489E+06    -6.09786E+06     646.825E+03    -16.3471E-03     31.9084E-03    -15.5613E-03     61.9782E-03    -16.4188E-03     31.9650E-03    -15.5784E-03     61.9472E-03
             403     15.0636E-03     62.7483E-03    -3.46593E+06     36.7332E+06    -5.56331E+06     1.04951E+06    -17.0342E-03     32.5227E-03    -15.4886E-03     86.6023E-03    -17.3051E-03     32.9279E-03    -15.5646E-03     86.5930E-03
             404     15.9507E-03     62.8484E-03    -3.75760E+06     92.9495E+06    -11.2577E+06     870.896E+03    -18.7389E-03     34.0941E-03    -15.3553E-03     135.173E-03    -19.9727E-03     35.6772E-03    -15.5409E-03     135.541E-03
             405     16.8332E-03     63.0008E-03    -3.31045E+06     153.956E+06     37.1179E+06     140.524E+03    -19.2857E-03     34.7603E-03    -15.4747E-03     162.013E-03    -21.7482E-03     37.6501E-03    -15.5075E-03     163.788E-03
             406     885.980E-06     63.2402E-03    -19.0840E+06    -66.0210E+06    -18.4864E+06    -43.4662E+03    -15.7018E-03     31.3949E-03    -15.6931E-03     3.47269E-03    -15.6747E-03     31.1193E-03    -15.6621E-03     3.47161E-03
             407     1.77203E-03     63.2447E-03    -18.2057E+06    -65.0033E+06    -15.9142E+06    -82.9364E+03    -15.6928E-03     31.3981E-03    -15.7054E-03     6.46079E-03    -15.6666E-03     31.1227E-03    -15.6643E-03     6.45875E-03
             408     2.65803E-03     63.2521E-03    -16.8471E+06    -64.0271E+06    -12.2665E+06    -146.047E+03    -15.6961E-03     31.4116E-03    -15.7156E-03     9.62382E-03    -15.6699E-03     31.1339E-03    -15.6596E-03     9.62046E-03
             409     3.54410E-03     63.2625E-03    -15.2182E+06    -62.5136E+06    -8.41955E+06    -153.760E+03    -15.7058E-03     31.4313E-03    -15.7255E-03     12.9047E-03    -15.6794E-03     31.1533E-03    -15.6549E-03     12.9006E-03
             410     4.43010E-03     63.2761E-03    -13.4954E+06    -61.1150E+06    -4.97212E+06    -171.006E+03    -15.7213E-03     31.4545E-03    -15.7332E-03     16.3139E-03    -15.6935E-03     31.1762E-03    -15.6499E-03     16.3091E-03
             411     5.31620E-03     63.2928E-03    -11.7792E+06    -60.0909E+06    -2.19087E+06    -174.450E+03    -15.7478E-03     31.4859E-03    -15.7380E-03     19.8715E-03    -15.7173E-03     31.2065E-03    -15.6448E-03     19.8658E-03
             412     6.20220E-03     63.3129E-03    -10.2509E+06    -58.6078E+06    -249.272E+03    -224.967E+03    -15.7794E-03     31.5176E-03    -15.7382E-03     23.5909E-03    -15.7466E-03     31.2411E-03    -15.6396E-03     23.5836E-03
             413     7.08834E-03     63.3365E-03    -8.80473E+06    -58.3511E+06     1.47346E+06    -228.633E+03    -15.8248E-03     31.5639E-03    -15.7391E-03     27.4621E-03    -15.7884E-03     31.2848E-03    -15.6343E-03     27.4536E-03
             414     7.97434E-03     63.3639E-03    -7.54838E+06    -57.0843E+06     2.63864E+06    -152.597E+03    -15.8734E-03     31.6092E-03    -15.7359E-03     31.4728E-03    -15.8351E-03     31.3339E-03    -15.6290E-03     31.4637E-03
             415     8.86054E-03     63.3949E-03    -6.41993E+06    -54.1395E+06     3.31459E+06    -134.939E+03    -15.9170E-03     31.6440E-03    -15.7271E-03     35.5354E-03    -15.8799E-03     31.3823E-03    -15.6227E-03     35.5242E-03
             416     9.74654E-03     63.4298E-03    -5.42256E+06    -54.0227E+06     3.43949E+06    -94.7034E+03    -15.9810E-03     31.7000E-03    -15.7190E-03     39.6250E-03    -15.9417E-03     31.4397E-03    -15.6156E-03     39.6113E-03
             417     10.6328E-03     63.4684E-03    -4.65130E+06    -50.3311E+06     212.845E+03    -61.1163E+03    -16.0797E-03     31.7698E-03    -15.6902E-03     43.7088E-03    -16.0410E-03     31.5353E-03    -15.6094E-03     43.6915E-03
             418     11.5187E-03     63.5109E-03    -3.98195E+06    -38.3381E+06     1.62224E+06    -63.5036E+03    -16.1106E-03     31.7827E-03    -15.6721E-03     48.1282E-03    -16.0941E-03     31.6113E-03    -15.6027E-03     48.1059E-03
             419     12.4053E-03     63.5577E-03    -3.64825E+06    -32.6855E+06     1.66519E+06     27.4219E+03    -16.2062E-03     31.8598E-03    -15.6537E-03     54.8187E-03    -16.2080E-03     31.7279E-03    -15.5927E-03     54.7908E-03
             420     13.2907E-03     63.6123E-03    -3.69169E+06    -30.6619E+06    -7.28631E+06     182.363E+03    -16.2383E-03     31.8315E-03    -15.5932E-03     58.3886E-03    -16.2475E-03     31.7398E-03    -15.5798E-03     58.3553E-03
             421     14.1783E-03     63.6656E-03    -3.65493E+06    -6.57352E+06    -6.47148E+06     576.774E+03    -16.2048E-03     31.7514E-03    -15.5466E-03     61.8359E-03    -16.2773E-03     31.8064E-03    -15.5641E-03     61.8045E-03
             422     15.0641E-03     63.7273E-03    -3.83448E+06     36.3129E+06    -6.02881E+06     756.918E+03    -17.0661E-03     32.5371E-03    -15.4710E-03     86.4237E-03    -17.3393E-03     32.9431E-03    -15.5482E-03     86.4106E-03
             423     15.9494E-03     63.8258E-03    -3.58318E+06     92.7358E+06    -11.5184E+06     979.279E+03    -18.4503E-03     33.7836E-03    -15.3334E-03     134.372E-03    -19.6688E-03     35.3519E-03    -15.5202E-03     134.747E-03
             424     16.8423E-03     63.9782E-03    -2.85010E+06     154.801E+06     38.1663E+06     664.960E+03    -19.3375E-03     34.7914E-03    -15.4539E-03     161.801E-03    -21.7973E-03     37.6799E-03    -15.4834E-03     163.577E-03
             425     886.047E-06     64.2184E-03    -19.1304E+06    -65.9865E+06    -18.4892E+06    -50.5829E+03    -15.6792E-03     31.3738E-03    -15.6946E-03     3.48416E-03    -15.6523E-03     31.0985E-03    -15.6637E-03     3.48299E-03
             426     1.77202E-03     64.2229E-03    -18.2047E+06    -64.9497E+06    -15.9354E+06    -103.014E+03    -15.6928E-03     31.3897E-03    -15.6969E-03     6.46009E-03    -15.6666E-03     31.1145E-03    -15.6560E-03     6.45779E-03
             427     2.65808E-03     64.2303E-03    -16.8803E+06    -63.9635E+06    -12.2997E+06    -155.574E+03    -15.6931E-03     31.4027E-03    -15.7096E-03     9.62591E-03    -15.6671E-03     31.1253E-03    -15.6539E-03     9.62242E-03
             428     3.54407E-03     64.2408E-03    -15.2364E+06    -62.5333E+06    -8.47278E+06    -201.389E+03    -15.7010E-03     31.4210E-03    -15.7201E-03     12.9033E-03    -15.6745E-03     31.1431E-03    -15.6497E-03     12.8987E-03
             429     4.43017E-03     64.2543E-03    -13.4928E+06    -61.1030E+06    -5.03809E+06    -209.362E+03    -15.7174E-03     31.4452E-03    -15.7278E-03     16.3140E-03    -15.6895E-03     31.1671E-03    -15.6448E-03     16.3087E-03
             430     5.31617E-03     64.2710E-03    -11.8105E+06    -60.1074E+06    -2.33365E+06    -251.928E+03    -15.7419E-03     31.4743E-03    -15.7324E-03     19.8722E-03    -15.7113E-03     31.1951E-03    -15.6398E-03     19.8656E-03
             431     6.20230E-03     64.2911E-03    -10.1896E+06    -58.5464E+06    -289.990E+03    -288.692E+03    -15.7750E-03     31.5078E-03    -15.7327E-03     23.5924E-03    -15.7420E-03     31.2315E-03    -15.6345E-03     23.5844E-03
             432     7.08830E-03     64.3148E-03    -8.80875E+06    -58.4649E+06     1.48825E+06    -284.500E+03    -15.8169E-03     31.5510E-03    -15.7341E-03     27.4611E-03    -15.7803E-03     31.2713E-03    -15.6291E-03     27.4519E-03
             433     7.97448E-03     64.3420E-03    -7.55023E+06    -57.1981E+06     2.55920E+06    -213.077E+03    -15.8610E-03     31.5909E-03    -15.7299E-03     31.4631E-03    -15.8225E-03     31.3151E-03    -15.6232E-03     31.4532E-03
             434     8.86048E-03     64.3731E-03    -6.43546E+06    -54.1771E+06     3.16099E+06    -209.137E+03    -15.9146E-03     31.6351E-03    -15.7204E-03     35.5307E-03    -15.8773E-03     31.3734E-03    -15.6167E-03     35.5186E-03
             435     9.74671E-03     64.4079E-03    -5.45781E+06    -54.0828E+06     3.26001E+06    -256.081E+03    -15.9897E-03     31.7027E-03    -15.7130E-03     39.6383E-03    -15.9502E-03     31.4424E-03    -15.6104E-03     39.6226E-03
             436     10.6327E-03     64.4466E-03    -4.77229E+06    -50.6158E+06         -80.375    -169.162E+03    -16.0601E-03     31.7445E-03    -15.6845E-03     43.7773E-03    -16.0213E-03     31.5091E-03    -15.6041E-03     43.7587E-03
             437     11.5190E-03     64.4891E-03    -4.28316E+06    -38.5252E+06     1.55268E+06    -61.1271E+03    -16.0864E-03     31.7524E-03    -15.6660E-03     48.0821E-03    -16.0710E-03     31.5806E-03    -15.5962E-03     48.0598E-03
             438     12.4051E-03     64.5356E-03    -3.79805E+06    -32.7040E+06     1.73309E+06     60.0025E+03    -16.1913E-03     31.8386E-03    -15.6472E-03     54.5697E-03    -16.1939E-03     31.7065E-03    -15.5856E-03     54.5422E-03
             439     13.2922E-03     64.5906E-03    -3.81168E+06    -30.9231E+06    -7.27071E+06     26.3906E+03    -16.3001E-03     31.8894E-03    -15.5893E-03     58.0648E-03    -16.3095E-03     31.7966E-03    -15.5753E-03     58.0293E-03
             440     14.1768E-03     64.6436E-03    -3.86589E+06    -7.08017E+06    -6.75774E+06     107.938E+03    -16.3242E-03     31.8724E-03    -15.5481E-03     61.5681E-03    -16.3968E-03     31.9257E-03    -15.5661E-03     61.5303E-03
             441     15.0640E-03     64.7049E-03    -3.68720E+06     36.2341E+06    -6.18940E+06     481.246E+03    -17.1033E-03     32.5809E-03    -15.4776E-03     85.8797E-03    -17.3744E-03     32.9855E-03    -15.5558E-03     85.8635E-03
             442     15.9516E-03     64.8043E-03    -4.43325E+06     92.2369E+06    -11.7482E+06     598.835E+03    -18.7677E-03     34.1229E-03    -15.3553E-03     132.496E-03    -19.9750E-03     35.6760E-03    -15.5413E-03     132.849E-03
             443     16.8325E-03     64.9533E-03    -3.35301E+06     154.738E+06     37.7349E+06     890.145E+03    -19.2404E-03     34.7232E-03    -15.4828E-03     161.627E-03    -21.7156E-03     37.6264E-03    -15.5136E-03     163.421E-03
             444     886.015E-06     65.1966E-03    -19.2438E+06    -65.9087E+06    -18.6809E+06    -84.8618E+03    -15.6676E-03     31.3591E-03    -15.6916E-03     3.52121E-03    -15.6412E-03     31.0846E-03    -15.6615E-03     3.51959E-03
             445     1.77206E-03     65.2011E-03    -18.3741E+06    -64.8924E+06    -16.0617E+06    -139.396E+03    -15.6873E-03     31.3774E-03    -15.6901E-03     6.44794E-03    -15.6618E-03     31.1029E-03    -15.6497E-03     6.44517E-03
             446     2.65806E-03     65.2086E-03    -16.9785E+06    -63.9047E+06    -12.4264E+06    -174.796E+03    -15.6878E-03     31.3911E-03    -15.7033E-03     9.62397E-03    -15.6622E-03     31.1144E-03    -15.6481E-03     9.62024E-03
             447     3.54414E-03     65.2190E-03    -15.3398E+06    -62.4503E+06    -8.58192E+06    -261.350E+03    -15.6949E-03     31.4088E-03    -15.7139E-03     12.9064E-03    -15.6689E-03     31.1316E-03    -15.6440E-03     12.9010E-03
             448     4.43015E-03     65.2325E-03    -13.5602E+06    -61.1383E+06    -5.15758E+06    -307.145E+03    -15.7097E-03     31.4313E-03    -15.7216E-03     16.3165E-03    -15.6819E-03     31.1533E-03    -15.6390E-03     16.3099E-03
             449     5.31626E-03     65.2492E-03    -11.8331E+06    -60.0476E+06    -2.42024E+06    -317.882E+03    -15.7345E-03     31.4603E-03    -15.7258E-03     19.8743E-03    -15.7039E-03     31.1816E-03    -15.6337E-03     19.8668E-03
             450     6.20227E-03     65.2693E-03    -10.3603E+06    -58.5755E+06    -442.662E+03    -340.128E+03    -15.7664E-03     31.4924E-03    -15.7260E-03     23.5962E-03    -15.7339E-03     31.2165E-03    -15.6282E-03     23.5875E-03
             451     7.08842E-03     65.2930E-03    -8.94233E+06    -58.4946E+06     1.38013E+06    -333.197E+03    -15.8089E-03     31.5362E-03    -15.7273E-03     27.4557E-03    -15.7728E-03     31.2567E-03    -15.6226E-03     27.4459E-03
             452     7.97444E-03     65.3202E-03    -7.62454E+06    -57.2981E+06     2.40080E+06    -335.723E+03    -15.8518E-03     31.5744E-03    -15.7226E-03     31.4530E-03    -15.8133E-03     31.2985E-03    -15.6165E-03     31.4415E-03
             453     8.86065E-03     65.3513E-03    -6.42622E+06    -54.2070E+06     2.95514E+06    -323.975E+03    -15.9081E-03     31.6207E-03    -15.7126E-03     35.5372E-03    -15.8704E-03     31.3592E-03    -15.6099E-03     35.5237E-03
             454     9.74667E-03     65.3861E-03    -5.49767E+06    -54.0416E+06     3.12597E+06    -335.422E+03    -15.9880E-03     31.6937E-03    -15.7058E-03     39.6275E-03    -15.9485E-03     31.4339E-03    -15.6038E-03     39.6108E-03
             455     10.6329E-03     65.4248E-03    -5.05259E+06    -50.7228E+06    -174.416E+03    -191.577E+03    -16.0544E-03     31.7323E-03    -15.6779E-03     43.7025E-03    -16.0166E-03     31.4970E-03    -15.5979E-03     43.6836E-03
             456     11.5190E-03     65.4671E-03    -4.56040E+06    -38.7254E+06     1.32322E+06    -65.6085E+03    -16.1067E-03     31.7672E-03    -15.6605E-03     48.0253E-03    -16.0921E-03     31.5951E-03    -15.5911E-03     48.0029E-03
             457     12.4052E-03     65.5140E-03    -3.96950E+06    -33.1762E+06     1.34723E+06    -47.6373E+03    -16.2692E-03     31.9142E-03    -15.6451E-03     54.5594E-03    -16.2715E-03     31.7808E-03    -15.5845E-03     54.5304E-03
             458     13.2905E-03     65.5682E-03    -3.79734E+06    -30.7535E+06    -7.36491E+06     77.0030E+03    -16.3708E-03     31.9632E-03    -15.5924E-03     58.1147E-03    -16.3803E-03     31.8714E-03    -15.5791E-03     58.0797E-03
             459     14.1782E-03     65.6221E-03    -4.14140E+06    -7.14703E+06    -6.90388E+06    -62.2071E+03    -16.4214E-03     31.9780E-03    -15.5566E-03     61.6680E-03    -16.4952E-03     32.0318E-03    -15.5748E-03     61.6276E-03
             460     15.0633E-03     65.6831E-03    -4.68544E+06     34.9985E+06    -7.19322E+06     280.332E+03    -17.2042E-03     32.6935E-03    -15.4892E-03     86.3280E-03    -17.4775E-03     33.0952E-03    -15.5691E-03     86.3082E-03
             461     15.9479E-03     65.7824E-03    -4.61326E+06     92.2453E+06    -12.2200E+06     1.03047E+06    -18.8985E-03     34.2682E-03    -15.3697E-03     133.598E-03    -20.1163E-03     35.8325E-03    -15.5578E-03     133.957E-03
             462     16.8393E-03     65.9326E-03    -3.12158E+06     155.483E+06     37.6756E+06     810.993E+03    -19.1651E-03     34.6595E-03    -15.4945E-03     162.620E-03    -21.6528E-03     37.5789E-03    -15.5270E-03     164.427E-03
             463     886.036E-06     66.1748E-03    -19.4590E+06    -65.7715E+06    -18.7631E+06    -106.943E+03    -15.6824E-03     31.3540E-03    -15.6716E-03     3.53751E-03    -15.6571E-03     31.0806E-03    -15.6418E-03     3.53560E-03
             464     1.77204E-03     66.1794E-03    -18.4792E+06    -64.8086E+06    -16.1854E+06    -178.185E+03    -15.6752E-03     31.3609E-03    -15.6857E-03     6.45171E-03    -15.6502E-03     31.0872E-03    -15.6459E-03     6.44844E-03
             465     2.65811E-03     66.1868E-03    -17.0903E+06    -63.8204E+06    -12.5663E+06    -261.275E+03    -15.6786E-03     31.3751E-03    -15.6964E-03     9.62667E-03    -15.6535E-03     31.0992E-03    -15.6420E-03     9.62183E-03
             466     3.54412E-03     66.1972E-03    -15.4083E+06    -62.3652E+06    -8.73082E+06    -304.579E+03    -15.6858E-03     31.3922E-03    -15.7063E-03     12.9111E-03    -15.6601E-03     31.1157E-03    -15.6372E-03     12.9051E-03
             467     4.43022E-03     66.2107E-03    -13.7075E+06     -61.051E+06    -5.28054E+06    -390.795E+03    -15.7009E-03     31.4148E-03    -15.7139E-03     16.3204E-03    -15.6738E-03     31.1376E-03    -15.6319E-03     16.3127E-03
             468     5.31625E-03     66.2274E-03    -12.0273E+06    -60.0880E+06    -2.60882E+06    -410.153E+03    -15.7254E-03     31.4432E-03    -15.7178E-03     19.8780E-03    -15.6955E-03     31.1649E-03    -15.6263E-03     19.8693E-03
             469     6.20238E-03     66.2476E-03    -10.4394E+06    -58.5844E+06    -615.682E+03    -351.013E+03    -15.7565E-03     31.4741E-03    -15.7176E-03     23.5959E-03    -15.7242E-03     31.1985E-03    -15.6206E-03     23.5870E-03
             470     7.08841E-03     66.2711E-03    -9.08719E+06    -58.4791E+06     1.11285E+06    -410.551E+03    -15.7993E-03     31.5176E-03    -15.7183E-03     27.4563E-03    -15.7635E-03     31.2387E-03    -15.6148E-03     27.4455E-03
             471     7.97458E-03     66.2984E-03    -7.79664E+06    -57.2306E+06     2.20614E+06    -500.680E+03    -15.8498E-03     31.5640E-03    -15.7142E-03     31.4435E-03    -15.8119E-03     31.2889E-03    -15.6089E-03     31.4298E-03
             472     8.86062E-03     66.3294E-03    -6.68482E+06    -54.2916E+06     2.70632E+06    -473.142E+03    -15.9056E-03     31.6105E-03    -15.7049E-03     35.5333E-03    -15.8688E-03     31.3493E-03    -15.6029E-03     35.5178E-03
             473     9.74683E-03     66.3643E-03    -5.69362E+06    -54.1664E+06     2.85485E+06    -383.996E+03    -15.9937E-03     31.6925E-03    -15.6988E-03     39.6189E-03    -15.9547E-03     31.4327E-03    -15.5977E-03     39.6015E-03
             474     10.6328E-03     66.4028E-03    -4.89753E+06    -50.7060E+06    -285.939E+03    -268.673E+03    -16.0629E-03     31.7350E-03    -15.6721E-03     43.6675E-03    -16.0241E-03     31.4997E-03    -15.5929E-03     43.6476E-03
             475     11.5190E-03     66.4454E-03    -4.58286E+06    -38.9934E+06     887.331E+03    -112.560E+03    -16.0851E-03     31.7387E-03    -15.6536E-03     48.0899E-03    -16.0696E-03     31.5659E-03    -15.5860E-03     48.0669E-03
             476     12.4052E-03     66.4918E-03    -4.19829E+06    -33.2990E+06     882.589E+03    -96.3958E+03    -16.2665E-03     31.9039E-03    -15.6373E-03     54.6919E-03    -16.2691E-03     31.7708E-03    -15.5786E-03     54.6623E-03
             477     13.2921E-03     66.5468E-03    -4.00329E+06    -30.9367E+06    -7.67081E+06     51.4088E+03    -16.4227E-03     32.0099E-03    -15.5872E-03     58.3089E-03    -16.4327E-03     31.9182E-03    -15.5749E-03     58.2734E-03
             478     14.1765E-03     66.5998E-03    -4.29383E+06    -7.31095E+06    -7.16643E+06     253.660E+03    -16.3382E-03     31.8887E-03    -15.5505E-03     61.9845E-03    -16.4123E-03     31.9424E-03    -15.5695E-03     61.9486E-03
             479     15.0639E-03     66.6616E-03    -4.62896E+06     34.2124E+06    -7.58249E+06     424.992E+03    -16.9990E-03     32.4731E-03    -15.4741E-03     86.7548E-03    -17.2705E-03     32.8715E-03    -15.5549E-03     86.7382E-03
             480     15.9522E-03     66.7604E-03    -4.91719E+06     91.9273E+06    -14.3354E+06     469.983E+03    -18.8871E-03     34.2267E-03    -15.3396E-03     133.726E-03    -20.1033E-03     35.7933E-03    -15.5374E-03     134.077E-03
             481     16.8342E-03     66.9101E-03    -3.60122E+06     156.150E+06     36.3802E+06     351.828E+03    -19.3541E-03     34.8293E-03    -15.4751E-03     161.314E-03    -21.8192E-03     37.7304E-03    -15.5144E-03     163.094E-03
             482     886.013E-06     67.1531E-03    -19.4715E+06    -65.5989E+06    -18.8664E+06    -91.8760E+03    -15.6808E-03     31.3402E-03    -15.6593E-03     3.53264E-03    -15.6557E-03     31.0678E-03    -15.6303E-03     3.53092E-03
             483     1.77208E-03     67.1576E-03    -18.5956E+06    -64.6668E+06    -16.3190E+06    -234.757E+03    -15.6653E-03     31.3432E-03    -15.6780E-03     6.45797E-03    -15.6409E-03     31.0706E-03    -15.6389E-03     6.45397E-03
             484     2.65810E-03     67.1650E-03    -17.2327E+06    -63.6873E+06    -12.7714E+06    -315.971E+03    -15.6680E-03     31.3555E-03    -15.6875E-03     9.63132E-03    -15.6435E-03     31.0807E-03    -15.6340E-03     9.62576E-03
             485     3.54419E-03     67.1754E-03    -15.6005E+06    -62.2689E+06    -8.94925E+06    -414.078E+03    -15.6751E-03     31.3720E-03    -15.6969E-03     12.9158E-03    -15.6502E-03     31.0966E-03    -15.6287E-03     12.9084E-03
             486     4.43023E-03     67.1889E-03    -13.8204E+06    -60.9721E+06    -5.43126E+06    -429.511E+03    -15.6912E-03     31.3957E-03    -15.7044E-03     16.3243E-03    -15.6646E-03     31.1193E-03    -15.6231E-03     16.3161E-03
             487     5.31633E-03     67.2056E-03    -12.1568E+06    -60.0443E+06    -2.74314E+06    -478.849E+03    -15.7163E-03     31.4249E-03    -15.7085E-03     19.8794E-03    -15.6869E-03     31.1471E-03    -15.6176E-03     19.8698E-03
             488     6.20239E-03     67.2257E-03    -10.5649E+06    -58.6378E+06    -890.591E+03    -519.331E+03    -15.7465E-03     31.4541E-03    -15.7077E-03     23.5957E-03    -15.7143E-03     31.1789E-03    -15.6118E-03     23.5847E-03
             489     7.08853E-03     67.2494E-03    -9.02996E+06    -58.3776E+06     993.514E+03    -508.955E+03    -15.7923E-03     31.5010E-03    -15.7087E-03     27.4533E-03    -15.7562E-03     31.2227E-03    -15.6060E-03     27.4412E-03
             490     7.97459E-03     67.2765E-03    -7.76861E+06    -57.1747E+06     2.08616E+06    -598.690E+03    -15.8494E-03     31.5546E-03    -15.7052E-03     31.4445E-03    -15.8113E-03     31.2799E-03    -15.6006E-03     31.4296E-03
             491     8.86074E-03     67.3076E-03    -6.69488E+06    -54.3287E+06     2.59256E+06    -580.344E+03    -15.9083E-03     31.6053E-03    -15.6970E-03     35.5348E-03    -15.8712E-03     31.3441E-03    -15.5956E-03     35.5179E-03
             492     9.74682E-03     67.3423E-03    -5.71210E+06    -54.3657E+06     2.63503E+06    -510.101E+03    -15.9718E-03     31.6622E-03    -15.6904E-03     39.6591E-03    -15.9323E-03     31.4018E-03    -15.5901E-03     39.6401E-03
             493     10.6330E-03     67.3812E-03    -4.87237E+06    -51.1578E+06    -526.134E+03    -472.692E+03    -16.0357E-03     31.6981E-03    -15.6624E-03     43.7144E-03    -15.9958E-03     31.4608E-03    -15.5838E-03     43.6919E-03
             494     11.5192E-03     67.4231E-03    -4.28015E+06    -39.1271E+06     932.387E+03    -310.413E+03    -16.0987E-03     31.7430E-03    -15.6444E-03     48.1351E-03    -16.0815E-03     31.5691E-03    -15.5768E-03     48.1096E-03
             495     12.4054E-03     67.4704E-03    -3.93376E+06    -33.1772E+06     1.07430E+06    -76.8726E+03    -16.2361E-03     31.8646E-03    -15.6285E-03     54.6995E-03    -16.2377E-03     31.7314E-03    -15.5693E-03     54.6703E-03
             496     13.2908E-03     67.5245E-03    -3.71981E+06    -31.2723E+06    -7.53946E+06    -41.0153E+03    -16.2828E-03     31.8564E-03    -15.5736E-03     58.3932E-03    -16.2910E-03     31.7622E-03    -15.5606E-03     58.3570E-03
             497     14.1786E-03     67.5785E-03    -3.77297E+06    -7.97241E+06    -7.24952E+06     494.532E+03    -16.2329E-03     31.7618E-03    -15.5289E-03     61.9913E-03    -16.3030E-03     31.8112E-03    -15.5481E-03     61.9588E-03
             498     15.0643E-03     67.6386E-03    -4.06094E+06     34.4703E+06    -7.19607E+06     771.678E+03    -16.9861E-03     32.4372E-03    -15.4511E-03     86.5956E-03    -17.2546E-03     32.8345E-03    -15.5312E-03     86.5837E-03
             499     15.9489E-03     67.7389E-03    -4.79950E+06     92.1498E+06    -13.9995E+06     63.8328E+03    -19.1887E-03     34.5142E-03    -15.3255E-03     134.123E-03    -20.4145E-03     36.0906E-03    -15.5222E-03     134.466E-03
             500     16.8386E-03     67.8892E-03    -3.72325E+06     155.889E+06     36.1071E+06    -92.7459E+03    -19.5301E-03     35.0031E-03    -15.4730E-03     160.564E-03    -21.9813E-03     37.8898E-03    -15.5131E-03     162.323E-03
             501     886.054E-06     68.1312E-03    -19.6267E+06    -65.4214E+06    -19.0084E+06    -134.717E+03    -15.6577E-03     31.3170E-03    -15.6594E-03     3.52040E-03    -15.6334E-03     31.0460E-03    -15.6311E-03     3.51814E-03
             502     1.77207E-03     68.1358E-03    -18.6985E+06    -64.4497E+06    -16.4636E+06    -258.111E+03    -15.6553E-03     31.3219E-03    -15.6666E-03     6.46234E-03    -15.6315E-03     31.0507E-03    -15.6283E-03     6.45803E-03
             503     2.65815E-03     68.1432E-03    -17.3466E+06    -63.5287E+06    -12.8689E+06    -393.283E+03    -15.6581E-03     31.3349E-03    -15.6768E-03     9.63381E-03    -15.6342E-03     31.0612E-03    -15.6239E-03     9.62725E-03
             504     3.54420E-03     68.1536E-03    -15.7110E+06    -62.1033E+06    -9.06928E+06    -471.168E+03    -15.6649E-03     31.3512E-03    -15.6863E-03     12.9185E-03    -15.6406E-03     31.0769E-03    -15.6188E-03     12.9104E-03
             505     4.43029E-03     68.1671E-03    -13.9807E+06    -60.9126E+06    -5.67844E+06    -571.998E+03    -15.6802E-03     31.3736E-03    -15.6934E-03     16.3268E-03    -15.6541E-03     31.0981E-03    -15.6132E-03     16.3167E-03
             506     5.31637E-03     68.1838E-03    -12.2025E+06    -59.9747E+06    -2.95312E+06    -574.946E+03    -15.7057E-03     31.4032E-03    -15.6974E-03     19.8820E-03    -15.6764E-03     31.1261E-03    -15.6075E-03     19.8711E-03
             507     6.20248E-03     68.2039E-03    -10.6239E+06    -58.5074E+06    -987.916E+03    -678.593E+03    -15.7394E-03     31.4366E-03    -15.6972E-03     23.5944E-03    -15.7075E-03     31.1622E-03    -15.6019E-03     23.5813E-03
             508     7.08856E-03     68.2274E-03    -9.17685E+06    -58.4048E+06     708.761E+03    -743.544E+03    -15.7842E-03     31.4822E-03    -15.6980E-03     27.4591E-03    -15.7484E-03     31.2044E-03    -15.5964E-03     27.4440E-03
             509     7.97469E-03     68.2548E-03    -7.81801E+06    -57.1650E+06     1.91498E+06    -673.174E+03    -15.8414E-03     31.5365E-03    -15.6951E-03     31.4595E-03    -15.8034E-03     31.2622E-03    -15.5913E-03     31.4437E-03
             510     8.86080E-03     68.2856E-03    -6.68944E+06    -54.3506E+06     2.53068E+06    -710.600E+03    -15.8915E-03     31.5785E-03    -15.6871E-03     35.5500E-03    -15.8543E-03     31.3173E-03    -15.5859E-03     35.5315E-03
             511     9.74693E-03     68.3207E-03    -5.67841E+06    -54.4295E+06     2.63816E+06    -691.562E+03    -15.9309E-03     31.6100E-03    -15.6791E-03     39.6514E-03    -15.8911E-03     31.3491E-03    -15.5787E-03     39.6301E-03
             512     10.6332E-03     68.3589E-03    -5.03528E+06    -51.4976E+06    -773.593E+03    -688.698E+03    -16.0270E-03     31.6763E-03    -15.6493E-03     43.7350E-03    -15.9871E-03     31.4380E-03    -15.5712E-03     43.7097E-03
             513     11.5192E-03     68.4016E-03    -4.43503E+06    -39.2952E+06     886.716E+03    -532.835E+03    -16.0913E-03     31.7237E-03    -15.6324E-03     48.1661E-03    -16.0747E-03     31.5492E-03    -15.5645E-03     48.1378E-03
             514     12.4054E-03     68.4481E-03    -3.65169E+06    -33.5056E+06     1.27136E+06    -248.028E+03    -16.1898E-03     31.8060E-03    -15.6162E-03     54.7635E-03    -16.1899E-03     31.6705E-03    -15.5560E-03     54.7321E-03
             515     13.2924E-03     68.5029E-03    -3.68147E+06    -31.7696E+06    -7.58380E+06     51.4536E+03    -16.1907E-03     31.7476E-03    -15.5570E-03     58.2416E-03    -16.1976E-03     31.6508E-03    -15.5435E-03     58.2068E-03
             516     14.1776E-03     68.5557E-03    -3.65396E+06    -8.39428E+06    -7.08116E+06     157.223E+03    -16.2132E-03     31.7240E-03    -15.5108E-03     61.8766E-03    -16.2823E-03     31.7709E-03    -15.5287E-03     61.8399E-03
             517     15.0643E-03     68.6175E-03    -3.61759E+06     33.9697E+06    -6.92710E+06     655.504E+03    -16.8673E-03     32.2978E-03    -15.4304E-03     86.5102E-03    -17.1326E-03     32.6908E-03    -15.5091E-03     86.4976E-03
             518     15.9526E-03     68.7162E-03    -4.03052E+06     93.1632E+06    -13.0964E+06     991.407E+03    -18.8708E-03     34.1617E-03    -15.2909E-03     135.889E-03    -20.1121E-03     35.7574E-03    -15.4856E-03     136.256E-03
             519     16.8343E-03     68.8693E-03    -3.70442E+06     156.454E+06     36.4219E+06    -212.448E+03    -19.8675E-03     35.3010E-03    -15.4335E-03     161.419E-03    -22.3157E-03     38.1858E-03    -15.4729E-03     163.157E-03
             520     886.037E-06     69.1094E-03    -19.8348E+06    -65.1593E+06    -19.2203E+06    -169.612E+03    -15.6346E-03     31.2925E-03    -15.6579E-03     3.51585E-03    -15.6115E-03     31.0234E-03    -15.6308E-03     3.51314E-03
             521     1.77212E-03     69.1139E-03    -18.9205E+06    -64.2242E+06    -16.6534E+06    -325.468E+03    -15.6421E-03     31.2965E-03    -15.6544E-03     6.46038E-03    -15.6195E-03     31.0270E-03    -15.6171E-03     6.45521E-03
             522     2.65816E-03     69.1213E-03    -17.5573E+06    -63.2868E+06    -13.0581E+06    -447.315E+03    -15.6465E-03     31.3110E-03    -15.6645E-03     9.63395E-03    -15.6238E-03     31.0392E-03    -15.6126E-03     9.62670E-03
             523     3.54425E-03     69.1317E-03    -15.9041E+06    -61.9430E+06    -9.31689E+06    -574.841E+03    -15.6532E-03     31.3271E-03    -15.6740E-03     12.9202E-03    -15.6297E-03     31.0543E-03    -15.6077E-03     12.9107E-03
             524     4.43033E-03     69.1452E-03    -14.1460E+06    -60.7120E+06    -5.91865E+06    -670.782E+03    -15.6685E-03     31.3496E-03    -15.6811E-03     16.3302E-03    -15.6432E-03     31.0757E-03    -15.6021E-03     16.3189E-03
             525     5.31643E-03     69.1620E-03    -12.4352E+06    -59.9008E+06    -3.24359E+06    -806.164E+03    -15.6945E-03     31.3797E-03    -15.6852E-03     19.8838E-03    -15.6660E-03     31.1038E-03    -15.5965E-03     19.8700E-03
             526     6.20254E-03     69.1820E-03    -10.7430E+06    -58.3246E+06    -1.22354E+06    -846.483E+03    -15.7290E-03     31.4141E-03    -15.6851E-03     23.6016E-03    -15.6977E-03     31.1411E-03    -15.5910E-03     23.5864E-03
             527     7.08864E-03     69.2056E-03    -9.27531E+06    -58.3465E+06     635.672E+03    -922.498E+03    -15.7756E-03     31.4626E-03    -15.6870E-03     27.4596E-03    -15.7402E-03     31.1853E-03    -15.5858E-03     27.4421E-03
             528     7.97478E-03     69.2328E-03    -7.94903E+06    -57.2892E+06     1.73658E+06    -888.402E+03    -15.8251E-03     31.5088E-03    -15.6838E-03     31.4722E-03    -15.7872E-03     31.2344E-03    -15.5805E-03     31.4536E-03
             529     8.86089E-03     69.2639E-03    -6.73345E+06    -54.2512E+06     2.44690E+06    -853.033E+03    -15.8641E-03     31.5388E-03    -15.6747E-03     35.5233E-03    -15.8271E-03     31.2783E-03    -15.5741E-03     35.5030E-03
             530     9.74715E-03     69.2984E-03    -5.79163E+06    -54.4522E+06     2.57844E+06    -929.958E+03    -15.9385E-03     31.6058E-03    -15.6673E-03     39.5970E-03    -15.8991E-03     31.3451E-03    -15.5671E-03     39.5726E-03
             531     10.6332E-03     69.3373E-03    -5.03704E+06    -51.3298E+06    -734.013E+03    -848.204E+03    -16.0242E-03     31.6631E-03    -15.6389E-03     43.7083E-03    -15.9846E-03     31.4256E-03    -15.5609E-03     43.6809E-03
             532     11.5195E-03     69.3795E-03    -4.60565E+06    -39.5707E+06     599.720E+03    -706.172E+03    -16.0484E-03     31.6689E-03    -15.6205E-03     48.0632E-03    -16.0317E-03     31.4936E-03    -15.5534E-03     48.0327E-03
             533     12.4059E-03     69.4263E-03    -4.21978E+06    -34.1604E+06     614.985E+03    -509.365E+03    -16.1618E-03     31.7640E-03    -15.6021E-03     54.5737E-03    -16.1628E-03     31.6269E-03    -15.5434E-03     54.5390E-03
             534     13.2913E-03     69.4806E-03    -3.79751E+06    -32.2764E+06    -8.04456E+06    -158.022E+03    -16.2795E-03     31.8257E-03    -15.5462E-03     57.9756E-03    -16.2858E-03     31.7273E-03    -15.5341E-03     57.9378E-03
             535     14.1788E-03     69.5338E-03    -4.10212E+06    -8.43248E+06    -7.48527E+06     47.3678E+03    -16.2079E-03     31.7119E-03    -15.5039E-03     61.6211E-03    -16.2787E-03     31.7599E-03    -15.5232E-03     61.5830E-03
             536     15.0648E-03     69.5954E-03    -3.52297E+06     33.3583E+06    -6.98619E+06    -132.151E+03    -16.9046E-03     32.3327E-03    -15.4282E-03     85.6300E-03    -17.1678E-03     32.7221E-03    -15.5063E-03     85.6066E-03
             537     15.9506E-03     69.6927E-03    -2.59513E+06     92.4896E+06    -13.1323E+06     502.907E+03    -18.4376E-03     33.7183E-03    -15.2807E-03     134.066E-03    -19.6536E-03     35.2913E-03    -15.4767E-03     134.432E-03
             538     16.8427E-03     69.8490E-03    -2.70353E+06     157.188E+06     37.0810E+06     655.895E+03    -19.7560E-03     35.1712E-03    -15.4152E-03     160.988E-03    -22.1994E-03     38.0554E-03    -15.4538E-03     162.736E-03
             539     886.067E-06     70.0875E-03    -20.0048E+06    -64.8409E+06    -19.4223E+06    -229.045E+03    -15.6295E-03     31.2701E-03    -15.6406E-03     3.49989E-03    -15.6074E-03     31.0032E-03    -15.6147E-03     3.49641E-03
             540     1.77211E-03     70.0920E-03    -19.1161E+06    -63.9292E+06    -16.8308E+06    -363.523E+03    -15.6268E-03     31.2692E-03    -15.6424E-03     6.46238E-03    -15.6053E-03     31.0018E-03    -15.6062E-03     6.45672E-03
             541     2.65821E-03     70.0995E-03    -17.7397E+06    -63.0161E+06    -13.3066E+06    -535.220E+03    -15.6320E-03     31.2831E-03    -15.6512E-03     9.63571E-03    -15.6102E-03     31.0133E-03    -15.6006E-03     9.62733E-03
             542     3.54429E-03     70.1099E-03    -16.0849E+06    -61.6801E+06    -9.53270E+06    -690.742E+03    -15.6405E-03     31.3011E-03    -15.6606E-03     12.9216E-03    -15.6180E-03     31.0301E-03    -15.5955E-03     12.9106E-03
             543     4.43038E-03     70.1234E-03    -14.3031E+06    -60.5126E+06    -6.11393E+06    -834.394E+03    -15.6565E-03     31.3245E-03    -15.6680E-03     16.3316E-03    -15.6320E-03     31.0521E-03    -15.5901E-03     16.3182E-03
             544     5.31650E-03     70.1401E-03    -12.5461E+06    -59.6248E+06    -3.40233E+06    -967.080E+03    -15.6829E-03     31.3551E-03    -15.6723E-03     19.8870E-03    -15.6551E-03     31.0810E-03    -15.5846E-03     19.8711E-03
             545     6.20260E-03     70.1602E-03    -10.9969E+06    -58.2545E+06    -1.47333E+06    -1.08349E+06    -15.7160E-03     31.3882E-03    -15.6723E-03     23.6041E-03    -15.6857E-03     31.1163E-03    -15.5792E-03     23.5858E-03
             546     7.08875E-03     70.1837E-03    -9.48531E+06    -58.1846E+06     433.537E+03    -1.09688E+06    -15.7657E-03     31.4401E-03    -15.6744E-03     27.4650E-03    -15.7314E-03     31.1643E-03    -15.5741E-03     27.4453E-03
             547     7.97483E-03     70.2110E-03    -8.14657E+06    -57.3479E+06     1.54821E+06    -1.11635E+06    -15.8092E-03     31.4807E-03    -15.6715E-03     31.4515E-03    -15.7720E-03     31.2065E-03    -15.5688E-03     31.4300E-03
             548     8.86108E-03     70.2419E-03    -6.91646E+06    -54.2223E+06     2.12968E+06    -1.09179E+06    -15.8656E-03     31.5278E-03    -15.6622E-03     35.4956E-03    -15.8292E-03     31.2682E-03    -15.5629E-03     35.4722E-03
             549     9.74712E-03     70.2767E-03    -5.80501E+06    -54.2713E+06     2.39294E+06    -1.12549E+06    -15.9643E-03     31.6216E-03    -15.6573E-03     39.5845E-03    -15.9250E-03     31.3621E-03    -15.5582E-03     39.5575E-03
             550     10.6333E-03     70.3152E-03    -5.02990E+06    -51.4806E+06    -1.04579E+06    -1.09495E+06    -16.0337E-03     31.6647E-03    -15.6310E-03     43.6293E-03    -15.9935E-03     31.4269E-03    -15.5543E-03     43.5987E-03
             551     11.5195E-03     70.3576E-03    -4.36563E+06    -39.5848E+06     349.619E+03    -994.704E+03    -16.0679E-03     31.6819E-03    -15.6140E-03     47.9531E-03    -16.0497E-03     31.5067E-03    -15.5486E-03     47.9188E-03
             552     12.4055E-03     70.4042E-03    -3.79223E+06    -34.7035E+06     330.692E+03    -745.152E+03    -16.2069E-03     31.8057E-03    -15.5988E-03     54.3937E-03    -16.2045E-03     31.6657E-03    -15.5413E-03     54.3558E-03
             553     13.2926E-03     70.4587E-03    -3.63086E+06    -32.5783E+06    -8.35869E+06    -363.391E+03    -16.3318E-03     31.8780E-03    -15.5462E-03     57.9296E-03    -16.3365E-03     31.7784E-03    -15.5355E-03     57.8891E-03
             554     14.1773E-03     70.5120E-03    -3.57127E+06    -8.61584E+06    -7.57585E+06    -41.9831E+03    -16.3052E-03     31.8143E-03    -15.5091E-03     61.3095E-03    -16.3724E-03     31.8602E-03    -15.5293E-03     61.2700E-03
             555     15.0644E-03     70.5724E-03    -3.87663E+06     33.4345E+06    -7.56298E+06    -99.9022E+03    -17.3768E-03     32.8243E-03    -15.4475E-03     85.8980E-03    -17.6439E-03     33.2183E-03    -15.5282E-03     85.8721E-03
             556     15.9502E-03     70.6728E-03    -5.47143E+06     91.2480E+06    -15.1594E+06    -436.914E+03    -19.2060E-03     34.5404E-03    -15.3344E-03     132.682E-03    -20.4218E-03     36.1046E-03    -15.5346E-03     133.022E-03
             557     16.8332E-03     70.8208E-03    -3.74897E+06     156.487E+06     35.4258E+06     296.966E+03    -19.2316E-03     34.7078E-03    -15.4762E-03     160.858E-03    -21.7023E-03     37.6180E-03    -15.5205E-03     162.646E-03
             558     886.049E-06     71.0656E-03    -20.2136E+06    -64.4328E+06    -19.5647E+06    -261.787E+03    -15.6165E-03     31.2391E-03    -15.6227E-03     3.47880E-03    -15.5958E-03     30.9747E-03    -15.5977E-03     3.47491E-03
             559     1.77216E-03     71.0702E-03    -19.2389E+06    -63.5892E+06    -17.0604E+06    -445.123E+03    -15.6139E-03     31.2410E-03    -15.6271E-03     6.47224E-03    -15.5932E-03     30.9758E-03    -15.5923E-03     6.46552E-03
             560     2.65823E-03     71.0776E-03    -17.8471E+06    -62.6446E+06    -13.4442E+06    -644.458E+03    -15.6194E-03     31.2563E-03    -15.6369E-03     9.63918E-03    -15.5985E-03     30.9886E-03    -15.5874E-03     9.62938E-03
             561     3.54433E-03     71.0880E-03    -16.1541E+06    -61.3791E+06    -9.64802E+06    -840.279E+03    -15.6277E-03     31.2744E-03    -15.6468E-03     12.9230E-03    -15.6058E-03     31.0053E-03    -15.5826E-03     12.9101E-03
             562     4.43045E-03     71.1015E-03    -14.3869E+06    -60.2153E+06    -6.25385E+06    -998.665E+03    -15.6441E-03     31.2983E-03    -15.6543E-03     16.3330E-03    -15.6202E-03     31.0277E-03    -15.5774E-03     16.3174E-03
             563     5.31655E-03     71.1182E-03    -12.6748E+06    -59.3669E+06    -3.56376E+06    -1.15153E+06    -15.6703E-03     31.3291E-03    -15.6587E-03     19.8876E-03    -15.6433E-03     31.0566E-03    -15.5721E-03     19.8693E-03
             564     6.20270E-03     71.1382E-03    -11.0306E+06    -58.0551E+06    -1.56932E+06    -1.24094E+06    -15.7068E-03     31.3661E-03    -15.6593E-03     23.6029E-03    -15.6768E-03     31.0954E-03    -15.5670E-03     23.5826E-03
             565     7.08880E-03     71.1618E-03    -9.61042E+06    -58.1164E+06     176.328E+03    -1.31075E+06    -15.7520E-03     31.4132E-03    -15.6612E-03     27.4632E-03    -15.7180E-03     31.1382E-03    -15.5621E-03     27.4407E-03
             566     7.97500E-03     71.1890E-03    -8.22770E+06    -57.1685E+06     1.35281E+06    -1.35887E+06    -15.8103E-03     31.4693E-03    -15.6590E-03     31.4324E-03    -15.7734E-03     31.1964E-03    -15.5574E-03     31.4077E-03
             567     8.86106E-03     71.2200E-03    -6.98636E+06    -54.2981E+06     1.85154E+06    -1.38647E+06    -15.8813E-03     31.5329E-03    -15.6516E-03     35.5017E-03    -15.8447E-03     31.2734E-03    -15.5535E-03     35.4744E-03
             568     9.74729E-03     71.2548E-03    -5.92433E+06    -54.1818E+06     2.12641E+06    -1.35655E+06    -15.9597E-03     31.6077E-03    -15.6480E-03     39.5961E-03    -15.9208E-03     31.3493E-03    -15.5502E-03     39.5662E-03
             569     10.6333E-03     71.2933E-03    -5.16147E+06    -51.5934E+06    -1.34915E+06    -1.39184E+06    -16.0670E-03     31.6906E-03    -15.6236E-03     43.6580E-03    -16.0268E-03     31.4529E-03    -15.5481E-03     43.6236E-03
             570     11.5195E-03     71.3356E-03    -4.40042E+06    -39.8574E+06     92.4777E+03    -1.24675E+06    -16.0972E-03     31.7071E-03    -15.6098E-03     47.9658E-03    -16.0784E-03     31.5309E-03    -15.5452E-03     47.9282E-03
             571     12.4059E-03     71.3823E-03    -3.91239E+06    -34.6611E+06     402.014E+03    -1.04987E+06    -16.2443E-03     31.8427E-03    -15.5984E-03     54.5255E-03    -16.2429E-03     31.7031E-03    -15.5404E-03     54.4836E-03
             572     13.2911E-03     71.4366E-03    -3.47937E+06    -33.2267E+06    -8.51257E+06    -745.625E+03    -16.3721E-03     31.9198E-03    -15.5476E-03     58.0371E-03    -16.3749E-03     31.8169E-03    -15.5370E-03     57.9915E-03
             573     14.1788E-03     71.4901E-03    -3.27942E+06    -9.08313E+06    -7.63543E+06    -318.026E+03    -16.5086E-03     32.0261E-03    -15.5176E-03     61.4499E-03    -16.5743E-03     32.0701E-03    -15.5378E-03     61.4059E-03
             574     15.0639E-03     71.5509E-03    -4.06127E+06     33.0522E+06    -7.48803E+06     324.473E+03    -17.2218E-03     32.6791E-03    -15.4573E-03     86.5973E-03    -17.4896E-03     33.0716E-03    -15.5368E-03     86.5787E-03
             575     15.9495E-03     71.6517E-03    -3.95062E+06     91.9756E+06    -14.4371E+06     630.784E+03    -19.3301E-03     34.6657E-03    -15.3356E-03     135.370E-03    -20.5658E-03     36.2557E-03    -15.5354E-03     135.720E-03
             576     16.8366E-03     71.8018E-03    -3.11092E+06     156.692E+06     35.5039E+06    -84.0347E+03    -19.5631E-03     35.0416E-03    -15.4785E-03     162.917E-03    -22.0537E-03     37.9745E-03    -15.5237E-03     164.705E-03
             577     886.112E-06     72.0437E-03    -20.2388E+06    -63.9483E+06    -19.7136E+06    -280.049E+03    -15.5928E-03     31.2008E-03    -15.6080E-03     3.48413E-03    -15.5727E-03     30.9390E-03    -15.5845E-03     3.48000E-03
             578     1.77217E-03     72.0482E-03    -19.4003E+06    -63.1229E+06    -17.1835E+06    -565.589E+03    -15.6051E-03     31.2151E-03    -15.6100E-03     6.46897E-03    -15.5857E-03     30.9526E-03    -15.5763E-03     6.46070E-03
             579     2.65828E-03     72.0557E-03    -18.0012E+06    -62.2448E+06    -13.6711E+06    -769.870E+03    -15.6059E-03     31.2276E-03    -15.6217E-03     9.63943E-03    -15.5860E-03     30.9625E-03    -15.5737E-03     9.62802E-03
             580     3.54438E-03     72.0661E-03    -16.3451E+06    -60.9412E+06    -9.86506E+06    -1.00407E+06    -15.6143E-03     31.2463E-03    -15.6320E-03     12.9243E-03    -15.5936E-03     30.9799E-03    -15.5693E-03     12.9093E-03
             581     4.43050E-03     72.0795E-03    -14.5355E+06    -59.9230E+06    -6.41897E+06    -1.19181E+06    -15.6310E-03     31.2712E-03    -15.6402E-03     16.3334E-03    -15.6080E-03     31.0025E-03    -15.5643E-03     16.3153E-03
             582     5.31664E-03     72.0962E-03    -12.7763E+06    -59.0341E+06    -3.73366E+06    -1.32338E+06    -15.6595E-03     31.3043E-03    -15.6448E-03     19.8883E-03    -15.6332E-03     31.0339E-03    -15.5593E-03     19.8678E-03
             583     6.20275E-03     72.1163E-03    -11.1759E+06    -57.8379E+06    -1.81813E+06    -1.48560E+06    -15.6965E-03     31.3421E-03    -15.6456E-03     23.6050E-03    -15.6672E-03     31.0731E-03    -15.5546E-03     23.5815E-03
             584     7.08893E-03     72.1399E-03    -9.60823E+06    -57.9508E+06     6.77313E+03    -1.53601E+06    -15.7461E-03     31.3944E-03    -15.6483E-03     27.4528E-03    -15.7121E-03     31.1205E-03    -15.5503E-03     27.4275E-03
             585     7.97502E-03     72.1671E-03    -8.22511E+06    -56.9435E+06     1.14151E+06    -1.66660E+06    -15.8125E-03     31.4594E-03    -15.6469E-03     31.4460E-03    -15.7757E-03     31.1880E-03    -15.5467E-03     31.4173E-03
             586     8.86122E-03     72.1981E-03    -6.95056E+06    -54.2936E+06     1.70419E+06    -1.70533E+06    -15.8806E-03     31.5219E-03    -15.6413E-03     35.5195E-03    -15.8437E-03     31.2626E-03    -15.5439E-03     35.4881E-03
             587     9.74727E-03     72.2328E-03    -5.89599E+06    -54.2749E+06     1.93336E+06    -1.60582E+06    -15.9634E-03     31.6019E-03    -15.6385E-03     39.6031E-03    -15.9239E-03     31.3432E-03    -15.5416E-03     39.5700E-03
             588     10.6335E-03     72.2714E-03    -5.25578E+06    -51.2001E+06    -1.11923E+06    -1.54390E+06    -16.0509E-03     31.6669E-03    -15.6160E-03     43.6994E-03    -16.0121E-03     31.4309E-03    -15.5397E-03     43.6630E-03
             589     11.5196E-03     72.3138E-03    -4.94579E+06    -40.4951E+06    -195.032E+03    -1.43972E+06    -16.1103E-03     31.7126E-03    -15.6023E-03     47.9834E-03    -16.0930E-03     31.5345E-03    -15.5374E-03     47.9433E-03
             590     12.4057E-03     72.3601E-03    -4.27246E+06    -34.9249E+06    -1.47988E+03    -1.17198E+06    -16.2410E-03     31.8313E-03    -15.5903E-03     54.5948E-03    -16.2404E-03     31.6916E-03    -15.5335E-03     54.5513E-03
             591     13.2927E-03     72.4152E-03    -4.35514E+06    -32.8416E+06    -8.66642E+06    -1.10354E+06    -16.4681E-03     32.0122E-03    -15.5441E-03     58.2041E-03    -16.4759E-03     31.9130E-03    -15.5335E-03     58.1535E-03
             592     14.1772E-03     72.4677E-03    -4.60840E+06    -9.99364E+06    -8.42609E+06    -1.01103E+06    -16.5285E-03     32.0457E-03    -15.5171E-03     61.7484E-03    -16.5992E-03     32.0890E-03    -15.5381E-03     61.6954E-03
             593     15.0638E-03     72.5302E-03    -3.08392E+06     31.9612E+06    -7.45722E+06    -208.760E+03    -16.9494E-03     32.4007E-03    -15.4513E-03     86.1055E-03    -17.2090E-03     32.7844E-03    -15.5304E-03     86.0811E-03
             594     15.9525E-03     72.6269E-03    -2.75576E+06     91.8366E+06    -14.3514E+06     453.295E+03    -18.4780E-03     33.7769E-03    -15.2989E-03     134.844E-03    -19.7035E-03     35.3603E-03    -15.4998E-03     135.212E-03
             595     16.8382E-03     72.7834E-03    -2.96227E+06     157.239E+06     35.5553E+06     313.760E+03    -19.6421E-03     35.0681E-03    -15.4260E-03     161.472E-03    -22.1001E-03     37.9707E-03    -15.4719E-03     163.232E-03
             596     886.093E-06     73.0218E-03    -20.5048E+06    -63.4215E+06    -19.8877E+06    -367.570E+03    -15.5908E-03     31.1739E-03    -15.5831E-03     3.49945E-03    -15.5726E-03     30.9154E-03    -15.5608E-03     3.49418E-03
             597     1.77221E-03     73.0263E-03    -19.5435E+06    -62.5181E+06    -17.3211E+06    -612.966E+03    -15.5885E-03     31.1847E-03    -15.5961E-03     6.45888E-03    -15.5706E-03     30.9256E-03    -15.5637E-03     6.44999E-03
             598     2.65830E-03     73.0337E-03    -18.1787E+06    -61.7619E+06    -13.8156E+06    -938.327E+03    -15.5909E-03     31.1982E-03    -15.6073E-03     9.63755E-03    -15.5724E-03     30.9360E-03    -15.5605E-03     9.62396E-03
             599     3.54443E-03     73.0441E-03    -16.5095E+06    -60.4962E+06    -10.0724E+06    -1.11728E+06    -15.5995E-03     31.2168E-03    -15.6172E-03     12.9241E-03    -15.5801E-03     30.9532E-03    -15.5559E-03     12.9077E-03
             600     4.43056E-03     73.0576E-03    -14.7649E+06    -59.4169E+06    -6.63532E+06    -1.41513E+06    -15.6185E-03     31.2440E-03    -15.6255E-03     16.3340E-03    -15.5971E-03     30.9785E-03    -15.5511E-03     16.3131E-03
             601     5.31669E-03     73.0743E-03    -12.9313E+06    -58.7849E+06    -4.00578E+06    -1.60644E+06    -15.6485E-03     31.2791E-03    -15.6306E-03     19.8916E-03    -15.6230E-03     31.0106E-03    -15.5466E-03     19.8675E-03
             602     6.20285E-03     73.0944E-03    -11.2598E+06    -57.4635E+06    -2.02232E+06    -1.69387E+06    -15.6871E-03     31.3190E-03    -15.6319E-03     23.6047E-03    -15.6584E-03     31.0523E-03    -15.5424E-03     23.5785E-03
             603     7.08897E-03     73.1179E-03    -9.76471E+06    -57.7262E+06    -253.300E+03    -1.90554E+06    -15.7439E-03     31.3794E-03    -15.6355E-03     27.4607E-03    -15.7106E-03     31.1072E-03    -15.5389E-03     27.4306E-03
             604     7.97515E-03     73.1452E-03    -8.36090E+06    -56.7579E+06     916.671E+03    -1.90825E+06    -15.8038E-03     31.4389E-03    -15.6351E-03     31.4597E-03    -15.7677E-03     31.1689E-03    -15.5361E-03     31.4279E-03
             605     8.86125E-03     73.1761E-03    -7.21737E+06    -54.1145E+06     1.47774E+06    -2.01816E+06    -15.8726E-03     31.5025E-03    -15.6299E-03     35.5309E-03    -15.8369E-03     31.2448E-03    -15.5336E-03     35.4955E-03
             606     9.74749E-03     73.2109E-03    -6.05944E+06    -54.3648E+06     1.61875E+06    -1.96119E+06    -15.9758E-03     31.6039E-03    -15.6281E-03     39.6337E-03    -15.9366E-03     31.3455E-03    -15.5324E-03     39.5959E-03
             607     10.6334E-03     73.2495E-03    -5.28644E+06    -51.4065E+06    -1.37867E+06    -1.64944E+06    -16.0418E-03     31.6486E-03    -15.6068E-03     43.6399E-03    -16.0025E-03     31.4120E-03    -15.5315E-03     43.6022E-03
             608     11.5199E-03     73.2917E-03    -4.92085E+06    -40.3895E+06    -147.458E+03    -1.54405E+06    -16.0916E-03     31.6853E-03    -15.5937E-03     47.9848E-03    -16.0743E-03     31.5076E-03    -15.5287E-03     47.9433E-03
             609     12.4059E-03     73.3386E-03    -4.46400E+06    -35.2782E+06    -375.854E+03    -1.44038E+06    -16.2985E-03     31.8811E-03    -15.5826E-03     54.5349E-03    -16.2978E-03     31.7405E-03    -15.5269E-03     54.4879E-03
             610     13.2915E-03     73.3925E-03    -4.07767E+06    -32.9231E+06    -8.80712E+06    -1.25542E+06    -16.3959E-03     31.9323E-03    -15.5364E-03     58.3761E-03    -16.4021E-03     31.8327E-03    -15.5268E-03     58.3238E-03
             611     14.1785E-03     73.4474E-03    -4.16773E+06    -10.0666E+06    -8.48664E+06    -1.21752E+06    -16.3271E-03     31.8283E-03    -15.5012E-03     61.9301E-03    -16.3948E-03     31.8701E-03    -15.5230E-03     61.8752E-03
             612     15.0649E-03     73.5062E-03    -4.67602E+06     30.7774E+06    -9.17681E+06    -1.02816E+06    -17.2991E-03     32.7351E-03    -15.4360E-03     86.2118E-03    -17.5656E-03     33.1209E-03    -15.5198E-03     86.1746E-03
             613     15.9485E-03     73.6070E-03    -4.47484E+06     90.9953E+06    -15.7099E+06    -217.288E+03    -18.8033E-03     34.1103E-03    -15.3070E-03     133.680E-03    -20.0187E-03     35.6784E-03    -15.5110E-03     134.036E-03
             614     16.8379E-03     73.7563E-03    -2.99536E+06     157.287E+06     35.2701E+06     401.731E+03    -19.4270E-03     34.8677E-03    -15.4407E-03     161.797E-03    -21.9016E-03     37.7878E-03    -15.4881E-03     163.578E-03
             615     886.103E-06     73.9998E-03    -20.7174E+06    -62.7363E+06    -20.0892E+06    -405.005E+03    -15.5857E-03     31.1494E-03    -15.5637E-03     3.49769E-03    -15.5692E-03     30.8950E-03    -15.5431E-03     3.49194E-03
             616     1.77221E-03     74.0043E-03    -19.7597E+06    -61.8932E+06    -17.5542E+06    -741.970E+03    -15.5699E-03     31.1525E-03    -15.5826E-03     6.46472E-03    -15.5536E-03     30.8972E-03    -15.5519E-03     6.45417E-03
             617     2.65835E-03     74.0118E-03    -18.3483E+06    -61.1330E+06    -13.9222E+06    -1.02892E+06    -15.5758E-03     31.1688E-03    -15.5930E-03     9.63844E-03    -15.5589E-03     30.9101E-03    -15.5474E-03     9.62368E-03
             618     3.54447E-03     74.0221E-03    -16.6702E+06    -60.0531E+06    -10.2301E+06    -1.31368E+06    -15.5856E-03     31.1885E-03    -15.6029E-03     12.9252E-03    -15.5674E-03     30.9276E-03    -15.5428E-03     12.9062E-03
             619     4.43062E-03     74.0356E-03    -14.8872E+06    -58.7800E+06    -6.91324E+06    -1.55100E+06    -15.6056E-03     31.2161E-03    -15.6104E-03     16.3377E-03    -15.5854E-03     30.9543E-03    -15.5382E-03     16.3150E-03
             620     5.31676E-03     74.0523E-03    -13.2103E+06    -58.3300E+06    -4.25551E+06    -1.91154E+06    -15.6380E-03     31.2545E-03    -15.6165E-03     19.8931E-03    -15.6141E-03     30.9890E-03    -15.5341E-03     19.8651E-03
             621     6.20291E-03     74.0724E-03    -11.4767E+06    -57.2209E+06    -2.40652E+06    -2.04782E+06    -15.6784E-03     31.2965E-03    -15.6180E-03     23.6108E-03    -15.6507E-03     31.0318E-03    -15.5305E-03     23.5800E-03
             622     7.08908E-03     74.0960E-03    -9.96590E+06    -57.2834E+06    -474.287E+03    -2.11241E+06    -15.7348E-03     31.3574E-03    -15.6226E-03     27.4732E-03    -15.7028E-03     31.0881E-03    -15.5275E-03     27.4404E-03
             623     7.97519E-03     74.1232E-03    -8.63124E+06    -56.6570E+06     619.354E+03    -2.27568E+06    -15.7984E-03     31.4214E-03    -15.6230E-03     31.4626E-03    -15.7633E-03     31.1527E-03    -15.5253E-03     31.4261E-03
             624     8.86141E-03     74.1542E-03    -7.30789E+06    -53.7435E+06     1.26235E+06    -2.28811E+06    -15.8736E-03     31.4921E-03    -15.6185E-03     35.5472E-03    -15.8386E-03     31.2367E-03    -15.5237E-03     35.5083E-03
             625     9.74744E-03     74.1890E-03    -6.30565E+06    -54.4842E+06     1.24755E+06    -2.36801E+06    -15.9539E-03     31.5708E-03    -15.6169E-03     39.6477E-03    -15.9152E-03     31.3127E-03    -15.5225E-03     39.6047E-03
             626     10.6337E-03     74.2276E-03    -5.38933E+06    -52.0508E+06    -2.15095E+06    -1.97172E+06    -16.0569E-03     31.6514E-03    -15.5945E-03     43.6918E-03    -16.0161E-03     31.4129E-03    -15.5220E-03     43.6498E-03
             627     11.5196E-03     74.2697E-03    -4.56406E+06    -40.2219E+06    -366.470E+03    -1.65392E+06    -16.1006E-03     31.6845E-03    -15.5839E-03     47.9927E-03    -16.0815E-03     31.5074E-03    -15.5208E-03     47.9498E-03
             628     12.4061E-03     74.3165E-03    -3.85111E+06    -34.9522E+06    -233.281E+03    -1.84286E+06    -16.2761E-03     31.8498E-03    -15.5738E-03     54.7457E-03    -16.2732E-03     31.7099E-03    -15.5187E-03     54.6934E-03
             629     13.2923E-03     74.3714E-03    -3.83722E+06    -33.9341E+06    -9.53443E+06    -1.53764E+06    -16.3463E-03     31.8698E-03    -15.5235E-03     58.2861E-03    -16.3486E-03     31.7656E-03    -15.5164E-03     58.2304E-03
             630     14.1785E-03     74.4238E-03    -3.90685E+06    -10.3773E+06    -8.78754E+06    -953.934E+03    -16.3104E-03     31.7984E-03    -15.4881E-03     61.5790E-03    -16.3754E-03     31.8383E-03    -15.5113E-03     61.5276E-03
             631     15.0643E-03     74.4862E-03    -4.37828E+06     31.3908E+06    -8.93880E+06    -1.09937E+06    -17.3439E-03     32.7694E-03    -15.4255E-03     86.5201E-03    -17.6110E-03     33.1582E-03    -15.5093E-03     86.4826E-03
             632     15.9521E-03     74.5848E-03    -5.32500E+06     89.9301E+06    -16.7054E+06    -970.637E+03    -19.5310E-03     34.8467E-03    -15.3157E-03     133.686E-03    -20.7523E-03     36.4168E-03    -15.5219E-03     134.006E-03
             633     16.8355E-03     74.7350E-03    -3.73669E+06     156.469E+06     34.5531E+06    -106.242E+03    -19.5512E-03     35.0242E-03    -15.4730E-03     161.815E-03    -22.0360E-03     37.9510E-03    -15.5217E-03     163.596E-03
             634     886.123E-06     74.9778E-03    -20.7452E+06    -61.9812E+06    -20.1543E+06    -441.817E+03    -15.5643E-03     31.1165E-03    -15.5522E-03     3.49867E-03    -15.5489E-03     30.8659E-03    -15.5330E-03     3.49244E-03
             635     1.77226E-03     74.9824E-03    -19.8641E+06    -61.1342E+06    -17.6143E+06    -819.126E+03    -15.5581E-03     31.1251E-03    -15.5671E-03     6.46479E-03    -15.5433E-03     30.8739E-03    -15.5377E-03     6.45324E-03
             636     2.65837E-03     74.9897E-03    -18.5029E+06    -60.5195E+06    -14.1206E+06    -1.14849E+06    -15.5614E-03     31.1395E-03    -15.5781E-03     9.63875E-03    -15.5459E-03     30.8844E-03    -15.5341E-03     9.62244E-03
             637     3.54453E-03     75.0002E-03    -16.8166E+06    -59.3398E+06    -10.4055E+06    -1.50076E+06    -15.5731E-03     31.1613E-03    -15.5882E-03     12.9271E-03    -15.5563E-03     30.9044E-03    -15.5298E-03     12.9057E-03
             638     4.43067E-03     75.0136E-03    -14.9989E+06    -58.3084E+06    -7.14940E+06    -1.80059E+06    -15.5935E-03     31.1896E-03    -15.5961E-03     16.3407E-03    -15.5741E-03     30.9307E-03    -15.5256E-03     16.3148E-03
             639     5.31684E-03     75.0304E-03    -13.2696E+06    -57.5964E+06    -4.46066E+06    -2.03093E+06    -15.6263E-03     31.2285E-03    -15.6022E-03     19.8982E-03    -15.6035E-03     30.9671E-03    -15.5218E-03     19.8686E-03
             640     6.20299E-03     75.0504E-03    -11.7772E+06    -56.8540E+06    -2.63373E+06    -2.40419E+06    -15.6695E-03     31.2745E-03    -15.6050E-03     23.6190E-03    -15.6435E-03     31.0124E-03    -15.5186E-03     23.5836E-03
             641     7.08914E-03     75.0740E-03    -10.2380E+06    -57.1097E+06    -960.835E+03    -2.39207E+06    -15.7228E-03     31.3317E-03    -15.6089E-03     27.4831E-03    -15.6918E-03     31.0644E-03    -15.5160E-03     27.4467E-03
             642     7.97532E-03     75.1012E-03    -8.89484E+06    -56.1012E+06     301.721E+03    -2.51406E+06    -15.7950E-03     31.4050E-03    -15.6101E-03     31.4843E-03    -15.7616E-03     31.1400E-03    -15.5143E-03     31.4447E-03
             643     8.86141E-03     75.1322E-03    -7.71165E+06    -53.6458E+06     702.105E+03    -2.74841E+06    -15.8581E-03     31.4636E-03    -15.6055E-03     35.5792E-03    -15.8245E-03     31.2101E-03    -15.5130E-03     35.5343E-03
             644     9.74766E-03     75.1671E-03    -6.52365E+06    -54.2799E+06     884.441E+03    -2.68645E+06    -15.9368E-03     31.5408E-03    -15.6040E-03     39.6633E-03    -15.8989E-03     31.2845E-03    -15.5114E-03     39.6162E-03
             645     10.6337E-03     75.2055E-03    -5.54561E+06    -52.3959E+06    -2.36352E+06    -2.59234E+06    -16.0357E-03     31.6181E-03    -15.5824E-03     43.7329E-03    -15.9949E-03     31.3784E-03    -15.5102E-03     43.6830E-03
             646     11.5201E-03     75.2481E-03    -4.54069E+06    -40.4064E+06    -762.000E+03    -2.29232E+06    -16.1503E-03     31.7225E-03    -15.5721E-03     48.0582E-03    -16.1304E-03     31.5452E-03    -15.5108E-03     48.0069E-03
             647     12.4060E-03     75.2942E-03    -3.91605E+06    -34.9200E+06    -373.257E+03    -1.98394E+06    -16.2715E-03     31.8371E-03    -15.5656E-03     54.5844E-03    -16.2687E-03     31.6975E-03    -15.5112E-03     54.5304E-03
             648     13.2923E-03     75.3494E-03    -3.71531E+06    -34.2571E+06    -9.39178E+06    -1.88864E+06    -16.4037E-03     31.9233E-03    -15.5196E-03     58.0888E-03    -16.4052E-03     31.8172E-03    -15.5115E-03     58.0284E-03
             649     14.1779E-03     75.4023E-03    -3.71907E+06    -11.1652E+06    -8.98686E+06    -1.50009E+06    -16.4869E-03     31.9776E-03    -15.4907E-03     61.5455E-03    -16.5504E-03     32.0142E-03    -15.5140E-03     61.4863E-03
             650     15.0650E-03     75.4635E-03    -3.48381E+06     31.4094E+06    -8.30161E+06    -905.748E+03    -17.2864E-03     32.7200E-03    -15.4336E-03     86.4106E-03    -17.5479E-03     33.1047E-03    -15.5156E-03     86.3749E-03
             651     15.9495E-03     75.5636E-03    -4.10511E+06     89.6826E+06    -15.3291E+06    -998.709E+03    -19.3327E-03     34.6515E-03    -15.3188E-03     134.285E-03    -20.5605E-03     36.2276E-03    -15.5196E-03     134.615E-03
             652     16.8359E-03     75.7154E-03    -3.37711E+06     155.503E+06     34.6534E+06    -362.615E+03    -19.5387E-03     35.0043E-03    -15.4656E-03     161.519E-03    -22.0119E-03     37.9172E-03    -15.5130E-03     163.291E-03
             653     886.141E-06     75.9559E-03    -20.8495E+06    -61.1516E+06    -20.2406E+06    -493.688E+03    -15.5457E-03     31.0877E-03    -15.5421E-03     3.49310E-03    -15.5319E-03     30.8416E-03    -15.5244E-03     3.48621E-03
             654     1.77226E-03     75.9603E-03    -19.9181E+06    -60.3250E+06    -17.7167E+06    -867.588E+03    -15.5425E-03     31.0948E-03    -15.5524E-03     6.45942E-03    -15.5290E-03     30.8479E-03    -15.5246E-03     6.44725E-03
             655     2.65843E-03     75.9678E-03    -18.5356E+06    -59.7531E+06    -14.1907E+06    -1.28385E+06    -15.5493E-03     31.1129E-03    -15.5636E-03     9.64044E-03    -15.5349E-03     30.8618E-03    -15.5211E-03     9.62239E-03
             656     3.54456E-03     75.9781E-03    -16.8656E+06    -58.5673E+06    -10.5509E+06    -1.68454E+06    -15.5606E-03     31.1345E-03    -15.5739E-03     12.9300E-03    -15.5451E-03     30.8818E-03    -15.5173E-03     12.9062E-03
             657     4.43074E-03     75.9917E-03    -15.0894E+06    -57.6276E+06    -7.26450E+06    -2.07288E+06    -15.5812E-03     31.1636E-03    -15.5825E-03     16.3443E-03    -15.5631E-03     30.9085E-03    -15.5133E-03     16.3149E-03
             658     5.31689E-03     76.0083E-03    -13.2992E+06    -57.1178E+06    -4.69257E+06    -2.29780E+06    -15.6141E-03     31.2024E-03    -15.5883E-03     19.9066E-03    -15.5919E-03     30.9438E-03    -15.5097E-03     19.8735E-03
             659     6.20307E-03     76.0284E-03    -11.6726E+06    -56.0586E+06    -2.66880E+06    -2.53787E+06    -15.6576E-03     31.2491E-03    -15.5915E-03     23.6277E-03    -15.6322E-03     30.9909E-03    -15.5066E-03     23.5906E-03
             660     7.08923E-03     76.0520E-03    -10.2122E+06    -56.9873E+06    -1.13333E+06    -2.85836E+06    -15.7172E-03     31.3133E-03    -15.5962E-03     27.4943E-03    -15.6859E-03     31.0468E-03    -15.5044E-03     27.4518E-03
             661     7.97539E-03     76.0792E-03    -8.75527E+06    -55.7530E+06     1.73946E+03    -2.74772E+06    -15.7757E-03     31.3718E-03    -15.5961E-03     31.5146E-03    -15.7416E-03     31.1087E-03    -15.5025E-03     31.4720E-03
             662     8.86158E-03     76.1103E-03    -7.66688E+06    -53.0213E+06     774.702E+03    -2.98539E+06    -15.8433E-03     31.4359E-03    -15.5926E-03     35.5832E-03    -15.8104E-03     31.1853E-03    -15.5007E-03     35.5352E-03
             663     9.74775E-03     76.1449E-03    -6.58082E+06    -54.2122E+06     806.122E+03    -3.24635E+06    -15.9430E-03     31.5350E-03    -15.5920E-03     39.6803E-03    -15.9055E-03     31.2793E-03    -15.4998E-03     39.6259E-03
             664     10.6339E-03     76.1838E-03    -5.58806E+06    -52.1949E+06    -2.46276E+06    -3.21982E+06    -16.0314E-03     31.6027E-03    -15.5712E-03     43.6979E-03    -15.9909E-03     31.3642E-03    -15.4998E-03     43.6399E-03
             665     11.5200E-03     76.2257E-03    -4.98706E+06    -40.7698E+06    -1.16796E+06    -2.92278E+06    -16.1279E-03     31.6885E-03    -15.5606E-03     48.1799E-03    -16.1091E-03     31.5106E-03    -15.5001E-03     48.1206E-03
             666     12.4061E-03     76.2732E-03    -4.29427E+06    -35.5447E+06    -955.311E+03    -2.36062E+06    -16.3376E-03     31.8931E-03    -15.5556E-03     54.6686E-03    -16.3350E-03     31.7519E-03    -15.5026E-03     54.6096E-03
             667     13.2921E-03     76.3266E-03    -3.58972E+06    -34.2087E+06    -9.51053E+06    -1.98741E+06    -16.3864E-03     31.8985E-03    -15.5121E-03     58.3804E-03    -16.3873E-03     31.7928E-03    -15.5048E-03     58.3188E-03
             668     14.1787E-03     76.3813E-03    -3.65684E+06    -11.2795E+06    -9.03967E+06    -1.91201E+06    -16.4960E-03     31.9792E-03    -15.4832E-03     62.0929E-03    -16.5592E-03     32.0155E-03    -15.5067E-03     62.0283E-03
             669     15.0636E-03     76.4412E-03    -3.82512E+06     30.0888E+06    -9.02016E+06    -1.32259E+06    -17.2373E-03     32.6601E-03    -15.4229E-03     87.1421E-03    -17.4997E-03     33.0419E-03    -15.5060E-03     87.1018E-03
             670     15.9511E-03     76.5426E-03    -2.90568E+06     89.5682E+06    -14.9816E+06    -317.644E+03    -18.8941E-03     34.1876E-03    -15.2935E-03     135.468E-03    -20.1191E-03     35.7637E-03    -15.4940E-03     135.825E-03
             671     16.8385E-03     76.6922E-03    -2.59472E+06     155.548E+06     35.2647E+06    -353.167E+03    -19.6863E-03     35.1198E-03    -15.4335E-03     161.025E-03    -22.1368E-03     38.0110E-03    -15.4789E-03     162.781E-03
             672     886.125E-06     76.9338E-03    -20.9512E+06    -60.2126E+06    -20.3690E+06    -537.286E+03    -15.5224E-03     31.0584E-03    -15.5360E-03     3.49495E-03    -15.5103E-03     30.8173E-03    -15.5202E-03     3.48750E-03
             673     1.77231E-03     76.9383E-03    -20.0253E+06    -59.4418E+06    -17.8667E+06    -997.116E+03    -15.5284E-03     31.0661E-03    -15.5377E-03     6.46466E-03    -15.5165E-03     30.8239E-03    -15.5118E-03     6.45082E-03
             674     2.65844E-03     76.9457E-03    -18.5875E+06    -58.8462E+06    -14.3184E+06    -1.44986E+06    -15.5364E-03     31.0856E-03    -15.5492E-03     9.64282E-03    -15.5235E-03     30.8393E-03    -15.5085E-03     9.62262E-03
             675     3.54462E-03     76.9561E-03    -16.8867E+06    -57.7179E+06    -10.6248E+06    -1.90143E+06    -15.5477E-03     31.1078E-03    -15.5601E-03     12.9334E-03    -15.5334E-03     30.8594E-03    -15.5050E-03     12.9069E-03
             676     4.43078E-03     76.9696E-03    -15.1292E+06    -56.8179E+06    -7.34344E+06    -2.29155E+06    -15.5685E-03     31.1373E-03    -15.5688E-03     16.3494E-03    -15.5517E-03     30.8864E-03    -15.5012E-03     16.3171E-03
             677     5.31696E-03     76.9863E-03    -13.3813E+06    -56.5013E+06    -4.83356E+06    -2.66808E+06    -15.6012E-03     31.1760E-03    -15.5748E-03     19.9144E-03    -15.5801E-03     30.9208E-03    -15.4976E-03     19.8766E-03
             678     6.20313E-03     77.0064E-03    -11.6529E+06    -55.4760E+06    -2.97440E+06    -2.88673E+06    -15.6438E-03     31.2207E-03    -15.5769E-03     23.6410E-03    -15.6186E-03     30.9658E-03    -15.4945E-03     23.5994E-03
             679     7.08933E-03     77.0300E-03    -10.0688E+06    -56.2405E+06    -1.05242E+06    -3.19645E+06    -15.7049E-03     31.2879E-03    -15.5830E-03     27.5137E-03    -15.6741E-03     31.0248E-03    -15.4922E-03     27.4669E-03
             680     7.97547E-03     77.0572E-03    -8.52571E+06    -55.7908E+06    -177.397E+03    -3.41657E+06    -15.7630E-03     31.3457E-03    -15.5826E-03     31.5144E-03    -15.7275E-03     31.0823E-03    -15.4902E-03     31.4631E-03
             681     8.86172E-03     77.0882E-03    -7.02050E+06    -52.4930E+06     865.840E+03    -3.17429E+06    -15.8388E-03     31.4180E-03    -15.5792E-03     35.6082E-03    -15.8036E-03     31.1690E-03    -15.4886E-03     35.5578E-03
             682     9.74779E-03     77.1231E-03    -6.18080E+06    -53.6537E+06     1.06776E+06    -3.48512E+06    -15.9379E-03     31.5182E-03    -15.5803E-03     39.6967E-03    -15.8996E-03     31.2644E-03    -15.4882E-03     39.6393E-03
             683     10.6340E-03     77.1615E-03    -5.68756E+06    -52.2017E+06    -2.76924E+06    -3.66028E+06    -16.0514E-03     31.6111E-03    -15.5597E-03     43.7481E-03    -16.0110E-03     31.3732E-03    -15.4896E-03     43.6843E-03
             684     11.5201E-03     77.2041E-03    -4.93438E+06    -41.0959E+06    -1.33891E+06    -3.32670E+06    -16.0646E-03     31.6138E-03    -15.5491E-03     48.1876E-03    -16.0447E-03     31.4343E-03    -15.4891E-03     48.1233E-03
             685     12.4065E-03     77.2507E-03    -4.37909E+06    -35.9758E+06    -1.30147E+06    -2.99435E+06    -16.2710E-03     31.8104E-03    -15.5395E-03     54.8581E-03    -16.2677E-03     31.6677E-03    -15.4874E-03     54.7910E-03
             686     13.2926E-03     77.3055E-03    -4.07899E+06    -34.3825E+06    -9.83696E+06    -2.44787E+06    -16.4667E-03     31.9643E-03    -15.4976E-03     58.2085E-03    -16.4692E-03     31.8588E-03    -15.4910E-03     58.1406E-03
             687     14.1785E-03     77.3581E-03    -4.07956E+06    -11.7614E+06    -9.66340E+06    -1.91928E+06    -16.3495E-03     31.8163E-03    -15.4668E-03     62.0480E-03    -16.4129E-03     31.8515E-03    -15.4921E-03     61.9840E-03
             688     15.0657E-03     77.4211E-03    -4.35591E+06     30.2887E+06    -9.32045E+06    -1.88888E+06    -17.2832E-03     32.6895E-03    -15.4063E-03     86.5049E-03    -17.5479E-03     33.0733E-03    -15.4905E-03     86.4575E-03
             689     15.9519E-03     77.5179E-03    -4.97109E+06     88.1442E+06    -16.3929E+06    -1.46921E+06    -19.0978E-03     34.3859E-03    -15.2881E-03     133.701E-03    -20.3202E-03     35.9511E-03    -15.4906E-03     134.032E-03
             690     16.8366E-03     77.6736E-03    -3.79897E+06     154.213E+06     33.7353E+06    -435.097E+03    -19.5694E-03     35.0025E-03    -15.4332E-03     160.448E-03    -22.0174E-03     37.8867E-03    -15.4826E-03     162.201E-03
             691     886.182E-06     77.9117E-03    -20.9915E+06    -59.1758E+06    -20.4023E+06    -593.025E+03    -15.5068E-03     31.0271E-03    -15.5203E-03     3.50110E-03    -15.4964E-03     30.7913E-03    -15.5061E-03     3.49293E-03
             692     1.77230E-03     77.9162E-03    -20.0619E+06    -58.3892E+06    -17.9290E+06    -1.12489E+06    -15.5178E-03     31.0406E-03    -15.5229E-03     6.46534E-03    -15.5075E-03     30.8038E-03    -15.4987E-03     6.44985E-03
             693     2.65849E-03     77.9237E-03    -18.6861E+06    -57.8268E+06    -14.4643E+06    -1.66787E+06    -15.5224E-03     31.0575E-03    -15.5351E-03     9.64644E-03    -15.5112E-03     30.8166E-03    -15.4965E-03     9.62343E-03
             694     3.54465E-03     77.9340E-03    -16.9941E+06    -56.7561E+06    -10.7779E+06    -2.14398E+06    -15.5337E-03     31.0796E-03    -15.5459E-03     12.9375E-03    -15.5211E-03     30.8365E-03    -15.4929E-03     12.9077E-03
             695     4.43084E-03     77.9476E-03    -15.1641E+06    -55.9615E+06    -7.45629E+06    -2.57438E+06    -15.5552E-03     31.1101E-03    -15.5549E-03     16.3562E-03    -15.5396E-03     30.8636E-03    -15.4891E-03     16.3203E-03
             696     5.31701E-03     77.9642E-03    -13.3817E+06    -55.6212E+06    -4.89965E+06    -2.99321E+06    -15.5877E-03     31.1487E-03    -15.5610E-03     19.9210E-03    -15.5677E-03     30.8980E-03    -15.4855E-03     19.8789E-03
             697     6.20322E-03     77.9843E-03    -11.7037E+06    -54.8864E+06    -3.12138E+06    -3.36518E+06    -15.6306E-03     31.1938E-03    -15.5632E-03     23.6542E-03    -15.6063E-03     30.9422E-03    -15.4823E-03     23.6064E-03
             698     7.08939E-03     78.0079E-03    -10.0774E+06    -55.4129E+06    -1.25420E+06    -3.65428E+06    -15.6866E-03     31.2549E-03    -15.5683E-03     27.5248E-03    -15.6568E-03     30.9963E-03    -15.4796E-03     27.4720E-03
             699     7.97562E-03     78.0352E-03    -8.54068E+06    -55.2108E+06    -165.542E+03    -4.05475E+06    -15.7617E-03     31.3314E-03    -15.5697E-03     31.5268E-03    -15.7272E-03     31.0710E-03    -15.4781E-03     31.4673E-03
             700     8.86172E-03     78.0662E-03    -7.03572E+06    -52.7634E+06     343.213E+03    -4.01130E+06    -15.8272E-03     31.3926E-03    -15.5654E-03     35.6334E-03    -15.7909E-03     31.1430E-03    -15.4770E-03     35.5723E-03
             701     9.74805E-03     78.1011E-03    -5.65750E+06    -53.0454E+06     1.24874E+06    -3.52431E+06    -15.9283E-03     31.4962E-03    -15.5679E-03     39.7157E-03    -15.8885E-03     31.2444E-03    -15.4765E-03     39.6577E-03
             702     10.6341E-03     78.1396E-03    -5.06839E+06    -51.8341E+06    -2.34126E+06    -3.73433E+06    -16.0334E-03     31.5817E-03    -15.5484E-03     43.7791E-03    -15.9910E-03     31.3442E-03    -15.4776E-03     43.7144E-03
             703     11.5203E-03     78.1820E-03    -4.75456E+06    -41.4194E+06    -1.71587E+06    -3.87725E+06    -16.1066E-03     31.6438E-03    -15.5371E-03     48.1118E-03    -16.0849E-03     31.4631E-03    -15.4787E-03     48.0402E-03
             704     12.4065E-03     78.2284E-03    -3.82406E+06    -36.0942E+06    -1.17288E+06    -3.44627E+06    -16.2770E-03     31.8086E-03    -15.5316E-03     54.7599E-03    -16.2710E-03     31.6643E-03    -15.4796E-03     54.6870E-03
             705     13.2926E-03     78.2839E-03    -3.85426E+06    -35.1512E+06    -10.3914E+06    -3.08672E+06    -16.4588E-03     31.9470E-03    -15.4882E-03     58.1704E-03    -16.4584E-03     31.8382E-03    -15.4836E-03     58.0943E-03
             706     14.1784E-03     78.3364E-03    -3.97742E+06    -11.8889E+06    -9.80772E+06    -2.49805E+06    -16.5495E-03     32.0148E-03    -15.4653E-03     61.6382E-03    -16.6123E-03     32.0497E-03    -15.4913E-03     61.5660E-03
             707     15.0647E-03     78.3978E-03    -3.76821E+06     29.8233E+06    -9.02525E+06    -2.01112E+06    -17.4783E-03     32.8965E-03    -15.4181E-03     86.7857E-03    -17.7413E-03     33.2781E-03    -15.5011E-03     86.7353E-03
             708     15.9485E-03     78.4997E-03    -3.91842E+06     86.3992E+06    -14.9233E+06    -1.50096E+06    -19.0037E-03     34.3117E-03    -15.3081E-03     134.135E-03    -20.2193E-03     35.8635E-03    -15.5023E-03     134.473E-03
             709     16.8374E-03     78.6465E-03    -2.79514E+06     153.647E+06     35.6033E+06    -324.113E+03    -19.5377E-03     34.9838E-03    -15.4461E-03     162.089E-03    -22.0169E-03     37.8953E-03    -15.4868E-03     163.866E-03
             710     886.146E-06     78.8896E-03    -20.9837E+06    -57.9833E+06    -20.4588E+06    -691.110E+03    -15.4931E-03     31.0004E-03    -15.5074E-03     3.50353E-03    -15.4843E-03     30.7707E-03    -15.4952E-03     3.49409E-03
             711     1.77235E-03     78.8942E-03    -20.0705E+06    -57.1942E+06    -17.9581E+06    -1.27128E+06    -15.5029E-03     31.0121E-03    -15.5092E-03     6.46854E-03    -15.4944E-03     30.7813E-03    -15.4869E-03     6.45116E-03
             712     2.65850E-03     78.9016E-03    -18.6759E+06    -56.6491E+06    -14.4515E+06    -1.85859E+06    -15.5093E-03     31.0307E-03    -15.5214E-03     9.64882E-03    -15.4998E-03     30.7957E-03    -15.4844E-03     9.62334E-03
             713     3.54470E-03     78.9120E-03    -16.9846E+06    -55.6860E+06    -10.8296E+06    -2.42316E+06    -15.5199E-03     31.0521E-03    -15.5321E-03     12.9422E-03    -15.5088E-03     30.8143E-03    -15.4809E-03     12.9089E-03
             714     4.43088E-03     78.9254E-03    -15.1543E+06    -54.9616E+06    -7.55969E+06    -2.92686E+06    -15.5407E-03     31.0815E-03    -15.5408E-03     16.3615E-03    -15.5264E-03     30.8402E-03    -15.4769E-03     16.3210E-03
             715     5.31710E-03     78.9422E-03    -13.3352E+06    -54.7038E+06    -4.93862E+06    -3.35788E+06    -15.5754E-03     31.1227E-03    -15.5472E-03     19.9293E-03    -15.5565E-03     30.8765E-03    -15.4733E-03     19.8826E-03
             716     6.20328E-03     78.9622E-03    -11.6625E+06    -53.9713E+06    -3.09868E+06    -3.78731E+06    -15.6182E-03     31.1681E-03    -15.5499E-03     23.6595E-03    -15.5951E-03     30.9210E-03    -15.4702E-03     23.6063E-03
             717     7.08951E-03     78.9859E-03    -10.0896E+06    -54.6378E+06    -1.39886E+06    -4.19172E+06    -15.6765E-03     31.2311E-03    -15.5547E-03     27.5310E-03    -15.6476E-03     30.9766E-03    -15.4678E-03     27.4714E-03
             718     7.97567E-03     79.0131E-03    -8.68582E+06    -54.3293E+06    -259.008E+03    -4.52436E+06    -15.7498E-03     31.3064E-03    -15.5566E-03     31.5477E-03    -15.7171E-03     31.0507E-03    -15.4665E-03     31.4822E-03
             719     8.86192E-03     79.0442E-03    -7.44870E+06    -52.5846E+06     139.056E+03    -4.74081E+06    -15.8268E-03     31.3807E-03    -15.5539E-03     35.6217E-03    -15.7926E-03     31.1330E-03    -15.4661E-03     35.5511E-03
             720     9.74801E-03     79.0789E-03    -6.05326E+06    -53.4682E+06     617.815E+03    -4.40068E+06    -15.9107E-03     31.4661E-03    -15.5554E-03     39.7479E-03    -15.8714E-03     31.2137E-03    -15.4660E-03     39.6787E-03
             721     10.6343E-03     79.1178E-03    -4.67884E+06    -51.3036E+06    -2.17780E+06    -3.98924E+06    -16.0356E-03     31.5731E-03    -15.5375E-03     43.7482E-03    -15.9923E-03     31.3375E-03    -15.4673E-03     43.6802E-03
             722     11.5205E-03     79.1597E-03    -4.14797E+06    -40.9064E+06    -1.28246E+06    -4.08390E+06    -16.1477E-03     31.6774E-03    -15.5296E-03     48.1494E-03    -16.1244E-03     31.4978E-03    -15.4707E-03     48.0750E-03
             723     12.4063E-03     79.2072E-03    -3.85889E+06    -36.8501E+06    -1.75026E+06    -4.11708E+06    -16.3103E-03     31.8352E-03    -15.5249E-03     54.8912E-03    -16.3027E-03     31.6881E-03    -15.4746E-03     54.8096E-03
             724     13.2927E-03     79.2611E-03    -2.93947E+06    -35.6736E+06    -10.2740E+06    -3.61230E+06    -16.4193E-03     31.9022E-03    -15.4829E-03     58.3533E-03    -16.4138E-03     31.7894E-03    -15.4783E-03     58.2706E-03
             725     14.1790E-03     79.3154E-03    -2.51583E+06    -12.2079E+06    -9.24566E+06    -2.99035E+06    -16.5564E-03     32.0157E-03    -15.4593E-03     62.2705E-03    -16.6128E-03     32.0466E-03    -15.4841E-03     62.1918E-03
             726     15.0637E-03     79.3766E-03    -2.72067E+06     28.6305E+06    -9.32862E+06    -2.04032E+06    -16.9398E-03     32.3324E-03    -15.3926E-03     87.7919E-03    -17.1949E-03     32.7065E-03    -15.4768E-03     87.7459E-03
             727     15.9536E-03     79.4763E-03    -3.16805E+06     85.7684E+06    -14.7572E+06    -760.040E+03    -19.1015E-03     34.3706E-03    -15.2692E-03     135.365E-03    -20.3189E-03     35.9241E-03    -15.4627E-03     135.699E-03
             728     16.8377E-03     79.6266E-03    -3.14262E+06     153.220E+06     36.3412E+06    -346.382E+03    -20.2751E-03     35.7083E-03    -15.4332E-03     161.672E-03    -22.7459E-03     38.6065E-03    -15.4691E-03     163.419E-03
             729     886.196E-06     79.8675E-03    -21.0078E+06    -56.6005E+06    -20.4354E+06    -802.574E+03    -15.4872E-03     30.9768E-03    -15.4896E-03     3.51054E-03    -15.4806E-03     30.7539E-03    -15.4792E-03     3.49966E-03
             730     1.77235E-03     79.8720E-03    -20.0738E+06    -55.8591E+06    -17.9638E+06    -1.42179E+06    -15.4872E-03     30.9838E-03    -15.4966E-03     6.46947E-03    -15.4806E-03     30.7597E-03    -15.4763E-03     6.45014E-03
             731     2.65855E-03     79.8795E-03    -18.6686E+06    -55.3382E+06    -14.4778E+06    -2.07359E+06    -15.4944E-03     31.0021E-03    -15.5077E-03     9.65003E-03    -15.4867E-03     30.7736E-03    -15.4728E-03     9.62179E-03
             732     3.54473E-03     79.8898E-03    -16.9465E+06    -54.4291E+06    -10.8365E+06    -2.71610E+06    -15.5060E-03     31.0243E-03    -15.5183E-03     12.9460E-03    -15.4965E-03     30.7928E-03    -15.4690E-03     12.9089E-03
             733     4.43095E-03     79.9034E-03    -15.1313E+06    -53.8352E+06    -7.57621E+06    -3.28325E+06    -15.5280E-03     31.0551E-03    -15.5271E-03     16.3665E-03    -15.5152E-03     30.8194E-03    -15.4650E-03     16.3215E-03
             734     5.31714E-03     79.9201E-03    -13.3210E+06    -53.6758E+06    -5.00922E+06    -3.78597E+06    -15.5628E-03     31.0964E-03    -15.5336E-03     19.9367E-03    -15.5452E-03     30.8555E-03    -15.4615E-03     19.8844E-03
             735     6.20337E-03     79.9402E-03    -11.6174E+06    -52.9896E+06    -3.13393E+06    -4.20079E+06    -15.6082E-03     31.1448E-03    -15.5367E-03     23.6661E-03    -15.5862E-03     30.9026E-03    -15.4587E-03     23.6076E-03
             736     7.08956E-03     79.9637E-03    -10.1348E+06    -53.7453E+06    -1.42708E+06    -4.59394E+06    -15.6697E-03     31.2120E-03    -15.5423E-03     27.5428E-03    -15.6424E-03     30.9620E-03    -15.4568E-03     27.4779E-03
             737     7.97579E-03     79.9911E-03    -8.79451E+06    -53.5068E+06    -387.573E+03    -4.90894E+06    -15.7421E-03     31.2866E-03    -15.5445E-03     31.5590E-03    -15.7109E-03     31.0353E-03    -15.4561E-03     31.4885E-03
             738     8.86193E-03     80.0221E-03    -7.58664E+06    -52.0445E+06    -53.1683E+03    -5.13631E+06    -15.8190E-03     31.3613E-03    -15.5423E-03     35.6349E-03    -15.7860E-03     31.1168E-03    -15.4561E-03     35.5592E-03
             739     9.74818E-03     80.0570E-03    -6.52195E+06    -53.4270E+06    -1.74872E+03    -5.27791E+06    -15.9072E-03     31.4506E-03    -15.5434E-03     39.7476E-03    -15.8694E-03     31.2000E-03    -15.4565E-03     39.6671E-03
             740     10.6344E-03     80.0955E-03    -5.45379E+06    -51.4755E+06    -2.90520E+06    -4.95433E+06    -16.0502E-03     31.5773E-03    -15.5271E-03     43.8671E-03    -16.0095E-03     31.3429E-03    -15.4590E-03     43.7867E-03
             741     11.5202E-03     80.1383E-03    -3.95214E+06    -40.7436E+06    -1.42045E+06    -4.64840E+06    -16.1213E-03     31.6418E-03    -15.5204E-03     48.1583E-03    -16.0971E-03     31.4629E-03    -15.4627E-03     48.0767E-03
             742     12.4070E-03     80.1844E-03    -3.38166E+06    -36.4638E+06    -1.68640E+06    -4.53030E+06    -16.2201E-03     31.7324E-03    -15.5123E-03     54.9095E-03    -16.2106E-03     31.5863E-03    -15.4630E-03     54.8228E-03
             743     13.2927E-03     80.2401E-03    -3.56194E+06    -35.7955E+06    -10.5730E+06    -4.20928E+06    -16.4730E-03     31.9429E-03    -15.4699E-03     58.6786E-03    -16.4702E-03     31.8311E-03    -15.4657E-03     58.5879E-03
             744     14.1786E-03     80.2924E-03    -3.62779E+06    -13.6000E+06    -10.2227E+06    -3.52611E+06    -16.3683E-03     31.8108E-03    -15.4425E-03     61.9252E-03    -16.4263E-03     31.8373E-03    -15.4686E-03     61.8405E-03
             745     15.0670E-03     80.3550E-03    -3.00712E+06     27.7293E+06    -9.35155E+06    -2.41066E+06    -17.0046E-03     32.3836E-03    -15.3790E-03     85.7529E-03    -17.2557E-03     32.7496E-03    -15.4616E-03     85.6995E-03
             746     15.9516E-03     80.4520E-03    -3.93809E+06     84.7165E+06    -15.7952E+06    -1.11534E+06    -19.3748E-03     34.6399E-03    -15.2650E-03     134.612E-03    -20.6017E-03     36.1993E-03    -15.4611E-03     134.936E-03
             747     16.8365E-03     80.6105E-03    -3.90521E+06     152.051E+06     33.9936E+06    -99.2072E+03    -20.0933E-03     35.5204E-03    -15.4272E-03     161.113E-03    -22.5507E-03     38.4052E-03    -15.4720E-03     162.860E-03
             748     886.161E-06     80.8454E-03    -20.9260E+06    -55.0449E+06    -20.3536E+06    -865.853E+03    -15.4907E-03     30.9525E-03    -15.4618E-03     3.50621E-03    -15.4860E-03     30.7372E-03    -15.4534E-03     3.49451E-03
             749     1.77238E-03     80.8499E-03    -20.0034E+06    -54.3798E+06    -17.8817E+06    -1.57531E+06    -15.4733E-03     30.9575E-03    -15.4842E-03     6.47173E-03    -15.4686E-03     30.7406E-03    -15.4657E-03     6.45042E-03
             750     2.65857E-03     80.8573E-03    -18.5856E+06    -53.8578E+06    -14.4483E+06    -2.30693E+06    -15.4788E-03     30.9731E-03    -15.4942E-03     9.65497E-03    -15.4729E-03     30.7519E-03    -15.4614E-03     9.62371E-03
             751     3.54479E-03     80.8678E-03    -16.8980E+06    -53.0273E+06    -10.7946E+06    -3.01104E+06    -15.4928E-03     30.9975E-03    -15.5047E-03     12.9495E-03    -15.4851E-03     30.7729E-03    -15.4573E-03     12.9086E-03
             752     4.43099E-03     80.8812E-03    -15.0633E+06    -52.5478E+06    -7.53132E+06    -3.64868E+06    -15.5167E-03     31.0307E-03    -15.5139E-03     16.3719E-03    -15.5055E-03     30.8012E-03    -15.4535E-03     16.3222E-03
             753     5.31721E-03     80.8980E-03    -13.2622E+06    -52.4861E+06    -5.02633E+06    -4.20979E+06    -15.5515E-03     31.0720E-03    -15.5205E-03     19.9423E-03    -15.5353E-03     30.8370E-03    -15.4503E-03     19.8846E-03
             754     6.20342E-03     80.9180E-03    -11.5890E+06    -52.0550E+06    -3.21708E+06    -4.63302E+06    -15.5978E-03     31.1217E-03    -15.5239E-03     23.6766E-03    -15.5769E-03     30.8842E-03    -15.4477E-03     23.6125E-03
             755     7.08966E-03     80.9417E-03    -10.0465E+06    -52.7773E+06    -1.48318E+06    -4.96614E+06    -15.6646E-03     31.1946E-03    -15.5300E-03     27.5593E-03    -15.6382E-03     30.9495E-03    -15.4463E-03     27.4897E-03
             756     7.97583E-03     80.9689E-03    -8.67477E+06    -52.7108E+06    -455.392E+03    -5.29528E+06    -15.7326E-03     31.2654E-03    -15.5328E-03     31.5759E-03    -15.7019E-03     31.0181E-03    -15.4460E-03     31.5004E-03
             757     8.86207E-03     81.0001E-03    -7.41504E+06    -51.2987E+06    -54.2977E+03    -5.60133E+06    -15.8110E-03     31.3421E-03    -15.5311E-03     35.6591E-03    -15.7782E-03     31.1010E-03    -15.4462E-03     35.5774E-03
             758     9.74826E-03     81.0348E-03    -6.22781E+06    -52.8585E+06     1.10259E+03    -5.78419E+06    -15.9328E-03     31.4666E-03    -15.5339E-03     39.7601E-03    -15.8943E-03     31.2184E-03    -15.4482E-03     39.6730E-03
             759     10.6343E-03     81.0737E-03    -5.19931E+06    -51.3292E+06    -3.22118E+06    -5.95247E+06    -16.0102E-03     31.5269E-03    -15.5167E-03     43.8968E-03    -15.9680E-03     31.2934E-03    -15.4508E-03     43.8036E-03
             760     11.5209E-03     81.1160E-03    -4.51353E+06    -40.9130E+06    -2.14805E+06    -5.62305E+06    -16.0863E-03     31.5936E-03    -15.5073E-03     48.2423E-03    -16.0635E-03     31.4158E-03    -15.4522E-03     48.1482E-03
             761     12.4063E-03     81.1628E-03    -3.32369E+06    -36.2621E+06    -1.72850E+06    -4.98775E+06    -16.3272E-03     31.8317E-03    -15.5045E-03     54.7596E-03    -16.3179E-03     31.6868E-03    -15.4557E-03     54.6666E-03
             762     13.2935E-03     81.2172E-03    -3.46629E+06    -36.0563E+06    -10.7331E+06    -4.53790E+06    -16.4311E-03     31.8964E-03    -15.4653E-03     58.4328E-03    -16.4271E-03     31.7833E-03    -15.4617E-03     58.3381E-03
             763     14.1791E-03     81.2723E-03    -3.92983E+06    -14.6774E+06    -10.5489E+06    -3.77436E+06    -16.5013E-03     31.9437E-03    -15.4423E-03     61.5389E-03    -16.5584E-03     31.9653E-03    -15.4681E-03     61.4504E-03
             764     15.0636E-03     81.3306E-03    -4.04015E+06     25.8874E+06    -10.6703E+06    -2.60306E+06    -17.7346E-03     33.1347E-03    -15.4001E-03     86.4807E-03    -17.9924E-03     33.5010E-03    -15.4851E-03     86.4202E-03
             765     15.9495E-03     81.4340E-03    -4.14659E+06     83.0833E+06    -16.8710E+06    -1.12971E+06    -19.1549E-03     34.4530E-03    -15.2981E-03     135.001E-03    -20.3762E-03     36.0035E-03    -15.4970E-03     135.347E-03
             766     16.8386E-03     81.5833E-03    -2.75944E+06     151.755E+06     34.0730E+06    -128.704E+03    -19.4891E-03     34.9265E-03    -15.4374E-03     161.856E-03    -21.9562E-03     37.8238E-03    -15.4831E-03     163.631E-03
             767     886.217E-06     81.8233E-03    -20.7285E+06    -53.3579E+06    -20.1672E+06    -952.992E+03    -15.4596E-03     30.9223E-03    -15.4627E-03     3.49616E-03    -15.4567E-03     30.7148E-03    -15.4561E-03     3.48334E-03
             768     1.77239E-03     81.8278E-03    -19.7748E+06    -52.6989E+06    -17.6672E+06    -1.73209E+06    -15.4618E-03     30.9317E-03    -15.4699E-03     6.47443E-03    -15.4588E-03     30.7226E-03    -15.4531E-03     6.45110E-03
             769     2.65861E-03     81.8352E-03    -18.3737E+06    -52.2373E+06    -14.2206E+06    -2.54590E+06    -15.4679E-03     30.9491E-03    -15.4812E-03     9.65899E-03    -15.4636E-03     30.7353E-03    -15.4499E-03     9.62465E-03
             770     3.54482E-03     81.8456E-03    -16.6739E+06    -51.4843E+06    -10.6248E+06    -3.29614E+06    -15.4816E-03     30.9736E-03    -15.4919E-03     12.9533E-03    -15.4753E-03     30.7561E-03    -15.4462E-03     12.9087E-03
             771     4.43104E-03     81.8591E-03    -14.8773E+06    -51.0628E+06    -7.43309E+06    -4.03089E+06    -15.5052E-03     31.0064E-03    -15.5012E-03     16.3760E-03    -15.4954E-03     30.7840E-03    -15.4427E-03     16.3213E-03
             772     5.31727E-03     81.8758E-03    -13.1051E+06    -51.2449E+06    -4.98224E+06    -4.60553E+06    -15.5414E-03     31.0495E-03    -15.5081E-03     19.9488E-03    -15.5263E-03     30.8204E-03    -15.4397E-03     19.8859E-03
             773     6.20350E-03     81.8959E-03    -11.4427E+06    -50.9242E+06    -3.23587E+06    -5.09128E+06    -15.5902E-03     31.1019E-03    -15.5117E-03     23.6874E-03    -15.5702E-03     30.8699E-03    -15.4375E-03     23.6174E-03
             774     7.08971E-03     81.9195E-03    -9.82011E+06    -51.8036E+06    -1.57332E+06    -5.50761E+06    -15.6518E-03     31.1695E-03    -15.5177E-03     27.5811E-03    -15.6255E-03     30.9290E-03    -15.4362E-03     27.5044E-03
             775     7.97593E-03     81.9469E-03    -8.32282E+06    -51.8355E+06    -412.266E+03    -5.78101E+06    -15.7251E-03     31.2460E-03    -15.5210E-03     31.5891E-03    -15.6939E-03     31.0026E-03    -15.4358E-03     31.5074E-03
             776     8.86216E-03     81.9778E-03    -7.09756E+06    -50.3949E+06     130.201E+03    -6.05985E+06    -15.8180E-03     31.3389E-03    -15.5209E-03     35.6887E-03    -15.7852E-03     31.1017E-03    -15.4369E-03     35.6011E-03
             777     9.74829E-03     82.0129E-03    -5.90841E+06    -52.0350E+06     154.884E+03    -6.45521E+06    -15.9320E-03     31.4568E-03    -15.5248E-03     39.8241E-03    -15.8934E-03     31.2120E-03    -15.4400E-03     39.7284E-03
             778     10.6345E-03     82.0514E-03    -5.00019E+06    -50.9942E+06    -3.27866E+06    -6.64758E+06    -16.0049E-03     31.5128E-03    -15.5079E-03     43.8321E-03    -15.9622E-03     31.2807E-03    -15.4431E-03     43.7298E-03
             779     11.5205E-03     82.0939E-03    -4.36443E+06    -40.8818E+06    -2.07501E+06    -6.30382E+06    -16.1043E-03     31.6050E-03    -15.5007E-03     48.2368E-03    -16.0809E-03     31.4270E-03    -15.4455E-03     48.1338E-03
             780     12.4074E-03     82.1408E-03    -3.93279E+06    -36.5732E+06    -2.09683E+06    -5.73548E+06    -16.4808E-03     31.9844E-03    -15.5036E-03     54.9404E-03    -16.4738E-03     31.8397E-03    -15.4554E-03     54.8373E-03
             781     13.2917E-03     82.1960E-03    -2.86056E+06    -36.8509E+06    -10.5172E+06    -4.91331E+06    -16.4096E-03     31.8805E-03    -15.4710E-03     58.1921E-03    -16.4014E-03     31.7620E-03    -15.4660E-03     58.0927E-03
             782     14.1792E-03     82.2485E-03    -2.63246E+06    -16.0909E+06    -10.6539E+06    -3.71046E+06    -16.3992E-03     31.8405E-03    -15.4413E-03     62.2266E-03    -16.4480E-03     31.8538E-03    -15.4674E-03     62.1392E-03
             783     15.0659E-03     82.3119E-03    -4.02489E+06     24.6974E+06    -11.5639E+06    -2.49662E+06    -17.5932E-03     32.9803E-03    -15.3871E-03     87.7794E-03    -17.8496E-03     33.3436E-03    -15.4749E-03     87.7232E-03
             784     15.9515E-03     82.4105E-03    -4.71169E+06     81.9381E+06    -18.4413E+06    -1.50417E+06    -19.5313E-03     34.8195E-03    -15.2882E-03     134.844E-03    -20.7521E-03     36.3680E-03    -15.4924E-03     135.170E-03
             785     16.8361E-03     82.5618E-03    -3.41127E+06     150.627E+06     32.6077E+06    -648.765E+03    -19.7259E-03     35.1713E-03    -15.4454E-03     161.748E-03    -22.1994E-03     38.0729E-03    -15.4958E-03     163.517E-03
             786     886.192E-06     82.8011E-03    -20.5142E+06    -51.4782E+06    -19.9552E+06    -1.05528E+06    -15.4262E-03     30.8957E-03    -15.4695E-03     3.50218E-03    -15.4252E-03     30.6971E-03    -15.4649E-03     3.48804E-03
             787     1.77243E-03     82.8057E-03    -19.5718E+06    -50.8554E+06    -17.4833E+06    -1.91407E+06    -15.4495E-03     30.9061E-03    -15.4567E-03     6.46850E-03    -15.4483E-03     30.7057E-03    -15.4420E-03     6.44282E-03
             788     2.65863E-03     82.8130E-03    -18.1624E+06    -50.4306E+06    -14.0402E+06    -2.78668E+06    -15.4575E-03     30.9260E-03    -15.4685E-03     9.65805E-03    -15.4550E-03     30.7208E-03    -15.4393E-03     9.62060E-03
             789     3.54486E-03     82.8235E-03    -16.4434E+06    -49.7763E+06    -10.4933E+06    -3.64109E+06    -15.4703E-03     30.9498E-03    -15.4796E-03     12.9567E-03    -15.4654E-03     30.7404E-03    -15.4360E-03     12.9077E-03
             790     4.43109E-03     82.8369E-03    -14.6345E+06    -49.4729E+06    -7.31949E+06    -4.37608E+06    -15.4937E-03     30.9826E-03    -15.4889E-03     16.3813E-03    -15.4851E-03     30.7676E-03    -15.4325E-03     16.3221E-03
             791     5.31732E-03     82.8537E-03    -12.8785E+06    -49.8765E+06    -4.87907E+06    -5.02838E+06    -15.5321E-03     31.0284E-03    -15.4962E-03     19.9572E-03    -15.5180E-03     30.8056E-03    -15.4296E-03     19.8889E-03
             792     6.20355E-03     82.8737E-03    -11.1677E+06    -49.6176E+06    -3.17683E+06    -5.60151E+06    -15.5798E-03     31.0796E-03    -15.4998E-03     23.7053E-03    -15.5604E-03     30.8537E-03    -15.4276E-03     23.6287E-03
             793     7.08978E-03     82.8975E-03    -9.60436E+06    -50.6652E+06    -1.51834E+06    -6.10108E+06    -15.6388E-03     31.1447E-03    -15.5059E-03     27.5928E-03    -15.6131E-03     30.9095E-03    -15.4261E-03     27.5085E-03
             794     7.97604E-03     82.9247E-03    -8.07465E+06    -51.0656E+06    -448.352E+03    -6.38814E+06    -15.7209E-03     31.2304E-03    -15.5094E-03     31.6240E-03    -15.6896E-03     30.9904E-03    -15.4259E-03     31.5344E-03
             795     8.86218E-03     82.9559E-03    -6.65768E+06    -49.4778E+06     228.609E+03    -6.58849E+06    -15.8103E-03     31.3202E-03    -15.5098E-03     35.7417E-03    -15.7768E-03     31.0867E-03    -15.4273E-03     35.6473E-03
             796     9.74845E-03     82.9907E-03    -5.65973E+06    -51.1129E+06     338.958E+03    -6.88332E+06    -15.9091E-03     31.4229E-03    -15.5138E-03     39.8783E-03    -15.8708E-03     31.1821E-03    -15.4298E-03     39.7771E-03
             797     10.6345E-03     83.0296E-03    -5.06134E+06    -50.4649E+06    -3.24025E+06    -7.03840E+06    -16.0550E-03     31.5540E-03    -15.4990E-03     43.8704E-03    -16.0134E-03     31.3247E-03    -15.4347E-03     43.7630E-03
             798     11.5209E-03     83.0717E-03    -4.45008E+06    -40.9233E+06    -2.28237E+06    -6.91542E+06    -16.2346E-03     31.7335E-03    -15.4989E-03     48.3807E-03    -16.2115E-03     31.5559E-03    -15.4445E-03     48.2696E-03
             799     12.4061E-03     83.1193E-03    -3.54058E+06    -37.1888E+06    -2.19477E+06    -6.27311E+06    -16.2855E-03     31.7858E-03    -15.5003E-03     55.0747E-03    -16.2751E-03     31.6371E-03    -15.4522E-03     54.9654E-03
             800     13.2938E-03     83.1741E-03    -3.27376E+06    -37.8109E+06    -11.2574E+06    -5.42295E+06    -16.3993E-03     31.8582E-03    -15.4589E-03     58.3212E-03    -16.3908E-03     31.7365E-03    -15.4556E-03     58.2152E-03
             801     14.1788E-03     83.2262E-03    -3.50381E+06    -17.0711E+06    -11.4930E+06    -4.48483E+06    -16.5472E-03     31.9813E-03    -15.4340E-03     62.3553E-03    -16.5986E-03     31.9930E-03    -15.4617E-03     62.2574E-03
             802     15.0649E-03     83.2898E-03    -3.09394E+06     23.2845E+06    -11.0472E+06    -2.97268E+06    -17.2739E-03     32.6549E-03    -15.3810E-03     87.1800E-03    -17.5205E-03     33.0052E-03    -15.4655E-03     87.1188E-03
             803     15.9514E-03     83.3891E-03    -3.49670E+06     80.5989E+06    -19.0457E+06    -1.52127E+06    -19.4996E-03     34.7654E-03    -15.2658E-03     135.291E-03    -20.7227E-03     36.3175E-03    -15.4728E-03     135.615E-03
             804     16.8365E-03     83.5427E-03    -3.21164E+06     149.942E+06     30.8784E+06    -558.437E+03    -19.9580E-03     35.3798E-03    -15.4218E-03     162.065E-03    -22.4281E-03     38.2812E-03    -15.4802E-03     163.825E-03
             805     886.224E-06     83.7790E-03    -20.1077E+06    -49.4047E+06    -19.5778E+06    -1.14820E+06    -15.4206E-03     30.8752E-03    -15.4546E-03     3.50113E-03    -15.4211E-03     30.6858E-03    -15.4517E-03     3.48579E-03
             806     1.77242E-03     83.7834E-03    -19.2378E+06    -48.8355E+06    -17.1873E+06    -2.08666E+06    -15.4381E-03     30.8840E-03    -15.4459E-03     6.47582E-03    -15.4386E-03     30.6927E-03    -15.4331E-03     6.44791E-03
             807     2.65866E-03     83.7909E-03    -17.8497E+06    -48.4326E+06    -13.8553E+06    -3.05409E+06    -15.4459E-03     30.9028E-03    -15.4569E-03     9.65901E-03    -15.4450E-03     30.7068E-03    -15.4301E-03     9.61811E-03
             808     3.54489E-03     83.8013E-03    -16.1651E+06    -47.8621E+06    -10.2874E+06    -3.98954E+06    -15.4575E-03     30.9254E-03    -15.4679E-03     12.9593E-03    -15.4544E-03     30.7248E-03    -15.4265E-03     12.9058E-03
             809     4.43113E-03     83.8148E-03    -14.3385E+06    -47.8468E+06    -7.13546E+06    -4.78073E+06    -15.4818E-03     30.9591E-03    -15.4772E-03     16.3882E-03    -15.4743E-03     30.7515E-03    -15.4227E-03     16.3239E-03
             810     5.31737E-03     83.8315E-03    -12.5327E+06    -48.2778E+06    -4.70409E+06    -5.46799E+06    -15.5197E-03     31.0039E-03    -15.4843E-03     19.9729E-03    -15.5064E-03     30.7884E-03    -15.4196E-03     19.8990E-03
             811     6.20361E-03     83.8516E-03    -10.9291E+06    -48.2387E+06    -3.05156E+06    -6.09861E+06    -15.5650E-03     31.0527E-03    -15.4877E-03     23.7214E-03    -15.5466E-03     30.8331E-03    -15.4171E-03     23.6384E-03
             812     7.08988E-03     83.8752E-03    -9.42250E+06    -49.3554E+06    -1.45787E+06    -6.61049E+06    -15.6306E-03     31.1242E-03    -15.4936E-03     27.6206E-03    -15.6060E-03     30.8952E-03    -15.4156E-03     27.5297E-03
             813     7.97606E-03     83.9026E-03    -8.01966E+06    -50.1209E+06    -489.338E+03    -7.05786E+06    -15.7037E-03     31.2009E-03    -15.4971E-03     31.6669E-03    -15.6735E-03     30.9656E-03    -15.4153E-03     31.5686E-03
             814     8.86237E-03     83.9337E-03    -6.64882E+06    -48.6903E+06     29.8175E+03    -7.26376E+06    -15.7912E-03     31.2875E-03    -15.4963E-03     35.7998E-03    -15.7585E-03     31.0582E-03    -15.4159E-03     35.6967E-03
             815     9.74850E-03     83.9687E-03    -5.46556E+06    -50.2574E+06     357.159E+03    -7.30299E+06    -15.9054E-03     31.4063E-03    -15.5009E-03     39.9013E-03    -15.8674E-03     31.1695E-03    -15.4183E-03     39.7946E-03
             816     10.6348E-03     84.0073E-03    -4.76122E+06    -49.9931E+06    -3.09728E+06    -7.24575E+06    -16.0827E-03     31.5717E-03    -15.4889E-03     44.0174E-03    -16.0405E-03     31.3441E-03    -15.4250E-03     43.9073E-03
             817     11.5205E-03     84.0501E-03    -4.50489E+06    -40.6636E+06    -2.37748E+06    -7.16999E+06    -16.1738E-03     31.6615E-03    -15.4876E-03     48.6689E-03    -16.1512E-03     31.4854E-03    -15.4340E-03     48.5546E-03
             818     12.4072E-03     84.0973E-03    -3.90183E+06    -37.9118E+06    -2.80847E+06    -6.92228E+06    -16.2044E-03     31.6882E-03    -15.4838E-03     55.0278E-03    -16.1936E-03     31.5372E-03    -15.4372E-03     54.9104E-03
             819     13.2929E-03     84.1509E-03    -3.26220E+06    -38.9168E+06    -11.9346E+06    -6.17272E+06    -16.4496E-03     31.8912E-03    -15.4417E-03     58.5852E-03    -16.4389E-03     31.7654E-03    -15.4402E-03     58.4693E-03
             820     14.1792E-03     84.2064E-03    -3.24346E+06    -17.4458E+06    -11.5810E+06    -5.04424E+06    -16.6870E-03     32.1117E-03    -15.4247E-03     62.5330E-03    -16.7367E-03     32.1215E-03    -15.4526E-03     62.4274E-03
             821     15.0651E-03     84.2663E-03    -3.59962E+06     21.2164E+06    -11.8788E+06    -3.61811E+06    -17.4261E-03     32.8058E-03    -15.3797E-03     87.5964E-03    -17.6736E-03     33.1503E-03    -15.4646E-03     87.5258E-03
             822     15.9514E-03     84.3684E-03    -3.28519E+06     78.6767E+06    -19.9246E+06    -1.67291E+06    -19.0950E-03     34.3506E-03    -15.2556E-03     135.481E-03    -20.3074E-03     35.8884E-03    -15.4645E-03     135.818E-03
             823     16.8392E-03     84.5199E-03    -2.49396E+06     149.640E+06     30.4572E+06    -450.861E+03    -19.7897E-03     35.1872E-03    -15.3975E-03     161.071E-03    -22.2349E-03     38.0664E-03    -15.4585E-03     162.825E-03
             824     886.211E-06     84.7567E-03    -19.4135E+06    -47.1448E+06    -18.8716E+06    -1.24542E+06    -15.4233E-03     30.8552E-03    -15.4318E-03     3.49841E-03    -15.4247E-03     30.6750E-03    -15.4297E-03     3.48181E-03
             825     1.77246E-03     84.7613E-03     -18.497E+06    -46.6316E+06    -16.5364E+06    -2.24733E+06    -15.4295E-03     30.8654E-03    -15.4359E-03     6.47929E-03    -15.4305E-03     30.6831E-03    -15.4241E-03     6.44931E-03
             826     2.65867E-03     84.7687E-03    -17.1718E+06    -46.2525E+06    -13.2516E+06    -3.30118E+06    -15.4341E-03     30.8807E-03    -15.4466E-03     9.66126E-03    -15.4339E-03     30.6938E-03    -15.4209E-03     9.61718E-03
             827     3.54492E-03     84.7791E-03    -15.5622E+06    -45.8215E+06    -9.80258E+06    -4.28442E+06    -15.4447E-03     30.9015E-03    -15.4567E-03     12.9662E-03    -15.4422E-03     30.7095E-03    -15.4167E-03     12.9089E-03
             828     4.43117E-03     84.7926E-03    -13.8369E+06    -45.9823E+06    -6.74072E+06    -5.18882E+06    -15.4683E-03     30.9337E-03    -15.4655E-03     16.4019E-03    -15.4616E-03     30.7342E-03    -15.4124E-03     16.3323E-03
             829     5.31743E-03     84.8093E-03    -12.1086E+06    -46.6337E+06    -4.44106E+06    -5.93261E+06    -15.5029E-03     30.9745E-03    -15.4716E-03     19.9888E-03    -15.4903E-03     30.7662E-03    -15.4086E-03     19.9088E-03
             830     6.20370E-03     84.8294E-03    -10.5010E+06    -46.7262E+06    -2.78577E+06    -6.50834E+06    -15.5507E-03     31.0253E-03    -15.4746E-03     23.7442E-03    -15.5328E-03     30.8123E-03    -15.4055E-03     23.6559E-03
             831     7.08992E-03     84.8531E-03    -9.07394E+06    -47.9687E+06    -1.26666E+06    -7.09557E+06    -15.6130E-03     31.0929E-03    -15.4799E-03     27.6580E-03    -15.5890E-03     30.8701E-03    -15.4035E-03     27.5609E-03
             832     7.97622E-03     84.8804E-03    -7.70660E+06    -48.8430E+06    -244.474E+03    -7.59510E+06    -15.6895E-03     31.1731E-03    -15.4835E-03     31.7021E-03    -15.6599E-03     30.9434E-03    -15.4027E-03     31.5970E-03
             833     8.86240E-03     84.9116E-03    -6.51044E+06    -47.8806E+06     50.3232E+03    -7.91352E+06    -15.7771E-03     31.2594E-03    -15.4823E-03     35.8504E-03    -15.7448E-03     31.0339E-03    -15.4032E-03     35.7390E-03
             834     9.74869E-03     84.9466E-03    -5.40286E+06    -49.6900E+06     320.970E+03    -7.87540E+06    -15.8996E-03     31.3870E-03    -15.4873E-03     39.9772E-03    -15.8621E-03     31.1529E-03    -15.4058E-03     39.8632E-03
             835     10.6347E-03     84.9853E-03    -4.66918E+06    -49.6853E+06    -2.83326E+06    -7.57171E+06    -16.0223E-03     31.4976E-03    -15.4753E-03     44.1992E-03    -15.9804E-03     31.2710E-03    -15.4107E-03     44.0850E-03
             836     11.5212E-03     85.0282E-03    -3.97422E+06    -40.3508E+06    -2.13115E+06    -7.47038E+06    -16.0320E-03     31.4986E-03    -15.4666E-03     48.6094E-03    -16.0074E-03     31.3228E-03    -15.4130E-03     48.4916E-03
             837     12.4073E-03     85.0747E-03    -3.42801E+06    -37.7141E+06    -2.73673E+06    -7.48357E+06    -16.2849E-03     31.7460E-03    -15.4610E-03     55.0923E-03    -16.2725E-03     31.5954E-03    -15.4151E-03     54.9673E-03
             838     13.2934E-03     85.1300E-03    -3.45332E+06    -39.8721E+06    -12.6056E+06    -6.90252E+06    -16.5699E-03     31.9954E-03    -15.4255E-03     58.9255E-03    -16.5581E-03     31.8663E-03    -15.4257E-03     58.7999E-03
             839     14.1795E-03     85.1832E-03    -3.35460E+06    -18.6105E+06    -12.0730E+06    -5.61546E+06    -16.6199E-03     32.0318E-03    -15.4119E-03     62.5120E-03    -16.6674E-03     32.0364E-03    -15.4405E-03     62.3994E-03
             840     15.0656E-03     85.2460E-03    -2.89634E+06     20.0090E+06    -11.5553E+06    -4.09870E+06    -17.6224E-03     32.9967E-03    -15.3742E-03     87.3918E-03    -17.8657E-03     33.3342E-03    -15.4568E-03     87.3139E-03
             841     15.9512E-03     85.3454E-03    -3.34867E+06     76.1461E+06    -20.4451E+06    -2.34552E+06    -19.4432E-03     34.7089E-03    -15.2657E-03     134.866E-03    -20.6493E-03     36.2327E-03    -15.4735E-03     135.188E-03
             842     16.8361E-03     85.4984E-03    -2.97733E+06     148.052E+06     29.5306E+06    -570.839E+03    -19.6319E-03     35.0431E-03    -15.4111E-03     160.975E-03    -22.0816E-03     37.9221E-03    -15.4738E-03     162.740E-03
             843     886.245E-06     85.7346E-03    -18.6733E+06    -44.6694E+06    -18.1871E+06    -1.36560E+06    -15.4237E-03     30.8369E-03    -15.4132E-03     3.49797E-03    -15.4259E-03     30.6670E-03    -15.4123E-03     3.47983E-03
             844     1.77245E-03     85.7391E-03    -17.7811E+06    -44.2497E+06    -15.8224E+06    -2.45305E+06    -15.4156E-03     30.8414E-03    -15.4259E-03     6.47826E-03    -15.4174E-03     30.6690E-03    -15.4150E-03     6.44563E-03
             845     2.65871E-03     85.7465E-03    -16.4136E+06    -43.9235E+06    -12.5673E+06    -3.53762E+06    -15.4182E-03     30.8529E-03    -15.4348E-03     9.66952E-03    -15.4185E-03     30.6755E-03    -15.4101E-03     9.62238E-03
             846     3.54496E-03     85.7569E-03    -14.7908E+06    -43.6226E+06    -9.15758E+06    -4.60015E+06    -15.4311E-03     30.8750E-03    -15.4439E-03     12.9786E-03    -15.4289E-03     30.6919E-03    -15.4050E-03     12.9172E-03
             847     4.43123E-03     85.7704E-03    -13.0702E+06    -43.9618E+06    -6.13696E+06    -5.53342E+06    -15.4525E-03     30.9046E-03    -15.4521E-03     16.4171E-03    -15.4458E-03     30.7132E-03    -15.4001E-03     16.3430E-03
             848     5.31750E-03     85.7871E-03    -11.4525E+06    -44.8826E+06    -3.91042E+06    -6.30725E+06    -15.4865E-03     30.9442E-03    -15.4577E-03     20.0063E-03    -15.4739E-03     30.7430E-03    -15.3956E-03     19.9216E-03
             849     6.20376E-03     85.8072E-03    -9.93733E+06    -45.1771E+06    -2.41338E+06    -6.93965E+06    -15.5311E-03     30.9908E-03    -15.4596E-03     23.7745E-03    -15.5131E-03     30.7841E-03    -15.3918E-03     23.6807E-03
             850     7.09006E-03     85.8309E-03    -8.53980E+06    -46.4489E+06    -867.184E+03    -7.47954E+06    -15.5920E-03     31.0564E-03    -15.4643E-03     27.6897E-03    -15.5681E-03     30.8398E-03    -15.3889E-03     27.5877E-03
             851     7.97629E-03     85.8582E-03    -7.33443E+06    -47.5292E+06     69.3743E+03    -8.02161E+06    -15.6738E-03     31.1414E-03    -15.4676E-03     31.7586E-03    -15.6447E-03     30.9173E-03    -15.3877E-03     31.6480E-03
             852     8.86257E-03     85.8894E-03    -6.22463E+06    -46.8252E+06     376.206E+03    -8.36028E+06    -15.7564E-03     31.2230E-03    -15.4666E-03     35.9114E-03    -15.7248E-03     31.0020E-03    -15.3878E-03     35.7942E-03
             853     9.74878E-03     85.9244E-03    -5.34130E+06    -49.4954E+06     285.178E+03    -8.29316E+06    -15.8575E-03     31.3273E-03    -15.4698E-03     40.0980E-03    -15.8199E-03     31.0942E-03    -15.3889E-03     39.9787E-03
             854     10.6351E-03     85.9633E-03    -4.41009E+06    -49.2220E+06    -2.78066E+06    -8.16299E+06    -15.9634E-03     31.4181E-03    -15.4547E-03     44.2416E-03    -15.9209E-03     31.1933E-03    -15.3908E-03     44.1199E-03
             855     11.5212E-03     86.0058E-03    -3.52293E+06    -39.7352E+06    -1.86510E+06    -8.21724E+06    -16.0558E-03     31.5023E-03    -15.4465E-03     48.5428E-03    -16.0302E-03     31.3285E-03    -15.3931E-03     48.4154E-03
             856     12.4075E-03     86.0529E-03    -2.85832E+06    -37.8249E+06    -2.46087E+06    -7.96733E+06    -16.3271E-03     31.7726E-03    -15.4455E-03     55.1839E-03    -16.3121E-03     31.6203E-03    -15.3988E-03     55.0526E-03
             857     13.2937E-03     86.1077E-03    -2.92642E+06    -39.9785E+06    -12.1300E+06    -7.21480E+06    -16.6144E-03     32.0291E-03    -15.4148E-03     58.8799E-03    -16.6003E-03     31.8979E-03    -15.4132E-03     58.7502E-03
             858     14.1792E-03     86.1621E-03    -3.20230E+06    -19.7273E+06    -12.0334E+06    -6.39774E+06    -16.7390E-03     32.1458E-03    -15.4068E-03     62.5123E-03    -16.7845E-03     32.1448E-03    -15.4337E-03     62.3891E-03
             859     15.0653E-03     86.2233E-03    -3.11816E+06     17.6429E+06    -12.1266E+06    -4.80322E+06    -17.5983E-03     32.9693E-03    -15.3710E-03     87.8232E-03    -17.8392E-03     33.2970E-03    -15.4527E-03     87.7365E-03
             860     15.9509E-03     86.3256E-03    -3.25337E+06     73.3386E+06    -20.8160E+06    -2.46212E+06    -19.3045E-03     34.5616E-03    -15.2571E-03     135.679E-03    -20.5092E-03     36.0755E-03    -15.4628E-03     136.003E-03
             861     16.8377E-03     86.4756E-03    -2.73582E+06     146.860E+06     29.4868E+06    -505.522E+03    -19.7682E-03     35.1660E-03    -15.3978E-03     162.342E-03    -22.2359E-03     38.0598E-03    -15.4593E-03     164.112E-03
             862     886.216E-06     86.7123E-03    -17.8966E+06    -41.9691E+06    -17.3185E+06    -1.47399E+06    -15.3974E-03     30.8074E-03    -15.4101E-03     3.50135E-03    -15.4009E-03     30.6487E-03    -15.4099E-03     3.48181E-03
             863     1.77250E-03     86.7169E-03    -16.9587E+06    -41.6589E+06    -15.0048E+06    -2.65559E+06    -15.3990E-03     30.8098E-03    -15.4109E-03     6.48728E-03    -15.4017E-03     30.6480E-03    -15.4009E-03     6.45203E-03
             864     2.65874E-03     86.7243E-03    -15.5999E+06    -41.4294E+06    -11.8470E+06    -3.84628E+06    -15.4030E-03     30.8220E-03    -15.4190E-03     9.68195E-03    -15.4039E-03     30.6548E-03    -15.3956E-03     9.63084E-03
             865     3.54502E-03     86.7347E-03    -13.9626E+06    -41.2707E+06    -8.48070E+06    -4.94277E+06    -15.4136E-03     30.8414E-03    -15.4277E-03     12.9915E-03    -15.4116E-03     30.6679E-03    -15.3901E-03     12.9257E-03
             866     4.43129E-03     86.7481E-03    -12.2754E+06    -41.8856E+06    -5.48523E+06    -5.88272E+06    -15.4336E-03     30.8693E-03    -15.4356E-03     16.4324E-03    -15.4269E-03     30.6861E-03    -15.3845E-03     16.3538E-03
             867     5.31758E-03     86.7649E-03    -10.6516E+06    -43.0844E+06    -3.27268E+06    -6.61144E+06    -15.4664E-03     30.9073E-03    -15.4409E-03     20.0313E-03    -15.4533E-03     30.7130E-03    -15.3793E-03     19.9426E-03
             868     6.20387E-03     86.7850E-03    -9.26735E+06    -43.4894E+06    -1.85253E+06    -7.24754E+06    -15.5072E-03     30.9491E-03    -15.4419E-03     23.8037E-03    -15.4891E-03     30.7491E-03    -15.3746E-03     23.7059E-03
             869     7.09016E-03     86.8087E-03    -7.98047E+06    -44.9719E+06    -503.159E+03    -7.84195E+06    -15.5674E-03     31.0125E-03    -15.4451E-03     27.7400E-03    -15.5433E-03     30.8019E-03    -15.3708E-03     27.6334E-03
             870     7.97647E-03     86.8360E-03    -6.87566E+06    -46.1762E+06     462.143E+03    -8.23070E+06    -15.6408E-03     31.0884E-03    -15.4475E-03     31.8256E-03    -15.6119E-03     30.8698E-03    -15.3683E-03     31.7124E-03
             871     8.86273E-03     86.8672E-03    -6.09870E+06    -45.7684E+06     582.201E+03    -8.53675E+06    -15.7180E-03     31.1629E-03    -15.4449E-03     35.9889E-03    -15.6876E-03     30.9466E-03    -15.3668E-03     35.8695E-03
             872     9.74904E-03     86.9022E-03    -5.13357E+06    -48.7944E+06     422.846E+03    -8.85031E+06    -15.8240E-03     31.2707E-03    -15.4467E-03     40.1732E-03    -15.7866E-03     31.0406E-03    -15.3664E-03     40.0467E-03
             873     10.6353E-03     86.9410E-03    -4.12392E+06    -48.6156E+06    -2.82285E+06    -8.98254E+06    -15.9600E-03     31.3909E-03    -15.4308E-03     44.3087E-03    -15.9170E-03     31.1688E-03    -15.3685E-03     44.1765E-03
             874     11.5215E-03     86.9838E-03    -3.30726E+06    -39.3725E+06    -1.86181E+06    -8.85747E+06    -16.1018E-03     31.5282E-03    -15.4264E-03     48.6780E-03    -16.0757E-03     31.3560E-03    -15.3739E-03     48.5422E-03
             875     12.4076E-03     87.0306E-03    -2.86662E+06    -37.7294E+06    -2.36148E+06     -8.4525E+06    -16.3797E-03     31.8108E-03    -15.4312E-03     55.4468E-03    -16.3652E-03     31.6591E-03    -15.3841E-03     55.3091E-03
             876     13.2934E-03     87.0863E-03    -2.78782E+06    -40.4261E+06    -12.1054E+06    -7.63841E+06    -16.6274E-03     32.0306E-03    -15.4032E-03     59.2123E-03    -16.6123E-03     31.8972E-03    -15.4011E-03     59.0771E-03
             877     14.1799E-03     87.1398E-03    -2.84321E+06    -20.5493E+06    -11.8945E+06    -6.75193E+06    -16.7455E-03     32.1423E-03    -15.3967E-03     62.8284E-03    -16.7887E-03     32.1369E-03    -15.4223E-03     62.7006E-03
             878     15.0654E-03     87.2025E-03    -3.36402E+06     15.4541E+06    -12.6205E+06    -5.52813E+06    -17.3881E-03     32.7430E-03    -15.3550E-03     87.9274E-03    -17.6262E-03     33.0607E-03    -15.4356E-03     87.8333E-03
             879     15.9524E-03     87.3024E-03    -3.34374E+06     69.6677E+06    -21.9104E+06    -2.94651E+06    -18.8411E-03     34.0637E-03    -15.2226E-03     135.375E-03    -20.0287E-03     35.5503E-03    -15.4283E-03     135.697E-03
             880     16.8390E-03     87.4545E-03    -2.75571E+06     145.538E+06     29.3995E+06    -324.175E+03    -20.0624E-03     35.4235E-03    -15.3611E-03     162.690E-03    -22.5324E-03     38.3151E-03    -15.4211E-03     164.450E-03
             881     886.281E-06     87.6902E-03    -16.7217E+06    -39.0533E+06    -16.2637E+06    -1.57312E+06    -15.3690E-03     30.7641E-03    -15.3951E-03     3.50923E-03    -15.3724E-03     30.6167E-03    -15.3955E-03     3.48841E-03
             882     1.77252E-03     87.6946E-03    -15.8634E+06    -38.8310E+06    -13.9739E+06    -2.87048E+06    -15.3830E-03     30.7730E-03    -15.3901E-03     6.49076E-03    -15.3858E-03     30.6222E-03    -15.3806E-03     6.45275E-03
             883     2.65880E-03     87.7021E-03    -14.5115E+06    -38.7292E+06    -10.8819E+06    -4.15774E+06    -15.3856E-03     30.7850E-03    -15.3994E-03     9.69024E-03    -15.3864E-03     30.6283E-03    -15.3766E-03     9.63512E-03
             884     3.54507E-03     87.7124E-03    -12.9375E+06    -38.8327E+06      -7.639E+06    -5.29174E+06    -15.3912E-03     30.7990E-03    -15.4078E-03     13.0060E-03    -15.3889E-03     30.6350E-03    -15.3709E-03     12.9358E-03
             885     4.43139E-03     87.7259E-03    -11.3104E+06    -39.7607E+06    -4.71681E+06    -6.18628E+06    -15.4094E-03     30.8243E-03    -15.4149E-03     16.4541E-03    -15.4020E-03     30.6492E-03    -15.3644E-03     16.3716E-03
             886     5.31768E-03     87.7426E-03    -9.80110E+06    -41.2706E+06    -2.59287E+06    -6.90348E+06    -15.4387E-03     30.8579E-03    -15.4192E-03     20.0598E-03    -15.4249E-03     30.6704E-03    -15.3581E-03     19.9674E-03
             887     6.20401E-03     87.7627E-03    -8.41587E+06    -41.8049E+06    -1.25862E+06    -7.47772E+06    -15.4773E-03     30.8960E-03    -15.4187E-03     23.8452E-03    -15.4583E-03     30.7023E-03    -15.3522E-03     23.7445E-03
             888     7.09033E-03     87.7864E-03    -7.26346E+06    -43.3099E+06     17.8999E+03    -8.09443E+06    -15.5323E-03     30.9527E-03    -15.4204E-03     27.8014E-03    -15.5078E-03     30.7486E-03    -15.3469E-03     27.6915E-03
             889     7.97665E-03     87.8138E-03    -6.17359E+06    -45.1176E+06     865.811E+03    -8.44823E+06    -15.5964E-03     31.0176E-03    -15.4212E-03     31.8907E-03    -15.5661E-03     30.8027E-03    -15.3425E-03     31.7747E-03
             890     8.86300E-03     87.8449E-03    -5.18956E+06    -44.5002E+06     1.15845E+06    -8.64442E+06    -15.6790E-03     31.0959E-03    -15.4169E-03     36.0734E-03    -15.6467E-03     30.8838E-03    -15.3390E-03     35.9527E-03
             891     9.74931E-03     87.8799E-03    -4.45006E+06    -47.4218E+06     1.04277E+06    -9.25829E+06    -15.8090E-03     31.2279E-03    -15.4188E-03     40.2840E-03    -15.7710E-03     31.0027E-03    -15.3384E-03     40.1523E-03
             892     10.6355E-03     87.9189E-03    -3.96142E+06    -48.0360E+06    -2.61503E+06    -9.53487E+06    -15.9425E-03     31.3461E-03    -15.4036E-03     44.4517E-03    -15.8998E-03     31.1263E-03    -15.3412E-03     44.3125E-03
             893     11.5218E-03     87.9616E-03    -3.42780E+06    -39.0131E+06    -1.84105E+06    -9.37900E+06    -16.0993E-03     31.4993E-03    -15.3999E-03     48.9649E-03    -16.0744E-03     31.3290E-03    -15.3476E-03     48.8225E-03
             894     12.4079E-03     88.0089E-03    -2.72917E+06    -37.6813E+06    -2.23879E+06    -9.04423E+06    -16.4059E-03     31.8133E-03    -15.4074E-03     55.7340E-03    -16.3911E-03     31.6615E-03    -15.3600E-03     55.5887E-03
             895     13.2943E-03     88.0640E-03    -2.50772E+06    -41.1604E+06    -12.1370E+06    -8.19131E+06    -16.6030E-03     31.9838E-03    -15.3808E-03     59.4618E-03    -16.5855E-03     31.8465E-03    -15.3782E-03     59.3196E-03
             896     14.1795E-03     88.1186E-03    -2.87055E+06    -21.5308E+06    -12.0697E+06    -6.95164E+06    -16.6464E-03     32.0178E-03    -15.3713E-03     63.1607E-03    -16.6880E-03     32.0077E-03    -15.3963E-03     63.0309E-03
             897     15.0661E-03     88.1800E-03    -2.97206E+06     14.4735E+06    -12.1650E+06    -5.92300E+06    -17.4563E-03     32.7888E-03    -15.3325E-03     87.7424E-03    -17.6907E-03     33.0993E-03    -15.4100E-03     87.6427E-03
             898     15.9518E-03     88.2806E-03    -3.70491E+06     65.6321E+06    -22.3141E+06    -3.65557E+06    -19.3855E-03     34.6068E-03    -15.2213E-03     134.438E-03    -20.5647E-03     36.0706E-03    -15.4227E-03     134.734E-03
             899     16.8387E-03     88.4314E-03    -3.16213E+06     142.905E+06     28.6637E+06    -349.992E+03    -20.1224E-03     35.4975E-03    -15.3751E-03     162.330E-03    -22.5941E-03     38.3822E-03    -15.4344E-03     164.093E-03
             900     886.262E-06     88.6678E-03    -15.3838E+06    -35.9535E+06    -14.9202E+06    -1.68652E+06    -15.3655E-03     30.7179E-03    -15.3524E-03     3.51835E-03    -15.3687E-03     30.5822E-03    -15.3526E-03     3.49607E-03
             901     1.77257E-03     88.6724E-03    -14.5558E+06    -35.7550E+06    -12.7982E+06    -3.05896E+06    -15.3588E-03     30.7247E-03    -15.3660E-03     6.49600E-03    -15.3612E-03     30.5857E-03    -15.3570E-03     6.45557E-03
             902     2.65885E-03     88.6797E-03    -13.3254E+06    -35.8527E+06    -9.80862E+06    -4.43783E+06    -15.3571E-03     30.7314E-03    -15.3743E-03     9.70132E-03    -15.3577E-03     30.5859E-03    -15.3521E-03     9.64260E-03
             903     3.54518E-03     88.6902E-03    -11.8339E+06    -36.3163E+06    -6.65986E+06    -5.58305E+06    -15.3622E-03     30.7439E-03    -15.3817E-03     13.0257E-03    -15.3594E-03     30.5895E-03    -15.3452E-03     12.9517E-03
             904     4.43149E-03     88.7036E-03    -10.2884E+06    -37.6249E+06    -3.89025E+06    -6.47223E+06    -15.3762E-03     30.7637E-03    -15.3875E-03     16.4817E-03    -15.3680E-03     30.5967E-03    -15.3375E-03     16.3956E-03
             905     5.31784E-03     88.7203E-03    -8.77927E+06    -39.3533E+06    -1.86887E+06    -7.17625E+06    -15.4014E-03     30.7914E-03    -15.3900E-03     20.0988E-03    -15.3864E-03     30.6110E-03    -15.3296E-03     20.0029E-03
             906     6.20419E-03     88.7404E-03    -7.43747E+06    -40.1885E+06    -624.127E+03    -7.76502E+06    -15.4377E-03     30.8255E-03    -15.3879E-03     23.9009E-03    -15.4170E-03     30.6376E-03    -15.3219E-03     23.7965E-03
             907     7.09056E-03     88.7641E-03    -6.31249E+06    -41.6543E+06     672.302E+03    -8.20051E+06    -15.4847E-03     30.8724E-03    -15.3877E-03     27.8683E-03    -15.4588E-03     30.6743E-03    -15.3148E-03     27.7571E-03
             908     7.97692E-03     88.7914E-03    -5.36365E+06    -43.8798E+06     1.52671E+06    -8.70227E+06    -15.5515E-03     30.9390E-03    -15.3875E-03     31.9695E-03    -15.5199E-03     30.7281E-03    -15.3084E-03     31.8503E-03
             909     8.86330E-03     88.8226E-03    -4.26921E+06    -43.3319E+06     1.76647E+06    -9.07793E+06    -15.6418E-03     31.0236E-03    -15.3818E-03     36.1914E-03    -15.6074E-03     30.8151E-03    -15.3039E-03     36.0652E-03
             910     9.74963E-03     88.8577E-03    -3.42140E+06    -45.9706E+06     2.00958E+06    -9.26371E+06    -15.7654E-03     31.1495E-03    -15.3841E-03     40.4311E-03    -15.7257E-03     30.9287E-03    -15.3024E-03     40.2995E-03
             911     10.6360E-03     88.8966E-03    -3.17774E+06    -47.3056E+06    -1.67897E+06    -9.54042E+06    -15.9172E-03     31.2870E-03    -15.3698E-03     44.6178E-03    -15.8729E-03     31.0683E-03    -15.3050E-03     44.4786E-03
             912     11.5222E-03     88.9394E-03    -3.04620E+06    -38.3972E+06    -1.26322E+06    -9.83516E+06    -16.0780E-03     31.4436E-03    -15.3656E-03     49.2309E-03    -16.0529E-03     31.2750E-03    -15.3119E-03     49.0828E-03
             913     12.4085E-03     88.9869E-03    -2.84042E+06    -37.6716E+06    -1.67285E+06    -9.50331E+06    -16.3904E-03     31.7658E-03    -15.3754E-03     56.0588E-03    -16.3769E-03     31.6133E-03    -15.3250E-03     55.9077E-03
             914     13.2939E-03     89.0423E-03    -2.67349E+06    -41.9605E+06    -11.7810E+06    -8.52567E+06    -16.5633E-03     31.9123E-03    -15.3490E-03     59.6468E-03    -16.5459E-03     31.7707E-03    -15.3432E-03     59.5005E-03
             915     14.1810E-03     89.0962E-03    -2.74720E+06    -22.4949E+06    -11.7287E+06    -7.37525E+06    -16.5995E-03     31.9379E-03    -15.3384E-03     63.3360E-03    -16.6392E-03     31.9220E-03    -15.3604E-03     63.2010E-03
             916     15.0665E-03     89.1588E-03    -3.18855E+06     13.5039E+06    -11.3705E+06    -6.05809E+06    -17.4895E-03     32.7928E-03    -15.3033E-03     88.1003E-03    -17.7239E-03     33.0968E-03    -15.3751E-03     87.9983E-03
             917     15.9523E-03     89.2588E-03    -4.14322E+06     62.4065E+06    -21.5952E+06    -3.46043E+06    -20.2946E-03     35.5131E-03    -15.2186E-03     136.360E-03    -21.5022E-03     36.9903E-03    -15.4111E-03     136.640E-03
             918     16.8357E-03     89.4115E-03    -3.35320E+06     139.991E+06     27.4080E+06    -749.405E+03    -20.2795E-03     35.6665E-03    -15.3870E-03     162.256E-03    -22.7388E-03     38.5314E-03    -15.4481E-03     164.010E-03
             919     886.322E-06     89.6456E-03    -14.1061E+06    -32.6194E+06    -13.6438E+06    -1.79029E+06    -15.3429E-03     30.6566E-03    -15.3138E-03     3.52406E-03    -15.3463E-03     30.5338E-03    -15.3142E-03     3.50045E-03
             920     1.77260E-03     89.6501E-03    -13.2643E+06    -32.5175E+06    -11.5349E+06    -3.25331E+06    -15.3221E-03     30.6562E-03    -15.3341E-03     6.50678E-03    -15.3247E-03     30.5297E-03    -15.3254E-03     6.46385E-03
             921     2.65896E-03     89.6575E-03    -12.0658E+06    -32.8132E+06    -8.60408E+06    -4.65476E+06    -15.3191E-03     30.6596E-03    -15.3405E-03     9.71990E-03    -15.3195E-03     30.5257E-03    -15.3184E-03     9.65840E-03
             922     3.54528E-03     89.6678E-03    -10.6713E+06    -33.7730E+06    -5.52059E+06    -5.80338E+06    -15.3218E-03     30.6687E-03    -15.3469E-03     13.0500E-03    -15.3185E-03     30.5237E-03    -15.3100E-03     12.9731E-03
             923     4.43166E-03     89.6813E-03    -9.17098E+06    -35.3505E+06    -2.93726E+06    -6.74086E+06    -15.3310E-03     30.6816E-03    -15.3505E-03     16.5169E-03    -15.3219E-03     30.5229E-03    -15.3007E-03     16.4274E-03
             924     5.31803E-03     89.6979E-03    -7.70463E+06    -37.4205E+06    -1.10700E+06    -7.50601E+06    -15.3529E-03     30.7036E-03    -15.3507E-03     20.1500E-03    -15.3364E-03     30.5301E-03    -15.2908E-03     20.0499E-03
             925     6.20444E-03     89.7180E-03    -6.42120E+06    -38.5814E+06     88.9476E+03    -7.98763E+06    -15.3835E-03     30.7303E-03    -15.3468E-03     23.9686E-03    -15.3611E-03     30.5478E-03    -15.2811E-03     23.8615E-03
             926     7.09085E-03     89.7416E-03    -5.37780E+06    -40.2711E+06     1.33253E+06    -8.32582E+06    -15.4278E-03     30.7724E-03    -15.3446E-03     27.9482E-03    -15.4001E-03     30.5788E-03    -15.2717E-03     27.8356E-03
             927     7.97729E-03     89.7690E-03    -4.52616E+06    -42.3024E+06     2.43714E+06    -8.71792E+06    -15.5007E-03     30.8447E-03    -15.3440E-03     32.0835E-03    -15.4684E-03     30.6391E-03    -15.2639E-03     31.9642E-03
             928     8.86367E-03     89.8002E-03    -3.96141E+06    -42.0672E+06     2.54481E+06    -9.28566E+06    -15.5895E-03     30.9275E-03    -15.3380E-03     36.3382E-03    -15.5565E-03     30.7236E-03    -15.2585E-03     36.2095E-03
             929     9.75011E-03     89.8353E-03    -3.21262E+06    -45.0865E+06     2.71704E+06    -9.52766E+06    -15.7106E-03     31.0503E-03    -15.3397E-03     40.5991E-03    -15.6721E-03     30.8325E-03    -15.2561E-03     40.4643E-03
             930     10.6364E-03     89.8743E-03    -2.34500E+06    -46.0305E+06    -482.885E+03    -9.70979E+06    -15.8983E-03     31.2251E-03    -15.3268E-03     44.8283E-03    -15.8534E-03     31.0099E-03    -15.2590E-03     44.6870E-03
             931     11.5227E-03     89.9172E-03    -2.36022E+06    -37.7047E+06    -95.3976E+03    -9.64365E+06    -16.0839E-03     31.4100E-03    -15.3261E-03     49.4441E-03    -16.0580E-03     31.2421E-03    -15.2685E-03     49.2985E-03
             932     12.4088E-03     89.9648E-03    -2.55025E+06    -37.6852E+06    -603.998E+03    -9.31192E+06    -16.2943E-03     31.6309E-03    -15.3366E-03     56.2398E-03    -16.2807E-03     31.4762E-03    -15.2812E-03     56.0915E-03
             933     13.2955E-03     90.0204E-03    -2.80201E+06    -42.5534E+06    -11.4557E+06    -8.81637E+06    -16.6107E-03     31.9194E-03    -15.3087E-03     59.8623E-03    -16.5935E-03     31.7744E-03    -15.3002E-03     59.7122E-03
             934     14.1805E-03     90.0743E-03    -3.11634E+06    -23.2483E+06    -11.2762E+06    -7.96201E+06    -16.7024E-03     32.0090E-03    -15.3066E-03     63.2196E-03    -16.7435E-03     31.9892E-03    -15.3248E-03     63.0767E-03
             935     15.0672E-03     90.1369E-03    -2.61094E+06     11.9733E+06    -10.3866E+06    -6.25645E+06    -17.6104E-03     32.8934E-03    -15.2830E-03     87.8279E-03    -17.8412E-03     33.1875E-03    -15.3485E-03     87.7215E-03
             936     15.9539E-03     90.2368E-03    -3.38666E+06     59.1405E+06    -21.2360E+06    -3.37807E+06    -19.8555E-03     35.0439E-03    -15.1885E-03     137.396E-03    -21.0679E-03     36.5159E-03    -15.3755E-03     137.697E-03
             937     16.8387E-03     90.3952E-03    -3.52433E+06     137.622E+06     26.7348E+06    -1.12887E+06    -20.1739E-03     35.5109E-03    -15.3370E-03     161.982E-03    -22.6122E-03     38.3478E-03    -15.3978E-03     163.719E-03
             938     886.323E-06     90.6232E-03    -12.9188E+06    -29.0539E+06    -12.4314E+06    -1.89308E+06    -15.2754E-03     30.5650E-03    -15.2896E-03     3.52276E-03    -15.2798E-03     30.4565E-03    -15.2909E-03     3.49783E-03
             939     1.77271E-03     90.6277E-03    -12.1255E+06    -29.1047E+06    -10.3182E+06    -3.42739E+06    -15.2729E-03     30.5610E-03    -15.2880E-03     6.52327E-03    -15.2765E-03     30.4481E-03    -15.2798E-03     6.47812E-03
             940     2.65905E-03     90.6350E-03    -10.9619E+06    -29.7753E+06    -7.41681E+06    -4.80777E+06    -15.2691E-03     30.5628E-03    -15.2937E-03     9.74389E-03    -15.2702E-03     30.4408E-03    -15.2717E-03     9.68045E-03
             941     3.54546E-03     90.6454E-03    -9.58436E+06    -31.0997E+06    -4.41348E+06    -5.96990E+06    -15.2662E-03     30.5651E-03    -15.2989E-03     13.0812E-03    -15.2630E-03     30.4302E-03    -15.2619E-03     13.0023E-03
             942     4.43186E-03     90.6588E-03    -8.14282E+06    -32.9414E+06    -1.96325E+06    -6.98992E+06    -15.2720E-03     30.5724E-03    -15.3004E-03     16.5609E-03    -15.2627E-03     30.4229E-03    -15.2507E-03     16.4682E-03
             943     5.31832E-03     90.6755E-03    -6.80689E+06    -35.4648E+06    -282.293E+03    -7.73247E+06    -15.2881E-03     30.5867E-03    -15.2986E-03     20.2095E-03    -15.2711E-03     30.4205E-03    -15.2387E-03     20.1065E-03
             944     6.20476E-03     90.6955E-03    -5.69497E+06    -37.1073E+06     731.681E+03    -8.13778E+06    -15.3124E-03     30.6047E-03    -15.2923E-03     24.0462E-03    -15.2894E-03     30.4276E-03    -15.2266E-03     23.9372E-03
             945     7.09127E-03     90.7191E-03    -4.72558E+06    -38.9068E+06     1.92976E+06    -8.40256E+06    -15.3591E-03     30.6471E-03    -15.2880E-03     28.0555E-03    -15.3310E-03     30.4585E-03    -15.2150E-03     27.9420E-03
             946     7.97771E-03     90.7464E-03    -3.97088E+06    -41.0155E+06     3.10906E+06    -8.60209E+06    -15.4303E-03     30.7166E-03    -15.2863E-03     32.2288E-03    -15.3980E-03     30.5156E-03    -15.2055E-03     32.1112E-03
             947     8.86424E-03     90.7777E-03    -3.56904E+06    -40.5849E+06     3.44160E+06    -8.85600E+06    -15.5218E-03     30.8019E-03    -15.2801E-03     36.5121E-03    -15.4902E-03     30.6035E-03    -15.1988E-03     36.3890E-03
             948     9.75064E-03     90.8128E-03    -3.39080E+06    -43.7870E+06     3.27008E+06    -9.58808E+06    -15.6581E-03     30.9391E-03    -15.2810E-03     40.8202E-03    -15.6232E-03     30.7272E-03    -15.1963E-03     40.6848E-03
             949     10.6371E-03     90.8519E-03    -3.18402E+06    -45.1821E+06    -395.034E+03    -10.0033E+06    -15.8761E-03     31.1452E-03    -15.2690E-03     45.1735E-03    -15.8367E-03     30.9352E-03    -15.2009E-03     45.0287E-03
             950     11.5233E-03     90.8950E-03    -2.56635E+06    -37.3324E+06     282.826E+03    -9.61526E+06    -16.0491E-03     31.3207E-03    -15.2716E-03     49.7674E-03    -16.0253E-03     31.1544E-03    -15.2123E-03     49.6223E-03
             951     12.4096E-03     90.9426E-03     -2.0991E+06    -37.5172E+06    -153.608E+03    -9.22389E+06    -16.3230E-03     31.6080E-03    -15.2850E-03     56.4846E-03    -16.3081E-03     31.4529E-03    -15.2283E-03     56.3375E-03
             952     13.2954E-03     90.9979E-03    -2.30026E+06    -42.9532E+06    -11.1519E+06    -8.70565E+06    -16.6246E-03     31.8859E-03    -15.2613E-03     60.2951E-03    -16.6048E-03     31.7378E-03    -15.2514E-03     60.1466E-03
             953     14.1817E-03     91.0535E-03    -3.21180E+06    -23.8607E+06    -11.1610E+06    -7.70337E+06    -16.9213E-03     32.1901E-03    -15.2687E-03     63.5355E-03    -16.9626E-03     32.1676E-03    -15.2853E-03     63.3952E-03
             954     15.0673E-03     91.1136E-03    -4.06032E+06     10.2142E+06    -10.9394E+06    -6.66289E+06    -18.2807E-03     33.5532E-03    -15.2725E-03     88.4017E-03    -18.5212E-03     33.8473E-03    -15.3361E-03     88.2863E-03
             955     15.9511E-03     91.2177E-03    -3.38500E+06     54.9085E+06    -21.2720E+06    -4.55711E+06    -19.2126E-03     34.4002E-03    -15.1876E-03     135.602E-03    -20.3902E-03     35.8224E-03    -15.3687E-03     135.916E-03
             956     16.8413E-03     91.3676E-03    -2.31229E+06     135.456E+06     27.8504E+06    -1.28617E+06    -19.7330E-03     35.0465E-03    -15.3135E-03     161.618E-03    -22.1710E-03     37.8764E-03    -15.3673E-03     163.372E-03
             957     886.409E-06     91.6008E-03    -11.8351E+06    -25.3686E+06    -11.3772E+06    -1.95309E+06    -15.2021E-03     30.4382E-03    -15.2360E-03     3.53053E-03    -15.2080E-03     30.3450E-03    -15.2390E-03     3.50484E-03
             958     1.77280E-03     91.6052E-03    -11.1517E+06    -25.6160E+06    -9.25376E+06    -3.44932E+06    -15.2074E-03     30.4320E-03    -15.2246E-03     6.54175E-03    -15.2127E-03     30.3336E-03    -15.2176E-03     6.49634E-03
             959     2.65924E-03     91.6126E-03    -10.0920E+06    -26.6954E+06    -6.36291E+06    -4.85648E+06    -15.1996E-03     30.4295E-03    -15.2298E-03     9.76765E-03    -15.2023E-03     30.3200E-03    -15.2083E-03     9.70362E-03
             960     3.54568E-03     91.6229E-03    -8.78233E+06    -28.3195E+06    -3.48379E+06    -6.07786E+06    -15.1933E-03     30.4266E-03    -15.2333E-03     13.1194E-03    -15.1914E-03     30.3031E-03    -15.1969E-03     13.0391E-03
             961     4.43217E-03     91.6363E-03    -7.46917E+06    -30.5058E+06    -1.08382E+06    -7.06853E+06    -15.1938E-03     30.4271E-03    -15.2334E-03     16.6149E-03    -15.1858E-03     30.2875E-03    -15.1837E-03     16.5213E-03
             962     5.31866E-03     91.6528E-03    -6.28761E+06    -33.5132E+06     527.480E+03    -7.79496E+06    -15.2041E-03     30.4341E-03    -15.2300E-03     20.2786E-03    -15.1886E-03     30.2757E-03    -15.1696E-03     20.1750E-03
             963     6.20522E-03     91.6729E-03    -5.26060E+06    -35.6996E+06     1.38138E+06    -8.15144E+06    -15.2258E-03     30.4473E-03    -15.2215E-03     24.1377E-03    -15.2036E-03     30.2756E-03    -15.1552E-03     24.0287E-03
             964     7.09175E-03     91.6964E-03    -4.43023E+06    -37.5574E+06     2.34413E+06    -8.38530E+06    -15.2669E-03     30.4808E-03    -15.2139E-03     28.1892E-03    -15.2398E-03     30.2979E-03    -15.1413E-03     28.0760E-03
             965     7.97835E-03     91.7238E-03    -3.69222E+06    -40.0809E+06     3.45412E+06    -8.44674E+06    -15.3373E-03     30.5475E-03    -15.2103E-03     32.4025E-03    -15.3054E-03     30.3503E-03    -15.1295E-03     32.2871E-03
             966     8.86487E-03     91.7550E-03    -3.09476E+06    -39.4172E+06     3.95432E+06    -8.45287E+06    -15.4320E-03     30.6343E-03    -15.2024E-03     36.7439E-03    -15.4003E-03     30.4403E-03    -15.1210E-03     36.6264E-03
             967     9.75145E-03     91.7903E-03    -2.74062E+06    -41.7941E+06     4.23181E+06    -9.06726E+06    -15.6009E-03     30.8049E-03    -15.2040E-03     41.1261E-03    -15.5669E-03     30.6005E-03    -15.1182E-03     40.9976E-03
             968     10.6378E-03     91.8293E-03    -2.82666E+06    -44.2115E+06     694.472E+03    -9.71810E+06    -15.7967E-03     30.9915E-03    -15.1948E-03     45.5763E-03    -15.7583E-03     30.7842E-03    -15.1232E-03     45.4354E-03
             969     11.5242E-03     91.8729E-03    -2.70129E+06    -37.2078E+06     485.373E+03    -9.99829E+06    -15.9979E-03     31.1931E-03    -15.1951E-03     50.2088E-03    -15.9751E-03     31.0272E-03    -15.1348E-03     50.0591E-03
             970     12.4105E-03     91.9200E-03    -2.00762E+06    -37.2583E+06     379.112E+03    -9.63459E+06    -16.4136E-03     31.6291E-03    -15.2154E-03     57.0867E-03    -16.3996E-03     31.4746E-03    -15.1566E-03     56.9342E-03
             971     13.2965E-03     91.9767E-03    -2.10151E+06    -43.5861E+06    -10.5475E+06    -8.44863E+06    -16.6659E-03     31.8675E-03    -15.2016E-03     60.6494E-03    -16.6449E-03     31.7149E-03    -15.1880E-03     60.5044E-03
             972     14.1826E-03     92.0302E-03    -2.63001E+06    -24.5123E+06    -10.4624E+06    -7.39327E+06    -17.0881E-03     32.3059E-03    -15.2178E-03     64.5058E-03    -17.1277E-03     32.2794E-03    -15.2308E-03     64.3690E-03
             973     15.0672E-03     92.0950E-03    -3.08342E+06     9.70137E+06    -9.29896E+06    -6.80126E+06    -18.1284E-03     33.3549E-03    -15.2264E-03     89.9476E-03    -18.3674E-03     33.6443E-03    -15.2825E-03     89.8342E-03
             974     15.9534E-03     92.1952E-03    -3.85362E+06      51.069E+06    -20.6970E+06    -4.91120E+06    -20.1501E-03     35.3142E-03    -15.1641E-03     136.254E-03    -21.3313E-03     36.7231E-03    -15.3360E-03     136.529E-03
             975     16.8375E-03     92.3438E-03    -3.09678E+06     132.126E+06     27.6054E+06    -1.74511E+06    -20.3626E-03     35.6888E-03    -15.3262E-03     162.437E-03    -22.8213E-03     38.5256E-03    -15.3753E-03     164.182E-03
             976     886.457E-06     92.5782E-03    -11.1907E+06    -21.7187E+06    -10.6176E+06    -1.88795E+06    -15.1274E-03     30.2676E-03    -15.1402E-03     3.53568E-03    -15.1365E-03     30.1907E-03    -15.1455E-03     3.51086E-03
             977     1.77295E-03     92.5827E-03    -10.5667E+06    -22.2282E+06    -8.50462E+06    -3.30504E+06    -15.1200E-03     30.2598E-03    -15.1397E-03     6.56105E-03    -15.1284E-03     30.1764E-03    -15.1347E-03     6.51754E-03
             978     2.65945E-03     92.5899E-03    -9.56881E+06    -23.5316E+06    -5.55931E+06    -4.73601E+06    -15.1070E-03     30.2514E-03    -15.1444E-03     9.79769E-03    -15.1128E-03     30.1558E-03    -15.1242E-03     9.73527E-03
             979     3.54599E-03     92.6002E-03    -8.38253E+06    -25.5331E+06    -2.59227E+06    -5.98036E+06    -15.0968E-03     30.2439E-03    -15.1471E-03     13.1651E-03    -15.0982E-03     30.1324E-03    -15.1109E-03     13.0862E-03
             980     4.43254E-03     92.6135E-03    -7.17258E+06    -28.1468E+06    -239.589E+03    -6.93593E+06    -15.0917E-03     30.2374E-03    -15.1457E-03     16.6779E-03    -15.0870E-03     30.1080E-03    -15.0957E-03     16.5861E-03
             981     5.31915E-03     92.6301E-03    -6.06642E+06    -31.5366E+06     1.25895E+06    -7.65859E+06    -15.0986E-03     30.2387E-03    -15.1401E-03     20.3642E-03    -15.0858E-03     30.0888E-03    -15.0793E-03     20.2624E-03
             982     6.20576E-03     92.6500E-03    -5.18371E+06    -34.4058E+06     1.85127E+06    -8.00789E+06    -15.1162E-03     30.2454E-03    -15.1292E-03     24.2545E-03    -15.0961E-03     30.0794E-03    -15.0626E-03     24.1475E-03
             983     7.09244E-03     92.6737E-03    -4.49947E+06    -36.1895E+06     2.53146E+06    -8.17576E+06    -15.1492E-03     30.2671E-03    -15.1178E-03     28.3495E-03    -15.1247E-03     30.0907E-03    -15.0462E-03     28.2392E-03
             984     7.97909E-03     92.7009E-03    -3.84699E+06    -39.2620E+06     3.54631E+06    -8.34056E+06    -15.2134E-03     30.3252E-03    -15.1117E-03     32.6149E-03    -15.1836E-03     30.1320E-03    -15.0315E-03     32.5011E-03
             985     8.86580E-03     92.7322E-03    -3.13411E+06    -38.5137E+06     4.18922E+06    -8.31807E+06    -15.3212E-03     30.4233E-03    -15.1020E-03     37.0330E-03    -15.2913E-03     30.2334E-03    -15.0207E-03     36.9174E-03
             986     9.75240E-03     92.7674E-03    -2.59112E+06    -40.0063E+06     4.99102E+06    -8.67700E+06    -15.4987E-03     30.6025E-03    -15.1037E-03     41.5251E-03    -15.4676E-03     30.4056E-03    -15.0170E-03     41.4019E-03
             987     10.6389E-03     92.8069E-03    -2.18079E+06    -42.8617E+06     2.16204E+06    -9.40948E+06    -15.7059E-03     30.8038E-03    -15.0979E-03     45.9315E-03    -15.6683E-03     30.6000E-03    -15.0218E-03     45.7950E-03
             988     11.5256E-03     92.8499E-03    -1.93872E+06    -35.7763E+06     2.23759E+06    -10.0631E+06    -15.9728E-03     31.0747E-03    -15.1018E-03     50.7160E-03    -15.9508E-03     30.9122E-03    -15.0360E-03     50.5657E-03
             989     12.4115E-03     92.8985E-03    -1.72404E+06    -37.7629E+06     1.50109E+06    -9.90209E+06    -16.3893E-03     31.5161E-03    -15.1268E-03     57.6520E-03    -16.3747E-03     31.3570E-03    -15.0620E-03     57.4964E-03
             990     13.2977E-03     92.9540E-03    -1.58721E+06    -45.0597E+06    -9.76427E+06    -8.49843E+06    -16.8637E-03     31.9866E-03    -15.1229E-03     61.1883E-03    -16.8396E-03     31.8253E-03    -15.1041E-03     61.0421E-03
             991     14.1830E-03     93.0092E-03    -2.26277E+06    -24.4727E+06    -9.29324E+06    -7.44394E+06    -17.0050E-03     32.1518E-03    -15.1468E-03     65.2960E-03    -17.0451E-03     32.1240E-03    -15.1545E-03     65.1592E-03
             992     15.0696E-03     93.0732E-03    -2.57025E+06     9.10149E+06    -7.41616E+06    -6.92891E+06    -17.7734E-03     32.9248E-03    -15.1514E-03     89.6930E-03    -18.0073E-03     33.2034E-03    -15.1979E-03     89.5792E-03
             993     15.9566E-03     93.1725E-03    -3.54054E+06     48.0648E+06    -19.0303E+06    -4.63204E+06    -20.6602E-03     35.7578E-03    -15.0976E-03     137.561E-03    -21.8633E-03     37.1742E-03    -15.2573E-03     137.822E-03
             994     16.8384E-03     93.3303E-03    -3.67567E+06     129.090E+06     27.2833E+06    -1.74653E+06    -20.9590E-03     36.2401E-03    -15.2811E-03     162.430E-03    -23.4050E-03     39.0522E-03    -15.3265E-03     164.142E-03
             995     886.571E-06     93.5555E-03    -11.3691E+06    -18.4199E+06    -10.5564E+06    -1.54766E+06    -15.0081E-03     30.0358E-03    -15.0277E-03     3.55137E-03    -15.0230E-03     29.9755E-03    -15.0372E-03     3.53096E-03
             996     1.77314E-03     93.5599E-03    -10.7921E+06    -19.0155E+06    -8.29277E+06    -2.94980E+06    -15.0047E-03     30.0305E-03    -15.0258E-03     6.58730E-03    -15.0191E-03     29.9632E-03    -15.0241E-03     6.54841E-03
             997     2.65974E-03     93.5672E-03    -9.84184E+06    -20.4304E+06    -5.14604E+06    -4.37499E+06    -14.9868E-03     30.0183E-03    -15.0315E-03     9.83972E-03    -14.9991E-03     29.9381E-03    -15.0133E-03     9.78202E-03
             998     3.54637E-03     93.5773E-03    -8.67176E+06    -22.8177E+06    -1.98871E+06    -5.61959E+06    -14.9714E-03     30.0058E-03    -15.0344E-03     13.2229E-03    -14.9791E-03     29.9075E-03    -14.9987E-03     13.1487E-03
             999     4.43305E-03     93.5907E-03    -7.53661E+06    -25.8658E+06     304.109E+03    -6.55658E+06    -14.9616E-03     29.9930E-03    -15.0314E-03     16.7561E-03    -14.9627E-03     29.8747E-03    -14.9815E-03     16.6693E-03
            1000     5.31975E-03     93.6071E-03    -6.56391E+06    -29.5499E+06     1.54960E+06    -7.30005E+06    -14.9612E-03     29.9840E-03    -15.0228E-03     20.4724E-03    -14.9541E-03     29.8442E-03    -14.9627E-03     20.3754E-03
            1001     6.20651E-03     93.6271E-03    -5.72891E+06    -33.1492E+06     1.99169E+06    -7.70077E+06    -14.9748E-03     29.9844E-03    -15.0096E-03     24.4000E-03    -14.9594E-03     29.8252E-03    -14.9433E-03     24.2971E-03
            1002     7.09327E-03     93.6505E-03    -5.08424E+06    -35.0082E+06     2.44390E+06    -7.81770E+06    -15.0010E-03     29.9953E-03    -14.9944E-03     28.5444E-03    -14.9809E-03     29.8258E-03    -14.9240E-03     28.4390E-03
            1003     7.98011E-03     93.6779E-03    -4.55169E+06    -38.0637E+06     3.54411E+06    -8.09925E+06    -15.0680E-03     30.0543E-03    -14.9862E-03     32.8672E-03    -15.0434E-03     29.8680E-03    -14.9067E-03     32.7568E-03
            1004     8.86689E-03     93.7091E-03    -3.93498E+06    -37.8553E+06     4.19289E+06    -8.25775E+06    -15.1794E-03     30.1549E-03    -14.9756E-03     37.3794E-03    -15.1543E-03     29.9693E-03    -14.8940E-03     37.2650E-03
            1005     9.75362E-03     93.7446E-03    -3.42156E+06    -38.7062E+06     5.16735E+06    -8.34459E+06    -15.3489E-03     30.3242E-03    -14.9753E-03     41.9535E-03    -15.3238E-03     30.1346E-03    -14.8884E-03     41.8351E-03
            1006     10.6404E-03     93.7838E-03    -3.18983E+06    -40.8811E+06     3.09826E+06    -9.17481E+06    -15.6483E-03     30.6225E-03    -14.9742E-03     46.4521E-03    -15.6199E-03     30.4287E-03    -14.8948E-03     46.3188E-03
            1007     11.5265E-03     93.8276E-03    -2.87817E+06    -34.4035E+06     3.03563E+06    -9.97021E+06    -15.9337E-03     30.9176E-03    -14.9839E-03     51.2857E-03    -15.9194E-03     30.7622E-03    -14.9147E-03     51.1369E-03
            1008     12.4133E-03     93.8757E-03    -2.51072E+06    -38.0993E+06     1.92987E+06    -9.92706E+06    -16.3403E-03     31.3545E-03    -15.0141E-03     58.2589E-03    -16.3297E-03     31.1940E-03    -14.9456E-03     58.1034E-03
            1009     13.2991E-03     93.9323E-03    -2.74061E+06    -47.0593E+06    -10.5937E+06    -8.87012E+06    -16.9853E-03     32.0008E-03    -15.0155E-03     62.2292E-03    -16.9636E-03     31.8330E-03    -14.9962E-03     62.0781E-03
            1010     14.1846E-03     93.9879E-03    -2.79840E+06    -23.8659E+06    -8.62122E+06    -7.63861E+06    -17.3006E-03     32.3618E-03    -15.0612E-03     65.1924E-03    -17.3452E-03     32.3367E-03    -15.0657E-03     65.0522E-03
            1011     15.0707E-03     94.0500E-03    -2.90397E+06     8.25648E+06    -5.75517E+06    -7.04742E+06    -18.3908E-03     33.4955E-03    -15.1047E-03     89.4138E-03    -18.6304E-03     33.7708E-03    -15.1413E-03     89.2930E-03
            1012     15.9536E-03     94.1538E-03    -3.03721E+06     43.7771E+06    -17.6334E+06    -4.75026E+06    -20.0088E-03     35.0660E-03    -15.0572E-03     137.391E-03    -21.1980E-03     36.4509E-03    -15.2045E-03     137.685E-03
            1013     16.8433E-03     94.3063E-03    -2.48585E+06     127.106E+06     28.7681E+06    -1.45580E+06    -20.7756E-03     35.9944E-03    -15.2188E-03     161.813E-03    -23.2050E-03     38.7828E-03    -15.2556E-03     163.523E-03
            1014     886.693E-06     94.5325E-03    -12.3920E+06    -15.7328E+06    -11.6340E+06    -1.25689E+06    -14.8519E-03     29.7371E-03    -14.8851E-03     3.57433E-03    -14.8742E-03     29.6933E-03    -14.9025E-03     3.55770E-03
            1015     1.77339E-03     94.5369E-03    -11.6744E+06    -16.1883E+06    -8.65396E+06    -2.38039E+06    -14.8522E-03     29.7311E-03    -14.8789E-03     6.61379E-03    -14.8746E-03     29.6797E-03    -14.8818E-03     6.58230E-03
            1016     2.66012E-03     94.5441E-03    -10.7409E+06    -17.5933E+06    -5.06607E+06    -3.62996E+06    -14.8328E-03     29.7186E-03    -14.8858E-03     9.88548E-03    -14.8538E-03     29.6537E-03    -14.8701E-03     9.83747E-03
            1017     3.54688E-03     94.5543E-03    -9.75398E+06    -20.2159E+06    -1.84410E+06    -4.85798E+06    -14.8122E-03     29.7007E-03    -14.8885E-03     13.2907E-03    -14.8293E-03     29.6167E-03    -14.8543E-03     13.2264E-03
            1018     4.43368E-03     94.5675E-03    -8.73582E+06    -23.7218E+06     423.940E+03    -5.84348E+06    -14.7954E-03     29.6798E-03    -14.8844E-03     16.8504E-03    -14.8058E-03     29.5737E-03    -14.8352E-03     16.7729E-03
            1019     5.32054E-03     94.5840E-03    -7.83812E+06    -27.5611E+06     1.56830E+06    -6.63485E+06    -14.7880E-03     29.6610E-03    -14.8731E-03     20.5999E-03    -14.7902E-03     29.5330E-03    -14.8139E-03     20.5116E-03
            1020     6.20743E-03     94.6038E-03    -7.13006E+06    -31.8260E+06     1.82363E+06    -7.19013E+06    -14.7943E-03     29.6514E-03    -14.8571E-03     24.5697E-03    -14.7875E-03     29.5010E-03    -14.7915E-03     24.4736E-03
            1021     7.09438E-03     94.6273E-03    -6.51304E+06    -33.9919E+06     2.00108E+06    -7.37249E+06    -14.8203E-03     29.6584E-03    -14.8381E-03     28.7702E-03    -14.8081E-03     29.4966E-03    -14.7694E-03     28.6709E-03
            1022     7.98134E-03     94.6545E-03    -6.02584E+06    -36.7273E+06     3.09572E+06    -7.59242E+06    -14.8920E-03     29.7194E-03    -14.8273E-03     33.1795E-03    -14.8759E-03     29.5425E-03    -14.7499E-03     33.0760E-03
            1023     8.86825E-03     94.6859E-03    -5.65504E+06    -37.0232E+06     3.90601E+06    -7.92851E+06    -15.0031E-03     29.8201E-03    -14.8169E-03     37.7692E-03    -14.9873E-03     29.6414E-03    -14.7355E-03     37.6594E-03
            1024     9.75525E-03     94.7212E-03    -4.95333E+06    -37.6651E+06     4.89906E+06    -8.21855E+06    -15.2103E-03     30.0265E-03    -14.8163E-03     42.4435E-03    -15.1938E-03     29.8446E-03    -14.7300E-03     42.3272E-03
            1025     10.6419E-03     94.7610E-03    -4.36031E+06    -38.9602E+06     3.74103E+06    -8.74062E+06    -15.5379E-03     30.3583E-03    -14.8204E-03     47.1084E-03    -15.5188E-03     30.1746E-03    -14.7389E-03     46.9813E-03
            1026     11.5286E-03     94.8048E-03    -4.32479E+06    -32.7599E+06     3.82834E+06    -9.69128E+06    -15.9000E-03     30.7375E-03    -14.8376E-03     51.9359E-03    -15.8963E-03     30.5912E-03    -14.7647E-03     51.7910E-03
            1027     12.4146E-03     94.8532E-03    -3.88291E+06    -38.0954E+06     2.22005E+06    -10.2157E+06    -16.4323E-03     31.3119E-03    -14.8796E-03     58.9131E-03    -16.4291E-03     31.1532E-03    -14.8076E-03     58.7538E-03
            1028     13.3009E-03     94.9102E-03    -3.43237E+06    -47.8752E+06    -10.7251E+06    -9.54505E+06    -17.0745E-03     31.9676E-03    -14.8931E-03     63.0175E-03    -17.0548E-03     31.7969E-03    -14.8723E-03     62.8579E-03
            1029     14.1863E-03     94.9667E-03    -2.95637E+06    -24.6239E+06    -8.54843E+06    -8.18986E+06    -17.6794E-03     32.6389E-03    -14.9595E-03     66.0986E-03    -17.7249E-03     32.6112E-03    -14.9622E-03     65.9500E-03
            1030     15.0698E-03     95.0296E-03    -2.62633E+06     7.86284E+06    -4.19553E+06    -6.88221E+06    -18.7108E-03     33.7437E-03    -15.0329E-03     91.0520E-03    -18.9561E-03     34.0198E-03    -15.0615E-03     90.9336E-03
            1031     15.9572E-03     95.1323E-03    -3.27095E+06     40.5765E+06    -16.6503E+06    -4.56656E+06    -20.7231E-03     35.7411E-03    -15.0180E-03     137.629E-03    -21.9037E-03     37.1025E-03    -15.1553E-03     137.906E-03
            1032     16.8408E-03     95.2828E-03    -2.74479E+06     123.305E+06     28.0785E+06    -1.64654E+06    -21.1690E-03     36.3735E-03    -15.2045E-03     161.561E-03    -23.6011E-03     39.1523E-03    -15.2389E-03     163.271E-03
            1033     886.831E-06     95.5092E-03    -14.2991E+06    -13.6097E+06    -13.4071E+06    -1.04643E+06    -14.6753E-03     29.3698E-03    -14.6945E-03     3.59158E-03    -14.7076E-03     29.3419E-03    -14.7210E-03     3.57769E-03
            1034     1.77370E-03     95.5135E-03    -13.5417E+06    -14.1385E+06    -10.3128E+06    -1.70710E+06    -14.6589E-03     29.3533E-03    -14.6944E-03     6.64369E-03    -14.6912E-03     29.3172E-03    -14.7058E-03     6.62095E-03
            1035     2.66059E-03     95.5208E-03    -12.5515E+06    -15.3013E+06    -6.08628E+06    -2.56810E+06    -14.6352E-03     29.3361E-03    -14.7009E-03     9.93249E-03    -14.6671E-03     29.2868E-03    -14.6909E-03     9.89828E-03
            1036     3.54752E-03     95.5308E-03    -11.5133E+06    -17.9320E+06    -2.14398E+06    -3.60148E+06    -14.6103E-03     29.3149E-03    -14.7047E-03     13.3630E-03    -14.6390E-03     29.2453E-03    -14.6727E-03     13.3150E-03
            1037     4.43449E-03     95.5440E-03    -10.6069E+06    -21.6338E+06     387.294E+03    -4.66304E+06    -14.5880E-03     29.2879E-03    -14.6999E-03     16.9538E-03    -14.6106E-03     29.1950E-03    -14.6513E-03     16.8917E-03
            1038     5.32152E-03     95.5604E-03    -9.88171E+06    -25.7373E+06     1.34579E+06    -5.54152E+06    -14.5725E-03     29.2581E-03    -14.6857E-03     20.7439E-03    -14.5872E-03     29.1425E-03    -14.6273E-03     20.6699E-03
            1039     6.20861E-03     95.5802E-03    -9.42284E+06    -30.3212E+06     1.36959E+06    -6.21028E+06    -14.5749E-03     29.2414E-03    -14.6665E-03     24.7601E-03    -14.5811E-03     29.1025E-03    -14.6020E-03     24.6769E-03
            1040     7.09573E-03     95.6035E-03    -9.05527E+06    -32.9328E+06     1.21843E+06    -6.69335E+06    -14.6005E-03     29.2448E-03    -14.6443E-03     29.0347E-03    -14.6013E-03     29.0931E-03    -14.5774E-03     28.9444E-03
            1041     7.98286E-03     95.6309E-03    -8.54968E+06    -35.5976E+06     2.03857E+06    -7.00006E+06    -14.6695E-03     29.2992E-03    -14.6298E-03     33.5341E-03    -14.6659E-03     29.1330E-03    -14.5555E-03     33.4385E-03
            1042     8.87005E-03     95.6620E-03    -8.06976E+06    -35.8904E+06     3.21210E+06     -7.2732E+06    -14.8167E-03     29.4372E-03    -14.6205E-03     38.2226E-03    -14.8134E-03     29.2685E-03    -14.5407E-03     38.1217E-03
            1043     9.75702E-03     95.6978E-03    -7.70118E+06    -36.2279E+06     4.15468E+06    -8.00243E+06    -15.0592E-03     29.6814E-03    -14.6222E-03     43.0450E-03    -15.0573E-03     29.5115E-03    -14.5377E-03     42.9319E-03
            1044     10.6440E-03     95.7376E-03    -6.76699E+06    -37.7295E+06     3.38537E+06    -8.86245E+06    -15.3898E-03     30.0214E-03    -14.6316E-03     47.8226E-03    -15.3838E-03     29.8476E-03    -14.5502E-03     47.6945E-03
            1045     11.5305E-03     95.7818E-03    -5.65043E+06    -31.0395E+06     4.50699E+06    -9.48757E+06    -15.8653E-03     30.5237E-03    -14.6584E-03     52.8146E-03    -15.8716E-03     30.3867E-03    -14.5826E-03     52.6728E-03
            1046     12.4170E-03     95.8308E-03    -5.35255E+06    -36.8471E+06     2.78095E+06    -10.3687E+06    -16.6024E-03     31.3195E-03    -14.7171E-03     59.9207E-03    -16.6094E-03     31.1687E-03    -14.6420E-03     59.7593E-03
            1047     13.3024E-03     95.8881E-03    -4.92208E+06    -48.7245E+06    -10.8536E+06    -10.0841E+06    -17.2586E-03     32.0102E-03    -14.7516E-03     64.1125E-03    -17.2453E-03     31.8379E-03    -14.7280E-03     63.9458E-03
            1048     14.1878E-03     95.9454E-03    -4.69442E+06    -25.4874E+06    -8.67980E+06    -9.04812E+06    -17.7035E-03     32.5357E-03    -14.8322E-03     67.2370E-03    -17.7568E-03     32.5070E-03    -14.8318E-03     67.0778E-03
            1049     15.0744E-03     96.0089E-03    -3.76686E+06     6.89069E+06    -3.58713E+06    -7.57506E+06    -19.2282E-03     34.1596E-03    -14.9314E-03     90.9645E-03    -19.4790E-03     34.4319E-03    -14.9539E-03     90.8333E-03
            1050     15.9577E-03     96.1109E-03    -3.76379E+06     37.4887E+06    -16.0309E+06    -4.74267E+06    -21.6331E-03     36.5970E-03    -14.9639E-03     137.792E-03    -22.8233E-03     37.9534E-03    -15.0930E-03     138.042E-03
            1051     16.8399E-03     96.2672E-03    -3.34136E+06     119.916E+06     27.4308E+06    -1.94744E+06    -21.4161E-03     36.5928E-03    -15.1767E-03     162.409E-03    -23.8600E-03     39.3711E-03    -15.2086E-03     164.113E-03
            1052     887.037E-06     96.4855E-03    -17.1495E+06    -12.3903E+06    -15.8945E+06    -288.426E+03    -14.4584E-03     28.9129E-03    -14.4545E-03     3.61034E-03    -14.5031E-03     28.8989E-03    -14.4912E-03     3.60628E-03
            1053     1.77407E-03     96.4899E-03    -16.6732E+06    -12.9069E+06    -12.9220E+06    -778.952E+03    -14.4266E-03     28.8932E-03    -14.4666E-03     6.68166E-03    -14.4726E-03     28.8716E-03    -14.4883E-03     6.67096E-03
            1054     2.66117E-03     96.4970E-03    -15.6962E+06    -13.8487E+06    -8.47219E+06    -1.31401E+06    -14.3912E-03     28.8630E-03    -14.4718E-03     9.98895E-03    -14.4374E-03     28.8289E-03    -14.4713E-03     9.97102E-03
            1055     3.54830E-03     96.5071E-03    -14.5500E+06    -16.1671E+06    -3.72145E+06    -2.06651E+06    -14.3580E-03     28.8335E-03    -14.4755E-03     13.4440E-03    -14.4021E-03     28.7794E-03    -14.4496E-03     13.4160E-03
            1056     4.43549E-03     96.5201E-03    -13.5090E+06    -19.8069E+06    -371.481E+03    -2.99053E+06    -14.3303E-03     28.8015E-03    -14.4712E-03     17.0683E-03    -14.3689E-03     28.7229E-03    -14.4248E-03     17.0280E-03
            1057     5.32274E-03     96.5364E-03    -12.8075E+06    -24.0220E+06     862.630E+03    -3.95192E+06    -14.3118E-03     28.7673E-03    -14.4555E-03     20.8990E-03    -14.3428E-03     28.6651E-03    -14.3978E-03     20.8458E-03
            1058     6.21005E-03     96.5561E-03    -12.3155E+06    -28.8195E+06     749.068E+03    -4.79980E+06    -14.3143E-03     28.7478E-03    -14.4335E-03     24.9744E-03    -14.3361E-03     28.6214E-03    -14.3701E-03     24.9097E-03
            1059     7.09737E-03     96.5795E-03    -12.0630E+06    -31.6067E+06     428.972E+03    -5.49731E+06    -14.3381E-03     28.7469E-03    -14.4087E-03     29.3199E-03    -14.3547E-03     28.6071E-03    -14.3433E-03     29.2454E-03
            1060     7.98478E-03     96.6066E-03    -11.7556E+06    -34.3016E+06     867.600E+03    -6.27611E+06    -14.4226E-03     28.8140E-03    -14.3915E-03     33.9190E-03    -14.4351E-03     28.6605E-03    -14.3203E-03     33.8333E-03
            1061     8.87207E-03     96.6381E-03    -11.0863E+06    -34.9728E+06     2.04818E+06    -6.73165E+06    -14.5964E-03     28.9798E-03    -14.3833E-03     38.7592E-03    -14.6077E-03     28.8216E-03    -14.3063E-03     38.6658E-03
            1062     9.75935E-03     96.6738E-03    -10.3814E+06    -34.3366E+06     3.46608E+06    -7.36727E+06    -14.8650E-03     29.2532E-03    -14.3882E-03     43.7214E-03    -14.8780E-03     29.0974E-03    -14.3060E-03     43.6171E-03
            1063     10.6463E-03     96.7140E-03    -9.83563E+06    -35.6996E+06     2.91790E+06    -8.96752E+06    -15.2807E-03     29.6863E-03    -14.4056E-03     48.6402E-03    -15.2921E-03     29.5276E-03    -14.3250E-03     48.5112E-03
            1064     11.5332E-03     96.7585E-03    -8.81663E+06    -29.8264E+06     3.81207E+06    -10.0028E+06    -15.8564E-03     30.3012E-03    -14.4448E-03     53.8201E-03    -15.8792E-03     30.1758E-03    -14.3697E-03     53.6720E-03
            1065     12.4193E-03     96.8084E-03    -7.27611E+06    -35.0897E+06     3.02411E+06    -10.5537E+06    -16.6584E-03     31.1798E-03    -14.5214E-03     61.0026E-03    -16.6781E-03     31.0403E-03    -14.4448E-03     60.8390E-03
            1066     13.3052E-03     96.8663E-03    -6.79653E+06    -49.3954E+06    -11.4643E+06    -10.7554E+06    -17.4489E-03     32.0236E-03    -14.5747E-03     65.1573E-03    -17.4435E-03     31.8520E-03    -14.5506E-03     64.9818E-03
            1067     14.1903E-03     96.9238E-03    -6.08854E+06    -25.5431E+06    -8.88874E+06    -10.0488E+06    -18.2846E-03     32.9735E-03    -14.6889E-03     68.2482E-03    -18.3459E-03     32.9483E-03    -14.6875E-03     68.0741E-03
            1068     15.0736E-03     96.9882E-03    -5.32891E+06     4.77921E+06    -3.82176E+06    -8.85573E+06    -20.2011E-03     35.0439E-03    -14.8428E-03     92.1280E-03    -20.4631E-03     35.3151E-03    -14.8611E-03     91.9739E-03
            1069     15.9565E-03     97.0932E-03    -4.02461E+06     32.8760E+06    -16.0006E+06    -5.84839E+06    -21.4277E-03     36.3334E-03    -14.9057E-03     137.272E-03    -22.6041E-03     37.6586E-03    -15.0276E-03     137.527E-03
            1070     16.8455E-03     97.2426E-03    -2.41085E+06     117.940E+06     29.9597E+06    -2.08531E+06    -21.4826E-03     36.6093E-03    -15.1267E-03     162.324E-03    -23.9291E-03     39.3791E-03    -15.1444E-03     164.015E-03
            1071     887.266E-06     97.4614E-03    -20.9081E+06    -13.0090E+06    -19.4135E+06     938.889E+03    -14.1789E-03     28.3511E-03    -14.1722E-03     3.63242E-03    -14.2364E-03     28.3446E-03    -14.2201E-03     3.64423E-03
            1072     1.77456E-03     97.4657E-03    -20.5632E+06    -12.4667E+06    -15.8968E+06     787.004E+03    -14.1446E-03     28.3329E-03    -14.1883E-03     6.72389E-03    -14.2064E-03     28.3235E-03    -14.2199E-03     6.73347E-03
            1073     2.66187E-03     97.4728E-03    -19.7605E+06    -13.2349E+06    -11.3130E+06     299.577E+03    -14.1043E-03     28.2987E-03    -14.1944E-03     10.0577E-03    -14.1676E-03     28.2777E-03    -14.2031E-03     10.0607E-03
            1074     3.54926E-03     97.4827E-03    -18.6445E+06    -15.1032E+06    -6.42872E+06    -229.724E+03    -14.0593E-03     28.2557E-03    -14.1964E-03     13.5364E-03    -14.1215E-03     28.2168E-03    -14.1796E-03     13.5323E-03
            1075     4.43670E-03     97.4958E-03    -17.5438E+06    -18.4547E+06    -2.27638E+06    -1.02034E+06    -14.0228E-03     28.2154E-03    -14.1926E-03     17.1892E-03    -14.0808E-03     28.1523E-03    -14.1518E-03     17.1745E-03
            1076     5.32421E-03     97.5119E-03    -16.6831E+06    -22.5578E+06    -207.080E+03    -1.90185E+06    -14.0033E-03     28.1812E-03    -14.1779E-03     21.0640E-03    -14.0543E-03     28.0935E-03    -14.1220E-03     21.0375E-03
            1077     6.21175E-03     97.5316E-03    -16.2139E+06    -27.1569E+06    -206.258E+03    -3.03113E+06    -14.0057E-03     28.1598E-03    -14.1541E-03     25.2001E-03    -14.0479E-03     28.0486E-03    -14.0922E-03     25.1585E-03
            1078     7.09939E-03     97.5548E-03    -15.7178E+06    -30.1983E+06    -689.936E+03    -4.10378E+06    -14.0432E-03     28.1707E-03    -14.1275E-03     29.6229E-03    -14.0783E-03     28.0448E-03    -14.0644E-03     29.5667E-03
            1079     7.98696E-03     97.5821E-03    -15.2092E+06    -32.4339E+06    -262.763E+03    -5.21214E+06    -14.1488E-03     28.2588E-03    -14.1100E-03     34.3493E-03    -14.1795E-03     28.1211E-03    -14.0422E-03     34.2777E-03
            1080     8.87456E-03     97.6135E-03    -14.4789E+06    -33.9318E+06     764.829E+03    -6.32790E+06    -14.3306E-03     28.4345E-03    -14.1039E-03     39.3247E-03    -14.3583E-03     28.2881E-03    -14.0299E-03     39.2370E-03
            1081     9.76198E-03     97.6495E-03    -13.1594E+06    -32.6365E+06     2.35892E+06    -7.15334E+06    -14.6515E-03     28.7628E-03    -14.1113E-03     44.4783E-03    -14.6790E-03     28.6209E-03    -14.0331E-03     44.3773E-03
            1082     10.6493E-03     97.6899E-03    -12.0750E+06    -32.8071E+06     2.70113E+06    -8.57778E+06    -15.2154E-03     29.3565E-03    -14.1411E-03     49.6176E-03    -15.2417E-03     29.2157E-03    -14.0625E-03     49.4941E-03
            1083     11.5358E-03     97.7352E-03    -11.0108E+06    -27.6874E+06     3.72470E+06    -10.4684E+06    -15.8537E-03     30.0522E-03    -14.1986E-03     54.9281E-03    -15.8904E-03     29.9408E-03    -14.1238E-03     54.7745E-03
            1084     12.4221E-03     97.7856E-03    -9.61428E+06    -34.2224E+06     2.36943E+06    -11.5924E+06    -16.6719E-03     30.9628E-03    -14.2908E-03     62.3061E-03    -16.7037E-03     30.8321E-03    -14.2154E-03     62.1295E-03
            1085     13.3077E-03     97.8443E-03    -7.82550E+06    -48.5017E+06    -11.5927E+06    -12.1037E+06    -17.7669E-03     32.1356E-03    -14.3687E-03     66.5220E-03    -17.7686E-03     31.9710E-03    -14.3450E-03     66.3284E-03
            1086     14.1924E-03     97.9028E-03    -6.48162E+06    -26.1189E+06    -9.55804E+06    -11.6468E+06    -18.8126E-03     33.3297E-03    -14.5171E-03     70.2676E-03    -18.8768E-03     33.3059E-03    -14.5176E-03     70.0710E-03
            1087     15.0764E-03     97.9699E-03    -5.57866E+06     2.39135E+06    -3.74854E+06    -9.69425E+06    -20.2520E-03     34.9509E-03    -14.6989E-03     94.9058E-03    -20.5170E-03     35.2154E-03    -14.7130E-03     94.7430E-03
            1088     15.9605E-03     98.0733E-03    -4.85098E+06     29.4196E+06    -15.4088E+06    -6.74084E+06    -22.7131E-03     37.5200E-03    -14.8069E-03     137.883E-03    -23.8896E-03     38.8285E-03    -14.9196E-03     138.086E-03
            1089     16.8419E-03     98.2203E-03    -3.40399E+06     113.905E+06     29.4494E+06    -2.97327E+06    -22.6450E-03     37.7397E-03    -15.0947E-03     161.226E-03    -25.0804E-03     40.4821E-03    -15.1077E-03     162.864E-03
            1090     887.559E-06     98.4366E-03    -24.6687E+06    -16.0802E+06    -23.3010E+06     2.20799E+06    -13.8422E-03     27.6894E-03    -13.8472E-03     3.66154E-03    -13.9084E-03     27.6786E-03    -13.9046E-03     3.68977E-03
            1091     1.77512E-03     98.4409E-03    -24.5211E+06    -13.4954E+06    -19.6044E+06     2.92376E+06    -13.8063E-03     27.6607E-03    -13.8544E-03     6.76546E-03    -13.8809E-03     27.6573E-03    -13.8973E-03     6.80270E-03
            1092     2.66275E-03     98.4479E-03    -24.0438E+06    -13.2434E+06    -14.4179E+06     2.60780E+06    -13.7679E-03     27.6302E-03    -13.8623E-03     10.1277E-03    -13.8481E-03     27.6198E-03    -13.8803E-03     10.1606E-03
            1093     3.55039E-03     98.4578E-03    -23.1065E+06    -14.8668E+06    -9.21718E+06     2.01828E+06    -13.7211E-03     27.5876E-03    -13.8665E-03     13.6321E-03    -13.8019E-03     27.5603E-03    -13.8575E-03     13.6571E-03
            1094     4.43814E-03     98.4707E-03    -22.0869E+06    -17.6766E+06    -4.79589E+06     1.42671E+06    -13.6759E-03     27.5389E-03    -13.8631E-03     17.3151E-03    -13.7540E-03     27.4898E-03    -13.8294E-03     17.3322E-03
            1095     5.32592E-03     98.4869E-03    -21.2622E+06    -21.4343E+06    -2.08225E+06     479.281E+03    -13.6499E-03     27.4997E-03    -13.8498E-03     21.2323E-03    -13.7226E-03     27.4269E-03    -13.7983E-03     21.2368E-03
            1096     6.21381E-03     98.5063E-03    -20.5315E+06    -25.2725E+06    -1.45922E+06    -900.763E+03    -13.6588E-03     27.4854E-03    -13.8266E-03     25.4277E-03    -13.7234E-03     27.3917E-03    -13.7675E-03     25.4139E-03
            1097     7.10165E-03     98.5296E-03    -19.9084E+06    -28.3939E+06    -1.92339E+06    -2.64486E+06    -13.7166E-03     27.5175E-03    -13.8009E-03     29.9463E-03    -13.7734E-03     27.4084E-03    -13.7404E-03     29.9093E-03
            1098     7.98958E-03     98.5568E-03    -18.9375E+06    -30.3452E+06    -1.61766E+06    -4.28965E+06    -13.8357E-03     27.6194E-03    -13.7838E-03     34.7955E-03    -13.8859E-03     27.4994E-03    -13.7204E-03     34.7363E-03
            1099     8.87736E-03     98.5885E-03    -17.6022E+06    -31.8634E+06    -338.919E+03    -5.99488E+06    -14.0574E-03     27.8392E-03    -13.7818E-03     39.8983E-03    -14.1019E-03     27.7091E-03    -13.7118E-03     39.8155E-03
            1100     9.76512E-03     98.6245E-03    -15.9390E+06    -30.8310E+06     1.10146E+06    -7.61065E+06    -14.4558E-03     28.2518E-03    -13.7960E-03     45.2826E-03    -14.4978E-03     28.1246E-03    -13.7226E-03     45.1763E-03
            1101     10.6524E-03     98.6658E-03    -13.9956E+06    -30.3932E+06     2.09308E+06    -8.68678E+06    -15.0493E-03     28.8863E-03    -13.8370E-03     50.7469E-03    -15.0876E-03     28.7609E-03    -13.7621E-03     50.6227E-03
            1102     11.5392E-03     98.7116E-03    -12.6305E+06    -25.0976E+06     3.39161E+06    -10.3953E+06    -15.7784E-03     29.6857E-03    -13.9073E-03     56.2688E-03    -15.8264E-03     29.5899E-03    -13.8356E-03     56.1167E-03
            1103     12.4256E-03     98.7624E-03    -11.1283E+06    -31.7220E+06     2.28575E+06    -12.6203E+06    -16.7980E-03     30.8188E-03    -14.0208E-03     63.8219E-03    -16.8411E-03     30.7031E-03    -13.9472E-03     63.6321E-03
            1104     13.3112E-03     98.8226E-03    -9.85629E+06    -47.1000E+06    -11.9317E+06    -13.8498E+06    -18.1323E-03     32.2630E-03    -14.1307E-03     68.5015E-03    -18.1469E-03     32.1101E-03    -14.1078E-03     68.2847E-03
            1105     14.1952E-03     98.8825E-03    -8.34252E+06    -26.5242E+06    -9.95797E+06    -14.1149E+06    -18.9435E-03     33.2524E-03    -14.3089E-03     71.6782E-03    -19.0170E-03     33.2310E-03    -14.3081E-03     71.4497E-03
            1106     15.0798E-03     98.9491E-03    -5.73697E+06    -1.10791E+06    -3.64741E+06    -11.5674E+06    -20.3718E-03     34.8847E-03    -14.5129E-03     95.3863E-03    -20.6304E-03     35.1296E-03    -14.5212E-03     95.1971E-03
            1107     15.9638E-03     99.0541E-03    -4.75214E+06     25.3907E+06    -15.4959E+06    -7.10899E+06    -23.7101E-03     38.3652E-03    -14.6551E-03     140.464E-03    -24.9064E-03     39.6797E-03    -14.7625E-03     140.635E-03
            1108     16.8427E-03     99.2088E-03    -4.21139E+06     110.489E+06     29.8300E+06    -3.70660E+06    -23.9926E-03     39.0009E-03    -15.0083E-03     161.854E-03    -26.4169E-03     41.7160E-03    -15.0132E-03     163.414E-03
            1109     887.876E-06     99.4112E-03    -27.9891E+06    -21.6609E+06    -26.7708E+06     3.41398E+06    -13.4609E-03     26.9293E-03    -13.4684E-03     3.68478E-03    -13.5306E-03     26.9004E-03    -13.5302E-03     3.72862E-03
            1110     1.77580E-03     99.4154E-03    -28.0538E+06    -16.8315E+06    -23.4184E+06     5.32685E+06    -13.4186E-03     26.8869E-03    -13.4683E-03     6.80997E-03    -13.5005E-03     26.8774E-03    -13.5203E-03     6.87830E-03
            1111     2.66374E-03     99.4224E-03    -27.9563E+06    -14.2168E+06    -17.9412E+06     5.62377E+06    -13.3769E-03     26.8507E-03    -13.4738E-03     10.1961E-03    -13.4701E-03     26.8462E-03    -13.5024E-03     10.2681E-03
            1112     3.55175E-03     99.4322E-03    -27.4243E+06    -15.1828E+06    -12.0304E+06     4.91791E+06    -13.3364E-03     26.8186E-03    -13.4822E-03     13.7325E-03    -13.4342E-03     26.8000E-03    -13.4806E-03     13.7951E-03
            1113     4.43978E-03     99.4451E-03    -26.3652E+06    -17.6391E+06    -7.17297E+06     4.15677E+06    -13.2975E-03     26.7803E-03    -13.4828E-03     17.4505E-03    -13.3936E-03     26.7410E-03    -13.4548E-03     17.5030E-03
            1114     5.32793E-03     99.4610E-03    -25.1668E+06    -20.4201E+06    -3.85253E+06     3.09513E+06    -13.2743E-03     26.7473E-03    -13.4730E-03     21.4034E-03    -13.3654E-03     26.6877E-03    -13.4262E-03     21.4419E-03
            1115     6.21607E-03     99.4805E-03    -24.0225E+06    -23.2236E+06    -2.55779E+06     1.17095E+06    -13.2902E-03     26.7436E-03    -13.4534E-03     25.6592E-03    -13.3736E-03     26.6667E-03    -13.3977E-03     25.6724E-03
            1116     7.10432E-03     99.5037E-03    -22.7934E+06    -25.9956E+06    -2.59639E+06    -1.09346E+06    -13.3634E-03     26.7946E-03    -13.4313E-03     30.2665E-03    -13.4369E-03     26.7025E-03    -13.3735E-03     30.2499E-03
            1117     7.99244E-03     99.5310E-03    -21.5391E+06    -27.6707E+06    -2.41759E+06    -3.59382E+06    -13.5060E-03     26.9227E-03    -13.4167E-03     35.2271E-03    -13.5718E-03     26.8208E-03    -13.3574E-03     35.1773E-03
            1118     8.88063E-03     99.5627E-03    -19.7753E+06    -29.0699E+06    -1.18440E+06    -6.02707E+06    -13.7886E-03     27.2091E-03    -13.4205E-03     40.5260E-03    -13.8465E-03     27.0971E-03    -13.3556E-03     40.4433E-03
            1119     9.76839E-03     99.5992E-03    -17.6882E+06    -28.1910E+06     485.046E+03    -8.14019E+06    -14.2367E-03     27.6821E-03    -13.4453E-03     46.1777E-03    -14.2901E-03     27.5712E-03    -13.3764E-03     46.0652E-03
            1120     10.6560E-03     99.6409E-03    -15.3717E+06    -28.8637E+06     1.40088E+06    -9.69647E+06    -14.8286E-03     28.3251E-03    -13.4965E-03     51.8077E-03    -14.8746E-03     28.2100E-03    -13.4253E-03     51.6712E-03
            1121     11.5432E-03     99.6874E-03    -13.1162E+06    -22.0791E+06     3.54591E+06    -10.8670E+06    -15.7102E-03     29.2906E-03    -13.5803E-03     57.5918E-03    -15.7650E-03     29.2101E-03    -13.5115E-03     57.4342E-03
            1122     12.4293E-03     99.7396E-03    -11.3026E+06    -27.5002E+06     3.23930E+06    -13.2949E+06    -17.0384E-03     30.7604E-03    -13.7220E-03     65.3086E-03    -17.0903E-03     30.6652E-03    -13.6495E-03     65.1099E-03
            1123     13.3145E-03     99.8004E-03    -9.69544E+06    -45.8424E+06    -11.1968E+06    -15.4671E+06    -18.3055E-03     32.1708E-03    -13.8652E-03     70.2111E-03    -18.3229E-03     32.0235E-03    -13.8407E-03     69.9732E-03
            1124     14.1988E-03     99.8627E-03    -8.71424E+06    -26.0751E+06    -9.38381E+06    -15.7245E+06    -19.3694E-03     33.4460E-03    -14.0765E-03     73.0341E-03    -19.4472E-03     33.4274E-03    -14.0730E-03     72.7833E-03
            1125     15.0823E-03     99.9280E-03    -7.26217E+06    -4.65240E+06    -4.54855E+06    -14.1584E+06    -21.5441E-03     35.8817E-03    -14.3375E-03     96.6223E-03    -21.8101E-03     36.1186E-03    -14.3430E-03     96.3906E-03
            1126     15.9639E-03     100.037E-03    -4.65000E+06     18.8605E+06    -16.4947E+06    -9.48732E+06    -23.6188E-03     38.1389E-03    -14.5202E-03     140.517E-03    -24.7912E-03     39.4095E-03    -14.6232E-03     140.679E-03
            1127     16.8513E-03     100.189E-03    -2.99349E+06     106.724E+06     32.6394E+06    -3.73470E+06    -24.6806E-03     39.5918E-03    -14.9112E-03     160.466E-03    -27.0681E-03     42.2530E-03    -14.8984E-03     161.966E-03
            1128     888.278E-06     100.385E-03    -31.7044E+06    -29.4573E+06    -30.5460E+06     4.37984E+06    -13.0191E-03     26.0602E-03    -13.0411E-03     3.70312E-03    -13.0906E-03     26.0032E-03    -13.1051E-03     3.75947E-03
            1129     1.77656E-03     100.389E-03    -31.4097E+06    -22.9436E+06    -26.9988E+06     7.57782E+06    -12.9852E-03     26.0171E-03    -13.0319E-03     6.86484E-03    -13.0699E-03     25.9871E-03    -13.0881E-03     6.96229E-03
            1130     2.66491E-03     100.396E-03    -31.2016E+06    -16.7788E+06    -21.3564E+06     8.92045E+06    -12.9394E-03     25.9728E-03    -13.0335E-03     10.2679E-03    -13.0401E-03     25.9652E-03    -13.0707E-03     10.3825E-03
            1131     3.55327E-03     100.406E-03    -30.6674E+06    -15.9770E+06    -14.7690E+06     8.27589E+06    -12.9065E-03     25.9508E-03    -13.0443E-03     13.8339E-03    -13.0154E-03     25.9369E-03    -13.0505E-03     13.9400E-03
            1132     4.44171E-03     100.419E-03    -29.5797E+06    -17.8637E+06    -9.05609E+06     7.01822E+06    -12.8902E-03     25.9428E-03    -13.0526E-03     17.5902E-03    -12.9993E-03     25.9097E-03    -13.0291E-03     17.6798E-03
            1133     5.33013E-03     100.435E-03    -27.9074E+06    -19.4758E+06    -5.16572E+06     5.38080E+06    -12.8877E-03     25.9377E-03    -13.0500E-03     21.5852E-03    -12.9919E-03     25.8886E-03    -13.0071E-03     21.6534E-03
            1134     6.21868E-03     100.454E-03    -26.0818E+06    -20.8315E+06    -3.18599E+06     3.03311E+06    -12.9155E-03     25.9533E-03    -13.0378E-03     25.8938E-03    -13.0117E-03     25.8922E-03    -12.9857E-03     25.9313E-03
            1135     7.10715E-03     100.477E-03    -24.3622E+06    -23.1263E+06    -2.90543E+06     63.0620E+03    -13.0009E-03     26.0233E-03    -13.0224E-03     30.5726E-03    -13.0859E-03     25.9482E-03    -12.9681E-03     30.5712E-03
            1136     7.99572E-03     100.504E-03    -22.4409E+06    -24.1119E+06    -2.51228E+06    -3.06558E+06    -13.1776E-03     26.1917E-03    -13.0141E-03     35.6538E-03    -13.2527E-03     26.1089E-03    -12.9592E-03     35.6112E-03
            1137     8.88401E-03     100.536E-03    -20.6164E+06    -25.8317E+06    -1.37929E+06    -6.07023E+06    -13.4981E-03     26.5247E-03    -13.0266E-03     41.1722E-03    -13.5645E-03     26.4302E-03    -12.9661E-03     41.0893E-03
            1138     9.77223E-03     100.573E-03    -18.6343E+06    -24.9068E+06     391.581E+03    -8.70213E+06    -13.9526E-03     27.0133E-03    -13.0607E-03     47.0290E-03    -14.0150E-03     26.9200E-03    -12.9956E-03     46.9099E-03
            1139     10.6600E-03     100.615E-03    -16.2821E+06    -26.5005E+06     1.24659E+06    -11.0079E+06    -14.6869E-03     27.8123E-03    -13.1253E-03     52.9618E-03    -14.7405E-03     27.7103E-03    -13.0570E-03     52.8090E-03
            1140     11.5470E-03     100.663E-03    -13.4621E+06    -19.6962E+06     3.38945E+06    -12.4394E+06    -15.7276E-03     28.9569E-03    -13.2293E-03     59.1284E-03    -15.7872E-03     28.8890E-03    -13.1643E-03     58.9510E-03
            1141     12.4334E-03     100.716E-03    -10.5937E+06    -23.2842E+06     4.38812E+06    -14.4169E+06    -17.0695E-03     30.4659E-03    -13.3963E-03     67.2545E-03    -17.1258E-03     30.3892E-03    -13.3253E-03     67.0417E-03
            1142     13.3182E-03     100.779E-03    -8.67527E+06    -43.8390E+06    -9.75776E+06    -16.7338E+06    -18.4822E-03     32.0501E-03    -13.5679E-03     72.1458E-03    -18.4999E-03     31.9097E-03    -13.5405E-03     71.8917E-03
            1143     14.2030E-03     100.841E-03    -7.05714E+06    -25.7604E+06    -8.29908E+06    -17.0378E+06    -19.9967E-03     33.8139E-03    -13.8172E-03     75.4457E-03    -20.0706E-03     33.7954E-03    -13.8111E-03     75.1756E-03
            1144     15.0849E-03     100.911E-03    -5.88256E+06    -6.58364E+06    -3.47990E+06    -15.3437E+06    -22.2306E-03     36.3595E-03    -14.1289E-03     99.3909E-03    -22.4943E-03     36.5890E-03    -14.1282E-03     99.1409E-03
            1145     15.9668E-03     101.019E-03     -6.3743E+06     12.1166E+06    -17.4189E+06    -10.9932E+06    -25.5465E-03     39.9352E-03    -14.3888E-03     142.363E-03    -26.7224E-03     41.1822E-03    -14.4842E-03     142.451E-03
            1146     16.8450E-03     101.169E-03    -4.93467E+06     100.241E+06     31.6228E+06    -5.19024E+06    -26.2032E-03     41.0753E-03    -14.8721E-03     160.919E-03    -28.5896E-03     43.7085E-03    -14.8522E-03     162.340E-03
            1147     888.697E-06     101.358E-03    -36.9106E+06    -38.3562E+06    -36.0804E+06     4.51766E+06    -12.5240E-03     25.0851E-03    -12.5610E-03     3.73665E-03    -12.6007E-03     24.9992E-03    -12.6323E-03     3.79481E-03
            1148     1.77744E-03     101.362E-03    -35.3668E+06    -31.5328E+06    -31.6507E+06     8.56854E+06    -12.5077E-03     25.0540E-03    -12.5463E-03     6.91896E-03    -12.5929E-03     24.9935E-03    -12.6075E-03     7.02927E-03
            1149     2.66618E-03     101.369E-03    -34.0005E+06    -21.7446E+06    -25.0026E+06     11.5997E+06    -12.4648E-03     25.0125E-03    -12.5477E-03     10.3351E-03    -12.5671E-03     24.9894E-03    -12.5919E-03     10.4844E-03
            1150     3.55499E-03     101.379E-03    -32.9463E+06    -17.1835E+06    -17.3619E+06     11.4727E+06    -12.4444E-03     25.0052E-03    -12.5608E-03     13.9291E-03    -12.5592E-03     24.9923E-03    -12.5749E-03     14.0765E-03
            1151     4.44379E-03     101.391E-03    -31.1694E+06    -17.8671E+06    -10.6034E+06     9.47965E+06    -12.4556E-03     25.0334E-03    -12.5778E-03     17.7286E-03    -12.5703E-03     25.0048E-03    -12.5598E-03     17.8501E-03
            1152     5.33265E-03     101.407E-03    -28.8689E+06    -18.3948E+06    -5.95859E+06     7.21260E+06    -12.4872E-03     25.0729E-03    -12.5857E-03     21.7676E-03    -12.5966E-03     25.0317E-03    -12.5470E-03     21.8596E-03
            1153     6.22144E-03     101.427E-03    -26.6025E+06    -18.3286E+06    -3.33064E+06     4.46402E+06    -12.5421E-03     25.1271E-03    -12.5850E-03     26.1214E-03    -12.6442E-03     25.0794E-03    -12.5365E-03     26.1776E-03
            1154     7.11035E-03     101.450E-03    -24.3913E+06    -19.3867E+06    -2.52460E+06     892.749E+03    -12.6508E-03     25.2318E-03    -12.5810E-03     30.8640E-03    -12.7418E-03     25.1747E-03    -12.5301E-03     30.8736E-03
            1155     7.99907E-03     101.477E-03    -22.3288E+06    -20.2754E+06    -2.18329E+06    -2.84818E+06    -12.8567E-03     25.4402E-03    -12.5835E-03     36.0759E-03    -12.9372E-03     25.3758E-03    -12.5326E-03     36.0365E-03
            1156     8.88782E-03     101.509E-03    -20.1743E+06    -22.0107E+06    -855.277E+03    -6.12567E+06    -13.1824E-03     25.7894E-03    -12.6069E-03     41.7461E-03    -13.2526E-03     25.7123E-03    -12.5500E-03     41.6630E-03
            1157     9.77614E-03     101.547E-03    -18.1177E+06    -21.3689E+06     1.01185E+06    -9.05260E+06    -13.6835E-03     26.3355E-03    -12.6520E-03     47.7989E-03    -13.7491E-03     26.2580E-03    -12.5897E-03     47.6758E-03
            1158     10.6643E-03     101.589E-03    -16.1165E+06    -22.4854E+06     2.17165E+06    -12.0093E+06    -14.5190E-03     27.2507E-03    -12.7318E-03     54.1934E-03    -14.5785E-03     27.1669E-03    -12.6649E-03     54.0284E-03
            1159     11.5515E-03     101.638E-03    -13.8542E+06    -17.5659E+06     3.39556E+06    -14.2770E+06    -15.5913E-03     28.4417E-03    -12.8504E-03     60.8507E-03    -15.6556E-03     28.3846E-03    -12.7878E-03     60.6504E-03
            1160     12.4376E-03     101.693E-03    -11.1725E+06    -20.2931E+06     4.91115E+06    -15.9089E+06    -16.9571E-03     29.9903E-03    -13.0332E-03     69.3338E-03    -17.0210E-03     29.9283E-03    -12.9630E-03     69.1028E-03
            1161     13.3237E-03     101.757E-03    -8.90711E+06    -40.1053E+06    -7.45336E+06    -18.3457E+06    -18.8487E-03     32.0883E-03    -13.2396E-03     74.4428E-03    -18.8770E-03     31.9643E-03    -13.2058E-03     74.1672E-03
            1162     14.2063E-03     101.821E-03    -7.05043E+06    -25.2402E+06    -6.56386E+06    -19.3641E+06    -20.6227E-03     34.1596E-03    -13.5370E-03     77.7940E-03    -20.7025E-03     34.1439E-03    -13.5230E-03     77.4916E-03
            1163     15.0896E-03     101.892E-03    -4.47155E+06    -9.40409E+06    -1.99258E+06    -17.0492E+06    -22.8879E-03     36.7887E-03    -13.9008E-03     100.351E-03    -23.1418E-03     36.9992E-03    -13.8907E-03     100.073E-03
            1164     15.9723E-03     102.001E-03    -3.50231E+06     5.64521E+06    -16.5620E+06    -11.1144E+06    -26.7141E-03     40.9288E-03    -14.2148E-03     145.510E-03    -27.8826E-03     42.1532E-03    -14.3007E-03     145.553E-03
            1165     16.8488E-03     102.162E-03    -3.57051E+06     94.0188E+06     32.0689E+06    -5.04866E+06    -27.8790E-03     42.6463E-03    -14.7673E-03     163.646E-03    -30.2531E-03     45.2487E-03    -14.7381E-03     164.985E-03
            1166     889.175E-06     102.329E-03    -45.9061E+06    -46.1113E+06    -45.5676E+06     3.16551E+06    -12.0053E-03     24.0286E-03    -12.0232E-03     3.77079E-03    -12.1019E-03     23.9307E-03    -12.1176E-03     3.81153E-03
            1167     1.77834E-03     102.334E-03    -42.2118E+06    -40.3517E+06    -39.8652E+06     6.60683E+06    -11.9927E-03     24.0142E-03    -12.0215E-03     6.96156E-03    -12.0875E-03     23.9315E-03    -12.1011E-03     7.04661E-03
            1168     2.66757E-03     102.341E-03    -37.2362E+06    -29.4846E+06    -30.9381E+06     10.9069E+06    -11.9646E-03     23.9926E-03    -12.0280E-03     10.3936E-03    -12.0632E-03     23.9441E-03    -12.0860E-03     10.5341E-03
            1169     3.55680E-03     102.350E-03    -33.2591E+06    -19.8100E+06    -20.4992E+06     13.0904E+06    -11.9602E-03     24.0055E-03    -12.0453E-03     14.0050E-03    -12.0681E-03     23.9844E-03    -12.0708E-03     14.1735E-03
            1170     4.44606E-03     102.363E-03    -30.7841E+06    -17.2537E+06    -11.9754E+06     11.3547E+06    -12.0014E-03     24.0724E-03    -12.0711E-03     17.8424E-03    -12.1131E-03     24.0483E-03    -12.0613E-03     17.9882E-03
            1171     5.33525E-03     102.379E-03    -28.0837E+06    -17.1136E+06    -6.39109E+06     8.29572E+06    -12.0740E-03     24.1660E-03    -12.0920E-03     21.9234E-03    -12.1806E-03     24.1307E-03    -12.0584E-03     22.0296E-03
            1172     6.22449E-03     102.398E-03    -25.0754E+06    -15.7619E+06    -2.81553E+06     5.28945E+06    -12.1686E-03     24.2746E-03    -12.1060E-03     26.3116E-03    -12.2675E-03     24.2367E-03    -12.0608E-03     26.3787E-03
            1173     7.11359E-03     102.422E-03    -22.7361E+06    -15.3007E+06    -1.28806E+06     1.66413E+06    -12.3146E-03     24.4322E-03    -12.1176E-03     31.1204E-03    -12.4050E-03     24.3913E-03    -12.0689E-03     31.1402E-03
            1174     8.00275E-03     102.449E-03    -20.7235E+06    -15.7398E+06    -704.207E+03    -2.57914E+06    -12.5406E-03     24.6758E-03    -12.1352E-03     36.4502E-03    -12.6216E-03     24.6295E-03    -12.0859E-03     36.4146E-03
            1175     8.89158E-03     102.482E-03    -18.6621E+06    -18.0060E+06     211.153E+03    -6.40715E+06    -12.8818E-03     25.0524E-03    -12.1706E-03     42.2425E-03    -12.9516E-03     24.9914E-03    -12.1164E-03     42.1563E-03
            1176     9.78043E-03     102.519E-03    -16.2524E+06    -17.5438E+06     2.34777E+06    -9.51138E+06    -13.4540E-03     25.6845E-03    -12.2306E-03     48.5969E-03    -13.5174E-03     25.6212E-03    -12.1698E-03     48.4685E-03
            1177     10.6685E-03     102.563E-03    -14.0352E+06    -18.2378E+06     4.03372E+06    -12.4670E+06    -14.2577E-03     26.5822E-03    -12.3244E-03     55.3301E-03    -14.3152E-03     26.5134E-03    -12.2575E-03     55.1601E-03
            1178     11.5560E-03     102.613E-03    -12.6616E+06    -14.7662E+06     5.11561E+06    -14.7513E+06    -15.3186E-03     27.7722E-03    -12.4536E-03     62.3047E-03    -15.3828E-03     27.7242E-03    -12.3883E-03     62.0994E-03
            1179     12.4432E-03     102.669E-03    -11.3898E+06    -16.8032E+06     6.27615E+06    -16.9415E+06    -17.0128E-03     29.6651E-03    -12.6523E-03     71.1973E-03    -17.0845E-03     29.6186E-03    -12.5801E-03     70.9535E-03
            1180     13.3275E-03     102.735E-03    -10.0159E+06    -35.6895E+06    -5.28582E+06    -20.0751E+06    -19.2575E-03     32.1561E-03    -12.8985E-03     76.9493E-03    -19.3017E-03     32.0534E-03    -12.8587E-03     76.6507E-03
            1181     14.2115E-03     102.802E-03    -8.63291E+06    -24.0917E+06    -4.95207E+06    -21.3528E+06    -21.4034E-03     34.6555E-03    -13.2521E-03     79.8765E-03    -21.4966E-03     34.6470E-03    -13.2294E-03     79.5455E-03
            1182     15.0924E-03     102.874E-03    -5.83582E+06    -11.9124E+06    -1.88660E+06    -19.9647E+06    -24.8020E-03     38.5054E-03    -13.7034E-03     102.206E-03    -25.0684E-03     38.7144E-03    -13.6871E-03     101.873E-03
            1183     15.9700E-03     102.986E-03    -3.76236E+06    -3.71657E+06    -17.9233E+06    -13.7531E+06    -27.0840E-03     41.1778E-03    -14.0938E-03     143.848E-03    -28.1846E-03     42.3037E-03    -14.1726E-03     143.856E-03
            1184     16.8561E-03     103.143E-03    -2.65535E+06     86.0225E+06     32.1856E+06    -4.38141E+06    -28.1924E-03     42.8705E-03    -14.6781E-03     162.930E-03    -30.5293E-03     45.4103E-03    -14.6381E-03     164.237E-03
            1185     889.605E-06     103.300E-03    -59.7973E+06    -49.7087E+06    -59.8250E+06     237.795E+03    -11.4697E-03     22.9398E-03    -11.4701E-03     3.78294E-03    -11.6099E-03     22.8647E-03    -11.6104E-03     3.78592E-03
            1186     1.77926E-03     103.304E-03    -54.3926E+06    -45.5166E+06    -53.2230E+06     1.20890E+06    -11.4620E-03     22.9429E-03    -11.4808E-03     6.98454E-03    -11.5908E-03     22.8713E-03    -11.6021E-03     6.99997E-03
            1187     2.66891E-03     103.311E-03    -45.8417E+06    -37.2275E+06    -42.7701E+06     4.26699E+06    -11.4555E-03     22.9503E-03    -11.4948E-03     10.4241E-03    -11.5688E-03     22.8927E-03    -11.5882E-03     10.4789E-03
            1188     3.55865E-03     103.321E-03    -36.1156E+06    -25.6874E+06    -29.1497E+06     8.89562E+06    -11.4641E-03     22.9810E-03    -11.5169E-03     14.0139E-03    -11.5652E-03     22.9472E-03    -11.5730E-03     14.1283E-03
            1189     4.44833E-03     103.334E-03    -29.0914E+06    -17.9745E+06    -16.0483E+06     11.0902E+06    -11.5254E-03     23.0769E-03    -11.5515E-03     17.8520E-03    -11.6216E-03     23.0526E-03    -11.5635E-03     17.9946E-03
            1190     5.33797E-03     103.350E-03    -25.7313E+06    -15.2645E+06    -7.19825E+06     9.07510E+06    -11.6426E-03     23.2315E-03    -11.5889E-03     21.9776E-03    -11.7389E-03     23.2031E-03    -11.5655E-03     22.0940E-03
            1191     6.22750E-03     103.369E-03    -23.0920E+06    -13.0667E+06    -2.23049E+06     5.45845E+06    -11.7888E-03     23.4089E-03    -11.6201E-03     26.4088E-03    -11.8825E-03     23.3807E-03    -11.5789E-03     26.4782E-03
            1192     7.11705E-03     103.393E-03    -19.8260E+06    -11.3065E+06     618.628E+03     1.71213E+06    -11.9749E-03     23.6244E-03    -11.6495E-03     31.2787E-03    -12.0592E-03     23.5964E-03    -11.6012E-03     31.2994E-03
            1193     8.00633E-03     103.421E-03    -17.5059E+06    -11.2766E+06     1.71250E+06    -1.98455E+06    -12.2190E-03     23.9017E-03    -11.6827E-03     36.6827E-03    -12.2938E-03     23.8694E-03    -11.6324E-03     36.6551E-03
            1194     8.89568E-03     103.453E-03    -16.0518E+06    -12.9518E+06     2.51841E+06    -6.21241E+06    -12.6106E-03     24.3427E-03    -11.7321E-03     42.6637E-03    -12.6778E-03     24.2996E-03    -11.6774E-03     42.5805E-03
            1195     9.78444E-03     103.491E-03    -14.1579E+06    -13.3164E+06     4.19268E+06    -10.3174E+06    -13.1807E-03     24.9862E-03    -11.8055E-03     49.3286E-03    -13.2421E-03     24.9379E-03    -11.7447E-03     49.1905E-03
            1196     10.6730E-03     103.536E-03    -11.7107E+06    -14.6512E+06     6.11505E+06    -12.9769E+06    -13.9774E-03     25.8888E-03    -11.9114E-03     56.3067E-03    -14.0309E-03     25.8310E-03    -11.8426E-03     56.1310E-03
            1197     11.5610E-03     103.586E-03    -9.88561E+06    -12.0423E+06     7.75321E+06    -14.2740E+06    -15.2219E-03     27.2799E-03    -12.0579E-03     63.6895E-03    -15.2794E-03     27.2370E-03    -11.9873E-03     63.4912E-03
            1198     12.4472E-03     103.644E-03    -9.05464E+06    -12.1166E+06     8.82888E+06    -16.6661E+06    -17.1226E-03     29.4009E-03    -12.2782E-03     73.2150E-03    -17.1927E-03     29.3702E-03    -12.2034E-03     72.9753E-03
            1199     13.3330E-03     103.712E-03    -8.79450E+06    -30.5675E+06    -1.91301E+06    -20.4778E+06    -19.4936E-03     32.0535E-03    -12.5599E-03     79.6469E-03    -19.5436E-03     31.9694E-03    -12.5124E-03     79.3435E-03
            1200     14.2150E-03     103.783E-03    -8.17315E+06    -22.7276E+06    -2.97694E+06    -22.3146E+06    -22.2599E-03     35.2203E-03    -12.9604E-03     83.2708E-03    -22.3574E-03     35.2169E-03    -12.9305E-03     82.9241E-03
            1201     15.0958E-03     103.858E-03    -7.37512E+06    -13.1820E+06    -1.70215E+06    -21.4670E+06    -26.2390E-03     39.7211E-03    -13.4821E-03     107.009E-03    -26.5225E-03     39.9367E-03    -13.4608E-03     106.646E-03
            1202     15.9734E-03     103.975E-03    -6.75613E+06    -13.7844E+06    -19.6890E+06    -15.8463E+06    -29.3534E-03     43.3355E-03    -13.9821E-03     144.983E-03    -30.4018E-03     44.3681E-03    -14.0507E-03     144.893E-03
            1203     16.8479E-03     104.121E-03    -3.52529E+06     76.0547E+06     31.2175E+06    -5.85888E+06    -29.4732E-03     44.1311E-03    -14.6579E-03     166.183E-03    -31.8360E-03     46.6610E-03    -14.6070E-03     167.440E-03
            1204     890.044E-06     104.270E-03    -73.9147E+06    -47.2566E+06    -73.8689E+06    -2.88755E+06    -10.9528E-03     21.9152E-03    -10.9624E-03     3.76323E-03    -11.1467E-03     21.8932E-03    -11.1560E-03     3.72589E-03
            1205     1.78007E-03     104.274E-03    -69.8102E+06    -44.5466E+06    -68.5732E+06    -4.81306E+06    -10.9589E-03     21.9277E-03    -10.9687E-03     6.96071E-03    -11.1440E-03     21.9056E-03    -11.1458E-03     6.89845E-03
            1206     2.67015E-03     104.281E-03    -62.5022E+06    -39.9202E+06    -60.0076E+06    -5.16169E+06    -10.9697E-03     21.9558E-03    -10.9861E-03     10.3892E-03    -11.1373E-03     21.9338E-03    -11.1376E-03     10.3224E-03
            1207     3.56022E-03     104.291E-03    -51.0044E+06    -31.8015E+06    -47.1626E+06    -2.46648E+06    -10.9905E-03     22.0021E-03    -11.0116E-03     13.9432E-03    -11.1311E-03     21.9855E-03    -11.1273E-03     13.9110E-03
            1208     4.45040E-03     104.304E-03    -36.8668E+06    -22.6151E+06    -30.5736E+06     2.51291E+06    -11.0502E-03     22.1013E-03    -11.0511E-03     17.7013E-03    -11.1576E-03     22.0862E-03    -11.1177E-03     17.7333E-03
            1209     5.34050E-03     104.320E-03    -25.2076E+06    -15.4096E+06    -14.3514E+06     5.71157E+06    -11.1772E-03     22.2801E-03    -11.1029E-03     21.7864E-03    -11.2603E-03     22.2606E-03    -11.1158E-03     21.8595E-03
            1210     6.23047E-03     104.340E-03    -19.2159E+06    -10.6851E+06    -3.10190E+06     4.92832E+06    -11.3768E-03     22.5331E-03    -11.1563E-03     26.2758E-03    -11.4532E-03     22.5124E-03    -11.1285E-03     26.3385E-03
            1211     7.12021E-03     104.363E-03    -16.9217E+06    -7.61519E+06     2.26464E+06     1.85142E+06    -11.6095E-03     22.8134E-03    -11.2038E-03     31.2014E-03    -11.6870E-03     22.7972E-03    -11.1569E-03     31.2241E-03
            1212     8.01000E-03     104.391E-03    -14.7554E+06    -7.10341E+06     4.28682E+06    -1.88373E+06    -11.9037E-03     23.1558E-03    -11.2521E-03     36.6722E-03    -11.9745E-03     23.1365E-03    -11.1989E-03     36.6461E-03
            1213     8.89940E-03     104.424E-03    -12.3591E+06    -7.52551E+06     5.67697E+06    -5.95203E+06    -12.3140E-03     23.6272E-03    -11.3131E-03     42.8466E-03    -12.3750E-03     23.6011E-03    -11.2559E-03     42.7671E-03
            1214     9.78866E-03     104.463E-03    -11.2045E+06    -8.44881E+06     7.22282E+06    -9.88232E+06    -12.8616E-03     24.2586E-03    -11.3970E-03     49.6890E-03    -12.9192E-03     24.2256E-03    -11.3324E-03     49.5571E-03
            1215     10.6775E-03     104.508E-03    -10.4607E+06    -10.8129E+06     8.25783E+06    -13.1666E+06    -13.7232E-03     25.2346E-03    -11.5114E-03     57.0783E-03    -13.7785E-03     25.1904E-03    -11.4393E-03     56.9010E-03
            1216     11.5653E-03     104.560E-03    -8.56015E+06    -10.6191E+06     9.39229E+06    -14.6416E+06    -15.0829E-03     26.7545E-03    -11.6716E-03     65.2298E-03    -15.1373E-03     26.7136E-03    -11.5968E-03     65.0280E-03
            1217     12.4524E-03     104.619E-03    -6.81751E+06    -7.32737E+06     11.6668E+06    -15.9463E+06    -17.0452E-03     28.9516E-03    -11.9064E-03     75.6969E-03    -17.1140E-03     28.9364E-03    -11.8275E-03     75.4678E-03
            1218     13.3367E-03     104.690E-03    -6.59377E+06    -24.8796E+06     2.68724E+06    -19.1934E+06    -19.6101E-03     31.8242E-03    -12.2141E-03     82.9011E-03    -19.6628E-03     31.7575E-03    -12.1551E-03     82.6152E-03
            1219     14.2207E-03     104.763E-03    -7.31785E+06    -20.0134E+06     88.8162E+03    -22.2191E+06    -22.6824E-03     35.3242E-03    -12.6418E-03     87.7805E-03    -22.7852E-03     35.3299E-03    -12.6017E-03     87.4340E-03
            1220     15.0996E-03     104.844E-03    -6.94262E+06    -14.0223E+06     259.233E+03    -22.4705E+06    -26.5170E-03     39.7079E-03    -13.1908E-03     111.555E-03    -26.7981E-03     39.9139E-03    -13.1591E-03     111.177E-03
            1221     15.9784E-03     104.960E-03    -5.45219E+06    -24.0638E+06    -20.4718E+06    -16.6023E+06    -30.8051E-03     44.5402E-03    -13.7351E-03     149.491E-03    -31.7997E-03     45.4896E-03    -13.7946E-03     149.322E-03
            1222     16.8551E-03     105.115E-03    -4.23835E+06     66.4320E+06     30.3438E+06    -7.24538E+06    -32.0916E-03     46.6029E-03    -14.5113E-03     169.675E-03    -34.4148E-03     49.0590E-03    -14.4498E-03     170.769E-03
            1223     890.371E-06     105.239E-03    -70.0922E+06    -40.1348E+06    -69.7363E+06    -4.43653E+06    -10.5820E-03     21.1725E-03    -10.5904E-03     3.67806E-03    -10.7732E-03     21.1746E-03    -10.7793E-03     3.62072E-03
            1224     1.78079E-03     105.243E-03    -68.6323E+06    -38.4280E+06    -66.7050E+06    -7.89970E+06    -10.5992E-03     21.1960E-03    -10.5968E-03     6.81110E-03    -10.7900E-03     21.2001E-03    -10.7751E-03     6.70898E-03
            1225     2.67114E-03     105.250E-03    -65.7404E+06    -36.0659E+06    -62.0054E+06    -10.9218E+06    -10.6227E-03     21.2372E-03    -10.6145E-03     10.1715E-03    -10.8093E-03     21.2421E-03    -10.7769E-03     10.0303E-03
            1226     3.56156E-03     105.260E-03    -60.6222E+06    -32.2857E+06    -55.4159E+06    -12.2478E+06    -10.6505E-03     21.2863E-03    -10.6358E-03     13.6723E-03    -10.8266E-03     21.2932E-03    -10.7781E-03     13.5139E-03
            1227     4.45189E-03     105.273E-03    -51.5973E+06    -26.8077E+06    -46.3738E+06    -10.5665E+06    -10.6810E-03     21.3392E-03    -10.6582E-03     17.3503E-03    -10.8330E-03     21.3474E-03    -10.7764E-03     17.2134E-03
            1228     5.34235E-03     105.289E-03    -38.1727E+06    -19.0081E+06    -33.3845E+06    -6.39359E+06    -10.7516E-03     21.4403E-03    -10.6887E-03     21.3259E-03    -10.8667E-03     21.4493E-03    -10.7728E-03     21.2427E-03
            1229     6.23281E-03     105.309E-03    -24.3019E+06    -12.0599E+06    -16.2212E+06    -1.85440E+06    -10.9180E-03     21.6646E-03    -10.7466E-03     25.7288E-03    -10.9989E-03     21.6634E-03    -10.7750E-03     25.7040E-03
            1230     7.12309E-03     105.333E-03    -15.1016E+06    -5.81601E+06    -798.603E+03     37.8211E+03    -11.1931E-03     22.0126E-03    -10.8195E-03     30.6560E-03    -11.2596E-03     22.0072E-03    -10.7931E-03     30.6553E-03
            1231     8.01302E-03     105.361E-03    -11.1960E+06    -2.85855E+06     6.51644E+06    -2.07860E+06    -11.5606E-03     22.4463E-03    -10.8857E-03     36.2404E-03    -11.6229E-03     22.4398E-03    -10.8327E-03     36.2120E-03
            1232     8.90280E-03     105.395E-03    -9.58474E+06    -2.69741E+06     8.66706E+06    -5.79226E+06    -11.9790E-03     22.9325E-03    -10.9535E-03     42.5161E-03    -12.0373E-03     22.9220E-03    -10.8924E-03     42.4390E-03
            1233     9.79234E-03     105.434E-03    -8.17307E+06    -4.31315E+06     10.2715E+06    -8.82535E+06    -12.5373E-03     23.5786E-03    -11.0413E-03     49.5358E-03    -12.5898E-03     23.5570E-03    -10.9719E-03     49.4182E-03
            1234     10.6813E-03     105.479E-03    -7.74754E+06    -6.34160E+06     11.4243E+06    -11.6992E+06    -13.3963E-03     24.5546E-03    -11.1583E-03     57.4242E-03    -13.4482E-03     24.5233E-03    -11.0807E-03     57.2669E-03
            1235     11.5699E-03     105.532E-03    -7.96120E+06    -8.35256E+06     11.6769E+06    -14.3165E+06    -14.6903E-03     26.0086E-03    -11.3183E-03     66.3037E-03    -14.7467E-03     25.9733E-03    -11.2363E-03     66.1078E-03
            1236     12.4567E-03     105.594E-03    -7.64731E+06    -4.66208E+06     13.4228E+06    -15.3397E+06    -16.6850E-03     28.2319E-03    -11.5469E-03     77.7119E-03    -16.7618E-03     28.2261E-03    -11.4619E-03     77.4930E-03
            1237     13.3431E-03     105.667E-03    -7.18680E+06    -18.3616E+06     7.36156E+06    -18.2899E+06    -19.5125E-03     31.3781E-03    -11.8656E-03     86.0843E-03    -19.5818E-03     31.3355E-03    -11.7917E-03     85.8119E-03
            1238     14.2246E-03     105.744E-03    -5.42538E+06    -15.6654E+06     5.08513E+06    -22.5907E+06    -22.7081E-03     35.0133E-03    -12.3052E-03     91.8218E-03    -22.8128E-03     35.0286E-03    -12.2492E-03     91.4715E-03
            1239     15.1063E-03     105.827E-03    -4.86100E+06    -15.1503E+06     3.53741E+06    -22.2606E+06    -26.7958E-03     39.6669E-03    -12.8711E-03     114.949E-03    -27.0613E-03     39.8513E-03    -12.8244E-03     114.569E-03
            1240     15.9836E-03     105.948E-03    -6.47250E+06    -33.2328E+06    -22.2036E+06    -17.1897E+06    -31.3668E-03     44.8013E-03    -13.4346E-03     152.097E-03    -32.2939E-03     45.6522E-03    -13.4880E-03     151.885E-03
            1241     16.8594E-03     106.104E-03    -4.94160E+06     56.1913E+06     27.7304E+06    -8.84227E+06    -34.5840E-03     48.8729E-03    -14.2889E-03     170.820E-03    -36.8088E-03     51.1996E-03    -14.2246E-03     171.694E-03
            1242     890.635E-06     106.207E-03    -50.2539E+06    -31.5710E+06    -49.6647E+06    -4.44070E+06    -10.4189E-03     20.8347E-03    -10.4158E-03     3.50227E-03    -10.5524E-03     20.8218E-03    -10.5454E-03     3.44483E-03
            1243     1.78119E-03     106.211E-03    -50.0768E+06    -30.3817E+06    -48.0286E+06    -7.95567E+06    -10.4463E-03     20.8750E-03    -10.4287E-03     6.49688E-03    -10.5831E-03     20.8654E-03    -10.5521E-03     6.39396E-03
            1244     2.67179E-03     106.218E-03    -49.8902E+06    -28.8615E+06    -45.7551E+06    -11.3947E+06    -10.4856E-03     20.9347E-03    -10.4491E-03     9.71297E-03    -10.6270E-03     20.9292E-03    -10.5637E-03     9.56552E-03
            1245     3.56229E-03     106.228E-03    -49.5236E+06    -27.2544E+06    -43.4553E+06    -14.3646E+06    -10.5245E-03     20.9950E-03    -10.4706E-03     13.0683E-03    -10.6697E-03     20.9937E-03    -10.5765E-03     12.8824E-03
            1246     4.45286E-03     106.241E-03    -48.0170E+06    -24.8340E+06    -40.7801E+06    -16.5913E+06    -10.5579E-03     21.0471E-03    -10.4892E-03     16.6146E-03    -10.7031E-03     21.0519E-03    -10.5874E-03     16.3997E-03
            1247     5.34338E-03     106.257E-03    -43.9369E+06    -20.5896E+06    -36.9828E+06    -16.8446E+06    -10.5817E-03     21.0840E-03    -10.5023E-03     20.4361E-03    -10.7182E-03     21.0987E-03    -10.5937E-03     20.2179E-03
            1248     6.23395E-03     106.277E-03    -35.3719E+06    -15.8850E+06    -28.8610E+06    -13.9588E+06    -10.6261E-03     21.1506E-03    -10.5246E-03     24.6472E-03    -10.7385E-03     21.1648E-03    -10.5946E-03     24.4660E-03
            1249     7.12462E-03     106.302E-03    -22.8871E+06    -8.04273E+06    -15.2806E+06    -9.35262E+06    -10.7877E-03     21.3532E-03    -10.5655E-03     29.4620E-03    -10.8690E-03     21.3690E-03    -10.5970E-03     29.3401E-03
            1250     8.01510E-03     106.330E-03    -11.7754E+06    -1.46938E+06     290.398E+03    -6.10123E+06    -11.1250E-03     21.7600E-03    -10.6350E-03     35.0361E-03    -11.1831E-03     21.7702E-03    -10.6144E-03     34.9558E-03
            1251     8.90519E-03     106.364E-03    -6.19005E+06     548.518E+03     10.4011E+06    -5.93824E+06    -11.5865E-03     22.3023E-03    -10.7158E-03     41.3806E-03    -11.6348E-03     22.3004E-03    -10.6556E-03     41.3019E-03
            1252     9.79491E-03     106.404E-03    -5.23333E+06    -1.52965E+06     12.9885E+06    -7.36052E+06    -12.1701E-03     22.9679E-03    -10.7978E-03     48.6355E-03    -12.2154E-03     22.9515E-03    -10.7230E-03     48.5374E-03
            1253     10.6845E-03     106.450E-03    -5.51272E+06    -2.06213E+06     14.6979E+06    -9.45801E+06    -12.9616E-03     23.8663E-03    -10.9047E-03     56.8924E-03    -13.0122E-03     23.8474E-03    -10.8202E-03     56.7652E-03
            1254     11.5730E-03     106.504E-03    -5.32826E+06    -4.11535E+06     16.1420E+06    -12.6279E+06    -14.2258E-03     25.2814E-03    -11.0556E-03     66.3477E-03    -14.2797E-03     25.2550E-03    -10.9612E-03     66.1754E-03
            1255     12.4612E-03     106.567E-03    -5.39478E+06    -4.12912E+06     17.0038E+06    -13.8653E+06    -16.2257E-03     27.4960E-03    -11.2703E-03     78.5497E-03    -16.2936E-03     27.4808E-03    -11.1715E-03     78.3526E-03
            1256     13.3463E-03     106.644E-03    -5.49309E+06    -10.1377E+06     14.1769E+06    -17.3098E+06    -18.8977E-03     30.4716E-03    -11.5739E-03     88.2149E-03    -18.9749E-03     30.4523E-03    -11.4804E-03     87.9593E-03
            1257     14.2309E-03     106.724E-03    -5.64550E+06    -10.7215E+06     10.2060E+06    -22.6976E+06    -22.6229E-03     34.6248E-03    -12.0018E-03     95.2318E-03    -22.7377E-03     34.6521E-03    -11.9271E-03     94.8821E-03
            1258     15.1100E-03     106.811E-03    -4.99570E+06    -17.8987E+06     6.96231E+06    -21.8797E+06    -27.5418E-03     40.1397E-03    -12.5979E-03     117.618E-03    -27.7955E-03     40.2922E-03    -12.5299E-03     117.236E-03
            1259     15.9876E-03     106.935E-03    -3.41171E+06    -38.8142E+06    -17.6881E+06    -17.0418E+06    -32.3384E-03     45.5567E-03    -13.2183E-03     153.764E-03    -33.1666E-03     46.2865E-03    -13.2455E-03     153.505E-03
            1260     16.8624E-03     107.094E-03    -2.66150E+06     44.9880E+06     28.0959E+06    -9.40762E+06    -36.7861E-03     50.9218E-03    -14.1357E-03     175.649E-03    -38.9507E-03     53.1557E-03    -14.0566E-03     176.343E-03
            1261     890.610E-06     107.175E-03    -31.5573E+06    -23.6498E+06    -31.0536E+06    -3.90102E+06    -10.4728E-03     20.9402E-03    -10.4674E-03     3.25069E-03    -10.5513E-03     20.9128E-03    -10.5426E-03     3.20015E-03
            1262     1.78127E-03     107.179E-03    -31.7227E+06    -22.7026E+06    -30.0375E+06    -6.93199E+06    -10.5138E-03     20.9962E-03    -10.4824E-03     6.02925E-03    -10.5960E-03     20.9723E-03    -10.5536E-03     5.93942E-03
            1263     2.67180E-03     107.186E-03    -31.6393E+06    -21.6033E+06    -28.2038E+06    -10.0836E+06    -10.5700E-03     21.0786E-03    -10.5086E-03     9.01194E-03    -10.6561E-03     21.0574E-03    -10.5724E-03     8.88123E-03
            1264     3.56237E-03     107.196E-03    -31.2769E+06    -20.5086E+06    -25.5487E+06    -13.1110E+06    -10.6393E-03     21.1817E-03    -10.5424E-03     12.1121E-03    -10.7291E-03     21.1617E-03    -10.5951E-03     11.9421E-03
            1265     4.45281E-03     107.209E-03    -30.9931E+06    -18.9839E+06    -22.6074E+06    -15.9417E+06    -10.7042E-03     21.2829E-03    -10.5787E-03     15.3988E-03    -10.7992E-03     21.2660E-03    -10.6193E-03     15.1920E-03
            1266     5.34323E-03     107.226E-03    -31.0115E+06    -17.3523E+06    -20.5422E+06    -18.0066E+06    -10.7398E-03     21.3477E-03    -10.6079E-03     18.9509E-03    -10.8403E-03     21.3361E-03    -10.6405E-03     18.7172E-03
            1267     6.23371E-03     107.246E-03    -30.3199E+06    -15.2843E+06    -19.7847E+06    -19.4407E+06    -10.7397E-03     21.3606E-03    -10.6209E-03     22.9007E-03    -10.8410E-03     21.3574E-03    -10.6537E-03     22.6484E-03
            1268     7.12421E-03     107.270E-03    -26.7415E+06    -10.5084E+06    -17.4072E+06    -18.7834E+06    -10.7301E-03     21.3535E-03    -10.6234E-03     27.4294E-03    -10.8241E-03     21.3658E-03    -10.6564E-03     27.1854E-03
            1269     8.01495E-03     107.299E-03    -19.0235E+06    -4.23442E+06    -9.29009E+06    -15.0398E+06    -10.8107E-03     21.4510E-03    -10.6404E-03     32.7226E-03    -10.8872E-03     21.4719E-03    -10.6531E-03     32.5269E-03
            1270     8.90552E-03     107.333E-03    -9.81729E+06    -291.836E+03     2.23700E+06    -10.6265E+06    -11.1218E-03     21.8053E-03    -10.6835E-03     38.9795E-03    -11.1750E-03     21.8161E-03    -10.6576E-03     38.8404E-03
            1271     9.79582E-03     107.373E-03    -2.78302E+06    -490.563E+03     12.3156E+06    -8.26801E+06    -11.6892E-03     22.4418E-03    -10.7526E-03     46.3777E-03    -11.7223E-03     22.4276E-03    -10.6863E-03     46.2684E-03
            1272     10.6854E-03     107.420E-03     568.101E+03     479.969E+03     19.0155E+06    -8.11812E+06    -12.4969E-03     23.3405E-03    -10.8437E-03     54.9377E-03    -12.5259E-03     23.3181E-03    -10.7501E-03     54.8289E-03
            1273     11.5749E-03     107.475E-03    -480.338E+03    -656.647E+03     21.8161E+06    -8.93945E+06    -13.7830E-03     24.7577E-03    -10.9746E-03     64.9829E-03    -13.8238E-03     24.7311E-03    -10.8639E-03     64.8601E-03
            1274     12.4624E-03     107.540E-03    -2.48471E+06    -1.42103E+06     22.8558E+06    -11.1621E+06    -15.6364E-03     26.8024E-03    -11.1660E-03     77.8558E-03    -15.6977E-03     26.7835E-03    -11.0460E-03     77.6970E-03
            1275     13.3499E-03     107.618E-03    -4.41995E+06    -3.48780E+06     20.8128E+06    -13.9814E+06    -18.1695E-03     29.6049E-03    -11.4353E-03     88.4830E-03    -18.2529E-03     29.5999E-03    -11.3198E-03     88.2753E-03
            1276     14.2338E-03     107.702E-03    -8.89431E+06    -3.52438E+06     15.8211E+06    -18.2709E+06    -22.1875E-03     34.0213E-03    -11.8338E-03     97.4420E-03    -22.3270E-03     34.0710E-03    -11.7367E-03     97.1542E-03
            1277     15.1140E-03     107.797E-03    -10.4034E+06    -17.6479E+06     10.6229E+06    -23.2775E+06    -27.5322E-03     39.9559E-03    -12.4237E-03     120.332E-03    -27.7937E-03     40.0872E-03    -12.3299E-03     119.932E-03
            1278     15.9898E-03     107.922E-03    -8.64392E+06    -46.3512E+06    -14.7191E+06    -20.5604E+06    -33.8504E-03     46.9403E-03    -13.0900E-03     156.467E-03    -34.6073E-03     47.5451E-03    -13.0838E-03     156.095E-03
            1279     16.8650E-03     108.085E-03    -4.47741E+06     32.8193E+06     22.6741E+06    -10.6897E+06    -38.3439E-03     52.3790E-03    -14.0351E-03     179.599E-03    -40.4082E-03     54.4786E-03    -13.9628E-03     180.112E-03
            1280     890.413E-06     108.144E-03    -15.6563E+06    -16.7955E+06    -15.0259E+06    -3.26597E+06    -10.8413E-03     21.6558E-03    -10.8146E-03     2.92029E-03    -10.8734E-03     21.6164E-03    -10.8426E-03     2.87786E-03
            1281     1.78071E-03     108.148E-03    -15.4759E+06    -15.9568E+06    -14.1390E+06    -6.08672E+06    -10.8867E-03     21.7297E-03    -10.8431E-03     5.38936E-03    -10.9205E-03     21.6929E-03    -10.8682E-03     5.31029E-03
            1282     2.67105E-03     108.155E-03    -15.5115E+06    -15.1738E+06    -12.3427E+06    -8.82019E+06    -10.9602E-03     21.8372E-03    -10.8770E-03     8.04206E-03    -10.9980E-03     21.8018E-03    -10.8942E-03     7.92743E-03
            1283     3.56124E-03     108.165E-03    -15.8675E+06    -14.3253E+06    -10.2442E+06    -11.3504E+06    -11.0496E-03     21.9686E-03    -10.9190E-03     10.8069E-03    -11.0936E-03     21.9351E-03    -10.9264E-03     10.6593E-03
            1284     4.45139E-03     108.178E-03    -16.5446E+06    -13.2925E+06    -8.39273E+06    -13.5666E+06    -11.1361E-03     22.0995E-03    -10.9633E-03     13.7325E-03    -11.1878E-03     22.0695E-03    -10.9620E-03     13.5559E-03
            1285     5.34152E-03     108.195E-03    -16.9295E+06    -12.2819E+06    -6.19582E+06    -15.7173E+06    -11.2101E-03     22.2187E-03    -11.0086E-03     16.8980E-03    -11.2685E-03     22.1913E-03    -10.9972E-03     16.6934E-03
            1286     6.23152E-03     108.215E-03    -17.1026E+06    -10.6411E+06    -3.66906E+06    -17.8720E+06    -11.2466E-03     22.2961E-03    -11.0495E-03     20.4247E-03    -11.3122E-03     22.2738E-03    -11.0276E-03     20.1919E-03
            1287     7.12162E-03     108.239E-03    -17.8060E+06    -8.97804E+06    -2.54224E+06    -19.3217E+06    -11.1951E-03     22.2672E-03    -11.0721E-03     24.4960E-03    -11.2684E-03     22.2528E-03    -11.0460E-03     24.2443E-03
            1288     8.01172E-03     108.267E-03    -18.0263E+06    -5.75293E+06    -3.21111E+06    -19.2117E+06    -11.0737E-03     22.1378E-03    -11.0641E-03     29.2960E-03    -11.1521E-03     22.1410E-03    -11.0457E-03     29.0457E-03
            1289     8.90239E-03     108.301E-03    -15.2040E+06    -3.38870E+06    -831.148E+03    -16.7845E+06    -11.0433E-03     22.0958E-03    -11.0525E-03     35.0584E-03    -11.1146E-03     22.1035E-03    -11.0297E-03     34.8394E-03
            1290     9.79289E-03     108.342E-03    -9.71429E+06    -1.92361E+06     6.45270E+06    -13.2683E+06    -11.2718E-03     22.3346E-03    -11.0628E-03     42.1237E-03    -11.3288E-03     22.3315E-03    -11.0137E-03     41.9501E-03
            1291     10.6834E-03     108.389E-03    -4.10423E+06    -387.175E+03     15.8034E+06    -10.1631E+06    -11.9629E-03     23.0708E-03    -11.1079E-03     50.8511E-03    -12.0084E-03     23.0546E-03    -11.0224E-03     50.7168E-03
            1292     11.5725E-03     108.446E-03    -131.193E+03    -1.09340E+06     23.6515E+06    -6.91307E+06    -13.1975E-03     24.4001E-03    -11.2026E-03     61.4252E-03    -13.2361E-03     24.3658E-03    -11.0826E-03     61.3305E-03
            1293     12.4616E-03     108.512E-03    -358.516E+03     2.33430E+06     27.8338E+06    -6.37130E+06    -14.9930E-03     26.3438E-03    -11.3508E-03     74.6668E-03    -15.0511E-03     26.3282E-03    -11.2145E-03     74.5735E-03
            1294     13.3481E-03     108.592E-03    -3.57809E+06     1.50718E+06     27.1292E+06    -8.91665E+06    -17.5762E-03     29.1586E-03    -11.5823E-03     86.4360E-03    -17.6629E-03     29.1593E-03    -11.4437E-03     86.2990E-03
            1295     14.2330E-03     108.680E-03    -6.66862E+06     3.48865E+06     23.8574E+06    -11.5289E+06    -21.1616E-03     33.0918E-03    -11.9302E-03     97.3419E-03    -21.2959E-03     33.1458E-03    -11.8063E-03     97.1498E-03
            1296     15.1146E-03     108.780E-03    -10.9556E+06    -9.10085E+06     16.5838E+06    -19.2856E+06    -26.4392E-03     38.8844E-03    -12.4452E-03     120.578E-03    -26.6843E-03     39.0104E-03    -12.3332E-03     120.238E-03
            1297     15.9939E-03     108.910E-03    -12.8777E+06    -51.0581E+06    -12.1349E+06    -25.0322E+06    -33.6739E-03     46.7459E-03    -13.0720E-03     159.818E-03    -34.3324E-03     47.2129E-03    -13.0399E-03     159.354E-03
            1298     16.8607E-03     109.083E-03    -4.90691E+06     16.9994E+06     15.9463E+06    -15.6062E+06    -38.6877E-03     52.6465E-03    -13.9588E-03     185.440E-03    -40.5856E-03     54.5415E-03    -13.8966E-03     185.713E-03
            1299     889.742E-06     109.113E-03    -2.09865E+06    -10.8275E+06    -1.99849E+06    -2.96601E+06    -11.6083E-03     23.1665E-03    -11.5582E-03     2.49319E-03    -11.6002E-03     23.1183E-03    -11.5494E-03     2.45453E-03
            1300     1.77951E-03     109.117E-03    -2.51326E+06    -10.3584E+06    -1.02767E+06    -5.08537E+06    -11.6523E-03     23.2542E-03    -11.6019E-03     4.58750E-03    -11.6485E-03     23.2076E-03    -11.5883E-03     4.52116E-03
            1301     2.66913E-03     109.125E-03    -3.08875E+06    -9.77820E+06     134.694E+03    -7.15468E+06    -11.7402E-03     23.3807E-03    -11.6406E-03     6.84352E-03    -11.7418E-03     23.3362E-03    -11.6212E-03     6.75010E-03
            1302     3.55871E-03     109.135E-03    -3.72645E+06    -9.26181E+06     1.32932E+06    -9.14022E+06    -11.8474E-03     23.5351E-03    -11.6877E-03     9.18375E-03    -11.8548E-03     23.4925E-03    -11.6623E-03     9.06430E-03
            1303     4.44820E-03     109.148E-03    -4.27249E+06    -8.57746E+06     3.17219E+06    -10.9996E+06    -11.9679E-03     23.7118E-03    -11.7440E-03     11.6505E-03    -11.9818E-03     23.6709E-03    -11.7095E-03     11.5066E-03
            1304     5.33751E-03     109.165E-03    -5.19956E+06    -7.55165E+06     5.35990E+06    -12.8183E+06    -12.0786E-03     23.8838E-03    -11.8053E-03     14.3237E-03    -12.1020E-03     23.8464E-03    -11.7600E-03     14.1559E-03
            1305     6.22685E-03     109.185E-03    -6.77638E+06    -6.39771E+06     7.21218E+06    -14.3157E+06    -12.1445E-03     24.0080E-03    -11.8635E-03     17.3184E-03    -12.1805E-03     23.9762E-03    -11.8084E-03     17.1309E-03
            1306     7.11602E-03     109.209E-03    -8.30958E+06    -5.39592E+06     9.00670E+06    -15.5888E+06    -12.1467E-03     24.0596E-03    -11.9129E-03     20.7617E-03    -12.1947E-03     24.0327E-03    -11.8480E-03     20.5573E-03
            1307     8.00553E-03     109.237E-03    -9.66134E+06    -4.12628E+06     10.5759E+06    -16.3439E+06    -12.0645E-03     24.0098E-03    -11.9454E-03     24.8525E-03    -12.1236E-03     23.9893E-03    -11.8725E-03     24.6381E-03
            1308     8.89478E-03     109.271E-03    -11.6198E+06    -4.13265E+06     10.4057E+06    -16.1232E+06    -11.8797E-03     23.8299E-03    -11.9502E-03     29.7874E-03    -11.9487E-03     23.8126E-03    -11.8753E-03     29.5758E-03
            1309     9.78484E-03     109.311E-03    -12.8578E+06    -3.62433E+06     10.2677E+06    -14.7993E+06    -11.7333E-03     23.6653E-03    -11.9319E-03     35.9203E-03    -11.8093E-03     23.6528E-03    -11.8567E-03     35.7259E-03
            1310     10.6748E-03     109.359E-03    -11.5717E+06    -2.45155E+06     14.2514E+06    -12.7059E+06    -11.8915E-03     23.8146E-03    -11.9231E-03     43.9592E-03    -11.9688E-03     23.8007E-03    -11.8315E-03     43.7919E-03
            1311     11.5652E-03     109.416E-03    -6.52995E+06    -4.31062E+06     21.4411E+06    -10.3474E+06    -12.6719E-03     24.6241E-03    -11.9522E-03     54.3623E-03    -12.7330E-03     24.5845E-03    -11.8292E-03     54.2246E-03
            1312     12.4537E-03     109.484E-03     103.540E+03     547.177E+03     29.9270E+06    -5.89859E+06    -14.2488E-03     26.2825E-03    -12.0337E-03     67.9852E-03    -14.3000E-03     26.2493E-03    -11.8850E-03     67.9017E-03
            1313     13.3415E-03     109.566E-03     2.62886E+06     5.19019E+06     34.6992E+06    -3.62752E+06    -16.4222E-03     28.6106E-03    -12.1884E-03     81.1525E-03    -16.4839E-03     28.5995E-03    -12.0262E-03     81.0907E-03
            1314     14.2269E-03     109.657E-03     1.90439E+06     7.15003E+06     34.1678E+06    -6.09612E+06    -19.7204E-03     32.1642E-03    -12.4438E-03     93.9434E-03    -19.8126E-03     32.1897E-03    -12.2861E-03     93.8326E-03
            1315     15.1100E-03     109.760E-03    -981.442E+03     3.37948E+06     30.9998E+06    -10.5145E+06    -24.9570E-03     37.8169E-03    -12.8599E-03     118.388E-03    -25.1466E-03     37.9255E-03    -12.7084E-03     118.176E-03
            1316     15.9865E-03     109.897E-03    -5.55572E+06    -41.1917E+06     2.68532E+06    -21.0696E+06    -31.2551E-03     44.6304E-03    -13.3753E-03     157.467E-03    -31.7490E-03     44.9504E-03    -13.2941E-03     157.066E-03
            1317     16.8714E-03     110.072E-03    -13.4986E+06       66.99E+03     3.00582E+06    -23.5713E+06    -35.6027E-03     49.6310E-03    -14.0283E-03     184.806E-03    -37.1778E-03     51.1502E-03    -13.9938E-03     184.817E-03
            1318     888.732E-06     110.084E-03     6.91342E+06    -6.12456E+06     7.80218E+06    -2.17423E+06    -12.8263E-03     25.6276E-03    -12.8013E-03     1.97671E-03    -12.7943E-03     25.5756E-03    -12.7634E-03     1.94818E-03
            1319     1.77736E-03     110.089E-03     6.44326E+06    -5.96947E+06     7.95762E+06    -3.70011E+06    -12.8919E-03     25.7269E-03    -12.8350E-03     3.64960E-03    -12.8627E-03     25.6762E-03    -12.7959E-03     3.60095E-03
            1320     2.66597E-03     110.096E-03     5.81705E+06    -5.64202E+06     8.66979E+06    -5.31804E+06    -12.9999E-03     25.8793E-03    -12.8794E-03     5.41569E-03    -12.9754E-03     25.8302E-03    -12.8364E-03     5.34570E-03
            1321     3.55445E-03     110.107E-03     5.06247E+06    -5.25722E+06     9.99066E+06    -6.87248E+06    -13.1354E-03     26.0745E-03    -12.9391E-03     7.24790E-03    -13.1173E-03     26.0265E-03    -12.8889E-03     7.15735E-03
            1322     4.44274E-03     110.120E-03     3.99360E+06    -4.87684E+06     11.5103E+06    -8.27924E+06    -13.2881E-03     26.2980E-03    -13.0099E-03     9.18763E-03    -13.2782E-03     26.2514E-03    -12.9511E-03     9.07838E-03
            1323     5.33098E-03     110.137E-03     2.74449E+06    -4.03692E+06     13.1920E+06    -9.37422E+06    -13.4407E-03     26.5285E-03    -13.0878E-03     11.2892E-03    -13.4409E-03     26.4856E-03    -13.0200E-03     11.1653E-03
            1324     6.21896E-03     110.157E-03     1.64112E+06    -3.26018E+06     15.8095E+06    -10.4081E+06    -13.5924E-03     26.7665E-03    -13.1741E-03     13.6111E-03    -13.6033E-03     26.7255E-03    -13.0927E-03     13.4732E-03
            1325     7.10705E-03     110.181E-03     321.080E+03    -2.42627E+06     18.8904E+06    -11.2885E+06    -13.7296E-03     26.9941E-03    -13.2645E-03     16.2515E-03    -13.7531E-03     26.9551E-03    -13.1670E-03     16.1016E-03
            1326     7.99466E-03     110.209E-03    -1.63626E+06    -2.36013E+06     20.9935E+06    -11.5292E+06    -13.7956E-03     27.1441E-03    -13.3485E-03     19.3718E-03    -13.8325E-03     27.1056E-03    -13.2377E-03     19.2183E-03
            1327     8.88282E-03     110.243E-03    -3.13590E+06    -2.81637E+06     22.4482E+06    -11.4639E+06    -13.7644E-03     27.1823E-03    -13.4180E-03     23.1606E-03    -13.8105E-03     27.1419E-03    -13.2971E-03     23.0075E-03
            1328     9.77056E-03     110.282E-03    -3.65754E+06    -3.25411E+06     23.7590E+06    -11.7484E+06    -13.6288E-03     27.0955E-03    -13.4667E-03     27.9869E-03    -13.6793E-03     27.0521E-03    -13.3378E-03     27.8300E-03
            1329     10.6589E-03     110.329E-03    -3.77216E+06    -3.34382E+06     25.0065E+06    -11.3214E+06    -13.4183E-03     26.9089E-03    -13.4905E-03     34.3751E-03    -13.4715E-03     26.8637E-03    -13.3552E-03     34.2238E-03
            1330     11.5475E-03     110.386E-03    -4.08933E+06    -4.64255E+06     26.8992E+06    -11.2116E+06    -13.5164E-03     27.0227E-03    -13.5063E-03     43.1958E-03    -13.5725E-03     26.9693E-03    -13.3592E-03     43.0459E-03
            1331     12.4367E-03     110.455E-03    -1.05228E+06    -5.15014E+06     30.6596E+06    -9.83651E+06    -13.8554E-03     27.3821E-03    -13.5267E-03     55.2610E-03    -13.9020E-03     27.3175E-03    -13.3644E-03     55.1285E-03
            1332     13.3249E-03     110.538E-03     6.80222E+06     2.65441E+06     38.0747E+06    -5.25322E+06    -14.7695E-03     28.3332E-03    -13.5637E-03     68.5730E-03    -14.8024E-03     28.2894E-03    -13.3871E-03     68.4970E-03
            1333     14.2127E-03     110.631E-03     11.4975E+06     9.48364E+06     45.2421E+06    -3.03030E+06    -17.4487E-03     31.1301E-03    -13.6814E-03     83.3421E-03    -17.4926E-03     31.1175E-03    -13.4856E-03     83.2836E-03
            1334     15.0958E-03     110.741E-03     11.1991E+06     9.55664E+06     48.9390E+06    -3.47167E+06    -22.6145E-03     36.5741E-03    -13.9596E-03     109.059E-03    -22.7282E-03     36.6198E-03    -13.7450E-03     108.958E-03
            1335     15.9795E-03     110.879E-03     3.26918E+06    -19.6873E+06     28.2330E+06    -10.7256E+06    -29.0408E-03     43.4008E-03    -14.3600E-03     146.315E-03    -29.3629E-03     43.5830E-03    -14.1950E-03     146.061E-03
            1336     16.8478E-03     111.057E-03     241.574E+03    -5.99045E+06     6.85194E+06    -19.6755E+06    -26.0014E-03     40.6299E-03    -14.6285E-03     172.964E-03    -26.9046E-03     41.4943E-03    -14.5859E-03     172.920E-03
            1337     887.144E-06     111.059E-03     12.5585E+06    -2.98940E+06     13.3463E+06    -938.433E+03    -14.6439E-03     29.2225E-03    -14.5786E-03     1.42355E-03    -14.5963E-03     29.1699E-03    -14.5258E-03     1.41093E-03
            1338     1.77428E-03     111.063E-03     12.2803E+06    -2.78394E+06     13.8305E+06    -2.38950E+06    -14.7328E-03     29.3770E-03    -14.6442E-03     2.48531E-03    -14.6877E-03     29.3251E-03    -14.5888E-03     2.45348E-03
            1339     2.66126E-03     111.071E-03     11.8425E+06    -2.62732E+06     14.8944E+06    -3.59566E+06    -14.8554E-03     29.5626E-03    -14.7073E-03     3.63178E-03    -14.8142E-03     29.5106E-03    -14.6461E-03     3.58387E-03
            1340     3.54809E-03     111.081E-03     11.2000E+06    -2.49342E+06     16.4515E+06    -4.55229E+06    -15.0139E-03     29.7971E-03    -14.7833E-03     4.85465E-03    -14.9785E-03     29.7446E-03    -14.7136E-03     4.79385E-03
            1341     4.43480E-03     111.095E-03     10.4755E+06    -2.22108E+06     18.2941E+06    -5.42014E+06    -15.2154E-03     30.0891E-03    -14.8737E-03     6.15524E-03    -15.1868E-03     30.0363E-03    -14.7942E-03     6.08265E-03
            1342     5.32122E-03     111.112E-03     9.80066E+06    -1.71990E+06     21.1247E+06    -6.27023E+06    -15.4758E-03     30.4604E-03    -14.9846E-03     7.54476E-03    -15.4556E-03     30.4071E-03    -14.8907E-03     7.46053E-03
            1343     6.20754E-03     111.132E-03     8.94417E+06    -1.06970E+06     24.6688E+06    -6.80241E+06    -15.7970E-03     30.9150E-03    -15.1179E-03     9.05171E-03    -15.7874E-03     30.8612E-03    -15.0060E-03     8.95987E-03
            1344     7.09322E-03     111.156E-03     7.84996E+06    -972.174E+03     27.9964E+06    -6.89868E+06    -16.1500E-03     31.4202E-03    -15.2702E-03     10.7329E-03    -16.1511E-03     31.3639E-03    -15.1401E-03     10.6390E-03
            1345     7.97903E-03     111.185E-03     7.06622E+06    -993.040E+03     31.0348E+06    -7.00108E+06    -16.5012E-03     31.9372E-03    -15.4359E-03     12.6628E-03    -16.5109E-03     31.8777E-03    -15.2896E-03     12.5667E-03
            1346     8.86396E-03     111.218E-03     6.49157E+06    -1.57337E+06     33.2590E+06    -7.36740E+06    -16.7932E-03     32.4002E-03    -15.6069E-03     15.0433E-03    -16.8086E-03     32.3357E-03    -15.4478E-03     14.9414E-03
            1347     9.74916E-03     111.258E-03     5.57223E+06    -1.68334E+06     34.8980E+06    -7.73447E+06    -16.9967E-03     32.7726E-03    -15.7759E-03     18.1750E-03    -17.0195E-03     32.7069E-03    -15.6070E-03     18.0676E-03
            1348     10.6339E-03     111.304E-03     5.07514E+06    -3.00739E+06     36.2237E+06    -8.22382E+06    -17.1792E-03     33.1214E-03    -15.9421E-03     22.3080E-03    -17.2051E-03     33.0482E-03    -15.7640E-03     22.1934E-03
            1349     11.5190E-03     111.360E-03     5.74560E+06    -3.30992E+06     37.5476E+06    -8.20310E+06    -17.0094E-03     33.1002E-03    -16.0908E-03     28.0710E-03    -17.0341E-03     33.0231E-03    -15.9066E-03     27.9565E-03
            1350     12.4036E-03     111.428E-03     5.98134E+06    -5.78570E+06     37.7217E+06    -9.52966E+06    -16.1286E-03     32.3165E-03    -16.1879E-03     35.8058E-03    -16.1492E-03     32.2267E-03    -15.9996E-03     35.6749E-03
            1351     13.2916E-03     111.508E-03     8.06180E+06    -2.05133E+06     41.3397E+06    -10.0312E+06    -14.9087E-03     31.1203E-03    -16.2116E-03     45.8387E-03    -14.9299E-03     31.0416E-03    -16.0136E-03     45.7022E-03
            1352     14.1787E-03     111.605E-03     13.4257E+06     7.11402E+06     51.2354E+06    -5.07003E+06    -14.9433E-03     31.1489E-03    -16.2056E-03     60.0308E-03    -14.9692E-03     31.0988E-03    -15.9793E-03     59.9556E-03
            1353     15.0667E-03     111.715E-03     17.2371E+06     7.89532E+06     56.6740E+06    -30.4722E+03    -19.1085E-03     35.3841E-03    -16.2756E-03     87.4119E-03    -19.1520E-03     35.3532E-03    -16.0287E-03     87.3813E-03
            1354     15.9438E-03     111.862E-03     16.5863E+06    -3.88701E+06     50.0120E+06    -2.77779E+06    -22.8673E-03     39.3010E-03    -16.4337E-03     124.628E-03    -22.9921E-03     39.3274E-03    -16.2021E-03     124.522E-03
            1355     16.8309E-03     112.038E-03     14.8638E+06    -2.55158E+06     27.2556E+06    -8.09727E+06    -10.7558E-03     26.9296E-03    -16.1738E-03     139.037E-03    -11.0286E-03     27.1699E-03    -16.0554E-03     139.012E-03
            1356     885.072E-06     112.037E-03     18.1545E+06    -1.14713E+06     17.6348E+06    -746.598E+03    -17.1677E-03     34.3935E-03    -17.2258E-03     461.602E-06    -17.1012E-03     34.3356E-03    -17.1623E-03     451.570E-06
            1357     1.76985E-03     112.042E-03     17.5148E+06    -814.614E+03     18.9744E+06    -1.28826E+06    -17.3034E-03     34.5341E-03    -17.2307E-03     847.256E-06    -17.2426E-03     34.4768E-03    -17.1600E-03     829.843E-06
            1358     2.65457E-03     112.050E-03     17.1401E+06    -814.904E+03     20.6576E+06    -1.85623E+06    -17.4437E-03     34.7428E-03    -17.2992E-03     1.27736E-03    -17.3871E-03     34.6836E-03    -17.2196E-03     1.25221E-03
            1359     3.53918E-03     112.060E-03     16.6935E+06    -890.458E+03     22.4693E+06    -2.35248E+06    -17.6557E-03     35.0454E-03    -17.3898E-03     1.74137E-03    -17.6040E-03     34.9839E-03    -17.3003E-03     1.70937E-03
            1360     4.42347E-03     112.074E-03     16.2176E+06    -658.671E+03     25.5861E+06    -2.81321E+06    -17.9737E-03     35.4886E-03    -17.5149E-03     2.22052E-03    -17.9293E-03     35.4243E-03    -17.4095E-03     2.18208E-03
            1361     5.30755E-03     112.091E-03     15.6054E+06    -318.835E+03     29.1742E+06    -3.14757E+06    -18.4137E-03     36.0917E-03    -17.6780E-03     2.70728E-03    -18.3782E-03     36.0248E-03    -17.5543E-03     2.66396E-03
            1362     6.19088E-03     112.112E-03     14.9516E+06    -268.413E+03     32.5928E+06    -3.14016E+06    -18.9726E-03     36.8532E-03    -17.8806E-03     3.21553E-03    -18.9455E-03     36.7826E-03    -17.7389E-03     3.17164E-03
            1363     7.07402E-03     112.137E-03     14.5271E+06    -211.800E+03     36.2061E+06    -3.10855E+06    -19.6517E-03     37.7776E-03    -18.1260E-03     3.73960E-03    -19.6321E-03     37.7027E-03    -17.9657E-03     3.69531E-03
            1364     7.95591E-03     112.166E-03     14.1053E+06    -313.725E+03     39.2295E+06    -3.13866E+06    -20.4083E-03     38.8189E-03    -18.4106E-03     4.31478E-03    -20.3954E-03     38.7397E-03    -18.2344E-03     4.26913E-03
            1365     8.83758E-03     112.200E-03     13.5208E+06    -456.621E+03     41.6303E+06    -3.31448E+06    -21.2443E-03     39.9772E-03    -18.7329E-03     5.04621E-03    -21.2378E-03     39.8947E-03    -18.5437E-03     4.99715E-03
            1366     9.71802E-03     112.240E-03     13.0287E+06    -923.220E+03     43.6669E+06    -3.46686E+06    -22.2345E-03     41.3331E-03    -19.0986E-03     6.00951E-03    -22.2333E-03     41.2460E-03    -18.8978E-03     5.95712E-03
            1367     10.5977E-03     112.287E-03     12.1763E+06    -874.893E+03     44.9339E+06    -4.20044E+06    -23.1106E-03     42.6125E-03    -19.5019E-03     7.41698E-03    -23.1161E-03     42.5251E-03    -19.2936E-03     7.35369E-03
            1368     11.4755E-03     112.343E-03     10.8391E+06    -3.07467E+06     44.8365E+06    -4.88892E+06    -23.3085E-03     43.2197E-03    -19.9113E-03     9.42566E-03    -23.3179E-03     43.1234E-03    -19.6984E-03     9.35252E-03
            1369     12.3550E-03     112.408E-03     9.73263E+06    -1.64020E+06     46.7633E+06    -5.98204E+06    -22.2239E-03     42.4936E-03    -20.2697E-03     12.3408E-03    -22.2443E-03     42.4033E-03    -20.0476E-03     12.2535E-03
            1370     13.2330E-03     112.487E-03     6.53650E+06    -2.04812E+06     48.2899E+06    -7.20756E+06    -19.7324E-03     40.2367E-03    -20.5043E-03     16.7840E-03    -19.7710E-03     40.1467E-03    -20.2694E-03     16.6818E-03
            1371     14.1176E-03     112.576E-03     4.59160E+06     549.553E+03     45.1040E+06    -6.47870E+06    -18.0299E-03     38.6219E-03    -20.5919E-03     24.9218E-03    -18.0787E-03     38.5518E-03    -20.3739E-03     24.8296E-03
            1372     15.0023E-03     112.689E-03     5.89597E+06     440.316E+03     47.3760E+06    -2.04852E+06    -18.7338E-03     39.4381E-03    -20.7043E-03     43.8447E-03    -18.7865E-03     39.3684E-03    -20.4766E-03     43.8040E-03
            1373     15.8895E-03     112.837E-03     10.0277E+06     2.74706E+06     56.2698E+06    -1.49661E+06    -12.4240E-03     33.1176E-03    -20.6936E-03     64.7133E-03    -12.4912E-03     33.0652E-03    -20.4308E-03     64.6737E-03
            1374     16.7796E-03     112.998E-03     3.21778E+06     4.28539E+06     36.9835E+06    -1.87571E+06     2.87397E-03     17.1204E-03    -19.9944E-03     61.1763E-03     2.79576E-03     17.1171E-03    -19.8204E-03     61.1490E-03
            1375     16.8369E-03     56.1526E-03    -3.19821E+06     153.205E+06     37.5254E+06     590.868E+03    -19.0673E-03     34.5777E-03    -15.5105E-03     163.079E-03    -21.5596E-03     37.4937E-03    -15.5403E-03     164.893E-03
            1376     15.9495E-03     56.0035E-03    -4.15632E+06     93.3189E+06    -11.0005E+06     436.871E+03    -18.9593E-03     34.3494E-03    -15.3900E-03     133.905E-03    -20.1764E-03     35.9149E-03    -15.5743E-03     134.251E-03
            1377     15.0627E-03     55.9033E-03    -3.95394E+06     36.8469E+06    -6.27192E+06    -141.748E+03    -17.2020E-03     32.7089E-03    -15.5069E-03     86.6339E-03    -17.4760E-03     33.1179E-03    -15.5860E-03     86.6082E-03
            1378     14.1776E-03     55.8411E-03    -4.22035E+06    -5.98592E+06    -6.50819E+06    -196.890E+03    -16.4314E-03     32.0066E-03    -15.5752E-03     61.8023E-03    -16.5080E-03     32.0658E-03    -15.5929E-03     61.7600E-03
            1379     13.2907E-03     55.7878E-03    -4.22598E+06    -29.0530E+06    -6.96366E+06     165.427E+03    -16.3874E-03     31.9987E-03    -15.6113E-03     58.4648E-03    -16.4023E-03     31.9156E-03    -15.5978E-03     58.4309E-03
            1380     12.4050E-03     55.7330E-03    -3.99846E+06    -31.7887E+06     1.74290E+06     236.352E+03    -16.2817E-03     31.9463E-03    -15.6646E-03     54.9566E-03    -16.2868E-03     31.8193E-03    -15.6040E-03     54.9312E-03
            1381     11.5186E-03     55.6859E-03    -4.19940E+06    -37.4105E+06     2.15308E+06     321.024E+03    -16.1345E-03     31.8167E-03    -15.6822E-03     48.2044E-03    -16.1213E-03     31.6495E-03    -15.6111E-03     48.1870E-03
            1382     10.6327E-03     55.6430E-03    -4.55330E+06    -49.0906E+06     751.617E+03     311.894E+03    -16.0941E-03     31.7924E-03    -15.6984E-03     43.7958E-03    -16.0575E-03     31.5632E-03    -15.6168E-03     43.7833E-03
            1383     9.74651E-03     55.6044E-03    -5.22616E+06    -53.0104E+06     3.79563E+06     163.024E+03    -16.0158E-03     31.7408E-03    -15.7249E-03     39.7275E-03    -15.9775E-03     31.4847E-03    -15.6215E-03     39.7171E-03
            1384     8.86047E-03     55.5691E-03    -6.05808E+06    -53.1078E+06     3.84141E+06     204.747E+03    -15.9581E-03     31.6885E-03    -15.7304E-03     35.5781E-03    -15.9214E-03     31.4307E-03    -15.6255E-03     35.5713E-03
            1385     7.97438E-03     55.5381E-03    -7.10547E+06    -56.0545E+06     3.22733E+06     266.018E+03    -15.8853E-03     31.6221E-03    -15.7369E-03     31.4574E-03    -15.8471E-03     31.3504E-03    -15.6292E-03     31.4536E-03
            1386     7.08831E-03     55.5106E-03    -8.34140E+06    -57.4416E+06     2.05484E+06     310.520E+03    -15.8275E-03     31.5668E-03    -15.7393E-03     27.4453E-03    -15.7908E-03     31.2907E-03    -15.6337E-03     27.4438E-03
            1387     6.20223E-03     55.4870E-03    -9.69482E+06    -57.8913E+06     280.597E+03     277.645E+03    -15.7836E-03     31.5214E-03    -15.7378E-03     23.5613E-03    -15.7499E-03     31.2469E-03    -15.6384E-03     23.5606E-03
            1388     5.31619E-03     55.4667E-03    -11.2777E+06    -59.4030E+06    -1.65465E+06     197.840E+03    -15.7484E-03     31.4857E-03    -15.7373E-03     19.8342E-03    -15.7171E-03     31.2083E-03    -15.6431E-03     19.8334E-03
            1389     4.43012E-03     55.4501E-03    -12.9021E+06    -60.4999E+06    -4.30875E+06     192.567E+03    -15.7209E-03     31.4538E-03    -15.7328E-03     16.2735E-03    -15.6920E-03     31.1768E-03    -15.6480E-03     16.2733E-03
            1390     3.54409E-03     55.4364E-03    -14.5689E+06    -62.0015E+06    -7.70693E+06     164.915E+03    -15.7052E-03     31.4305E-03    -15.7253E-03     12.8674E-03    -15.6772E-03     31.1531E-03    -15.6528E-03     12.8675E-03
            1391     2.65805E-03     55.4261E-03    -16.2075E+06    -63.3760E+06    -11.6182E+06     153.062E+03    -15.6968E-03     31.4114E-03    -15.7146E-03     9.58954E-03    -15.6693E-03     31.1350E-03    -15.6573E-03     9.59004E-03
            1392     1.77203E-03     55.4186E-03    -17.6155E+06    -64.4780E+06    -15.3490E+06     116.882E+03    -15.6954E-03     31.3980E-03    -15.7026E-03     6.42936E-03    -15.6678E-03     31.1235E-03    -15.6603E-03     6.42990E-03
            1393     886.002E-06     55.4141E-03    -18.5601E+06    -65.4859E+06    -17.9225E+06     74.9908E+03    -15.6987E-03     31.3865E-03    -15.6878E-03     3.47256E-03    -15.6706E-03     31.1120E-03    -15.6555E-03     3.47301E-03
            1394     16.8343E-03     55.1739E-03    -2.97483E+06     153.111E+06     37.6122E+06     512.271E+03    -19.1111E-03     34.6010E-03    -15.4900E-03     162.047E-03    -21.5903E-03     37.5042E-03    -15.5196E-03     163.844E-03
            1395     15.9492E-03     55.0249E-03    -3.85276E+06     93.4352E+06    -10.9630E+06    -137.251E+03    -18.7783E-03     34.1457E-03    -15.3674E-03     132.810E-03    -19.9849E-03     35.7021E-03    -15.5521E-03     133.154E-03
            1396     15.0646E-03     54.9245E-03    -3.57452E+06     37.0573E+06    -6.00873E+06     294.904E+03    -17.1934E-03     32.6802E-03    -15.4868E-03     86.4445E-03    -17.4661E-03     33.0892E-03    -15.5654E-03     86.4243E-03
            1397     14.1772E-03     54.8638E-03    -3.35609E+06    -6.14101E+06    -6.34943E+06     204.964E+03    -16.2521E-03     31.8112E-03    -15.5590E-03     61.8758E-03    -16.3241E-03     31.8678E-03    -15.5770E-03     61.8393E-03
            1398     13.2912E-03     54.8094E-03    -3.35071E+06    -29.0904E+06    -6.43819E+06     37.6991E+03    -16.3009E-03     31.9054E-03    -15.6045E-03     58.2365E-03    -16.3119E-03     31.8199E-03    -15.5897E-03     58.2011E-03
            1399     12.4048E-03     54.7548E-03    -4.11985E+06    -31.7566E+06     1.78378E+06     173.555E+03    -16.3095E-03     31.9673E-03    -15.6577E-03     54.6829E-03    -16.3153E-03     31.8405E-03    -15.5968E-03     54.6566E-03
            1400     11.5191E-03     54.7075E-03    -4.52746E+06    -37.3266E+06     2.04639E+06     139.314E+03    -16.1417E-03     31.8141E-03    -15.6725E-03     48.1613E-03    -16.1301E-03     31.6480E-03    -15.6016E-03     48.1415E-03
            1401     10.6327E-03     54.6652E-03    -4.67509E+06    -48.8291E+06     913.696E+03     183.662E+03    -16.0599E-03     31.7497E-03    -15.6898E-03     43.8634E-03    -16.0245E-03     31.5217E-03    -15.6076E-03     43.8493E-03
            1402     9.74664E-03     54.6259E-03    -5.13868E+06    -52.9178E+06     3.73675E+06     120.254E+03    -16.0217E-03     31.7373E-03    -15.7156E-03     39.7515E-03    -15.9830E-03     31.4816E-03    -15.6127E-03     39.7406E-03
            1403     8.86055E-03     54.5911E-03    -6.10356E+06    -53.2144E+06     3.68980E+06     208.486E+03    -15.9334E-03     31.6547E-03    -15.7213E-03     35.5649E-03    -15.8966E-03     31.3966E-03    -15.6169E-03     35.5583E-03
            1404     7.97444E-03     54.5597E-03    -7.22277E+06    -55.9562E+06     3.17198E+06     323.133E+03    -15.8741E-03     31.6031E-03    -15.7290E-03     31.4594E-03    -15.8366E-03     31.3322E-03    -15.6215E-03     31.4565E-03
            1405     7.08837E-03     54.5325E-03    -8.51300E+06    -57.3728E+06     1.97260E+06     317.746E+03    -15.8252E-03     31.5564E-03    -15.7312E-03     27.4380E-03    -15.7894E-03     31.2810E-03    -15.6258E-03     27.4366E-03
            1406     6.20229E-03     54.5086E-03    -9.92499E+06    -57.6839E+06     163.820E+03     296.369E+03    -15.7756E-03     31.5045E-03    -15.7289E-03     23.5533E-03    -15.7431E-03     31.2315E-03    -15.6300E-03     23.5528E-03
            1407     5.31622E-03     54.4886E-03    -11.4295E+06    -59.2381E+06    -1.77122E+06     216.672E+03    -15.7409E-03     31.4689E-03    -15.7280E-03     19.8233E-03    -15.7104E-03     31.1927E-03    -15.6344E-03     19.8227E-03
            1408     4.43017E-03     54.4717E-03    -13.1233E+06    -60.3970E+06    -4.49050E+06     143.893E+03    -15.7135E-03     31.4365E-03    -15.7230E-03     16.2640E-03    -15.6856E-03     31.1606E-03    -15.6388E-03     16.2632E-03
            1409     3.54412E-03     54.4583E-03    -14.8245E+06    -61.8784E+06    -7.99130E+06     133.969E+03    -15.6964E-03     31.4108E-03    -15.7144E-03     12.8575E-03    -15.6695E-03     31.1348E-03    -15.6431E-03     12.8572E-03
            1410     2.65808E-03     54.4478E-03    -16.4046E+06    -63.3066E+06    -11.8075E+06     151.696E+03    -15.6875E-03     31.3911E-03    -15.7036E-03     9.58236E-03    -15.6608E-03     31.1156E-03    -15.6470E-03     9.58285E-03
            1411     1.77204E-03     54.4404E-03     -17.715E+06    -64.2582E+06    -15.3573E+06     150.619E+03    -15.6862E-03     31.3773E-03    -15.6911E-03     6.42910E-03    -15.6594E-03     31.1040E-03    -15.6490E-03     6.43008E-03
            1412     886.035E-06     54.4358E-03    -18.6105E+06    -65.3171E+06    -17.9296E+06     40.9209E+03    -15.6926E-03     31.3618E-03    -15.6692E-03     3.44759E-03    -15.6650E-03     31.0883E-03    -15.6372E-03     3.44761E-03
            1413     16.8408E-03     54.2000E-03    -2.90151E+06     153.686E+06     36.6587E+06     272.457E+03    -19.4462E-03     34.8889E-03    -15.4427E-03     162.366E-03    -21.9097E-03     37.7813E-03    -15.4780E-03     164.135E-03
            1414     15.9515E-03     54.0460E-03    -3.28796E+06     93.4728E+06    -12.0164E+06     556.908E+03    -18.3940E-03     33.7180E-03    -15.3240E-03     134.515E-03    -19.6071E-03     35.2861E-03    -15.5149E-03     134.878E-03
            1415     15.0631E-03     53.9476E-03    -3.33668E+06     36.8055E+06    -5.50541E+06     430.181E+03    -16.9722E-03     32.4437E-03    -15.4716E-03     86.5657E-03    -17.2436E-03     32.8500E-03    -15.5476E-03     86.5488E-03
            1416     14.1777E-03     53.8847E-03    -3.76528E+06    -5.54032E+06    -6.17202E+06     258.266E+03    -16.3040E-03     31.8500E-03    -15.5460E-03     61.8666E-03    -16.3793E-03     31.9101E-03    -15.5633E-03     61.8305E-03
            1417     13.2915E-03     53.8322E-03    -3.71105E+06    -29.2372E+06    -6.78532E+06     241.607E+03    -16.3227E-03     31.9092E-03    -15.5865E-03     58.3855E-03    -16.3349E-03     31.8241E-03    -15.5727E-03     58.3527E-03
            1418     12.4054E-03     53.7761E-03    -3.46104E+06    -31.4537E+06     2.01692E+06     278.659E+03    -16.1756E-03     31.8195E-03    -15.6439E-03     54.8471E-03    -16.1787E-03     31.6928E-03    -15.5832E-03     54.8224E-03
            1419     11.5188E-03     53.7298E-03    -3.96456E+06    -37.2067E+06     1.89635E+06     133.789E+03    -16.0860E-03     31.7498E-03    -15.6638E-03     48.2682E-03    -16.0715E-03     31.5836E-03    -15.5946E-03     48.2484E-03
            1420     10.6328E-03     53.6867E-03    -4.66141E+06    -48.8922E+06     717.626E+03     45.1228E+03    -16.1137E-03     31.7952E-03    -15.6815E-03     43.9102E-03    -16.0779E-03     31.5672E-03    -15.6003E-03     43.8943E-03
            1421     9.74676E-03     53.6479E-03    -5.44129E+06    -52.9754E+06     3.56494E+06     224.023E+03    -16.0004E-03     31.7063E-03    -15.7059E-03     39.7320E-03    -15.9629E-03     31.4510E-03    -15.6033E-03     39.7225E-03
            1422     8.86060E-03     53.6127E-03    -6.37576E+06    -53.1998E+06     3.42234E+06     267.686E+03    -15.9183E-03     31.6300E-03    -15.7117E-03     35.5857E-03    -15.8825E-03     31.3728E-03    -15.6082E-03     35.5798E-03
            1423     7.97452E-03     53.5817E-03    -7.42070E+06    -55.9423E+06     3.12522E+06     272.921E+03    -15.8733E-03     31.5935E-03    -15.7202E-03     31.4611E-03    -15.8368E-03     31.3229E-03    -15.6127E-03     31.4575E-03
            1424     7.08843E-03     53.5541E-03    -8.60863E+06    -57.2601E+06     2.00360E+06     360.999E+03    -15.8204E-03     31.5421E-03    -15.7216E-03     27.4238E-03    -15.7853E-03     31.2673E-03    -15.6161E-03     27.4229E-03
            1425     6.20236E-03     53.5306E-03    -9.99030E+06    -57.4651E+06     152.191E+03     274.361E+03    -15.7704E-03     31.4884E-03    -15.7181E-03     23.5410E-03    -15.7385E-03     31.2167E-03    -15.6195E-03     23.5402E-03
            1426     5.31628E-03     53.5103E-03    -11.5003E+06    -59.0848E+06    -1.85106E+06     196.612E+03    -15.7325E-03     31.4488E-03    -15.7163E-03     19.8095E-03    -15.7025E-03     31.1736E-03    -15.6232E-03     19.8086E-03
            1427     4.43022E-03     53.4936E-03    -13.1297E+06    -60.2550E+06    -4.54795E+06     157.193E+03    -15.7043E-03     31.4149E-03    -15.7107E-03     16.2508E-03    -15.6765E-03     31.1398E-03    -15.6270E-03     16.2502E-03
            1428     3.54417E-03     53.4800E-03    -14.8696E+06    -61.8026E+06    -7.97112E+06     122.216E+03    -15.6857E-03     31.3878E-03    -15.7021E-03     12.8477E-03    -15.6592E-03     31.1122E-03    -15.6308E-03     12.8473E-03
            1429     2.65811E-03     53.4697E-03    -16.5157E+06    -63.2014E+06    -11.8231E+06     115.558E+03    -15.6749E-03     31.3656E-03    -15.6908E-03     9.57553E-03    -15.6488E-03     31.0909E-03    -15.6343E-03     9.57555E-03
            1430     1.77207E-03     53.4621E-03    -17.8303E+06    -64.0772E+06    -15.4545E+06     53.1763E+03    -15.6691E-03     31.3479E-03    -15.6788E-03     6.43051E-03    -15.6430E-03     31.0759E-03    -15.6373E-03     6.43022E-03
            1431     886.037E-06     53.4577E-03    -18.6369E+06    -65.1818E+06    -18.0291E+06     9.59196E+03    -15.6692E-03     31.3399E-03    -15.6707E-03     3.44882E-03    -15.6418E-03     31.0672E-03    -15.6393E-03     3.44844E-03
            1432     16.8347E-03     53.2204E-03    -3.25573E+06     153.229E+06     35.8767E+06    -43.1838E+03    -19.4904E-03     34.9367E-03    -15.4463E-03     161.871E-03    -21.9413E-03     37.8160E-03    -15.4844E-03     163.628E-03
            1433     15.9496E-03     53.0698E-03    -4.04034E+06     93.5326E+06    -11.9332E+06     530.030E+03    -18.7861E-03     34.1063E-03    -15.3202E-03     135.169E-03    -20.0160E-03     35.6884E-03    -15.5096E-03     135.530E-03
            1434     15.0649E-03     52.9682E-03    -3.53233E+06     37.0824E+06    -5.27209E+06     473.819E+03    -16.9491E-03     32.4067E-03    -15.4576E-03     86.4636E-03    -17.2214E-03     32.8133E-03    -15.5326E-03     86.4467E-03
            1435     14.1778E-03     52.9081E-03    -2.84071E+06    -5.00857E+06    -5.60441E+06     430.267E+03    -16.1378E-03     31.6748E-03    -15.5370E-03     62.1569E-03    -16.2098E-03     31.7351E-03    -15.5536E-03     62.1237E-03
            1436     13.2914E-03     52.8529E-03    -2.83835E+06    -29.3535E+06    -6.46235E+06     384.649E+03    -16.2761E-03     31.8608E-03    -15.5846E-03     58.7779E-03    -16.2844E-03     31.7735E-03    -15.5703E-03     58.7471E-03
            1437     12.4053E-03     52.7991E-03    -3.11191E+06    -31.2011E+06     2.28928E+06     235.487E+03    -16.2444E-03     31.8860E-03    -15.6416E-03     55.0119E-03    -16.2467E-03     31.7598E-03    -15.5804E-03     54.9866E-03
            1438     11.5189E-03     52.7511E-03    -3.40271E+06     -36.904E+06     2.07380E+06     148.773E+03    -16.1432E-03     31.7991E-03    -15.6559E-03     48.3205E-03    -16.1266E-03     31.6334E-03    -15.5871E-03     48.3009E-03
            1439     10.6330E-03     52.7087E-03    -4.21590E+06    -49.4431E+06     834.024E+03     456.726E+03    -16.0908E-03     31.7638E-03    -15.6730E-03     43.8104E-03    -16.0521E-03     31.5322E-03    -15.5910E-03     43.7998E-03
            1440     9.74679E-03     52.6697E-03    -5.38862E+06    -52.6429E+06     3.83523E+06     593.009E+03    -15.9881E-03     31.6862E-03    -15.6981E-03     39.7526E-03    -15.9512E-03     31.4322E-03    -15.5948E-03     39.7479E-03
            1441     8.86069E-03     52.6347E-03    -6.46962E+06    -53.0103E+06     3.31795E+06     184.659E+03    -15.9286E-03     31.6303E-03    -15.7017E-03     35.5972E-03    -15.8934E-03     31.3743E-03    -15.5989E-03     35.5902E-03
            1442     7.97460E-03     52.6033E-03    -7.44973E+06    -56.0328E+06     3.02209E+06     224.318E+03    -15.8729E-03     31.5818E-03    -15.7089E-03     31.4452E-03    -15.8363E-03     31.3110E-03    -15.6017E-03     31.4410E-03
            1443     7.08852E-03     52.5761E-03    -8.64361E+06    -57.1057E+06     1.94961E+06     269.652E+03    -15.8150E-03     31.5242E-03    -15.7092E-03     27.4102E-03    -15.7802E-03     31.2503E-03    -15.6041E-03     27.4081E-03
            1444     6.20243E-03     52.5522E-03    -9.90776E+06    -57.2827E+06     245.135E+03     224.999E+03    -15.7643E-03     31.4695E-03    -15.7052E-03     23.5214E-03    -15.7324E-03     31.1984E-03    -15.6066E-03     23.5199E-03
            1445     5.31637E-03     52.5322E-03    -11.3991E+06    -58.9663E+06    -1.74962E+06     195.777E+03    -15.7239E-03     31.4265E-03    -15.7026E-03     19.7925E-03    -15.6937E-03     31.1516E-03    -15.6093E-03     19.7917E-03
            1446     4.43029E-03     52.5153E-03    -13.0938E+06    -60.1004E+06    -4.47072E+06     156.486E+03    -15.6910E-03     31.3873E-03    -15.6963E-03     16.2363E-03    -15.6634E-03     31.1128E-03    -15.6125E-03     16.2356E-03
            1447     3.54421E-03     52.5019E-03    -14.8216E+06    -61.7163E+06    -7.80222E+06     127.391E+03    -15.6712E-03     31.3593E-03    -15.6881E-03     12.8362E-03    -15.6448E-03     31.0838E-03    -15.6161E-03     12.8358E-03
            1448     2.65815E-03     52.4914E-03    -16.4714E+06    -63.0501E+06    -11.7186E+06     85.6577E+03    -15.6604E-03     31.3366E-03    -15.6762E-03     9.56912E-03    -15.6345E-03     31.0624E-03    -15.6195E-03     9.56875E-03
            1449     1.77210E-03     52.4840E-03    -17.8526E+06    -63.9503E+06    -15.5469E+06     24.9806E+03    -15.6494E-03     31.3142E-03    -15.6649E-03     6.41798E-03    -15.6234E-03     31.0430E-03    -15.6240E-03     6.41733E-03
            1450     886.022E-06     52.4794E-03    -18.7973E+06    -65.1188E+06    -18.1611E+06    -1.56481E+03    -15.6392E-03     31.3151E-03    -15.6759E-03     3.45886E-03    -15.6124E-03     31.0431E-03    -15.6451E-03     3.45832E-03
            1451     16.8391E-03     52.2452E-03    -3.62820E+06     153.181E+06     35.9263E+06    -166.101E+03    -19.5942E-03     35.0430E-03    -15.4489E-03     160.498E-03    -22.0265E-03     37.9021E-03    -15.4861E-03     162.233E-03
            1452     15.9517E-03     52.0897E-03    -4.00098E+06     93.0850E+06    -12.3561E+06    -135.477E+03    -18.7144E-03     34.0309E-03    -15.3166E-03     135.002E-03    -19.9443E-03     35.6129E-03    -15.5075E-03     135.351E-03
            1453     15.0641E-03     51.9920E-03    -2.92873E+06     37.3687E+06    -5.25404E+06     372.538E+03    -16.7943E-03     32.2557E-03    -15.4613E-03     87.2382E-03    -17.0641E-03     32.6630E-03    -15.5375E-03     87.2214E-03
            1454     14.1776E-03     51.9293E-03    -3.08845E+06    -4.89517E+06    -5.78551E+06     554.700E+03    -16.2481E-03     31.7923E-03    -15.5442E-03     62.7149E-03    -16.3220E-03     31.8547E-03    -15.5615E-03     62.6829E-03
            1455     13.2913E-03     51.8758E-03    -2.78695E+06    -29.2381E+06    -6.32477E+06     426.851E+03    -16.3554E-03     31.9431E-03    -15.5877E-03     58.7059E-03    -16.3637E-03     31.8561E-03    -15.5729E-03     58.6754E-03
            1456     12.4050E-03     51.8201E-03    -3.30392E+06    -30.9030E+06     2.24562E+06     287.451E+03    -16.3404E-03     31.9779E-03    -15.6375E-03     54.9010E-03    -16.3440E-03     31.8536E-03    -15.5767E-03     54.8762E-03
            1457     11.5194E-03     51.7733E-03    -4.12310E+06    -37.3136E+06     1.59249E+06     393.827E+03    -16.1621E-03     31.8087E-03    -15.6465E-03     48.2923E-03    -16.1478E-03     31.6426E-03    -15.5785E-03     48.2758E-03
            1458     10.6329E-03     51.7304E-03    -4.36985E+06    -49.8044E+06     638.008E+03     692.822E+03    -16.0563E-03     31.7204E-03    -15.6641E-03     43.9135E-03    -16.0175E-03     31.4875E-03    -15.5824E-03     43.9061E-03
            1459     9.74688E-03     51.6916E-03    -4.76824E+06    -52.1293E+06     4.31280E+06     774.631E+03    -16.0207E-03     31.7104E-03    -15.6896E-03     39.7317E-03    -15.9821E-03     31.4573E-03    -15.5856E-03     39.7293E-03
            1460     8.86080E-03     51.6564E-03    -5.89471E+06    -52.5020E+06     3.70884E+06     478.085E+03    -15.9367E-03     31.6268E-03    -15.6900E-03     35.5586E-03    -15.8999E-03     31.3719E-03    -15.5868E-03     35.5554E-03
            1461     7.97471E-03     51.6253E-03    -7.30338E+06    -56.0815E+06     2.96135E+06     226.082E+03    -15.8700E-03     31.5649E-03    -15.6949E-03     31.4252E-03    -15.8324E-03     31.2937E-03    -15.5882E-03     31.4210E-03
            1462     7.08862E-03     51.5978E-03    -8.51242E+06    -56.9032E+06     1.97548E+06     194.721E+03    -15.8095E-03     31.5037E-03    -15.6941E-03     27.3857E-03    -15.7744E-03     31.2306E-03    -15.5894E-03     27.3827E-03
            1463     6.20254E-03     51.5742E-03    -9.88255E+06    -57.2275E+06     248.014E+03     157.368E+03    -15.7527E-03     31.4422E-03    -15.6895E-03     23.5006E-03    -15.7208E-03     31.1714E-03    -15.5910E-03     23.4983E-03
            1464     5.31644E-03     51.5539E-03    -11.3926E+06    -58.8430E+06    -1.60656E+06     186.504E+03    -15.7105E-03     31.3974E-03    -15.6869E-03     19.7749E-03    -15.6807E-03     31.1229E-03    -15.5931E-03     19.7739E-03
            1465     4.43036E-03     51.5373E-03    -13.0647E+06    -59.9867E+06    -4.34628E+06     179.655E+03    -15.6765E-03     31.3565E-03    -15.6800E-03     16.2221E-03    -15.6490E-03     31.0824E-03    -15.5958E-03     16.2218E-03
            1466     3.54428E-03     51.5236E-03    -14.8386E+06    -61.5547E+06    -7.89015E+06     126.901E+03    -15.6539E-03     31.3245E-03    -15.6705E-03     12.8252E-03    -15.6277E-03     31.0500E-03    -15.5992E-03     12.8248E-03
            1467     2.65820E-03     51.5133E-03    -16.4827E+06    -62.9345E+06    -11.7906E+06     53.1690E+03    -15.6419E-03     31.3010E-03    -15.6591E-03     9.56223E-03    -15.6162E-03     31.0275E-03    -15.6029E-03     9.56145E-03
            1468     1.77212E-03     51.5058E-03    -17.8247E+06    -63.8530E+06    -15.4837E+06     60.6432E+03    -15.6374E-03     31.2846E-03    -15.6471E-03     6.40487E-03    -15.6116E-03     31.0137E-03    -15.6061E-03     6.40469E-03
            1469     886.069E-06     51.5014E-03    -18.7298E+06    -65.0390E+06    -18.1330E+06     40.5396E+03    -15.6311E-03     31.2764E-03    -15.6453E-03     3.45813E-03    -15.6042E-03     31.0048E-03    -15.6145E-03     3.45813E-03
            1470     16.8360E-03     51.2644E-03    -2.96007E+06     153.336E+06     36.7000E+06    -242.475E+03    -19.4792E-03     34.9779E-03    -15.4987E-03     163.655E-03    -21.9686E-03     37.8948E-03    -15.5333E-03     165.436E-03
            1471     15.9502E-03     51.1141E-03    -3.69634E+06     93.2139E+06    -12.2284E+06     220.214E+03    -19.2056E-03     34.5685E-03    -15.3629E-03     135.828E-03    -20.4364E-03     36.1525E-03    -15.5538E-03     136.163E-03
            1472     15.0632E-03     51.0134E-03    -4.28171E+06     36.7085E+06    -6.39737E+06     239.729E+03    -17.1160E-03     32.6021E-03    -15.4860E-03     87.6915E-03    -17.3925E-03     33.0122E-03    -15.5650E-03     87.6716E-03
            1473     14.1774E-03     50.9512E-03    -4.24125E+06    -5.03069E+06    -6.38075E+06     421.384E+03    -16.5756E-03     32.1278E-03    -15.5522E-03     62.3681E-03    -16.6546E-03     32.1923E-03    -15.5706E-03     62.3331E-03
            1474     13.2915E-03     50.8974E-03    -4.00819E+06    -28.6770E+06    -7.03655E+06     487.102E+03    -16.4953E-03     32.0738E-03    -15.5786E-03     58.6188E-03    -16.5095E-03     31.9925E-03    -15.5663E-03     58.5888E-03
            1475     12.4057E-03     50.8421E-03    -3.56259E+06    -31.0648E+06     1.89118E+06     475.575E+03    -16.2839E-03     31.9102E-03    -15.6263E-03     54.9120E-03    -16.2880E-03     31.7859E-03    -15.5666E-03     54.8898E-03
            1476     11.5189E-03     50.7951E-03    -4.09537E+06    -37.4035E+06     1.62291E+06     665.695E+03    -16.1091E-03     31.7493E-03    -15.6402E-03     48.2487E-03    -16.0945E-03     31.5826E-03    -15.5719E-03     48.2359E-03
            1477     10.6331E-03     50.7524E-03    -4.72515E+06    -49.4672E+06     246.424E+03     517.541E+03    -16.1299E-03     31.7838E-03    -15.6539E-03     43.9151E-03    -16.0929E-03     31.5537E-03    -15.5741E-03     43.9053E-03
            1478     9.74704E-03     50.7132E-03    -5.13198E+06    -52.2376E+06     3.98015E+06     489.110E+03    -16.0337E-03     31.7093E-03    -15.6755E-03     39.6802E-03    -15.9963E-03     31.4567E-03    -15.5725E-03     39.6741E-03
            1479     8.86094E-03     50.6784E-03    -5.79105E+06    -52.0836E+06     4.02649E+06     753.985E+03    -15.9347E-03     31.6104E-03    -15.6757E-03     35.5178E-03    -15.8984E-03     31.3571E-03    -15.5717E-03     35.5182E-03
            1480     7.97483E-03     50.6470E-03    -6.91567E+06    -55.6593E+06     3.25389E+06     424.088E+03    -15.8658E-03     31.5445E-03    -15.6787E-03     31.3928E-03    -15.8273E-03     31.2744E-03    -15.5717E-03     31.3911E-03
            1481     7.08876E-03     50.6197E-03    -8.30646E+06    -56.8454E+06     2.12058E+06     182.933E+03    -15.7966E-03     31.4737E-03    -15.6770E-03     27.3578E-03    -15.7607E-03     31.2004E-03    -15.5720E-03     27.3547E-03
            1482     6.20264E-03     50.5959E-03    -9.72333E+06    -57.1064E+06     404.737E+03     209.059E+03    -15.7379E-03     31.4099E-03    -15.6720E-03     23.4793E-03    -15.7056E-03     31.1392E-03    -15.5731E-03     23.4777E-03
            1483     5.31655E-03     50.5759E-03    -11.3286E+06    -58.7881E+06    -1.57597E+06     174.219E+03    -15.6938E-03     31.3625E-03    -15.6687E-03     19.7559E-03    -15.6638E-03     31.0881E-03    -15.5749E-03     19.7548E-03
            1484     4.43044E-03     50.5590E-03    -13.0243E+06    -59.8742E+06    -4.35373E+06     195.472E+03    -15.6596E-03     31.3208E-03    -15.6612E-03     16.2054E-03    -15.6322E-03     31.0472E-03    -15.5773E-03     16.2053E-03
            1485     3.54435E-03     50.5456E-03    -14.7388E+06    -61.3674E+06    -7.89627E+06     148.140E+03    -15.6371E-03     31.2882E-03    -15.6511E-03     12.8110E-03    -15.6107E-03     31.0145E-03    -15.5802E-03     12.8109E-03
            1486     2.65824E-03     50.5351E-03    -16.4035E+06    -62.8195E+06    -11.7972E+06     79.4120E+03    -15.6242E-03     31.2634E-03    -15.6392E-03     9.55038E-03    -15.5982E-03     30.9904E-03    -15.5833E-03     9.54995E-03
            1487     1.77216E-03     50.5278E-03    -17.7996E+06    -63.7962E+06    -15.4531E+06     61.0231E+03    -15.6205E-03     31.2469E-03    -15.6264E-03     6.40069E-03    -15.5947E-03     30.9763E-03    -15.5854E-03     6.40052E-03
            1488     886.085E-06     50.5231E-03    -18.6689E+06    -64.8696E+06    -18.0596E+06     65.8186E+03    -15.6117E-03     31.2330E-03    -15.6212E-03     3.46892E-03    -15.5848E-03     30.9619E-03    -15.5904E-03     3.46925E-03
            1489     16.8327E-03     50.2822E-03    -3.77077E+06     152.923E+06     35.7274E+06     24.1895E+03    -18.9147E-03     34.4369E-03    -15.5222E-03     162.791E-03    -21.4156E-03     37.3636E-03    -15.5598E-03     164.608E-03
            1490     15.9487E-03     50.1358E-03    -6.02697E+06     92.4654E+06    -13.3191E+06    -602.699E+03    -19.4402E-03     34.8300E-03    -15.3899E-03     132.839E-03    -20.6521E-03     36.3873E-03    -15.5818E-03     133.161E-03
            1491     15.0638E-03     50.0346E-03    -4.96727E+06     36.5388E+06    -7.19547E+06     20.8210E+03    -17.6100E-03     33.0935E-03    -15.4835E-03     86.7300E-03    -17.8898E-03     33.5063E-03    -15.5653E-03     86.7036E-03
            1492     14.1777E-03     49.9732E-03    -4.21712E+06    -5.22933E+06    -6.62868E+06     277.528E+03    -16.4868E-03     32.0243E-03    -15.5375E-03     61.8943E-03    -16.5640E-03     32.0872E-03    -15.5570E-03     61.8579E-03
            1493     13.2916E-03     49.9189E-03    -3.91509E+06    -28.4050E+06    -6.87379E+06     432.526E+03    -16.4181E-03     31.9874E-03    -15.5693E-03     58.5884E-03    -16.4325E-03     31.9070E-03    -15.5568E-03     58.5579E-03
            1494     12.4053E-03     49.8642E-03    -3.98723E+06    -31.3263E+06     1.71432E+06     518.148E+03    -16.2970E-03     31.9152E-03    -15.6182E-03     54.8500E-03    -16.3026E-03     31.7904E-03    -15.5584E-03     54.8283E-03
            1495     11.5194E-03     49.8171E-03    -4.33515E+06    -37.0462E+06     1.84799E+06     524.384E+03    -16.1767E-03     31.8055E-03    -15.6288E-03     48.2167E-03    -16.1642E-03     31.6408E-03    -15.5596E-03     48.2018E-03
            1496     10.6333E-03     49.7740E-03    -4.75935E+06    -49.1622E+06     409.954E+03     472.812E+03    -16.1281E-03     31.7661E-03    -15.6380E-03     43.7726E-03    -16.0919E-03     31.5374E-03    -15.5578E-03     43.7622E-03
            1497     9.74718E-03     49.7353E-03    -5.34729E+06    -52.3743E+06     3.75076E+06     295.191E+03    -16.0143E-03     31.6722E-03    -15.6579E-03     39.6334E-03    -15.9774E-03     31.4196E-03    -15.5555E-03     39.6248E-03
            1498     8.86108E-03     49.7001E-03    -6.04724E+06    -52.1516E+06     3.96073E+06     371.680E+03    -15.9299E-03     31.5881E-03    -15.6582E-03     35.4899E-03    -15.8947E-03     31.3348E-03    -15.5540E-03     35.4853E-03
            1499     7.97501E-03     49.6690E-03    -6.81652E+06    -55.1507E+06     3.52536E+06     531.351E+03    -15.8521E-03     31.5125E-03    -15.6604E-03     31.3587E-03    -15.8142E-03     31.2444E-03    -15.5529E-03     31.3585E-03
            1500     7.08888E-03     49.6415E-03    -8.10205E+06    -56.6710E+06     2.25354E+06     335.339E+03    -15.7800E-03     31.4380E-03    -15.6579E-03     27.3389E-03    -15.7436E-03     31.1650E-03    -15.5527E-03     27.3377E-03
            1501     6.20278E-03     49.6179E-03    -9.60300E+06    -57.0402E+06     406.021E+03     259.618E+03    -15.7226E-03     31.3747E-03    -15.6520E-03     23.4592E-03    -15.6898E-03     31.1041E-03    -15.5534E-03     23.4583E-03
            1502     5.31665E-03     49.5977E-03    -11.1910E+06    -58.6593E+06    -1.60693E+06     288.664E+03    -15.6776E-03     31.3254E-03    -15.6478E-03     19.7343E-03    -15.6470E-03     31.0515E-03    -15.5546E-03     19.7346E-03
            1503     4.43054E-03     49.5810E-03    -12.9548E+06    -59.7618E+06    -4.39795E+06     221.856E+03    -15.6415E-03     31.2814E-03    -15.6399E-03     16.1859E-03    -15.6138E-03     31.0083E-03    -15.5564E-03     16.1861E-03
            1504     3.54442E-03     49.5674E-03    -14.7249E+06    -61.1894E+06    -7.90069E+06     182.665E+03    -15.6187E-03     31.2479E-03    -15.6292E-03     12.7926E-03    -15.5925E-03     30.9751E-03    -15.5586E-03     12.7930E-03
            1505     2.65831E-03     49.5571E-03    -16.3809E+06    -62.6937E+06    -11.8020E+06     143.033E+03    -15.6050E-03     31.2214E-03    -15.6164E-03     9.53723E-03    -15.5791E-03     30.9490E-03    -15.5607E-03     9.53762E-03
            1506     1.77220E-03     49.5496E-03    -17.7600E+06    -63.6750E+06    -15.4693E+06     96.9077E+03    -15.5964E-03     31.1996E-03    -15.6032E-03     6.39359E-03    -15.5705E-03     30.9295E-03    -15.5625E-03     6.39387E-03
            1507     886.093E-06     49.5452E-03    -18.6750E+06    -64.7043E+06    -18.0660E+06     53.9086E+03    -15.5645E-03     31.1873E-03    -15.6228E-03     3.44774E-03    -15.5378E-03     30.9171E-03    -15.5922E-03     3.44792E-03
            1508     16.8403E-03     49.3089E-03    -2.47810E+06     153.957E+06     36.6945E+06     1.00636E+06    -19.2998E-03     34.7328E-03    -15.4330E-03     161.593E-03    -21.7561E-03     37.6204E-03    -15.4692E-03     163.367E-03
            1509     15.9501E-03     49.1557E-03    -3.52045E+06     92.7321E+06    -12.7261E+06     240.940E+03    -18.2773E-03     33.5934E-03    -15.3160E-03     133.261E-03    -19.4802E-03     35.1498E-03    -15.5090E-03     133.624E-03
            1510     15.0645E-03     49.0565E-03    -4.18887E+06     36.3541E+06    -6.49012E+06    -149.630E+03    -17.2736E-03     32.7270E-03    -15.4534E-03     86.1320E-03    -17.5476E-03     33.1340E-03    -15.5325E-03     86.1048E-03
            1511     14.1781E-03     48.9951E-03    -4.34098E+06    -5.02531E+06    -6.30543E+06     110.397E+03    -16.3580E-03     31.8756E-03    -15.5176E-03     61.9850E-03    -16.4367E-03     31.9394E-03    -15.5356E-03     61.9468E-03
            1512     13.2917E-03     48.9409E-03    -4.07321E+06    -28.8527E+06    -6.79035E+06     221.450E+03    -16.3643E-03     31.9179E-03    -15.5536E-03     58.3876E-03    -16.3789E-03     31.8353E-03    -15.5398E-03     58.3544E-03
            1513     12.4057E-03     48.8860E-03    -4.37130E+06    -31.1662E+06     1.69388E+06     347.438E+03    -16.3101E-03     31.9111E-03    -15.6010E-03     54.6413E-03    -16.3178E-03     31.7877E-03    -15.5410E-03     54.6173E-03
            1514     11.5195E-03     48.8386E-03    -4.62873E+06    -37.1584E+06     1.89861E+06     280.306E+03    -16.1851E-03     31.7948E-03    -15.6097E-03     48.1492E-03    -16.1740E-03     31.6298E-03    -15.5396E-03     48.1312E-03
            1515     10.6335E-03     48.7961E-03    -4.75255E+06    -48.9231E+06     765.781E+03     237.375E+03    -16.0826E-03     31.7019E-03    -15.6193E-03     43.7700E-03    -16.0473E-03     31.4738E-03    -15.5376E-03     43.7567E-03
            1516     9.74737E-03     48.7570E-03    -5.15129E+06    -52.1932E+06     3.93533E+06     198.400E+03    -15.9964E-03     31.6355E-03    -15.6391E-03     39.6420E-03    -15.9591E-03     31.3832E-03    -15.5363E-03     39.6322E-03
            1517     8.86129E-03     48.7221E-03    -6.03854E+06    -52.2774E+06     3.80327E+06     186.675E+03    -15.9118E-03     31.5501E-03    -15.6383E-03     35.4656E-03    -15.8762E-03     31.2964E-03    -15.5348E-03     35.4587E-03
            1518     7.97514E-03     48.6908E-03    -7.06001E+06    -55.1412E+06     3.24376E+06     311.483E+03    -15.8341E-03     31.4739E-03    -15.6399E-03     31.3476E-03    -15.7970E-03     31.2067E-03    -15.5335E-03     31.3446E-03
            1519     7.08904E-03     48.6635E-03    -8.14869E+06    -56.4476E+06     2.16216E+06     483.425E+03    -15.7695E-03     31.4064E-03    -15.6370E-03     27.3189E-03    -15.7334E-03     31.1348E-03    -15.5325E-03     27.3197E-03
            1520     6.20289E-03     48.6397E-03     -9.6519E+06    -56.9014E+06     201.596E+03     431.014E+03    -15.7083E-03     31.3377E-03    -15.6295E-03     23.4333E-03    -15.6756E-03     31.0682E-03    -15.5320E-03     23.4346E-03
            1521     5.31678E-03     48.6197E-03    -11.2846E+06    -58.5047E+06    -1.72846E+06     336.291E+03    -15.6608E-03     31.2854E-03    -15.6246E-03     19.7080E-03    -15.6307E-03     31.0126E-03    -15.5321E-03     19.7090E-03
            1522     4.43064E-03     48.6029E-03    -12.9317E+06    -59.5716E+06    -4.40073E+06     287.043E+03    -15.6227E-03     31.2387E-03    -15.6160E-03     16.1620E-03    -15.5951E-03     30.9665E-03    -15.5329E-03     16.1631E-03
            1523     3.54451E-03     48.5895E-03    -14.6594E+06    -61.0460E+06    -7.86345E+06     209.795E+03    -15.5973E-03     31.2020E-03    -15.6046E-03     12.7742E-03    -15.5710E-03     30.9297E-03    -15.5342E-03     12.7749E-03
            1524     2.65837E-03     48.5790E-03    -16.2902E+06    -62.5389E+06    -11.7121E+06     177.840E+03    -15.5809E-03     31.1724E-03    -15.5915E-03     9.52058E-03    -15.5549E-03     30.9005E-03    -15.5358E-03     9.52141E-03
            1525     1.77224E-03     48.5717E-03    -17.6363E+06    -63.5101E+06    -15.3716E+06     142.608E+03    -15.5717E-03     31.1498E-03    -15.5781E-03     6.38644E-03    -15.5456E-03     30.8801E-03    -15.5373E-03     6.38732E-03
            1526     886.133E-06     48.5670E-03    -18.5160E+06    -64.5179E+06    -17.9536E+06     87.0871E+03    -15.5363E-03     31.1372E-03    -15.6008E-03     3.42499E-03    -15.5093E-03     30.8675E-03    -15.5702E-03     3.42561E-03
            1527     16.8390E-03     48.3349E-03    -3.12328E+06     153.286E+06     36.4746E+06     288.897E+03    -19.9798E-03     35.3940E-03    -15.4142E-03     162.738E-03    -22.4338E-03     38.2753E-03    -15.4495E-03     164.470E-03
            1528     15.9520E-03     48.1784E-03    -2.78580E+06     94.0432E+06    -11.2884E+06     1.73875E+06    -18.5724E-03     33.8545E-03    -15.2821E-03     136.476E-03    -19.8088E-03     35.4475E-03    -15.4708E-03     136.851E-03
            1529     15.0643E-03     48.0787E-03    -3.27804E+06     37.1121E+06    -5.21483E+06     784.986E+03    -16.8497E-03     32.2786E-03    -15.4289E-03     86.6558E-03    -17.1196E-03     32.6837E-03    -15.5040E-03     86.6436E-03
            1530     14.1781E-03     48.0168E-03    -3.90812E+06    -5.34474E+06    -6.08648E+06    -39.7834E+03    -16.4075E-03     31.9081E-03    -15.5005E-03     62.0433E-03    -16.4842E-03     31.9696E-03    -15.5176E-03     62.0030E-03
            1531     13.2923E-03     47.9630E-03    -3.80512E+06    -28.7953E+06    -6.78018E+06     240.534E+03    -16.4138E-03     31.9447E-03    -15.5309E-03     58.3850E-03    -16.4271E-03     31.8618E-03    -15.5175E-03     58.3520E-03
            1532     12.4061E-03     47.9078E-03    -3.88372E+06    -30.8480E+06     2.01389E+06     305.101E+03    -16.2497E-03     31.8281E-03    -15.5784E-03     54.8176E-03    -16.2557E-03     31.7050E-03    -15.5180E-03     54.7933E-03
            1533     11.5199E-03     47.8607E-03    -4.25264E+06    -37.0643E+06     1.89940E+06     135.588E+03    -16.1008E-03     31.6910E-03    -15.5901E-03     48.2115E-03    -16.0879E-03     31.5258E-03    -15.5207E-03     48.1919E-03
            1534     10.6336E-03     47.8179E-03    -4.49032E+06    -48.8477E+06     685.187E+03    -6.07291E+03    -16.0830E-03     31.6846E-03    -15.6016E-03     43.8380E-03    -16.0463E-03     31.4565E-03    -15.5208E-03     43.8216E-03
            1535     9.74757E-03     47.7790E-03    -5.14546E+06    -52.1709E+06     3.75333E+06     154.355E+03    -15.9979E-03     31.6178E-03    -15.6199E-03     39.6503E-03    -15.9603E-03     31.3658E-03    -15.5180E-03     39.6400E-03
            1536     8.86143E-03     47.7439E-03    -6.06728E+06    -52.2772E+06     3.53273E+06     294.258E+03    -15.8916E-03     31.5095E-03    -15.6179E-03     35.4603E-03    -15.8557E-03     31.2562E-03    -15.5156E-03     35.4548E-03
            1537     7.97531E-03     47.7128E-03    -7.29784E+06    -55.1818E+06     2.81868E+06     350.451E+03    -15.8288E-03     31.4470E-03    -15.6182E-03     31.3326E-03    -15.7922E-03     31.1805E-03    -15.5136E-03     31.3301E-03
            1538     7.08917E-03     47.6854E-03    -8.65757E+06    -56.4896E+06     1.69696E+06     451.061E+03    -15.7614E-03     31.3751E-03    -15.6137E-03     27.2860E-03    -15.7272E-03     31.1047E-03    -15.5107E-03     27.2863E-03
            1539     6.20306E-03     47.6618E-03    -9.93327E+06    -56.6199E+06     109.903E+03     515.334E+03    -15.6945E-03     31.2999E-03    -15.6054E-03     23.3967E-03    -15.6635E-03     31.0323E-03    -15.5084E-03     23.3991E-03
            1540     5.31690E-03     47.6416E-03    -11.4429E+06    -58.2841E+06    -1.85650E+06     373.491E+03    -15.6425E-03     31.2413E-03    -15.5988E-03     19.6776E-03    -15.6134E-03     30.9700E-03    -15.5070E-03     19.6790E-03
            1541     4.43076E-03     47.6250E-03    -13.1165E+06    -59.3818E+06    -4.52061E+06     250.750E+03    -15.6019E-03     31.1908E-03    -15.5889E-03     16.1329E-03    -15.5754E-03     30.9200E-03    -15.5064E-03     16.1335E-03
            1542     3.54460E-03     47.6114E-03    -14.7776E+06    -60.8920E+06    -7.94682E+06     208.950E+03    -15.5715E-03     31.1482E-03    -15.5767E-03     12.7483E-03    -15.5459E-03     30.8770E-03    -15.5067E-03     12.7490E-03
            1543     2.65845E-03     47.6011E-03    -16.3970E+06    -62.4070E+06    -11.8003E+06     188.689E+03    -15.5529E-03     31.1160E-03    -15.5631E-03     9.50078E-03    -15.5274E-03     30.8450E-03    -15.5078E-03     9.50176E-03
            1544     1.77230E-03     47.5936E-03    -17.7642E+06    -63.3130E+06    -15.4222E+06     154.959E+03    -15.5424E-03     31.0922E-03    -15.5499E-03     6.37375E-03    -15.5171E-03     30.8239E-03    -15.5094E-03     6.37479E-03
            1545     886.136E-06     47.5892E-03    -18.6153E+06    -64.3041E+06    -17.9721E+06     67.4751E+03    -15.5325E-03     31.0806E-03    -15.5481E-03     3.41024E-03    -15.5063E-03     30.8122E-03    -15.5177E-03     3.41061E-03
            1546     16.8345E-03     47.3524E-03    -3.85556E+06     151.662E+06     36.8782E+06    -292.963E+03    -19.8688E-03     35.3413E-03    -15.4725E-03     161.696E-03    -22.3223E-03     38.2126E-03    -15.5024E-03     163.436E-03
            1547     15.9510E-03     47.2013E-03    -4.41896E+06     93.3270E+06    -10.7551E+06     546.894E+03    -19.6010E-03     34.9134E-03    -15.3124E-03     135.402E-03    -20.8393E-03     36.4984E-03    -15.4951E-03     135.739E-03
            1548     15.0649E-03     47.1010E-03    -2.80295E+06     38.4769E+06    -5.05585E+06     1.09050E+06    -17.0896E-03     32.5033E-03    -15.4137E-03     87.0327E-03    -17.3610E-03     32.9160E-03    -15.4907E-03     87.0233E-03
            1549     14.1786E-03     47.0385E-03    -2.40409E+06    -5.30797E+06    -6.08807E+06     698.766E+03    -16.2843E-03     31.7662E-03    -15.4819E-03     62.1948E-03    -16.3530E-03     31.8252E-03    -15.5011E-03     62.1647E-03
            1550     13.2923E-03     46.9850E-03    -2.81368E+06    -28.7461E+06    -6.64795E+06     473.033E+03    -16.3460E-03     31.8657E-03    -15.5197E-03     58.6727E-03    -16.3545E-03     31.7814E-03    -15.5072E-03     58.6430E-03
            1551     12.4061E-03     46.9297E-03    -3.02843E+06    -30.4997E+06     2.18868E+06     569.653E+03    -16.2773E-03     31.8460E-03    -15.5687E-03     55.0664E-03    -16.2799E-03     31.7232E-03    -15.5091E-03     55.0455E-03
            1552     11.5199E-03     46.8828E-03    -3.87114E+06    -36.5066E+06     1.67845E+06     274.167E+03    -16.1431E-03     31.7192E-03    -15.5760E-03     48.3385E-03    -16.1287E-03     31.5566E-03    -15.5091E-03     48.3206E-03
            1553     10.6338E-03     46.8398E-03    -4.67143E+06    -49.0201E+06     138.700E+03     142.161E+03    -16.1041E-03     31.6884E-03    -15.5843E-03     43.8468E-03    -16.0672E-03     31.4605E-03    -15.5058E-03     43.8323E-03
            1554     9.74776E-03     46.8009E-03    -5.40772E+06    -52.2597E+06     3.29429E+06     240.405E+03    -15.9922E-03     31.5931E-03    -15.6010E-03     39.6030E-03    -15.9550E-03     31.3418E-03    -15.5009E-03     39.5939E-03
            1555     8.86159E-03     46.7659E-03    -6.47373E+06    -52.2995E+06     3.09847E+06     380.542E+03    -15.9005E-03     31.4977E-03    -15.5972E-03     35.4518E-03    -15.8660E-03     31.2455E-03    -15.4965E-03     35.4475E-03
            1556     7.97547E-03     46.7347E-03    -7.57063E+06    -55.1869E+06     2.68893E+06     521.067E+03    -15.8309E-03     31.4268E-03    -15.5959E-03     31.2835E-03    -15.7955E-03     31.1608E-03    -15.4915E-03     31.2832E-03
            1557     7.08936E-03     46.7074E-03    -8.82956E+06    -56.3011E+06     1.62616E+06     466.180E+03    -15.7507E-03     31.3395E-03    -15.5888E-03     27.2348E-03    -15.7175E-03     31.0703E-03    -15.4862E-03     27.2354E-03
            1558     6.20321E-03     46.6837E-03    -10.1764E+06    -56.5162E+06    -36.9746E+03     352.509E+03    -15.6789E-03     31.2573E-03    -15.5785E-03     23.3549E-03    -15.6490E-03     30.9908E-03    -15.4820E-03     23.3552E-03
            1559     5.31706E-03     46.6637E-03    -11.5546E+06    -58.0065E+06    -1.86585E+06     358.767E+03    -15.6241E-03     31.1944E-03    -15.5703E-03     19.6379E-03    -15.5959E-03     30.9246E-03    -15.4788E-03     19.6391E-03
            1560     4.43089E-03     46.6469E-03    -13.1944E+06    -59.1828E+06    -4.59422E+06     247.277E+03    -15.5773E-03     31.1359E-03    -15.5586E-03     16.0965E-03    -15.5513E-03     30.8663E-03    -15.4766E-03     16.0970E-03
            1561     3.54472E-03     46.6336E-03    -14.9674E+06    -60.7774E+06    -8.04001E+06     192.157E+03    -15.5442E-03     31.0896E-03    -15.5454E-03     12.7178E-03    -15.5196E-03     30.8194E-03    -15.4758E-03     12.7183E-03
            1562     2.65853E-03     46.6231E-03    -16.6141E+06    -62.2649E+06    -11.8996E+06     187.311E+03    -15.5224E-03     31.0532E-03    -15.5307E-03     9.47644E-03    -15.4981E-03     30.7834E-03    -15.4758E-03     9.47740E-03
            1563     1.77235E-03     46.6158E-03    -17.9382E+06    -63.0834E+06    -15.5389E+06     101.196E+03    -15.5081E-03     31.0251E-03    -15.5170E-03     6.35666E-03    -15.4839E-03     30.7583E-03    -15.4772E-03     6.35702E-03
            1564     886.184E-06     46.6111E-03    -18.8287E+06    -64.1724E+06    -18.1561E+06     17.2100E+03    -15.5113E-03     31.0148E-03    -15.5036E-03     3.42582E-03    -15.4861E-03     30.7477E-03    -15.4740E-03     3.42553E-03
            1565     16.8381E-03     46.3738E-03    -3.48752E+06     152.260E+06     37.4670E+06    -146.730E+03    -19.7043E-03     35.1528E-03    -15.4485E-03     160.387E-03    -22.1365E-03     38.0045E-03    -15.4769E-03     162.113E-03
            1566     15.9507E-03     46.2222E-03    -4.46888E+06     92.3502E+06    -11.8674E+06    -716.040E+03    -19.0094E-03     34.3069E-03    -15.2975E-03     134.042E-03    -20.2293E-03     35.8732E-03    -15.4843E-03     134.378E-03
            1567     15.0652E-03     46.1227E-03    -3.57412E+06     37.5197E+06    -6.34510E+06     289.683E+03    -17.1945E-03     32.6035E-03    -15.4091E-03     86.9150E-03    -17.4673E-03     33.0153E-03    -15.4900E-03     86.8942E-03
            1568     14.1786E-03     46.0612E-03    -2.75273E+06    -4.50664E+06    -6.02035E+06     1.18946E+06    -16.2334E-03     31.7127E-03    -15.4793E-03     62.6594E-03    -16.3053E-03     31.7763E-03    -15.4989E-03     62.6358E-03
            1569     13.2921E-03     46.0067E-03    -2.64899E+06    -28.6599E+06    -6.66550E+06     824.720E+03    -16.3686E-03     31.8869E-03    -15.5182E-03     58.7995E-03    -16.3765E-03     31.8029E-03    -15.5062E-03     58.7743E-03
            1570     12.4061E-03     45.9517E-03    -3.07733E+06    -30.5373E+06     1.81094E+06     620.886E+03    -16.3550E-03     31.9171E-03    -15.5621E-03     54.9037E-03    -16.3572E-03     31.7948E-03    -15.5044E-03     54.8833E-03
            1571     11.5200E-03     45.9045E-03    -3.61597E+06    -36.0859E+06     2.06952E+06     772.529E+03    -16.2199E-03     31.7856E-03    -15.5657E-03     48.2619E-03    -16.2055E-03     31.6242E-03    -15.4978E-03     48.2503E-03
            1572     10.6341E-03     45.8617E-03    -4.58323E+06    -48.7478E+06     463.880E+03     635.659E+03    -16.1172E-03     31.6866E-03    -15.5693E-03     43.7458E-03    -16.0808E-03     31.4594E-03    -15.4897E-03     43.7376E-03
            1573     9.74783E-03     45.8229E-03    -5.60594E+06    -52.3264E+06     3.31343E+06     453.246E+03    -15.9996E-03     31.5824E-03    -15.5828E-03     39.5779E-03    -15.9634E-03     31.3309E-03    -15.4822E-03     39.5715E-03
            1574     8.86181E-03     45.7878E-03    -6.67492E+06    -52.2343E+06     3.17017E+06     503.824E+03    -15.9226E-03     31.4980E-03    -15.5755E-03     35.3738E-03    -15.8892E-03     31.2464E-03    -15.4742E-03     35.3711E-03
            1575     7.97569E-03     45.7567E-03    -7.72677E+06    -55.0753E+06     2.67227E+06     412.794E+03    -15.8235E-03     31.3937E-03    -15.5701E-03     31.2179E-03    -15.7891E-03     31.1285E-03    -15.4657E-03     31.2162E-03
            1576     7.08956E-03     45.7294E-03    -8.72988E+06    -56.0825E+06     1.75118E+06     359.384E+03    -15.7362E-03     31.2974E-03    -15.5612E-03     27.1791E-03    -15.7030E-03     31.0290E-03    -15.4585E-03     27.1783E-03
            1577     6.20339E-03     45.7059E-03    -9.98382E+06    -56.3399E+06     37.5299E+03     297.840E+03    -15.6635E-03     31.2122E-03    -15.5487E-03     23.3063E-03    -15.6330E-03     30.9462E-03    -15.4523E-03     23.3059E-03
            1578     5.31723E-03     45.6857E-03    -11.5012E+06    -57.9304E+06    -1.82427E+06      245.66E+03    -15.6026E-03     31.1413E-03    -15.5388E-03     19.5895E-03    -15.5743E-03     30.8718E-03    -15.4472E-03     19.5893E-03
            1579     4.43104E-03     45.6691E-03    -13.1077E+06    -58.9382E+06    -4.48114E+06     261.697E+03    -15.5511E-03     31.0766E-03    -15.5256E-03     16.0545E-03    -15.5252E-03     30.8080E-03    -15.4435E-03     16.0553E-03
            1580     3.54483E-03     45.6556E-03    -14.8278E+06    -60.7067E+06    -7.82056E+06     205.624E+03    -15.5162E-03     31.0277E-03    -15.5115E-03     12.6805E-03    -15.4913E-03     30.7573E-03    -15.4410E-03     12.6812E-03
            1581     2.65864E-03     45.6453E-03    -16.4896E+06    -62.0564E+06    -11.7169E+06     157.842E+03    -15.4919E-03     30.9864E-03    -15.4946E-03     9.44676E-03    -15.4675E-03     30.7172E-03    -15.4393E-03     9.44735E-03
            1582     1.77242E-03     45.6378E-03    -17.8592E+06    -62.9161E+06    -15.5321E+06     76.9239E+03    -15.4705E-03     30.9496E-03    -15.4790E-03     6.32955E-03    -15.4462E-03     30.6835E-03    -15.4396E-03     6.32959E-03
            1583     886.194E-06     45.6334E-03    -18.7738E+06    -64.0509E+06    -18.2001E+06     48.5632E+03    -15.4562E-03     30.9393E-03    -15.4831E-03     3.44478E-03    -15.4308E-03     30.6727E-03    -15.4540E-03     3.44490E-03
            1584     16.8393E-03     45.3988E-03    -3.29528E+06     153.122E+06     36.2804E+06    -207.096E+03    -19.8909E-03     35.3255E-03    -15.4346E-03     162.019E-03    -22.3378E-03     38.1991E-03    -15.4705E-03     163.743E-03
            1585     15.9516E-03     45.2441E-03    -3.77308E+06     92.5564E+06    -13.0764E+06     127.896E+03    -18.7688E-03     34.0608E-03    -15.2920E-03     135.686E-03    -19.9918E-03     35.6369E-03    -15.4861E-03     136.028E-03
            1586     15.0645E-03     45.1448E-03    -4.37798E+06     36.3332E+06    -6.85041E+06     202.485E+03    -17.0567E-03     32.4834E-03    -15.4266E-03     87.3982E-03    -17.3306E-03     32.8905E-03    -15.5072E-03     87.3774E-03
            1587     14.1782E-03     45.0832E-03    -4.28689E+06    -4.44580E+06    -6.44112E+06     581.110E+03    -16.6072E-03     32.0975E-03    -15.4903E-03     62.6945E-03    -16.6872E-03     32.1651E-03    -15.5098E-03     62.6615E-03
            1588     13.2925E-03     45.0284E-03    -3.59635E+06    -28.3740E+06    -6.98237E+06     774.154E+03    -16.5423E-03     32.0531E-03    -15.5107E-03     58.6909E-03    -16.5550E-03     31.9724E-03    -15.4993E-03     58.6645E-03
            1589     12.4064E-03     44.9738E-03    -3.81771E+06    -30.4276E+06     1.63512E+06     694.444E+03    -16.3897E-03     31.9366E-03    -15.5470E-03     54.7776E-03    -16.3955E-03     31.8161E-03    -15.4891E-03     54.7581E-03
            1590     11.5203E-03     44.9261E-03    -4.07003E+06    -36.4309E+06     1.89154E+06     812.163E+03    -16.2065E-03     31.7548E-03    -15.5484E-03     48.1556E-03    -16.1935E-03     31.5926E-03    -15.4802E-03     48.1446E-03
            1591     10.6341E-03     44.8838E-03    -4.15122E+06    -48.3314E+06     1.07654E+06     1.00237E+06    -16.1294E-03     31.6813E-03    -15.5519E-03     43.6354E-03    -16.0923E-03     31.4548E-03    -15.4704E-03     43.6320E-03
            1592     9.74816E-03     44.8447E-03    -5.26492E+06    -51.8538E+06     3.84948E+06     921.007E+03    -16.0349E-03     31.5958E-03    -15.5609E-03     39.4942E-03    -15.9985E-03     31.3454E-03    -15.4588E-03     39.4938E-03
            1593     8.86203E-03     44.8098E-03    -6.36834E+06    -52.0500E+06     3.44688E+06     474.305E+03    -15.9134E-03     31.4625E-03    -15.5491E-03     35.2820E-03    -15.8792E-03     31.2109E-03    -15.4471E-03     35.2789E-03
            1594     7.97593E-03     44.7787E-03    -7.31317E+06    -54.7602E+06     2.90694E+06     299.899E+03    -15.8117E-03     31.3530E-03    -15.5413E-03     31.1478E-03    -15.7760E-03     31.0885E-03    -15.4368E-03     31.1446E-03
            1595     7.08976E-03     44.7515E-03    -8.51108E+06    -56.0670E+06     1.80239E+06     218.413E+03    -15.7224E-03     31.2526E-03    -15.5302E-03     27.1241E-03    -15.6882E-03     30.9839E-03    -15.4275E-03     27.1215E-03
            1596     6.20361E-03     44.7278E-03    -9.83649E+06    -56.1896E+06     133.274E+03     292.107E+03    -15.6447E-03     31.1603E-03    -15.5156E-03     23.2455E-03    -15.6138E-03     30.8947E-03    -15.4192E-03     23.2450E-03
            1597     5.31740E-03     44.7079E-03    -11.3759E+06    -57.7967E+06    -1.74074E+06     267.825E+03    -15.5787E-03     31.0824E-03    -15.5037E-03     19.5337E-03    -15.5500E-03     30.8133E-03    -15.4121E-03     19.5339E-03
            1598     4.43120E-03     44.6912E-03    -13.0908E+06    -58.8397E+06    -4.39195E+06     219.237E+03    -15.5243E-03     31.0130E-03    -15.4887E-03     16.0021E-03    -15.4986E-03     30.7447E-03    -15.4064E-03     16.0023E-03
            1599     3.54498E-03     44.6779E-03    -14.8230E+06    -60.5258E+06    -7.85629E+06     214.774E+03    -15.4840E-03     30.9559E-03    -15.4719E-03     12.6367E-03    -15.4593E-03     30.6864E-03    -15.4019E-03     12.6375E-03
            1600     2.65873E-03     44.6674E-03    -16.4689E+06    -61.9084E+06    -11.7874E+06     135.662E+03    -15.4557E-03     30.9088E-03    -15.4531E-03     9.41253E-03    -15.4314E-03     30.6404E-03    -15.3984E-03     9.41284E-03
            1601     1.77251E-03     44.6602E-03    -17.8447E+06    -62.7743E+06    -15.5183E+06     120.239E+03    -15.4360E-03     30.8707E-03    -15.4347E-03     6.29660E-03    -15.4117E-03     30.6053E-03    -15.3954E-03     6.29721E-03
            1602     886.248E-06     44.6555E-03    -18.7829E+06    -63.8846E+06    -18.1454E+06     87.5574E+03    -15.4177E-03     30.8457E-03    -15.4280E-03     3.41597E-03    -15.3927E-03     30.5799E-03    -15.3988E-03     3.41659E-03
            1603     16.8337E-03     44.4154E-03    -3.44163E+06     152.447E+06     35.2752E+06     17.3533E+03    -19.5902E-03     35.0877E-03    -15.4975E-03     163.266E-03    -22.0766E-03     38.0008E-03    -15.5372E-03     165.046E-03
            1604     15.9507E-03     44.2680E-03    -4.69796E+06     92.2575E+06    -13.1943E+06     573.744E+03    -19.7804E-03     35.1229E-03    -15.3424E-03     134.589E-03    -20.9969E-03     36.6884E-03    -15.5354E-03     134.912E-03
            1605     15.0635E-03     44.1663E-03    -4.47222E+06     36.8033E+06    -6.63316E+06     549.034E+03    -17.4648E-03     32.9003E-03    -15.4355E-03     87.1638E-03    -17.7415E-03     33.3109E-03    -15.5155E-03     87.1449E-03
            1606     14.1785E-03     44.1042E-03    -4.80779E+06    -4.75651E+06    -6.86743E+06     109.973E+03    -16.7077E-03     32.1893E-03    -15.4816E-03     61.9794E-03    -16.7886E-03     32.2561E-03    -15.5021E-03     61.9400E-03
            1607     13.2925E-03     44.0507E-03    -4.55247E+06    -28.3787E+06    -7.45918E+06     286.763E+03    -16.6195E-03     32.1139E-03    -15.4944E-03     58.5022E-03    -16.6362E-03     32.0354E-03    -15.4839E-03     58.4693E-03
            1608     12.4066E-03     43.9951E-03    -3.95730E+06    -30.2176E+06     1.83489E+06     580.365E+03    -16.4068E-03     31.9345E-03    -15.5277E-03     54.6910E-03    -16.4139E-03     31.8149E-03    -15.4689E-03     54.6700E-03
            1609     11.5205E-03     43.9485E-03    -4.42630E+06    -36.4542E+06     1.81168E+06     742.295E+03    -16.1926E-03     31.7190E-03    -15.5264E-03     48.0685E-03    -16.1811E-03     31.5572E-03    -15.4581E-03     48.0567E-03
            1610     10.6345E-03     43.9054E-03    -4.91660E+06    -48.6544E+06     564.133E+03      829.72E+03    -16.1547E-03     31.6808E-03    -15.5261E-03     43.5878E-03    -16.1202E-03     31.4545E-03    -15.4456E-03     43.5822E-03
            1611     9.74841E-03     43.8668E-03    -4.99501E+06    -51.2509E+06     4.20842E+06     893.093E+03    -16.0363E-03     31.5692E-03    -15.5329E-03     39.3643E-03    -15.9999E-03     31.3209E-03    -15.4303E-03     39.3635E-03
            1612     8.86232E-03     43.8317E-03    -5.74776E+06    -51.5365E+06     3.78020E+06     569.354E+03    -15.8887E-03     31.4075E-03    -15.5188E-03     35.2142E-03    -15.8526E-03     31.1571E-03    -15.4169E-03     35.2123E-03
            1613     7.97616E-03     43.8009E-03    -6.94405E+06    -54.6914E+06     3.01411E+06     324.968E+03    -15.8001E-03     31.3097E-03    -15.5096E-03     31.0826E-03    -15.7628E-03     31.0449E-03    -15.4052E-03     31.0798E-03
            1614     7.09003E-03     43.7735E-03    -8.32112E+06    -55.9298E+06     1.90817E+06     397.341E+03    -15.7117E-03     31.2078E-03    -15.4960E-03     27.0522E-03    -15.6769E-03     30.9393E-03    -15.3933E-03     27.0519E-03
            1615     6.20382E-03     43.7501E-03    -9.90318E+06    -56.1189E+06     57.4421E+03     334.367E+03    -15.6234E-03     31.1018E-03    -15.4784E-03     23.1738E-03    -15.5929E-03     30.8368E-03    -15.3824E-03     23.1739E-03
            1616     5.31762E-03     43.7300E-03    -11.4499E+06    -57.5867E+06    -1.77684E+06     281.738E+03    -15.5538E-03     31.0178E-03    -15.4640E-03     19.4642E-03    -15.5258E-03     30.7498E-03    -15.3728E-03     19.4645E-03
            1617     4.43139E-03     43.7135E-03    -13.1087E+06    -58.7666E+06    -4.48512E+06     242.315E+03    -15.4935E-03     30.9399E-03    -15.4463E-03     15.9385E-03    -15.4679E-03     30.6721E-03    -15.3645E-03     15.9390E-03
            1618     3.54512E-03     43.7000E-03    -14.8353E+06    -60.3225E+06    -7.96706E+06     191.824E+03    -15.4476E-03     30.8746E-03    -15.4270E-03     12.5827E-03    -15.4231E-03     30.6064E-03    -15.3579E-03     12.5832E-03
            1619     2.65887E-03     43.6898E-03    -16.4652E+06    -61.7930E+06    -11.8323E+06     151.644E+03    -15.4126E-03     30.8197E-03    -15.4072E-03     9.36817E-03    -15.3883E-03     30.5520E-03    -15.3529E-03     9.36870E-03
            1620     1.77257E-03     43.6823E-03    -17.8411E+06    -62.6446E+06    -15.4679E+06     137.179E+03    -15.3953E-03     30.7823E-03    -15.3869E-03     6.27789E-03    -15.3714E-03     30.5174E-03    -15.3476E-03     6.27872E-03
            1621     886.324E-06     43.6780E-03    -18.7195E+06    -63.6709E+06    -18.1038E+06     90.9111E+03    -15.3734E-03     30.7460E-03    -15.3726E-03     3.39879E-03    -15.3484E-03     30.4811E-03    -15.3437E-03     3.39946E-03
            1622     16.8358E-03     43.4359E-03    -3.44362E+06     152.354E+06     35.3604E+06     980.539E+03    -19.3995E-03     34.8539E-03    -15.4543E-03     160.658E-03    -21.8469E-03     37.7275E-03    -15.4935E-03     162.422E-03
            1623     15.9492E-03     43.2879E-03    -5.84570E+06     91.8166E+06    -14.0331E+06     99.1794E+03    -19.1828E-03     34.4889E-03    -15.3061E-03     131.757E-03    -20.3796E-03     36.0315E-03    -15.5009E-03     132.092E-03
            1624     15.0660E-03     43.1879E-03    -5.09985E+06     37.1646E+06    -7.07304E+06     142.582E+03    -17.6503E-03     33.0513E-03    -15.4011E-03     85.9870E-03    -17.9294E-03     33.4648E-03    -15.4829E-03     85.9611E-03
            1625     14.1788E-03     43.1265E-03    -4.36985E+06    -4.54957E+06    -6.72315E+06     228.464E+03    -16.4411E-03     31.8888E-03    -15.4477E-03     61.8126E-03    -16.5194E-03     31.9549E-03    -15.4683E-03     61.7758E-03
            1626     13.2929E-03     43.0719E-03    -4.23036E+06    -28.3882E+06    -7.31165E+06     10.4853E+03    -16.5138E-03     31.9845E-03    -15.4708E-03     58.3326E-03    -16.5289E-03     31.9051E-03    -15.4600E-03     58.2964E-03
            1627     12.4069E-03     43.0174E-03    -4.33508E+06    -30.6440E+06     1.56916E+06     283.428E+03    -16.4039E-03     31.9092E-03    -15.5053E-03     54.5515E-03    -16.4117E-03     31.7883E-03    -15.4467E-03     54.5267E-03
            1628     11.5208E-03     42.9701E-03    -4.67725E+06    -36.2470E+06     1.93480E+06     717.412E+03    -16.2294E-03     31.7309E-03    -15.5015E-03     48.0023E-03    -16.2197E-03     31.5703E-03    -15.4325E-03     47.9901E-03
            1629     10.6348E-03     42.9275E-03    -4.97488E+06    -48.3169E+06     376.489E+03     410.759E+03    -16.1465E-03     31.6421E-03    -15.4957E-03     43.5476E-03    -16.1124E-03     31.4178E-03    -15.4165E-03     43.5366E-03
            1630     9.74874E-03     42.8886E-03    -5.07539E+06    -51.6249E+06     3.88806E+06     227.932E+03    -16.0097E-03     31.5115E-03    -15.5017E-03     39.2904E-03    -15.9727E-03     31.2618E-03    -15.4001E-03     39.2811E-03
            1631     8.86259E-03     42.8540E-03    -5.67173E+06    -51.1407E+06     3.92600E+06     771.919E+03    -15.8842E-03     31.3712E-03    -15.4870E-03     35.1445E-03    -15.8485E-03     31.1224E-03    -15.3850E-03     35.1454E-03
            1632     7.97644E-03     42.8228E-03    -7.02970E+06    -54.4661E+06     2.91060E+06     680.746E+03    -15.7904E-03     31.2645E-03    -15.4741E-03     31.0109E-03    -15.7536E-03     31.0010E-03    -15.3704E-03     31.0127E-03
            1633     7.09027E-03     42.7958E-03    -8.46222E+06    -55.8557E+06     1.93891E+06     508.683E+03    -15.6989E-03     31.1572E-03    -15.4583E-03     26.9558E-03    -15.6649E-03     30.8893E-03    -15.3554E-03     26.9569E-03
            1634     6.20409E-03     42.7722E-03    -9.80685E+06    -55.8129E+06     144.089E+03     450.574E+03    -15.6042E-03     31.0411E-03    -15.4369E-03     23.0857E-03    -15.5738E-03     30.7773E-03    -15.3410E-03     23.0874E-03
            1635     5.31785E-03     42.7524E-03    -11.4025E+06    -57.4592E+06    -1.87352E+06     301.731E+03    -15.5241E-03     30.9431E-03    -15.4190E-03     19.3825E-03    -15.4959E-03     30.6759E-03    -15.3285E-03     19.3831E-03
            1636     4.43159E-03     42.7357E-03    -13.0804E+06    -58.5816E+06    -4.51552E+06     244.521E+03    -15.4581E-03     30.8572E-03    -15.3991E-03     15.8694E-03    -15.4326E-03     30.5903E-03    -15.3177E-03     15.8700E-03
            1637     3.54532E-03     42.7225E-03    -14.7749E+06    -60.1920E+06    -7.90421E+06     183.301E+03    -15.4067E-03     30.7847E-03    -15.3780E-03     12.5204E-03    -15.3821E-03     30.5169E-03    -15.3088E-03     12.5208E-03
            1638     2.65899E-03     42.7121E-03    -16.4239E+06    -61.6774E+06    -11.7604E+06     189.658E+03    -15.3677E-03     30.7238E-03    -15.3561E-03     9.31597E-03    -15.3435E-03     30.4564E-03    -15.3016E-03     9.31700E-03
            1639     1.77268E-03     42.7049E-03    -17.8135E+06    -62.4667E+06    -15.4837E+06     149.132E+03    -15.3406E-03     30.6755E-03    -15.3349E-03     6.24401E-03    -15.3167E-03     30.4115E-03    -15.2959E-03     6.24501E-03
            1640     886.322E-06     42.7002E-03    -18.7037E+06    -63.4622E+06    -18.0755E+06     43.3706E+03    -15.3009E-03     30.6437E-03    -15.3427E-03     3.33777E-03    -15.2762E-03     30.3797E-03    -15.3140E-03     3.33784E-03
            1641     16.8431E-03     42.4657E-03    -2.70419E+06     152.224E+06     37.7273E+06     1.13085E+06    -20.2358E-03     35.6146E-03    -15.3788E-03     160.889E-03    -22.6501E-03     38.4504E-03    -15.4070E-03     162.588E-03
            1642     15.9530E-03     42.3082E-03    -2.46931E+06     93.3698E+06    -10.6079E+06     1.79346E+06    -18.3500E-03     33.5838E-03    -15.2338E-03     134.609E-03    -19.5600E-03     35.1472E-03    -15.4186E-03     134.983E-03
            1643     15.0650E-03     42.2103E-03    -3.48885E+06     37.7587E+06    -5.78228E+06     446.242E+03    -17.0778E-03     32.4430E-03    -15.3652E-03     86.1421E-03    -17.3481E-03     32.8518E-03    -15.4438E-03     86.1235E-03
            1644     14.1796E-03     42.1482E-03    -3.83808E+06    -4.40692E+06    -6.32232E+06     54.2154E+03    -16.4554E-03     31.8803E-03    -15.4249E-03     62.3656E-03    -16.5325E-03     31.9465E-03    -15.4445E-03     62.3264E-03
            1645     13.2933E-03     42.0942E-03    -3.57311E+06    -28.5164E+06    -7.00042E+06     335.823E+03    -16.4513E-03     31.9001E-03    -15.4488E-03     58.5380E-03    -16.4633E-03     31.8184E-03    -15.4373E-03     58.5063E-03
            1646     12.4071E-03     42.0390E-03    -4.15071E+06    -30.9084E+06     1.47570E+06     398.927E+03    -16.3988E-03     31.8822E-03    -15.4834E-03     54.6482E-03    -16.4051E-03     31.7598E-03    -15.4252E-03     54.6250E-03
            1647     11.5212E-03     41.9922E-03    -4.41218E+06    -36.2746E+06     1.65553E+06     216.884E+03    -16.2838E-03     31.7586E-03    -15.4748E-03     48.0066E-03    -16.2723E-03     31.5978E-03    -15.4075E-03     47.9879E-03
            1648     10.6351E-03     41.9493E-03    -4.32157E+06    -47.7545E+06     547.259E+03     138.318E+03    -16.1393E-03     31.6053E-03    -15.4660E-03     43.4803E-03    -16.1030E-03     31.3825E-03    -15.3877E-03     43.4659E-03
            1649     9.74897E-03     41.9108E-03    -5.20479E+06    -52.0362E+06     3.47753E+06     352.959E+03    -15.9989E-03     31.4688E-03    -15.4699E-03     39.2405E-03    -15.9612E-03     31.2178E-03    -15.3695E-03     39.2329E-03
            1650     8.86289E-03     41.8759E-03    -6.50197E+06    -51.4260E+06     3.47752E+06     723.812E+03    -15.8995E-03     31.3517E-03    -15.4522E-03     35.0541E-03    -15.8668E-03     31.1033E-03    -15.3508E-03     35.0543E-03
            1651     7.97676E-03     41.8451E-03    -7.34768E+06    -53.8593E+06     2.95622E+06     801.230E+03    -15.7897E-03     31.2243E-03    -15.4346E-03     30.9014E-03    -15.7554E-03     30.9642E-03    -15.3311E-03     30.9048E-03
            1652     7.09059E-03     41.8178E-03    -8.44505E+06    -55.7253E+06     1.79650E+06     514.451E+03    -15.6814E-03     31.0954E-03    -15.4140E-03     26.8442E-03    -15.6473E-03     30.8282E-03    -15.3120E-03     26.8454E-03
            1653     6.20438E-03     41.7946E-03    -9.83570E+06    -55.5915E+06     106.456E+03     468.231E+03    -15.5789E-03     30.9686E-03    -15.3897E-03     22.9750E-03    -15.5489E-03     30.7060E-03    -15.2943E-03     22.9769E-03
            1654     5.31812E-03     41.7745E-03    -11.3678E+06    -57.2253E+06    -1.85306E+06     416.038E+03    -15.4898E-03     30.8587E-03    -15.3689E-03     19.2838E-03    -15.4618E-03     30.5926E-03    -15.2787E-03     19.2859E-03
            1655     4.43183E-03     41.7582E-03    -13.1276E+06    -58.3691E+06    -4.56823E+06     271.425E+03    -15.4154E-03     30.7617E-03    -15.3463E-03     15.7848E-03    -15.3903E-03     30.4961E-03    -15.2655E-03     15.7857E-03
            1656     3.54549E-03     41.7448E-03    -14.9395E+06    -60.0891E+06    -8.01099E+06     222.296E+03    -15.3598E-03     30.6829E-03    -15.3231E-03     12.4475E-03    -15.3361E-03     30.4161E-03    -15.2543E-03     12.4485E-03
            1657     2.65916E-03     41.7347E-03    -16.6408E+06    -61.5544E+06    -11.9350E+06     224.567E+03    -15.3174E-03     30.6158E-03    -15.2985E-03     9.25886E-03    -15.2942E-03     30.3497E-03    -15.2447E-03     9.26036E-03
            1658     1.77278E-03     41.7272E-03    -17.9976E+06    -62.2083E+06    -15.6686E+06     147.292E+03    -15.2820E-03     30.5574E-03    -15.2755E-03     6.19892E-03    -15.2591E-03     30.2953E-03    -15.2375E-03     6.19990E-03
            1659     886.408E-06     41.7230E-03    -18.9042E+06    -63.3126E+06    -18.3142E+06     62.2580E+03    -15.2495E-03     30.5242E-03    -15.2747E-03     3.30036E-03    -15.2256E-03     30.2617E-03    -15.2471E-03     3.30069E-03
            1660     16.8353E-03     41.4841E-03    -3.43443E+06     150.196E+06     38.4948E+06    -231.250E+03    -20.5019E-03     35.9403E-03    -15.4384E-03     161.577E-03    -22.9340E-03     38.7818E-03    -15.4587E-03     163.268E-03
            1661     15.9523E-03     41.3326E-03    -2.79782E+06     93.6693E+06    -8.43011E+06     1.64812E+06    -19.4354E-03     34.7002E-03    -15.2648E-03     136.037E-03    -20.6648E-03     36.2766E-03    -15.4387E-03     136.380E-03
            1662     15.0658E-03     41.2319E-03    -2.00351E+06     39.5683E+06    -4.64533E+06     1.56394E+06    -16.9532E-03     32.3177E-03    -15.3645E-03     87.3974E-03    -17.2208E-03     32.7321E-03    -15.4422E-03     87.3945E-03
            1663     14.1791E-03     41.1702E-03    -2.62479E+06    -4.59307E+06    -6.07593E+06     512.448E+03    -16.5984E-03     32.0230E-03    -15.4246E-03     62.6368E-03    -16.6700E-03     32.0866E-03    -15.4445E-03     62.6030E-03
            1664     13.2934E-03     41.1159E-03    -3.00127E+06    -28.6092E+06    -6.95238E+06     644.236E+03    -16.6025E-03     32.0417E-03    -15.4392E-03     58.6527E-03    -16.6116E-03     31.9587E-03    -15.4281E-03     58.6246E-03
            1665     12.4074E-03     41.0612E-03    -3.05700E+06    -30.5667E+06     1.74225E+06      566.98E+03    -16.4717E-03     31.9372E-03    -15.4655E-03     54.7829E-03    -16.4734E-03     31.8144E-03    -15.4080E-03     54.7618E-03
            1666     11.5213E-03     41.0137E-03    -3.46028E+06    -36.0471E+06     1.66144E+06     151.416E+03    -16.3216E-03     31.7723E-03    -15.4508E-03     47.9234E-03    -16.3056E-03     31.6113E-03    -15.3852E-03     47.9039E-03
            1667     10.6354E-03     40.9716E-03    -4.44301E+06    -48.1576E+06     366.971E+03     562.320E+03    -16.1815E-03     31.6198E-03    -15.4383E-03     43.3339E-03    -16.1449E-03     31.3953E-03    -15.3602E-03     43.3249E-03
            1668     9.74932E-03     40.9327E-03    -5.73189E+06    -51.7641E+06     3.28837E+06     945.749E+03    -16.0307E-03     31.4662E-03    -15.4355E-03     39.1504E-03    -15.9957E-03     31.2176E-03    -15.3357E-03     39.1505E-03
            1669     8.86323E-03     40.8981E-03    -6.60444E+06    -51.3306E+06     3.15692E+06     496.442E+03    -15.9136E-03     31.3244E-03    -15.4108E-03     34.9180E-03    -15.8811E-03     31.0771E-03    -15.3110E-03     34.9153E-03
            1670     7.97712E-03     40.8671E-03    -7.46239E+06    -53.7929E+06     2.75299E+06     531.501E+03    -15.7888E-03     31.1773E-03    -15.3884E-03     30.7540E-03    -15.7550E-03     30.9180E-03    -15.2859E-03     30.7540E-03
            1671     7.09094E-03     40.8402E-03    -8.65933E+06    -55.2872E+06     1.51935E+06     635.951E+03    -15.6605E-03     31.0230E-03    -15.3624E-03     26.7108E-03    -15.6277E-03     30.7588E-03    -15.2621E-03     26.7137E-03
            1672     6.20470E-03     40.8167E-03    -10.0626E+06    -55.5191E+06    -80.8142E+03     438.181E+03    -15.5451E-03     30.8806E-03    -15.3355E-03     22.8444E-03    -15.5160E-03     30.6190E-03    -15.2408E-03     22.8460E-03
            1673     5.31843E-03     40.7971E-03    -11.5388E+06    -56.9884E+06    -1.90129E+06     429.664E+03    -15.4487E-03     30.7607E-03    -15.3121E-03     19.1668E-03    -15.4218E-03     30.4961E-03    -15.2222E-03     19.1691E-03
            1674     4.43208E-03     40.7805E-03    -13.1851E+06    -58.1210E+06    -4.63062E+06     354.754E+03    -15.3668E-03     30.6534E-03    -15.2866E-03     15.6821E-03    -15.3423E-03     30.3892E-03    -15.2063E-03     15.6841E-03
            1675     3.54573E-03     40.7674E-03    -14.9617E+06    -59.9954E+06    -8.02689E+06     289.880E+03    -15.3053E-03     30.5669E-03    -15.2616E-03     12.3626E-03    -15.2817E-03     30.3006E-03    -15.1931E-03     12.3644E-03
            1676     2.65931E-03     40.7571E-03    -16.6676E+06    -61.3631E+06    -11.9661E+06     260.827E+03    -15.2577E-03     30.4930E-03    -15.2352E-03     9.18831E-03    -15.2349E-03     30.2278E-03    -15.1819E-03     9.19029E-03
            1677     1.77290E-03     40.7500E-03    -18.1032E+06    -61.9570E+06    -15.8080E+06     198.757E+03    -15.2199E-03     30.4302E-03    -15.2103E-03     6.14771E-03    -15.1977E-03     30.1696E-03    -15.1732E-03     6.14937E-03
            1678     886.438E-06     40.7454E-03    -19.1002E+06    -63.1167E+06    -18.4541E+06     132.154E+03    -15.1956E-03     30.3924E-03    -15.1968E-03     3.28538E-03    -15.1728E-03     30.1313E-03    -15.1699E-03     3.28661E-03
            1679     16.8362E-03     40.5013E-03    -3.59503E+06     149.645E+06     38.1388E+06    -382.483E+03    -19.8511E-03     35.3490E-03    -15.4978E-03     161.240E-03    -22.3015E-03     38.2072E-03    -15.5189E-03     162.972E-03
            1680     15.9511E-03     40.3539E-03    -5.20223E+06     91.6071E+06    -10.5570E+06    -587.669E+03    -19.9546E-03     35.2743E-03    -15.3198E-03     133.390E-03    -21.1643E-03     36.8214E-03    -15.4978E-03     133.691E-03
            1681     15.0649E-03     40.2545E-03    -3.78508E+06     39.6234E+06    -6.13921E+06     997.175E+03    -17.5973E-03     32.9791E-03    -15.3818E-03     87.5559E-03    -17.8755E-03     33.4024E-03    -15.4645E-03     87.5421E-03
            1682     14.1793E-03     40.1914E-03    -2.94889E+06    -3.87319E+06    -6.50690E+06     1.51132E+06    -16.7262E-03     32.1479E-03    -15.4216E-03     62.4476E-03    -16.7994E-03     32.2157E-03    -15.4443E-03     62.4263E-03
            1683     13.2933E-03     40.1380E-03    -2.99033E+06    -28.2471E+06    -7.29277E+06     741.588E+03    -16.7600E-03     32.1866E-03    -15.4266E-03     58.3491E-03    -16.7689E-03     32.1058E-03    -15.4178E-03     58.3219E-03
            1684     12.4075E-03     40.0826E-03    -3.04439E+06    -30.2258E+06     1.53133E+06     506.842E+03    -16.5971E-03     32.0393E-03    -15.4422E-03     54.5254E-03    -16.5988E-03     31.9185E-03    -15.3863E-03     54.5033E-03
            1685     11.5217E-03     40.0359E-03    -3.81311E+06    -36.3173E+06     1.53088E+06     815.352E+03    -16.3189E-03     31.7415E-03    -15.4226E-03     47.6513E-03    -16.3040E-03     31.5796E-03    -15.3567E-03     47.6404E-03
            1686     10.6357E-03     39.9933E-03    -4.93784E+06    -48.5295E+06     331.128E+03     1.20901E+06    -16.2201E-03     31.6264E-03    -15.4063E-03     43.1192E-03    -16.1853E-03     31.4008E-03    -15.3271E-03     43.1185E-03
            1687     9.74972E-03     39.9550E-03    -5.55451E+06    -50.9621E+06     3.37862E+06     847.576E+03    -16.0834E-03     31.4773E-03    -15.3939E-03     38.9609E-03    -16.0489E-03     31.2323E-03    -15.2950E-03     38.9597E-03
            1688     8.86367E-03     39.9201E-03    -6.20685E+06    -50.9598E+06     3.01839E+06     403.402E+03    -15.9149E-03     31.2762E-03    -15.3613E-03     34.7502E-03    -15.8807E-03     31.0303E-03    -15.2634E-03     34.7464E-03
            1689     7.97754E-03     39.8895E-03    -7.33107E+06    -54.1163E+06     2.65611E+06     543.208E+03    -15.7771E-03     31.1128E-03    -15.3357E-03     30.5748E-03    -15.7420E-03     30.8518E-03    -15.2333E-03     30.5750E-03
            1690     7.09135E-03     39.8624E-03    -8.56783E+06    -54.9091E+06     1.72380E+06     673.202E+03    -15.6348E-03     30.9405E-03    -15.3057E-03     26.5433E-03    -15.6023E-03     30.6777E-03    -15.2051E-03     26.5467E-03
            1691     6.20509E-03     39.8393E-03    -10.0008E+06    -55.2752E+06    -102.222E+03     556.231E+03    -15.5063E-03     30.7805E-03    -15.2741E-03     22.7007E-03    -15.4772E-03     30.5199E-03    -15.1800E-03     22.7038E-03
            1692     5.31875E-03     39.8195E-03    -11.6471E+06    -56.7983E+06    -2.00084E+06     410.695E+03    -15.4020E-03     30.6493E-03    -15.2473E-03     19.0361E-03    -15.3758E-03     30.3858E-03    -15.1580E-03     19.0382E-03
            1693     4.43239E-03     39.8033E-03    -13.3085E+06    -57.9261E+06    -4.69645E+06     368.188E+03    -15.3121E-03     30.5310E-03    -15.2189E-03     15.5634E-03    -15.2884E-03     30.2680E-03    -15.1391E-03     15.5656E-03
            1694     3.54595E-03     39.7899E-03    -15.0452E+06    -59.8520E+06    -8.14499E+06     360.408E+03    -15.2431E-03     30.4343E-03    -15.1912E-03     12.2644E-03    -15.2201E-03     30.1690E-03    -15.1233E-03     12.2671E-03
            1695     2.65952E-03     39.7800E-03    -16.7527E+06    -61.1598E+06    -12.0794E+06     328.921E+03    -15.1920E-03     30.3544E-03    -15.1624E-03     9.10111E-03    -15.1697E-03     30.0906E-03    -15.1099E-03     9.10399E-03
            1696     1.77301E-03     39.7726E-03    -18.1615E+06    -61.6946E+06    -15.8373E+06     265.447E+03    -15.1491E-03     30.2846E-03    -15.1355E-03     6.07249E-03    -15.1275E-03     30.0255E-03    -15.0989E-03     6.07502E-03
            1697     886.530E-06     39.7684E-03    -19.0804E+06    -62.7934E+06    -18.4557E+06     141.123E+03    -15.1195E-03     30.2406E-03    -15.1210E-03     3.24405E-03    -15.0972E-03     29.9811E-03    -15.0946E-03     3.24540E-03
            1698     16.8365E-03     39.5229E-03    -2.98543E+06     150.660E+06     36.9531E+06     296.458E+03    -19.6101E-03     35.0686E-03    -15.4585E-03     161.263E-03    -22.0552E-03     37.9308E-03    -15.4878E-03     163.002E-03
            1699     15.9497E-03     39.3748E-03    -5.06060E+06     90.8424E+06    -12.6307E+06    -544.244E+03    -19.2085E-03     34.5119E-03    -15.3034E-03     132.133E-03    -20.3951E-03     36.0397E-03    -15.4909E-03     132.451E-03
            1700     15.0654E-03     39.2752E-03    -5.45323E+06     37.9511E+06    -7.56369E+06     99.8325E+03    -17.9597E-03     33.3386E-03    -15.3789E-03     86.4318E-03    -18.2412E-03     33.7574E-03    -15.4638E-03     86.4032E-03
            1701     14.1795E-03     39.2136E-03    -4.63342E+06    -3.34554E+06    -6.89775E+06     1.00308E+06    -16.9234E-03     32.3242E-03    -15.4008E-03     61.8871E-03    -17.0048E-03     32.3973E-03    -15.4237E-03     61.8585E-03
            1702     13.2937E-03     39.1592E-03    -3.87869E+06    -27.6315E+06    -7.40529E+06     923.307E+03    -16.7968E-03     32.1923E-03    -15.3955E-03     58.0115E-03    -16.8106E-03     32.1157E-03    -15.3868E-03     57.9867E-03
            1703     12.4082E-03     39.1045E-03    -4.26176E+06    -30.2988E+06     1.06806E+06     768.416E+03    -16.5896E-03     31.9960E-03    -15.4064E-03     54.0816E-03    -16.5964E-03     31.8770E-03    -15.3509E-03     54.0630E-03
            1704     11.5221E-03     39.0577E-03    -4.85013E+06    -36.5586E+06     1.33639E+06     1.00431E+06    -16.3248E-03     31.7092E-03    -15.3844E-03     47.4801E-03    -16.3143E-03     31.5478E-03    -15.3177E-03     47.4718E-03
            1705     10.6362E-03     39.0154E-03    -4.66761E+06    -48.0560E+06     396.528E+03     814.461E+03    -16.2502E-03     31.6114E-03    -15.3612E-03     42.9294E-03    -16.2148E-03     31.3877E-03    -15.2828E-03     42.9237E-03
            1706     9.75023E-03     38.9768E-03    -4.75575E+06    -50.5837E+06     3.84652E+06     652.911E+03    -16.0892E-03     31.4334E-03    -15.3442E-03     38.7170E-03    -16.0518E-03     31.1884E-03    -15.2447E-03     38.7134E-03
            1707     8.86416E-03     38.9425E-03    -5.93900E+06    -50.8153E+06     3.40565E+06     793.427E+03    -15.9115E-03     31.2185E-03    -15.3070E-03     34.5440E-03    -15.8767E-03     30.9724E-03    -15.2077E-03     34.5452E-03
            1708     7.97802E-03     38.9116E-03    -7.23697E+06    -54.0235E+06     2.59012E+06     632.756E+03    -15.7499E-03     31.0245E-03    -15.2746E-03     30.3853E-03    -15.7142E-03     30.7639E-03    -15.1729E-03     30.3867E-03
            1709     7.09182E-03     38.8850E-03    -8.46552E+06    -54.9068E+06     1.69114E+06     675.011E+03    -15.6008E-03     30.8418E-03    -15.2410E-03     26.3704E-03    -15.5678E-03     30.5789E-03    -15.1406E-03     26.3739E-03
            1710     6.20550E-03     38.8617E-03    -9.88430E+06    -54.9122E+06    -65.1176E+03     739.428E+03    -15.4687E-03     30.6735E-03    -15.2048E-03     22.5356E-03    -15.4396E-03     30.4145E-03    -15.1112E-03     22.5411E-03
            1711     5.31916E-03     38.8422E-03    -11.5494E+06    -56.5096E+06    -1.99253E+06     566.523E+03    -15.3527E-03     30.5261E-03    -15.1734E-03     18.8758E-03    -15.3264E-03     30.2640E-03    -15.0847E-03     18.8799E-03
            1712     4.43271E-03     38.8258E-03    -13.4004E+06    -57.7578E+06    -4.77113E+06     425.875E+03    -15.2518E-03     30.3929E-03    -15.1411E-03     15.4180E-03    -15.2286E-03     30.1310E-03    -15.0618E-03     15.4210E-03
            1713     3.54626E-03     38.8129E-03    -15.2110E+06    -59.7028E+06    -8.24990E+06     412.527E+03    -15.1741E-03     30.2839E-03    -15.1098E-03     12.1402E-03    -15.1519E-03     30.0197E-03    -15.0424E-03     12.1437E-03
            1714     2.65972E-03     38.8027E-03    -16.8739E+06    -60.8817E+06    -12.1086E+06     354.226E+03    -15.1156E-03     30.1935E-03    -15.0779E-03     9.00465E-03    -15.0943E-03     29.9313E-03    -15.0257E-03     9.00787E-03
            1715     1.77320E-03     38.7957E-03    -18.2323E+06    -61.4176E+06    -15.8327E+06     226.614E+03    -15.0701E-03     30.1171E-03    -15.0470E-03     5.99148E-03    -15.0494E-03     29.8595E-03    -15.0107E-03     5.99353E-03
            1716     886.585E-06     38.7912E-03    -19.0665E+06    -62.4600E+06    -18.4502E+06     127.050E+03    -15.0265E-03     30.0579E-03    -15.0314E-03     3.19566E-03    -15.0045E-03     29.8001E-03    -15.0054E-03     3.19684E-03
            1717     16.8398E-03     38.5475E-03    -3.10437E+06     150.683E+06     36.0890E+06     582.053E+03    -20.0221E-03     35.4578E-03    -15.4357E-03     162.372E-03    -22.4740E-03     38.3290E-03    -15.4693E-03     164.102E-03
            1718     15.9523E-03     38.3968E-03    -4.11507E+06     91.8229E+06    -12.3205E+06     1.13953E+06    -19.4747E-03     34.7439E-03    -15.2692E-03     133.471E-03    -20.6696E-03     36.2858E-03    -15.4579E-03     133.804E-03
            1719     15.0653E-03     38.2959E-03    -4.73428E+06     37.8364E+06    -6.81684E+06     310.120E+03    -17.9008E-03     33.2443E-03    -15.3435E-03     85.7978E-03    -18.1767E-03     33.6575E-03    -15.4256E-03     85.7715E-03
            1720     14.1803E-03     38.2353E-03    -4.66305E+06    -3.96512E+06    -6.87264E+06     20.3210E+03    -16.9545E-03     32.3154E-03    -15.3609E-03     61.3143E-03    -17.0346E-03     32.3849E-03    -15.3828E-03     61.2730E-03
            1721     13.2946E-03     38.1807E-03    -4.16768E+06    -27.8985E+06    -7.47854E+06     866.676E+03    -16.7397E-03     32.0922E-03    -15.3525E-03     57.9185E-03    -16.7543E-03     32.0146E-03    -15.3434E-03     57.8932E-03
            1722     12.4085E-03     38.1265E-03    -4.13946E+06    -30.1017E+06     1.36306E+06     1.17740E+06    -16.5538E-03     31.9176E-03    -15.3638E-03     53.9150E-03    -16.5605E-03     31.7988E-03    -15.3074E-03     53.9019E-03
            1723     11.5226E-03     38.0797E-03    -4.42966E+06    -35.9215E+06     1.46485E+06     618.320E+03    -16.3826E-03     31.7179E-03    -15.3352E-03     47.2811E-03    -16.3710E-03     31.5588E-03    -15.2694E-03     47.2677E-03
            1724     10.6368E-03     38.0373E-03    -4.78860E+06    -47.7727E+06     99.7765E+03     227.878E+03    -16.2321E-03     31.5374E-03    -15.3053E-03     42.7306E-03    -16.1971E-03     31.3156E-03    -15.2286E-03     42.7175E-03
            1725     9.75076E-03     37.9991E-03    -5.36811E+06    -50.9079E+06     3.45438E+06     595.674E+03    -16.0702E-03     31.3559E-03    -15.2857E-03     38.5539E-03    -16.0347E-03     31.1106E-03    -15.1868E-03     38.5496E-03
            1726     8.86474E-03     37.9645E-03    -5.99252E+06    -50.7836E+06     3.40564E+06     928.893E+03    -15.8979E-03     31.1424E-03    -15.2444E-03     34.3217E-03    -15.8634E-03     30.8964E-03    -15.1451E-03     34.3248E-03
            1727     7.97857E-03     37.9342E-03    -7.14815E+06    -53.6027E+06     2.48645E+06     975.837E+03    -15.7203E-03     30.9262E-03    -15.2059E-03     30.1863E-03    -15.6846E-03     30.6676E-03    -15.1053E-03     30.1922E-03
            1728     7.09229E-03     37.9074E-03    -8.69949E+06    -54.8768E+06     1.38280E+06     788.968E+03    -15.5721E-03     30.7390E-03    -15.1670E-03     26.1762E-03    -15.5398E-03     30.4770E-03    -15.0679E-03     26.1812E-03
            1729     6.20601E-03     37.8845E-03    -10.0904E+06    -54.6721E+06    -165.256E+03     760.941E+03    -15.4296E-03     30.5550E-03    -15.1254E-03     22.3302E-03    -15.4017E-03     30.2977E-03    -15.0323E-03     22.3361E-03
            1730     5.31959E-03     37.8649E-03    -11.5306E+06    -56.0991E+06    -2.00272E+06     650.894E+03    -15.2980E-03     30.3861E-03    -15.0881E-03     18.6865E-03    -15.2721E-03     30.1260E-03    -15.0001E-03     18.6918E-03
            1731     4.43313E-03     37.8488E-03    -13.1775E+06    -57.5820E+06    -4.48915E+06     533.893E+03    -15.1871E-03     30.2391E-03    -15.0520E-03     15.2479E-03    -15.1635E-03     29.9773E-03    -14.9719E-03     15.2524E-03
            1732     3.54657E-03     37.8357E-03    -15.0180E+06    -59.4900E+06    -7.88095E+06     487.681E+03    -15.0950E-03     30.1115E-03    -15.0165E-03     11.9932E-03    -15.0727E-03     29.8476E-03    -14.9479E-03     11.9977E-03
            1733     2.66000E-03     37.8258E-03    -16.7810E+06    -60.5325E+06    -11.9190E+06     349.479E+03    -15.0192E-03     30.0006E-03    -14.9814E-03     8.89562E-03    -14.9982E-03     29.7397E-03    -14.9289E-03     8.89880E-03
            1734     1.77334E-03     37.8186E-03    -18.2270E+06    -61.1201E+06    -15.7764E+06     183.580E+03    -14.9738E-03     29.9231E-03    -14.9493E-03     5.92703E-03    -14.9535E-03     29.6669E-03    -14.9131E-03     5.92853E-03
            1735     886.727E-06     37.8145E-03    -19.1185E+06    -62.2349E+06    -18.4571E+06     49.8700E+03    -14.9314E-03     29.8609E-03    -14.9295E-03     3.11572E-03    -14.9100E-03     29.6043E-03    -14.9038E-03     3.11593E-03
            1736     16.8339E-03     37.5669E-03    -3.38505E+06     149.750E+06     37.5627E+06     639.438E+03    -20.3833E-03     35.8066E-03    -15.4233E-03     160.396E-03    -22.8010E-03     38.6350E-03    -15.4477E-03     162.090E-03
            1737     15.9512E-03     37.4173E-03    -4.10617E+06     91.9187E+06    -9.85392E+06     841.382E+03    -19.7727E-03     35.0077E-03    -15.2350E-03     132.659E-03    -20.9687E-03     36.5439E-03    -15.4116E-03     132.981E-03
            1738     15.0672E-03     37.3178E-03    -3.25702E+06     39.0891E+06    -5.46961E+06     714.423E+03    -17.7058E-03     32.9983E-03    -15.2924E-03     85.3726E-03    -17.9756E-03     33.4111E-03    -15.3717E-03     85.3525E-03
            1739     14.1808E-03     37.2565E-03    -3.61157E+06    -4.25314E+06    -6.67521E+06     427.225E+03    -16.7285E-03     32.0449E-03    -15.3164E-03     61.3592E-03    -16.8025E-03     32.1104E-03    -15.3384E-03     61.3240E-03
            1740     13.2950E-03     37.2029E-03    -3.58807E+06    -28.4908E+06    -7.51100E+06     492.465E+03    -16.7683E-03     32.0799E-03    -15.3116E-03     57.8499E-03    -16.7791E-03     31.9986E-03    -15.3026E-03     57.8196E-03
            1741     12.4091E-03     37.1482E-03    -3.11790E+06    -30.0445E+06     1.73570E+06     849.495E+03    -16.6110E-03     31.9286E-03    -15.3175E-03     53.8348E-03    -16.6131E-03     31.8078E-03    -15.2608E-03     53.8174E-03
            1742     11.5235E-03     37.1014E-03    -3.69432E+06    -35.3297E+06     1.89495E+06     1.02030E+06    -16.3861E-03     31.6691E-03    -15.2831E-03     47.1409E-03    -16.3721E-03     31.5112E-03    -15.2170E-03     47.1329E-03
            1743     10.6373E-03     37.0596E-03    -4.83851E+06    -47.4190E+06     163.490E+03     657.841E+03    -16.2404E-03     31.4881E-03    -15.2477E-03     42.6183E-03    -16.2061E-03     31.2679E-03    -15.1712E-03     42.6109E-03
            1744     9.75141E-03     37.0211E-03    -5.70471E+06    -51.2556E+06     2.92290E+06     455.560E+03    -16.0682E-03     31.2890E-03    -15.2208E-03     38.3646E-03    -16.0331E-03     31.0432E-03    -15.1236E-03     38.3586E-03
            1745     8.86533E-03     36.9870E-03    -6.67318E+06    -51.1324E+06     2.77598E+06     909.289E+03    -15.8759E-03     31.0498E-03    -15.1739E-03     34.0934E-03    -15.8433E-03     30.8039E-03    -15.0762E-03     34.0964E-03
            1746     7.97914E-03     36.9565E-03    -7.75622E+06    -53.2153E+06     2.30226E+06     1.14094E+06    -15.7131E-03     30.8426E-03    -15.1296E-03     29.9555E-03    -15.6807E-03     30.5871E-03    -15.0296E-03     29.9635E-03
            1747     7.09293E-03     36.9301E-03    -8.88620E+06    -54.5070E+06     1.31155E+06     952.719E+03    -15.5468E-03     30.6293E-03    -15.0825E-03     25.9292E-03    -15.5159E-03     30.3695E-03    -14.9840E-03     25.9364E-03
            1748     6.20655E-03     36.9071E-03    -10.3307E+06    -54.4497E+06    -316.530E+03     743.687E+03    -15.3793E-03     30.4130E-03    -15.0337E-03     22.0957E-03    -15.3527E-03     30.1573E-03    -14.9413E-03     22.1014E-03
            1749     5.32013E-03     36.8879E-03    -11.8562E+06    -55.6916E+06    -2.04387E+06     570.913E+03    -15.2336E-03     30.2241E-03    -14.9905E-03     18.4751E-03    -15.2099E-03     29.9665E-03    -14.9028E-03     18.4794E-03
            1750     4.43357E-03     36.8717E-03    -13.4517E+06    -57.4388E+06    -4.56544E+06     462.635E+03    -15.1061E-03     30.0551E-03    -14.9490E-03     15.0655E-03    -15.0840E-03     29.7945E-03    -14.8690E-03     15.0691E-03
            1751     3.54699E-03     36.8590E-03    -15.1044E+06    -59.2860E+06    -7.87206E+06     495.943E+03    -14.9995E-03     29.9089E-03    -14.9094E-03     11.8418E-03    -14.9779E-03     29.6461E-03    -14.8409E-03     11.8464E-03
            1752     2.66027E-03     36.8490E-03    -16.8105E+06    -60.1115E+06    -11.9119E+06     399.703E+03    -14.9145E-03     29.7857E-03    -14.8713E-03     8.77547E-03    -14.8942E-03     29.5270E-03    -14.8193E-03     8.77932E-03
            1753     1.77355E-03     36.8421E-03    -18.2722E+06    -60.8011E+06    -15.8250E+06     161.752E+03    -14.8551E-03     29.6955E-03    -14.8404E-03     5.84380E-03    -14.8354E-03     29.4410E-03    -14.8049E-03     5.84504E-03
            1754     886.754E-06     36.8376E-03    -19.2395E+06    -62.0764E+06    -18.6043E+06     53.1046E+03    -14.8255E-03     29.6477E-03    -14.8222E-03     3.05051E-03    -14.8047E-03     29.3922E-03    -14.7973E-03     3.05077E-03
            1755     16.8436E-03     36.5920E-03    -3.21789E+06     149.858E+06     37.9645E+06     353.183E+03    -20.9788E-03     36.3394E-03    -15.3606E-03     158.950E-03    -23.3531E-03     39.1242E-03    -15.3834E-03     160.576E-03
            1756     15.9542E-03     36.4376E-03    -3.12214E+06     91.7966E+06    -9.92306E+06     517.763E+03    -19.1507E-03     34.3172E-03    -15.1665E-03     133.158E-03    -20.3425E-03     35.8525E-03    -15.3447E-03     133.487E-03
            1757     15.0672E-03     36.3401E-03    -2.69473E+06     38.9111E+06    -5.21989E+06     928.892E+03    -17.3073E-03     32.5610E-03    -15.2537E-03     85.5924E-03    -17.5721E-03     32.9696E-03    -15.3324E-03     85.5776E-03
            1758     14.1811E-03     36.2785E-03    -3.03951E+06    -3.60627E+06    -6.26898E+06     1.03471E+06    -16.7088E-03     31.9972E-03    -15.2884E-03     61.9366E-03    -16.7818E-03     32.0648E-03    -15.3101E-03     61.9094E-03
            1759     13.2954E-03     36.2244E-03    -3.27455E+06    -28.2656E+06    -7.47859E+06     553.012E+03    -16.9043E-03     32.1819E-03    -15.2775E-03     57.9187E-03    -16.9138E-03     32.1011E-03    -15.2692E-03     57.8890E-03
            1760     12.4100E-03     36.1700E-03    -3.30828E+06    -30.5024E+06     1.21106E+06     587.225E+03    -16.6976E-03     31.9698E-03    -15.2722E-03     53.7764E-03    -16.6990E-03     31.8476E-03    -15.2171E-03     53.7556E-03
            1761     11.5236E-03     36.1237E-03    -3.20836E+06    -35.4270E+06     1.86556E+06     1.01042E+06    -16.4272E-03     31.6576E-03    -15.2305E-03     47.0223E-03    -16.4105E-03     31.4984E-03    -15.1651E-03     47.0143E-03
            1762     10.6381E-03     36.0814E-03    -3.56576E+06    -46.6743E+06     917.831E+03     1.27910E+06    -16.3068E-03     31.4945E-03    -15.1878E-03     42.3637E-03    -16.2683E-03     31.2750E-03    -15.1103E-03     42.3643E-03
            1763     9.75210E-03     36.0435E-03    -5.09254E+06    -51.4131E+06     3.34702E+06     1.28103E+06    -16.0804E-03     31.2326E-03    -15.1522E-03     38.0739E-03    -16.0425E-03     30.9844E-03    -15.0535E-03     38.0787E-03
            1764     8.86597E-03     36.0093E-03    -6.78504E+06    -51.0818E+06     2.75288E+06     1.13532E+06    -15.8798E-03     30.9754E-03    -15.0956E-03     33.8329E-03    -15.8477E-03     30.7299E-03    -14.9979E-03     33.8388E-03
            1765     7.97987E-03     35.9792E-03    -7.82511E+06    -52.9707E+06     2.37077E+06     931.460E+03    -15.7091E-03     30.7512E-03    -15.0421E-03     29.6626E-03    -15.6775E-03     30.4968E-03    -14.9421E-03     29.6681E-03
            1766     7.09359E-03     35.9527E-03    -8.92250E+06    -54.1837E+06     1.45652E+06     939.142E+03    -15.5099E-03     30.4962E-03    -14.9863E-03     25.6396E-03    -15.4798E-03     30.2378E-03    -14.8875E-03     25.6467E-03
            1767     6.20722E-03     35.9301E-03    -10.2322E+06    -54.0304E+06    -175.246E+03     798.219E+03    -15.3196E-03     30.2493E-03    -14.9297E-03     21.8352E-03    -15.2932E-03     29.9953E-03    -14.8374E-03     21.8416E-03
            1768     5.32070E-03     35.9108E-03     -11.839E+06    -55.3796E+06    -1.99127E+06     596.197E+03    -15.1547E-03     30.0349E-03    -14.8802E-03     18.2381E-03    -15.1314E-03     29.7787E-03    -14.7926E-03     18.2428E-03
            1769     4.43411E-03     35.8951E-03    -13.7242E+06    -57.2384E+06    -4.71866E+06     488.258E+03    -15.0098E-03     29.8430E-03    -14.8331E-03     14.8575E-03    -14.9891E-03     29.5840E-03    -14.7538E-03     14.8614E-03
            1770     3.54737E-03     35.8822E-03    -15.6563E+06    -59.1231E+06    -8.36026E+06     422.152E+03    -14.8912E-03     29.6796E-03    -14.7883E-03     11.6674E-03    -14.8719E-03     29.4190E-03    -14.7217E-03     11.6710E-03
            1771     2.66062E-03     35.8725E-03    -17.2306E+06    -59.6616E+06    -12.3849E+06     286.701E+03    -14.7985E-03     29.5448E-03    -14.7463E-03     8.64276E-03    -14.7803E-03     29.2896E-03    -14.6968E-03     8.64518E-03
            1772     1.77378E-03     35.8654E-03    -18.4660E+06    -60.5914E+06    -16.1561E+06     161.729E+03    -14.7284E-03     29.4435E-03    -14.7152E-03     5.74952E-03    -14.7095E-03     29.1909E-03    -14.6813E-03     5.75078E-03
            1773     886.891E-06     35.8614E-03    -19.3830E+06    -61.8504E+06    -18.7573E+06     105.179E+03    -14.6947E-03     29.3999E-03    -14.7052E-03     3.02334E-03    -14.6747E-03     29.1460E-03    -14.6812E-03     3.02428E-03
            1774     16.8368E-03     35.6116E-03    -3.39753E+06     149.457E+06     37.3351E+06    -484.756E+03    -21.0970E-03     36.4930E-03    -15.3960E-03     160.870E-03    -23.4963E-03     39.3026E-03    -15.4211E-03     162.499E-03
            1775     15.9535E-03     35.4608E-03    -3.53746E+06     91.7216E+06    -10.7902E+06     971.371E+03    -19.8256E-03     35.0132E-03    -15.1876E-03     135.039E-03    -21.0297E-03     36.5616E-03    -15.3694E-03     135.353E-03
            1776     15.0672E-03     35.3618E-03    -3.48269E+06     38.6736E+06    -5.99429E+06     1.11801E+06    -17.5785E-03     32.8338E-03    -15.2554E-03     86.7773E-03    -17.8475E-03     33.2452E-03    -15.3364E-03     86.7640E-03
            1777     14.1813E-03     35.3003E-03    -2.93883E+06    -3.14662E+06    -6.21358E+06     951.704E+03    -17.1320E-03     32.4041E-03    -15.2721E-03     61.9882E-03    -17.2055E-03     32.4740E-03    -15.2943E-03     61.9584E-03
            1778     13.2958E-03     35.2458E-03    -2.63656E+06    -27.9783E+06    -7.20642E+06     1.08507E+06    -16.9827E-03     32.2270E-03    -15.2443E-03     57.6877E-03    -16.9891E-03     32.1457E-03    -15.2360E-03     57.6649E-03
            1779     12.4099E-03     35.1920E-03    -3.18969E+06    -30.3496E+06     1.24589E+06     819.512E+03    -16.8055E-03     32.0348E-03    -15.2293E-03     53.4898E-03    -16.8064E-03     31.9130E-03    -15.1744E-03     53.4719E-03
            1780     11.5248E-03     35.1454E-03    -3.91037E+06    -35.7631E+06     866.768E+03     644.907E+03    -16.5697E-03     31.7404E-03    -15.1707E-03     46.7560E-03    -16.5545E-03     31.5818E-03    -15.1088E-03     46.7432E-03
            1781     10.6387E-03     35.1036E-03    -4.18787E+06    -47.5616E+06     165.969E+03     1.53998E+06    -16.3442E-03     31.4614E-03    -15.1172E-03     42.0666E-03    -16.3063E-03     31.2393E-03    -15.0414E-03     42.0707E-03
            1782     9.75283E-03     35.0658E-03    -4.85984E+06    -50.6914E+06     3.91856E+06     2.17486E+06    -16.1239E-03     31.1980E-03    -15.0741E-03     37.7322E-03    -16.0866E-03     30.9521E-03    -14.9739E-03     37.7485E-03
            1783     8.86684E-03     35.0319E-03    -6.00877E+06    -50.1234E+06     3.30708E+06     1.40018E+06    -15.9022E-03     30.9067E-03    -15.0045E-03     33.5116E-03    -15.8684E-03     30.6640E-03    -14.9066E-03     33.5210E-03
            1784     7.98066E-03     35.0017E-03    -7.23201E+06    -52.8565E+06     2.64575E+06     953.317E+03    -15.6805E-03     30.6214E-03    -14.9410E-03     29.3244E-03    -15.6464E-03     30.3663E-03    -14.8406E-03     29.3302E-03
            1785     7.09439E-03     34.9757E-03    -8.50633E+06    -53.9066E+06     1.78723E+06     893.082E+03    -15.4606E-03     30.3379E-03    -14.8773E-03     25.3193E-03    -15.4293E-03     30.0798E-03    -14.7779E-03     25.3258E-03
            1786     6.20794E-03     34.9531E-03    -9.86263E+06    -53.6888E+06     105.291E+03     794.223E+03    -15.2503E-03     30.0632E-03    -14.8129E-03     21.5398E-03    -15.2230E-03     29.8100E-03    -14.7202E-03     21.5462E-03
            1787     5.32138E-03     34.9342E-03    -11.4103E+06    -55.0897E+06    -1.85523E+06     736.199E+03    -15.0631E-03     29.8193E-03    -14.7562E-03     17.9708E-03    -15.0383E-03     29.5638E-03    -14.6691E-03     17.9773E-03
            1788     4.43465E-03     34.9184E-03    -13.2178E+06    -57.0064E+06    -4.32225E+06     678.538E+03    -14.9055E-03     29.6108E-03    -14.7053E-03     14.6190E-03    -14.8832E-03     29.3517E-03    -14.6251E-03     14.6255E-03
            1789     3.54789E-03     34.9059E-03    -15.1297E+06    -58.7299E+06    -7.90115E+06     503.432E+03    -14.7732E-03     29.4294E-03    -14.6562E-03     11.4721E-03    -14.7525E-03     29.1694E-03    -14.5886E-03     11.4768E-03
            1790     2.66097E-03     34.8961E-03    -17.0119E+06    -59.3506E+06    -12.3971E+06     278.447E+03    -14.6667E-03     29.2766E-03    -14.6099E-03     8.49879E-03    -14.6479E-03     29.0226E-03    -14.5612E-03     8.50113E-03
            1791     1.77400E-03     34.8894E-03    -18.5078E+06    -60.3797E+06    -16.2355E+06     181.927E+03    -14.5968E-03     29.1733E-03    -14.5765E-03     5.64773E-03    -14.5783E-03     28.9219E-03    -14.5433E-03     5.64926E-03
            1792     887.009E-06     34.8851E-03    -19.3402E+06    -61.6026E+06    -18.7214E+06     53.6495E+03    -14.5575E-03     29.1197E-03    -14.5622E-03     3.00480E-03    -14.5377E-03     28.8669E-03    -14.5384E-03     3.00507E-03
            1793     16.8357E-03     34.6273E-03    -3.74590E+06     148.516E+06     36.8062E+06    -234.774E+03    -20.3966E-03     35.8690E-03    -15.4724E-03     160.578E-03    -22.8185E-03     38.6982E-03    -15.4983E-03     162.263E-03
            1794     15.9517E-03     34.4826E-03    -5.72913E+06     90.3807E+06    -11.5888E+06    -268.666E+03    -20.8605E-03     36.1122E-03    -15.2517E-03     131.729E-03    -22.0419E-03     37.6277E-03    -15.4324E-03     132.002E-03
            1795     15.0662E-03     34.3828E-03    -4.51860E+06     38.9672E+06    -6.89033E+06     536.911E+03    -18.4882E-03     33.7415E-03    -15.2533E-03     85.8051E-03    -18.7630E-03     34.1586E-03    -15.3377E-03     85.7781E-03
            1796     14.1819E-03     34.3209E-03    -3.81772E+06    -3.19265E+06    -6.71002E+06     908.971E+03    -17.3150E-03     32.5515E-03    -15.2365E-03     60.9969E-03    -17.3908E-03     32.6219E-03    -15.2599E-03     60.9661E-03
            1797     13.2965E-03     34.2681E-03    -3.72136E+06    -27.8545E+06    -7.76416E+06     1.01995E+06    -17.0876E-03     32.2825E-03    -15.1949E-03     57.2289E-03    -17.0985E-03     32.2038E-03    -15.1880E-03     57.2051E-03
            1798     12.4110E-03     34.2132E-03    -3.46045E+06    -30.1986E+06     960.100E+03     987.544E+03    -16.8793E-03     32.0484E-03    -15.1691E-03     53.0181E-03    -16.8811E-03     31.9279E-03    -15.1155E-03     53.0025E-03
            1799     11.5251E-03     34.1675E-03    -4.29565E+06    -35.8637E+06     1.02736E+06     1.29020E+06    -16.5935E-03     31.6975E-03    -15.1040E-03     46.3021E-03    -16.5801E-03     31.5385E-03    -15.0406E-03     46.2977E-03
            1800     10.6396E-03     34.1257E-03    -5.32429E+06    -48.3345E+06    -489.350E+03     1.51751E+06    -16.4086E-03     31.4467E-03    -15.0381E-03     41.7204E-03    -16.3742E-03     31.2232E-03    -14.9627E-03     41.7242E-03
            1801     9.75375E-03     34.0881E-03    -5.28594E+06    -50.2581E+06     3.66030E+06     1.58718E+06    -16.1715E-03     31.1525E-03    -14.9809E-03     37.3806E-03    -16.1365E-03     30.9097E-03    -14.8821E-03     37.3895E-03
            1802     8.86776E-03     34.0543E-03    -5.56991E+06    -49.1405E+06     3.84960E+06     1.59930E+06    -15.9045E-03     30.8054E-03    -14.9009E-03     33.1263E-03    -15.8706E-03     30.5661E-03    -14.8023E-03     33.1384E-03
            1803     7.98160E-03     34.0247E-03    -6.72280E+06    -52.4711E+06     2.88023E+06     1.17270E+06    -15.6421E-03     30.4686E-03    -14.8265E-03     28.9683E-03    -15.6063E-03     30.2143E-03    -14.7263E-03     28.9770E-03
            1804     7.09525E-03     33.9986E-03    -8.02794E+06    -53.6560E+06     1.89518E+06     965.402E+03    -15.3992E-03     30.1532E-03    -14.7541E-03     24.9742E-03    -15.3659E-03     29.8954E-03    -14.6551E-03     24.9818E-03
            1805     6.20876E-03     33.9765E-03    -9.54861E+06    -53.4606E+06     157.098E+03     962.317E+03    -15.1678E-03     29.8498E-03    -14.6820E-03     21.2158E-03    -15.1393E-03     29.5972E-03    -14.5899E-03     21.2245E-03
            1806     5.32209E-03     33.9576E-03    -11.3528E+06    -54.8691E+06    -1.83346E+06     956.686E+03    -14.9625E-03     29.5812E-03    -14.6188E-03     17.6783E-03    -14.9377E-03     29.3267E-03    -14.5319E-03     17.6878E-03
            1807     4.43532E-03     33.9422E-03    -13.1969E+06    -56.5716E+06    -4.56404E+06     804.274E+03    -14.7836E-03     29.3442E-03    -14.5607E-03     14.3671E-03    -14.7614E-03     29.0876E-03    -14.4823E-03     14.3752E-03
            1808     3.54837E-03     33.9296E-03    -14.9792E+06    -58.3230E+06    -7.91299E+06     572.241E+03    -14.6385E-03     29.1472E-03    -14.5087E-03     11.2647E-03    -14.6176E-03     28.8890E-03    -14.4420E-03     11.2704E-03
            1809     2.66137E-03     33.9202E-03    -16.6652E+06    -59.0089E+06    -11.9393E+06     460.754E+03    -14.5275E-03     28.9885E-03    -14.4610E-03     8.33496E-03    -14.5081E-03     28.7351E-03    -14.4110E-03     8.33969E-03
            1810     1.77430E-03     33.9133E-03    -18.1057E+06    -59.9918E+06    -15.8031E+06     200.565E+03    -14.4527E-03     28.8758E-03    -14.4231E-03     5.53743E-03    -14.4334E-03     28.6250E-03    -14.3888E-03     5.53923E-03
            1811     887.156E-06     33.9094E-03    -18.9894E+06    -61.4686E+06    -18.4317E+06     39.7605E+03    -14.3946E-03     28.8076E-03    -14.4130E-03     2.95296E-03    -14.3737E-03     28.5545E-03    -14.3885E-03     2.95305E-03
            1812     16.8366E-03     33.6479E-03    -3.17521E+06     149.500E+06     36.7676E+06      864.09E+03    -20.5602E-03     35.9597E-03    -15.3995E-03     158.611E-03    -22.9431E-03     38.7556E-03    -15.4278E-03     160.267E-03
            1813     15.9515E-03     33.5019E-03    -5.21187E+06     90.2329E+06    -12.6329E+06    -414.056E+03    -20.0796E-03     35.2611E-03    -15.1816E-03     129.191E-03    -21.2286E-03     36.7486E-03    -15.3680E-03     129.477E-03
            1814     15.0691E-03     33.4028E-03    -5.19197E+06     37.8333E+06    -7.52870E+06    -133.244E+03    -18.5406E-03     33.7391E-03    -15.1985E-03     84.0751E-03    -18.8132E-03     34.1494E-03    -15.2835E-03     84.0379E-03
            1815     14.1828E-03     33.3435E-03    -4.66641E+06    -3.29746E+06    -7.03062E+06     728.253E+03    -17.2150E-03     32.3921E-03    -15.1771E-03     60.5178E-03    -17.2936E-03     32.4628E-03    -15.2007E-03     60.4852E-03
            1816     13.2971E-03     33.2886E-03    -4.33653E+06    -27.5388E+06    -7.95642E+06     757.115E+03    -17.1701E-03     32.3008E-03    -15.1307E-03     56.9801E-03    -17.1841E-03     32.2247E-03    -15.1242E-03     56.9528E-03
            1817     12.4120E-03     33.2356E-03    -4.60527E+06    -30.5155E+06     429.229E+03     1.10216E+06    -16.9284E-03     32.0232E-03    -15.0947E-03     52.6651E-03    -16.9344E-03     31.9032E-03    -15.0417E-03     52.6510E-03
            1818     11.5264E-03     33.1891E-03    -4.86093E+06    -36.1352E+06     1.06415E+06     1.59012E+06    -16.6137E-03     31.6360E-03    -15.0223E-03     45.9405E-03    -16.6025E-03     31.4762E-03    -14.9575E-03     45.9401E-03
            1819     10.6405E-03     33.1480E-03    -4.99353E+06    -47.5062E+06    -148.581E+03     1.27661E+06    -16.4446E-03     31.3895E-03    -14.9449E-03     41.2846E-03    -16.4101E-03     31.1690E-03    -14.8695E-03     41.2854E-03
            1820     9.75478E-03     33.1104E-03    -5.38703E+06    -50.4039E+06     3.10887E+06     838.788E+03    -16.1825E-03     31.0565E-03    -14.8739E-03     36.9835E-03    -16.1469E-03     30.8138E-03    -14.7775E-03     36.9828E-03
            1821     8.86879E-03     33.0771E-03    -5.82669E+06    -49.1297E+06     3.58298E+06     1.22937E+06    -15.8820E-03     30.6667E-03    -14.7847E-03     32.7199E-03    -15.8489E-03     30.4281E-03    -14.6871E-03     32.7274E-03
            1822     7.98260E-03     33.0475E-03    -6.63461E+06    -51.8675E+06     2.77923E+06     1.46416E+06    -15.6035E-03     30.3031E-03    -14.6996E-03     28.5806E-03    -15.5680E-03     30.0518E-03    -14.6009E-03     28.5932E-03
            1823     7.09623E-03     33.0220E-03    -8.17580E+06    -53.4145E+06     1.56384E+06     1.28710E+06    -15.3301E-03     29.9474E-03    -14.6172E-03     24.5983E-03    -15.2974E-03     29.6915E-03    -14.5201E-03     24.6102E-03
            1824     6.20964E-03     32.9999E-03    -9.80286E+06    -53.2060E+06    -86.6158E+03     1.21475E+06    -15.0754E-03     29.6127E-03    -14.5373E-03     20.8591E-03    -15.0481E-03     29.3620E-03    -14.4464E-03     20.8711E-03
            1825     5.32291E-03     32.9814E-03    -11.3433E+06    -54.5675E+06    -1.94342E+06     1.12190E+06    -14.8479E-03     29.3149E-03    -14.4669E-03     17.3538E-03    -14.8234E-03     29.0620E-03    -14.3811E-03     17.3654E-03
            1826     4.43599E-03     32.9660E-03    -13.0474E+06    -56.0177E+06    -4.59841E+06     934.664E+03    -14.6514E-03     29.0541E-03    -14.4027E-03     14.0870E-03    -14.6292E-03     28.8000E-03    -14.3255E-03     14.0968E-03
            1827     3.54896E-03     32.9538E-03    -14.9076E+06    -57.8576E+06    -7.94081E+06     643.208E+03    -14.4946E-03     28.8405E-03    -14.3458E-03     11.0304E-03    -14.4740E-03     28.5846E-03    -14.2800E-03     11.0371E-03
            1828     2.66183E-03     32.9443E-03    -16.5432E+06    -58.6141E+06    -11.7712E+06     349.607E+03    -14.3734E-03     28.6679E-03    -14.2945E-03     8.15865E-03    -14.3542E-03     28.4160E-03    -14.2444E-03     8.16198E-03
            1829     1.77457E-03     32.9378E-03    -17.7529E+06    -59.6529E+06    -15.5326E+06     232.353E+03    -14.2870E-03     28.5406E-03    -14.2536E-03     5.41983E-03    -14.2668E-03     28.2907E-03    -14.2190E-03     5.42206E-03
            1830     887.321E-06     32.9336E-03    -18.6691E+06    -61.2609E+06    -18.1272E+06     114.913E+03    -14.2218E-03     28.4676E-03    -14.2458E-03     2.88888E-03    -14.2000E-03     28.2147E-03    -14.2205E-03     2.88995E-03
            1831     16.8444E-03     32.6754E-03    -2.60900E+06     149.589E+06     37.9037E+06     751.336E+03    -21.5714E-03     36.8837E-03    -15.3123E-03     158.443E-03    -23.9105E-03     39.6347E-03    -15.3359E-03     160.017E-03
            1832     15.9557E-03     32.5215E-03    -2.41555E+06     91.6735E+06    -10.1886E+06     1.72149E+06    -19.4951E-03     34.5818E-03    -15.0867E-03     131.915E-03    -20.6557E-03     36.0888E-03    -15.2671E-03     132.239E-03
            1833     15.0682E-03     32.4250E-03    -3.47002E+06     37.7360E+06    -6.20012E+06     609.446E+03    -17.9915E-03     33.1270E-03    -15.1356E-03     83.9773E-03    -18.2527E-03     33.5279E-03    -15.2162E-03     83.9531E-03
            1834     14.1835E-03     32.3641E-03    -4.23073E+06    -3.38926E+06    -6.72310E+06     249.976E+03    -17.3191E-03     32.4394E-03    -15.1203E-03     60.6075E-03    -17.3959E-03     32.5087E-03    -15.1429E-03     60.5683E-03
            1835     13.2985E-03     32.3109E-03    -4.00423E+06    -27.8379E+06    -7.76437E+06     978.568E+03    -17.2318E-03     32.2963E-03    -15.0644E-03     56.8174E-03    -17.2437E-03     32.2176E-03    -15.0571E-03     56.7929E-03
            1836     12.4127E-03     32.2568E-03    -4.40185E+06    -30.7832E+06     551.773E+03     1.34010E+06    -16.9833E-03     32.0024E-03    -15.0190E-03     52.4290E-03    -16.9877E-03     31.8803E-03    -14.9653E-03     52.4181E-03
            1837     11.5273E-03     32.2115E-03    -4.70935E+06    -35.8358E+06     751.033E+03     1.24257E+06    -16.7400E-03     31.6703E-03    -14.9304E-03     45.7146E-03    -16.7278E-03     31.5121E-03    -14.8678E-03     45.7097E-03
            1838     10.6417E-03     32.1700E-03    -4.70735E+06    -46.8759E+06    -303.848E+03      991.38E+03    -16.4813E-03     31.3197E-03    -14.8385E-03     40.9519E-03    -16.4458E-03     31.1020E-03    -14.7652E-03     40.9492E-03
            1839     9.75593E-03     32.1330E-03    -5.19054E+06    -50.1990E+06     2.67356E+06     807.938E+03    -16.1677E-03     30.9236E-03    -14.7559E-03     36.5662E-03    -16.1306E-03     30.6821E-03    -14.6622E-03     36.5653E-03
            1840     8.86989E-03     32.0998E-03    -6.17435E+06    -49.7854E+06     2.55783E+06     1.02150E+06    -15.8615E-03     30.5168E-03    -14.6553E-03     32.2944E-03    -15.8276E-03     30.2768E-03    -14.5614E-03     32.2993E-03
            1841     7.98369E-03     32.0707E-03    -7.33864E+06    -51.7485E+06     2.24335E+06     1.65373E+06    -15.5566E-03     30.1176E-03    -14.5609E-03     28.1321E-03    -15.5239E-03     29.8686E-03    -14.4641E-03     28.1473E-03
            1842     7.09726E-03     32.0453E-03    -8.65198E+06    -52.8432E+06     1.34526E+06     1.66394E+06    -15.2591E-03     29.7275E-03    -14.4684E-03     24.1743E-03    -15.2293E-03     29.4754E-03    -14.3725E-03     24.1911E-03
            1843     6.21064E-03     32.0237E-03    -10.1098E+06    -52.8297E+06    -253.753E+03     1.31397E+06    -14.9757E-03     29.3545E-03    -14.3789E-03     20.4574E-03    -14.9503E-03     29.1064E-03    -14.2889E-03     20.4707E-03
            1844     5.32379E-03     32.0053E-03    -11.6007E+06    -54.1210E+06    -2.15042E+06     1.09067E+06    -14.7209E-03     29.0208E-03    -14.2999E-03     16.9924E-03    -14.6980E-03     28.7708E-03    -14.2154E-03     17.0037E-03
            1845     4.43676E-03     31.9903E-03    -13.1481E+06    -55.6088E+06    -4.59091E+06     942.746E+03    -14.5083E-03     28.7380E-03    -14.2296E-03     13.7762E-03    -14.4872E-03     28.4860E-03    -14.1529E-03     13.7862E-03
            1846     3.54961E-03     31.9781E-03    -14.8004E+06    -57.1527E+06    -8.02231E+06     702.181E+03    -14.3353E-03     28.5010E-03    -14.1657E-03     10.7780E-03    -14.3151E-03     28.2485E-03    -14.1014E-03     10.7855E-03
            1847     2.66229E-03     31.9691E-03    -16.4617E+06    -58.2419E+06    -12.1108E+06     333.994E+03    -14.1969E-03     28.3067E-03    -14.1099E-03     7.97071E-03    -14.1773E-03     28.0571E-03    -14.0621E-03     7.97387E-03
            1848     1.77495E-03     31.9623E-03    -17.8615E+06    -59.4816E+06    -15.6988E+06     241.981E+03    -14.1013E-03     28.1712E-03    -14.0699E-03     5.29751E-03    -14.0817E-03     27.9225E-03    -14.0362E-03     5.29988E-03
            1849     887.442E-06     31.9586E-03    -18.7083E+06    -60.8569E+06    -18.1367E+06     194.023E+03    -14.0570E-03     28.1015E-03    -14.0445E-03     2.82890E-03    -14.0360E-03     27.8507E-03    -14.0199E-03     2.83101E-03
            1850     16.8367E-03     31.6932E-03    -3.30119E+06     147.884E+06     38.0167E+06    -232.946E+03    -21.9476E-03     37.3008E-03    -15.3531E-03     158.495E-03    -24.2850E-03     40.0412E-03    -15.3727E-03     160.046E-03
            1851     15.9545E-03     31.5442E-03    -2.93127E+06     91.5379E+06    -8.92769E+06     1.50068E+06    -20.7308E-03     35.8202E-03    -15.0894E-03     132.770E-03    -21.9054E-03     37.3352E-03    -15.2625E-03     133.060E-03
            1852     15.0701E-03     31.4460E-03    -2.12153E+06     39.3716E+06    -5.09347E+06     1.64158E+06    -18.1226E-03     33.2176E-03    -15.0950E-03     84.3541E-03    -18.3799E-03     33.6220E-03    -15.1745E-03     84.3426E-03
            1853     14.1843E-03     31.3857E-03    -2.94277E+06    -3.49147E+06    -6.59569E+06     1.03504E+06    -17.4355E-03     32.5036E-03    -15.0681E-03     60.5376E-03    -17.5051E-03     32.5695E-03    -15.0918E-03     60.5083E-03
            1854     13.2989E-03     31.3320E-03    -3.43802E+06    -28.4682E+06    -8.16769E+06     1.10484E+06    -17.4028E-03     32.4013E-03    -14.9985E-03     56.5900E-03    -17.4099E-03     32.3188E-03    -14.9931E-03     56.5670E-03
            1855     12.4140E-03     31.2790E-03    -3.24467E+06    -30.5760E+06     712.317E+03     1.34890E+06    -17.1366E-03     32.0741E-03    -14.9375E-03     52.0918E-03    -17.1354E-03     31.9507E-03    -14.8849E-03     52.0810E-03
            1856     11.5283E-03     31.2330E-03    -3.45378E+06    -35.2443E+06     879.185E+03     1.26280E+06    -16.8194E-03     31.6521E-03    -14.8326E-03     45.2915E-03    -16.8018E-03     31.4945E-03    -14.7721E-03     45.2871E-03
            1857     10.6429E-03     31.1925E-03    -4.10187E+06    -46.7624E+06    -633.311E+03     1.08464E+06    -16.5462E-03     31.2718E-03    -14.7256E-03     40.4641E-03    -16.5072E-03     31.0540E-03    -14.6550E-03     40.4628E-03
            1858     9.75708E-03     31.1555E-03    -5.26468E+06    -50.2160E+06     2.24120E+06     1.35061E+06    -16.1863E-03     30.8155E-03    -14.6292E-03     36.1075E-03    -16.1487E-03     30.5745E-03    -14.5376E-03     36.1139E-03
            1859     8.87114E-03     31.1228E-03    -6.89084E+06    -50.0254E+06     1.90488E+06     1.62654E+06    -15.8427E-03     30.3581E-03    -14.5155E-03     31.7798E-03    -15.8109E-03     30.1188E-03    -14.4234E-03     31.7927E-03
            1860     7.98489E-03     31.0940E-03    -8.22779E+06    -51.7055E+06     1.62947E+06     1.58711E+06    -15.5050E-03     29.9136E-03    -14.4085E-03     27.6325E-03    -15.4759E-03     29.6669E-03    -14.3135E-03     27.6469E-03
            1861     7.09842E-03     31.0690E-03    -9.10168E+06    -52.3119E+06     1.06080E+06     1.51420E+06    -15.1766E-03     29.4812E-03    -14.3046E-03     23.6945E-03    -15.1493E-03     29.2328E-03    -14.2103E-03     23.7095E-03
            1862     6.21170E-03     31.0476E-03    -10.2631E+06    -52.3444E+06    -334.361E+03     1.40272E+06    -14.8640E-03     29.0695E-03    -14.2055E-03     20.0111E-03    -14.8399E-03     28.8241E-03    -14.1164E-03     20.0257E-03
            1863     5.32475E-03     31.0297E-03    -11.9840E+06    -53.6145E+06    -2.27855E+06     1.20743E+06    -14.5851E-03     28.7026E-03    -14.1175E-03     16.5959E-03    -14.5646E-03     28.4559E-03    -14.0338E-03     16.6088E-03
            1864     4.43762E-03     31.0148E-03    -13.8576E+06    -55.1303E+06    -5.28611E+06     917.018E+03    -14.3435E-03     28.3812E-03    -14.0376E-03     13.4440E-03    -14.3256E-03     28.1337E-03    -13.9640E-03     13.4538E-03
            1865     3.55028E-03     31.0031E-03    -15.5084E+06    -56.5679E+06    -8.99154E+06     609.345E+03    -14.1519E-03     28.1193E-03    -13.9674E-03     10.5171E-03    -14.1346E-03     27.8722E-03    -13.9078E-03     10.5234E-03
            1866     2.66286E-03     30.9939E-03    -16.9135E+06    -57.8370E+06    -12.7160E+06     398.843E+03    -14.0058E-03     27.9158E-03    -13.9100E-03     7.76379E-03    -13.9882E-03     27.6697E-03    -13.8652E-03     7.76782E-03
            1867     1.77522E-03     30.9876E-03    -18.0754E+06    -59.2774E+06    -15.9406E+06     224.060E+03    -13.9092E-03     27.7769E-03    -13.8677E-03     5.16291E-03    -13.8905E-03     27.5299E-03    -13.8353E-03     5.16507E-03
            1868     887.680E-06     30.9835E-03    -18.9113E+06    -60.4750E+06    -18.2782E+06     162.244E+03    -13.8504E-03     27.6921E-03    -13.8417E-03     2.75163E-03    -13.8307E-03     27.4437E-03    -13.8180E-03     2.75334E-03
            1869     16.8384E-03     30.7097E-03    -3.85084E+06     147.948E+06     36.6774E+06    -509.242E+03    -21.7739E-03     37.1477E-03    -15.3737E-03     156.551E-03    -24.0979E-03     39.8769E-03    -15.3993E-03     158.098E-03
            1870     15.9550E-03     30.5643E-03    -5.38444E+06     89.3843E+06    -12.3971E+06    -455.953E+03    -21.1977E-03     36.2855E-03    -15.0878E-03     129.675E-03    -22.3448E-03     37.7667E-03    -15.2716E-03     129.922E-03
            1871     15.0696E-03     30.4670E-03    -4.07911E+06     38.7407E+06    -6.93025E+06     1.27150E+06    -18.6717E-03     33.7341E-03    -15.0623E-03     84.0561E-03    -18.9351E-03     34.1406E-03    -15.1472E-03     84.0362E-03
            1872     14.1850E-03     30.4071E-03    -2.62867E+06    -2.03923E+06    -6.39077E+06     1.78991E+06    -17.6672E-03     32.6798E-03    -15.0127E-03     60.2300E-03    -17.7368E-03     32.7514E-03    -15.0378E-03     60.2099E-03
            1873     13.3001E-03     30.3532E-03    -2.57553E+06    -28.4767E+06    -8.35611E+06     1.28831E+06    -17.5839E-03     32.5084E-03    -14.9245E-03     56.1464E-03    -17.5859E-03     32.4244E-03    -14.9213E-03     56.1256E-03
            1874     12.4149E-03     30.3005E-03    -3.10686E+06    -30.5354E+06     242.240E+03     1.34447E+06    -17.3199E-03     32.1641E-03    -14.8442E-03     51.5372E-03    -17.3171E-03     32.0411E-03    -14.7942E-03     51.5262E-03
            1875     11.5297E-03     30.2551E-03    -3.53708E+06    -35.0658E+06     292.321E+03     1.43281E+06    -16.8890E-03     31.6104E-03    -14.7213E-03     44.7796E-03    -16.8709E-03     31.4543E-03    -14.6639E-03     44.7776E-03
            1876     10.6441E-03     30.2146E-03    -4.14703E+06    -47.1130E+06    -1.04149E+06     1.78672E+06    -16.5801E-03     31.1817E-03    -14.6016E-03     39.8766E-03    -16.5399E-03     30.9626E-03    -14.5325E-03     39.8846E-03
            1877     9.75851E-03     30.1783E-03    -5.48378E+06    -50.3042E+06     2.35421E+06     2.36579E+06    -16.2215E-03     30.7139E-03    -14.4924E-03     35.4783E-03    -16.1850E-03     30.4725E-03    -14.3997E-03     35.4978E-03
            1878     8.87247E-03     30.1459E-03    -6.77673E+06    -49.3398E+06     2.21384E+06     2.03460E+06    -15.8151E-03     30.1778E-03    -14.3628E-03     31.1977E-03    -15.7841E-03     29.9412E-03    -14.2703E-03     31.2160E-03
            1879     7.98622E-03     30.1175E-03    -7.67085E+06    -51.2861E+06     1.79607E+06     1.48958E+06    -15.4482E-03     29.6899E-03    -14.2417E-03     27.0732E-03    -15.4170E-03     29.4442E-03    -14.1472E-03     27.0865E-03
            1880     7.09970E-03     30.0929E-03    -8.94035E+06    -52.0858E+06     951.277E+03     1.41877E+06    -15.0797E-03     29.2050E-03    -14.1254E-03     23.1577E-03    -15.0516E-03     28.9576E-03    -14.0321E-03     23.1715E-03
            1881     6.21286E-03     30.0720E-03    -10.3938E+06    -51.9661E+06    -479.282E+03     1.43936E+06    -14.7363E-03     28.7524E-03    -14.0161E-03     19.5267E-03    -14.7131E-03     28.5092E-03    -13.9280E-03     19.5419E-03
            1882     5.32583E-03     30.0542E-03    -11.8340E+06    -53.0817E+06    -2.23006E+06     1.30796E+06    -14.4314E-03     28.3511E-03    -13.9198E-03     16.1622E-03    -14.4109E-03     28.1067E-03    -13.8368E-03     16.1765E-03
            1883     4.43850E-03     30.0399E-03    -13.4501E+06    -54.4530E+06    -5.02253E+06     989.467E+03    -14.1694E-03     28.0026E-03    -13.8332E-03     13.0816E-03    -14.1508E-03     27.7575E-03    -13.7599E-03     13.0924E-03
            1884     3.55105E-03     30.0281E-03    -15.1932E+06    -56.0975E+06    -8.75109E+06     632.820E+03    -13.9598E-03     27.7175E-03    -13.7577E-03     10.2186E-03    -13.9420E-03     27.4720E-03    -13.6981E-03     10.2252E-03
            1885     2.66336E-03     30.0194E-03    -16.8026E+06    -57.4008E+06    -12.6899E+06     355.818E+03    -13.8056E-03     27.5003E-03    -13.6947E-03     7.53878E-03    -13.7881E-03     27.2562E-03    -13.6506E-03     7.54230E-03
            1886     1.77572E-03     30.0129E-03    -18.0623E+06    -59.0590E+06    -16.0156E+06     230.459E+03    -13.7027E-03     27.3488E-03    -13.6461E-03     5.01543E-03    -13.6842E-03     27.1029E-03    -13.6144E-03     5.01770E-03
            1887     887.830E-06     30.0093E-03    -18.8503E+06    -60.1715E+06    -18.3159E+06     122.941E+03    -13.6213E-03     27.2418E-03    -13.6205E-03     2.64180E-03    -13.6018E-03     26.9949E-03    -13.5975E-03     2.64301E-03
            1888     16.8398E-03     29.7295E-03    -3.48913E+06     148.473E+06     35.8890E+06     458.990E+03    -22.0916E-03     37.4270E-03    -15.3354E-03     157.291E-03    -24.4182E-03     40.1642E-03    -15.3662E-03     158.831E-03
            1889     15.9545E-03     29.5843E-03    -4.93794E+06     89.2861E+06    -13.7587E+06    -16.4500E+03    -20.9836E-03     36.0264E-03    -15.0428E-03     128.267E-03    -22.1032E-03     37.4854E-03    -15.2339E-03     128.511E-03
            1890     15.0708E-03     29.4876E-03    -5.04018E+06     37.3738E+06    -8.13665E+06     47.9642E+03    -18.8960E-03     33.9117E-03    -15.0157E-03     82.9830E-03    -19.1569E-03     34.3110E-03    -15.1033E-03     82.9450E-03
            1891     14.1861E-03     29.4280E-03    -4.22280E+06    -2.16769E+06    -7.07606E+06     1.01017E+06    -17.9553E-03     32.9020E-03    -14.9467E-03     59.6363E-03    -18.0313E-03     32.9758E-03    -14.9728E-03     59.6051E-03
            1892     13.3011E-03     29.3748E-03    -3.47225E+06    -27.7583E+06    -8.62434E+06     1.52216E+06    -17.7571E-03     32.5945E-03    -14.8374E-03     55.7503E-03    -17.7638E-03     32.5153E-03    -14.8352E-03     55.7322E-03
            1893     12.4163E-03     29.3219E-03    -3.43243E+06    -30.6652E+06    -207.087E+03     1.46255E+06    -17.4321E-03     32.1713E-03    -14.7392E-03     50.9779E-03    -17.4296E-03     32.0483E-03    -14.6908E-03     50.9686E-03
            1894     11.5310E-03     29.2773E-03    -4.30135E+06    -35.3117E+06     293.437E+03     1.97038E+06    -17.0038E-03     31.6052E-03    -14.6014E-03     44.1115E-03    -16.9888E-03     31.4487E-03    -14.5425E-03     44.1164E-03
            1895     10.6457E-03     29.2370E-03    -5.36115E+06    -47.4036E+06    -1.28762E+06     2.43571E+06    -16.6208E-03     31.0840E-03    -14.4632E-03     39.2697E-03    -16.5857E-03     30.8653E-03    -14.3931E-03     39.2862E-03
            1896     9.75997E-03     29.2011E-03    -5.50365E+06    -50.0005E+06     2.29339E+06     2.25817E+06    -16.2120E-03     30.5489E-03    -14.3369E-03     34.8039E-03    -16.1758E-03     30.3089E-03    -14.2449E-03     34.8222E-03
            1897     8.87399E-03     29.1693E-03    -5.55458E+06    -48.3592E+06     2.63071E+06     1.93545E+06    -15.7842E-03     29.9767E-03    -14.1924E-03     30.5681E-03    -15.7491E-03     29.7425E-03    -14.1011E-03     30.5853E-03
            1898     7.98770E-03     29.1412E-03    -6.70105E+06    -51.0195E+06     2.08905E+06     1.82668E+06    -15.3694E-03     29.4283E-03    -14.0589E-03     26.4576E-03    -15.3341E-03     29.1821E-03    -13.9648E-03     26.4754E-03
            1899     7.10106E-03     29.1172E-03    -8.30342E+06    -51.7616E+06     1.34917E+06     1.83602E+06    -14.9708E-03     28.9027E-03    -13.9319E-03     22.5791E-03    -14.9406E-03     28.6554E-03    -13.8381E-03     22.5985E-03
            1900     6.21417E-03     29.0964E-03    -9.98017E+06    -51.4656E+06    -228.456E+03     1.57569E+06    -14.5931E-03     28.4048E-03    -13.8117E-03     18.9983E-03    -14.5690E-03     28.1632E-03    -13.7237E-03     19.0153E-03
            1901     5.32693E-03     29.0793E-03    -11.5868E+06    -52.5193E+06    -2.10371E+06     1.21693E+06    -14.2616E-03     27.9679E-03    -13.7063E-03     15.7000E-03    -14.2409E-03     27.7257E-03    -13.6239E-03     15.7132E-03
            1902     4.43951E-03     29.0650E-03    -13.1286E+06    -53.8591E+06    -4.73547E+06     955.435E+03    -13.9834E-03     27.5962E-03    -13.6128E-03     12.6814E-03    -13.9644E-03     27.3531E-03    -13.5394E-03     12.6918E-03
            1903     3.55183E-03     29.0538E-03    -14.7430E+06    -55.5877E+06    -8.36347E+06     742.110E+03    -13.7558E-03     27.2868E-03    -13.5311E-03     9.89885E-03    -13.7370E-03     27.0426E-03    -13.4709E-03     9.90697E-03
            1904     2.66407E-03     29.0450E-03    -16.3886E+06    -56.9991E+06    -12.4324E+06     552.693E+03    -13.5879E-03     27.0500E-03    -13.4622E-03     7.31030E-03    -13.5692E-03     26.8069E-03    -13.4179E-03     7.31640E-03
            1905     1.77603E-03     29.0390E-03    -17.8033E+06    -58.7223E+06    -15.8563E+06     371.248E+03    -13.4689E-03     26.8794E-03    -13.4105E-03     4.85184E-03    -13.4498E-03     26.6347E-03    -13.3788E-03     4.85596E-03
            1906     888.105E-06     29.0351E-03    -18.6671E+06    -59.7999E+06    -18.1486E+06     150.429E+03    -13.3888E-03     26.7700E-03    -13.3812E-03     2.56476E-03    -13.3691E-03     26.5244E-03    -13.3582E-03     2.56635E-03
            1907     16.8388E-03     28.7477E-03    -3.31909E+06     147.733E+06     37.4694E+06     814.642E+03    -22.6170E-03     37.9394E-03    -15.3224E-03     157.144E-03    -24.9386E-03     40.6650E-03    -15.3444E-03     158.661E-03
            1908     15.9568E-03     28.6046E-03    -3.52904E+06     90.5916E+06    -10.4498E+06     631.672E+03    -21.3477E-03     36.3534E-03    -15.0057E-03     126.825E-03    -22.4458E-03     37.7909E-03    -15.1842E-03     127.055E-03
            1909     15.0715E-03     28.5083E-03    -3.54494E+06     37.5777E+06    -7.58922E+06     322.082E+03    -18.8994E-03     33.8495E-03    -14.9501E-03     82.5035E-03    -19.1510E-03     34.2440E-03    -15.0374E-03     82.4687E-03
            1910     14.1869E-03     28.4488E-03    -4.33731E+06    -4.03281E+06    -7.80507E+06     753.602E+03    -18.1498E-03     33.0186E-03    -14.8688E-03     59.3061E-03    -18.2222E-03     33.0839E-03    -14.8957E-03     59.2710E-03
            1911     13.3025E-03     28.3959E-03    -4.12567E+06    -27.6513E+06    -8.70793E+06     1.33234E+06    -17.9884E-03     32.7288E-03    -14.7404E-03     55.0687E-03    -17.9979E-03     32.6507E-03    -14.7379E-03     55.0478E-03
            1912     12.4176E-03     28.3435E-03    -4.18418E+06    -30.9454E+06    -493.861E+03     1.73794E+06    -17.5447E-03     32.1660E-03    -14.6213E-03     50.3760E-03    -17.5445E-03     32.0426E-03    -14.5729E-03     50.3703E-03
            1913     11.5326E-03     28.2992E-03    -4.68821E+06    -35.6887E+06     379.958E+03     2.37013E+06    -17.1050E-03     31.5713E-03    -14.4663E-03     43.3556E-03    -17.0912E-03     31.4131E-03    -14.4059E-03     43.3658E-03
            1914     10.6473E-03     28.2595E-03    -4.78412E+06    -46.5428E+06    -1.13929E+06     2.30854E+06    -16.6493E-03     30.9565E-03    -14.3073E-03     38.5707E-03    -16.6125E-03     30.7408E-03    -14.2385E-03     38.5859E-03
            1915     9.76164E-03     28.2241E-03    -4.82239E+06    -49.5690E+06     1.94676E+06     1.60449E+06    -16.1878E-03     30.3516E-03    -14.1638E-03     34.1827E-03    -16.1481E-03     30.1132E-03    -14.0752E-03     34.1928E-03
            1916     8.87566E-03     28.1926E-03    -5.66180E+06    -48.4627E+06     2.17435E+06     2.02019E+06    -15.7346E-03     29.7411E-03    -14.0066E-03     29.8809E-03    -15.6990E-03     29.5071E-03    -13.9172E-03     29.8993E-03
            1917     7.98925E-03     28.1653E-03    -6.88617E+06    -50.6050E+06     1.88531E+06     2.38808E+06    -15.2755E-03     29.1356E-03    -13.8602E-03     25.8075E-03    -15.2413E-03     28.8919E-03    -13.7674E-03     25.8327E-03
            1918     7.10258E-03     28.1415E-03    -8.19633E+06    -51.2963E+06     1.41523E+06     2.09975E+06    -14.8438E-03     28.5659E-03    -13.7221E-03     21.9618E-03    -14.8137E-03     28.3205E-03    -13.6288E-03     21.9847E-03
            1919     6.21551E-03     28.1215E-03    -9.54663E+06    -50.6704E+06     182.776E+03     1.78326E+06    -14.4380E-03     28.0300E-03    -13.5920E-03     18.4267E-03    -14.4134E-03     27.7911E-03    -13.5038E-03     18.4465E-03
            1920     5.32819E-03     28.1045E-03    -11.1863E+06    -51.8123E+06    -1.80844E+06     1.30948E+06    -14.0793E-03     27.5563E-03    -13.4770E-03     15.2034E-03    -14.0580E-03     27.3166E-03    -13.3947E-03     15.2179E-03
            1921     4.44055E-03     28.0908E-03    -12.9524E+06    -53.4098E+06    -4.90798E+06     959.115E+03    -13.7743E-03     27.1491E-03    -13.3748E-03     12.2663E-03    -13.7549E-03     26.9083E-03    -13.3031E-03     12.2768E-03
            1922     3.55273E-03     28.0797E-03    -14.6577E+06    -55.2095E+06    -8.57681E+06     868.582E+03    -13.5356E-03     26.8228E-03    -13.2872E-03     9.57796E-03    -13.5166E-03     26.5806E-03    -13.2288E-03     9.58778E-03
            1923     2.66464E-03     28.0714E-03    -16.2190E+06    -56.5367E+06    -12.2728E+06     797.172E+03    -13.3520E-03     26.5669E-03    -13.2149E-03     7.06293E-03    -13.3334E-03     26.3256E-03    -13.1708E-03     7.07223E-03
            1924     1.77659E-03     28.0652E-03    -17.4775E+06    -58.1561E+06    -15.5305E+06     533.635E+03    -13.2170E-03     26.3796E-03    -13.1626E-03     4.67887E-03    -13.1975E-03     26.1367E-03    -13.1306E-03     4.68511E-03
            1925     888.232E-06     28.0618E-03    -18.3398E+06    -59.3001E+06    -17.8605E+06     241.919E+03    -13.1354E-03     26.2759E-03    -13.1405E-03     2.48333E-03    -13.1152E-03     26.0319E-03    -13.1172E-03     2.48611E-03
            1926     16.8402E-03     27.7652E-03    -2.62217E+06     147.658E+06     38.1000E+06     305.275E+03    -22.9090E-03     38.2027E-03    -15.2936E-03     156.403E-03    -25.2075E-03     40.9055E-03    -15.3134E-03     157.878E-03
            1927     15.9565E-03     27.6238E-03    -3.16495E+06     89.8912E+06    -10.5810E+06     806.796E+03    -21.4278E-03     36.3880E-03    -14.9602E-03     125.779E-03    -22.5032E-03     37.8020E-03    -15.1388E-03     126.005E-03
            1928     15.0729E-03     27.5298E-03    -3.43969E+06     37.9027E+06    -7.36481E+06     1.36317E+06    -19.3659E-03     34.2500E-03    -14.8841E-03     82.0376E-03    -19.6172E-03     34.6450E-03    -14.9709E-03     82.0134E-03
            1929     14.1881E-03     27.4689E-03    -3.93696E+06    -3.72029E+06    -7.72482E+06     1.16394E+06    -18.3927E-03     33.1673E-03    -14.7746E-03     58.7178E-03    -18.4624E-03     33.2322E-03    -14.8021E-03     58.6874E-03
            1930     13.3040E-03     27.4171E-03    -3.84039E+06    -28.3417E+06    -9.06480E+06     1.35964E+06    -18.1659E-03     32.7901E-03    -14.6242E-03     54.1914E-03    -18.1714E-03     32.7076E-03    -14.6229E-03     54.1708E-03
            1931     12.4194E-03     27.3651E-03    -3.61679E+06    -31.4350E+06    -636.597E+03     2.00930E+06    -17.6744E-03     32.1594E-03    -14.4851E-03     49.5777E-03    -17.6699E-03     32.0324E-03    -14.4374E-03     49.5756E-03
            1932     11.5345E-03     27.3210E-03    -3.77839E+06    -35.8331E+06    -74.9017E+03     2.04006E+06    -17.1070E-03     31.4181E-03    -14.3111E-03     42.6417E-03    -17.0873E-03     31.2580E-03    -14.2541E-03     42.6481E-03
            1933     10.6491E-03     27.2824E-03    -3.85865E+06    -45.4604E+06    -1.02655E+06     1.93734E+06    -16.6688E-03     30.8074E-03    -14.1386E-03     37.8437E-03    -16.6289E-03     30.5954E-03    -14.0722E-03     37.8543E-03
            1934     9.76343E-03     27.2471E-03    -4.82627E+06    -49.5119E+06     1.73803E+06     2.11570E+06    -16.1678E-03     30.1481E-03    -13.9803E-03     33.4804E-03    -16.1277E-03     29.9101E-03    -13.8928E-03     33.4974E-03
            1935     8.87737E-03     27.2165E-03    -6.13962E+06    -48.8860E+06     1.80996E+06     2.37002E+06    -15.6664E-03     29.4750E-03    -13.8087E-03     29.1492E-03    -15.6319E-03     29.2400E-03    -13.7198E-03     29.1724E-03
            1936     7.99099E-03     27.1894E-03    -7.11584E+06    -50.0815E+06     1.79524E+06     2.48414E+06    -15.1794E-03     28.8272E-03    -13.6478E-03     25.1060E-03    -15.1469E-03     28.5864E-03    -13.5559E-03     25.1327E-03
            1937     7.10415E-03     27.1665E-03    -8.14837E+06    -50.5887E+06     1.38763E+06     2.20499E+06    -14.7022E-03     28.1989E-03    -13.4967E-03     21.2995E-03    -14.6728E-03     27.9570E-03    -13.4046E-03     21.3239E-03
            1938     6.21701E-03     27.1467E-03    -9.45358E+06    -49.9094E+06     132.368E+03     1.77647E+06    -14.2638E-03     27.6197E-03    -13.3559E-03     17.8336E-03    -14.2397E-03     27.3845E-03    -13.2691E-03     17.8535E-03
            1939     5.32947E-03     27.1304E-03    -10.8130E+06    -51.0549E+06    -1.76837E+06     1.42305E+06    -13.8789E-03     27.1112E-03    -13.2324E-03     14.6838E-03    -13.8569E-03     26.8747E-03    -13.1515E-03     14.6998E-03
            1940     4.44168E-03     27.1169E-03    -12.5039E+06    -53.0187E+06    -4.80912E+06        1.22E+06    -13.5553E-03     26.6790E-03    -13.1237E-03     11.8266E-03    -13.5343E-03     26.4394E-03    -13.0528E-03     11.8405E-03
            1941     3.55359E-03     27.1063E-03    -14.3761E+06    -54.7981E+06    -8.48427E+06     1.15216E+06    -13.3012E-03     26.3313E-03    -13.0301E-03     9.22630E-03    -13.2815E-03     26.0906E-03    -12.9723E-03     9.23984E-03
            1942     2.66544E-03     27.0979E-03    -15.9772E+06    -55.9200E+06    -12.1337E+06     893.992E+03    -13.1008E-03     26.0540E-03    -12.9532E-03     6.78583E-03    -13.0821E-03     25.8153E-03    -12.9096E-03     6.79643E-03
            1943     1.77693E-03     27.0923E-03    -17.1500E+06    -57.5144E+06    -15.2395E+06     602.814E+03    -12.9569E-03     25.8554E-03    -12.8985E-03     4.49487E-03    -12.9372E-03     25.6149E-03    -12.8665E-03     4.50204E-03
            1944     888.566E-06     27.0886E-03    -17.9729E+06    -58.6592E+06    -17.4432E+06     331.553E+03    -12.8702E-03     25.7463E-03    -12.8762E-03     2.39935E-03    -12.8497E-03     25.5044E-03    -12.8523E-03     2.40331E-03
            1945     16.8415E-03     26.7849E-03    -3.42026E+06     146.897E+06     35.4517E+06     93.8575E+03    -23.2887E-03     38.5471E-03    -15.2584E-03     155.824E-03    -25.5661E-03     41.2311E-03    -15.2892E-03     157.258E-03
            1946     15.9569E-03     26.6438E-03    -5.15000E+06     88.7806E+06    -13.3988E+06     1.05375E+06    -21.7807E-03     36.6831E-03    -14.9024E-03     124.662E-03    -22.8377E-03     38.0759E-03    -15.0907E-03     124.873E-03
            1947     15.0735E-03     26.5485E-03    -4.87973E+06     38.1315E+06    -7.79106E+06     1.29818E+06    -19.8461E-03     34.6511E-03    -14.8050E-03     80.8873E-03    -20.1014E-03     35.0471E-03    -14.8922E-03     80.8586E-03
            1948     14.1904E-03     26.4905E-03    -3.80140E+06    -2.52891E+06    -7.53498E+06     1.22504E+06    -18.6325E-03     33.2980E-03    -14.6656E-03     57.9780E-03    -18.7020E-03     33.3669E-03    -14.6941E-03     57.9481E-03
            1949     13.3056E-03     26.4375E-03    -3.34538E+06    -29.0387E+06    -9.68475E+06     1.59830E+06    -18.2515E-03     32.7460E-03    -14.4946E-03     53.8089E-03    -18.2517E-03     32.6593E-03    -14.4960E-03     53.7918E-03
            1950     12.4215E-03     26.3869E-03    -3.31480E+06    -31.7566E+06    -970.125E+03     1.87937E+06    -17.7690E-03     32.1093E-03    -14.3403E-03     48.8184E-03    -17.7615E-03     31.9801E-03    -14.2943E-03     48.8149E-03
            1951     11.5362E-03     26.3435E-03    -3.25042E+06    -35.4129E+06    -367.442E+03     1.88637E+06    -17.1417E-03     31.2899E-03    -14.1483E-03     42.0787E-03    -17.1190E-03     31.1311E-03    -14.0940E-03     42.0836E-03
            1952     10.6510E-03     26.3049E-03    -3.78751E+06    -46.0474E+06    -1.21774E+06     2.36057E+06    -16.7060E-03     30.6671E-03    -13.9610E-03     37.0603E-03    -16.6643E-03     30.4520E-03    -13.8949E-03     37.0766E-03
            1953     9.76537E-03     26.2708E-03    -4.97832E+06    -49.0087E+06     1.87325E+06     3.01052E+06    -16.1479E-03     29.9328E-03    -13.7849E-03     32.6452E-03    -16.1092E-03     29.6971E-03    -13.6973E-03     32.6740E-03
            1954     8.87928E-03     26.2403E-03    -6.13052E+06    -48.4638E+06     1.50505E+06     2.58095E+06    -15.5887E-03     29.1837E-03    -13.5950E-03     28.3785E-03    -15.5542E-03     28.9511E-03    -13.5083E-03     28.4046E-03
            1955     7.99276E-03     26.2142E-03    -7.04195E+06    -49.6639E+06     1.66210E+06     2.34737E+06    -15.0625E-03     28.4836E-03    -13.4211E-03     24.3416E-03    -15.0300E-03     28.2450E-03    -13.3306E-03     24.3667E-03
            1956     7.10588E-03     26.1915E-03    -8.07070E+06    -49.8106E+06     1.36565E+06     2.19751E+06    -14.5435E-03     27.8015E-03    -13.2580E-03     20.6099E-03    -14.5148E-03     27.5634E-03    -13.1673E-03     20.6344E-03
            1957     6.21853E-03     26.1726E-03    -9.25752E+06    -49.1186E+06    -4.55460E+03     1.76712E+06    -14.0705E-03     27.1773E-03    -13.1068E-03     17.2169E-03    -14.0464E-03     26.9459E-03    -13.0222E-03     17.2367E-03
            1958     5.33085E-03     26.1565E-03    -10.7371E+06    -50.5316E+06    -2.03610E+06     1.45312E+06    -13.6661E-03     26.6412E-03    -12.9751E-03     14.1461E-03    -13.6441E-03     26.4075E-03    -12.8964E-03     14.1626E-03
            1959     4.44284E-03     26.1436E-03    -12.3419E+06    -52.7666E+06    -4.69474E+06     1.52035E+06    -13.3333E-03     26.1937E-03    -12.8604E-03     11.3711E-03    -13.3120E-03     25.9548E-03    -12.7894E-03     11.3891E-03
            1960     3.55462E-03     26.1331E-03    -14.0161E+06    -54.1252E+06    -8.20237E+06     1.45853E+06    -13.0517E-03     25.8113E-03    -12.7596E-03     8.85239E-03    -13.0316E-03     25.5730E-03    -12.7018E-03     8.86995E-03
            1961     2.66606E-03     26.1253E-03    -15.6020E+06    -55.1429E+06    -11.9792E+06     1.07679E+06    -12.8336E-03     25.5113E-03    -12.6777E-03     6.50843E-03    -12.8144E-03     25.2757E-03    -12.6350E-03     6.52143E-03
            1962     1.77757E-03     26.1196E-03    -16.8956E+06    -56.8107E+06    -15.0542E+06     700.319E+03    -12.6896E-03     25.3087E-03    -12.6191E-03     4.31370E-03    -12.6699E-03     25.0710E-03    -12.5875E-03     4.32216E-03
            1963     888.721E-06     26.1163E-03    -17.7092E+06    -57.9089E+06    -17.1959E+06     352.570E+03    -12.5937E-03     25.1819E-03    -12.5882E-03     2.30835E-03    -12.5734E-03     24.9430E-03    -12.5645E-03     2.31259E-03
            1964     16.8393E-03     25.8002E-03    -4.89000E+06     147.047E+06     34.6608E+06     798.632E+03    -24.0221E-03     39.2594E-03    -15.2373E-03     154.657E-03    -26.2865E-03     41.9280E-03    -15.2702E-03     156.063E-03
            1965     15.9593E-03     25.6641E-03    -5.20760E+06     89.2826E+06    -12.7706E+06     253.696E+03    -22.4926E-03     37.3325E-03    -14.8399E-03     122.934E-03    -23.5287E-03     38.7042E-03    -15.0257E-03     123.110E-03
            1966     15.0755E-03     25.5676E-03    -3.43466E+06     37.6043E+06    -7.49477E+06     650.603E+03    -19.8491E-03     34.5617E-03    -14.7126E-03     80.2039E-03    -20.0926E-03     34.9483E-03    -14.7996E-03     80.1658E-03
            1967     14.1913E-03     25.5113E-03    -3.45408E+06    -2.78417E+06    -7.59541E+06     1.28475E+06    -18.7762E-03     33.3375E-03    -14.5612E-03     57.4955E-03    -18.8426E-03     33.4037E-03    -14.5902E-03     57.4661E-03
            1968     13.3076E-03     25.4585E-03    -3.45891E+06    -29.6269E+06    -10.1462E+06     1.55114E+06    -18.4490E-03     32.8194E-03    -14.3704E-03     53.4039E-03    -18.4478E-03     32.7301E-03    -14.3731E-03     53.3860E-03
            1969     12.4227E-03     25.4086E-03    -3.28510E+06    -31.7444E+06    -1.12654E+06     1.82645E+06    -17.8817E-03     32.0775E-03    -14.1958E-03     48.0487E-03    -17.8731E-03     31.9478E-03    -14.1506E-03     48.0448E-03
            1970     11.5383E-03     25.3657E-03    -3.66084E+06    -35.1067E+06    -615.615E+03     2.17471E+06    -17.3003E-03     31.2809E-03    -13.9805E-03     41.2591E-03    -17.2795E-03     31.1242E-03    -13.9274E-03     41.2677E-03
            1971     10.6530E-03     25.3278E-03    -4.21756E+06    -47.1203E+06    -2.11966E+06     2.74476E+06    -16.7218E-03     30.4915E-03    -13.7697E-03     36.2395E-03    -16.6790E-03     30.2727E-03    -13.7059E-03     36.2611E-03
            1972     9.76741E-03     25.2942E-03    -4.46648E+06    -48.5099E+06     2.15402E+06     3.34951E+06    -16.1257E-03     29.7035E-03    -13.5778E-03     31.7862E-03    -16.0854E-03     29.4689E-03    -13.4902E-03     31.8197E-03
            1973     8.88128E-03     25.2648E-03    -5.38345E+06    -47.2842E+06     1.97090E+06     3.02244E+06    -15.5057E-03     28.8767E-03    -13.3710E-03     27.5643E-03    -15.4697E-03     28.6480E-03    -13.2848E-03     27.5964E-03
            1974     7.99472E-03     25.2390E-03    -6.53864E+06    -49.2472E+06     1.63005E+06     2.38940E+06    -14.9202E-03     28.1031E-03    -13.1829E-03     23.5672E-03    -14.8856E-03     27.8657E-03    -13.0938E-03     23.5930E-03
            1975     7.10762E-03     25.2172E-03    -7.59533E+06    -49.1189E+06     1.51277E+06     2.14994E+06    -14.3734E-03     27.3828E-03    -13.0094E-03     19.8916E-03    -14.3434E-03     27.1471E-03    -12.9196E-03     19.9156E-03
            1976     6.22015E-03     25.1986E-03    -8.92482E+06    -48.4097E+06     115.271E+03     1.87985E+06    -13.8724E-03     26.7207E-03    -12.8484E-03     16.5627E-03    -13.8477E-03     26.4922E-03    -12.7647E-03     16.5842E-03
            1977     5.33226E-03     25.1833E-03    -10.5660E+06    -50.1290E+06    -2.05459E+06     1.75749E+06    -13.4438E-03     26.1518E-03    -12.7081E-03     13.5800E-03    -13.4214E-03     25.9199E-03    -12.6303E-03     13.6005E-03
            1978     4.44407E-03     25.1706E-03    -12.4207E+06    -52.4750E+06    -4.96884E+06     1.74791E+06    -13.0881E-03     25.6736E-03    -12.5855E-03     10.9094E-03    -13.0672E-03     25.4367E-03    -12.5163E-03     10.9304E-03
            1979     3.55557E-03     25.1607E-03    -14.0077E+06    -53.3616E+06    -8.36059E+06     1.61625E+06    -12.7918E-03     25.2705E-03    -12.4787E-03     8.47743E-03    -12.7725E-03     25.0363E-03    -12.4228E-03     8.49710E-03
            1980     2.66693E-03     25.1529E-03    -15.4123E+06    -54.2424E+06    -11.8702E+06     1.32305E+06    -12.5619E-03     24.9545E-03    -12.3927E-03     6.23613E-03    -12.5432E-03     24.7230E-03    -12.3510E-03     6.25236E-03
            1981     1.77793E-03     25.1476E-03    -16.5993E+06    -55.8978E+06    -14.8569E+06     854.518E+03    -12.4078E-03     24.7383E-03    -12.3305E-03     4.12536E-03    -12.3883E-03     24.5044E-03    -12.2996E-03     4.13584E-03
            1982     889.102E-06     25.1442E-03    -17.3711E+06    -57.1285E+06    -16.9437E+06     430.023E+03    -12.3052E-03     24.6024E-03    -12.2973E-03     2.21822E-03    -12.2846E-03     24.3666E-03    -12.2740E-03     2.22347E-03
            1983     16.8426E-03     24.8182E-03    -2.89753E+06     147.851E+06     37.2760E+06     1.02561E+06    -24.6953E-03     39.8986E-03    -15.2034E-03     153.524E-03    -26.9327E-03     42.5426E-03    -15.2272E-03     154.878E-03
            1984     15.9593E-03     24.6805E-03    -2.44588E+06     89.7400E+06    -11.3195E+06     287.353E+03    -22.6294E-03     37.4002E-03    -14.7708E-03     120.941E-03    -23.6362E-03     38.7498E-03    -14.9540E-03     121.103E-03
            1985     15.0767E-03     24.5896E-03    -3.33585E+06     36.3485E+06    -8.25557E+06     912.548E+03    -20.0049E-03     34.6269E-03    -14.6220E-03     79.2671E-03    -20.2404E-03     35.0036E-03    -14.7112E-03     79.2315E-03
            1986     14.1926E-03     24.5304E-03    -3.43642E+06    -3.53179E+06    -7.97647E+06     1.66519E+06    -18.9471E-03     33.4016E-03    -14.4545E-03     56.9562E-03    -19.0106E-03     33.4635E-03    -14.4843E-03     56.9314E-03
            1987     13.3090E-03     24.4800E-03    -3.04667E+06    -28.8727E+06    -9.45081E+06     1.51121E+06    -18.7053E-03     32.9488E-03    -14.2435E-03     52.2906E-03    -18.7032E-03     32.8608E-03    -14.2445E-03     52.2717E-03
            1988     12.4250E-03     24.4298E-03    -3.02001E+06    -31.8818E+06    -1.23520E+06     1.88600E+06    -18.0540E-03     32.0943E-03    -14.0403E-03     47.1176E-03    -18.0430E-03     31.9630E-03    -13.9958E-03     47.1146E-03
            1989     11.5403E-03     24.3880E-03    -3.76250E+06    -35.8348E+06    -531.314E+03     2.84103E+06    -17.3670E-03     31.1719E-03    -13.8048E-03     40.2728E-03    -17.3453E-03     31.0112E-03    -13.7501E-03     40.2904E-03
            1990     10.6552E-03     24.3510E-03    -4.40654E+06    -46.6116E+06    -2.19360E+06     2.97025E+06    -16.7338E-03     30.3058E-03    -13.5721E-03     35.3875E-03    -16.6922E-03     30.0896E-03    -13.5091E-03     35.4124E-03
            1991     9.76949E-03     24.3180E-03    -4.67504E+06    -48.9026E+06     1.59429E+06     2.80345E+06    -16.0787E-03     29.4402E-03    -13.3615E-03     30.9528E-03    -16.0379E-03     29.2046E-03    -13.2758E-03     30.9795E-03
            1992     8.88338E-03     24.2893E-03    -4.66248E+06    -46.3466E+06     2.69528E+06     3.20348E+06    -15.4200E-03     28.5619E-03    -13.1419E-03     26.7017E-03    -15.3827E-03     28.3357E-03    -13.0544E-03     26.7364E-03
            1993     7.99662E-03     24.2644E-03    -5.51006E+06    -48.3514E+06     2.09123E+06     2.75805E+06    -14.7839E-03     27.7218E-03    -12.9379E-03     22.7636E-03    -14.7460E-03     27.4866E-03    -12.8493E-03     22.7943E-03
            1994     7.10948E-03     24.2431E-03    -6.84248E+06    -48.5744E+06     1.82633E+06     2.28074E+06    -14.1970E-03     26.9500E-03    -12.7530E-03     19.1330E-03    -14.1645E-03     26.7155E-03    -12.6635E-03     19.1589E-03
            1995     6.22180E-03     24.2253E-03    -8.25562E+06    -47.8593E+06     505.015E+03     2.17539E+06    -13.6639E-03     26.2467E-03    -12.5828E-03     15.8918E-03    -13.6372E-03     26.0193E-03    -12.4989E-03     15.9172E-03
            1996     5.33376E-03     24.2104E-03    -9.94399E+06    -49.8244E+06    -1.77727E+06     2.22585E+06    -13.2117E-03     25.6461E-03    -12.4344E-03     13.0129E-03    -13.1870E-03     25.4144E-03    -12.3566E-03     13.0396E-03
            1997     4.44531E-03     24.1983E-03    -11.7378E+06    -51.8139E+06    -4.70717E+06     2.16326E+06    -12.8325E-03     25.1375E-03    -12.3051E-03     10.4281E-03    -12.8095E-03     24.9026E-03    -12.2364E-03     10.4545E-03
            1998     3.55661E-03     24.1886E-03    -13.5691E+06    -52.5927E+06     -8.1813E+06     1.84938E+06    -12.5248E-03     24.7180E-03    -12.1932E-03     8.08787E-03    -12.5047E-03     24.4867E-03    -12.1382E-03     8.11061E-03
            1999     2.66760E-03     24.1813E-03    -15.0371E+06    -53.2280E+06    -11.6247E+06     1.47008E+06    -12.2912E-03     24.3927E-03    -12.1015E-03     5.94513E-03    -12.2725E-03     24.1653E-03    -12.0606E-03     5.96331E-03
            2000     1.77862E-03     24.1760E-03    -16.0908E+06    -54.8549E+06    -14.4593E+06     985.292E+03    -12.1200E-03     24.1544E-03    -12.0344E-03     3.92081E-03    -12.0999E-03     23.9244E-03    -12.0038E-03     3.93302E-03
            2001     889.224E-06     24.1730E-03    -16.7844E+06    -56.1808E+06    -16.4093E+06     517.562E+03    -12.0008E-03     24.0080E-03    -12.0072E-03     2.09938E-03    -11.9794E-03     23.7753E-03    -11.9835E-03     2.10579E-03
            2002     16.8421E-03     23.8340E-03    -1.94256E+06     145.887E+06     38.4507E+06    -107.068E+03    -24.9263E-03     40.0949E-03    -15.1685E-03     152.546E-03    -27.1232E-03     42.6913E-03    -15.1850E-03     153.841E-03
            2003     15.9613E-03     23.7000E-03    -2.57786E+06     88.7038E+06    -10.2202E+06     2.00580E+06    -22.7449E-03     37.4665E-03    -14.7215E-03     119.753E-03    -23.7266E-03     38.7836E-03    -14.8975E-03     119.924E-03
            2004     15.0779E-03     23.6085E-03    -3.90418E+06     37.1715E+06    -8.12088E+06     2.10592E+06    -20.5844E-03     35.1235E-03    -14.5391E-03     78.3194E-03    -20.8210E-03     35.5018E-03    -14.6280E-03     78.2959E-03
            2005     14.1949E-03     23.5516E-03    -3.50082E+06    -3.00609E+06    -7.67008E+06     1.47767E+06    -19.3487E-03     33.6833E-03    -14.3346E-03     56.0801E-03    -19.4120E-03     33.7458E-03    -14.3635E-03     56.0519E-03
            2006     13.3110E-03     23.5000E-03    -3.04183E+06    -28.8140E+06    -9.58388E+06     1.81530E+06    -18.7878E-03     32.8844E-03    -14.0966E-03     51.3752E-03    -18.7841E-03     32.7953E-03    -14.0983E-03     51.3609E-03
            2007     12.4271E-03     23.4519E-03    -3.45425E+06    -32.7291E+06    -1.76690E+06     2.17639E+06    -18.1687E-03     32.0429E-03    -13.8742E-03     46.1786E-03    -18.1571E-03     31.9080E-03    -13.8305E-03     46.1798E-03
            2008     11.5423E-03     23.4103E-03    -3.44378E+06    -36.2315E+06    -218.294E+03     2.88271E+06    -17.3953E-03     31.0169E-03    -13.6217E-03     39.3670E-03    -17.3713E-03     30.8528E-03    -13.5652E-03     39.3855E-03
            2009     10.6573E-03     23.3743E-03    -3.35160E+06    -45.7833E+06    -1.25658E+06     3.18030E+06    -16.7362E-03     30.1075E-03    -13.3712E-03     34.4117E-03    -16.6917E-03     29.8922E-03    -13.3063E-03     34.4396E-03
            2010     9.77167E-03     23.3421E-03    -3.89767E+06    -48.4137E+06     1.52380E+06     2.65852E+06    -16.0268E-03     29.1660E-03    -13.1392E-03     30.0302E-03    -15.9824E-03     28.9315E-03    -13.0557E-03     30.0553E-03
            2011     8.88540E-03     23.3142E-03    -4.56641E+06    -46.6057E+06     2.41567E+06     2.65561E+06    -15.3216E-03     28.2267E-03    -12.9051E-03     25.7839E-03    -15.2828E-03     27.9993E-03    -12.8188E-03     25.8117E-03
            2012     7.99871E-03     23.2901E-03    -5.07173E+06    -47.2494E+06     2.71063E+06     3.05553E+06    -14.6461E-03     27.3351E-03    -12.6890E-03     21.8922E-03    -14.6085E-03     27.1038E-03    -12.5996E-03     21.9269E-03
            2013     7.11132E-03     23.2696E-03    -6.27215E+06    -47.9593E+06     2.02210E+06     2.67626E+06    -14.0031E-03     26.4942E-03    -12.4911E-03     18.3612E-03    -13.9688E-03     26.2616E-03    -12.4024E-03     18.3923E-03
            2014     6.22352E-03     23.2523E-03    -7.82829E+06    -47.5227E+06     506.687E+03     2.59462E+06    -13.4427E-03     25.7550E-03    -12.3123E-03     15.2218E-03    -13.4143E-03     25.5286E-03    -12.2295E-03     15.2528E-03
            2015     5.33519E-03     23.2381E-03    -9.47453E+06    -49.4234E+06    -1.70461E+06     2.69387E+06    -12.9751E-03     25.1320E-03    -12.1569E-03     12.4372E-03    -12.9488E-03     24.9015E-03    -12.0800E-03     12.4701E-03
            2016     4.44660E-03     23.2264E-03    -11.1979E+06    -51.0182E+06    -4.44022E+06     2.62279E+06    -12.5781E-03     24.5995E-03    -12.0213E-03     9.93687E-03    -12.5540E-03     24.3673E-03    -11.9533E-03     9.96928E-03
            2017     3.55762E-03     23.2172E-03    -12.8781E+06    -51.4772E+06    -7.77713E+06     2.24955E+06    -12.2530E-03     24.1574E-03    -11.9044E-03     7.70668E-03    -12.2316E-03     23.9301E-03    -11.8499E-03     7.73466E-03
            2018     2.66850E-03     23.2101E-03    -14.3672E+06    -52.1493E+06    -11.2145E+06     1.68714E+06    -12.0097E-03     23.8187E-03    -11.8090E-03     5.66185E-03    -11.9897E-03     23.5951E-03    -11.7686E-03     5.68288E-03
            2019     1.77900E-03     23.2052E-03    -15.5568E+06    -53.6504E+06    -14.0510E+06     1.17632E+06    -11.8356E-03     23.5727E-03    -11.7371E-03     3.72252E-03    -11.8152E-03     23.3474E-03    -11.7070E-03     3.73722E-03
            2020     889.659E-06     23.2021E-03    -16.3627E+06    -55.0415E+06    -15.9509E+06     619.770E+03    -11.7195E-03     23.4077E-03    -11.6882E-03     1.97680E-03    -11.6984E-03     23.1794E-03    -11.6644E-03     1.98454E-03
            2021     16.8432E-03     22.8497E-03    -3.69106E+06     144.332E+06     34.9419E+06     301.034E+03    -25.1751E-03     40.3071E-03    -15.1320E-03     151.221E-03    -27.3323E-03     42.8623E-03    -15.1613E-03     152.479E-03
            2022     15.9606E-03     22.7186E-03    -6.86926E+06      87.636E+06    -11.9042E+06     1.08064E+06    -23.2705E-03     37.9398E-03    -14.6694E-03     117.835E-03    -24.2378E-03     39.2285E-03    -14.8460E-03     117.975E-03
            2023     15.0789E-03     22.6268E-03    -4.56244E+06     38.6888E+06    -7.52987E+06     1.49754E+06    -21.0153E-03     35.4689E-03    -14.4536E-03     77.1466E-03    -21.2539E-03     35.8506E-03    -14.5408E-03     77.1118E-03
            2024     14.1966E-03     22.5715E-03    -3.73886E+06    -3.17600E+06    -7.69177E+06     1.51377E+06    -19.6941E-03     33.9102E-03    -14.2162E-03     55.2279E-03    -19.7567E-03     33.9707E-03    -14.2446E-03     55.1995E-03
            2025     13.3132E-03     22.5215E-03    -3.53036E+06    -29.4038E+06    -9.83201E+06     1.86998E+06    -19.0093E-03     32.9592E-03    -13.9500E-03     50.7526E-03    -19.0058E-03     32.8674E-03    -13.9514E-03     50.7390E-03
            2026     12.4289E-03     22.4731E-03    -3.00856E+06    -32.6819E+06    -1.37092E+06     2.39976E+06    -18.2375E-03     31.9440E-03    -13.7066E-03     45.1654E-03    -18.2233E-03     31.8072E-03    -13.6617E-03     45.1700E-03
            2027     11.5447E-03     22.4331E-03    -3.14508E+06    -36.6471E+06    -740.503E+03     2.51789E+06    -17.4613E-03     30.8920E-03    -13.4308E-03     38.3822E-03    -17.4339E-03     30.7256E-03    -13.3768E-03     38.3965E-03
            2028     10.6595E-03     22.3975E-03    -2.99559E+06    -45.6647E+06    -1.56661E+06     2.75788E+06    -16.7318E-03     29.8929E-03    -13.1611E-03     33.4460E-03    -16.6848E-03     29.6778E-03    -13.0984E-03     33.4689E-03
            2029     9.77389E-03     22.3665E-03    -2.98800E+06    -47.5458E+06     2.00323E+06     3.03929E+06    -15.9713E-03     28.8851E-03    -12.9138E-03     29.0164E-03    -15.9241E-03     28.6528E-03    -12.8305E-03     29.0468E-03
            2030     8.88763E-03     22.3393E-03    -3.92951E+06    -46.5479E+06     2.31914E+06     2.77847E+06    -15.2049E-03     27.8684E-03    -12.6635E-03     24.8402E-03    -15.1627E-03     27.6404E-03    -12.5787E-03     24.8698E-03
            2031     8.00067E-03     22.3161E-03    -4.90809E+06    -47.0966E+06     2.83212E+06     2.89216E+06    -14.4754E-03     26.9128E-03    -12.4374E-03     21.0022E-03    -14.4372E-03     26.6818E-03    -12.3478E-03     21.0351E-03
            2032     7.11323E-03     22.2964E-03    -5.88844E+06    -47.1914E+06     2.34428E+06     3.18763E+06    -13.8046E-03     26.0345E-03    -12.2300E-03     17.5733E-03    -13.7699E-03     25.8046E-03    -12.1413E-03     17.6111E-03
            2033     6.22514E-03     22.2800E-03    -7.42733E+06    -47.1964E+06     378.643E+03     3.09328E+06    -13.2260E-03     25.2672E-03    -12.0412E-03     14.5386E-03    -13.1958E-03     25.0420E-03    -11.9601E-03     14.5761E-03
            2034     5.33674E-03     22.2662E-03    -9.09133E+06    -48.9411E+06    -1.64165E+06     3.18856E+06    -12.7338E-03     24.6132E-03    -11.8794E-03     11.8393E-03    -12.7063E-03     24.3844E-03    -11.8034E-03     11.8786E-03
            2035     4.44782E-03     22.2551E-03    -10.7672E+06    -50.0390E+06    -4.31945E+06     3.01520E+06    -12.3182E-03     24.0560E-03    -11.7378E-03     9.45166E-03    -12.2934E-03     23.8279E-03    -11.6712E-03     9.48921E-03
            2036     3.55868E-03     22.2462E-03    -12.2733E+06    -50.1010E+06    -7.50432E+06     2.51288E+06    -11.9845E-03     23.6004E-03    -11.6159E-03     7.31957E-03    -11.9624E-03     23.3787E-03    -11.5630E-03     7.35100E-03
            2037     2.66915E-03     22.2396E-03    -13.6047E+06    -50.9543E+06    -10.6946E+06     2.00487E+06    -11.7228E-03     23.2419E-03    -11.5191E-03     5.36385E-03    -11.7015E-03     23.0224E-03    -11.4789E-03     5.38902E-03
            2038     1.77967E-03     22.2347E-03    -14.7064E+06    -52.2537E+06    -13.4057E+06     1.44882E+06    -11.5423E-03     22.9906E-03    -11.4483E-03     3.52736E-03    -11.5207E-03     22.7701E-03    -11.4182E-03     3.54561E-03
            2039     889.756E-06     22.2321E-03    -15.5492E+06    -53.5528E+06    -15.1696E+06      852.02E+03    -11.4488E-03     22.8342E-03    -11.3853E-03     1.87180E-03    -11.4269E-03     22.6110E-03    -11.3610E-03     1.88256E-03
            2040     16.8425E-03     21.8660E-03    -2.10493E+06     144.626E+06     36.3196E+06     1.41151E+06    -25.9820E-03     41.0946E-03    -15.1126E-03     149.593E-03    -28.0925E-03     43.6058E-03    -15.1377E-03     150.801E-03
            2041     15.9633E-03     21.7354E-03    -3.17832E+06     88.4337E+06    -10.3128E+06     971.657E+03    -23.8044E-03     38.4091E-03    -14.6048E-03     115.889E-03    -24.7319E-03     39.6692E-03    -14.7799E-03     116.005E-03
            2042     15.0812E-03     21.6464E-03    -3.26289E+06     37.8037E+06    -7.15067E+06     800.235E+03    -21.2322E-03     35.5919E-03    -14.3596E-03     75.7953E-03    -21.4582E-03     35.9612E-03    -14.4455E-03     75.7494E-03
            2043     14.1975E-03     21.5911E-03    -3.35658E+06    -3.55451E+06    -7.69890E+06     1.59297E+06    -19.8925E-03     33.9923E-03    -14.0998E-03     54.1405E-03    -19.9508E-03     34.0484E-03    -14.1282E-03     54.1130E-03
            2044     13.3149E-03     21.5419E-03    -3.10654E+06    -29.2320E+06    -9.54905E+06     1.73444E+06    -19.3030E-03     33.1111E-03    -13.8082E-03     49.5848E-03    -19.2971E-03     33.0182E-03    -13.8090E-03     49.5693E-03
            2045     12.4315E-03     21.4952E-03    -2.77144E+06    -32.9102E+06    -1.53224E+06     2.19761E+06    -18.3736E-03     31.9100E-03    -13.5364E-03     44.1601E-03    -18.3569E-03     31.7711E-03    -13.4923E-03     44.1625E-03
            2046     11.5467E-03     21.4555E-03    -2.62415E+06    -36.5894E+06    -667.222E+03     2.45877E+06    -17.5058E-03     30.7454E-03    -13.2397E-03     37.3678E-03    -17.4755E-03     30.5779E-03    -13.1862E-03     37.3818E-03
            2047     10.6618E-03     21.4213E-03    -2.74939E+06    -45.5976E+06    -1.64409E+06     2.56469E+06    -16.7381E-03     29.6884E-03    -12.9503E-03     32.3933E-03    -16.6895E-03     29.4730E-03    -12.8884E-03     32.4140E-03
            2048     9.77611E-03     21.3910E-03    -2.99923E+06    -47.7014E+06     1.89924E+06     2.86387E+06    -15.8944E-03     28.5809E-03    -12.6865E-03     27.9868E-03    -15.8467E-03     28.3477E-03    -12.6034E-03     28.0152E-03
            2049     8.88973E-03     21.3650E-03    -3.23351E+06    -45.8349E+06     2.75309E+06     3.15718E+06    -15.0636E-03     27.4873E-03    -12.4237E-03     23.8523E-03    -15.0196E-03     27.2611E-03    -12.3387E-03     23.8871E-03
            2050     8.00274E-03     21.3426E-03    -4.18802E+06    -47.0051E+06     2.96491E+06     3.06202E+06    -14.2960E-03     26.4832E-03    -12.1872E-03     20.1054E-03    -14.2544E-03     26.2513E-03    -12.0982E-03     20.1406E-03
            2051     7.11501E-03     21.3238E-03    -5.39397E+06    -46.9856E+06     2.83197E+06     3.34922E+06    -13.6126E-03     25.5856E-03    -11.9730E-03     16.7628E-03    -13.5764E-03     25.3553E-03    -11.8829E-03     16.8029E-03
            2052     6.22689E-03     21.3079E-03    -6.72294E+06    -46.6360E+06     859.198E+03     3.73351E+06    -13.0070E-03     24.7822E-03    -11.7753E-03     13.8367E-03    -12.9747E-03     24.5581E-03    -11.6936E-03     13.8826E-03
            2053     5.33814E-03     21.2949E-03    -8.36232E+06    -48.2744E+06    -1.41635E+06     3.64211E+06    -12.4883E-03     24.0943E-03    -11.6060E-03     11.2462E-03    -12.4584E-03     23.8675E-03    -11.5310E-03     11.2914E-03
            2054     4.44910E-03     21.2843E-03    -9.82579E+06    -48.7598E+06    -3.80375E+06     3.32051E+06    -12.0632E-03     23.5234E-03    -11.4602E-03     8.97717E-03    -12.0363E-03     23.2995E-03    -11.3943E-03     9.01874E-03
            2055     3.55964E-03     21.2759E-03    -11.2473E+06    -48.8383E+06    -6.87922E+06     2.82608E+06    -11.7183E-03     23.0532E-03    -11.3349E-03     6.92856E-03    -11.6939E-03     22.8354E-03    -11.2822E-03     6.96410E-03
            2056     2.67007E-03     21.2695E-03    -12.5811E+06    -49.5528E+06    -9.91451E+06     2.31485E+06    -11.4432E-03     22.6797E-03    -11.2365E-03     5.07406E-03    -11.4200E-03     22.4647E-03    -11.1960E-03     5.10328E-03
            2057     1.78000E-03     21.2651E-03    -13.5875E+06    -50.7139E+06    -12.3308E+06     1.68774E+06    -11.2591E-03     22.4261E-03    -11.1670E-03     3.33928E-03    -11.2357E-03     22.2102E-03    -11.1354E-03     3.36064E-03
            2058     890.150E-06     21.2622E-03    -14.1616E+06    -51.6416E+06    -13.8565E+06     1.00679E+06    -11.1523E-03     22.2733E-03    -11.1210E-03     1.72982E-03    -11.1281E-03     22.0558E-03    -11.0949E-03     1.74259E-03
            2059     16.8444E-03     20.8806E-03    -2.38749E+06     143.916E+06     37.6696E+06     141.365E+03    -26.6507E-03     41.7464E-03    -15.0957E-03     147.935E-03    -28.7205E-03     44.2094E-03    -15.1126E-03     149.064E-03
            2060     15.9630E-03     20.7524E-03    -2.14410E+06     88.2173E+06    -10.0025E+06     1.22563E+06    -24.1887E-03     38.7341E-03    -14.5454E-03     114.192E-03    -25.0836E-03     39.9636E-03    -14.7202E-03     114.292E-03
            2061     15.0817E-03     20.6649E-03    -2.53452E+06     37.4403E+06    -7.24622E+06     1.97790E+06    -21.7271E-03     35.9934E-03    -14.2663E-03     74.5221E-03    -21.9444E-03     36.3557E-03    -14.3531E-03     74.4884E-03
            2062     14.2003E-03     20.6109E-03    -2.77973E+06    -2.86556E+06    -7.59296E+06     1.65011E+06    -20.2074E-03     34.1807E-03    -13.9732E-03     52.9088E-03    -20.2619E-03     34.2371E-03    -14.0030E-03     52.8816E-03
            2063     13.3169E-03     20.5623E-03    -2.19135E+06    -29.4479E+06    -9.92111E+06     1.69741E+06    -19.3818E-03     33.0390E-03    -13.6572E-03     48.4166E-03    -19.3690E-03     32.9427E-03    -13.6609E-03     48.4012E-03
            2064     12.4332E-03     20.5169E-03    -2.19674E+06    -33.5893E+06    -1.69386E+06     2.04515E+06    -18.5346E-03     31.9013E-03    -13.3668E-03     42.9047E-03    -18.5130E-03     31.7577E-03    -13.3233E-03     42.9054E-03
            2065     11.5492E-03     20.4784E-03    -2.35265E+06    -36.1895E+06    -462.396E+03     2.35010E+06    -17.5689E-03     30.6165E-03    -13.0476E-03     36.2586E-03    -17.5376E-03     30.4498E-03    -12.9941E-03     36.2715E-03
            2066     10.6640E-03     20.4450E-03    -2.28231E+06    -45.5670E+06    -1.44497E+06     2.60973E+06    -16.7014E-03     29.4415E-03    -12.7400E-03     31.2456E-03    -16.6505E-03     29.2249E-03    -12.6779E-03     31.2673E-03
            2067     9.77837E-03     20.4159E-03    -2.44393E+06    -47.7432E+06     2.03413E+06     2.79206E+06    -15.7873E-03     28.2494E-03    -12.4621E-03     26.9046E-03    -15.7367E-03     28.0148E-03    -12.3791E-03     26.9324E-03
            2068     8.89189E-03     20.3908E-03    -3.08557E+06    -45.8893E+06     2.85919E+06     3.10034E+06    -14.9136E-03     27.1027E-03    -12.1891E-03     22.8672E-03    -14.8687E-03     26.8757E-03    -12.1038E-03     22.9016E-03
            2069     8.00463E-03     20.3695E-03    -3.75982E+06    -46.4211E+06     3.45482E+06     3.40222E+06    -14.1318E-03     26.0753E-03    -11.9435E-03     19.1882E-03    -14.0896E-03     25.8449E-03    -11.8535E-03     19.2281E-03
            2070     7.11691E-03     20.3514E-03    -4.92430E+06    -47.0531E+06     3.03979E+06     3.57479E+06    -13.4124E-03     25.1326E-03    -11.7202E-03     15.9450E-03    -13.3740E-03     24.9009E-03    -11.6297E-03     15.9881E-03
            2071     6.22844E-03     20.3365E-03    -6.22118E+06    -46.3669E+06     1.37701E+06     4.07682E+06    -12.7737E-03     24.2915E-03    -11.5178E-03     13.1310E-03    -12.7400E-03     24.0672E-03    -11.4347E-03     13.1814E-03
            2072     5.33962E-03     20.3240E-03    -7.48749E+06    -47.0277E+06    -904.220E+03     4.07959E+06    -12.2465E-03     23.5892E-03    -11.3427E-03     10.6759E-03    -12.2147E-03     23.3665E-03    -11.2682E-03     10.7269E-03
            2073     4.45025E-03     20.3140E-03    -8.91933E+06    -47.5135E+06    -3.40273E+06     3.55108E+06    -11.8107E-03     23.0037E-03    -11.1931E-03     8.51216E-03    -11.7816E-03     22.7842E-03    -11.1282E-03     8.55678E-03
            2074     3.56068E-03     20.3059E-03    -10.1610E+06    -47.5298E+06    -6.01766E+06     3.13831E+06    -11.4502E-03     22.5189E-03    -11.0686E-03     6.56746E-03    -11.4235E-03     22.3048E-03    -11.0151E-03     6.60708E-03
            2075     2.67061E-03     20.3001E-03    -11.2478E+06    -47.9952E+06    -8.71583E+06     2.57522E+06    -11.1830E-03     22.1535E-03    -10.9706E-03     4.80800E-03    -11.1570E-03     21.9426E-03    -10.9283E-03     4.84062E-03
            2076     1.78068E-03     20.2956E-03    -12.2034E+06    -48.9445E+06    -10.9254E+06     1.89795E+06    -10.9931E-03     21.8938E-03    -10.9006E-03     3.17621E-03    -10.9674E-03     21.6826E-03    -10.8666E-03     3.20031E-03
            2077     890.267E-06     20.2933E-03    -12.9617E+06    -49.6139E+06    -12.4794E+06     1.09697E+06    -10.8782E-03     21.7385E-03    -10.8603E-03     1.63798E-03    -10.8529E-03     21.5274E-03    -10.8320E-03     1.65194E-03
            2078     16.8432E-03     19.8935E-03    -3.65066E+06     143.695E+06     35.3713E+06    -197.647E+03    -27.1758E-03     42.2410E-03    -15.0653E-03     146.229E-03    -29.2073E-03     44.6672E-03    -15.0915E-03     147.296E-03
            2079     15.9648E-03     19.7704E-03    -5.10974E+06     86.3931E+06    -13.3046E+06     333.179E+03    -24.7425E-03     39.2202E-03    -14.4776E-03     111.519E-03    -25.6099E-03     40.4148E-03    -14.6620E-03     111.583E-03
            2080     15.0837E-03     19.6819E-03    -3.86471E+06     37.0969E+06    -7.98084E+06     1.69055E+06    -22.0671E-03     36.2388E-03    -14.1717E-03     72.9205E-03    -22.2833E-03     36.5962E-03    -14.2598E-03     72.8807E-03
            2081     14.2015E-03     19.6308E-03    -2.90901E+06    -1.91964E+06    -7.15903E+06     1.84189E+06    -20.5252E-03     34.3769E-03    -13.8517E-03     51.6339E-03    -20.5802E-03     34.4355E-03    -13.8805E-03     51.6088E-03
            2082     13.3189E-03     19.5830E-03    -2.44996E+06    -29.5250E+06    -10.0893E+06     1.65321E+06    -19.6034E-03     33.1096E-03    -13.5062E-03     47.2569E-03    -19.5902E-03     33.0122E-03    -13.5103E-03     47.2411E-03
            2083     12.4357E-03     19.5385E-03    -1.98813E+06    -33.6777E+06    -1.67221E+06     1.93985E+06    -18.5920E-03     31.7857E-03    -13.1937E-03     41.6191E-03    -18.5683E-03     31.6403E-03    -13.1504E-03     41.6190E-03
            2084     11.5512E-03     19.5014E-03    -1.95809E+06    -36.2279E+06    -447.972E+03     2.28010E+06    -17.5952E-03     30.4513E-03    -12.8560E-03     35.0271E-03    -17.5614E-03     30.2832E-03    -12.8029E-03     35.0396E-03
            2085     10.6664E-03     19.4690E-03    -2.01195E+06    -45.6177E+06    -1.55203E+06     2.48552E+06    -16.6196E-03     29.1527E-03    -12.5331E-03     30.1330E-03    -16.5667E-03     28.9353E-03    -12.4718E-03     30.1536E-03
            2086     9.78048E-03     19.4412E-03    -2.05091E+06    -47.7890E+06     2.38173E+06     2.75977E+06    -15.6783E-03     27.9242E-03    -12.2459E-03     25.8058E-03    -15.6259E-03     27.6880E-03    -12.1617E-03     25.8335E-03
            2087     8.89382E-03     19.4171E-03    -2.34777E+06    -45.8495E+06     3.44066E+06     3.09432E+06    -14.7806E-03     26.7434E-03    -11.9628E-03     21.8390E-03    -14.7328E-03     26.5145E-03    -11.8757E-03     21.8735E-03
            2088     8.00664E-03     19.3967E-03    -3.14712E+06    -46.3599E+06     4.07064E+06     3.51212E+06    -13.9548E-03     25.6635E-03    -11.7087E-03     18.2513E-03    -13.9104E-03     25.4315E-03    -11.6165E-03     18.2928E-03
            2089     7.11857E-03     19.3797E-03    -4.22113E+06    -46.8312E+06     3.71531E+06     3.99171E+06    -13.2003E-03     24.6798E-03    -11.4795E-03     15.1198E-03    -13.1596E-03     24.4471E-03    -11.3869E-03     15.1685E-03
            2090     6.23007E-03     19.3654E-03    -5.44340E+06    -46.1404E+06     1.86551E+06     4.17852E+06    -12.5453E-03     23.8178E-03    -11.2725E-03     12.4477E-03    -12.5088E-03     23.5927E-03    -11.1883E-03     12.4996E-03
            2091     5.34086E-03     19.3537E-03    -6.50765E+06    -45.9253E+06    -117.998E+03     4.23797E+06    -12.0057E-03     23.1009E-03    -11.0952E-03     10.1178E-03    -11.9718E-03     22.8811E-03    -11.0197E-03     10.1709E-03
            2092     4.45144E-03     19.3441E-03    -7.58863E+06    -46.0617E+06    -2.49468E+06     3.86473E+06    -11.5603E-03     22.5050E-03    -10.9447E-03     8.05654E-03    -11.5280E-03     22.2895E-03    -10.8794E-03     8.10529E-03
            2093     3.56144E-03     19.3367E-03    -8.83511E+06    -46.1173E+06    -4.99786E+06     3.25137E+06    -11.2072E-03     22.0279E-03    -10.8207E-03     6.20855E-03    -11.1774E-03     21.8175E-03    -10.7660E-03     6.24969E-03
            2094     2.67146E-03     19.3309E-03    -9.77685E+06    -46.3458E+06    -7.34695E+06     2.76711E+06    -10.9332E-03     21.6570E-03    -10.7238E-03     4.53396E-03    -10.9043E-03     21.4501E-03    -10.6792E-03     4.56910E-03
            2095     1.78092E-03     19.3271E-03    -10.6113E+06    -46.9477E+06    -9.46142E+06     2.07688E+06    -10.7396E-03     21.3963E-03    -10.6567E-03     3.00515E-03    -10.7109E-03     21.1907E-03    -10.6205E-03     3.03159E-03
            2096     890.577E-06     19.3244E-03    -11.1904E+06    -47.3484E+06    -10.9125E+06     1.17723E+06    -10.6417E-03     21.2566E-03    -10.6150E-03     1.56428E-03    -10.6131E-03     21.0520E-03    -10.5847E-03     1.57928E-03
            2097     16.8447E-03     18.9076E-03    -3.04844E+06     143.739E+06     36.4895E+06     383.524E+03    -27.8415E-03     42.8783E-03    -15.0368E-03     144.072E-03    -29.8194E-03     45.2499E-03    -15.0584E-03     145.082E-03
            2098     15.9654E-03     18.7849E-03    -3.99735E+06     85.8562E+06    -12.4468E+06     685.288E+03    -25.2194E-03     39.6280E-03    -14.4085E-03     108.688E-03    -26.0451E-03     40.7805E-03    -14.5895E-03     108.736E-03
            2099     15.0850E-03     18.7014E-03    -3.83686E+06     36.3895E+06    -8.15590E+06     826.638E+03    -22.2881E-03     36.3574E-03    -14.0693E-03     71.0146E-03    -22.4956E-03     36.7042E-03    -14.1573E-03     70.9619E-03
            2100     14.2031E-03     18.6490E-03    -3.41346E+06    -1.68025E+06    -7.22532E+06     1.32576E+06    -20.6026E-03     34.3331E-03    -13.7305E-03     50.2461E-03    -20.6578E-03     34.3912E-03    -13.7592E-03     50.2149E-03
            2101     13.3212E-03     18.6038E-03    -2.61061E+06    -29.5897E+06    -10.2477E+06     1.57127E+06    -19.8458E-03     33.2094E-03    -13.3636E-03     46.0877E-03    -19.8319E-03     33.1109E-03    -13.3681E-03     46.0709E-03
            2102     12.4375E-03     18.5603E-03    -1.94657E+06    -34.0610E+06    -1.69779E+06     1.71209E+06    -18.7231E-03     31.7499E-03    -13.0268E-03     40.4448E-03    -18.6978E-03     31.6017E-03    -12.9831E-03     40.4421E-03
            2103     11.5536E-03     18.5243E-03    -1.74036E+06    -36.2836E+06    -122.014E+03     2.21466E+06    -17.5374E-03     30.2105E-03    -12.6731E-03     33.7968E-03    -17.5022E-03     30.0407E-03    -12.6186E-03     33.8091E-03
            2104     10.6683E-03     18.4935E-03    -1.70286E+06    -45.3236E+06    -1.27160E+06     2.35260E+06    -16.5668E-03     28.9039E-03    -12.3371E-03     28.9729E-03    -16.5128E-03     28.6867E-03    -12.2752E-03     28.9923E-03
            2105     9.78248E-03     18.4665E-03    -1.79305E+06    -47.8231E+06     2.86018E+06     2.43785E+06    -15.5857E-03     27.6245E-03    -12.0389E-03     24.6518E-03    -15.5324E-03     27.3869E-03    -11.9526E-03     24.6757E-03
            2106     8.89596E-03     18.4438E-03    -2.12495E+06    -46.0912E+06     4.04949E+06     2.97888E+06    -14.6358E-03     26.3824E-03    -11.7466E-03     20.7788E-03    -14.5873E-03     26.1509E-03    -11.6564E-03     20.8120E-03
            2107     8.00833E-03     18.4243E-03    -2.56106E+06    -46.5258E+06     4.63837E+06     3.53993E+06    -13.7635E-03     25.2486E-03    -11.4851E-03     17.3004E-03    -13.7166E-03     25.0140E-03    -11.3907E-03     17.3424E-03
            2108     7.12030E-03     18.4083E-03    -3.27274E+06    -46.7719E+06     4.65923E+06     4.05841E+06    -12.9877E-03     24.2412E-03    -11.2535E-03     14.2738E-03    -12.9437E-03     24.0060E-03    -11.1576E-03     14.3235E-03
            2109     6.23139E-03     18.3948E-03    -4.36069E+06    -45.4352E+06     2.62905E+06     4.40187E+06    -12.3267E-03     23.3689E-03    -11.0422E-03     11.7517E-03    -12.2869E-03     23.1447E-03    -10.9569E-03     11.8066E-03
            2110     5.34223E-03     18.3837E-03    -5.54024E+06    -45.0053E+06     402.170E+03     4.22845E+06    -11.7770E-03     22.6392E-03    -10.8622E-03     9.53566E-03    -11.7403E-03     22.4219E-03    -10.7869E-03     9.58881E-03
            2111     4.45233E-03     18.3748E-03    -6.42935E+06    -44.6522E+06    -1.64840E+06     3.91886E+06    -11.3297E-03     22.0415E-03    -10.7118E-03     7.57140E-03    -11.2949E-03     21.8301E-03    -10.6460E-03     7.62092E-03
            2112     3.56242E-03     18.3676E-03    -7.31462E+06    -44.5999E+06    -3.96819E+06     3.43953E+06    -10.9751E-03     21.5631E-03    -10.5880E-03     5.82978E-03    -10.9413E-03     21.3566E-03    -10.5326E-03     5.87341E-03
            2113     2.67190E-03     18.3625E-03    -8.23971E+06    -44.6829E+06    -6.07741E+06     2.82764E+06    -10.7032E-03     21.1954E-03    -10.4922E-03     4.25331E-03    -10.6708E-03     20.9928E-03    -10.4459E-03     4.28927E-03
            2114     1.78151E-03     18.3586E-03    -8.81533E+06    -44.7679E+06    -7.78870E+06     2.09721E+06    -10.5159E-03     20.9397E-03    -10.4237E-03     2.80859E-03    -10.4838E-03     20.7399E-03    -10.3850E-03     2.83532E-03
            2115     890.690E-06     18.3565E-03    -9.23348E+06    -45.0090E+06    -8.94523E+06     1.15690E+06    -10.4096E-03     20.7882E-03    -10.3786E-03     1.46385E-03    -10.3775E-03     20.5896E-03    -10.3447E-03     1.47860E-03
            2116     16.8453E-03     17.9194E-03    -3.46023E+06     143.169E+06     37.4580E+06     347.754E+03    -28.6100E-03     43.6115E-03    -15.0015E-03     142.066E-03    -30.5370E-03     45.9259E-03    -15.0168E-03     143.000E-03
            2117     15.9671E-03     17.8016E-03    -4.41480E+06     85.7625E+06    -11.7951E+06     754.054E+03    -25.4662E-03     39.8012E-03    -14.3350E-03     105.844E-03    -26.2583E-03     40.9164E-03    -14.5119E-03     105.875E-03
            2118     15.0869E-03     17.7179E-03    -3.77235E+06     36.5293E+06    -8.55753E+06     889.365E+03    -22.4197E-03     36.3880E-03    -13.9683E-03     69.1438E-03    -22.6188E-03     36.7282E-03    -14.0586E-03     69.0913E-03
            2119     14.2055E-03     17.6698E-03    -3.19886E+06    -1.56957E+06    -7.16487E+06      727.08E+03    -20.7576E-03     34.3715E-03    -13.6139E-03     49.3336E-03    -20.8096E-03     34.4274E-03    -13.6428E-03     49.2951E-03
            2120     13.3219E-03     17.6234E-03    -2.28878E+06    -29.4959E+06    -9.97553E+06     1.08163E+06    -19.9931E-03     33.2216E-03    -13.2285E-03     44.7805E-03    -19.9766E-03     33.1213E-03    -13.2323E-03     44.7579E-03
            2121     12.4400E-03     17.5822E-03    -1.91477E+06    -34.9129E+06    -1.73925E+06     1.57745E+06    -18.8190E-03     31.6907E-03    -12.8717E-03     38.8211E-03    -18.7912E-03     31.5372E-03    -12.8270E-03     38.8173E-03
            2122     11.5553E-03     17.5478E-03    -1.85921E+06    -36.5415E+06     160.010E+03     1.96583E+06    -17.5414E-03     30.0427E-03    -12.5012E-03     32.5232E-03    -17.5063E-03     29.8708E-03    -12.4448E-03     32.5328E-03
            2123     10.6704E-03     17.5178E-03    -1.60335E+06    -44.9212E+06    -789.084E+03     2.13515E+06    -16.5075E-03     28.6587E-03    -12.1512E-03     27.7437E-03    -16.4539E-03     28.4423E-03    -12.0877E-03     27.7607E-03
            2124     9.78459E-03     17.4925E-03    -1.79500E+06    -47.9284E+06     3.30160E+06     2.25214E+06    -15.4974E-03     27.3393E-03    -11.8419E-03     23.4762E-03    -15.4444E-03     27.1002E-03    -11.7533E-03     23.4980E-03
            2125     8.89758E-03     17.4706E-03    -2.20986E+06    -46.5076E+06     4.67493E+06     2.67548E+06    -14.4846E-03     26.0265E-03    -11.5420E-03     19.6394E-03    -14.4366E-03     25.7921E-03    -11.4479E-03     19.6690E-03
            2126     8.01022E-03     17.4524E-03    -2.66573E+06    -46.8067E+06     4.91130E+06     3.29629E+06    -13.5624E-03     24.8363E-03    -11.2739E-03     16.3066E-03    -13.5160E-03     24.6000E-03    -11.1776E-03     16.3457E-03
            2127     7.12170E-03     17.4373E-03    -3.32602E+06    -46.8928E+06     4.57236E+06     3.89207E+06    -12.7909E-03     23.8283E-03    -11.0375E-03     13.4390E-03    -12.7467E-03     23.5927E-03    -10.9418E-03     13.4867E-03
            2128     6.23291E-03     17.4246E-03    -3.96936E+06    -44.8011E+06     3.13097E+06     4.25730E+06    -12.1343E-03     22.9580E-03    -10.8237E-03     11.0045E-03    -12.0941E-03     22.7356E-03    -10.7373E-03     11.0576E-03
            2129     5.34322E-03     17.4143E-03    -4.49921E+06    -43.7708E+06     1.02586E+06     4.08969E+06    -11.5761E-03     22.2144E-03    -10.6383E-03     8.87768E-03    -11.5369E-03     22.0008E-03    -10.5632E-03     8.92913E-03
            2130     4.45352E-03     17.4058E-03    -5.16025E+06    -43.5845E+06    -933.260E+03     3.73967E+06    -11.1147E-03     21.6000E-03    -10.4853E-03     7.03204E-03    -11.0761E-03     21.3911E-03    -10.4193E-03     7.07933E-03
            2131     3.56303E-03     17.3993E-03    -5.73267E+06    -43.0507E+06    -2.63009E+06     3.41087E+06    -10.7555E-03     21.1172E-03    -10.3617E-03     5.39229E-03    -10.7180E-03     20.9141E-03    -10.3041E-03     5.43560E-03
            2132     2.67266E-03     17.3942E-03    -6.20154E+06    -42.8171E+06    -4.29116E+06     2.73508E+06    -10.4861E-03     20.7507E-03    -10.2646E-03     3.90677E-03    -10.4489E-03     20.5519E-03    -10.2149E-03     3.94157E-03
            2133     1.78176E-03     17.3908E-03    -6.72840E+06    -42.7719E+06    -5.74085E+06     1.97375E+06    -10.2945E-03     20.4877E-03    -10.1932E-03     2.59800E-03    -10.2578E-03     20.2919E-03    -10.1501E-03     2.62316E-03
            2134     891.027E-06     17.3885E-03    -6.83141E+06    -42.6489E+06    -6.67614E+06     1.14152E+06    -10.1723E-03     20.3236E-03    -10.1513E-03     1.37031E-03    -10.1349E-03     20.1300E-03    -10.1130E-03     1.38488E-03
            2135     16.8460E-03     16.9320E-03    -3.26703E+06     142.730E+06     37.8641E+06     526.636E+03    -29.1784E-03     44.1631E-03    -14.9847E-03     140.228E-03    -31.0507E-03     46.4207E-03    -14.9976E-03     141.101E-03
            2136     15.9683E-03     16.8158E-03    -4.44147E+06     85.7568E+06    -11.9921E+06     759.567E+03    -25.8519E-03     40.1347E-03    -14.2828E-03     103.438E-03    -26.6104E-03     41.2168E-03    -14.4607E-03     103.448E-03
            2137     15.0878E-03     16.7372E-03    -3.87733E+06     36.8364E+06    -8.90759E+06     715.032E+03    -22.7813E-03     36.6670E-03    -13.8857E-03     67.4780E-03    -22.9735E-03     37.0022E-03    -13.9781E-03     67.4217E-03
            2138     14.2057E-03     16.6879E-03    -3.35166E+06    -1.54463E+06    -7.07007E+06     498.693E+03    -21.1991E-03     34.7003E-03    -13.5011E-03     47.8065E-03    -21.2497E-03     34.7541E-03    -13.5294E-03     47.7645E-03
            2139     13.3254E-03     16.6441E-03    -3.05980E+06    -29.5579E+06    -9.98866E+06     727.333E+03    -20.0488E-03     33.1389E-03    -13.0901E-03     43.0611E-03    -20.0341E-03     33.0374E-03    -13.0927E-03     43.0348E-03
            2140     12.4410E-03     16.6040E-03    -2.63040E+06    -35.5382E+06    -2.12899E+06     1.20876E+06    -18.7503E-03     31.4705E-03    -12.7202E-03     37.3099E-03    -18.7235E-03     31.3144E-03    -12.6755E-03     37.3023E-03
            2141     11.5576E-03     16.5711E-03    -2.14299E+06    -36.7306E+06     285.761E+03     1.48390E+06    -17.6030E-03     29.9404E-03    -12.3374E-03     31.0726E-03    -17.5686E-03     29.7673E-03    -12.2797E-03     31.0764E-03
            2142     10.6723E-03     16.5428E-03    -1.80478E+06    -44.9253E+06    -548.880E+03     1.79131E+06    -16.4862E-03     28.4567E-03    -11.9705E-03     26.3865E-03    -16.4337E-03     28.2399E-03    -11.9055E-03     26.3994E-03
            2143     9.78619E-03     16.5183E-03    -1.68526E+06    -48.1205E+06     4.02587E+06     2.05885E+06    -15.3919E-03     27.0430E-03    -11.6512E-03     22.0691E-03    -15.3389E-03     26.8016E-03    -11.5588E-03     22.0888E-03
            2144     8.89970E-03     16.4980E-03    -2.18686E+06    -46.7109E+06     5.72297E+06     2.51627E+06    -14.3332E-03     25.6781E-03    -11.3449E-03     18.3439E-03    -14.2862E-03     25.4409E-03    -11.2454E-03     18.3716E-03
            2145     8.01159E-03     16.4810E-03    -3.11608E+06    -47.1303E+06     5.00137E+06     3.11547E+06    -13.4023E-03     24.4687E-03    -11.0664E-03     15.1487E-03    -13.3577E-03     24.2312E-03    -10.9686E-03     15.1856E-03
            2146     7.12331E-03     16.4666E-03    -3.75291E+06    -46.6896E+06     4.29757E+06     3.44955E+06    -12.6268E-03     23.4470E-03    -10.8202E-03     12.4044E-03    -12.5847E-03     23.2133E-03    -10.7255E-03     12.4465E-03
            2147     6.23402E-03     16.4549E-03    -3.95595E+06    -44.3045E+06     3.13888E+06     3.42029E+06    -11.9645E-03     22.5631E-03    -10.5986E-03     10.0590E-03    -11.9250E-03     22.3431E-03    -10.5129E-03     10.1015E-03
            2148     5.34467E-03     16.4450E-03    -4.07884E+06    -42.8526E+06     1.38284E+06     3.51995E+06    -11.3780E-03     21.7843E-03    -10.4063E-03     8.06437E-03    -11.3384E-03     21.5742E-03    -10.3314E-03     8.10857E-03
            2149     4.45430E-03     16.4375E-03    -4.34711E+06    -42.4346E+06    -269.943E+03     3.36977E+06    -10.9055E-03     21.1535E-03    -10.2479E-03     6.36337E-03    -10.8654E-03     20.9481E-03    -10.1815E-03     6.40597E-03
            2150     3.56408E-03     16.4310E-03    -4.50376E+06    -41.6872E+06    -1.54428E+06     2.93763E+06    -10.5307E-03     20.6511E-03    -10.1204E-03     4.86091E-03    -10.4906E-03     20.4515E-03    -10.0612E-03     4.89819E-03
            2151     2.67316E-03     16.4267E-03    -4.65825E+06    -41.0771E+06    -2.80872E+06     2.41129E+06    -10.2485E-03     20.2696E-03    -10.0211E-03     3.53009E-03    -10.2082E-03     20.0751E-03    -9.96883E-03     3.56077E-03
            2152     1.78235E-03     16.4231E-03    -4.70593E+06    -40.8868E+06    -3.82456E+06     1.67242E+06    -10.0503E-03     20.0007E-03    -9.95038E-03     2.33221E-03    -10.0090E-03     19.8086E-03    -9.90339E-03     2.35352E-03
            2153     891.099E-06     16.4215E-03    -4.63904E+06    -40.5918E+06    -4.44585E+06     998.793E+03    -9.93059E-03     19.8406E-03    -9.91001E-03     1.22890E-03    -9.88845E-03     19.6509E-03    -9.86666E-03     1.24164E-03
            2154     16.8453E-03     15.9425E-03    -3.37072E+06     141.789E+06     38.2861E+06     547.454E+03    -29.4635E-03     44.4537E-03    -14.9901E-03     138.182E-03    -31.2841E-03     46.6547E-03    -14.9994E-03     139.006E-03
            2155     15.9678E-03     15.8309E-03    -4.14673E+06     86.1322E+06    -11.1746E+06     783.932E+03    -26.4733E-03     40.7296E-03    -14.2563E-03     99.8557E-03    -27.1911E-03     41.7709E-03    -14.4310E-03     99.8443E-03
            2156     15.0887E-03     15.7542E-03    -3.96968E+06     37.9432E+06    -8.74572E+06     695.342E+03    -23.4713E-03     37.2798E-03    -13.8085E-03     65.0680E-03    -23.6583E-03     37.6129E-03    -13.9015E-03     65.0078E-03
            2157     14.2094E-03     15.7063E-03    -4.06309E+06    -1.84943E+06    -7.57463E+06     475.175E+03    -21.4352E-03     34.8219E-03    -13.3867E-03     46.1883E-03    -21.4854E-03     34.8731E-03    -13.4160E-03     46.1463E-03
            2158     13.3257E-03     15.6650E-03    -3.48730E+06    -30.3278E+06    -10.3792E+06     552.300E+03    -20.1182E-03     33.0749E-03    -12.9567E-03     41.5454E-03    -20.1022E-03     32.9689E-03    -12.9595E-03     41.5178E-03
            2159     12.4437E-03     15.6260E-03    -2.72796E+06    -35.5873E+06    -1.96005E+06     728.128E+03    -18.8326E-03     31.4036E-03    -12.5710E-03     35.7352E-03    -18.8053E-03     31.2460E-03    -12.5253E-03     35.7220E-03
            2160     11.5590E-03     15.5947E-03    -2.64200E+06    -36.7172E+06     575.170E+03     918.576E+03    -17.6302E-03     29.8017E-03    -12.1715E-03     29.4162E-03    -17.5980E-03     29.6282E-03    -12.1115E-03     29.4134E-03
            2161     10.6743E-03     15.5675E-03    -2.45406E+06    -45.0264E+06    -107.755E+03     1.21443E+06    -16.5090E-03     28.2964E-03    -11.7874E-03     24.6971E-03    -16.4598E-03     28.0790E-03    -11.7191E-03     24.7030E-03
            2162     9.78858E-03     15.5447E-03    -2.21963E+06    -48.5368E+06     4.60279E+06     1.67148E+06    -15.3022E-03     26.7554E-03    -11.4532E-03     20.4814E-03    -15.2518E-03     26.5115E-03    -11.3566E-03     20.4965E-03
            2163     8.90105E-03     15.5257E-03    -2.62044E+06    -47.3277E+06     6.82524E+06     2.45544E+06    -14.2479E-03     25.3843E-03    -11.1364E-03     16.7866E-03    -14.2036E-03     25.1429E-03    -11.0299E-03     16.8139E-03
            2164     8.01367E-03     15.5095E-03    -3.22778E+06    -46.8743E+06     5.92797E+06     2.84235E+06    -13.3197E-03     24.1586E-03    -10.8389E-03     13.6250E-03    -13.2772E-03     23.9211E-03    -10.7366E-03     13.6586E-03
            2165     7.12484E-03     15.4965E-03    -3.72591E+06    -46.1284E+06     4.23523E+06     2.66153E+06    -12.4778E-03     23.0490E-03    -10.5712E-03     11.0480E-03    -12.4362E-03     22.8181E-03    -10.4778E-03     11.0801E-03
            2166     6.23589E-03     15.4852E-03    -3.97779E+06    -43.9818E+06     2.80781E+06     2.58742E+06    -11.7548E-03     22.0928E-03    -10.3380E-03     8.87280E-03    -11.7153E-03     21.8749E-03    -10.2544E-03     8.90465E-03
            2167     5.34576E-03     15.4767E-03    -4.21556E+06    -42.3027E+06     1.41544E+06     2.67033E+06    -11.1598E-03     21.2987E-03    -10.1389E-03     7.05387E-03    -11.1217E-03     21.0914E-03    -10.0644E-03     7.08723E-03
            2168     4.45578E-03     15.4690E-03    -4.25522E+06    -41.3208E+06     13.4256E+03     2.58653E+06    -10.6630E-03     20.6354E-03    -9.97236E-03     5.54058E-03    -10.6245E-03     20.4350E-03    -9.90621E-03     5.57317E-03
            2169     3.56487E-03     15.4638E-03    -4.26314E+06    -40.5534E+06    -1.35612E+06     2.19948E+06    -10.2631E-03     20.1015E-03    -9.83839E-03     4.20885E-03    -10.2237E-03     19.9069E-03    -9.78019E-03     4.23667E-03
            2170     2.67401E-03     15.4591E-03    -4.07089E+06    -39.6488E+06    -2.37783E+06     1.68006E+06    -9.96743E-03     19.7043E-03    -9.73687E-03     3.06018E-03    -9.92687E-03     19.5154E-03    -9.68536E-03     3.08147E-03
            2171     1.78271E-03     15.4565E-03    -3.93779E+06    -39.4116E+06    -3.10700E+06     1.17376E+06    -9.76806E-03     19.4343E-03    -9.66622E-03     2.01103E-03    -9.72611E-03     19.2474E-03    -9.61890E-03     2.02593E-03
            2172     891.464E-06     15.4543E-03    -3.97370E+06    -39.1435E+06    -3.54961E+06     693.737E+03    -9.64404E-03     19.2718E-03    -9.62778E-03     1.09400E-03    -9.60196E-03     19.0871E-03    -9.58301E-03     1.10282E-03
            2173     16.8454E-03     14.9522E-03    -3.09307E+06     141.587E+06     39.4745E+06     603.996E+03    -29.9453E-03     44.9214E-03    -14.9761E-03     135.158E-03    -31.7021E-03     47.0555E-03    -14.9795E-03     135.915E-03
            2174     15.9692E-03     14.8455E-03    -4.58216E+06     86.1724E+06    -10.9655E+06     789.945E+03    -26.7749E-03     40.9820E-03    -14.2071E-03     96.0552E-03    -27.4529E-03     41.9816E-03    -14.3803E-03     96.0294E-03
            2175     15.0908E-03     14.7696E-03    -4.50972E+06     38.1460E+06    -9.52526E+06     844.739E+03    -23.6986E-03     37.4277E-03    -13.7291E-03     62.7704E-03    -23.8793E-03     37.7555E-03    -13.8255E-03     62.7115E-03
            2176     14.2087E-03     14.7263E-03    -3.93544E+06    -1.33291E+06    -7.41072E+06     370.089E+03    -21.7040E-03     34.9911E-03    -13.2871E-03     44.4832E-03    -21.7517E-03     35.0416E-03    -13.3165E-03     44.4403E-03
            2177     13.3285E-03     14.6845E-03    -3.42302E+06    -30.2687E+06    -10.1730E+06     201.562E+03    -20.4588E-03     33.2874E-03    -12.8286E-03     39.5951E-03    -20.4410E-03     33.1796E-03    -12.8306E-03     39.5632E-03
            2178     12.4450E-03     14.6486E-03    -2.94770E+06    -36.0104E+06    -1.91212E+06     475.581E+03    -19.0449E-03     31.4568E-03    -12.4119E-03     33.7238E-03    -19.0170E-03     31.2963E-03    -12.3650E-03     33.7079E-03
            2179     11.5615E-03     14.6179E-03    -3.02345E+06    -36.7722E+06     964.547E+03     721.116E+03    -17.6904E-03     29.6792E-03    -11.9888E-03     27.5647E-03    -17.6599E-03     29.5047E-03    -11.9263E-03     27.5600E-03
            2180     10.6766E-03     14.5926E-03    -3.44512E+06    -45.3766E+06      366.27E+03     853.404E+03    -16.5018E-03     28.0883E-03    -11.5865E-03     22.7946E-03    -16.4573E-03     27.8694E-03    -11.5139E-03     22.7963E-03
            2181     9.79014E-03     14.5714E-03    -3.73333E+06    -48.8852E+06     4.96064E+06     1.12766E+06    -15.3742E-03     26.6024E-03    -11.2282E-03     18.5487E-03    -15.3311E-03     26.3582E-03    -11.1271E-03     18.5571E-03
            2182     8.90387E-03     14.5533E-03    -3.93052E+06    -47.8272E+06     7.04884E+06     1.63050E+06    -14.2521E-03     25.1336E-03    -10.8815E-03     14.8566E-03    -14.2138E-03     24.8911E-03    -10.7712E-03     14.8734E-03
            2183     8.01558E-03     14.5388E-03    -3.96006E+06    -46.7822E+06     6.05067E+06     2.04535E+06    -13.2258E-03     23.7818E-03    -10.5560E-03     11.8432E-03    -13.1872E-03     23.5455E-03    -10.4522E-03     11.8668E-03
            2184     7.12731E-03     14.5263E-03    -4.27461E+06    -45.4201E+06     3.96551E+06     2.08956E+06    -12.3106E-03     22.5750E-03    -10.2643E-03     9.43676E-03    -12.2723E-03     22.3487E-03    -10.1724E-03     9.46174E-03
            2185     6.23750E-03     14.5167E-03    -4.91147E+06    -43.6962E+06     1.97499E+06     1.87852E+06    -11.5063E-03     21.5204E-03    -10.0141E-03     7.46008E-03    -11.4706E-03     21.3064E-03    -9.93376E-03     7.48293E-03
            2186     5.34783E-03     14.5080E-03    -5.07304E+06    -41.8659E+06     589.756E+03     1.75085E+06    -10.8629E-03     20.6683E-03    -9.80537E-03     5.88785E-03    -10.8285E-03     20.4656E-03    -9.73436E-03     5.90946E-03
            2187     4.45699E-03     14.5020E-03    -5.12287E+06    -40.5794E+06    -794.883E+03     1.61487E+06    -10.3521E-03     19.9838E-03    -9.63168E-03     4.57808E-03    -10.3178E-03     19.7895E-03    -9.56939E-03     4.59822E-03
            2188     3.56625E-03     14.4963E-03    -5.06060E+06    -39.5028E+06    -2.19273E+06     1.28495E+06    -9.93360E-03     19.4249E-03    -9.49130E-03     3.46076E-03    -9.89849E-03     19.2379E-03    -9.43765E-03     3.47685E-03
            2189     2.67487E-03     14.4930E-03    -4.96698E+06    -38.8248E+06    -3.40055E+06     946.601E+03    -9.62356E-03     19.0092E-03    -9.38567E-03     2.52043E-03    -9.58719E-03     18.8273E-03    -9.33917E-03     2.53230E-03
            2190     1.78340E-03     14.4897E-03    -4.88191E+06    -38.4552E+06    -4.13285E+06     675.262E+03    -9.41637E-03     18.7297E-03    -9.31335E-03     1.65234E-03    -9.37903E-03     18.5505E-03    -9.27117E-03     1.66084E-03
            2191     891.707E-06     14.4886E-03    -4.76255E+06    -38.1417E+06    -4.61277E+06     375.441E+03    -9.26287E-03     18.5662E-03    -9.30331E-03     913.037E-06    -9.22465E-03     18.3891E-03    -9.26417E-03     917.769E-06
            2192     16.8474E-03     13.9647E-03    -3.07409E+06     141.125E+06     40.6683E+06     811.946E+03    -30.6542E-03     45.6083E-03    -14.9541E-03     132.980E-03    -32.3484E-03     47.6747E-03    -14.9509E-03     133.664E-03
            2193     15.9701E-03     13.8574E-03    -4.22951E+06     85.8989E+06    -10.1241E+06     1.20468E+06    -27.0451E-03     41.1941E-03    -14.1490E-03     92.9719E-03    -27.6849E-03     42.1534E-03    -14.3181E-03     92.9381E-03
            2194     15.0906E-03     13.7882E-03    -4.19192E+06     38.7281E+06    -9.42064E+06     782.232E+03    -23.9216E-03     37.5638E-03    -13.6422E-03     59.4778E-03    -24.0918E-03     37.8841E-03    -13.7394E-03     59.4175E-03
            2195     14.2116E-03     13.7429E-03    -4.18638E+06    -713.415E+03    -7.67222E+06     275.317E+03    -21.9509E-03     35.1254E-03    -13.1745E-03     42.0751E-03    -21.9968E-03     35.1762E-03    -13.2057E-03     42.0317E-03
            2196     13.3297E-03     13.7057E-03    -3.92516E+06    -30.2274E+06    -10.4370E+06     145.205E+03    -20.8066E-03     33.4935E-03    -12.6869E-03     37.5389E-03    -20.7891E-03     33.3851E-03    -12.6896E-03     37.5068E-03
            2197     12.4476E-03     13.6698E-03    -3.65771E+06    -36.2695E+06    -1.96315E+06     279.887E+03    -19.3383E-03     31.5747E-03    -12.2365E-03     31.5412E-03    -19.3124E-03     31.4129E-03    -12.1884E-03     31.5233E-03
            2198     11.5639E-03     13.6420E-03    -3.83583E+06    -37.2837E+06     1.13065E+06     649.479E+03    -17.8752E-03     29.6557E-03    -11.7805E-03     25.4842E-03    -17.8476E-03     29.4789E-03    -11.7152E-03     25.4792E-03
            2199     10.6786E-03     13.6178E-03    -3.90409E+06    -45.1589E+06     1.75679E+06     837.549E+03    -16.7249E-03     28.0704E-03    -11.3455E-03     20.5442E-03    -16.6845E-03     27.8508E-03    -11.2656E-03     20.5461E-03
            2200     9.79360E-03     13.5977E-03    -4.49057E+06    -48.7548E+06     6.29192E+06     639.008E+03    -15.5014E-03     26.4479E-03    -10.9465E-03     16.0969E-03    -15.4639E-03     26.2032E-03    -10.8379E-03     16.0992E-03
            2201     8.90618E-03     13.5817E-03    -5.19550E+06    -48.1940E+06     6.81067E+06     629.404E+03    -14.2364E-03     24.7930E-03    -10.5566E-03     12.5850E-03    -14.2033E-03     24.5506E-03    -10.4451E-03     12.5891E-03
            2202     8.01884E-03     13.5680E-03    -5.82778E+06    -47.0692E+06     4.89371E+06     1.14909E+06    -13.0990E-03     23.2957E-03    -10.1967E-03     9.80863E-03    -13.0675E-03     23.0623E-03    -10.0956E-03     9.82079E-03
            2203     7.12959E-03     13.5574E-03    -6.28039E+06     -45.117E+06     2.93588E+06     1.41382E+06    -12.0898E-03     21.9697E-03    -9.87994E-03     7.55088E-03    -12.0603E-03     21.7493E-03    -9.79073E-03     7.56730E-03
            2204     6.24048E-03     13.5479E-03    -6.55704E+06    -43.0323E+06     652.853E+03     1.20503E+06    -11.2075E-03     20.8152E-03    -9.60767E-03     5.87262E-03    -11.1790E-03     20.6087E-03    -9.53250E-03     5.88692E-03
            2205     5.34966E-03     13.5412E-03    -7.03452E+06    -41.5017E+06    -1.38698E+06     921.485E+03    -10.5086E-03     19.8907E-03    -9.38208E-03     4.56244E-03    -10.4817E-03     19.6955E-03    -9.31864E-03     4.57346E-03
            2206     4.45911E-03     13.5346E-03    -7.07102E+06    -40.0925E+06    -2.97388E+06     622.859E+03    -9.94294E-03     19.1414E-03    -9.19845E-03     3.42768E-03    -9.91591E-03     18.9555E-03    -9.14493E-03     3.43510E-03
            2207     3.56760E-03     13.5307E-03    -7.02518E+06    -38.9928E+06    -4.43494E+06     480.453E+03    -9.50728E-03     18.5610E-03    -9.05371E-03     2.59880E-03    -9.47946E-03     18.3827E-03    -9.00916E-03     2.60458E-03
            2208     2.67602E-03     13.5265E-03    -7.08518E+06    -38.3953E+06    -5.53564E+06     394.028E+03    -9.19944E-03     18.1440E-03    -8.94452E-03     1.87441E-03    -9.17119E-03     17.9703E-03    -8.90625E-03     1.87921E-03
            2209     1.78414E-03     13.5247E-03    -6.91154E+06    -37.9612E+06    -6.22502E+06     243.676E+03    -8.97818E-03     17.8453E-03    -8.86716E-03     1.22823E-03    -8.94867E-03     17.6746E-03    -8.83321E-03     1.23120E-03
            2210     892.094E-06     13.5224E-03    -6.75072E+06    -37.6485E+06    -6.78476E+06     98.7216E+03    -8.82906E-03     17.6698E-03    -8.84075E-03     634.108E-06    -8.79835E-03     17.5012E-03    -8.81030E-03     635.287E-06
            2211     16.8458E-03     12.9720E-03    -3.63745E+06     140.018E+06     41.2714E+06     718.955E+03    -31.3624E-03     46.3033E-03    -14.9409E-03     129.636E-03    -32.9843E-03     48.2898E-03    -14.9323E-03     130.247E-03
            2212     15.9710E-03     12.8726E-03    -4.60550E+06     85.8977E+06    -9.76933E+06     1.30815E+06    -27.6374E-03     41.7254E-03    -14.0880E-03     89.1451E-03    -28.2388E-03     42.6439E-03    -14.2547E-03     89.0936E-03
            2213     15.0941E-03     12.8021E-03    -3.85073E+06     39.9018E+06    -9.25665E+06     1.07204E+06    -24.2794E-03     37.8190E-03    -13.5397E-03     56.6517E-03    -24.4409E-03     38.1355E-03    -13.6382E-03     56.5942E-03
            2214     14.2128E-03     12.7637E-03    -3.63896E+06     26.4385E+03    -6.98562E+06     451.386E+03    -22.2512E-03     35.2959E-03    -13.0447E-03     40.2035E-03    -22.2935E-03     35.3456E-03    -13.0743E-03     40.1630E-03
            2215     13.3317E-03     12.7238E-03    -3.90282E+06    -30.7308E+06    -9.99268E+06     221.000E+03    -21.1479E-03     33.6739E-03    -12.5259E-03     35.3268E-03    -21.1284E-03     33.5605E-03    -12.5257E-03     35.2961E-03
            2216     12.4501E-03     12.6925E-03    -4.34388E+06    -36.5276E+06    -1.33053E+06     263.553E+03    -19.7896E-03     31.8237E-03    -12.0340E-03     28.8067E-03    -19.7665E-03     31.6594E-03    -11.9814E-03     28.7889E-03
            2217     11.5663E-03     12.6653E-03    -4.47005E+06    -36.7032E+06     2.70514E+06     437.977E+03    -18.3776E-03     29.9033E-03    -11.5256E-03     22.8042E-03    -18.3556E-03     29.7273E-03    -11.4524E-03     22.7967E-03
            2218     10.6828E-03     12.6427E-03    -4.83908E+06    -45.0180E+06     2.94852E+06     400.849E+03    -17.0179E-03     28.0499E-03    -11.0321E-03     17.7573E-03    -16.9836E-03     27.8302E-03    -10.9450E-03     17.7539E-03
            2219     9.79654E-03     12.6248E-03    -5.08037E+06    -48.5283E+06     7.37057E+06     230.522E+03    -15.5396E-03     26.1249E-03    -10.5853E-03     13.4156E-03    -15.5067E-03     25.8803E-03    -10.4707E-03     13.4131E-03
            2220     8.91045E-03     12.6099E-03    -6.19088E+06    -48.5359E+06     7.08472E+06     494.957E+03    -14.1581E-03     24.3139E-03    -10.1558E-03     10.1343E-03    -14.1297E-03     24.0707E-03    -10.0410E-03     10.1370E-03
            2221     8.02190E-03     12.5984E-03    -7.61765E+06    -47.2445E+06     3.82718E+06     692.881E+03    -12.9153E-03     22.6731E-03    -9.75777E-03     7.61139E-03    -12.8908E-03     22.4428E-03    -9.65908E-03     7.61784E-03
            2222     7.13353E-03     12.5881E-03    -8.44828E+06    -44.9749E+06     1.08090E+06     560.682E+03    -11.7833E-03     21.1946E-03    -9.41127E-03     5.64908E-03    -11.7621E-03     20.9806E-03    -9.32841E-03     5.65465E-03
            2223     6.24296E-03     12.5811E-03    -8.87151E+06    -42.6567E+06    -1.18952E+06     488.961E+03    -10.8749E-03     19.9911E-03    -9.11621E-03     4.27884E-03    -10.8558E-03     19.7926E-03    -9.04744E-03     4.28400E-03
            2224     5.35286E-03     12.5737E-03    -9.09387E+06    -40.9561E+06    -3.46387E+06     161.590E+03    -10.0996E-03     18.9674E-03    -8.86776E-03     3.15694E-03    -10.0808E-03     18.7809E-03    -8.81251E-03     3.15824E-03
            2225     4.46127E-03     12.5695E-03    -9.42734E+06    -39.9595E+06    -5.67085E+06    -119.858E+03    -9.46508E-03     18.1327E-03    -8.66761E-03     2.32407E-03    -9.44610E-03     17.9548E-03    -8.62435E-03     2.32198E-03
            2226     3.56962E-03     12.5646E-03      -9.548E+06    -38.8876E+06    -7.12403E+06    -145.064E+03    -9.01013E-03     17.5223E-03    -8.51221E-03     1.68131E-03    -8.99118E-03     17.3521E-03    -8.47760E-03     1.67906E-03
            2227     2.67750E-03     12.5622E-03    -9.62172E+06    -38.2739E+06    -8.23995E+06    -139.499E+03    -8.66640E-03     17.0609E-03    -8.39447E-03     1.18318E-03    -8.64708E-03     16.8954E-03    -8.36622E-03     1.18113E-03
            2228     1.78510E-03     12.5593E-03    -9.64890E+06    -37.9336E+06    -8.97679E+06    -87.7826E+03    -8.43342E-03     16.7451E-03    -8.31168E-03     756.106E-06    -8.41366E-03     16.5824E-03    -8.28757E-03     754.819E-06
            2229     892.649E-06     12.5587E-03    -9.51571E+06    -37.5358E+06    -9.49606E+06     14.5811E+03    -8.30676E-03     16.5531E-03    -8.24631E-03     452.863E-06    -8.28610E-03     16.3930E-03    -8.22556E-03     452.966E-06
            2230     16.8482E-03     11.9827E-03    -3.19901E+06     139.481E+06     42.3485E+06     906.400E+03    -32.1342E-03     47.0504E-03    -14.9161E-03     125.969E-03    -33.6744E-03     48.9517E-03    -14.9020E-03     126.501E-03
            2231     15.9726E-03     11.8830E-03    -4.61598E+06     85.8740E+06    -9.08514E+06     1.37356E+06    -27.8608E-03     41.8851E-03    -14.0242E-03     85.2036E-03    -28.4236E-03     42.7628E-03    -14.1875E-03     85.1382E-03
            2232     15.0936E-03     11.8203E-03    -4.59910E+06     40.8407E+06    -9.18500E+06     1.04207E+06    -24.6697E-03     38.1139E-03    -13.4442E-03     54.0588E-03    -24.8282E-03     38.4278E-03    -13.5427E-03     54.0008E-03
            2233     14.2149E-03     11.7798E-03    -4.88713E+06      178.35E+03    -7.33164E+06     653.991E+03    -23.1107E-03     36.0107E-03    -12.9000E-03     38.0309E-03    -23.1565E-03     36.0611E-03    -12.9298E-03     37.9919E-03
            2234     13.3352E-03     11.7446E-03    -4.68872E+06    -30.7375E+06    -9.79741E+06     565.015E+03    -21.8760E-03     34.1942E-03    -12.3182E-03     32.4440E-03    -21.8587E-03     34.0797E-03    -12.3158E-03     32.4177E-03
            2235     12.4526E-03     11.7132E-03    -4.60776E+06    -35.6893E+06    -31.5856E+03     432.265E+03    -20.3924E-03     32.1565E-03    -11.7640E-03     25.6063E-03    -20.3723E-03     31.9935E-03    -11.7058E-03     25.5911E-03
            2236     11.5713E-03     11.6884E-03    -5.49877E+06    -36.7573E+06     3.74538E+06     282.342E+03    -18.8566E-03     30.0473E-03    -11.1907E-03     19.6142E-03    -18.8404E-03     29.8703E-03    -11.1107E-03     19.6049E-03
            2237     10.6863E-03     11.6682E-03    -5.99386E+06    -44.7915E+06     3.78467E+06    -39.6052E+03    -17.1048E-03     27.7462E-03    -10.6414E-03     14.7931E-03    -17.0774E-03     27.5276E-03    -10.5488E-03     14.7845E-03
            2238     9.80174E-03     11.6515E-03    -7.12646E+06    -48.8092E+06     7.02940E+06     6.61297E+03    -15.4562E-03     25.6083E-03    -10.1521E-03     10.8034E-03    -15.4324E-03     25.3656E-03    -10.0359E-03     10.7983E-03
            2239     8.91399E-03     11.6395E-03    -8.32689E+06    -48.8899E+06     6.20131E+06     431.611E+03    -13.9854E-03     23.6726E-03    -9.68722E-03     7.82708E-03    -13.9657E-03     23.4319E-03    -9.57325E-03     7.82915E-03
            2240     8.02667E-03     11.6282E-03    -9.37236E+06    -46.9626E+06     2.44440E+06     395.906E+03    -12.5815E-03     21.8413E-03    -9.25979E-03     5.60081E-03    -12.5641E-03     21.6169E-03    -9.16588E-03     5.60360E-03
            2241     7.13660E-03     11.6212E-03    -10.2725E+06    -44.5820E+06    -473.380E+03     12.3082E+03    -11.4480E-03     20.3388E-03    -8.89073E-03     4.08442E-03    -11.4342E-03     20.1316E-03    -8.81356E-03     4.08301E-03
            2242     6.24710E-03     11.6133E-03    -10.9858E+06    -42.3942E+06    -3.14844E+06    -320.443E+03    -10.4772E-03     19.0487E-03    -8.57151E-03     2.90510E-03    -10.4662E-03     18.8574E-03    -8.50985E-03     2.89987E-03
            2243     5.35560E-03     11.6090E-03    -11.5020E+06    -40.8998E+06    -5.94694E+06    -473.326E+03    -9.63211E-03     17.9342E-03    -8.30211E-03     2.09321E-03    -9.62175E-03     17.7551E-03    -8.25587E-03     2.08634E-03
            2244     4.46407E-03     11.6037E-03    -11.8555E+06    -39.8079E+06    -8.08910E+06    -567.728E+03    -8.99413E-03     17.0765E-03    -8.08236E-03     1.46485E-03    -8.98400E-03     16.9064E-03    -8.04789E-03     1.45699E-03
            2245     3.57187E-03     11.6011E-03    -12.2919E+06    -39.0291E+06    -9.96800E+06    -596.462E+03    -8.47296E-03     16.3784E-03    -7.90548E-03     1.00929E-03    -8.46340E-03     16.2156E-03    -7.88091E-03     1.00122E-03
            2246     2.67916E-03     11.5977E-03    -12.5045E+06    -38.4931E+06    -11.2931E+06    -458.441E+03    -8.08281E-03     15.8547E-03    -7.77193E-03     673.229E-06    -8.07316E-03     15.6968E-03    -7.75445E-03     667.059E-06
            2247     1.78634E-03     11.5965E-03    -12.6726E+06    -38.1624E+06    -12.1745E+06    -293.763E+03    -7.81146E-03     15.4916E-03    -7.68010E-03     417.847E-06    -7.80184E-03     15.3368E-03    -7.66726E-03     413.898E-06
            2248     893.119E-06     11.5946E-03    -12.8352E+06    -37.7286E+06    -12.5192E+06    -73.8693E+03    -7.69261E-03     15.2861E-03    -7.59344E-03     242.094E-06    -7.68389E-03     15.1342E-03    -7.58272E-03     241.055E-06
            2249     16.8476E-03     10.9890E-03    -4.04380E+06     138.121E+06     43.2654E+06     1.19712E+06    -33.1669E-03     48.0853E-03    -14.9184E-03     123.982E-03    -34.6658E-03     49.9348E-03    -14.8965E-03     124.445E-03
            2250     15.9732E-03     10.8970E-03    -4.76824E+06     86.5969E+06    -7.42613E+06     1.21666E+06    -28.8991E-03     42.8619E-03    -13.9627E-03     79.9921E-03    -29.4251E-03     43.7002E-03    -14.1185E-03     79.8987E-03
            2251     15.0962E-03     10.8351E-03    -4.66280E+06     41.4411E+06    -9.03227E+06     1.24701E+06    -25.3713E-03     38.6840E-03    -13.3127E-03     50.6225E-03    -25.5213E-03     38.9909E-03    -13.4112E-03     50.5656E-03
            2252     14.2176E-03     10.7969E-03    -5.14937E+06      244.48E+03    -6.69599E+06     1.12740E+06    -24.2321E-03     36.9342E-03    -12.7021E-03     34.9888E-03    -24.2776E-03     36.9818E-03    -12.7284E-03     34.9541E-03
            2253     13.3378E-03     10.7633E-03    -5.52835E+06    -29.6668E+06    -8.75664E+06     767.519E+03    -22.8193E-03     34.8553E-03    -12.0359E-03     28.3969E-03    -22.8069E-03     34.7434E-03    -12.0287E-03     28.3729E-03
            2254     12.4587E-03     10.7341E-03    -5.87207E+06    -35.7543E+06     142.408E+03     553.897E+03    -20.8198E-03     32.2268E-03    -11.4070E-03     22.3937E-03    -20.8049E-03     32.0638E-03    -11.3460E-03     22.3808E-03
            2255     11.5749E-03     10.7120E-03    -6.39163E+06    -36.5478E+06     5.13962E+06     209.700E+03    -18.9527E-03     29.7411E-03    -10.7884E-03     16.4204E-03    -18.9426E-03     29.5638E-03    -10.7005E-03     16.4109E-03
            2256     10.6924E-03     10.6931E-03    -7.73685E+06    -44.4565E+06     4.84774E+06    -30.8547E+03    -16.9868E-03     27.1896E-03    -10.2028E-03     11.8797E-03    -16.9698E-03     26.9733E-03    -10.1029E-03     11.8717E-03
            2257     9.80541E-03     10.6805E-03    -8.90826E+06    -49.0896E+06     6.49205E+06    -1.18960E+03    -15.1900E-03     24.8714E-03    -9.68137E-03     8.53355E-03    -15.1737E-03     24.6305E-03    -9.56481E-03     8.52862E-03
            2258     8.91946E-03     10.6678E-03    -10.1657E+06    -49.1268E+06     4.67909E+06     8.29140E+03    -13.5606E-03     22.7584E-03    -9.19779E-03     5.87507E-03    -13.5475E-03     22.5213E-03    -9.08842E-03     5.87189E-03
            2259     8.03000E-03     10.6614E-03    -11.1051E+06    -46.4158E+06     1.49698E+06    -125.785E+03    -12.1820E-03     20.9445E-03    -8.76245E-03     4.21745E-03    -12.1727E-03     20.7266E-03    -8.67155E-03     4.21360E-03
            2260     7.14108E-03     10.6526E-03    -12.0108E+06    -44.1120E+06    -2.00288E+06    -472.941E+03    -11.0189E-03     19.3984E-03    -8.37951E-03     2.98907E-03    -11.0122E-03     19.1984E-03    -8.30815E-03     2.98143E-03
            2261     6.24997E-03     10.6489E-03    -12.7910E+06    -42.3652E+06    -5.36142E+06    -787.804E+03    -9.99948E-03     18.0489E-03    -8.04942E-03     2.13579E-03    -9.99433E-03     17.8635E-03    -7.99625E-03     2.12454E-03
            2262     5.35874E-03     10.6432E-03    -13.5527E+06    -40.8932E+06    -7.87116E+06    -846.532E+03    -9.20748E-03     16.9774E-03    -7.76996E-03     1.54469E-03    -9.20460E-03     16.8041E-03    -7.73037E-03     1.53298E-03
            2263     4.46668E-03     10.6407E-03    -14.2997E+06    -39.9599E+06    -10.4435E+06    -827.514E+03    -8.52314E-03     16.0551E-03    -7.53198E-03     1.05506E-03    -8.52160E-03     15.8912E-03    -7.50552E-03     1.04381E-03
            2264     3.57387E-03     10.6372E-03    -14.8948E+06    -39.3535E+06    -12.6570E+06    -717.127E+03    -7.97769E-03     15.3147E-03    -7.33700E-03     740.847E-06    -7.97677E-03     15.1579E-03    -7.32162E-03     731.181E-06
            2265     2.68097E-03     10.6357E-03    -15.3960E+06    -38.8612E+06    -14.2413E+06    -544.042E+03    -7.55132E-03     14.7357E-03    -7.18443E-03     467.414E-06    -7.55131E-03     14.5844E-03    -7.17697E-03     460.108E-06
            2266     1.78733E-03     10.6336E-03    -15.6416E+06    -38.4667E+06    -15.1517E+06    -367.530E+03    -7.24281E-03     14.3168E-03    -7.07395E-03     278.401E-06    -7.24328E-03     14.1691E-03    -7.07125E-03     273.474E-06
            2267     893.866E-06     10.6332E-03    -16.0072E+06    -38.0919E+06    -15.6359E+06    -155.502E+03    -7.10670E-03     14.0542E-03    -6.94751E-03     164.542E-06    -7.10877E-03     13.9097E-03    -6.94724E-03     162.439E-06
            2268     16.8453E-03     9.99185E-03    -3.17086E+06     137.860E+06     45.7787E+06     929.646E+03    -33.9129E-03     48.8068E-03    -14.8940E-03     119.024E-03    -35.3360E-03     50.5756E-03    -14.8604E-03     119.405E-03
            2269     15.9759E-03     9.90769E-03    -5.17820E+06     86.4114E+06    -6.14748E+06     1.92220E+06    -29.8638E-03     43.7375E-03    -13.8737E-03     74.0421E-03    -30.3466E-03     44.5268E-03    -14.0222E-03     73.9434E-03
            2270     15.0990E-03     9.85142E-03    -6.47685E+06     41.9067E+06    -9.33032E+06     2.29820E+06    -27.0803E-03     40.2046E-03    -13.1243E-03     47.8060E-03    -27.2329E-03     40.5102E-03    -13.2223E-03     47.7566E-03
            2271     14.2213E-03     9.81176E-03    -6.51257E+06     730.659E+03    -6.39232E+06     1.28831E+06    -25.1763E-03     37.5949E-03    -12.4186E-03     31.5095E-03    -25.2263E-03     37.6431E-03    -12.4422E-03     31.4765E-03
            2272     13.3449E-03     9.78124E-03    -6.13390E+06    -29.3212E+06    -7.97977E+06     985.333E+03    -23.2510E-03     34.9371E-03    -11.6861E-03     24.9116E-03    -23.2408E-03     34.8243E-03    -11.6746E-03     24.8917E-03
            2273     12.4623E-03     9.75659E-03    -6.38067E+06    -35.7906E+06     1.27091E+06     717.876E+03    -21.0747E-03     32.0816E-03    -11.0070E-03     19.3675E-03    -21.0629E-03     31.9167E-03    -10.9395E-03     19.3574E-03
            2274     11.5818E-03     9.73394E-03    -7.45876E+06    -36.0089E+06     7.02635E+06     336.998E+03    -18.6789E-03     29.0389E-03    -10.3600E-03     13.5109E-03    -18.6771E-03     28.8625E-03    -10.2618E-03     13.5039E-03
            2275     10.6960E-03     9.72153E-03    -8.71436E+06    -43.4401E+06     7.21559E+06    -22.1569E+03    -16.5931E-03     26.3583E-03    -9.76524E-03     9.57702E-03    -16.5856E-03     26.1448E-03    -9.65354E-03     9.56967E-03
            2276     9.81143E-03     9.70683E-03    -10.2883E+06    -49.4862E+06     6.30001E+06    -182.045E+03    -14.6104E-03     23.8464E-03    -9.23602E-03     6.73957E-03    -14.6000E-03     23.6057E-03    -9.11784E-03     6.73260E-03
            2277     8.92245E-03     9.70096E-03    -11.3726E+06    -48.8358E+06     3.68783E+06    -309.564E+03    -12.9585E-03     21.7193E-03    -8.76087E-03     4.80421E-03    -12.9503E-03     21.4868E-03    -8.65513E-03     4.79709E-03
            2278     8.03421E-03     9.69150E-03    -12.5483E+06    -46.1377E+06     30.2025E+03    -693.016E+03    -11.6580E-03     19.9952E-03    -8.33726E-03     3.50532E-03    -11.6541E-03     19.7830E-03    -8.25201E-03     3.49419E-03
            2279     7.14375E-03     9.68844E-03    -13.4156E+06    -43.9887E+06    -3.96663E+06    -923.527E+03    -10.4736E-03     18.4398E-03    -7.96622E-03     2.65069E-03    -10.4713E-03     18.2453E-03    -7.90282E-03     2.63724E-03
            2280     6.25273E-03     9.68258E-03    -14.2588E+06    -42.3066E+06    -6.87974E+06    -1.00514E+06    -9.56476E-03     17.2146E-03    -7.64988E-03     2.08038E-03    -9.56485E-03     17.0339E-03    -7.60226E-03     2.06628E-03
            2281     5.36106E-03     9.68048E-03    -15.1643E+06    -41.1273E+06    -9.74367E+06    -997.556E+03    -8.78040E-03     16.1554E-03    -7.37500E-03     1.61484E-03    -8.78253E-03     15.9860E-03    -7.34209E-03     1.60114E-03
            2282     4.46833E-03     9.67693E-03    -16.0472E+06    -40.3005E+06    -12.3522E+06    -812.723E+03    -8.13014E-03     15.2708E-03    -7.14066E-03     1.28619E-03    -8.13408E-03     15.1105E-03    -7.12072E-03     1.27509E-03
            2283     3.57565E-03     9.67562E-03    -16.8698E+06    -39.7318E+06    -14.5940E+06    -595.355E+03    -7.60052E-03     14.5451E-03    -6.94463E-03     986.631E-06    -7.60612E-03     14.3921E-03    -6.93553E-03     978.496E-06
            2284     2.68188E-03     9.67345E-03    -17.5167E+06    -39.1900E+06    -16.2758E+06    -461.027E+03    -7.17444E-03     13.9609E-03    -6.78650E-03     723.481E-06    -7.18161E-03     13.8140E-03    -6.78566E-03     717.214E-06
            2285     1.78842E-03     9.67289E-03    -17.9862E+06    -38.7975E+06    -17.3565E+06    -310.406E+03    -6.86359E-03     13.5279E-03    -6.66434E-03     485.571E-06    -6.87210E-03     13.3852E-03    -6.66878E-03     481.362E-06
            2286     894.090E-06     9.67174E-03    -18.2937E+06    -38.3903E+06    -17.9473E+06    -200.796E+03    -6.66742E-03     13.2186E-03    -6.55116E-03     263.662E-06    -6.67712E-03     13.0792E-03    -6.55871E-03     260.961E-06
            2287     16.8536E-03     9.00005E-03    -3.31382E+06     136.528E+06     47.2628E+06     1.94875E+06    -35.0176E-03     49.8375E-03    -14.8199E-03     115.224E-03    -36.3549E-03     51.5111E-03    -14.7768E-03     115.529E-03
            2288     15.9747E-03     8.91879E-03    -5.99317E+06     87.5841E+06    -3.50112E+06     3.23859E+06    -31.0949E-03     44.8209E-03    -13.7260E-03     69.4372E-03    -31.5489E-03     45.5748E-03    -13.8618E-03     69.3441E-03
            2289     15.1023E-03     8.86217E-03    -8.37347E+06     42.3671E+06    -8.56742E+06     2.07421E+06    -28.4566E-03     41.3334E-03    -12.8768E-03     42.7453E-03    -28.6123E-03     41.6350E-03    -12.9690E-03     42.6882E-03
            2290     14.2285E-03     8.82744E-03    -7.31605E+06     1.05540E+06    -5.22016E+06     1.42396E+06    -25.5414E-03     37.6392E-03    -12.0978E-03     28.4590E-03    -25.5941E-03     37.6850E-03    -12.1148E-03     28.4296E-03
            2291     13.3467E-03     8.80145E-03    -7.57041E+06    -28.3679E+06    -6.40806E+06     1.21324E+06    -23.5147E-03     34.8367E-03    -11.3220E-03     22.0970E-03    -23.5137E-03     34.7269E-03    -11.3019E-03     22.0813E-03
            2292     12.4698E-03     8.77482E-03    -8.15432E+06    -36.0578E+06     2.48605E+06     672.215E+03    -20.8459E-03     31.4595E-03    -10.6136E-03     16.0319E-03    -20.8433E-03     31.2929E-03    -10.5371E-03     16.0225E-03
            2293     11.5851E-03     8.76213E-03    -8.89925E+06    -35.1500E+06     9.03515E+06     379.259E+03    -18.0536E-03     28.0222E-03    -9.96868E-03     11.4464E-03    -18.0626E-03     27.8489E-03    -9.85964E-03     11.4410E-03
            2294     10.7018E-03     8.74509E-03    -10.0174E+06    -42.8334E+06     8.79135E+06    -215.632E+03    -15.7849E-03     25.1819E-03    -9.39704E-03     8.16645E-03    -15.7869E-03     24.9710E-03    -9.27645E-03     8.15716E-03
            2295     9.81372E-03     8.74012E-03    -11.2258E+06    -49.2429E+06     6.92174E+06    -568.660E+03    -13.8464E-03     22.7458E-03    -8.89941E-03     5.88248E-03    -13.8419E-03     22.5067E-03    -8.77712E-03     5.87083E-03
            2296     8.92608E-03     8.72969E-03    -12.5900E+06    -48.5219E+06     2.14110E+06    -715.258E+03    -12.2499E-03     20.7028E-03    -8.45293E-03     4.57259E-03    -12.2460E-03     20.4759E-03    -8.35362E-03     4.56037E-03
            2297     8.03622E-03     8.72729E-03    -13.4909E+06    -46.1329E+06    -2.28173E+06    -1.09537E+06    -10.9304E-03     19.0025E-03    -8.07210E-03     3.67077E-03    -10.9280E-03     18.7950E-03    -7.99706E-03     3.65453E-03
            2298     7.14529E-03     8.72137E-03    -14.3761E+06    -43.9667E+06    -5.20500E+06    -1.25674E+06    -9.95949E-03     17.7112E-03    -7.75174E-03     3.19174E-03    -9.96028E-03     17.5200E-03    -7.69317E-03     3.17397E-03
            2299     6.25423E-03     8.71977E-03    -15.3080E+06    -42.5549E+06    -8.33021E+06    -1.17991E+06    -9.12741E-03     16.6002E-03    -7.47281E-03     2.78378E-03    -9.13031E-03     16.4219E-03    -7.43056E-03     2.76740E-03
            2300     5.36156E-03     8.71634E-03    -16.1628E+06    -41.4749E+06    -11.2278E+06    -962.087E+03    -8.42352E-03     15.6588E-03    -7.23527E-03     2.45023E-03    -8.42801E-03     15.4912E-03    -7.20783E-03     2.43695E-03
            2301     4.46928E-03     8.71531E-03    -17.0307E+06    -40.7163E+06    -13.6356E+06    -663.900E+03    -7.87264E-03     14.9088E-03    -7.03613E-03     2.15746E-03    -7.87904E-03     14.7497E-03    -7.02057E-03     2.14826E-03
            2302     3.57559E-03     8.71330E-03    -17.7110E+06    -40.0179E+06    -15.4659E+06    -503.291E+03    -7.41927E-03     14.2902E-03    -6.87094E-03     1.79362E-03    -7.42741E-03     14.1383E-03    -6.86457E-03     1.78666E-03
            2303     2.68245E-03     8.71279E-03    -18.2136E+06    -39.4147E+06    -16.8169E+06    -359.795E+03    -7.05458E-03     13.7944E-03    -6.73987E-03     1.43655E-03    -7.06413E-03     13.6482E-03    -6.74039E-03     1.43159E-03
            2304     1.78811E-03     8.71172E-03    -18.6946E+06    -39.1272E+06    -18.0078E+06    -295.766E+03    -6.78989E-03     13.4322E-03    -6.64232E-03     1.01393E-03    -6.80052E-03     13.2898E-03    -6.64852E-03     1.00991E-03
            2305     894.441E-06     8.71161E-03    -18.9682E+06    -38.7392E+06    -18.6882E+06    -143.540E+03    -6.61725E-03     13.1999E-03    -6.58264E-03     577.011E-06    -6.62875E-03     13.0608E-03    -6.59240E-03     575.051E-06
            2306     16.8467E-03     8.00693E-03    -5.55033E+06     134.678E+06     50.5403E+06     2.54844E+06    -37.8165E-03     52.5777E-03    -14.7612E-03     110.210E-03    -39.0802E-03     54.1535E-03    -14.6957E-03     110.410E-03
            2307     15.9825E-03     7.92496E-03    -5.82138E+06     87.3205E+06     2.25759E+06     2.67762E+06    -33.1417E-03     46.6691E-03    -13.5274E-03     64.1925E-03    -33.5703E-03     47.3809E-03    -13.6343E-03     64.0617E-03
            2308     15.1100E-03     7.87424E-03    -4.71969E+06     44.0157E+06    -3.48951E+06     2.89537E+06    -28.4990E-03     41.0871E-03    -12.5881E-03     37.9280E-03    -28.6352E-03     41.3733E-03    -12.6625E-03     37.8854E-03
            2309     14.2290E-03     7.84604E-03    -7.68711E+06     2.42152E+06    -2.09241E+06     2.63639E+06    -25.7404E-03     37.5149E-03    -11.7746E-03     25.2810E-03    -25.7983E-03     37.5604E-03    -11.7774E-03     25.2697E-03
            2310     13.3559E-03     7.81535E-03    -9.13840E+06    -27.4145E+06    -3.83892E+06     1.57673E+06    -23.0943E-03     34.0752E-03    -10.9809E-03     18.7721E-03    -23.1045E-03     33.9670E-03    -10.9471E-03     18.7634E-03
            2311     12.4720E-03     7.80198E-03    -9.95762E+06    -35.2170E+06     4.74608E+06     457.183E+03    -19.9023E-03     30.1951E-03    -10.2928E-03     13.7748E-03    -19.9124E-03     30.0312E-03    -10.2036E-03     13.7647E-03
            2312     11.5903E-03     7.78316E-03    -10.7671E+06    -34.6470E+06     10.7670E+06    -601.119E+03    -17.0702E-03     26.7628E-03    -9.69251E-03     10.0584E-03    -17.0916E-03     26.5919E-03    -9.57283E-03     10.0414E-03
            2313     10.7031E-03     7.77814E-03    -11.4193E+06    -42.9281E+06     9.76320E+06    -917.647E+03    -14.6677E-03     23.8478E-03    -9.18007E-03     7.59892E-03    -14.6780E-03     23.6369E-03    -9.05245E-03     7.58125E-03
            2314     9.81609E-03     7.76693E-03    -12.5922E+06    -49.0069E+06     5.94499E+06    -968.456E+03    -12.8825E-03     21.6281E-03    -8.74562E-03     6.13304E-03    -12.8838E-03     21.3936E-03    -8.62657E-03     6.11652E-03
            2315     8.92698E-03     7.76561E-03    -13.5922E+06    -48.2710E+06     375.041E+03    -1.37590E+06    -11.3836E-03     19.7545E-03    -8.37083E-03     5.34026E-03    -11.3827E-03     19.5329E-03    -8.27925E-03     5.31970E-03
            2316     8.03593E-03     7.75920E-03    -14.2518E+06    -45.9221E+06    -3.55663E+06    -1.52719E+06    -10.2697E-03     18.3380E-03    -8.06835E-03     4.94756E-03    -10.2696E-03     18.1347E-03    -7.99889E-03     4.92582E-03
            2317     7.14549E-03     7.75841E-03    -15.0163E+06    -44.3008E+06    -6.67499E+06    -1.54296E+06    -9.45853E-03     17.2788E-03    -7.82028E-03     4.55525E-03    -9.45994E-03     17.0890E-03    -7.76765E-03     4.53383E-03
            2318     6.25274E-03     7.75479E-03    -15.7027E+06    -43.0076E+06    -9.48901E+06    -1.36933E+06    -8.77798E-03     16.3920E-03    -7.61400E-03     4.21403E-03    -8.78055E-03     16.2137E-03    -7.57631E-03     4.19523E-03
            2319     5.36107E-03     7.75440E-03    -16.3342E+06    -41.9656E+06    -11.7346E+06    -1.00154E+06    -8.25741E-03     15.7038E-03    -7.44635E-03     3.87884E-03    -8.26133E-03     15.5348E-03    -7.42049E-03     3.86508E-03
            2320     4.46744E-03     7.75234E-03    -16.7951E+06     -41.111E+06    -13.5797E+06    -746.524E+03    -7.84343E-03     15.1548E-03    -7.31133E-03     3.47403E-03    -7.84818E-03     14.9933E-03    -7.29526E-03     3.46378E-03
            2321     3.57493E-03     7.75203E-03    -17.1234E+06    -40.2516E+06    -15.0018E+06    -615.226E+03    -7.52469E-03     14.7314E-03    -7.20672E-03     2.94190E-03    -7.53024E-03     14.5768E-03    -7.19854E-03     2.93352E-03
            2322     2.68083E-03     7.75109E-03    -17.3618E+06    -39.7645E+06    -16.0192E+06    -526.033E+03    -7.29898E-03     14.4292E-03    -7.13019E-03     2.35792E-03    -7.30494E-03     14.2788E-03    -7.12745E-03     2.35084E-03
            2323     1.78779E-03     7.75083E-03    -17.4269E+06    -39.4415E+06    -16.8143E+06    -340.819E+03    -7.13673E-03     14.2181E-03    -7.08135E-03     1.64523E-03    -7.14231E-03     14.0705E-03    -7.08296E-03     1.64065E-03
            2324     893.439E-06     7.75066E-03    -17.4753E+06    -39.1169E+06    -17.3359E+06    -231.072E+03    -7.06870E-03     14.1260E-03    -7.05734E-03     923.496E-06    -7.07417E-03     13.9810E-03    -7.06196E-03     920.415E-06
            2325     16.8556E-03     7.00589E-03    -2.94093E+06     133.391E+06     52.8158E+06     2.58849E+06    -39.8620E-03     54.5043E-03    -14.6423E-03     103.521E-03    -40.9999E-03     55.9528E-03    -14.5674E-03     103.597E-03
            2326     15.9861E-03     6.92980E-03    -5.05499E+06     85.9670E+06     4.48821E+06     3.90607E+06    -33.9480E-03     47.2645E-03    -13.3166E-03     59.2984E-03    -34.3409E-03     47.9321E-03    -13.4114E-03     59.1751E-03
            2327     15.1100E-03     6.89166E-03    -7.77737E+06     45.1864E+06    -496.261E+03     4.48792E+06    -29.2130E-03     41.5334E-03    -12.3204E-03     33.6509E-03    -29.3618E-03     41.8169E-03    -12.3771E-03     33.6305E-03
            2328     14.2397E-03     6.85577E-03    -9.36993E+06     4.16171E+06     557.237E+03     4.28476E+06    -24.9667E-03     36.4508E-03    -11.4841E-03     22.6663E-03    -25.0363E-03     36.5006E-03    -11.4738E-03     22.6809E-03
            2329     13.3559E-03     6.84135E-03    -11.4120E+06    -25.8731E+06    -993.597E+03     2.38671E+06    -21.7340E-03     32.4755E-03    -10.7414E-03     17.1815E-03    -21.7606E-03     32.3727E-03    -10.6923E-03     17.1872E-03
            2330     12.4763E-03     6.82013E-03    -12.0034E+06    -32.2379E+06     7.72249E+06    -416.386E+03    -18.6538E-03     28.7780E-03    -10.1242E-03     12.4199E-03    -18.6822E-03     28.6271E-03    -10.0214E-03     12.4005E-03
            2331     11.5905E-03     6.81514E-03    -12.3283E+06    -34.4687E+06     12.9942E+06    -2.17644E+06    -15.5725E-03     25.1862E-03    -9.61377E-03     9.58991E-03    -15.6049E-03     25.0150E-03    -9.48094E-03     9.55395E-03
            2332     10.7040E-03     6.80373E-03    -13.2872E+06    -43.5754E+06     9.78330E+06    -1.97154E+06    -13.3270E-03     22.5283E-03    -9.20122E-03     8.49921E-03    -13.3457E-03     22.3168E-03    -9.06985E-03     8.46859E-03
            2333     9.81506E-03     6.80252E-03    -13.7931E+06    -49.0498E+06     4.68500E+06    -1.78476E+06    -11.7288E-03     20.6014E-03    -8.87257E-03     7.72790E-03    -11.7343E-03     20.3702E-03    -8.75803E-03     7.70126E-03
            2334     8.92407E-03     6.79622E-03    -14.2134E+06    -47.6935E+06    -135.150E+03    -2.19726E+06    -10.6412E-03     19.2476E-03    -8.60649E-03     7.18138E-03    -10.6434E-03     19.0306E-03    -8.51740E-03     7.15042E-03
            2335     8.03435E-03     6.79612E-03    -14.8680E+06    -46.1647E+06    -4.46192E+06    -2.31260E+06    -9.79767E-03     18.1939E-03    -8.39618E-03     6.89832E-03    -9.79900E-03     17.9915E-03    -8.32999E-03     6.86659E-03
            2336     7.14136E-03     6.79223E-03    -15.0440E+06    -44.8222E+06    -7.54089E+06    -2.09237E+06    -9.14187E-03     17.3800E-03    -8.23813E-03     6.51525E-03    -9.14144E-03     17.1889E-03    -8.18903E-03     6.48684E-03
            2337     6.25049E-03     6.79233E-03    -15.2092E+06    -43.5441E+06    -9.57749E+06    -1.80776E+06    -8.71265E-03     16.8346E-03    -8.12191E-03     6.01098E-03    -8.71185E-03     16.6530E-03    -8.08461E-03     5.98660E-03
            2338     5.35687E-03     6.79021E-03    -15.3402E+06    -42.5652E+06    -11.0996E+06    -1.53159E+06    -8.40055E-03     16.4358E-03    -8.03525E-03     5.50044E-03    -8.39957E-03     16.2614E-03    -8.00679E-03     5.47990E-03
            2339     4.46525E-03     6.79009E-03    -15.1190E+06    -41.4652E+06    -12.1137E+06    -1.31770E+06    -8.17198E-03     16.1453E-03    -7.97333E-03     4.79311E-03    -8.16998E-03     15.9775E-03    -7.95186E-03     4.77554E-03
            2340     3.57141E-03     6.78913E-03    -14.9063E+06    -40.6426E+06    -12.9726E+06    -1.13268E+06    -8.01973E-03     15.9526E-03    -7.93287E-03     4.02417E-03    -8.01659E-03     15.7898E-03    -7.91719E-03     4.00916E-03
            2341     2.67932E-03     6.78879E-03    -14.7258E+06    -40.2901E+06    -13.6848E+06    -886.847E+03    -7.94141E-03     15.8506E-03    -7.90921E-03     3.10811E-03    -7.93682E-03     15.6904E-03    -7.89787E-03     3.09639E-03
            2342     1.78556E-03     6.78863E-03    -14.6738E+06    -39.9693E+06    -14.1658E+06    -608.477E+03    -7.90997E-03     15.8048E-03    -7.89483E-03     2.14601E-03    -7.90488E-03     15.6467E-03    -7.88642E-03     2.13799E-03
            2343     893.357E-06     6.78807E-03    -14.5604E+06    -39.5972E+06    -14.3940E+06    -310.049E+03    -7.87809E-03     15.7752E-03    -7.89715E-03     1.17934E-03    -7.87257E-03     15.6192E-03    -7.89059E-03     1.17525E-03
            2344     16.8563E-03     6.00812E-03    -3.47329E+06     129.551E+06     53.5000E+06     2.70761E+06    -41.6205E-03     56.1520E-03    -14.5316E-03     97.9985E-03    -42.6486E-03     57.4735E-03    -14.4469E-03     97.9798E-03
            2345     15.9848E-03     5.93889E-03    -5.93149E+06     85.1957E+06     8.11568E+06     5.87325E+06    -34.5530E-03     47.6910E-03    -13.1380E-03     52.2914E-03    -34.9096E-03     48.3061E-03    -13.2124E-03     52.1891E-03
            2346     15.1202E-03     5.89630E-03    -9.78201E+06     44.6714E+06     2.42068E+06     7.17292E+06    -28.2076E-03     40.3419E-03    -12.1343E-03     28.9491E-03    -28.3600E-03     40.6115E-03    -12.1728E-03     28.9723E-03
            2347     14.2371E-03     5.88162E-03    -13.7610E+06     7.01747E+06     4.38974E+06     6.02673E+06    -23.7330E-03     35.0871E-03    -11.3541E-03     21.4873E-03    -23.8320E-03     35.1496E-03    -11.3224E-03     21.5301E-03
            2348     13.3595E-03     5.85596E-03    -14.4115E+06    -19.4297E+06     4.45895E+06     1.45652E+06    -20.1067E-03     30.8015E-03    -10.6948E-03     15.9323E-03    -20.1641E-03     30.7261E-03    -10.6234E-03     15.9302E-03
            2349     12.4753E-03     5.85048E-03    -14.0250E+06    -30.3629E+06     10.9617E+06    -2.32485E+06    -16.4714E-03     26.6719E-03    -10.2005E-03     12.3445E-03    -16.5167E-03     26.5281E-03    -10.0813E-03     12.3034E-03
            2350     11.5890E-03     5.83967E-03    -14.7656E+06    -34.5434E+06     15.3272E+06    -3.41716E+06    -13.7927E-03     23.6358E-03    -9.84312E-03     11.3338E-03    -13.8406E-03     23.4643E-03    -9.69498E-03     11.2832E-03
            2351     10.7001E-03     5.83858E-03    -15.0417E+06    -44.1330E+06     10.6244E+06    -3.62536E+06    -12.0412E-03     21.6071E-03    -9.56590E-03     10.8698E-03    -12.0691E-03     21.3942E-03    -9.42698E-03     10.8185E-03
            2352     9.80940E-03     5.83230E-03    -14.8418E+06    -48.7713E+06     4.08295E+06    -3.53681E+06    -10.9608E-03     20.3122E-03    -9.35146E-03     10.2271E-03    -10.9710E-03     20.0849E-03    -9.23880E-03     10.1783E-03
            2353     8.92013E-03     5.83217E-03    -14.9712E+06    -48.0707E+06    -1.22454E+06    -3.53489E+06    -10.2042E-03     19.3943E-03    -9.19017E-03     9.55789E-03    -10.2081E-03     19.1781E-03    -9.10488E-03     9.50999E-03
            2354     8.02720E-03     5.82877E-03    -14.4805E+06    -46.6229E+06    -4.50288E+06    -3.53750E+06    -9.66808E-03     18.7471E-03    -9.07898E-03     9.12188E-03    -9.66675E-03     18.5419E-03    -9.01289E-03     9.07455E-03
            2355     7.13723E-03     5.82878E-03    -14.1073E+06    -45.4368E+06    -6.88536E+06    -3.33940E+06    -9.30685E-03     18.3128E-03    -9.00599E-03     8.44631E-03    -9.30180E-03     18.1163E-03    -8.95408E-03     8.40199E-03
            2356     6.24363E-03     5.82672E-03    -13.4590E+06    -44.3625E+06    -8.55055E+06    -2.95722E+06    -9.08040E-03     18.0422E-03    -8.96178E-03     7.64200E-03    -9.07116E-03     17.8524E-03    -8.92069E-03     7.60292E-03
            2357     5.35311E-03     5.82654E-03    -12.6325E+06    -43.1463E+06    -9.15089E+06    -2.60762E+06    -8.97041E-03     17.9101E-03    -8.93969E-03     6.74745E-03    -8.95788E-03     17.7260E-03    -8.90456E-03     6.71312E-03
            2358     4.45964E-03     5.82553E-03    -12.0706E+06    -42.1611E+06    -9.73422E+06    -2.32822E+06    -8.90996E-03     17.8396E-03    -8.92962E-03     5.75183E-03    -8.89518E-03     17.6604E-03    -8.89965E-03     5.72129E-03
            2359     3.56877E-03     5.82510E-03    -11.4604E+06    -41.4590E+06    -10.0531E+06    -1.89833E+06    -8.90273E-03     17.8305E-03    -8.92774E-03     4.68273E-03    -8.88542E-03     17.6544E-03    -8.90127E-03     4.65787E-03
            2360     2.67561E-03     5.82480E-03    -11.2428E+06    -41.1172E+06    -10.4184E+06    -1.35931E+06    -8.90729E-03     17.8365E-03    -8.92917E-03     3.54501E-03    -8.88885E-03     17.6622E-03    -8.90534E-03     3.52722E-03
            2361     1.78452E-03     5.82414E-03    -11.0450E+06    -40.7533E+06    -10.7411E+06    -868.138E+03    -8.91922E-03     17.8508E-03    -8.93159E-03     2.41350E-03    -8.89983E-03     17.6786E-03    -8.91019E-03     2.40214E-03
            2362     891.620E-06     5.82451E-03    -11.0179E+06    -40.4014E+06    -10.8971E+06    -441.402E+03    -8.92403E-03     17.8643E-03    -8.94023E-03     1.33649E-03    -8.90472E-03     17.6940E-03    -8.92016E-03     1.33071E-03
            2363     16.8542E-03     5.00441E-03    -5.29673E+06     126.683E+06     56.3198E+06     2.58491E+06    -43.7529E-03     58.2380E-03    -14.4851E-03     88.9893E-03    -44.6673E-03     59.4212E-03    -14.3795E-03     88.8601E-03
            2364     15.9983E-03     4.93961E-03    -9.83345E+06     78.7883E+06     11.5300E+06     8.20304E+06    -33.5169E-03     46.5759E-03    -13.0591E-03     45.8651E-03    -33.8390E-03     47.1104E-03    -13.1014E-03     45.8076E-03
            2365     15.1132E-03     4.91996E-03    -14.7019E+06     45.7653E+06     5.90118E+06     12.2887E+06    -26.3666E-03     38.4839E-03    -12.1173E-03     26.6763E-03    -26.5415E-03     38.7520E-03    -12.1328E-03     26.7802E-03
            2366     14.2398E-03     4.89142E-03    -17.3831E+06     16.6531E+06     9.92862E+06     5.72308E+06    -21.8182E-03     33.2612E-03    -11.4431E-03     19.7356E-03    -21.9544E-03     33.3666E-03    -11.3924E-03     19.7808E-03
            2367     13.3575E-03     4.88539E-03    -16.6117E+06    -14.5612E+06     8.39940E+06    -1.29675E+06    -17.2098E-03     28.1519E-03    -10.9422E-03     16.6869E-03    -17.2894E-03     28.0969E-03    -10.8550E-03     16.6548E-03
            2368     12.4698E-03     4.87418E-03    -16.7502E+06    -29.0059E+06     12.7398E+06    -4.05517E+06    -14.0442E-03     24.6897E-03    -10.6454E-03     15.3124E-03    -14.1074E-03     24.5536E-03    -10.5154E-03     15.2518E-03
            2369     11.5816E-03     4.87310E-03    -16.8298E+06    -34.2197E+06     16.9297E+06    -5.61070E+06    -12.4463E-03     22.9083E-03    -10.4620E-03     14.5027E-03    -12.5071E-03     22.7389E-03    -10.3034E-03     14.4250E-03
            2370     10.6914E-03     4.86749E-03    -16.6125E+06    -43.9964E+06     11.5679E+06    -6.07381E+06    -11.5264E-03     21.8321E-03    -10.3057E-03     13.7255E-03    -11.5636E-03     21.6206E-03    -10.1600E-03     13.6434E-03
            2371     9.80254E-03     4.86674E-03    -16.3229E+06    -49.6280E+06     2.40725E+06    -6.22361E+06    -10.7944E-03     20.9690E-03    -10.1746E-03     12.7703E-03    -10.8083E-03     20.7418E-03    -10.0669E-03     12.6873E-03
            2372     8.90992E-03     4.86382E-03    -14.5028E+06    -48.7861E+06    -1.78558E+06    -6.09852E+06    -10.3602E-03     20.4577E-03    -10.0974E-03     11.8034E-03    -10.3600E-03     20.2378E-03    -10.0146E-03     11.7227E-03
            2373     8.02082E-03     4.86350E-03    -12.8152E+06    -47.4703E+06    -4.07277E+06    -5.72321E+06    -10.1560E-03     20.2100E-03    -10.0540E-03     10.8055E-03    -10.1457E-03     19.9974E-03    -9.98695E-03     10.7302E-03
            2374     7.12774E-03     4.86157E-03    -11.3019E+06    -46.5280E+06    -5.98085E+06    -5.16974E+06    -10.0207E-03     20.0496E-03    -10.0289E-03     9.67775E-03    -10.0013E-03     19.8421E-03    -9.97491E-03     9.60997E-03
            2375     6.23853E-03     4.86126E-03    -10.0886E+06    -45.4248E+06    -6.87086E+06    -4.58917E+06    -9.96093E-03     19.9816E-03    -10.0207E-03     8.55191E-03    -9.93574E-03     19.7792E-03    -9.97456E-03     8.49189E-03
            2376     5.34553E-03     4.86004E-03    -9.02284E+06    -44.2903E+06    -7.13502E+06    -4.01444E+06    -9.93841E-03     19.9621E-03    -10.0237E-03     7.30824E-03    -9.90910E-03     19.7641E-03    -9.98210E-03     7.25583E-03
            2377     4.45600E-03     4.85953E-03    -8.20583E+06    -43.3500E+06    -7.12099E+06    -3.29438E+06    -9.96809E-03     20.0000E-03    -10.0319E-03     6.11012E-03    -9.93605E-03     19.8054E-03    -9.99273E-03     6.06715E-03
            2378     3.56347E-03     4.85898E-03    -7.98869E+06    -42.8479E+06    -7.25609E+06    -2.49536E+06    -10.0039E-03     20.0426E-03    -10.0387E-03     4.87502E-03    -9.97131E-03     19.8504E-03    -10.0012E-03     4.84248E-03
            2379     2.67369E-03     4.85827E-03    -7.64168E+06    -42.2640E+06    -7.23654E+06    -1.78860E+06    -10.0235E-03     20.0668E-03    -10.0433E-03     3.66792E-03    -9.99000E-03     19.8770E-03    -10.0071E-03     3.64460E-03
            2380     1.78153E-03     4.85840E-03    -7.50814E+06    -41.8589E+06    -7.32162E+06    -1.10954E+06    -10.0360E-03     20.0828E-03    -10.0468E-03     2.46661E-03    -10.0023E-03     19.8950E-03    -10.0118E-03     2.45214E-03
            2381     891.436E-06     4.85750E-03    -7.36575E+06    -41.4774E+06    -7.38446E+06    -544.485E+03    -10.0398E-03     20.0956E-03    -10.0558E-03     1.34421E-03    -10.0058E-03     19.9096E-03    -10.0219E-03     1.33710E-03
            2382     16.8647E-03     3.99398E-03    -4.73725E+06     120.029E+06     55.7983E+06     7.14133E+06    -43.4429E-03     58.0480E-03    -14.6051E-03     83.3908E-03    -44.2217E-03     59.0759E-03    -14.4933E-03     83.2689E-03
            2383     15.9828E-03     3.95817E-03    -15.6773E+06     73.1308E+06     15.4214E+06     14.0040E+06    -32.8581E-03     46.0930E-03    -13.2348E-03     40.5225E-03    -33.1636E-03     46.5581E-03    -13.2410E-03     40.5696E-03
            2384     15.1180E-03     3.92528E-03    -18.2058E+06     52.8306E+06     14.0547E+06     11.7047E+06    -24.1422E-03     36.5219E-03    -12.3797E-03     24.2178E-03    -24.3486E-03     36.8112E-03    -12.3596E-03     24.3259E-03
            2385     14.2348E-03     3.91989E-03    -16.5504E+06     25.9782E+06     11.6754E+06     4.35059E+06    -17.5435E-03     29.4207E-03    -11.8772E-03     21.9755E-03    -17.6891E-03     29.5664E-03    -11.8325E-03     22.0125E-03
            2386     13.3459E-03     3.90750E-03    -18.9040E+06    -11.4349E+06     6.69157E+06    -2.42303E+06    -14.6959E-03     26.3179E-03    -11.6220E-03     20.9410E-03    -14.7884E-03     26.2833E-03    -11.5445E-03     20.8989E-03
            2387     12.4594E-03     3.90688E-03    -18.4001E+06    -25.9979E+06     11.4812E+06    -7.30586E+06    -13.1898E-03     24.6808E-03    -11.4910E-03     18.2624E-03    -13.2632E-03     24.5633E-03    -11.3692E-03     18.1615E-03
            2388     11.5689E-03     3.90038E-03    -16.9641E+06    -33.7304E+06     13.9042E+06    -8.85990E+06    -12.1981E-03     23.6034E-03    -11.4053E-03     17.3057E-03    -12.2557E-03     23.4406E-03    -11.2623E-03     17.1871E-03
            2389     10.6811E-03     3.89982E-03    -16.4720E+06    -44.8982E+06     7.34765E+06    -9.53348E+06    -11.8545E-03     23.1739E-03    -11.3194E-03     15.5611E-03    -11.8834E-03     22.9636E-03    -11.1937E-03     15.4350E-03
            2390     9.78943E-03     3.89685E-03    -13.6799E+06    -50.2125E+06    -227.231E+03    -9.95381E+06    -11.4585E-03     22.6989E-03    -11.2404E-03     14.1278E-03    -11.4544E-03     22.4686E-03    -11.1489E-03     13.9971E-03
            2391     8.90146E-03     3.89639E-03    -11.1892E+06    -50.3567E+06    -3.66889E+06    -9.55421E+06    -11.3164E-03     22.5116E-03    -11.1952E-03     12.7421E-03    -11.2944E-03     22.2817E-03    -11.1243E-03     12.6172E-03
            2392     8.00939E-03     3.89425E-03    -8.92472E+06    -49.3296E+06    -5.43930E+06    -8.41700E+06    -11.2328E-03     22.3990E-03    -11.1661E-03     11.1401E-03    -11.1984E-03     22.1734E-03    -11.1089E-03     11.0303E-03
            2393     7.12150E-03     3.89398E-03    -7.15406E+06    -48.4499E+06    -6.30611E+06    -7.09038E+06    -11.1733E-03     22.3226E-03    -11.1493E-03     9.82558E-03    -11.1299E-03     22.1000E-03    -11.1003E-03     9.73315E-03
            2394     6.22928E-03     3.89245E-03    -5.92130E+06    -47.0525E+06    -5.98692E+06    -5.91076E+06    -11.1650E-03     22.3071E-03    -11.1421E-03     8.42190E-03    -11.1178E-03     22.0892E-03    -11.0953E-03     8.34490E-03
            2395     5.34128E-03     3.89200E-03    -5.23324E+06    -46.0249E+06    -5.78745E+06    -4.88994E+06    -11.1501E-03     22.2870E-03    -11.1370E-03     7.12603E-03    -11.1012E-03     22.0729E-03    -11.0916E-03     7.06237E-03
            2396     4.44937E-03     3.89114E-03    -5.01708E+06    -45.1833E+06    -5.41565E+06    -3.71476E+06    -11.1479E-03     22.2823E-03    -11.1344E-03     5.84391E-03    -11.0997E-03     22.0715E-03    -11.0887E-03     5.79556E-03
            2397     3.56097E-03     3.89039E-03     -4.7086E+06    -44.3846E+06    -5.02770E+06    -2.78744E+06    -11.1357E-03     22.2684E-03    -11.1327E-03     4.61582E-03    -11.0876E-03     22.0606E-03    -11.0867E-03     4.57953E-03
            2398     2.66947E-03     3.89026E-03    -4.64251E+06    -43.7816E+06    -4.83955E+06    -1.93866E+06    -11.1383E-03     22.2693E-03    -11.1310E-03     3.44772E-03    -11.0911E-03     22.0641E-03    -11.0849E-03     3.42248E-03
            2399     1.78067E-03     3.88938E-03    -4.64710E+06    -43.2029E+06    -4.62823E+06    -1.22441E+06    -11.1390E-03     22.2656E-03    -11.1266E-03     2.31106E-03    -11.0929E-03     22.0630E-03    -11.0804E-03     2.29511E-03
            2400     889.638E-06     3.88990E-03    -4.55507E+06    -42.5967E+06    -4.59684E+06    -599.933E+03    -11.1218E-03     22.2449E-03    -11.1231E-03     1.25938E-03    -11.0761E-03     22.0452E-03    -11.0777E-03     1.25156E-03
            2401     16.8400E-03     2.99710E-03    -6.25768E+06     111.841E+06     59.0535E+06     12.8235E+06    -43.7168E-03     58.6673E-03    -14.9505E-03     69.1175E-03    -44.3357E-03     59.4917E-03    -14.8083E-03     69.0430E-03
            2402     15.9901E-03     2.95498E-03     -13.015E+06     75.1377E+06     28.8938E+06     12.8720E+06    -29.1165E-03     42.8265E-03    -13.7100E-03     31.9956E-03    -29.3903E-03     43.2377E-03    -13.6556E-03     32.0631E-03
            2403     15.1059E-03     2.95124E-03    -11.1067E+06     58.1637E+06     19.8287E+06     9.40446E+06    -18.9683E-03     32.0502E-03    -13.0818E-03     25.4097E-03    -19.1490E-03     32.3410E-03    -13.0509E-03     25.5049E-03
            2404     14.2168E-03     2.94341E-03    -14.3236E+06     32.1331E+06     9.62317E+06     5.57967E+06    -15.5138E-03     28.3203E-03    -12.8065E-03     27.1532E-03    -15.6524E-03     28.4941E-03    -12.7842E-03     27.2127E-03
            2405     13.3317E-03     2.93605E-03    -14.8303E+06    -1.90171E+06     3.72356E+06    -4.10391E+06    -14.7595E-03     27.4235E-03    -12.6641E-03     22.6851E-03    -14.8398E-03     27.4336E-03    -12.6212E-03     22.6236E-03
            2406     12.4431E-03     2.93208E-03    -13.7956E+06    -23.3115E+06     2.82462E+06    -11.1886E+06    -13.8105E-03     26.3757E-03    -12.5653E-03     19.3463E-03    -13.8515E-03     26.2767E-03    -12.4973E-03     19.1968E-03
            2407     11.5566E-03     2.93130E-03    -11.9121E+06    -34.7606E+06     899.143E+03    -12.4803E+06    -13.3550E-03     25.8370E-03    -12.4821E-03     17.7749E-03    -13.3666E-03     25.6802E-03    -12.4099E-03     17.6104E-03
            2408     10.6661E-03     2.92655E-03    -8.94691E+06    -45.5987E+06    -4.48105E+06    -12.9328E+06    -12.9444E-03     25.3482E-03    -12.4038E-03     15.2748E-03    -12.9172E-03     25.1402E-03    -12.3471E-03     15.1055E-03
            2409     9.77980E-03     2.92759E-03     -7.8475E+06    -51.6501E+06    -10.0116E+06    -12.8407E+06    -12.9247E-03     25.2556E-03    -12.3309E-03     13.3771E-03    -12.8750E-03     25.0236E-03    -12.2947E-03     13.2096E-03
            2410     8.88892E-03     2.92412E-03    -6.12044E+06    -53.0684E+06    -11.7022E+06    -11.6860E+06    -12.7292E-03     25.0018E-03    -12.2726E-03     11.7213E-03    -12.6662E-03     24.7625E-03    -12.2453E-03     11.5691E-03
            2411     8.00260E-03     2.92461E-03    -4.99930E+06    -52.3307E+06    -11.1265E+06    -9.77142E+06    -12.5975E-03     24.8294E-03    -12.2319E-03     10.1128E-03    -12.5307E-03     24.5913E-03    -12.2044E-03     9.98564E-03
            2412     7.11132E-03     2.92253E-03    -4.11503E+06    -50.9454E+06    -9.87509E+06    -7.96962E+06    -12.5239E-03     24.7211E-03    -12.1972E-03     8.69150E-03    -12.4564E-03     24.4867E-03    -12.1667E-03     8.58787E-03
            2413     6.22490E-03     2.92233E-03    -3.39285E+06    -49.5409E+06    -8.07524E+06    -6.36954E+06    -12.4076E-03     24.5766E-03    -12.1690E-03     7.35442E-03    -12.3412E-03     24.3455E-03    -12.1326E-03     7.27161E-03
            2414     5.33365E-03     2.92118E-03    -3.19337E+06    -48.3259E+06    -6.75152E+06    -4.67628E+06    -12.3456E-03     24.4883E-03    -12.1427E-03     6.15036E-03    -12.2818E-03     24.2611E-03    -12.1018E-03     6.08955E-03
            2415     4.44677E-03     2.92057E-03    -3.02503E+06    -47.0040E+06    -5.71273E+06    -3.58154E+06    -12.2541E-03     24.3723E-03    -12.1182E-03     5.01073E-03    -12.1929E-03     24.1499E-03    -12.0742E-03     4.96415E-03
            2416     3.55584E-03     2.92019E-03    -2.99348E+06    -46.1360E+06    -4.70844E+06    -2.58697E+06    -12.1871E-03     24.2871E-03    -12.1000E-03     3.94626E-03    -12.1284E-03     24.0676E-03    -12.0523E-03     3.91261E-03
            2417     2.66830E-03     2.91935E-03    -2.97015E+06    -45.2241E+06    -3.98508E+06    -1.76721E+06    -12.1348E-03     24.2199E-03    -12.0851E-03     2.91330E-03    -12.0783E-03     24.0038E-03    -12.0352E-03     2.89031E-03
            2418     1.77779E-03     2.91956E-03    -2.98281E+06    -44.5358E+06    -3.48166E+06    -1.11183E+06    -12.0970E-03     24.1714E-03    -12.0743E-03     1.95554E-03    -12.0424E-03     23.9580E-03    -12.0228E-03     1.94107E-03
            2419     889.648E-06     2.91866E-03    -2.97531E+06    -43.7652E+06    -3.01860E+06    -709.026E+03    -12.0750E-03     24.1411E-03    -12.0661E-03     1.03342E-03    -12.0220E-03     23.9310E-03    -12.0134E-03     1.02419E-03
            2420     16.8611E-03     1.99220E-03    -2.71609E+06     107.721E+06     65.2807E+06     11.8568E+06    -41.2341E-03     56.8579E-03    -15.6238E-03     55.5083E-03    -41.6811E-03     57.4921E-03    -15.4497E-03     55.4346E-03
            2421     15.9686E-03     1.97240E-03     1.83721E+06     79.6067E+06     42.2038E+06     12.9593E+06    -22.1516E-03     36.8155E-03    -14.6639E-03     32.4735E-03    -22.3502E-03     37.1802E-03    -14.5710E-03     32.5920E-03
            2422     15.0828E-03     1.97836E-03    -5.20486E+06     59.2710E+06     19.3263E+06     10.3718E+06    -17.9815E-03     32.2395E-03    -14.2579E-03     28.3877E-03    -18.1291E-03     32.5225E-03    -14.2397E-03     28.5060E-03
            2423     14.1994E-03     1.96339E-03    -4.01490E+06     43.0000E+06     9.62549E+06     3.26762E+06    -17.8194E-03     31.8137E-03    -13.9943E-03     26.3779E-03    -17.9197E-03     32.0242E-03    -14.0027E-03     26.4101E-03
            2424     13.3149E-03     1.96085E-03    -1.52580E+06     8.70643E+06    -4.01302E+06    -5.92255E+06    -16.3384E-03     30.1026E-03    -13.7642E-03     19.9014E-03    -16.3547E-03     30.1558E-03    -13.7946E-03     19.8191E-03
            2425     12.4284E-03     1.95873E-03    -1.84914E+06    -21.6160E+06    -14.0089E+06    -11.8715E+06    -15.6304E-03     29.2322E-03    -13.6017E-03     17.1878E-03    -15.5890E-03     29.1479E-03    -13.6378E-03     17.0310E-03
            2426     11.5415E-03     1.95450E-03    -1.50540E+06    -35.8617E+06    -18.0465E+06    -13.9090E+06    -15.2012E-03     28.6688E-03    -13.4676E-03     14.3949E-03    -15.1311E-03     28.5183E-03    -13.5037E-03     14.2128E-03
            2427     10.6566E-03     1.95567E-03    -1.56940E+06    -47.0151E+06    -22.6528E+06    -13.0567E+06    -14.7126E-03     28.0579E-03    -13.3453E-03     12.3594E-03    -14.6198E-03     27.8582E-03    -13.3881E-03     12.1891E-03
            2428     9.76714E-03     1.95126E-03    -2.15542E+06    -54.4033E+06    -24.4504E+06    -12.1295E+06    -14.4204E-03     27.6688E-03    -13.2484E-03     10.4482E-03    -14.3171E-03     27.4356E-03    -13.2887E-03     10.2903E-03
            2429     8.88280E-03     1.95297E-03    -3.03550E+06    -56.0143E+06    -23.3801E+06    -10.3347E+06    -14.1676E-03     27.3335E-03    -13.1659E-03     8.94504E-03    -14.0678E-03     27.0918E-03    -13.1972E-03     8.81064E-03
            2430     7.99232E-03     1.95004E-03    -3.54373E+06    -55.4822E+06    -20.5199E+06    -8.74556E+06    -13.9175E-03     27.0136E-03    -13.0961E-03     7.72446E-03    -13.8251E-03     26.7711E-03    -13.1131E-03     7.61079E-03
            2431     7.10772E-03     1.95054E-03    -3.67676E+06    -53.7585E+06    -17.0030E+06    -7.05783E+06    -13.7026E-03     26.7373E-03    -13.0347E-03     6.45522E-03    -13.6185E-03     26.4985E-03    -13.0364E-03     6.36354E-03
            2432     6.21703E-03     1.94913E-03    -3.88932E+06    -52.3314E+06    -13.6591E+06    -5.32207E+06    -13.5013E-03     26.4813E-03    -12.9799E-03     5.49849E-03    -13.4251E-03     26.2451E-03    -12.9667E-03     5.42935E-03
            2433     5.33165E-03     1.94881E-03    -3.75995E+06    -50.6042E+06    -10.6085E+06    -3.95478E+06    -13.3082E-03     26.2397E-03    -12.9316E-03     4.50866E-03    -13.2383E-03     26.0075E-03    -12.9058E-03     4.45728E-03
            2434     4.44112E-03     1.94827E-03    -3.73765E+06    -48.7378E+06    -8.74913E+06    -2.72357E+06    -13.1543E-03     26.0408E-03    -12.8865E-03     3.67001E-03    -13.0896E-03     25.8152E-03    -12.8542E-03     3.63460E-03
            2435     3.55487E-03     1.94763E-03    -3.81881E+06    -47.5998E+06    -6.99499E+06    -1.94532E+06    -13.0284E-03     25.8786E-03    -12.8502E-03     2.86322E-03    -12.9684E-03     25.6563E-03    -12.8106E-03     2.83792E-03
            2436     2.66478E-03     1.94762E-03    -3.79981E+06    -46.4667E+06    -5.57406E+06    -1.32890E+06    -12.9191E-03     25.7404E-03    -12.8213E-03     2.11781E-03    -12.8627E-03     25.5217E-03    -12.7763E-03     2.10052E-03
            2437     1.77770E-03     1.94692E-03    -3.67146E+06    -45.5070E+06    -4.57651E+06    -867.287E+03    -12.8433E-03     25.6445E-03    -12.8011E-03     1.40285E-03    -12.7891E-03     25.4288E-03    -12.7527E-03     1.39157E-03
            2438     888.098E-06     1.94730E-03    -3.63568E+06    -44.9555E+06    -4.04291E+06    -470.736E+03    -12.7887E-03     25.5901E-03    -12.8014E-03     758.322E-06    -12.7357E-03     25.3765E-03    -12.7512E-03     752.197E-06
            2439     16.8117E-03     993.845E-06     1.35289E+06     98.2262E+06     64.2568E+06     6.60781E+06    -36.1820E-03     53.1366E-03    -16.9546E-03     44.4758E-03    -36.4954E-03     53.6187E-03    -16.7777E-03     44.4279E-03
            2440     15.9437E-03     1.00066E-03     6.67521E+06     79.8776E+06     49.8987E+06     13.1191E+06    -25.7991E-03     41.9116E-03    -16.1125E-03     29.7621E-03    -25.9663E-03     42.2399E-03    -15.9885E-03     29.9093E-03
            2441     15.0619E-03     988.716E-06     8.77766E+06     69.4845E+06     28.8367E+06     7.52568E+06    -23.6680E-03     39.1648E-03    -15.4968E-03     23.0480E-03    -23.7694E-03     39.4599E-03    -15.4661E-03     23.1369E-03
            2442     14.1848E-03     984.401E-06     11.8059E+06     50.6201E+06     3.46156E+06    -771.942E+03    -20.9685E-03     35.9325E-03    -14.9640E-03     16.8492E-03    -20.9893E-03     36.1648E-03    -15.0372E-03     16.8335E-03
            2443     13.2996E-03     982.466E-06     12.2222E+06     14.2164E+06    -18.0340E+06    -4.45902E+06    -18.6838E-03     33.2768E-03    -14.5930E-03     12.2866E-03    -18.6177E-03     33.3567E-03    -14.7215E-03     12.2263E-03
            2444     12.4175E-03     979.152E-06     11.1427E+06    -18.3180E+06    -29.2362E+06    -8.16201E+06    -17.6897E-03     32.0349E-03    -14.3452E-03     9.93305E-03    -17.5654E-03     31.9698E-03    -14.4809E-03     9.82554E-03
            2445     11.5332E-03     979.639E-06     7.02444E+06    -37.8218E+06    -35.2451E+06    -9.35476E+06    -16.7728E-03     30.9211E-03    -14.1483E-03     8.07600E-03    -16.6319E-03     30.7731E-03    -14.2798E-03     7.95389E-03
            2446     10.6465E-03     976.784E-06     3.28562E+06    -49.5171E+06    -36.1999E+06    -8.20463E+06    -16.1789E-03     30.1735E-03    -13.9946E-03     6.86729E-03    -16.0383E-03     29.9737E-03    -14.1085E-03     6.76036E-03
            2447     9.76328E-03     977.997E-06     973.822E+03    -56.3427E+06    -34.3745E+06    -6.70846E+06    -15.5804E-03     29.4491E-03    -13.8687E-03     5.74492E-03    -15.4441E-03     29.2159E-03    -13.9603E-03     5.65762E-03
            2448     8.87367E-03     975.655E-06    -1.78057E+06    -58.4418E+06    -31.8135E+06    -6.25198E+06    -15.2004E-03     28.9587E-03    -13.7583E-03     4.84063E-03    -15.0785E-03     28.7153E-03    -13.8301E-03     4.75935E-03
            2449     7.99078E-03     976.463E-06    -3.44773E+06    -57.6959E+06    -27.8762E+06    -5.20435E+06    -14.8357E-03     28.4958E-03    -13.6601E-03     4.10591E-03    -14.7289E-03     28.2528E-03    -13.7109E-03     4.03830E-03
            2450     7.10035E-03     975.153E-06    -4.93560E+06    -56.1735E+06    -23.7797E+06    -4.14877E+06    -14.4897E-03     28.0639E-03    -13.5742E-03     3.51532E-03    -14.3985E-03     27.8247E-03    -13.6045E-03     3.46144E-03
            2451     6.21648E-03     975.247E-06    -5.71677E+06    -54.2751E+06    -19.4461E+06    -3.20886E+06    -14.2254E-03     27.7243E-03    -13.4989E-03     2.90499E-03    -14.1471E-03     27.4893E-03    -13.5091E-03     2.86333E-03
            2452     5.32620E-03     974.735E-06    -6.21395E+06    -52.4174E+06    -15.6781E+06    -2.24384E+06    -13.9538E-03     27.3854E-03    -13.4316E-03     2.43075E-03    -13.8861E-03     27.1550E-03    -13.4250E-03     2.40161E-03
            2453     4.44115E-03     974.432E-06    -6.45162E+06    -50.1069E+06    -12.7227E+06    -1.48556E+06    -13.7476E-03     27.1189E-03    -13.3713E-03     1.93232E-03    -13.6888E-03     26.8961E-03    -13.3529E-03     1.91301E-03
            2454     3.55123E-03     974.303E-06    -6.41260E+06    -48.4858E+06    -10.4419E+06    -960.959E+03    -13.5573E-03     26.8775E-03    -13.3202E-03     1.50489E-03    -13.5040E-03     26.6595E-03    -13.2928E-03     1.49239E-03
            2455     2.66507E-03     973.912E-06    -6.39563E+06    -47.2411E+06    -8.53398E+06    -720.320E+03    -13.4212E-03     26.7014E-03    -13.2802E-03     1.10371E-03    -13.3723E-03     26.4868E-03    -13.2451E-03     1.09434E-03
            2456     1.77563E-03     974.015E-06    -6.30259E+06    -46.1952E+06    -7.29274E+06    -477.063E+03    -13.3101E-03     26.5603E-03    -13.2502E-03     728.074E-06    -13.2641E-03     26.3490E-03    -13.2105E-03     721.870E-06
            2457     888.581E-06     973.643E-06    -6.33052E+06    -45.6706E+06    -6.57116E+06    -207.592E+03    -13.2528E-03     26.4808E-03    -13.2280E-03     387.412E-06    -13.2087E-03     26.2712E-03    -13.1855E-03     384.724E-06


