********************************************************************************
Field Output Report, written Mon Aug 12 20:52:37 2024

Source 1
---------

   ODB: G:/Abaqus_calc_2019/1740/Vel_40/odb/zeides_2a_16_red_250_cal_30_vel_40_fric_0100.odb
   Step: Step-1
   Frame: Increment   1658275: Step Time =   0.2151

Loc 1 : Nodal values from source 1

Output sorted by column "Nodal Label".

Field Output reported at nodes for region: DIE_2A_16_D0_36-1.Region_1
   Computation algorithm: EXTRAPOLATE_COMPUTE_AVERAGE
   Averaged at nodes
   Averaging regions: ODB_REGIONS

      Node Label     COORD.COOR1     COORD.COOR2
                          @Loc 1          @Loc 1
-------------------------------------------------
               1     19.9925E-03     121.120E-03


Field Output reported at nodes for region: DIE_2A_16_D0_36-1.Region_2
   Computation algorithm: EXTRAPOLATE_COMPUTE_AVERAGE
   Averaged at nodes
   Averaging regions: ODB_REGIONS

      Node Label     COORD.COOR1     COORD.COOR2
                          @Loc 1          @Loc 1
-------------------------------------------------
               1     19.9925E-03     121.120E-03


Field Output reported at nodes for part: WIRE-1
   Computation algorithm: EXTRAPOLATE_COMPUTE_AVERAGE
   Averaged at nodes
   Averaging regions: ODB_REGIONS

      Node Label     COORD.COOR1     COORD.COOR2           S.S11           S.S22           S.S33           S.S12         PE.PE11         PE.PE22         PE.PE33         PE.PE12         LE.LE11         LE.LE22         LE.LE33         LE.LE12
                          @Loc 1          @Loc 1          @Loc 1          @Loc 1          @Loc 1          @Loc 1          @Loc 1          @Loc 1          @Loc 1          @Loc 1          @Loc 1          @Loc 1          @Loc 1          @Loc 1
-------------------------------------------------------------------------------------------------------------------------------------------------------------------------------------------------------------------------------------------------
               1    -79.0586E-09     57.5209E-03    -30.7027E+06    -120.193E+06    -30.5913E+06     172.201E+03    -26.7978E-03     53.5826E-03    -26.7848E-03     3.40683E-03    -26.7327E-03     53.0706E-03    -26.7190E-03     3.40734E-03
               2     17.5287E-03     58.5419E-03    -2.55889E+06     130.382E+06     90.1496E+06     738.038E+03    -25.6216E-03     52.3885E-03    -26.7669E-03     53.7892E-03    -26.2899E-03     53.2493E-03    -26.5015E-03     54.1726E-03
               3     17.2950E-03     116.856E-03     21.7134E+06    -25.7043E+06     16.8167E+06     12.8289E+06     18.4928E-03     15.8434E-03    -34.3362E-03     1.42435E-03     18.5767E-03     15.6215E-03    -34.2463E-03     1.58984E-03
               4    -895.176E-09     115.264E-03     30.5158E+06     374.348E+03     29.9830E+06    -1.40131E+06    -28.1710E-03     56.9860E-03    -28.8150E-03    -895.160E-06    -28.0640E-03     56.8986E-03    -28.7099E-03    -914.244E-06
               5     233.921E-09     145.717E-18    -14.3891E+06    -97.6213E+06    -14.1751E+06     452.276E+03    -21.1832E-03     42.2952E-03    -21.1120E-03     334.515E-06    -21.0930E-03     41.8485E-03    -21.0204E-03     340.490E-06
               6     17.4049E-03     145.717E-18     6.74398E+06     92.4375E+06     81.0670E+06     5.98054E+06    -51.5778E-03     83.1721E-03    -31.5944E-03     62.3839E-03    -51.8851E-03     83.5955E-03    -31.3329E-03     62.2230E-03
               7     876.356E-06     57.5241E-03    -30.2524E+06    -120.634E+06    -29.6300E+06     146.433E+03    -26.8092E-03     53.6035E-03    -26.7943E-03     5.61710E-03    -26.7427E-03     53.0873E-03    -26.7237E-03     5.61605E-03
               8     1.75244E-03     57.5316E-03    -29.4380E+06    -120.178E+06    -27.4815E+06     93.3885E+03    -26.8211E-03     53.6284E-03    -26.8073E-03     10.3071E-03    -26.7547E-03     53.1105E-03    -26.7277E-03     10.3027E-03
               9     2.62885E-03     57.5437E-03    -28.2873E+06    -118.046E+06    -24.2832E+06     162.264E+03    -26.8362E-03     53.6515E-03    -26.8153E-03     15.2839E-03    -26.7723E-03     53.1385E-03    -26.7245E-03     15.2772E-03
              10     3.50505E-03     57.5606E-03    -26.6916E+06    -115.154E+06    -19.9751E+06     225.880E+03    -26.8677E-03     53.6927E-03    -26.8250E-03     20.2783E-03    -26.8071E-03     53.1865E-03    -26.7192E-03     20.2688E-03
              11     4.38140E-03     57.5822E-03    -25.0524E+06    -111.666E+06    -15.4576E+06     159.385E+03    -26.8893E-03     53.7219E-03    -26.8325E-03     25.2729E-03    -26.8335E-03     53.2255E-03    -26.7116E-03     25.2581E-03
              12     5.25771E-03     57.6086E-03    -22.9915E+06    -107.482E+06    -10.6622E+06     237.438E+03    -26.9298E-03     53.7670E-03    -26.8372E-03     30.2420E-03    -26.8786E-03     53.2836E-03    -26.7013E-03     30.2228E-03
              13     6.13407E-03     57.6397E-03    -20.8183E+06    -102.246E+06    -5.82117E+06     499.230E+03    -26.9908E-03     53.8309E-03    -26.8401E-03     35.1176E-03    -26.9462E-03     53.3663E-03    -26.6908E-03     35.0952E-03
              14     7.01051E-03     57.6753E-03    -18.7161E+06    -98.2433E+06    -1.77445E+06     515.807E+03    -27.0791E-03     53.9216E-03    -26.8425E-03     39.9288E-03    -27.0396E-03     53.4720E-03    -26.6817E-03     39.8983E-03
              15     7.88669E-03     57.7157E-03    -16.6648E+06    -93.3121E+06     930.578E+03     522.586E+03    -27.1701E-03     54.0084E-03    -26.8383E-03     44.7023E-03    -27.1370E-03     53.5822E-03    -26.6741E-03     44.6619E-03
              16     8.76328E-03     57.7604E-03    -14.9079E+06    -86.0864E+06     2.01639E+06     426.788E+03    -27.2092E-03     54.0304E-03    -26.8212E-03     49.2226E-03    -27.1871E-03     53.6439E-03    -26.6647E-03     49.1690E-03
              17     9.63959E-03     57.8091E-03    -13.3768E+06    -78.5519E+06     2.12833E+06     378.295E+03    -27.3110E-03     54.1087E-03    -26.7977E-03     53.7253E-03    -27.3033E-03     53.7684E-03    -26.6538E-03     53.6567E-03
              18     10.5161E-03     57.8629E-03    -12.2476E+06    -70.0541E+06     1.16213E+06     532.202E+03    -27.3979E-03     54.1664E-03    -26.7686E-03     58.2427E-03    -27.4112E-03     53.8842E-03    -26.6434E-03     58.1586E-03
              19     11.3925E-03     57.9196E-03    -11.1210E+06    -58.4165E+06     511.869E+03     491.512E+03    -27.4051E-03     54.1380E-03    -26.7329E-03     62.9911E-03    -27.4512E-03     53.9358E-03    -26.6295E-03     62.8865E-03
              20     12.2692E-03     57.9825E-03    -10.2336E+06    -43.7340E+06    -1.08600E+06     407.107E+03    -27.5422E-03     54.2288E-03    -26.6866E-03     68.1453E-03    -27.6373E-03     54.1355E-03    -26.6138E-03     68.0156E-03
              21     13.1454E-03     58.0498E-03    -9.77560E+06    -24.3079E+06    -5.70827E+06     255.227E+03    -27.6878E-03     54.3088E-03    -26.6210E-03     74.3451E-03    -27.8615E-03     54.3781E-03    -26.6002E-03     74.1846E-03
              22     14.0227E-03     58.1235E-03    -10.1354E+06     22.0722E+06    -8.83184E+06     747.475E+03    -27.9742E-03     54.4965E-03    -26.5224E-03     88.0943E-03    -28.3373E-03     54.9276E-03    -26.5838E-03     87.9139E-03
              23     14.8985E-03     58.2192E-03    -11.0971E+06     78.7252E+06    -3.21354E+06     1.00652E+06    -29.0874E-03     55.5479E-03    -26.4605E-03     111.047E-03    -29.8920E-03     56.6019E-03    -26.5746E-03     110.871E-03
              24     15.7750E-03     58.3356E-03    -9.55728E+06     120.561E+06     38.8902E+06    -277.937E+03    -29.8838E-03     56.4831E-03    -26.5993E-03     140.700E-03    -31.5499E-03     58.4304E-03    -26.5658E-03     140.808E-03
              25     16.6560E-03     58.4906E-03    -5.10381E+06     135.251E+06     82.5797E+06    -258.182E+03    -27.7277E-03     54.4807E-03    -26.7530E-03     105.657E-03    -29.1745E-03     56.1501E-03    -26.5289E-03     106.041E-03
              26     17.5312E-03     59.5429E-03    -4.16223E+06     129.843E+06     88.8868E+06    -477.417E+03    -24.7037E-03     51.4743E-03    -26.7706E-03     56.8131E-03    -25.3960E-03     52.3553E-03    -26.5084E-03     57.2101E-03
              27     17.5288E-03     60.5369E-03    -5.96039E+06     128.598E+06     87.3607E+06     991.894E+03    -27.3336E-03     54.0496E-03    -26.7159E-03     55.7453E-03    -28.0231E-03     54.9213E-03    -26.4570E-03     56.1235E-03
              28     17.5300E-03     61.5438E-03    -774.875E+03     132.716E+06     91.4857E+06     2.33770E+06    -26.4980E-03     53.2271E-03    -26.7291E-03     55.5239E-03    -27.1719E-03     54.1042E-03    -26.4630E-03     55.9127E-03
              29     17.5311E-03     62.5430E-03     1.84150E+06     136.287E+06     94.5878E+06    -1.23221E+06    -22.9481E-03     49.7432E-03    -26.7951E-03     59.0133E-03    -23.6441E-03     50.6553E-03    -26.5225E-03     59.4279E-03
              30     17.5300E-03     63.5357E-03    -1.72996E+06     133.831E+06     91.9470E+06    -1.53534E+06    -24.4753E-03     51.2397E-03    -26.7644E-03     56.1861E-03    -25.1615E-03     52.1283E-03    -26.4962E-03     56.5727E-03
              31     17.5301E-03     64.5312E-03    -3.68614E+06     131.257E+06     89.3695E+06     307.594E+03    -28.3267E-03     55.0037E-03    -26.6770E-03     50.3611E-03    -28.9745E-03     55.8454E-03    -26.4151E-03     50.6826E-03
              32     17.5296E-03     65.5382E-03    -2.37624E+06     132.825E+06     90.6907E+06     193.000E+03    -28.2368E-03     54.9292E-03    -26.6924E-03     50.4092E-03    -28.8863E-03     55.7789E-03    -26.4281E-03     50.7320E-03
              33     17.5298E-03     66.5428E-03    -1.70223E+06     134.298E+06     91.7406E+06     40.8192E+03    -24.9889E-03     51.7752E-03    -26.7863E-03     55.3754E-03    -25.6697E-03     52.6607E-03    -26.5198E-03     55.7671E-03
              34     17.5295E-03     67.5364E-03    -2.51197E+06     133.537E+06     90.8737E+06    -442.707E+03    -24.0573E-03     50.8605E-03    -26.8032E-03     53.9181E-03    -24.7285E-03     51.7334E-03    -26.5388E-03     54.3087E-03
              35     17.5301E-03     68.5302E-03    -4.36842E+06     132.032E+06     89.1555E+06    -218.326E+03    -26.4271E-03     53.1565E-03    -26.7294E-03     50.6962E-03    -27.0813E-03     54.0054E-03    -26.4687E-03     51.0411E-03
              36     17.5297E-03     69.5378E-03    -3.28873E+06     133.364E+06     90.0020E+06     1.41228E+06    -27.0610E-03     53.7667E-03    -26.7057E-03     52.2045E-03    -27.7237E-03     54.6303E-03    -26.4443E-03     52.5649E-03
              37     17.5306E-03     70.5386E-03    -410.495E+03     136.566E+06     92.7625E+06     432.411E+03    -25.2985E-03     52.0466E-03    -26.7481E-03     55.3209E-03    -25.9771E-03     52.9396E-03    -26.4817E-03     55.7054E-03
              38     17.5299E-03     71.5341E-03    -2.29590E+06     135.424E+06     91.2313E+06    -2.00267E+06    -25.9479E-03     52.6929E-03    -26.7450E-03     53.2328E-03    -26.6211E-03     53.5742E-03    -26.4819E-03     53.5773E-03
              39     17.5291E-03     72.5337E-03    -4.18372E+06     134.229E+06     89.8228E+06    -437.435E+03    -27.2466E-03     53.9858E-03    -26.7392E-03     51.7237E-03    -27.9170E-03     54.8573E-03    -26.4786E-03     52.0683E-03
              40     17.5292E-03     73.5396E-03    -2.22872E+06     135.995E+06     91.0530E+06     1.94918E+06    -25.4600E-03     52.2213E-03    -26.7613E-03     55.5661E-03    -26.1423E-03     53.1144E-03    -26.5000E-03     55.9662E-03
              41     17.5317E-03     74.5355E-03    -1.69506E+06     137.257E+06     91.7019E+06    -192.267E+03    -24.6649E-03     51.4305E-03    -26.7657E-03     55.8770E-03    -25.3507E-03     52.3317E-03    -26.5037E-03     56.2648E-03
              42     17.5278E-03     75.5324E-03    -1.98882E+06     137.255E+06     91.5660E+06     655.166E+03    -25.9037E-03     52.6507E-03    -26.7470E-03     53.0063E-03    -26.5743E-03     53.5360E-03    -26.4853E-03     53.3793E-03
              43     17.5320E-03     76.5332E-03    -2.54493E+06     136.612E+06     90.4475E+06    -458.775E+03    -26.4917E-03     53.2103E-03    -26.7186E-03     52.2026E-03    -27.1570E-03     54.0892E-03    -26.4607E-03     52.5477E-03
              44     17.5280E-03     77.5332E-03    -2.86416E+06     137.613E+06     91.1713E+06    -1.04905E+06    -27.3648E-03     54.0914E-03    -26.7267E-03     53.9178E-03    -28.0503E-03     54.9910E-03    -26.4662E-03     54.2606E-03
              45     17.5299E-03     78.5404E-03    -944.093E+03     139.340E+06     92.5869E+06     1.49339E+06    -25.3505E-03     52.1298E-03    -26.7794E-03     56.5639E-03    -26.0421E-03     53.0444E-03    -26.5171E-03     56.9642E-03
              46     17.5303E-03     79.5321E-03    -2.27399E+06     138.158E+06     90.9472E+06    -829.177E+03    -24.5935E-03     51.3766E-03    -26.7831E-03     55.8748E-03    -25.2812E-03     52.2831E-03    -26.5254E-03     56.2536E-03
              47     17.5283E-03     80.5309E-03    -4.25944E+06     136.341E+06     88.9412E+06     144.863E+03    -26.6598E-03     53.3961E-03    -26.7364E-03     51.4148E-03    -27.3266E-03     54.2740E-03    -26.4832E-03     51.7663E-03
              48     17.5310E-03     81.5316E-03    -1.72473E+06     138.607E+06     90.9441E+06     922.917E+03    -26.6607E-03     53.3779E-03    -26.7172E-03     51.8964E-03    -27.3225E-03     54.2620E-03    -26.4609E-03     52.2510E-03
              49     17.5292E-03     82.5349E-03    -695.374E+03     140.544E+06     92.3979E+06    -624.435E+03    -26.2650E-03     52.9981E-03    -26.7331E-03     54.6957E-03    -26.9459E-03     53.9076E-03    -26.4739E-03     55.0502E-03
              50     17.5300E-03     83.5353E-03    -3.82456E+06     138.318E+06     89.5800E+06     247.606E+03    -26.0362E-03     52.7802E-03    -26.7440E-03     55.8699E-03    -26.7329E-03     53.6947E-03    -26.4911E-03     56.2477E-03
              51     17.5295E-03     84.5316E-03    -2.38853E+06     139.543E+06     90.5871E+06     829.234E+03    -25.7654E-03     52.5021E-03    -26.7367E-03     54.0722E-03    -26.4461E-03     53.4071E-03    -26.4827E-03     54.4515E-03
              52     17.5307E-03     85.5333E-03    -131.285E+03     141.715E+06     92.8683E+06    -812.505E+03    -25.4294E-03     52.1695E-03    -26.7401E-03     52.4758E-03    -26.0956E-03     53.0691E-03    -26.4810E-03     52.8305E-03
              53     17.5294E-03     86.5290E-03    -2.32028E+06     140.562E+06     91.4459E+06    -569.664E+03    -26.3981E-03     53.1166E-03    -26.7186E-03     52.1548E-03    -27.0691E-03     54.0133E-03    -26.4618E-03     52.5002E-03
              54     17.5304E-03     87.5321E-03    -3.11972E+06     140.398E+06     90.9563E+06     363.751E+03    -27.5337E-03     54.2246E-03    -26.6909E-03     53.2212E-03    -28.2149E-03     55.1294E-03    -26.4352E-03     53.5647E-03
              55     17.5296E-03     88.5369E-03    -2.65454E+06     140.796E+06     91.2771E+06     520.354E+03    -25.6444E-03     52.3593E-03    -26.7150E-03     56.2780E-03    -26.3418E-03     53.2826E-03    -26.4589E-03     56.6566E-03
              56     17.5320E-03     89.5327E-03    -2.30839E+06     140.738E+06     91.4247E+06    -285.311E+03    -24.2272E-03     50.9424E-03    -26.7152E-03     55.5651E-03    -24.9183E-03     51.8600E-03    -26.4588E-03     55.9540E-03
              57     17.5304E-03     90.5259E-03    -4.64083E+06     138.403E+06     89.5154E+06    -739.184E+03    -26.9762E-03     53.6122E-03    -26.6360E-03     52.4851E-03    -27.6556E-03     54.5071E-03    -26.3824E-03     52.8226E-03
              58     17.5315E-03     91.5338E-03    -3.33961E+06     138.862E+06     90.7032E+06     1.31948E+06    -27.3217E-03     53.9234E-03    -26.6017E-03     52.9802E-03    -27.9977E-03     54.8175E-03    -26.3447E-03     53.3326E-03
              59     17.5330E-03     92.5335E-03    -1.18239E+06     140.521E+06     92.6776E+06     453.076E+03    -25.5729E-03     52.1658E-03    -26.5928E-03     56.2648E-03    -26.2645E-03     53.0833E-03    -26.3315E-03     56.6440E-03
              60     17.5331E-03     93.5297E-03    -1.39498E+06     140.217E+06     93.0456E+06    -1.12597E+06    -26.4716E-03     53.0121E-03    -26.5405E-03     55.9576E-03    -27.1674E-03     53.9309E-03    -26.2766E-03     56.3094E-03
              61     17.5336E-03     94.5355E-03    -2.13736E+06     139.004E+06     92.6724E+06     123.785E+03    -25.5857E-03     52.0934E-03    -26.5077E-03     56.3773E-03    -26.2849E-03     53.0098E-03    -26.2428E-03     56.7554E-03
              62     17.5363E-03     95.5281E-03    -2.03502E+06     138.070E+06     92.6967E+06    -283.002E+03    -25.5488E-03     51.9663E-03    -26.4175E-03     54.8575E-03    -26.2339E-03     52.8657E-03    -26.1513E-03     55.2225E-03
              63     17.5365E-03     96.5250E-03    -4.45166E+06     135.153E+06     91.2454E+06    -1.13258E+06    -30.2101E-03     56.4519E-03    -26.2418E-03     52.5656E-03    -30.8890E-03     57.3305E-03    -25.9751E-03     52.8496E-03
              64     17.5371E-03     97.5399E-03    -2.95740E+06     135.048E+06     92.5041E+06     634.611E+03    -29.8272E-03     56.0090E-03    -26.1818E-03     56.4713E-03    -30.5312E-03     56.9140E-03    -25.9108E-03     56.7978E-03
              65     17.5410E-03     98.5417E-03     63.9051E+03     137.108E+06     96.1502E+06    -450.745E+03    -25.4215E-03     51.5982E-03    -26.1767E-03     61.3473E-03    -26.1514E-03     52.5366E-03    -25.8948E-03     61.7471E-03
              66     17.5417E-03     99.5302E-03    -2.19533E+06     132.945E+06     94.4910E+06    -1.37064E+06    -29.3135E-03     55.2910E-03    -25.9775E-03     58.1115E-03    -30.0222E-03     56.1902E-03    -25.6946E-03     58.4367E-03
              67     17.5432E-03     100.540E-03    -3.36662E+06     129.087E+06     92.8818E+06    -8.91330E+03    -34.4213E-03     60.1859E-03    -25.7646E-03     54.2196E-03    -35.1071E-03     61.0491E-03    -25.4825E-03     54.4664E-03
              68     17.5450E-03     101.552E-03    -1.84002E+06     128.468E+06     94.0867E+06    -707.940E+03    -34.1107E-03     59.7972E-03    -25.6865E-03     59.5687E-03    -34.8366E-03     60.7000E-03    -25.3997E-03     59.8359E-03
              69     17.5464E-03     102.558E-03    -2.06590E+06     126.507E+06     94.3452E+06    -1.76046E+06    -35.3545E-03     60.9408E-03    -25.5863E-03     63.4787E-03    -36.1102E-03     61.8648E-03    -25.2951E-03     63.7328E-03
              70     17.5469E-03     103.568E-03    -1.68473E+06     122.423E+06     93.7270E+06    -1.43631E+06    -38.7641E-03     64.2039E-03    -25.4399E-03     62.3630E-03    -39.5051E-03     65.1017E-03    -25.1463E-03     62.5575E-03
              71     17.5486E-03     104.579E-03    -1.96919E+06     118.835E+06     93.2878E+06    -2.03624E+06    -41.9647E-03     67.2554E-03    -25.2907E-03     62.2096E-03    -42.7038E-03     68.1390E-03    -24.9937E-03     62.3352E-03
              72     17.5496E-03     105.597E-03    -2.03535E+06     113.510E+06     93.3522E+06    -3.08201E+06    -45.9496E-03     71.0898E-03    -25.1401E-03     64.1508E-03    -46.7018E-03     71.9673E-03    -24.8350E-03     64.1964E-03
              73     17.5501E-03     106.618E-03    -4.22002E+06     106.479E+06     92.8858E+06    -2.27179E+06    -50.0073E-03     75.0053E-03    -24.9980E-03     66.0153E-03    -50.7814E-03     75.8733E-03    -24.6819E-03     65.9939E-03
              74     17.5517E-03     107.642E-03     439.323E+03     100.313E+06     94.2071E+06    -3.14050E+06    -54.3407E-03     79.1696E-03    -24.8288E-03     68.5183E-03    -55.1085E-03     80.0222E-03    -24.5039E-03     68.3929E-03
              75     17.5529E-03     108.672E-03    -3.28256E+06     89.7912E+06     91.4268E+06    -5.29350E+06    -60.2057E-03     84.8329E-03    -24.6272E-03     71.7019E-03    -61.0078E-03     85.6779E-03    -24.2955E-03     71.4223E-03
              76     17.5534E-03     109.711E-03     1.26540E+06     80.8679E+06     92.6608E+06    -719.833E+03    -64.8844E-03     89.3637E-03    -24.4792E-03     77.0326E-03    -65.7236E-03     90.2274E-03    -24.1350E-03     76.6772E-03
              77     17.5546E-03     110.755E-03    -5.28006E+06     75.5591E+06     90.6427E+06    -1.80615E+06    -68.4455E-03     92.7995E-03    -24.3540E-03     89.5689E-03    -69.4434E-03     93.7865E-03    -24.0027E-03     89.0645E-03
              78     17.5554E-03     111.803E-03     2.72778E+06     75.2507E+06     94.7960E+06     1.02331E+06    -74.8944E-03     99.0575E-03    -24.1631E-03     111.968E-03    -76.0824E-03     100.253E-03    -23.8022E-03     111.265E-03
              79     17.5574E-03     112.873E-03    -13.8578E+06     64.9004E+06     72.2428E+06    -7.65358E+06    -77.1174E-03     101.107E-03    -23.9901E-03     140.326E-03    -78.6225E-03     102.592E-03    -23.7029E-03     139.277E-03
              80     17.5585E-03     113.931E-03    -7.22629E+06     31.6722E+06     33.1758E+06    -18.2377E+06    -64.0429E-03     88.1682E-03    -24.1253E-03     171.647E-03    -65.4575E-03     89.5789E-03    -23.9948E-03     170.613E-03
              81     17.5610E-03     114.962E-03     6.65590E+06     3.43256E+06     11.8200E+06    -10.7651E+06    -23.9349E-03     49.4288E-03    -25.4939E-03     159.267E-03    -24.5594E-03     50.0729E-03    -25.4495E-03     158.860E-03
              82     17.5223E-03     115.888E-03    -7.28606E+06    -15.7329E+06     5.26085E+06     1.05460E+06     11.8592E-03     18.6422E-03    -30.5014E-03     65.4562E-03     11.7801E-03     18.6026E-03    -30.4417E-03     65.4858E-03
              83     16.4339E-03     116.650E-03     4.47976E+06     19.4304E+06     49.7171E+06     3.62717E+06     12.7387E-03     22.4968E-03    -35.2355E-03     15.2767E-03     12.6545E-03     22.5098E-03    -35.0216E-03     15.3230E-03
              84     15.5162E-03     116.485E-03    -16.7065E+06     5.18691E+06     61.0576E+06    -6.45159E+06    -9.86317E-03     46.1741E-03    -36.3109E-03     20.6039E-03    -10.0439E-03     46.1405E-03    -35.9889E-03     20.5020E-03
              85     14.6780E-03     116.278E-03    -12.3729E+06    -8.81721E+06     48.3686E+06    -10.9895E+06    -25.5681E-03     61.7979E-03    -36.2298E-03     8.64078E-03    -25.7063E-03     61.6894E-03    -35.9572E-03     8.46983E-03
              86     13.8205E-03     116.116E-03    -662.314E+03    -863.526E+03     56.3221E+06    -10.1908E+06    -27.6485E-03     63.4978E-03    -35.8493E-03     551.064E-06    -27.7446E-03     63.4029E-03    -35.5655E-03     393.549E-06
              87     12.9709E-03     115.979E-03     8.74620E+06    -6.24824E+06     64.1209E+06    -5.03430E+06    -32.6344E-03     68.0980E-03    -35.4636E-03    -5.22694E-03    -32.6844E-03     67.9522E-03    -35.1466E-03    -5.32270E-03
              88     12.1145E-03     115.862E-03     17.2096E+06     1.06329E+06     66.4916E+06    -2.77182E+06    -36.3689E-03     71.2326E-03    -34.8637E-03    -7.77407E-03    -36.3871E-03     71.1102E-03    -34.5577E-03    -7.84192E-03
              89     11.2620E-03     115.761E-03     20.2077E+06    -3.96954E+06     64.0003E+06    -1.10328E+06    -38.4965E-03     72.6084E-03    -34.1119E-03    -9.01613E-03    -38.4885E-03     72.4598E-03    -33.8154E-03    -9.06122E-03
              90     10.4076E-03     115.672E-03     21.8388E+06     1.04746E+06     64.2031E+06    -968.765E+03    -38.2067E-03     71.5124E-03    -33.3057E-03    -8.23274E-03    -38.1969E-03     71.3874E-03    -33.0179E-03    -8.27180E-03
              91     9.55044E-03     115.597E-03     23.5450E+06    -1.26304E+06     62.5717E+06    -615.936E+03    -37.2641E-03     69.8018E-03    -32.5378E-03    -7.09868E-03    -37.2389E-03     69.6665E-03    -32.2572E-03    -7.12862E-03
              92     8.68973E-03     115.532E-03     24.0102E+06     1.07443E+06     59.1512E+06    -540.341E+03    -36.1793E-03     67.9840E-03    -31.8047E-03    -6.15102E-03    -36.1495E-03     67.8656E-03    -31.5453E-03    -6.17619E-03
              93     7.82761E-03     115.477E-03     23.8219E+06    -761.633E+03     54.7058E+06    -857.120E+03    -34.8467E-03     65.9767E-03    -31.1301E-03    -5.23010E-03    -34.8084E-03     65.8562E-03    -30.8900E-03    -5.25619E-03
              94     6.96284E-03     115.429E-03     24.0934E+06       623.8E+03     51.6044E+06    -1.34080E+06    -33.4693E-03     64.0002E-03    -30.5309E-03    -4.37044E-03    -33.4267E-03     63.8913E-03    -30.3087E-03    -4.39992E-03
              95     6.09615E-03     115.389E-03     24.7559E+06    -851.322E+03     46.4876E+06    -1.46916E+06    -32.2850E-03     62.2856E-03    -30.0006E-03    -3.70255E-03    -32.2293E-03     62.1761E-03    -29.8028E-03    -3.73141E-03
              96     5.22799E-03     115.355E-03     25.3401E+06     287.503E+03     42.5209E+06    -1.32168E+06    -31.2013E-03     60.7462E-03    -29.5449E-03    -3.04991E-03    -31.1384E-03     60.6475E-03    -29.3694E-03    -3.07489E-03
              97     4.35853E-03     115.327E-03     26.0888E+06    -487.794E+03     39.0995E+06    -1.53158E+06    -30.2403E-03     59.4143E-03    -29.1741E-03    -2.48142E-03    -30.1673E-03     59.3158E-03    -29.0157E-03    -2.50744E-03
              98     3.48774E-03     115.304E-03     27.2799E+06        -787.625     36.3084E+06    -1.71164E+06    -29.5209E-03     58.4033E-03    -28.8824E-03    -2.03425E-03    -29.4386E-03     58.3096E-03    -28.7404E-03    -2.06120E-03
              99     2.61646E-03     115.287E-03     28.4839E+06    -745.043E+03     33.4249E+06    -1.50129E+06    -28.9943E-03     57.6570E-03    -28.6627E-03    -1.60167E-03    -28.9007E-03     57.5620E-03    -28.5358E-03    -1.62460E-03
             100     1.74443E-03     115.275E-03     29.4867E+06    -333.055E+03     31.7733E+06    -1.19224E+06    -28.5887E-03     57.1200E-03    -28.5313E-03    -1.21735E-03    -28.4882E-03     57.0281E-03    -28.4147E-03    -1.23509E-03
             101     872.006E-06     115.267E-03     30.2482E+06    -865.574E+03     30.3360E+06    -1.30088E+06    -28.2954E-03     56.9488E-03    -28.6534E-03    -970.218E-06    -28.1883E-03     56.8551E-03    -28.5443E-03    -988.396E-06
             102     338.847E-09     114.260E-03     26.7235E+06    -2.85883E+06     26.2935E+06    -1.06355E+06    -25.6900E-03     51.5983E-03    -25.9083E-03     50.3818E-06    -25.5915E-03     51.5060E-03    -25.8114E-03     35.6198E-06
             103    -154.965E-09     113.267E-03     16.9906E+06    -6.93792E+06     17.3775E+06    -901.819E+03    -21.3552E-03     42.5926E-03    -21.2375E-03     1.10910E-03    -21.2859E-03     42.5076E-03    -21.1652E-03     1.09642E-03
             104     187.465E-09     112.282E-03     2.52059E+06    -12.4632E+06     2.95543E+06    -2.00206E+06    -18.2491E-03     36.4838E-03    -18.2347E-03     1.55850E-03    -18.2229E-03     36.4133E-03    -18.2055E-03     1.53179E-03
             105    -188.042E-09     111.300E-03    -16.2175E+06     -20.348E+06    -15.8612E+06    -2.54368E+06    -16.2428E-03     32.4878E-03    -16.2451E-03     2.13647E-03    -16.2714E-03     32.4326E-03    -16.2714E-03     2.10303E-03
             106     187.540E-09     110.323E-03    -37.7132E+06    -29.2726E+06    -37.4949E+06    -2.83897E+06    -15.1221E-03     30.2617E-03    -15.1396E-03     2.57373E-03    -15.2138E-03     30.2244E-03    -15.2299E-03     2.53669E-03
             107    -218.403E-09     109.345E-03    -59.9401E+06    -38.0010E+06    -60.2045E+06    -2.30614E+06    -14.6873E-03     29.4040E-03    -14.7167E-03     2.89910E-03    -14.8446E-03     29.3882E-03    -14.8757E-03     2.86909E-03
             108     190.413E-09     108.370E-03    -83.4073E+06    -46.0871E+06    -82.8430E+06    -2.53249E+06    -14.7332E-03     29.5014E-03    -14.7682E-03     3.12029E-03    -14.9632E-03     29.5120E-03    -14.9946E-03     3.08747E-03
             109    -222.424E-09     107.392E-03    -100.848E+06    -52.0106E+06    -102.195E+06    -931.010E+03    -15.1191E-03     30.2617E-03    -15.1426E-03     3.27327E-03    -15.3997E-03     30.2961E-03    -15.4320E-03     3.26120E-03
             110     192.480E-09     106.415E-03    -86.6821E+06    -46.8529E+06    -88.0951E+06     3.96043E+06    -15.8699E-03     31.7593E-03    -15.8894E-03     3.38920E-03    -16.1076E-03     31.7785E-03    -16.1363E-03     3.44031E-03
             111    -218.517E-09     105.435E-03    -50.0990E+06    -29.4007E+06    -50.1252E+06     6.58885E+06    -16.9726E-03     33.9664E-03    -16.9938E-03     3.52300E-03    -17.1078E-03     33.9647E-03    -17.1292E-03     3.60808E-03
             112     201.288E-09     104.452E-03    -26.7530E+06    -11.8754E+06    -25.0254E+06     4.07891E+06    -18.2876E-03     36.5735E-03    -18.2859E-03     3.66492E-03    -18.3679E-03     36.5892E-03    -18.3551E-03     3.71760E-03
             113    -167.095E-09     103.467E-03    -13.1962E+06    -5.76503E+06    -12.3940E+06    -60.0839E+03    -19.6567E-03     39.3101E-03    -19.6534E-03     3.70397E-03    -19.6964E-03     39.3183E-03    -19.6878E-03     3.70309E-03
             114     142.444E-09     102.480E-03    -5.60271E+06    -8.47752E+06    -5.52698E+06    -1.58839E+06    -20.9761E-03     41.9527E-03    -20.9766E-03     3.68655E-03    -20.9839E-03     41.9264E-03    -20.9838E-03     3.66576E-03
             115    -123.241E-09     101.490E-03    -2.73405E+06    -15.0208E+06    -2.52962E+06    -2.31266E+06    -22.1701E-03     44.3361E-03    -22.1659E-03     3.66977E-03    -22.1584E-03     44.2686E-03    -22.1528E-03     3.63942E-03
             116     108.154E-09     100.497E-03    -2.37098E+06    -23.1001E+06    -2.58099E+06    -2.38523E+06    -23.1885E-03     46.3664E-03    -23.1779E-03     3.63550E-03    -23.1631E-03     46.2581E-03    -23.1539E-03     3.60402E-03
             117    -82.4905E-09     99.5031E-03    -4.28758E+06    -31.5652E+06    -4.11333E+06    -2.49152E+06    -24.0330E-03     48.0523E-03    -24.0194E-03     3.55391E-03    -24.0027E-03     47.9067E-03    -23.9879E-03     3.52084E-03
             118     77.3186E-09     98.5078E-03    -6.79066E+06    -40.1701E+06    -6.97070E+06    -2.60241E+06    -24.7171E-03     49.4387E-03    -24.7216E-03     3.50603E-03    -24.6827E-03     49.2578E-03    -24.6884E-03     3.47132E-03
             119    -87.4789E-09     97.5107E-03    -10.5044E+06    -48.8799E+06    -10.5195E+06    -2.50094E+06    -25.2625E-03     50.5253E-03    -25.2628E-03     3.48986E-03    -25.2289E-03     50.3115E-03    -25.2293E-03     3.45633E-03
             120     91.4204E-09     96.5132E-03    -13.7836E+06    -57.3973E+06    -13.9171E+06    -2.29935E+06    -25.6811E-03     51.3466E-03    -25.6655E-03     3.49505E-03    -25.6467E-03     51.0999E-03    -25.6319E-03     3.46400E-03
             121    -74.8796E-09     95.5146E-03    -17.2538E+06    -65.2315E+06    -17.2305E+06    -2.19987E+06    -25.9875E-03     51.9525E-03    -25.9650E-03     3.44155E-03    -25.9542E-03     51.6764E-03    -25.9315E-03     3.41164E-03
             122     92.8440E-09     94.5161E-03    -20.9687E+06    -72.8673E+06    -21.0556E+06    -2.20636E+06    -26.2017E-03     52.3904E-03    -26.1887E-03     3.32504E-03    -26.1704E-03     52.0871E-03    -26.1579E-03     3.29490E-03
             123    -93.9193E-09     93.5169E-03    -24.3035E+06    -79.5258E+06    -24.3770E+06    -1.91813E+06    -26.3732E-03     52.7568E-03    -26.3836E-03     3.36850E-03    -26.3441E-03     52.4298E-03    -26.3549E-03     3.34205E-03
             124     70.9914E-09     92.5171E-03    -27.2101E+06    -85.5881E+06    -27.3410E+06    -1.55044E+06    -26.5017E-03     52.9909E-03    -26.4892E-03     3.43750E-03    -26.4740E-03     52.6422E-03    -26.4624E-03     3.41584E-03
             125    -33.1035E-09     91.5178E-03    -29.1127E+06    -91.1864E+06    -29.1812E+06    -1.33056E+06    -26.5685E-03     53.1106E-03    -26.5421E-03     3.39279E-03    -26.5396E-03     52.7393E-03    -26.5135E-03     3.37392E-03
             126     35.6570E-09     90.5180E-03    -30.8919E+06    -95.8517E+06    -30.8526E+06    -1.32671E+06    -26.6237E-03     53.2420E-03    -26.6184E-03     3.34321E-03    -26.5945E-03     52.8524E-03    -26.5888E-03     3.32431E-03
             127    -33.4713E-09     89.5183E-03    -32.9733E+06    -100.558E+06    -33.0289E+06    -1.39589E+06    -26.6651E-03     53.3280E-03    -26.6629E-03     3.34448E-03    -26.6363E-03     52.9210E-03    -26.6344E-03     3.32468E-03
             128     29.4822E-09     88.5184E-03    -34.2043E+06    -104.821E+06    -34.3044E+06    -1.05368E+06    -26.6971E-03     53.3745E-03    -26.6774E-03     3.38658E-03    -26.6665E-03     52.9499E-03    -26.6473E-03     3.37123E-03
             129     2.74680E-09     87.5186E-03    -34.8975E+06    -108.308E+06    -34.8679E+06    -950.533E+03    -26.7165E-03     53.4187E-03    -26.7021E-03     3.38235E-03    -26.6835E-03     52.9784E-03    -26.6688E-03     3.36831E-03
             130    -14.5982E-09     86.5186E-03    -34.9450E+06    -111.123E+06    -35.0703E+06    -667.214E+03    -26.7256E-03     53.4398E-03    -26.7142E-03     3.35333E-03    -26.6884E-03     52.9857E-03    -26.6777E-03     3.34296E-03
             131     39.8909E-09     85.5189E-03    -34.9288E+06    -113.548E+06    -34.8652E+06    -641.106E+03    -26.7402E-03     53.4751E-03    -26.7349E-03     3.35955E-03    -26.6997E-03     53.0086E-03    -26.6939E-03     3.34950E-03
             132    -60.2484E-09     84.5189E-03    -34.1868E+06    -115.471E+06    -34.4558E+06    -407.326E+03    -26.7492E-03     53.4958E-03    -26.7466E-03     3.37111E-03    -26.7028E-03     53.0180E-03    -26.7019E-03     3.36409E-03
             133     76.9764E-09     83.5189E-03    -34.7468E+06    -117.122E+06    -34.4714E+06    -348.793E+03    -26.7501E-03     53.4834E-03    -26.7332E-03     3.39635E-03    -26.7041E-03     52.9982E-03    -26.6854E-03     3.39012E-03
             134    -66.2188E-09     82.5192E-03    -35.0870E+06    -118.542E+06    -35.3209E+06    -428.678E+03    -26.7458E-03     53.4711E-03    -26.7254E-03     3.34541E-03    -26.6981E-03     52.9806E-03    -26.6792E-03     3.33808E-03
             135     83.5008E-09     81.5192E-03    -35.6232E+06    -119.300E+06    -35.6023E+06    -94.0809E+03    -26.7305E-03     53.4596E-03    -26.7290E-03     3.34040E-03    -26.6841E-03     52.9664E-03    -26.6824E-03     3.33740E-03
             136    -103.034E-09     80.5195E-03    -35.6158E+06    -119.596E+06    -35.6337E+06    -69.4478E+03    -26.7431E-03     53.4867E-03    -26.7436E-03     3.36577E-03    -26.6962E-03     52.9921E-03    -26.6967E-03     3.36313E-03
             137     116.353E-09     79.5194E-03    -35.0611E+06    -119.693E+06    -35.1366E+06     146.884E+03    -26.7576E-03     53.4957E-03    -26.7381E-03     3.38145E-03    -26.7084E-03     52.9991E-03    -26.6894E-03     3.38161E-03
             138    -101.586E-09     78.5196E-03    -34.5822E+06    -119.974E+06    -34.3395E+06    -63.2762E+03    -26.7320E-03     53.4579E-03    -26.7258E-03     3.38626E-03    -26.6812E-03     52.9580E-03    -26.6734E-03     3.38372E-03
             139     95.2253E-09     77.5198E-03    -34.1587E+06    -120.564E+06    -34.1733E+06    -382.577E+03    -26.7437E-03     53.4817E-03    -26.7381E-03     3.31020E-03    -26.6902E-03     52.9781E-03    -26.6846E-03     3.30345E-03
             140    -84.1341E-09     76.5200E-03    -33.7672E+06    -120.959E+06    -34.0555E+06     34.8635E+03    -26.7506E-03     53.5160E-03    -26.7653E-03     3.33259E-03    -26.6947E-03     53.0096E-03    -26.7113E-03     3.33125E-03
             141     38.9442E-09     75.5198E-03    -33.1264E+06    -120.708E+06    -32.8920E+06     161.670E+03    -26.7614E-03     53.5234E-03    -26.7620E-03     3.41372E-03    -26.7043E-03     53.0156E-03    -26.7034E-03     3.41409E-03
             142     2.42179E-09     74.5202E-03    -32.7000E+06    -120.858E+06    -32.8422E+06    -70.8061E+03    -26.7672E-03     53.5109E-03    -26.7437E-03     3.40057E-03    -26.7079E-03     53.0017E-03    -26.6852E-03     3.39792E-03
             143    -9.45699E-09     73.5201E-03    -32.6375E+06    -120.768E+06    -32.6145E+06     165.118E+03    -26.7514E-03     53.5110E-03    -26.7596E-03     3.35018E-03    -26.6922E-03     53.0018E-03    -26.7002E-03     3.35056E-03
             144    -2.64311E-09     72.5206E-03    -32.1561E+06    -120.928E+06    -32.1431E+06    -130.365E+03    -26.7478E-03     53.5250E-03    -26.7772E-03     3.31708E-03    -26.6866E-03     53.0137E-03    -26.7160E-03     3.31362E-03
             145    -41.7398E-09     71.5202E-03    -31.7557E+06    -121.038E+06    -31.9013E+06     172.248E+03    -26.7763E-03     53.5528E-03    -26.7765E-03     3.38769E-03    -26.7134E-03     53.0400E-03    -26.7145E-03     3.38820E-03
             146     78.8788E-09     70.5206E-03    -31.6091E+06    -120.702E+06    -31.3805E+06    -44.5861E+03    -26.7919E-03     53.5575E-03    -26.7656E-03     3.39205E-03    -26.7295E-03     53.0454E-03    -26.7016E-03     3.38970E-03
             147    -72.5355E-09     69.5204E-03    -31.5101E+06    -121.350E+06    -31.7262E+06    -51.0795E+03    -26.7538E-03     53.5163E-03    -26.7625E-03     3.34146E-03    -26.6894E-03     53.0013E-03    -26.6995E-03     3.33905E-03
             148     43.2595E-09     68.5209E-03    -31.0486E+06    -120.973E+06    -30.9262E+06     110.214E+03    -26.7720E-03     53.5703E-03    -26.7983E-03     3.37468E-03    -26.7070E-03     53.0554E-03    -26.7325E-03     3.37439E-03
             149    -63.8252E-09     67.5204E-03    -31.1490E+06    -120.788E+06    -31.3765E+06     80.3754E+03    -26.7913E-03     53.5862E-03    -26.7949E-03     3.34139E-03    -26.7264E-03     53.0730E-03    -26.7315E-03     3.34065E-03
             150     70.3098E-09     66.5210E-03    -31.3742E+06    -120.798E+06    -31.1692E+06     157.351E+03    -26.7832E-03     53.5639E-03    -26.7807E-03     3.37106E-03    -26.7198E-03     53.0507E-03    -26.7159E-03     3.37137E-03
             151    -75.2063E-09     65.5205E-03    -30.7650E+06    -120.556E+06    -30.9573E+06    -38.2354E+03    -26.7987E-03     53.5972E-03    -26.7984E-03     3.34604E-03    -26.7329E-03     53.0840E-03    -26.7338E-03     3.34377E-03
             152     73.3842E-09     64.5211E-03    -31.2294E+06    -120.752E+06    -31.0603E+06     26.2133E+03    -26.8135E-03     53.6267E-03    -26.8131E-03     3.32001E-03    -26.7496E-03     53.1133E-03    -26.7481E-03     3.31858E-03
             153    -73.9414E-09     63.5206E-03    -30.3860E+06    -120.363E+06    -30.5233E+06    -18.1502E+03    -26.8238E-03     53.6564E-03    -26.8326E-03     3.39335E-03    -26.7570E-03     53.1430E-03    -26.7666E-03     3.39139E-03
             154     52.3431E-09     62.5208E-03    -30.5427E+06    -120.549E+06    -30.6390E+06     271.938E+03    -26.7860E-03     53.6065E-03    -26.8206E-03     3.42102E-03    -26.7195E-03     53.0926E-03    -26.7547E-03     3.42283E-03
             155    -97.8568E-09     61.5207E-03    -30.6504E+06    -120.285E+06    -30.4676E+06     75.0014E+03    -26.7907E-03     53.5934E-03    -26.8027E-03     3.42437E-03    -26.7254E-03     53.0807E-03    -26.7362E-03     3.42364E-03
             156     119.151E-09     60.5209E-03    -30.6276E+06    -120.430E+06    -30.6778E+06    -134.873E+03    -26.8210E-03     53.6225E-03    -26.8016E-03     3.32169E-03    -26.7550E-03     53.1094E-03    -26.7359E-03     3.31815E-03
             157    -112.092E-09     59.5209E-03    -30.5651E+06    -120.635E+06    -30.5342E+06     32.8267E+03    -26.8060E-03     53.6175E-03    -26.8115E-03     3.37094E-03    -26.7396E-03     53.1030E-03    -26.7449E-03     3.36960E-03
             158     90.4894E-09     58.5207E-03    -30.4275E+06    -120.354E+06    -30.4779E+06     206.595E+03    -26.8038E-03     53.6099E-03    -26.8062E-03     3.44264E-03    -26.7372E-03     53.0966E-03    -26.7399E-03     3.44361E-03
             159     86.2956E-09     56.5209E-03    -30.3218E+06    -119.963E+06    -30.3870E+06    -87.5573E+03    -26.7768E-03     53.5722E-03    -26.7954E-03     3.28980E-03    -26.7104E-03     53.0605E-03    -26.7294E-03     3.28685E-03
             160    -131.884E-09     55.5213E-03    -30.5790E+06    -120.326E+06    -30.6434E+06    -88.3767E+03    -26.7652E-03     53.5633E-03    -26.7981E-03     3.29718E-03    -26.6992E-03     53.0505E-03    -26.7325E-03     3.29425E-03
             161     114.089E-09     54.5207E-03    -30.1823E+06    -120.037E+06    -30.2786E+06     100.808E+03    -26.7850E-03     53.5616E-03    -26.7766E-03     3.39193E-03    -26.7180E-03     53.0492E-03    -26.7102E-03     3.39150E-03
             162    -87.8745E-09     53.5215E-03    -30.4870E+06    -119.933E+06    -30.3293E+06     56.2351E+03    -26.7613E-03     53.5252E-03    -26.7639E-03     3.35914E-03    -26.6959E-03     53.0138E-03    -26.6975E-03     3.35813E-03
             163     53.6829E-09     52.5209E-03    -30.2650E+06    -119.943E+06    -30.3063E+06     1.53995E+03    -26.7393E-03     53.4912E-03    -26.7519E-03     3.37127E-03    -26.6728E-03     52.9794E-03    -26.6857E-03     3.36958E-03
             164    -47.3435E-09     51.5217E-03    -30.3326E+06    -120.017E+06    -30.2655E+06     15.5499E+03    -26.7188E-03     53.4638E-03    -26.7450E-03     3.33772E-03    -26.6526E-03     52.9517E-03    -26.6783E-03     3.33614E-03
             165    -9.15559E-09     50.5213E-03    -30.3387E+06    -119.782E+06    -30.4233E+06     13.8690E+03    -26.7174E-03     53.4544E-03    -26.7370E-03     3.34370E-03    -26.6513E-03     52.9437E-03    -26.6715E-03     3.34213E-03
             166     25.2461E-09     49.5220E-03    -30.2021E+06    -119.816E+06    -30.1904E+06     3.97748E+03    -26.7432E-03     53.4681E-03    -26.7249E-03     3.33535E-03    -26.6767E-03     52.9567E-03    -26.6583E-03     3.33364E-03
             167    -14.1658E-09     48.5217E-03    -30.3502E+06    -119.924E+06    -30.3552E+06     32.5832E+03    -26.7126E-03     53.4235E-03    -26.7109E-03     3.34347E-03    -26.6465E-03     52.9120E-03    -26.6448E-03     3.34213E-03
             168     844.562E-12     47.5223E-03    -30.2220E+06    -119.586E+06    -30.2228E+06     41.9317E+03    -26.6902E-03     53.3972E-03    -26.7070E-03     3.34561E-03    -26.6241E-03     52.8870E-03    -26.6409E-03     3.34440E-03
             169    -22.1478E-09     46.5223E-03    -30.2802E+06    -119.456E+06    -30.2940E+06     16.8494E+03    -26.6696E-03     53.3613E-03    -26.6918E-03     3.32951E-03    -26.6039E-03     52.8520E-03    -26.6261E-03     3.32796E-03
             170    -681.044E-12     45.5226E-03    -30.2671E+06    -119.310E+06    -30.2791E+06     137.528E+03    -26.6500E-03     53.2924E-03    -26.6424E-03     3.34499E-03    -26.5845E-03     52.7838E-03    -26.5769E-03     3.34505E-03
             171     31.5880E-09     44.5231E-03    -30.3806E+06    -119.247E+06    -30.1871E+06    -3.67591E+03    -26.6194E-03     53.2430E-03    -26.6237E-03     3.34608E-03    -26.5546E-03     52.7347E-03    -26.5576E-03     3.34431E-03
             172    -72.9000E-09     43.5232E-03    -30.5799E+06    -119.188E+06    -30.8523E+06     79.6180E+03    -26.5532E-03     53.1575E-03    -26.6043E-03     3.36338E-03    -26.4885E-03     52.6507E-03    -26.5414E-03     3.36270E-03
             173     16.2597E-09     42.5240E-03    -30.7584E+06    -118.967E+06    -30.6091E+06     210.300E+03    -26.5260E-03     53.0517E-03    -26.5256E-03     3.37618E-03    -26.4630E-03     52.5459E-03    -26.4616E-03     3.37723E-03
             174     37.5652E-09     41.5244E-03    -30.4605E+06    -119.056E+06    -30.4106E+06     6.80807E+03    -26.4748E-03     52.9236E-03    -26.4489E-03     3.37790E-03    -26.4104E-03     52.4167E-03    -26.3841E-03     3.37634E-03
             175    -50.5751E-09     40.5254E-03    -30.3517E+06    -119.081E+06    -30.4385E+06     6.89383E+03    -26.3730E-03     52.7653E-03    -26.3923E-03     3.25851E-03    -26.3080E-03     52.2581E-03    -26.3278E-03     3.25688E-03
             176     23.8978E-09     39.5263E-03    -30.3811E+06    -118.936E+06    -30.3459E+06    -87.9305E+03    -26.3096E-03     52.6519E-03    -26.3423E-03     3.17104E-03    -26.2450E-03     52.1454E-03    -26.2776E-03     3.16816E-03
             177    -58.8992E-09     38.5274E-03    -30.2982E+06    -118.764E+06    -30.3493E+06    -27.1304E+03    -26.2601E-03     52.5548E-03    -26.2947E-03     3.25141E-03    -26.1954E-03     52.0490E-03    -26.2303E-03     3.24939E-03
             178     27.8297E-09     37.5282E-03    -30.4780E+06    -118.833E+06    -30.5030E+06     101.414E+03    -26.1838E-03     52.3418E-03    -26.1580E-03     3.28278E-03    -26.1197E-03     51.8362E-03    -26.0940E-03     3.28248E-03
             179     43.3134E-09     36.5300E-03    -30.6807E+06    -118.668E+06    -30.6247E+06     232.176E+03    -26.0509E-03     52.0547E-03    -26.0039E-03     3.22900E-03    -25.9878E-03     51.5504E-03    -25.9404E-03     3.23041E-03
             180    -36.1965E-09     35.5315E-03    -30.6365E+06    -118.343E+06    -30.4597E+06    -107.084E+03    -25.9094E-03     51.8372E-03    -25.9278E-03     3.14867E-03    -25.8468E-03     51.3341E-03    -25.8641E-03     3.14567E-03
             181    -5.72872E-09     34.5335E-03    -30.3683E+06    -118.487E+06    -30.6762E+06    -61.2826E+03    -25.7885E-03     51.6077E-03    -25.8191E-03     3.12594E-03    -25.7241E-03     51.1038E-03    -25.7567E-03     3.12355E-03
             182    -14.0053E-09     33.5354E-03    -30.3705E+06    -118.133E+06    -30.2551E+06     295.332E+03    -25.6560E-03     51.2960E-03    -25.6400E-03     3.11469E-03    -25.5927E-03     50.7933E-03    -25.5759E-03     3.11696E-03
             183     58.6780E-09     32.5382E-03    -30.2679E+06    -117.612E+06    -30.1038E+06     142.231E+03    -25.4896E-03     50.9327E-03    -25.4432E-03     3.05721E-03    -25.4268E-03     50.4323E-03    -25.3793E-03     3.05751E-03
             184    -24.3057E-09     31.5409E-03    -30.4611E+06    -117.101E+06    -30.4814E+06     39.0300E+03    -25.2759E-03     50.5441E-03    -25.2682E-03     3.00140E-03    -25.2142E-03     50.0470E-03    -25.2067E-03     3.00037E-03
             185    -996.481E-12     30.5445E-03    -30.4749E+06    -116.838E+06    -30.4960E+06     68.3434E+03    -25.0648E-03     50.1370E-03    -25.0722E-03     2.95771E-03    -25.0036E-03     49.6413E-03    -25.0111E-03     2.95712E-03
             186     9.07279E-09     29.5478E-03    -30.2610E+06    -116.614E+06    -30.3100E+06     174.772E+03    -24.8393E-03     49.6675E-03    -24.8282E-03     2.95752E-03    -24.7776E-03     49.1723E-03    -24.7668E-03     2.95839E-03
             187    -2.15607E-09     28.5523E-03    -30.1917E+06    -116.088E+06    -30.0923E+06     131.078E+03    -24.5815E-03     49.1437E-03    -24.5623E-03     2.86013E-03    -24.5205E-03     48.6508E-03    -24.5006E-03     2.86044E-03
             188     26.4181E-09     27.5569E-03    -30.0247E+06    -115.669E+06    -30.0371E+06     180.042E+03    -24.2946E-03     48.5684E-03    -24.2739E-03     2.78711E-03    -24.2334E-03     48.0773E-03    -24.2128E-03     2.78810E-03
             189    -17.9688E-09     26.5623E-03    -29.7587E+06    -114.827E+06    -29.7099E+06     362.888E+03    -23.9737E-03     47.9375E-03    -23.9638E-03     2.74782E-03    -23.9129E-03     47.4496E-03    -23.9027E-03     2.75125E-03
             190     23.9575E-09     25.5683E-03    -29.5627E+06    -114.049E+06    -29.6217E+06     255.169E+03    -23.6365E-03     47.2611E-03    -23.6246E-03     2.64895E-03    -23.5760E-03     46.7767E-03    -23.5644E-03     2.65102E-03
             191    -12.7686E-09     24.5750E-03    -29.3976E+06    -113.556E+06    -29.3812E+06     96.8598E+03    -23.2738E-03     46.5279E-03    -23.2541E-03     2.54626E-03    -23.2136E-03     46.0454E-03    -23.1937E-03     2.54632E-03
             192     33.5697E-09     23.5825E-03    -29.0630E+06    -113.052E+06    -29.1265E+06     200.331E+03    -22.8850E-03     45.7462E-03    -22.8612E-03     2.45649E-03    -22.8241E-03     45.2653E-03    -22.8008E-03     2.45794E-03
             193    -16.0054E-09     22.5907E-03    -28.2939E+06    -111.817E+06    -28.4564E+06     517.707E+03    -22.4764E-03     44.9312E-03    -22.4548E-03     2.36156E-03    -22.4145E-03     44.4545E-03    -22.3939E-03     2.36718E-03
             194     32.1278E-09     21.5999E-03    -27.9978E+06    -110.097E+06    -27.8637E+06     571.172E+03    -22.0436E-03     44.0624E-03    -22.0188E-03     2.23487E-03    -21.9836E-03     43.5930E-03    -21.9579E-03     2.24123E-03
             195    -5.16934E-09     20.6098E-03    -27.3818E+06    -108.352E+06    -27.3349E+06     451.018E+03    -21.5917E-03     43.1496E-03    -21.5579E-03     2.12172E-03    -21.5319E-03     42.6873E-03    -21.4978E-03     2.12661E-03
             196     36.4119E-09     19.6208E-03    -26.5058E+06    -106.795E+06    -26.5290E+06     406.332E+03    -21.1047E-03     42.1794E-03    -21.0747E-03     1.97630E-03    -21.0439E-03     41.7223E-03    -21.0141E-03     1.98068E-03
             197    -16.7556E-09     18.6326E-03    -25.7828E+06    -105.298E+06    -25.8221E+06     450.841E+03    -20.5667E-03     41.1018E-03    -20.5351E-03     1.79915E-03    -20.5055E-03     40.6502E-03    -20.4741E-03     1.80417E-03
             198     51.1249E-09     17.6458E-03    -24.1915E+06    -103.341E+06    -24.3878E+06     648.497E+03    -19.9696E-03     39.9077E-03    -19.9381E-03     1.62381E-03    -19.9054E-03     39.4615E-03    -19.8751E-03     1.63147E-03
             199    -33.2020E-09     16.6598E-03    -22.6631E+06    -100.710E+06    -22.6938E+06     903.166E+03    -19.3036E-03     38.5567E-03    -19.2531E-03     1.44560E-03    -19.2380E-03     38.1190E-03    -19.1877E-03     1.45664E-03
             200     103.425E-09     15.6757E-03    -21.3356E+06    -98.0473E+06    -21.3341E+06     810.112E+03    -18.5645E-03     37.0306E-03    -18.4661E-03     1.27287E-03    -18.4981E-03     36.6022E-03    -18.3997E-03     1.28279E-03
             201    -238.535E-12     14.6928E-03    -19.6050E+06    -95.3704E+06    -19.6999E+06     887.045E+03    -17.7208E-03     35.3412E-03    -17.6205E-03     1.00770E-03    -17.6520E-03     34.9214E-03    -17.5522E-03     1.01866E-03
             202     73.1956E-09     13.7121E-03    -17.4462E+06    -92.4827E+06    -17.3222E+06     817.339E+03    -16.7593E-03     33.4635E-03    -16.7043E-03     733.804E-06    -16.6873E-03     33.0515E-03    -16.6315E-03     743.948E-06
             203    -47.2407E-09     12.7326E-03    -14.9026E+06    -90.0337E+06    -14.9323E+06     511.236E+03    -15.6937E-03     31.3482E-03    -15.6545E-03     533.990E-06    -15.6161E-03     30.9413E-03    -15.5770E-03     540.239E-06
             204     90.7651E-09     11.7561E-03    -15.6351E+06    -88.7468E+06    -15.5235E+06     256.296E+03    -14.5683E-03     29.0548E-03    -14.4865E-03     396.171E-06    -14.4953E-03     28.6562E-03    -14.4128E-03     399.136E-06
             205     12.6701E-09     10.7811E-03    -19.7199E+06    -88.5795E+06    -19.5331E+06    -191.619E+03    -13.5086E-03     26.9500E-03    -13.4414E-03     358.491E-06    -13.4505E-03     26.5640E-03    -13.3820E-03     355.642E-06
             206     5.74388E-09     9.80881E-03    -23.7133E+06    -89.4624E+06    -23.6482E+06    -347.000E+03    -12.8163E-03     25.6469E-03    -12.8306E-03     499.593E-06    -12.7708E-03     25.2683E-03    -12.7848E-03     494.728E-06
             207    -49.0013E-09     8.83620E-03    -25.3625E+06    -90.6920E+06    -25.1595E+06    -426.886E+03    -12.8187E-03     25.6477E-03    -12.8290E-03     781.450E-06    -12.7775E-03     25.2675E-03    -12.7865E-03     775.582E-06
             208     75.9870E-09     7.86394E-03    -23.7789E+06    -92.3590E+06    -23.7263E+06    -494.026E+03    -13.4647E-03     26.9735E-03    -13.5088E-03     1.08257E-03    -13.4153E-03     26.5806E-03    -13.4590E-03     1.07589E-03
             209    -180.803E-09     6.88860E-03    -20.6303E+06    -94.0740E+06    -20.6835E+06    -520.736E+03    -14.6037E-03     29.2863E-03    -14.6826E-03     1.26529E-03    -14.5405E-03     28.8758E-03    -14.6197E-03     1.25831E-03
             210     145.105E-09     5.91186E-03    -19.3116E+06    -95.9070E+06    -19.2742E+06    -565.989E+03    -16.0093E-03     32.0565E-03    -16.0472E-03     1.30819E-03    -15.9389E-03     31.6329E-03    -15.9765E-03     1.30064E-03
             211    -176.089E-09     4.93108E-03    -19.1795E+06    -97.1876E+06    -19.2870E+06    -211.954E+03    -17.4022E-03     34.8295E-03    -17.4273E-03     1.27695E-03    -17.3293E-03     34.3994E-03    -17.3551E-03     1.27403E-03
             212     161.345E-09     3.94891E-03    -18.5576E+06     -97.735E+06    -18.5535E+06    -120.255E+03    -18.6654E-03     37.3314E-03    -18.6661E-03     1.09421E-03    -18.5896E-03     36.8966E-03    -18.5902E-03     1.09248E-03
             213    -147.815E-09     2.96338E-03    -17.3569E+06    -98.2857E+06    -17.4040E+06    -86.9248E+03    -19.7187E-03     39.4250E-03    -19.7063E-03     936.508E-06    -19.6377E-03     38.9840E-03    -19.6257E-03     935.258E-06
             214     155.462E-09     1.97692E-03    -15.3949E+06    -98.1444E+06    -15.6222E+06     59.8537E+03    -20.4933E-03     40.9890E-03    -20.4957E-03     646.876E-06    -20.4053E-03     40.5433E-03    -20.4092E-03     647.548E-06
             215    -170.004E-09     988.592E-06    -14.7390E+06    -98.0210E+06    -14.6278E+06     150.503E+03    -20.9877E-03     41.9480E-03    -20.9603E-03     368.806E-06    -20.8980E-03     41.5006E-03    -20.8700E-03     370.734E-06
             216     881.026E-06     145.717E-18    -14.5214E+06    -98.2203E+06    -14.4249E+06     121.671E+03    -21.2438E-03     42.3998E-03    -21.1560E-03     319.717E-06    -21.1531E-03     41.9507E-03    -21.0646E-03     321.290E-06
             217     1.76236E-03     145.717E-18    -14.5143E+06    -98.8757E+06    -14.8538E+06    -36.7721E+03    -21.4455E-03     42.6934E-03    -21.2478E-03     513.567E-06    -21.3532E-03     42.2416E-03    -21.1577E-03     513.020E-06
             218     2.64284E-03     145.717E-18    -14.5506E+06    -99.2991E+06    -15.3689E+06    -138.163E+03    -21.7874E-03     43.1519E-03    -21.3644E-03     831.761E-06    -21.6939E-03     42.6987E-03    -21.2762E-03     829.869E-06
             219     3.52348E-03     145.717E-18    -14.7454E+06    -100.082E+06    -16.1222E+06    -21.6825E+03    -22.2775E-03     43.8021E-03    -21.5246E-03     1.11243E-03    -22.1827E-03     43.3464E-03    -21.4387E-03     1.11199E-03
             220     4.40326E-03     145.717E-18    -14.8801E+06    -101.511E+06    -18.1155E+06    -410.882E+03    -22.8894E-03     44.6136E-03    -21.7242E-03     1.44912E-03    -22.7903E-03     44.1539E-03    -21.6460E-03     1.44360E-03
             221     5.28252E-03     145.717E-18    -14.2920E+06    -102.739E+06    -20.1921E+06    -1.05853E+06    -23.6088E-03     45.5717E-03    -21.9630E-03     1.81547E-03    -23.5020E-03     45.1081E-03    -21.8942E-03     1.80145E-03
             222     6.16136E-03     145.717E-18    -13.0903E+06    -103.946E+06    -22.9408E+06    -1.67250E+06    -24.4891E-03     46.7281E-03    -22.2391E-03     2.29330E-03    -24.3705E-03     46.2607E-03    -22.1841E-03     2.27127E-03
             223     7.03862E-03     145.717E-18    -10.8478E+06    -104.482E+06    -27.5716E+06    -2.84830E+06    -25.4749E-03     48.0204E-03    -22.5455E-03     2.65873E-03    -25.3376E-03     47.5537E-03    -22.5162E-03     2.62118E-03
             224     7.91631E-03     145.717E-18    -7.65426E+06    -102.707E+06    -35.0395E+06    -3.57603E+06    -26.6060E-03     49.4803E-03    -22.8742E-03     3.42663E-03    -26.4446E-03     49.0287E-03    -22.8894E-03     3.37959E-03
             225     8.79057E-03     145.717E-18    -3.67256E+06    -97.9240E+06    -42.0799E+06    -4.74907E+06    -27.8845E-03     51.1273E-03    -23.2427E-03     4.05959E-03    -27.6999E-03     50.7041E-03    -23.3058E-03     3.99682E-03
             226     9.66718E-03     145.717E-18     59.7035E+03    -85.7885E+06    -45.9739E+06    -4.22116E+06    -29.2870E-03     52.9481E-03    -23.6611E-03     4.83814E-03    -29.0957E-03     52.5859E-03    -23.7667E-03     4.78169E-03
             227     10.5378E-03     145.717E-18     3.68216E+06    -68.0455E+06    -47.2094E+06    -4.53667E+06    -30.9371E-03     55.0717E-03    -24.1346E-03     6.56890E-03    -30.7517E-03     54.7948E-03    -24.2773E-03     6.50715E-03
             228     11.4110E-03     145.717E-18     7.57388E+06    -43.9689E+06    -42.7409E+06    -5.09585E+06    -32.7372E-03     57.4189E-03    -24.6817E-03     7.05055E-03    -32.5737E-03     57.2503E-03    -24.8426E-03     6.97994E-03
             229     12.2809E-03     145.717E-18     8.06459E+06    -9.86364E+06    -35.9494E+06    -602.002E+03    -35.2059E-03     60.5097E-03    -25.3038E-03     10.1813E-03    -35.0997E-03     60.5012E-03    -25.4809E-03     10.1669E-03
             230     13.1438E-03     145.717E-18     6.21972E+06     24.1546E+06    -22.4029E+06     1.47000E+06    -38.1668E-03     64.2292E-03    -26.0624E-03     13.3857E-03    -38.1389E-03     64.3743E-03    -26.2185E-03     13.3949E-03
             231     14.0126E-03     145.717E-18     3.59070E+06     48.1347E+06     3.15273E+06     830.561E+03    -42.2001E-03     69.2258E-03    -27.0257E-03     17.4916E-03    -42.2583E-03     69.4586E-03    -27.0850E-03     17.4831E-03
             232     14.8654E-03     145.717E-18     3.31234E+06     67.1343E+06     34.8561E+06    -1.42009E+06    -48.1767E-03     76.3940E-03    -28.2173E-03     27.5122E-03    -48.3115E-03     76.6771E-03    -28.1452E-03     27.4679E-03
             233     15.7154E-03     145.717E-18     5.15396E+06     83.6904E+06     65.4228E+06     531.106E+03    -53.4994E-03     83.1078E-03    -29.6084E-03     44.0649E-03    -53.7010E-03     83.4308E-03    -29.4101E-03     44.0251E-03
             234     16.5511E-03     145.717E-18     6.12770E+06     91.3733E+06     80.1941E+06     5.66805E+06    -53.5308E-03     84.4997E-03    -30.9689E-03     58.7185E-03    -53.8029E-03     84.8810E-03    -30.7093E-03     58.6384E-03
             235     17.4658E-03     1.02640E-03     -3.4875E+03     94.4708E+06     76.1041E+06     7.93794E+06    -56.7165E-03     86.7439E-03    -30.0274E-03     59.7641E-03    -57.0954E-03     87.2417E-03    -29.7839E-03     59.5516E-03
             236     17.5024E-03     2.08380E-03    -3.18073E+06     102.353E+06     76.3783E+06     5.58296E+06    -68.5806E-03     96.2139E-03    -27.6334E-03     53.9051E-03    -69.0537E-03     96.8245E-03    -27.3953E-03     53.4707E-03
             237     17.5126E-03     3.14434E-03    -2.05376E+06     108.212E+06     81.6298E+06     2.98390E+06    -71.9780E-03     98.5556E-03    -26.5775E-03     48.3468E-03    -72.4998E-03     99.2189E-03    -26.3233E-03     47.8081E-03
             238     17.5238E-03     4.18419E-03    -2.76074E+06     111.019E+06     84.1961E+06     2.47487E+06    -65.9253E-03     92.1407E-03    -26.2154E-03     44.2609E-03    -66.4665E-03     92.8208E-03    -25.9514E-03     43.8109E-03
             239     17.5266E-03     5.21696E-03    -200.604E+03     115.532E+06     88.1603E+06    -472.046E+03    -63.5462E-03     89.5625E-03    -26.0163E-03     39.9235E-03    -64.0722E-03     90.2431E-03    -25.7427E-03     39.4927E-03
             240     17.5279E-03     6.26355E-03    -1.21701E+06     116.268E+06     88.0759E+06    -432.613E+03    -62.4807E-03     88.4594E-03    -25.9787E-03     43.6114E-03    -63.0356E-03     89.1689E-03    -25.7052E-03     43.1970E-03
             241     17.5271E-03     7.29948E-03    -2.72049E+06     115.421E+06     86.1975E+06     294.220E+03    -58.2507E-03     84.3361E-03    -26.0854E-03     47.1370E-03    -58.8281E-03     85.0638E-03    -25.8178E-03     46.7970E-03
             242     17.5270E-03     8.32694E-03    -2.73203E+06     115.497E+06     85.4824E+06     156.183E+03    -53.4266E-03     79.6596E-03    -26.2330E-03     45.5847E-03    -53.9957E-03     80.3808E-03    -25.9691E-03     45.3333E-03
             243     17.5257E-03     9.34926E-03    -2.68469E+06     115.896E+06     85.2770E+06     576.461E+03    -50.8197E-03     77.1501E-03    -26.3304E-03     45.5858E-03    -51.3869E-03     77.8720E-03    -26.0681E-03     45.3933E-03
             244     17.5260E-03     10.3768E-03    -2.21980E+06     116.752E+06     85.6437E+06     758.648E+03    -47.6750E-03     74.1073E-03    -26.4323E-03     44.6851E-03    -48.2373E-03     74.8280E-03    -26.1702E-03     44.5569E-03
             245     17.5251E-03     11.3922E-03    -2.08557E+06     117.143E+06     85.6099E+06     404.446E+03    -44.7211E-03     71.2374E-03    -26.5164E-03     44.2156E-03    -45.2826E-03     71.9587E-03    -26.2552E-03     44.1395E-03
             246     17.5259E-03     12.4078E-03    -3.14307E+06     116.423E+06     84.9131E+06    -311.206E+03    -44.1073E-03     70.6489E-03    -26.5416E-03     40.8351E-03    -44.6561E-03     71.3535E-03    -26.2813E-03     40.7742E-03
             247     17.5244E-03     13.4276E-03    -3.37626E+06     116.167E+06     84.4932E+06     910.120E+03    -41.6387E-03     68.2281E-03    -26.5894E-03     40.0774E-03    -42.1827E-03     68.9275E-03    -26.3304E-03     40.0768E-03
             248     17.5275E-03     14.4391E-03    -2.17630E+06     117.419E+06     85.4422E+06    -200.364E+03    -39.1879E-03     65.7947E-03    -26.6068E-03     40.6564E-03    -39.7316E-03     66.4996E-03    -26.3467E-03     40.6828E-03
             249     17.5259E-03     15.4505E-03    -390.110E+03     119.650E+06     87.8053E+06    -698.113E+03    -38.6061E-03     65.1930E-03    -26.5869E-03     40.8861E-03    -39.1525E-03     65.9084E-03    -26.3208E-03     40.9251E-03
             250     17.5287E-03     16.4684E-03     31.8343E+03     120.990E+06     88.6696E+06     437.500E+03    -37.0730E-03     63.6762E-03    -26.6032E-03     45.2621E-03    -37.6476E-03     64.4237E-03    -26.3354E-03     45.3539E-03
             251     17.5265E-03     17.4779E-03    -4.21322E+06     118.295E+06     85.1382E+06     -274.37E+03    -36.4943E-03     63.1067E-03    -26.6124E-03     48.1180E-03    -37.1012E-03     63.8716E-03    -26.3522E-03     48.2283E-03
             252     17.5281E-03     18.4865E-03    -5.36587E+06     117.532E+06     83.9740E+06     847.620E+03    -36.9243E-03     63.5189E-03    -26.5946E-03     48.0578E-03    -37.5331E-03     64.2824E-03    -26.3374E-03     48.1853E-03
             253     17.5274E-03     19.5012E-03    -4.24983E+06     119.383E+06     85.3408E+06     1.89298E+06    -35.4640E-03     62.0894E-03    -26.6254E-03     51.3009E-03    -36.0914E-03     62.8783E-03    -26.3657E-03     51.4799E-03
             254     17.5279E-03     20.5120E-03    -3.38132E+06     121.254E+06     86.4098E+06     1.80696E+06    -32.1850E-03     58.8790E-03    -26.6940E-03     55.7708E-03    -32.8428E-03     59.7048E-03    -26.4329E-03     56.0147E-03
             255     17.5288E-03     21.5127E-03    -1.26137E+06     123.834E+06     88.7745E+06     408.124E+03    -30.4182E-03     57.1288E-03    -26.7106E-03     56.3513E-03    -31.0772E-03     57.9654E-03    -26.4444E-03     56.6110E-03
             256     17.5288E-03     22.5177E-03    -662.091E+03     124.533E+06     89.4698E+06    -200.797E+03    -30.7635E-03     57.4355E-03    -26.6719E-03     54.8740E-03    -31.4129E-03     58.2651E-03    -26.4042E-03     55.1229E-03
             257     17.5301E-03     23.5208E-03    -961.327E+03     124.651E+06     89.3699E+06    -1.15408E+06    -31.2182E-03     57.8706E-03    -26.6524E-03     53.8771E-03    -31.8666E-03     58.6990E-03    -26.3849E-03     54.1120E-03
             258     17.5280E-03     24.5280E-03    -2.69042E+06     123.620E+06     88.0899E+06    -67.0469E+03    -30.5071E-03     57.1822E-03    -26.6751E-03     53.5050E-03    -31.1591E-03     58.0080E-03    -26.4100E-03     53.7707E-03
             259     17.5303E-03     25.5289E-03    -3.89334E+06     122.650E+06     86.6054E+06     1.00727E+06    -30.2056E-03     56.8649E-03    -26.6594E-03     53.9134E-03    -30.8557E-03     57.6856E-03    -26.3985E-03     54.1996E-03
             260     17.5291E-03     26.5328E-03    -3.32303E+06     123.662E+06      87.358E+06     14.7472E+03    -31.0905E-03     57.7250E-03    -26.6345E-03     53.0274E-03    -31.7399E-03     58.5485E-03    -26.3722E-03     53.2925E-03
             261     17.5295E-03     27.5423E-03    -1.31944E+06     126.207E+06     89.8665E+06     979.124E+03    -28.4000E-03     55.1082E-03    -26.7083E-03     56.1321E-03    -29.0706E-03     55.9617E-03    -26.4400E-03     56.4645E-03
             262     17.5302E-03     28.5419E-03     92.4046E+03     127.961E+06     91.2304E+06     728.473E+03    -24.5999E-03     51.3696E-03    -26.7697E-03     57.7205E-03    -25.2754E-03     52.2352E-03    -26.4993E-03     58.1126E-03
             263     17.5311E-03     29.5318E-03    -2.82232E+06     125.326E+06     88.3552E+06    -1.73416E+06    -28.5465E-03     55.2046E-03    -26.6581E-03     55.4903E-03    -29.2152E-03     56.0524E-03    -26.3939E-03     55.7903E-03
             264     17.5287E-03     30.5425E-03    -3.55577E+06     124.493E+06     87.7407E+06    -531.217E+03    -31.4115E-03     58.0051E-03    -26.5935E-03     53.5908E-03    -32.0721E-03     58.8416E-03    -26.3302E-03     53.8541E-03
             265     17.5317E-03     31.5522E-03    -934.333E+03     127.834E+06     90.7944E+06     807.276E+03    -26.2586E-03     52.9841E-03    -26.7255E-03     57.2752E-03    -26.9424E-03     53.8561E-03    -26.4556E-03     57.6548E-03
             266     17.5287E-03     32.5412E-03    -2.54393E+06     127.010E+06     89.4045E+06     624.085E+03    -26.0044E-03     52.7443E-03    -26.7399E-03     60.3383E-03    -26.7093E-03     53.6320E-03    -26.4734E-03     60.7377E-03
             267     17.5311E-03     33.5475E-03    -2.30438E+06     126.919E+06     89.3699E+06     728.179E+03    -27.7818E-03     54.4694E-03    -26.6876E-03     57.4411E-03    -28.4655E-03     55.3364E-03    -26.4214E-03     57.7941E-03
             268     17.5296E-03     34.5483E-03    -621.460E+03     128.834E+06     91.2080E+06     261.788E+03    -25.9853E-03     52.7150E-03    -26.7297E-03     57.2818E-03    -26.6683E-03     53.5886E-03    -26.4595E-03     57.6619E-03
             269     17.5308E-03     35.5421E-03    -1.67689E+06     127.809E+06     90.1512E+06    -1.25162E+06    -26.8983E-03     53.5946E-03    -26.6963E-03     57.1539E-03    -27.5815E-03     54.4642E-03    -26.4285E-03     57.5009E-03
             270     17.5304E-03     36.5486E-03    -2.05558E+06     127.561E+06     90.0409E+06    -1.27242E+06    -27.6865E-03     54.3620E-03    -26.6755E-03     55.7508E-03    -28.3620E-03     55.2220E-03    -26.4072E-03     56.0781E-03
             271     17.5299E-03     37.5488E-03    -4.07442E+06     126.192E+06     88.2153E+06     878.817E+03    -27.0697E-03     53.7864E-03    -26.7167E-03     56.3150E-03    -27.7551E-03     54.6497E-03    -26.4527E-03     56.6934E-03
             272     17.5293E-03     38.5455E-03    -3.24182E+06     126.621E+06     88.4463E+06     1.21808E+06    -26.8302E-03     53.5366E-03    -26.7064E-03     57.0080E-03    -27.5123E-03     54.4004E-03    -26.4431E-03     57.3865E-03
             273     17.5322E-03     39.5529E-03     836.646E+03     130.487E+06     92.6250E+06    -1.05973E+06    -24.5174E-03     51.2450E-03    -26.7276E-03     57.2218E-03    -25.1937E-03     52.1190E-03    -26.4549E-03     57.6035E-03
             274     17.5303E-03     40.5426E-03    -1.97867E+06     128.840E+06     90.7002E+06    -2.02600E+06    -25.4690E-03     52.1915E-03    -26.7225E-03     57.2220E-03    -26.1579E-03     53.0679E-03    -26.4529E-03     57.5940E-03
             275     17.5296E-03     41.5454E-03    -6.35358E+06     124.383E+06     86.0829E+06     1.63493E+06    -28.3587E-03     55.0444E-03    -26.6857E-03     54.0639E-03    -29.0341E-03     55.8893E-03    -26.4264E-03     54.4256E-03
             276     17.5295E-03     42.5499E-03    -3.62889E+06     126.559E+06     88.0145E+06     2.28591E+06    -26.3985E-03     53.1216E-03    -26.7230E-03     55.0729E-03    -27.0703E-03     53.9745E-03    -26.4612E-03     55.4662E-03
             277     17.5316E-03     43.5447E-03    -1.14873E+06     129.541E+06     90.8677E+06    -596.827E+03    -25.5255E-03     52.2599E-03    -26.7344E-03     56.7452E-03    -26.2049E-03     53.1316E-03    -26.4663E-03     57.1236E-03
             278     17.5288E-03     44.5490E-03    -1.88947E+06     129.104E+06     90.4287E+06    -326.770E+03    -26.1003E-03     52.8226E-03    -26.7223E-03     57.2105E-03    -26.7867E-03     53.6985E-03    -26.4547E-03     57.5879E-03
             279     17.5320E-03     45.5463E-03    -1.37456E+06     129.857E+06     91.0302E+06    -327.848E+03    -25.6121E-03     52.3403E-03    -26.7282E-03     57.9557E-03    -26.3036E-03     53.2239E-03    -26.4593E-03     58.3430E-03
             280     17.5289E-03     46.5458E-03    -1.90344E+06     129.415E+06     90.6746E+06    -121.984E+03    -26.0609E-03     52.7840E-03    -26.7231E-03     57.5388E-03    -26.7515E-03     53.6644E-03    -26.4546E-03     57.9225E-03
             281     17.5315E-03     47.5467E-03    -1.12666E+06     129.898E+06     91.0501E+06     517.045E+03    -24.9853E-03     51.7195E-03    -26.7342E-03     56.1306E-03    -25.6618E-03     52.5892E-03    -26.4657E-03     56.5263E-03
             282     17.5305E-03     48.5402E-03    -1.77557E+06     129.552E+06     90.6109E+06    -1.04500E+06    -26.2554E-03     52.9730E-03    -26.7176E-03     54.4461E-03    -26.9218E-03     53.8304E-03    -26.4498E-03     54.8014E-03
             283     17.5286E-03     49.5435E-03    -4.04933E+06     127.267E+06     88.1749E+06     343.027E+03    -28.2018E-03     54.8882E-03    -26.6865E-03     52.5648E-03    -28.8625E-03     55.7308E-03    -26.4243E-03     52.8997E-03
             284     17.5316E-03     50.5458E-03    -4.50939E+06     127.558E+06     87.9091E+06     203.844E+03    -26.9577E-03     53.6679E-03    -26.7103E-03     56.1349E-03    -27.6462E-03     54.5384E-03    -26.4492E-03     56.5040E-03
             285     17.5281E-03     51.5509E-03    -3.84834E+06     128.951E+06     88.9531E+06     1.10984E+06    -25.2541E-03     52.0288E-03    -26.7747E-03     59.6727E-03    -25.9666E-03     52.9277E-03    -26.5114E-03     60.1021E-03
             286     17.5310E-03     52.5449E-03    -780.909E+03     131.477E+06     91.5400E+06     1.90160E+06    -23.8471E-03     50.6388E-03    -26.7917E-03     60.8676E-03    -24.5540E-03     51.5445E-03    -26.5235E-03     61.3168E-03
             287     17.5305E-03     53.5417E-03     1.22857E+06     133.217E+06     93.4847E+06    -1.46040E+06    -24.8116E-03     51.5581E-03    -26.7465E-03     57.8386E-03    -25.4951E-03     52.4480E-03    -26.4740E-03     58.2166E-03
             288     17.5302E-03     54.5408E-03    -1.35994E+06     131.043E+06     91.4259E+06    -2.28769E+06    -26.3493E-03     53.0774E-03    -26.7281E-03     53.8121E-03    -27.0185E-03     53.9420E-03    -26.4590E-03     54.1517E-03
             289     17.5294E-03     55.5374E-03    -4.36235E+06     127.959E+06     88.3080E+06    -397.750E+03    -27.7236E-03     54.4170E-03    -26.6934E-03     53.5092E-03    -28.3908E-03     55.2670E-03    -26.4311E-03     53.8445E-03
             290     17.5308E-03     56.5448E-03    -2.37705E+06     129.467E+06     89.8103E+06     747.981E+03    -26.6669E-03     53.3709E-03    -26.7040E-03     52.1338E-03    -27.3167E-03     54.2115E-03    -26.4392E-03     52.4881E-03
             291     17.5300E-03     57.5396E-03    -2.39627E+06     130.208E+06     90.1881E+06     494.595E+03    -25.9183E-03     52.6639E-03    -26.7456E-03     53.4107E-03    -26.5813E-03     53.5191E-03    -26.4800E-03     53.7890E-03
             292     876.167E-06     58.5241E-03    -30.1787E+06    -120.704E+06    -29.6150E+06     112.470E+03    -26.8075E-03     53.6151E-03    -26.8076E-03     5.63313E-03    -26.7405E-03     53.0984E-03    -26.7369E-03     5.63164E-03
             293     1.75259E-03     58.5315E-03    -29.3540E+06    -120.097E+06    -27.3854E+06     77.1281E+03    -26.8238E-03     53.6362E-03    -26.8124E-03     10.3092E-03    -26.7572E-03     53.1185E-03    -26.7326E-03     10.3046E-03
             294     2.62874E-03     58.5437E-03    -28.1536E+06    -118.068E+06    -24.0222E+06     116.926E+03    -26.8420E-03     53.6629E-03    -26.8209E-03     15.2765E-03    -26.7778E-03     53.1493E-03    -26.7290E-03     15.2693E-03
             295     3.50510E-03     58.5606E-03    -26.6663E+06    -115.281E+06    -19.8964E+06     229.727E+03    -26.8633E-03     53.6924E-03    -26.8291E-03     20.2755E-03    -26.8025E-03     53.1854E-03    -26.7228E-03     20.2660E-03
             296     4.38135E-03     58.5822E-03    -24.8684E+06    -111.546E+06    -15.2358E+06     331.405E+03    -26.9046E-03     53.7416E-03    -26.8370E-03     25.2520E-03    -26.8484E-03     53.2452E-03    -26.7153E-03     25.2394E-03
             297     5.25771E-03     58.6085E-03    -23.1139E+06    -107.497E+06    -10.4964E+06     257.524E+03    -26.9441E-03     53.7880E-03    -26.8440E-03     30.2112E-03    -26.8937E-03     53.3045E-03    -26.7070E-03     30.1923E-03
             298     6.13405E-03     58.6397E-03    -20.9272E+06    -102.538E+06    -6.12534E+06     329.773E+03    -27.0086E-03     53.8551E-03    -26.8465E-03     35.1154E-03    -26.9637E-03     53.3896E-03    -26.6981E-03     35.0907E-03
             299     7.01028E-03     58.6753E-03    -18.6593E+06    -98.1653E+06    -1.82402E+06     541.892E+03    -27.0926E-03     53.9429E-03    -26.8503E-03     39.9530E-03    -27.0529E-03     53.4937E-03    -26.6900E-03     39.9228E-03
             300     7.88681E-03     58.7157E-03    -16.6186E+06    -93.3498E+06     1.10423E+06     484.911E+03    -27.1434E-03     53.9893E-03    -26.8459E-03     44.6496E-03    -27.1103E-03     53.5626E-03    -26.6809E-03     44.6088E-03
             301     8.76313E-03     58.7602E-03    -14.7628E+06    -85.9856E+06     2.04565E+06     367.170E+03    -27.2627E-03     54.0910E-03    -26.8283E-03     49.1981E-03    -27.2402E-03     53.7049E-03    -26.6720E-03     49.1436E-03
             302     9.63945E-03     58.8093E-03    -13.2152E+06    -78.3403E+06     2.37012E+06     470.174E+03    -27.3249E-03     54.1331E-03    -26.8082E-03     53.6686E-03    -27.3170E-03     53.7933E-03    -26.6636E-03     53.6011E-03
             303     10.5160E-03     58.8623E-03    -11.8436E+06    -70.1879E+06     1.29787E+06     517.763E+03    -27.3616E-03     54.1387E-03    -26.7771E-03     58.1739E-03    -27.3727E-03     53.8548E-03    -26.6517E-03     58.0899E-03
             304     11.3925E-03     58.9200E-03    -10.9462E+06    -58.2931E+06     431.653E+03     459.326E+03    -27.5195E-03     54.2620E-03    -26.7424E-03     63.0066E-03    -27.5651E-03     54.0605E-03    -26.6399E-03     62.9008E-03
             305     12.2687E-03     58.9821E-03    -10.2272E+06    -43.6781E+06    -1.06965E+06     551.465E+03    -27.5881E-03     54.2900E-03    -26.7020E-03     68.1540E-03    -27.6830E-03     54.1968E-03    -26.6292E-03     68.0261E-03
             306     13.1459E-03     59.0495E-03    -10.0306E+06    -23.8750E+06    -5.70847E+06     428.509E+03    -27.8269E-03     54.4679E-03    -26.6410E-03     74.5601E-03    -28.0037E-03     54.5409E-03    -26.6204E-03     74.4006E-03
             307     14.0207E-03     59.1243E-03    -9.62975E+06     20.9290E+06    -9.35996E+06     788.861E+03    -28.1731E-03     54.7226E-03    -26.5495E-03     88.2980E-03    -28.5326E-03     55.1494E-03    -26.6127E-03     88.1162E-03
             308     14.8989E-03     59.2171E-03    -8.19024E+06     78.8282E+06    -2.64263E+06     1.41393E+06    -28.8955E-03     55.3787E-03    -26.4832E-03     112.616E-03    -29.6946E-03     56.4363E-03    -26.5989E-03     112.449E-03
             309     15.7739E-03     59.3396E-03    -7.06330E+06     122.514E+06     41.2067E+06     733.459E+03    -30.0290E-03     56.6486E-03    -26.6196E-03     142.113E-03    -31.6667E-03     58.5764E-03    -26.5809E-03     142.219E-03
             310     16.6465E-03     59.4849E-03    -5.48603E+06     135.181E+06     83.1662E+06    -217.851E+03    -27.6191E-03     54.3870E-03    -26.7679E-03     107.036E-03    -29.0471E-03     56.0342E-03    -26.5402E-03     107.416E-03
             311     876.331E-06     59.5240E-03    -30.2695E+06    -120.777E+06    -29.7549E+06     70.8697E+03    -26.8114E-03     53.6233E-03    -26.8118E-03     5.61402E-03    -26.7446E-03     53.1066E-03    -26.7416E-03     5.61199E-03
             312     1.75246E-03     59.5315E-03    -29.5099E+06    -120.043E+06    -27.4992E+06     87.4766E+03    -26.8244E-03     53.6402E-03    -26.8158E-03     10.3152E-03    -26.7585E-03     53.1231E-03    -26.7364E-03     10.3107E-03
             313     2.62880E-03     59.5437E-03    -28.3592E+06    -118.163E+06    -24.1549E+06     155.154E+03    -26.8427E-03     53.6662E-03    -26.8235E-03     15.2755E-03    -26.7791E-03     53.1525E-03    -26.7318E-03     15.2688E-03
             314     3.50503E-03     59.5605E-03    -26.8348E+06    -115.353E+06    -19.9144E+06     257.052E+03    -26.8702E-03     53.7027E-03    -26.8326E-03     20.2713E-03    -26.8101E-03     53.1956E-03    -26.7260E-03     20.2622E-03
             315     4.38139E-03     59.5822E-03    -25.0155E+06    -111.684E+06    -15.3337E+06     352.424E+03    -26.9164E-03     53.7577E-03    -26.8414E-03     25.2540E-03    -26.8605E-03     53.2611E-03    -26.7198E-03     25.2417E-03
             316     5.25761E-03     59.6085E-03    -22.9837E+06    -107.340E+06    -10.5073E+06     462.228E+03    -26.9679E-03     53.8180E-03    -26.8501E-03     30.1919E-03    -26.9171E-03     53.3350E-03    -26.7137E-03     30.1756E-03
             317     6.13397E-03     59.6396E-03    -21.1567E+06    -102.590E+06    -6.16692E+06     347.615E+03    -27.0144E-03     53.8690E-03    -26.8546E-03     35.1236E-03    -26.9705E-03     53.4037E-03    -26.7060E-03     35.0992E-03
             318     7.01039E-03     59.6754E-03    -19.0404E+06    -98.3039E+06    -1.92036E+06     382.439E+03    -27.0803E-03     53.9377E-03    -26.8573E-03     39.9565E-03    -27.0421E-03     53.4885E-03    -26.6968E-03     39.9244E-03
             319     7.88662E-03     59.7155E-03    -16.9326E+06    -93.0848E+06     1.02947E+06     424.082E+03    -27.1823E-03     54.0354E-03    -26.8531E-03     44.6299E-03    -27.1510E-03     53.6106E-03    -26.6885E-03     44.5882E-03
             320     8.76306E-03     59.7602E-03    -15.0511E+06    -85.7650E+06     1.94333E+06     417.175E+03    -27.2657E-03     54.1027E-03    -26.8370E-03     49.2396E-03    -27.2447E-03     53.7182E-03    -26.6811E-03     49.1857E-03
             321     9.63943E-03     59.8093E-03    -13.4344E+06    -78.5883E+06     2.06592E+06     435.142E+03    -27.3011E-03     54.1160E-03    -26.8149E-03     53.5934E-03    -27.2934E-03     53.7756E-03    -26.6712E-03     53.5256E-03
             322     10.5158E-03     59.8620E-03    -12.2273E+06    -70.4418E+06     871.629E+03     369.804E+03    -27.4070E-03     54.1906E-03    -26.7836E-03     58.2542E-03    -27.4191E-03     53.9067E-03    -26.6594E-03     58.1681E-03
             323     11.3923E-03     59.9199E-03    -11.1810E+06    -58.0684E+06     470.650E+03     483.455E+03    -27.5571E-03     54.3101E-03    -26.7530E-03     63.0263E-03    -27.6042E-03     54.1100E-03    -26.6502E-03     62.9209E-03
             324     12.2690E-03     59.9820E-03    -10.5013E+06    -43.5424E+06    -1.01755E+06     592.806E+03    -27.6861E-03     54.4031E-03    -26.7170E-03     68.0536E-03    -27.7832E-03     54.3113E-03    -26.6438E-03     67.9253E-03
             325     13.1446E-03     60.0495E-03    -9.97896E+06    -23.9787E+06    -5.78905E+06     497.453E+03    -27.7258E-03     54.3802E-03    -26.6543E-03     74.7162E-03    -27.9013E-03     54.4518E-03    -26.6340E-03     74.5589E-03
             326     14.0228E-03     60.1243E-03    -9.55515E+06     21.0330E+06    -8.70740E+06     188.667E+03    -28.1627E-03     54.7240E-03    -26.5613E-03     88.5022E-03    -28.5242E-03     55.1515E-03    -26.6215E-03     88.3123E-03
             327     14.8975E-03     60.2174E-03    -8.58019E+06     77.9618E+06    -3.81271E+06     136.979E+03    -28.3238E-03     54.7950E-03    -26.4712E-03     112.238E-03    -29.1132E-03     55.8418E-03    -26.5908E-03     112.063E-03
             328     15.7774E-03     60.3378E-03    -5.38356E+06     123.476E+06     41.4874E+06     880.309E+03    -28.7904E-03     55.3484E-03    -26.5580E-03     143.012E-03    -30.4231E-03     57.2799E-03    -26.5218E-03     143.142E-03
             329     16.6582E-03     60.4893E-03    -4.44193E+06     136.673E+06     84.5955E+06     1.24714E+06    -28.4495E-03     55.1480E-03    -26.6986E-03     107.885E-03    -29.8856E-03     56.8083E-03    -26.4673E-03     108.274E-03
             330     876.180E-06     60.5240E-03    -30.2990E+06    -120.707E+06    -29.7574E+06    -8.67823E+03    -26.8177E-03     53.6257E-03    -26.8080E-03     5.60046E-03    -26.7512E-03     53.1094E-03    -26.7378E-03     5.59738E-03
             331     1.75254E-03     60.5316E-03    -29.5528E+06    -120.176E+06    -27.4893E+06     200.903E+03    -26.8231E-03     53.6400E-03    -26.8169E-03     10.3260E-03    -26.7572E-03     53.1223E-03    -26.7372E-03     10.3230E-03
             332     2.62877E-03     60.5435E-03    -28.4330E+06    -118.168E+06    -24.0454E+06     248.694E+03    -26.8494E-03     53.6749E-03    -26.8255E-03     15.2714E-03    -26.7863E-03     53.1611E-03    -26.7331E-03     15.2659E-03
             333     3.50507E-03     60.5606E-03    -26.8608E+06    -115.439E+06    -19.8884E+06     271.218E+03    -26.8853E-03     53.7219E-03    -26.8366E-03     20.2658E-03    -26.8253E-03     53.2144E-03    -26.7297E-03     20.2568E-03
             334     4.38128E-03     60.5821E-03    -25.0559E+06    -111.815E+06    -15.3852E+06     375.320E+03    -26.9163E-03     53.7624E-03    -26.8461E-03     25.2548E-03    -26.8604E-03     53.2651E-03    -26.7245E-03     25.2428E-03
             335     5.25768E-03     60.6086E-03    -23.1065E+06    -107.486E+06    -10.7524E+06     474.155E+03    -26.9753E-03     53.8291E-03    -26.8537E-03     30.2268E-03    -26.9246E-03     53.3459E-03    -26.7181E-03     30.2106E-03
             336     6.13390E-03     60.6395E-03    -20.9795E+06    -102.300E+06    -5.98968E+06     586.783E+03    -27.0347E-03     53.8952E-03    -26.8605E-03     35.1129E-03    -26.9905E-03     53.4308E-03    -26.7117E-03     35.0915E-03
             337     7.01024E-03     60.6753E-03    -19.0980E+06    -98.3896E+06    -1.86805E+06     436.025E+03    -27.0916E-03     53.9564E-03    -26.8648E-03     39.9393E-03    -27.0536E-03     53.5068E-03    -26.7038E-03     39.9079E-03
             338     7.88670E-03     60.7156E-03    -17.0632E+06    -93.0360E+06     788.130E+03     403.937E+03    -27.1898E-03     54.0491E-03    -26.8593E-03     44.6744E-03    -27.1589E-03     53.6251E-03    -26.6957E-03     44.6325E-03
             339     8.76289E-03     60.7603E-03    -15.3027E+06    -85.6916E+06     1.71159E+06     502.294E+03    -27.2296E-03     54.0710E-03    -26.8414E-03     49.2189E-03    -27.2096E-03     53.6875E-03    -26.6864E-03     49.1663E-03
             340     9.63942E-03     60.8090E-03    -13.9266E+06    -78.7379E+06     1.59924E+06     440.903E+03    -27.2968E-03     54.1133E-03    -26.8165E-03     53.6258E-03    -27.2906E-03     53.7735E-03    -26.6741E-03     53.5582E-03
             341     10.5159E-03     60.8620E-03    -12.7403E+06    -70.2276E+06     547.706E+03     485.081E+03    -27.4681E-03     54.2556E-03    -26.7874E-03     58.3328E-03    -27.4827E-03     53.9740E-03    -26.6644E-03     58.2480E-03
             342     11.3922E-03     60.9199E-03    -12.0317E+06    -58.1574E+06    -196.421E+03     501.184E+03    -27.5940E-03     54.3534E-03    -26.7594E-03     63.1227E-03    -27.6442E-03     54.1550E-03    -26.6586E-03     63.0174E-03
             343     12.2683E-03     60.9820E-03    -11.1202E+06    -43.4108E+06    -1.68634E+06     262.483E+03    -27.6730E-03     54.3961E-03    -26.7230E-03     68.2148E-03    -27.7726E-03     54.3069E-03    -26.6524E-03     68.0823E-03
             344     13.1454E-03     61.0495E-03    -10.1847E+06    -23.9207E+06    -6.22165E+06     346.784E+03    -27.7546E-03     54.4156E-03    -26.6610E-03     74.6099E-03    -27.9299E-03     54.4879E-03    -26.6426E-03     74.4504E-03
             345     14.0209E-03     61.1234E-03    -9.90744E+06     21.4774E+06    -9.27082E+06    -70.0986E+03    -28.0113E-03     54.5740E-03    -26.5627E-03     88.6235E-03    -28.3741E-03     55.0047E-03    -26.6258E-03     88.4324E-03
             346     14.8988E-03     61.2187E-03    -9.75351E+06     78.6788E+06    -3.09000E+06    -998.294E+03    -28.4541E-03     54.9358E-03    -26.4816E-03     110.635E-03    -29.2457E-03     55.9810E-03    -26.5970E-03     110.445E-03
             347     15.7755E-03     61.3326E-03    -9.05119E+06     121.236E+06     39.7129E+06     74.5261E+03    -28.8989E-03     55.4798E-03    -26.5809E-03     139.271E-03    -30.5352E-03     57.3991E-03    -26.5450E-03     139.402E-03
             348     16.6525E-03     61.4882E-03    -4.71409E+06     136.200E+06     83.7193E+06     1.84137E+06    -27.8084E-03     54.5233E-03    -26.7149E-03     105.934E-03    -29.2405E-03     56.1795E-03    -26.4870E-03     106.344E-03
             349     876.307E-06     61.5241E-03    -30.4108E+06    -120.849E+06    -29.6418E+06     117.277E+03    -26.8100E-03     53.6167E-03    -26.8067E-03     5.62985E-03    -26.7440E-03     53.0997E-03    -26.7356E-03     5.62843E-03
             350     1.75250E-03     61.5314E-03    -29.5365E+06    -120.331E+06    -27.3833E+06     195.627E+03    -26.8361E-03     53.6526E-03    -26.8164E-03     10.3132E-03    -26.7701E-03     53.1339E-03    -26.7361E-03     10.3101E-03
             351     2.62877E-03     61.5437E-03    -28.2674E+06    -118.214E+06    -23.9971E+06     357.083E+03    -26.8574E-03     53.6860E-03    -26.8286E-03     15.2752E-03    -26.7935E-03     53.1717E-03    -26.7362E-03     15.2711E-03
             352     3.50500E-03     61.5604E-03    -26.8555E+06    -115.462E+06    -19.8763E+06     389.169E+03    -26.8818E-03     53.7214E-03    -26.8396E-03     20.2713E-03    -26.8217E-03     53.2137E-03    -26.7326E-03     20.2639E-03
             353     4.38135E-03     61.5822E-03    -25.0783E+06    -111.897E+06    -15.4460E+06     370.207E+03    -26.9242E-03     53.7727E-03    -26.8485E-03     25.2668E-03    -26.8682E-03     53.2752E-03    -26.7271E-03     25.2547E-03
             354     5.25758E-03     61.6084E-03    -23.0816E+06    -107.535E+06    -10.7068E+06     487.616E+03    -26.9728E-03     53.8294E-03    -26.8566E-03     30.2331E-03    -26.9219E-03     53.3459E-03    -26.7208E-03     30.2171E-03
             355     6.13396E-03     61.6397E-03    -21.0485E+06    -102.482E+06    -6.20742E+06     584.474E+03    -27.0416E-03     53.9039E-03    -26.8623E-03     35.1353E-03    -26.9972E-03     53.4390E-03    -26.7142E-03     35.1139E-03
             356     7.01025E-03     61.6751E-03    -18.9132E+06    -97.9894E+06    -1.69472E+06     698.519E+03    -27.1208E-03     53.9899E-03    -26.8691E-03     39.9707E-03    -27.0827E-03     53.5417E-03    -26.7080E-03     39.9425E-03
             357     7.88649E-03     61.7156E-03    -17.0357E+06    -93.3000E+06       740.5E+03     530.721E+03    -27.1361E-03     53.9981E-03    -26.8620E-03     44.7025E-03    -27.1045E-03     53.5726E-03    -26.6983E-03     44.6625E-03
             358     8.76306E-03     61.7601E-03    -15.2438E+06    -85.9760E+06     1.31380E+06     504.277E+03    -27.2071E-03     54.0450E-03    -26.8379E-03     49.2558E-03    -27.1857E-03     53.6605E-03    -26.6846E-03     49.2035E-03
             359     9.63946E-03     61.8089E-03    -13.6531E+06    -78.2416E+06     1.82998E+06     653.396E+03    -27.3519E-03     54.1678E-03    -26.8160E-03     53.6922E-03    -27.3454E-03     53.8299E-03    -26.6736E-03     53.6271E-03
             360     10.5157E-03     61.8621E-03    -12.5926E+06    -70.3493E+06     474.936E+03     608.500E+03    -27.4480E-03     54.2359E-03    -26.7879E-03     58.4116E-03    -27.4614E-03     53.9535E-03    -26.6653E-03     58.3286E-03
             361     11.3922E-03     61.9198E-03    -11.6016E+06    -57.9828E+06    -189.779E+03     520.850E+03    -27.5097E-03     54.2646E-03    -26.7550E-03     63.3358E-03    -27.5578E-03     54.0663E-03    -26.6550E-03     63.2315E-03
             362     12.2688E-03     61.9821E-03    -10.8787E+06    -43.0926E+06    -1.72710E+06     298.005E+03    -27.6031E-03     54.3154E-03    -26.7124E-03     68.5139E-03    -27.7015E-03     54.2272E-03    -26.6427E-03     68.3827E-03
             363     13.1448E-03     62.0492E-03    -10.6828E+06    -23.5973E+06    -6.76805E+06     118.706E+03    -27.7751E-03     54.4218E-03    -26.6468E-03     75.1150E-03    -27.9533E-03     54.4980E-03    -26.6309E-03     74.9528E-03
             364     14.0219E-03     62.1241E-03    -10.6561E+06     22.2476E+06    -9.94854E+06    -163.900E+03    -27.9120E-03     54.4571E-03    -26.5451E-03     88.9141E-03    -28.2766E-03     54.8917E-03    -26.6116E-03     88.7243E-03
             365     14.8984E-03     62.2165E-03    -11.6108E+06     78.6402E+06    -3.61789E+06     202.693E+03    -29.2416E-03     55.7272E-03    -26.4856E-03     111.935E-03    -30.0528E-03     56.7868E-03    -26.6008E-03     111.749E-03
             366     15.7733E-03     62.3362E-03    -11.9055E+06     118.945E+06     36.4114E+06     1.43937E+06    -30.6103E-03     57.2521E-03    -26.6418E-03     139.570E-03    -32.2471E-03     59.1634E-03    -26.6150E-03     139.675E-03
             367     16.6503E-03     62.4835E-03    -4.67890E+06     136.381E+06     82.2210E+06     423.173E+03    -26.8137E-03     53.6082E-03    -26.7944E-03     106.585E-03    -28.2367E-03     55.2603E-03    -26.5743E-03     106.982E-03
             368     876.255E-06     62.5239E-03    -30.1846E+06    -120.935E+06    -29.6396E+06     178.103E+03    -26.8093E-03     53.6275E-03    -26.8182E-03     5.62585E-03    -26.7420E-03     53.1097E-03    -26.7473E-03     5.62521E-03
             369     1.75249E-03     62.5316E-03    -29.4348E+06    -120.470E+06    -27.3956E+06     222.409E+03    -26.8387E-03     53.6594E-03    -26.8207E-03     10.3101E-03    -26.7719E-03     53.1399E-03    -26.7403E-03     10.3074E-03
             370     2.62876E-03     62.5435E-03    -28.2915E+06    -118.493E+06    -24.1782E+06     365.686E+03    -26.8510E-03     53.6812E-03    -26.8302E-03     15.2831E-03    -26.7866E-03     53.1658E-03    -26.7383E-03     15.2791E-03
             371     3.50505E-03     62.5606E-03    -26.7048E+06    -115.509E+06    -19.8763E+06     512.342E+03    -26.8803E-03     53.7200E-03    -26.8397E-03     20.2736E-03    -26.8194E-03     53.2119E-03    -26.7329E-03     20.2679E-03
             372     4.38131E-03     62.5820E-03    -25.0577E+06    -111.808E+06    -15.2625E+06     513.502E+03    -26.9288E-03     53.7784E-03    -26.8496E-03     25.2842E-03    -26.8730E-03     53.2810E-03    -26.7275E-03     25.2740E-03
             373     5.25760E-03     62.6087E-03    -23.1363E+06    -107.602E+06    -10.6732E+06     452.085E+03    -26.9750E-03     53.8329E-03    -26.8579E-03     30.2355E-03    -26.9244E-03     53.3491E-03    -26.7217E-03     30.2191E-03
             374     6.13391E-03     62.6394E-03    -20.9725E+06    -102.606E+06    -6.23484E+06     563.880E+03    -27.0265E-03     53.8885E-03    -26.8621E-03     35.1669E-03    -26.9814E-03     53.4229E-03    -26.7141E-03     35.1453E-03
             375     7.01023E-03     62.6755E-03    -18.8087E+06    -98.1749E+06    -1.95135E+06     713.634E+03    -27.0728E-03     53.9365E-03    -26.8638E-03     40.0163E-03    -27.0335E-03     53.4876E-03    -26.7039E-03     39.9885E-03
             376     7.88665E-03     62.7153E-03    -16.8433E+06    -92.7530E+06     991.907E+03     732.613E+03    -27.1323E-03     53.9876E-03    -26.8553E-03     44.7154E-03    -27.1009E-03     53.5643E-03    -26.6914E-03     44.6780E-03
             377     8.76313E-03     62.7600E-03    -15.0561E+06    -85.9034E+06     1.66642E+06     550.365E+03    -27.2195E-03     54.0530E-03    -26.8334E-03     49.2951E-03    -27.1978E-03     53.6680E-03    -26.6787E-03     49.2434E-03
             378     9.63937E-03     62.8091E-03    -13.5823E+06    -78.7898E+06     1.57205E+06     576.870E+03    -27.3182E-03     54.1272E-03    -26.8089E-03     53.8151E-03    -27.3103E-03     53.7867E-03    -26.6671E-03     53.7493E-03
             379     10.5159E-03     62.8619E-03    -12.2741E+06    -70.1672E+06     765.835E+03     653.431E+03    -27.3747E-03     54.1526E-03    -26.7779E-03     58.5210E-03    -27.3871E-03     53.8701E-03    -26.6545E-03     58.4391E-03
             380     11.3924E-03     62.9197E-03    -11.1120E+06    -57.8146E+06     279.916E+03     597.316E+03    -27.3745E-03     54.1127E-03    -26.7382E-03     63.4185E-03    -27.4208E-03     53.9135E-03    -26.6368E-03     63.3161E-03
             381     12.2690E-03     62.9817E-03    -10.6693E+06    -42.7716E+06    -1.25433E+06     599.752E+03    -27.4724E-03     54.1595E-03    -26.6871E-03     68.7021E-03    -27.5706E-03     54.0717E-03    -26.6159E-03     68.5759E-03
             382     13.1460E-03     63.0494E-03    -10.4941E+06    -23.2047E+06    -6.05562E+06     252.263E+03    -27.5575E-03     54.1699E-03    -26.6125E-03     75.2766E-03    -27.7356E-03     54.2461E-03    -26.5939E-03     75.1181E-03
             383     14.0222E-03     63.1234E-03    -11.1303E+06     22.1434E+06    -9.82948E+06     802.708E+03    -27.9412E-03     54.4467E-03    -26.5054E-03     88.9914E-03    -28.3078E-03     54.8808E-03    -26.5706E-03     88.8130E-03
             384     14.8993E-03     63.2166E-03    -12.0678E+06     77.3584E+06    -6.09869E+06     2.06275E+06    -28.9669E-03     55.3929E-03    -26.4260E-03     114.114E-03    -29.7806E-03     56.4561E-03    -26.5511E-03     113.955E-03
             385     15.7751E-03     63.3395E-03    -9.09391E+06     120.623E+06     36.5991E+06     693.239E+03    -30.3961E-03     56.9618E-03    -26.5656E-03     142.941E-03    -32.0482E-03     58.9036E-03    -26.5444E-03     143.028E-03
             386     16.6500E-03     63.4826E-03    -3.83881E+06     137.857E+06     83.3306E+06    -1.27472E+06    -27.8364E-03     54.5795E-03    -26.7431E-03     106.390E-03    -29.2698E-03     56.2471E-03    -26.5208E-03     106.739E-03
             387     876.210E-06     63.5241E-03    -30.2594E+06    -121.017E+06    -29.8060E+06     116.300E+03    -26.8170E-03     53.6450E-03    -26.8281E-03     5.62700E-03    -26.7497E-03     53.1272E-03    -26.7578E-03     5.62557E-03
             388     1.75252E-03     63.5314E-03    -29.5531E+06    -120.710E+06    -27.6259E+06     269.421E+03    -26.8233E-03     53.6475E-03    -26.8242E-03     10.3247E-03    -26.7564E-03     53.1273E-03    -26.7445E-03     10.3226E-03
             389     2.62875E-03     63.5437E-03    -28.3654E+06    -118.656E+06    -24.2363E+06     372.125E+03    -26.8474E-03     53.6765E-03    -26.8291E-03     15.2772E-03    -26.7830E-03     53.1605E-03    -26.7371E-03     15.2733E-03
             390     3.50504E-03     63.5604E-03    -26.8778E+06    -115.728E+06    -20.1134E+06     492.420E+03    -26.8834E-03     53.7214E-03    -26.8380E-03     20.2919E-03    -26.8227E-03     53.2128E-03    -26.7318E-03     20.2859E-03
             391     4.38130E-03     63.5823E-03    -24.9975E+06    -111.795E+06    -15.3369E+06     640.870E+03    -26.9175E-03     53.7650E-03    -26.8476E-03     25.2860E-03    -26.8613E-03     53.2678E-03    -26.7259E-03     25.2775E-03
             392     5.25765E-03     63.6084E-03    -23.0830E+06    -107.536E+06    -10.4616E+06     573.610E+03    -26.9600E-03     53.8152E-03    -26.8552E-03     30.2630E-03    -26.9095E-03     53.3313E-03    -26.7181E-03     30.2482E-03
             393     6.13391E-03     63.6397E-03    -21.0227E+06    -102.678E+06    -6.16879E+06     488.743E+03    -26.9942E-03     53.8503E-03    -26.8562E-03     35.1991E-03    -26.9494E-03     53.3843E-03    -26.7076E-03     35.1767E-03
             394     7.01035E-03     63.6751E-03    -18.8643E+06    -98.4613E+06    -2.04559E+06     615.895E+03    -27.0374E-03     53.8914E-03    -26.8539E-03     39.9933E-03    -26.9979E-03     53.4412E-03    -26.6940E-03     39.9644E-03
             395     7.88686E-03     63.7154E-03    -16.6470E+06    -92.4925E+06     1.24181E+06     793.602E+03    -27.1408E-03     53.9863E-03    -26.8455E-03     44.7101E-03    -27.1091E-03     53.5635E-03    -26.6810E-03     44.6736E-03
             396     8.76295E-03     63.7600E-03    -14.9483E+06    -85.6824E+06     2.02772E+06     646.257E+03    -27.1968E-03     54.0216E-03    -26.8248E-03     49.2977E-03    -27.1754E-03     53.6371E-03    -26.6687E-03     49.2473E-03
             397     9.63974E-03     63.8086E-03    -13.4648E+06    -78.9117E+06     1.73710E+06     487.829E+03    -27.2272E-03     54.0227E-03    -26.7955E-03     53.8718E-03    -27.2185E-03     53.6811E-03    -26.6529E-03     53.8053E-03
             398     10.5161E-03     63.8621E-03    -12.1862E+06    -70.0085E+06     864.957E+03     671.861E+03    -27.3035E-03     54.0617E-03    -26.7582E-03     58.4696E-03    -27.3157E-03     53.7796E-03    -26.6347E-03     58.3882E-03
             399     11.3927E-03     63.9191E-03    -11.4194E+06    -57.8074E+06     268.014E+03     735.356E+03    -27.3338E-03     54.0500E-03    -26.7162E-03     63.2558E-03    -27.3816E-03     53.8513E-03    -26.6144E-03     63.1551E-03
             400     12.2696E-03     63.9816E-03    -10.5844E+06    -42.7492E+06    -1.06189E+06     700.413E+03    -27.3474E-03     54.0092E-03    -26.6618E-03     68.5385E-03    -27.4451E-03     53.9207E-03    -26.5898E-03     68.4143E-03
             401     13.1459E-03     64.0487E-03    -10.3605E+06    -22.8977E+06    -5.59475E+06     853.920E+03    -27.4256E-03     54.0075E-03    -26.5819E-03     74.8069E-03    -27.6028E-03     54.0829E-03    -26.5617E-03     74.6570E-03
             402     14.0235E-03     64.1229E-03    -10.2775E+06     20.7322E+06    -9.48504E+06     1.50320E+06    -27.9165E-03     54.3898E-03    -26.4733E-03     88.8560E-03    -28.2788E-03     54.8167E-03    -26.5359E-03     88.6861E-03
             403     14.8994E-03     64.2171E-03    -8.42479E+06     77.7566E+06    -4.44322E+06     1.07035E+06    -27.9971E-03     54.3661E-03    -26.3691E-03     112.846E-03    -28.7815E-03     55.4095E-03    -26.4918E-03     112.689E-03
             404     15.7796E-03     64.3364E-03    -5.92737E+06     123.959E+06     40.9536E+06     -581.65E+03    -28.9248E-03     55.3804E-03    -26.4556E-03     143.095E-03    -30.5815E-03     57.3373E-03    -26.4219E-03     143.213E-03
             405     16.6574E-03     64.4885E-03    -4.37645E+06     137.760E+06     84.8152E+06    -522.951E+03    -29.2681E-03     55.8987E-03    -26.6306E-03     105.127E-03    -30.7120E-03     57.5702E-03    -26.4000E-03     105.474E-03
             406     876.266E-06     64.5239E-03    -30.7395E+06    -121.237E+06    -30.0745E+06     72.7250E+03    -26.8169E-03     53.6328E-03    -26.8159E-03     5.60041E-03    -26.7513E-03     53.1150E-03    -26.7459E-03     5.59840E-03
             407     1.75246E-03     64.5316E-03    -29.8062E+06    -120.907E+06    -27.7450E+06     247.743E+03    -26.8198E-03     53.6395E-03    -26.8197E-03     10.3313E-03    -26.7537E-03     53.1188E-03    -26.7398E-03     10.3289E-03
             408     2.62881E-03     64.5435E-03    -28.6008E+06    -118.822E+06    -24.3895E+06     386.274E+03    -26.8467E-03     53.6721E-03    -26.8254E-03     15.2962E-03    -26.7831E-03     53.1559E-03    -26.7336E-03     15.2925E-03
             409     3.50502E-03     64.5606E-03    -27.0152E+06    -115.835E+06    -20.2118E+06     477.170E+03    -26.8748E-03     53.7091E-03    -26.8343E-03     20.3014E-03    -26.8145E-03     53.2003E-03    -26.7283E-03     20.2952E-03
             410     4.38136E-03     64.5820E-03    -25.1727E+06    -111.992E+06    -15.6749E+06     544.800E+03    -26.9005E-03     53.7416E-03    -26.8411E-03     25.2985E-03    -26.8444E-03     53.2441E-03    -26.7206E-03     25.2887E-03
             411     5.25763E-03     64.6086E-03    -23.0577E+06    -107.465E+06    -10.5784E+06     661.583E+03    -26.9312E-03     53.7774E-03    -26.8463E-03     30.2657E-03    -26.8804E-03     53.2940E-03    -26.7099E-03     30.2521E-03
             412     6.13408E-03     64.6394E-03    -21.0391E+06    -102.551E+06    -5.92917E+06     568.746E+03    -26.9764E-03     53.8233E-03    -26.8468E-03     35.1473E-03    -26.9323E-03     53.3575E-03    -26.6973E-03     35.1259E-03
             413     7.01045E-03     64.6751E-03    -18.8772E+06    -98.3823E+06    -1.86682E+06     449.627E+03    -27.0524E-03     53.8979E-03    -26.8455E-03     39.9657E-03    -27.0133E-03     53.4479E-03    -26.6848E-03     39.9346E-03
             414     7.88663E-03     64.7153E-03    -16.8842E+06    -93.0563E+06     818.495E+03     725.832E+03    -27.0900E-03     53.9246E-03    -26.8346E-03     44.7095E-03    -27.0580E-03     53.4999E-03    -26.6711E-03     44.6722E-03
             415     8.76350E-03     64.7598E-03    -14.9496E+06    -85.4184E+06     2.07302E+06     736.696E+03    -27.1629E-03     53.9744E-03    -26.8115E-03     49.2551E-03    -27.1420E-03     53.5911E-03    -26.6556E-03     49.2059E-03
             416     9.63960E-03     64.8086E-03    -13.3350E+06    -78.4385E+06     2.14613E+06     602.713E+03    -27.2255E-03     54.0089E-03    -26.7834E-03     53.6924E-03    -27.2175E-03     53.6688E-03    -26.6396E-03     53.6272E-03
             417     10.5164E-03     64.8615E-03    -12.2562E+06    -70.2774E+06     748.666E+03     643.631E+03    -27.2592E-03     54.0037E-03    -26.7445E-03     58.2804E-03    -27.2711E-03     53.7204E-03    -26.6211E-03     58.1987E-03
             418     11.3929E-03     64.9192E-03    -11.1844E+06    -57.6298E+06     391.368E+03     697.474E+03    -27.3502E-03     54.0531E-03    -26.7030E-03     63.0021E-03    -27.3973E-03     53.8548E-03    -26.6012E-03     62.9006E-03
             419     12.2694E-03     64.9808E-03    -10.3379E+06    -42.8569E+06    -1.07936E+06     788.914E+03    -27.4233E-03     54.0765E-03    -26.6532E-03     68.1077E-03    -27.5196E-03     53.9872E-03    -26.5815E-03     67.9838E-03
             420     13.1467E-03     65.0484E-03    -9.92276E+06    -23.5352E+06    -5.86253E+06     1.20652E+06    -27.5110E-03     54.0907E-03    -26.5797E-03     74.2111E-03    -27.6847E-03     54.1626E-03    -26.5605E-03     74.0648E-03
             421     14.0226E-03     65.1223E-03    -9.25505E+06     21.1239E+06    -8.86677E+06     668.572E+03    -27.7509E-03     54.2232E-03    -26.4722E-03     88.3124E-03    -28.1084E-03     54.6485E-03    -26.5338E-03     88.1339E-03
             422     14.9003E-03     65.2168E-03    -8.61612E+06     79.1364E+06    -2.33472E+06    -619.998E+03    -28.1927E-03     54.5740E-03    -26.3813E-03     110.548E-03    -28.9756E-03     55.6140E-03    -26.4952E-03     110.366E-03
             423     15.7771E-03     65.3321E-03    -7.93656E+06     123.457E+06     41.0274E+06     144.169E+03    -29.0303E-03     55.5112E-03    -26.4809E-03     139.984E-03    -30.6698E-03     57.4419E-03    -26.4433E-03     140.116E-03
             424     16.6553E-03     65.4887E-03    -4.79969E+06     137.601E+06     84.2255E+06     742.623E+03    -28.9200E-03     55.5697E-03    -26.6497E-03     104.163E-03    -30.3467E-03     57.2236E-03    -26.4211E-03     104.539E-03
             425     876.244E-06     65.5241E-03    -30.6445E+06    -121.306E+06    -30.0474E+06     92.6145E+03    -26.8040E-03     53.6061E-03    -26.8021E-03     5.59738E-03    -26.7379E-03     53.0877E-03    -26.7320E-03     5.59563E-03
             426     1.75256E-03     65.5313E-03    -29.9306E+06    -121.178E+06    -27.7156E+06     269.682E+03    -26.8260E-03     53.6368E-03    -26.8107E-03     10.3274E-03    -26.7602E-03     53.1149E-03    -26.7302E-03     10.3253E-03
             427     2.62876E-03     65.5436E-03    -28.6599E+06    -118.940E+06    -24.3623E+06     382.815E+03    -26.8400E-03     53.6600E-03    -26.8200E-03     15.3025E-03    -26.7765E-03     53.1432E-03    -26.7278E-03     15.2988E-03
             428     3.50508E-03     65.5604E-03    -27.0538E+06    -115.977E+06    -20.1820E+06     443.856E+03    -26.8576E-03     53.6852E-03    -26.8276E-03     20.2970E-03    -26.7973E-03     53.1757E-03    -26.7211E-03     20.2904E-03
             429     4.38138E-03     65.5821E-03    -25.1922E+06    -112.082E+06    -15.5815E+06     506.739E+03    -26.8845E-03     53.7172E-03    -26.8327E-03     25.2934E-03    -26.8286E-03     53.2191E-03    -26.7115E-03     25.2832E-03
             430     5.25774E-03     65.6084E-03    -23.2149E+06    -107.651E+06    -10.7840E+06     582.090E+03    -26.9252E-03     53.7615E-03    -26.8363E-03     30.2359E-03    -26.8747E-03     53.2777E-03    -26.7005E-03     30.2213E-03
             431     6.13408E-03     65.6394E-03    -21.0577E+06    -102.350E+06    -5.95520E+06     693.914E+03    -26.9849E-03     53.8235E-03    -26.8386E-03     35.1226E-03    -26.9411E-03     53.3589E-03    -26.6894E-03     35.1028E-03
             432     7.01038E-03     65.6751E-03    -19.0932E+06    -98.3484E+06    -1.90359E+06     557.525E+03    -27.0255E-03     53.8634E-03    -26.8379E-03     39.9237E-03    -26.9875E-03     53.4140E-03    -26.6771E-03     39.8940E-03
             433     7.88709E-03     65.7150E-03    -16.8815E+06    -93.2057E+06     678.007E+03     485.822E+03    -27.0862E-03     53.9120E-03    -26.8257E-03     44.6159E-03    -27.0539E-03     53.4868E-03    -26.6627E-03     44.5754E-03
             434     8.76318E-03     65.7597E-03    -15.0217E+06    -85.3917E+06     1.83086E+06     692.511E+03    -27.1726E-03     53.9758E-03    -26.8033E-03     49.1650E-03    -27.1517E-03     53.5932E-03    -26.6485E-03     49.1152E-03
             435     9.63995E-03     65.8084E-03    -13.6190E+06    -78.4290E+06     2.02213E+06     690.545E+03    -27.2533E-03     54.0321E-03    -26.7788E-03     53.5074E-03    -27.2466E-03     53.6927E-03    -26.6352E-03     53.4431E-03
             436     10.5162E-03     65.8612E-03    -12.1935E+06    -70.0808E+06     815.019E+03     671.496E+03    -27.2911E-03     54.0346E-03    -26.7435E-03     58.0592E-03    -27.3031E-03     53.7522E-03    -26.6201E-03     57.9777E-03
             437     11.3929E-03     65.9187E-03    -11.2415E+06    -57.7126E+06     216.038E+03     620.248E+03    -27.4140E-03     54.1195E-03    -26.7055E-03     62.8591E-03    -27.4610E-03     53.9211E-03    -26.6045E-03     62.7563E-03
             438     12.2696E-03     65.9808E-03    -10.5120E+06    -43.1605E+06    -1.31386E+06     720.630E+03    -27.5841E-03     54.2483E-03    -26.6642E-03     67.8223E-03    -27.6808E-03     54.1583E-03    -26.5930E-03     67.6965E-03
             439     13.1453E-03     66.0480E-03    -9.44925E+06    -23.7942E+06    -5.68180E+06     778.347E+03    -27.6347E-03     54.2357E-03    -26.6010E-03     74.0241E-03    -27.8062E-03     54.3057E-03    -26.5812E-03     73.8714E-03
             440     14.0228E-03     66.1219E-03    -9.25756E+06     22.5959E+06    -8.45702E+06     455.934E+03    -27.8126E-03     54.3112E-03    -26.4985E-03     87.7496E-03    -28.1705E-03     54.7409E-03    -26.5601E-03     87.5680E-03
             441     14.8995E-03     66.2153E-03    -10.6447E+06     79.5222E+06     -3.7844E+06     405.594E+03    -29.0126E-03     55.4400E-03    -26.4273E-03     110.671E-03    -29.8121E-03     56.4949E-03    -26.5461E-03     110.488E-03
             442     15.7748E-03     66.3343E-03    -9.69584E+06     122.051E+06     38.2547E+06     331.369E+03    -30.4659E-03     57.0487E-03    -26.5827E-03     139.727E-03    -32.1094E-03     58.9800E-03    -26.5544E-03     139.817E-03
             443     16.6510E-03     66.4844E-03    -4.81650E+06     138.028E+06     83.4325E+06      69.748E+03    -27.9402E-03     54.7055E-03    -26.7653E-03     105.675E-03    -29.3726E-03     56.3689E-03    -26.5413E-03     106.046E-03
             444     876.286E-06     66.5238E-03    -30.9075E+06    -121.503E+06    -30.1815E+06     166.007E+03    -26.8033E-03     53.5934E-03    -26.7901E-03     5.60467E-03    -26.7380E-03     53.0746E-03    -26.7201E-03     5.60388E-03
             445     1.75252E-03     66.5315E-03    -29.9193E+06    -121.330E+06    -27.7707E+06     271.237E+03    -26.8194E-03     53.6240E-03    -26.8045E-03     10.3190E-03    -26.7533E-03     53.1014E-03    -26.7241E-03     10.3170E-03
             446     2.62880E-03     66.5435E-03    -28.7006E+06    -119.117E+06    -24.4378E+06     406.747E+03    -26.8250E-03     53.6374E-03    -26.8124E-03     15.2894E-03    -26.7614E-03     53.1199E-03    -26.7203E-03     15.2860E-03
             447     3.50512E-03     66.5604E-03    -27.1685E+06    -116.068E+06    -20.1698E+06     461.577E+03    -26.8451E-03     53.6639E-03    -26.8188E-03     20.2916E-03    -26.7853E-03     53.1540E-03    -26.7119E-03     20.2852E-03
             448     4.38141E-03     66.5821E-03    -25.3260E+06    -112.169E+06    -15.5809E+06     481.483E+03    -26.8811E-03     53.7052E-03    -26.8241E-03     25.2645E-03    -26.8257E-03     53.2069E-03    -26.7026E-03     25.2540E-03
             449     5.25778E-03     66.6082E-03    -23.2502E+06    -107.729E+06    -10.7528E+06     555.332E+03    -26.9301E-03     53.7596E-03    -26.8295E-03     30.2186E-03    -26.8797E-03     53.2754E-03    -26.6933E-03     30.2036E-03
             450     6.13408E-03     66.6395E-03    -21.1376E+06    -102.589E+06    -6.11052E+06     715.073E+03    -26.9777E-03     53.8098E-03    -26.8321E-03     35.1063E-03    -26.9337E-03     53.3443E-03    -26.6832E-03     35.0868E-03
             451     7.01061E-03     66.6748E-03    -18.9503E+06    -97.8385E+06    -1.72804E+06     697.581E+03    -27.0490E-03     53.8825E-03    -26.8334E-03     39.8406E-03    -27.0113E-03     53.4352E-03    -26.6727E-03     39.8126E-03
             452     7.88674E-03     66.7151E-03    -17.0074E+06    -93.1924E+06     763.197E+03     458.092E+03    -27.1141E-03     53.9397E-03    -26.8256E-03     44.5010E-03    -27.0825E-03     53.5147E-03    -26.6620E-03     44.4599E-03
             453     8.76347E-03     66.7595E-03    -15.1580E+06    -85.9547E+06     1.37659E+06     556.156E+03    -27.1853E-03     53.9889E-03    -26.8036E-03     49.1086E-03    -27.1636E-03     53.6043E-03    -26.6501E-03     49.0569E-03
             454     9.63965E-03     66.8083E-03    -13.6002E+06    -78.0888E+06     1.88527E+06     730.958E+03    -27.2668E-03     54.0472E-03    -26.7804E-03     53.4298E-03    -27.2602E-03     53.7097E-03    -26.6380E-03     53.3660E-03
             455     10.5163E-03     66.8611E-03    -12.4490E+06    -69.9927E+06     682.106E+03     639.540E+03    -27.3765E-03     54.1265E-03    -26.7499E-03     57.9528E-03    -27.3898E-03     53.8451E-03    -26.6270E-03     57.8705E-03
             456     11.3927E-03     66.9184E-03    -11.4594E+06    -57.7410E+06    -1.51490E+03     621.456E+03    -27.5235E-03     54.2423E-03    -26.7188E-03     62.9036E-03    -27.5714E-03     54.0445E-03    -26.6184E-03     62.8003E-03
             457     12.2689E-03     66.9810E-03    -10.4833E+06    -43.0840E+06    -1.33876E+06     522.504E+03    -27.6011E-03     54.2826E-03    -26.6815E-03     67.8114E-03    -27.6974E-03     54.1926E-03    -26.6105E-03     67.6833E-03
             458     13.1460E-03     67.0475E-03    -9.97840E+06    -23.5202E+06    -5.98036E+06     398.956E+03    -27.7079E-03     54.3272E-03    -26.6193E-03     74.0760E-03    -27.8820E-03     54.3997E-03    -26.6006E-03     73.9180E-03
             459     14.0218E-03     67.1218E-03    -10.0437E+06     22.0900E+06    -9.20788E+06     988.076E+03    -28.2484E-03     54.7788E-03    -26.5304E-03     87.8023E-03    -28.6097E-03     55.2095E-03    -26.5939E-03     87.6227E-03
             460     14.8984E-03     67.2149E-03    -9.69104E+06     79.6990E+06    -3.73826E+06     1.51830E+06    -29.1326E-03     55.6052E-03    -26.4725E-03     111.663E-03    -29.9338E-03     56.6657E-03    -26.5927E-03     111.493E-03
             461     15.7747E-03     67.3364E-03    -8.45764E+06     123.470E+06     39.1105E+06     386.137E+03    -30.4590E-03     57.0837E-03    -26.6246E-03     141.885E-03    -32.1215E-03     59.0410E-03    -26.5959E-03     141.973E-03
             462     16.6496E-03     67.4850E-03    -5.01497E+06     138.153E+06     83.4359E+06    -561.608E+03    -27.7023E-03     54.4953E-03    -26.7930E-03     106.037E-03    -29.1469E-03     56.1706E-03    -26.5689E-03     106.397E-03
             463     876.279E-06     67.5240E-03    -30.9089E+06    -121.572E+06    -30.4203E+06     90.9752E+03    -26.7929E-03     53.5887E-03    -26.7958E-03     5.60309E-03    -26.7272E-03     53.0700E-03    -26.7269E-03     5.60131E-03
             464     1.75251E-03     67.5313E-03    -30.0882E+06    -121.629E+06    -28.0248E+06     204.944E+03    -26.7991E-03     53.5974E-03    -26.7983E-03     10.3166E-03    -26.7330E-03     53.0740E-03    -26.7184E-03     10.3136E-03
             465     2.62887E-03     67.5435E-03    -28.7635E+06    -119.321E+06    -24.5480E+06     386.339E+03    -26.8185E-03     53.6219E-03    -26.8033E-03     15.2842E-03    -26.7547E-03     53.1036E-03    -26.7114E-03     15.2805E-03
             466     3.50509E-03     67.5604E-03    -27.1556E+06    -116.119E+06    -20.2392E+06     488.840E+03    -26.8467E-03     53.6578E-03    -26.8111E-03     20.2616E-03    -26.7867E-03     53.1478E-03    -26.7046E-03     20.2556E-03
             467     4.38151E-03     67.5819E-03    -25.3720E+06    -112.184E+06    -15.6455E+06     517.830E+03    -26.8841E-03     53.7027E-03    -26.8185E-03     25.2453E-03    -26.8289E-03     53.2044E-03    -26.6973E-03     25.2352E-03
             468     5.25773E-03     67.6084E-03    -23.4098E+06    -107.785E+06    -10.8380E+06     536.299E+03    -26.9273E-03     53.7524E-03    -26.8251E-03     30.1882E-03    -26.8775E-03     53.2683E-03    -26.6890E-03     30.1729E-03
             469     6.13423E-03     67.6391E-03     -21.147E+06    -102.715E+06    -6.13963E+06     593.889E+03    -26.9911E-03     53.8204E-03    -26.8293E-03     35.0617E-03    -26.9470E-03     53.3543E-03    -26.6804E-03     35.0405E-03
             470     7.01040E-03     67.6750E-03    -18.8788E+06    -97.8209E+06    -1.79557E+06     672.749E+03    -27.0703E-03     53.9029E-03    -26.8327E-03     39.8341E-03    -27.0321E-03     53.4557E-03    -26.6724E-03     39.8057E-03
             471     7.88695E-03     67.7148E-03    -16.9476E+06    -92.8836E+06     955.668E+03     649.691E+03    -27.1478E-03     53.9766E-03    -26.8288E-03     44.4823E-03    -27.1167E-03     53.5528E-03    -26.6648E-03     44.4436E-03
             472     8.76317E-03     67.7593E-03    -15.2085E+06    -85.9698E+06     1.42765E+06     648.946E+03    -27.1994E-03     54.0084E-03    -26.8090E-03     49.0620E-03    -27.1779E-03     53.6237E-03    -26.6552E-03     49.0115E-03
             473     9.63979E-03     67.8083E-03    -13.6155E+06    -78.2022E+06     1.62333E+06     638.161E+03    -27.2799E-03     54.0651E-03    -26.7852E-03     53.4194E-03    -27.2728E-03     53.7274E-03    -26.6439E-03     53.3544E-03
             474     10.5161E-03     67.8607E-03    -12.4055E+06    -70.0117E+06     625.030E+03     582.789E+03    -27.4552E-03     54.2138E-03    -26.7587E-03     58.0117E-03    -27.4682E-03     53.9325E-03    -26.6360E-03     57.9283E-03
             475     11.3924E-03     67.9187E-03    -11.3833E+06    -57.5915E+06     15.2040E+03     590.352E+03    -27.5256E-03     54.2555E-03    -26.7299E-03     62.9631E-03    -27.5733E-03     54.0583E-03    -26.6298E-03     62.8596E-03
             476     12.2691E-03     67.9804E-03    -10.6675E+06    -42.5055E+06    -1.18377E+06     619.885E+03    -27.5978E-03     54.2899E-03    -26.6921E-03     67.9587E-03    -27.6958E-03     54.2026E-03    -26.6209E-03     67.8322E-03
             477     13.1451E-03     68.0476E-03    -10.6221E+06    -23.6768E+06    -6.40592E+06     462.925E+03    -27.8088E-03     54.4398E-03    -26.6309E-03     74.1705E-03    -27.9854E-03     54.5132E-03    -26.6132E-03     74.0125E-03
             478     14.0221E-03     68.1216E-03    -10.0141E+06     21.1071E+06    -9.53720E+06     457.062E+03    -28.2821E-03     54.8271E-03    -26.5450E-03     88.6003E-03    -28.6437E-03     55.2557E-03    -26.6087E-03     88.4135E-03
             479     14.8975E-03     68.2162E-03    -8.71776E+06     79.4702E+06    -3.64344E+06     959.173E+03    -28.6907E-03     55.1624E-03    -26.4717E-03     112.485E-03    -29.4864E-03     56.2199E-03    -26.5925E-03     112.317E-03
             480     15.7754E-03     68.3340E-03    -6.56658E+06     125.425E+06     40.8223E+06     891.157E+03    -29.2118E-03     55.7880E-03    -26.5762E-03     143.572E-03    -30.8786E-03     57.7584E-03    -26.5445E-03     143.710E-03
             481     16.6539E-03     68.4886E-03    -4.67575E+06     138.989E+06     84.3545E+06     144.359E+03    -28.0593E-03     54.7761E-03    -26.7167E-03     106.109E-03    -29.5050E-03     56.4540E-03    -26.4897E-03     106.489E-03
             482     876.212E-06     68.5238E-03    -30.8328E+06    -121.723E+06    -30.2034E+06     133.833E+03    -26.7757E-03     53.5676E-03    -26.7919E-03     5.60967E-03    -26.7098E-03     53.0477E-03    -26.7217E-03     5.60847E-03
             483     1.75263E-03     68.5313E-03    -30.1086E+06    -121.796E+06    -28.0001E+06     191.516E+03    -26.7993E-03     53.5890E-03    -26.7897E-03     10.3129E-03    -26.7331E-03     53.0648E-03    -26.7094E-03     10.3098E-03
             484     2.62879E-03     68.5434E-03    -28.8832E+06    -119.502E+06    -24.7573E+06     298.273E+03    -26.8210E-03     53.6183E-03    -26.7974E-03     15.2594E-03    -26.7572E-03     53.0996E-03    -26.7060E-03     15.2546E-03
             485     3.50522E-03     68.5603E-03    -27.2679E+06    -116.271E+06    -20.5648E+06     438.645E+03    -26.8482E-03     53.6546E-03    -26.8065E-03     20.2527E-03    -26.7880E-03     53.1445E-03    -26.7011E-03     20.2460E-03
             486     4.38137E-03     68.5819E-03    -25.4297E+06    -112.266E+06    -15.7841E+06     564.931E+03    -26.8865E-03     53.7022E-03    -26.8157E-03     25.2308E-03    -26.8312E-03     53.2039E-03    -26.6949E-03     25.2212E-03
             487     5.25789E-03     68.6081E-03    -23.4192E+06    -107.790E+06    -10.8879E+06     559.366E+03    -26.9379E-03     53.7619E-03    -26.8240E-03     30.1640E-03    -26.8881E-03     53.2779E-03    -26.6882E-03     30.1490E-03
             488     6.13403E-03     68.6392E-03    -21.3600E+06    -102.777E+06    -6.34403E+06     491.585E+03    -26.9916E-03     53.8205E-03    -26.8288E-03     35.0648E-03    -26.9481E-03     53.3547E-03    -26.6806E-03     35.0424E-03
             489     7.01057E-03     68.6747E-03    -19.1923E+06    -98.1675E+06    -2.11523E+06     623.023E+03    -27.0608E-03     53.8925E-03    -26.8317E-03     39.8553E-03    -27.0233E-03     53.4445E-03    -26.6721E-03     39.8263E-03
             490     7.88684E-03     68.7148E-03    -17.0169E+06    -92.8025E+06     815.194E+03     715.928E+03    -27.1659E-03     53.9941E-03    -26.8282E-03     44.5142E-03    -27.1351E-03     53.5710E-03    -26.6649E-03     44.4764E-03
             491     8.76322E-03     68.7594E-03    -15.2392E+06    -85.5836E+06     1.51824E+06     642.349E+03    -27.2243E-03     54.0356E-03    -26.8113E-03     49.0372E-03    -27.2037E-03     53.6527E-03    -26.6575E-03     48.9866E-03
             492     9.63966E-03     68.8077E-03    -13.7222E+06    -78.4605E+06     1.38193E+06     589.098E+03    -27.3050E-03     54.0938E-03    -26.7888E-03     53.5153E-03    -27.2977E-03     53.7552E-03    -26.6482E-03     53.4497E-03
             493     10.5160E-03     68.8612E-03    -12.4608E+06    -69.7957E+06     490.946E+03     578.478E+03    -27.4570E-03     54.2195E-03    -26.7625E-03     58.1862E-03    -27.4704E-03     53.9395E-03    -26.6408E-03     58.1029E-03
             494     11.3925E-03     68.9181E-03    -11.4803E+06    -57.4937E+06     24.5935E+03     660.923E+03    -27.5133E-03     54.2472E-03    -26.7339E-03     62.8864E-03    -27.5615E-03     54.0504E-03    -26.6338E-03     62.7838E-03
             495     12.2689E-03     68.9805E-03    -10.7928E+06    -42.9270E+06    -1.58963E+06     669.335E+03    -27.5654E-03     54.2582E-03    -26.6928E-03     68.0892E-03    -27.6628E-03     54.1695E-03    -26.6229E-03     67.9635E-03
             496     13.1456E-03     69.0476E-03    -10.3487E+06    -23.1236E+06    -6.21500E+06     720.939E+03    -27.7473E-03     54.3760E-03    -26.6287E-03     74.6032E-03    -27.9240E-03     54.4519E-03    -26.6113E-03     74.4490E-03
             497     14.0215E-03     69.1216E-03    -10.6223E+06     21.7716E+06    -9.58467E+06     160.472E+03    -27.9319E-03     54.4613E-03    -26.5294E-03     88.8922E-03    -28.2968E-03     54.8935E-03    -26.5935E-03     88.7056E-03
             498     14.8998E-03     69.2157E-03    -9.95416E+06     79.2087E+06    -4.66524E+06    -822.979E+03    -28.4067E-03     54.8430E-03    -26.4363E-03     112.075E-03    -29.2025E-03     55.8982E-03    -26.5600E-03     111.888E-03
             499     15.7765E-03     69.3334E-03    -7.30088E+06     124.828E+06     40.0327E+06     44.5093E+03    -29.0380E-03     55.5740E-03    -26.5360E-03     141.243E-03    -30.6783E-03     57.5154E-03    -26.5062E-03     141.374E-03
             500     16.6558E-03     69.4848E-03    -4.54465E+06     139.405E+06     84.5848E+06     1.31641E+06    -28.1663E-03     54.8524E-03    -26.6861E-03     105.063E-03    -29.5929E-03     56.5125E-03    -26.4587E-03     105.460E-03
             501     876.385E-06     69.5238E-03    -31.0939E+06    -121.943E+06    -30.5266E+06     77.5970E+03    -26.7812E-03     53.5523E-03    -26.7710E-03     5.59060E-03    -26.7158E-03     53.0321E-03    -26.7018E-03     5.58865E-03
             502     1.75249E-03     69.5311E-03    -30.1910E+06    -121.877E+06    -28.0200E+06     258.879E+03    -26.8067E-03     53.5925E-03    -26.7858E-03     10.3026E-03    -26.7407E-03     53.0679E-03    -26.7054E-03     10.3004E-03
             503     2.62891E-03     69.5434E-03    -28.9965E+06    -119.560E+06    -24.8518E+06     275.852E+03    -26.8206E-03     53.6168E-03    -26.7962E-03     15.2508E-03    -26.7572E-03     53.0980E-03    -26.7050E-03     15.2456E-03
             504     3.50507E-03     69.5601E-03    -27.4460E+06    -116.492E+06    -20.7115E+06     343.758E+03    -26.8450E-03     53.6503E-03    -26.8053E-03     20.2456E-03    -26.7852E-03     53.1396E-03    -26.7001E-03     20.2377E-03
             505     4.38157E-03     69.5818E-03    -25.5425E+06    -112.420E+06    -16.0383E+06     500.062E+03    -26.8878E-03     53.7016E-03    -26.8138E-03     25.2333E-03    -26.8325E-03     53.2030E-03    -26.6940E-03     25.2230E-03
             506     5.25767E-03     69.6081E-03    -23.5221E+06    -107.758E+06    -11.1424E+06     556.446E+03    -26.9394E-03     53.7616E-03    -26.8222E-03     30.1843E-03    -26.8897E-03     53.2782E-03    -26.6876E-03     30.1693E-03
             507     6.13422E-03     69.6391E-03    -21.4513E+06    -102.783E+06    -6.48718E+06      572.16E+03    -26.9817E-03     53.8089E-03    -26.8272E-03     35.0494E-03    -26.9384E-03     53.3434E-03    -26.6795E-03     35.0280E-03
             508     7.01048E-03     69.6746E-03    -19.3958E+06    -98.3466E+06    -2.33300E+06     596.370E+03    -27.0617E-03     53.8913E-03    -26.8297E-03     39.8853E-03    -27.0245E-03     53.4430E-03    -26.6706E-03     39.8560E-03
             509     7.88687E-03     69.7149E-03    -17.3247E+06    -92.9578E+06     364.917E+03     596.002E+03    -27.1391E-03     53.9629E-03    -26.8239E-03     44.5394E-03    -27.1088E-03     53.5401E-03    -26.6621E-03     44.5002E-03
             510     8.76333E-03     69.7590E-03    -15.3000E+06    -85.5716E+06     1.29203E+06     496.872E+03    -27.2218E-03     54.0280E-03    -26.8062E-03     49.0682E-03    -27.2012E-03     53.6456E-03    -26.6535E-03     49.0158E-03
             511     9.63960E-03     69.8080E-03    -13.6705E+06    -78.1810E+06     1.38594E+06     546.823E+03    -27.3445E-03     54.1306E-03    -26.7861E-03     53.6339E-03    -27.3375E-03     53.7935E-03    -26.6460E-03     53.5676E-03
             512     10.5162E-03     69.8606E-03    -12.4069E+06    -69.5609E+06     430.616E+03     629.302E+03    -27.4228E-03     54.1827E-03    -26.7599E-03     58.2292E-03    -27.4361E-03     53.9038E-03    -26.6389E-03     58.1467E-03
             513     11.3925E-03     69.9187E-03    -11.4495E+06    -57.6809E+06    -260.406E+03     611.114E+03    -27.4838E-03     54.2122E-03    -26.7283E-03     62.9605E-03    -27.5312E-03     54.0149E-03    -26.6294E-03     62.8575E-03
             514     12.2689E-03     69.9798E-03    -10.5666E+06    -42.7819E+06    -1.77359E+06     572.637E+03    -27.5298E-03     54.2146E-03    -26.6847E-03     68.1824E-03    -27.6263E-03     54.1268E-03    -26.6162E-03     68.0555E-03
             515     13.1456E-03     70.0476E-03    -9.87159E+06    -23.2366E+06    -6.27263E+06     687.486E+03    -27.5620E-03     54.1763E-03    -26.6143E-03     74.5950E-03    -27.7353E-03     54.2503E-03    -26.5976E-03     74.4420E-03
             516     14.0229E-03     70.1213E-03    -9.54518E+06     22.8178E+06    -9.41048E+06     637.832E+03    -27.8755E-03     54.3827E-03    -26.5072E-03     88.3951E-03    -28.2351E-03     54.8167E-03    -26.5735E-03     88.2151E-03
             517     14.8988E-03     70.2145E-03    -10.7608E+06     80.5638E+06    -2.71479E+06    -251.779E+03    -28.6871E-03     55.1215E-03    -26.4344E-03     111.506E-03    -29.4887E-03     56.1787E-03    -26.5492E-03     111.322E-03
             518     15.7758E-03     70.3336E-03    -11.1573E+06     122.602E+06     38.6443E+06    -239.188E+03    -29.8955E-03     56.4576E-03    -26.5621E-03     140.288E-03    -31.5467E-03     58.3923E-03    -26.5305E-03     140.387E-03
             519     16.6504E-03     70.4831E-03    -5.32982E+06     138.838E+06     82.8950E+06     428.258E+03    -27.9365E-03     54.6597E-03    -26.7232E-03     105.753E-03    -29.3735E-03     56.3303E-03    -26.5023E-03     106.131E-03
             520     876.194E-06     70.5236E-03    -31.3051E+06    -121.935E+06    -30.5991E+06     38.2279E+03    -26.7882E-03     53.5632E-03    -26.7750E-03     5.60700E-03    -26.7237E-03     53.0435E-03    -26.7058E-03     5.60454E-03
             521     1.75263E-03     70.5312E-03    -30.3844E+06    -122.130E+06    -28.2550E+06     190.408E+03    -26.7951E-03     53.5829E-03    -26.7878E-03     10.2949E-03    -26.7294E-03     53.0578E-03    -26.7079E-03     10.2918E-03
             522     2.62879E-03     70.5432E-03    -29.0993E+06    -119.609E+06    -24.8094E+06     302.546E+03    -26.8172E-03     53.6126E-03    -26.7954E-03     15.2605E-03    -26.7543E-03     53.0937E-03    -26.7038E-03     15.2557E-03
             523     3.50523E-03     70.5602E-03    -27.5527E+06    -116.547E+06    -20.6712E+06     326.735E+03    -26.8496E-03     53.6545E-03    -26.8050E-03     20.2426E-03    -26.7903E-03     53.1436E-03    -26.6994E-03     20.2344E-03
             524     4.38136E-03     70.5816E-03    -25.6976E+06    -112.557E+06    -16.2910E+06     336.373E+03    -26.8787E-03     53.6908E-03    -26.8121E-03     25.2378E-03    -26.8236E-03     53.1922E-03    -26.6931E-03     25.2254E-03
             525     5.25791E-03     70.6081E-03    -23.5858E+06    -107.853E+06    -11.3416E+06     489.850E+03    -26.9226E-03     53.7412E-03    -26.8186E-03     30.1903E-03    -26.8729E-03     53.2578E-03    -26.6847E-03     30.1744E-03
             526     6.13408E-03     70.6389E-03    -21.4196E+06    -102.764E+06    -6.51543E+06     571.376E+03    -26.9990E-03     53.8234E-03    -26.8244E-03     35.0562E-03    -26.9556E-03     53.3581E-03    -26.6769E-03     35.0347E-03
             527     7.01053E-03     70.6747E-03    -19.2361E+06    -98.2363E+06    -2.30134E+06     532.333E+03    -27.0433E-03     53.8705E-03    -26.8272E-03     39.8664E-03    -27.0055E-03     53.4224E-03    -26.6684E-03     39.8363E-03
             528     7.88696E-03     70.7146E-03    -17.1152E+06    -92.9592E+06     369.012E+03     477.251E+03    -27.0968E-03     53.9150E-03    -26.8182E-03     44.5495E-03    -27.0654E-03     53.4918E-03    -26.6568E-03     44.5090E-03
             529     8.76328E-03     70.7592E-03    -15.3091E+06    -85.5144E+06     1.08906E+06     384.446E+03    -27.2336E-03     54.0321E-03    -26.7985E-03     49.1131E-03    -27.2129E-03     53.6502E-03    -26.6468E-03     49.0592E-03
             530     9.63991E-03     70.8076E-03    -13.6966E+06    -77.9948E+06     1.42292E+06     445.265E+03    -27.3543E-03     54.1354E-03    -26.7810E-03     53.6098E-03    -27.3478E-03     53.7992E-03    -26.6410E-03     53.5422E-03
             531     10.5159E-03     70.8611E-03    -12.2630E+06    -69.8667E+06     286.665E+03     507.700E+03    -27.3739E-03     54.1273E-03    -26.7534E-03     58.1650E-03    -27.3858E-03     53.8468E-03    -26.6329E-03     58.0812E-03
             532     11.3928E-03     70.9177E-03    -11.0772E+06    -57.5098E+06    -174.682E+03     362.873E+03    -27.4202E-03     54.1382E-03    -26.7180E-03     62.9853E-03    -27.4660E-03     53.9410E-03    -26.6194E-03     62.8794E-03
             533     12.2694E-03     70.9805E-03    -10.2531E+06    -42.7200E+06    -1.53134E+06     496.484E+03    -27.5452E-03     54.2195E-03    -26.6743E-03     68.0786E-03    -27.6406E-03     54.1313E-03    -26.6052E-03     67.9505E-03
             534     13.1457E-03     71.0467E-03    -9.73887E+06    -23.1947E+06    -6.12258E+06     437.836E+03    -27.6109E-03     54.2179E-03    -26.6070E-03     74.3001E-03    -27.7835E-03     54.2913E-03    -26.5899E-03     74.1435E-03
             535     14.0223E-03     71.1211E-03    -9.44148E+06     22.8488E+06    -9.03451E+06     514.147E+03    -27.9125E-03     54.4175E-03    -26.5050E-03     88.1854E-03    -28.2720E-03     54.8507E-03    -26.5696E-03     88.0032E-03
             536     14.8994E-03     71.2147E-03    -9.52980E+06     80.2011E+06    -3.67620E+06     2.00831E+06    -28.5097E-03     54.9293E-03    -26.4196E-03     112.055E-03    -29.3031E-03     55.9842E-03    -26.5405E-03     111.903E-03
             537     15.7755E-03     71.3337E-03    -8.90858E+06     124.081E+06     38.9743E+06     1.61491E+06    -29.9189E-03     56.4580E-03    -26.5391E-03     142.853E-03    -31.5835E-03     58.4185E-03    -26.5113E-03     142.975E-03
             538     16.6536E-03     71.4845E-03    -5.20744E+06     139.745E+06     83.5369E+06    -946.676E+03    -28.4896E-03     55.2029E-03    -26.7133E-03     106.640E-03    -29.9452E-03     56.8939E-03    -26.4907E-03     106.993E-03
             539     876.329E-06     71.5237E-03    -31.4254E+06    -122.063E+06    -30.7348E+06     128.121E+03    -26.7810E-03     53.5619E-03    -26.7809E-03     5.61203E-03    -26.7167E-03     53.0418E-03    -26.7120E-03     5.61074E-03
             540     1.75250E-03     71.5309E-03    -30.5694E+06    -122.198E+06    -28.3366E+06     133.595E+03    -26.7922E-03     53.5792E-03    -26.7870E-03     10.3059E-03    -26.7272E-03     53.0541E-03    -26.7071E-03     10.3020E-03
             541     2.62892E-03     71.5433E-03    -29.2567E+06    -119.747E+06    -25.0098E+06     247.840E+03    -26.8127E-03     53.6059E-03    -26.7932E-03     15.2611E-03    -26.7500E-03     53.0868E-03    -26.7022E-03     15.2556E-03
             542     3.50509E-03     71.5599E-03    -27.6236E+06    -116.580E+06    -20.7090E+06     345.155E+03    -26.8444E-03     53.6469E-03    -26.8025E-03     20.2566E-03    -26.7853E-03     53.1360E-03    -26.6970E-03     20.2486E-03
             543     4.38155E-03     71.5817E-03    -25.8516E+06    -112.432E+06    -16.3626E+06     286.261E+03    -26.8777E-03     53.6871E-03    -26.8093E-03     25.2282E-03    -26.8234E-03     53.1893E-03    -26.6906E-03     25.2151E-03
             544     5.25774E-03     71.6078E-03    -23.8366E+06    -108.027E+06    -11.7085E+06     269.533E+03    -26.9146E-03     53.7293E-03    -26.8148E-03     30.1814E-03    -26.8653E-03     53.2459E-03    -26.6821E-03     30.1627E-03
             545     6.13425E-03     71.6391E-03    -21.5278E+06    -102.924E+06    -6.77874E+06     438.314E+03    -26.9813E-03     53.8007E-03    -26.8194E-03     35.0995E-03    -26.9378E-03     53.3350E-03    -26.6729E-03     35.0764E-03
             546     7.01049E-03     71.6743E-03    -19.3178E+06    -98.0683E+06    -2.39601E+06     482.803E+03    -27.0359E-03     53.8574E-03    -26.8215E-03     39.8319E-03    -26.9987E-03     53.4104E-03    -26.6632E-03     39.8012E-03
             547     7.88696E-03     71.7146E-03    -17.2922E+06    -92.8801E+06     133.797E+03     385.897E+03    -27.0975E-03     53.9098E-03    -26.8124E-03     44.5272E-03    -27.0668E-03     53.4877E-03    -26.6519E-03     44.4854E-03
             548     8.76355E-03     71.7588E-03    -15.3524E+06    -85.2736E+06     1.00334E+06     335.000E+03    -27.2502E-03     54.0445E-03    -26.7942E-03     49.1695E-03    -27.2300E-03     53.6641E-03    -26.6433E-03     49.1149E-03
             549     9.63949E-03     71.8080E-03    -13.7902E+06    -77.9234E+06      1.2532E+06     247.477E+03    -27.3219E-03     54.0984E-03    -26.7765E-03     53.5243E-03    -27.3156E-03     53.7629E-03    -26.6373E-03     53.4542E-03
             550     10.5165E-03     71.8603E-03    -12.4297E+06    -69.8718E+06     111.887E+03     176.481E+03    -27.3560E-03     54.1035E-03    -26.7475E-03     58.0331E-03    -27.3684E-03     53.8234E-03    -26.6276E-03     57.9450E-03
             551     11.3927E-03     71.9181E-03    -11.2956E+06    -57.4038E+06    -273.308E+03     275.049E+03    -27.4674E-03     54.1817E-03    -26.7143E-03     62.8317E-03    -27.5144E-03     53.9856E-03    -26.6161E-03     62.7242E-03
             552     12.2691E-03     71.9796E-03    -10.4853E+06    -42.7379E+06    -1.55193E+06     341.234E+03    -27.5712E-03     54.2459E-03    -26.6747E-03     67.8135E-03    -27.6676E-03     54.1578E-03    -26.6053E-03     67.6831E-03
             553     13.1459E-03     72.0471E-03    -10.2273E+06    -23.1154E+06    -6.28753E+06     427.679E+03    -27.6928E-03     54.3040E-03    -26.6112E-03     74.0092E-03    -27.8683E-03     54.3794E-03    -26.5943E-03     73.8513E-03
             554     14.0223E-03     72.1205E-03    -10.6447E+06     21.9982E+06    -9.52304E+06     925.239E+03    -27.8813E-03     54.3936E-03    -26.5123E-03     87.9259E-03    -28.2444E-03     54.8246E-03    -26.5764E-03     87.7492E-03
             555     14.8992E-03     72.2141E-03    -10.0211E+06     78.9623E+06    -5.31533E+06     1.16203E+06    -28.3818E-03     54.8001E-03    -26.4183E-03     110.881E-03    -29.1715E-03     55.8499E-03    -26.5448E-03     110.717E-03
             556     15.7786E-03     72.3319E-03    -6.38158E+06     125.949E+06     39.4544E+06     818.788E+03    -29.4459E-03     55.9737E-03    -26.5278E-03     141.152E-03    -31.0866E-03     57.9245E-03    -26.5039E-03     141.272E-03
             557     16.6539E-03     72.4870E-03    -3.92273E+06     141.313E+06     84.6804E+06     96.5594E+03    -28.6892E-03     55.3938E-03    -26.7046E-03     105.250E-03    -30.1241E-03     57.0709E-03    -26.4804E-03     105.616E-03
             558     876.256E-06     72.5234E-03    -31.7816E+06    -122.207E+06    -31.1233E+06     58.5106E+03    -26.7662E-03     53.5423E-03    -26.7761E-03     5.59275E-03    -26.7030E-03     53.0227E-03    -26.7084E-03     5.59056E-03
             559     1.75262E-03     72.5311E-03    -30.8698E+06    -122.238E+06    -28.6636E+06     204.777E+03    -26.7950E-03     53.5746E-03    -26.7797E-03     10.3162E-03    -26.7310E-03     53.0502E-03    -26.7010E-03     10.3133E-03
             560     2.62880E-03     72.5430E-03    -29.6252E+06    -119.793E+06    -25.4295E+06     170.170E+03    -26.8110E-03     53.5995E-03    -26.7885E-03     15.2668E-03    -26.7496E-03     53.0814E-03    -26.6990E-03     15.2603E-03
             561     3.50523E-03     72.5601E-03    -27.9741E+06    -116.683E+06    -21.1559E+06     242.192E+03    -26.8330E-03     53.6303E-03    -26.7973E-03     20.2582E-03    -26.7749E-03     53.1200E-03    -26.6934E-03     20.2490E-03
             562     4.38144E-03     72.5814E-03    -26.0739E+06    -112.282E+06    -16.5151E+06     302.425E+03    -26.8776E-03     53.6822E-03    -26.8047E-03     25.2318E-03    -26.8244E-03     53.1858E-03    -26.6866E-03     25.2189E-03
             563     5.25788E-03     72.6080E-03    -24.1001E+06    -107.826E+06    -11.9094E+06     142.924E+03    -26.9209E-03     53.7321E-03    -26.8112E-03     30.1668E-03    -26.8730E-03     53.2504E-03    -26.6795E-03     30.1464E-03
             564     6.13415E-03     72.6386E-03    -22.0051E+06    -103.176E+06    -7.39155E+06     179.604E+03    -26.9442E-03     53.7576E-03    -26.8134E-03     35.0747E-03    -26.9018E-03     53.2923E-03    -26.6689E-03     35.0484E-03
             565     7.01068E-03     72.6746E-03    -19.6629E+06    -98.1351E+06    -2.97238E+06     361.378E+03    -27.0359E-03     53.8493E-03    -26.8134E-03     39.8205E-03    -26.9995E-03     53.4033E-03    -26.6574E-03     39.7883E-03
             566     7.88702E-03     72.7141E-03    -17.5274E+06    -92.3284E+06    -48.9874E+03     280.949E+03    -27.1724E-03     53.9824E-03    -26.8100E-03     44.4988E-03    -27.1436E-03     53.5637E-03    -26.6509E-03     44.4553E-03
             567     8.76321E-03     72.7591E-03    -15.6910E+06    -85.1224E+06     655.484E+03     208.063E+03    -27.2148E-03     54.0092E-03    -26.7944E-03     49.1284E-03    -27.1959E-03     53.6305E-03    -26.6449E-03     49.0723E-03
             568     9.64006E-03     72.8075E-03    -13.9944E+06    -77.9111E+06     812.292E+03     41.5326E+03    -27.2781E-03     54.0508E-03    -26.7727E-03     53.4433E-03    -27.2722E-03     53.7162E-03    -26.6354E-03     53.3706E-03
             569     10.5160E-03     72.8605E-03    -12.7746E+06    -69.5813E+06    -225.541E+03     25.6934E+03    -27.4281E-03     54.1735E-03    -26.7454E-03     58.0015E-03    -27.4423E-03     53.8960E-03    -26.6271E-03     57.9111E-03
             570     11.3927E-03     72.9176E-03    -11.7780E+06    -57.5440E+06    -877.807E+03     170.238E+03    -27.5331E-03     54.2503E-03    -26.7172E-03     62.7828E-03    -27.5815E-03     54.0552E-03    -26.6211E-03     62.6736E-03
             571     12.2691E-03     72.9799E-03    -11.0418E+06    -42.8229E+06    -2.34191E+06     302.296E+03    -27.6288E-03     54.3097E-03    -26.6810E-03     67.8195E-03    -27.7268E-03     54.2234E-03    -26.6146E-03     67.6882E-03
             572     13.1453E-03     73.0465E-03    -10.4667E+06    -23.2368E+06    -6.91113E+06     528.719E+03    -27.6831E-03     54.3022E-03    -26.6191E-03     73.9460E-03    -27.8582E-03     54.3777E-03    -26.6048E-03     73.7898E-03
             573     14.0221E-03     73.1205E-03    -9.69707E+06     21.3517E+06    -10.0211E+06     778.162E+03    -28.0194E-03     54.5427E-03    -26.5233E-03     87.6620E-03    -28.3750E-03     54.9687E-03    -26.5903E-03     87.4824E-03
             574     14.8990E-03     73.2132E-03    -8.67662E+06     80.0850E+06    -3.98461E+06     135.040E+03    -29.0973E-03     55.5564E-03    -26.4591E-03     110.946E-03    -29.8910E-03     56.6151E-03    -26.5826E-03     110.757E-03
             575     15.7723E-03     73.3324E-03    -7.63572E+06     125.732E+06     39.7958E+06    -576.485E+03    -29.8002E-03     56.3997E-03    -26.5995E-03     140.163E-03    -31.4409E-03     58.3443E-03    -26.5718E-03     140.262E-03
             576     16.6526E-03     73.4829E-03    -4.71050E+06     140.602E+06     84.0859E+06     731.220E+03    -27.6170E-03     54.3706E-03    -26.7536E-03     105.996E-03    -29.0485E-03     56.0407E-03    -26.5302E-03     106.388E-03
             577     876.311E-06     73.5235E-03    -32.3256E+06    -122.195E+06    -31.5957E+06     96.3706E+03    -26.7668E-03     53.5317E-03    -26.7649E-03     5.60424E-03    -26.7056E-03     53.0135E-03    -26.6988E-03     5.60255E-03
             578     1.75255E-03     73.5308E-03    -31.3271E+06    -122.313E+06    -29.2407E+06     85.3379E+03    -26.7872E-03     53.5606E-03    -26.7734E-03     10.3115E-03    -26.7245E-03     53.0373E-03    -26.6969E-03     10.3071E-03
             579     2.62893E-03     73.5431E-03    -29.9310E+06    -119.677E+06    -25.8275E+06     91.9791E+03    -26.8062E-03     53.5884E-03    -26.7822E-03     15.2602E-03    -26.7459E-03     53.0719E-03    -26.6944E-03     15.2527E-03
             580     3.50513E-03     73.5597E-03    -28.3428E+06    -116.715E+06    -21.6407E+06     83.9999E+03    -26.8335E-03     53.6253E-03    -26.7918E-03     20.2527E-03    -26.7765E-03     53.1161E-03    -26.6896E-03     20.2414E-03
             581     4.38156E-03     73.5816E-03    -26.4103E+06    -112.264E+06    -16.9504E+06     159.687E+03    -26.8688E-03     53.6684E-03    -26.7995E-03     25.2360E-03    -26.8167E-03     53.1731E-03    -26.6832E-03     25.2213E-03
             582     5.25782E-03     73.6076E-03    -24.3007E+06    -107.511E+06    -11.9371E+06     134.157E+03    -26.9245E-03     53.7322E-03    -26.8077E-03     30.1565E-03    -26.8780E-03     53.2524E-03    -26.6763E-03     30.1360E-03
             583     6.13422E-03     73.6388E-03    -22.1108E+06    -103.035E+06    -7.39596E+06    -35.7066E+03    -26.9614E-03     53.7737E-03    -26.8123E-03     34.9851E-03    -26.9197E-03     53.3093E-03    -26.6679E-03     34.9558E-03
             584     7.01063E-03     73.6739E-03    -19.8426E+06    -98.2729E+06    -3.35906E+06     42.0526E+03    -27.0401E-03     53.8526E-03    -26.8126E-03     39.8337E-03    -27.0038E-03     53.4068E-03    -26.6581E-03     39.7973E-03
             585     7.88693E-03     73.7146E-03    -17.6172E+06    -92.0564E+06    -407.174E+03     212.583E+03    -27.1769E-03     53.9858E-03    -26.8089E-03     44.5498E-03    -27.1483E-03     53.5691E-03    -26.6519E-03     44.5055E-03
             586     8.76338E-03     73.7585E-03    -15.8221E+06    -84.8701E+06     348.553E+03     2.96531E+03    -27.2266E-03     54.0211E-03    -26.7945E-03     49.0446E-03    -27.2083E-03     53.6443E-03    -26.6467E-03     48.9857E-03
             587     9.63960E-03     73.8076E-03    -14.2226E+06    -77.7870E+06     380.060E+03    -100.286E+03    -27.2682E-03     54.0408E-03    -26.7726E-03     53.4341E-03    -27.2629E-03     53.7077E-03    -26.6373E-03     53.3598E-03
             588     10.5164E-03     73.8602E-03    -12.7925E+06    -69.5311E+06    -534.755E+03    -55.9086E+03    -27.4206E-03     54.1654E-03    -26.7448E-03     58.0823E-03    -27.4345E-03     53.8886E-03    -26.6281E-03     57.9910E-03
             589     11.3925E-03     73.9179E-03    -11.9104E+06    -57.6608E+06    -1.30616E+06     31.9319E+03    -27.5522E-03     54.2687E-03    -26.7165E-03     62.9031E-03    -27.6004E-03     54.0737E-03    -26.6222E-03     62.7923E-03
             590     12.2690E-03     73.9794E-03    -10.9485E+06    -43.0289E+06    -2.74771E+06     106.739E+03    -27.6151E-03     54.2950E-03    -26.6799E-03     68.0074E-03    -27.7118E-03     54.2081E-03    -26.6153E-03     67.8739E-03
             591     13.1456E-03     74.0469E-03    -10.1294E+06    -23.3950E+06    -7.19532E+06     441.051E+03    -27.7103E-03     54.3282E-03    -26.6180E-03     74.1130E-03    -27.8825E-03     54.4023E-03    -26.6053E-03     73.9560E-03
             592     14.0221E-03     74.1196E-03    -9.96597E+06     22.1132E+06    -10.0446E+06    -6.54883E+03    -28.1985E-03     54.7267E-03    -26.5282E-03     88.2009E-03    -28.5585E-03     55.1590E-03    -26.5961E-03     88.0093E-03
             593     14.8979E-03     74.2143E-03    -9.93500E+06     80.4702E+06    -4.28532E+06    -387.936E+03    -29.0465E-03     55.5117E-03    -26.4652E-03     112.466E-03    -29.8489E-03     56.5769E-03    -26.5889E-03     112.274E-03
             594     15.7764E-03     74.3335E-03    -8.92863E+06     125.045E+06     38.3443E+06     992.611E+03    -30.0132E-03     56.6131E-03    -26.5999E-03     141.845E-03    -31.6641E-03     58.5649E-03    -26.5765E-03     141.959E-03
             595     16.6500E-03     74.4818E-03    -4.84497E+06     140.761E+06     83.3155E+06     862.157E+03    -27.6102E-03     54.3654E-03    -26.7552E-03     106.798E-03    -29.0505E-03     56.0466E-03    -26.5357E-03     107.189E-03
             596     876.292E-06     74.5232E-03    -32.3128E+06    -122.196E+06    -31.6883E+06     42.0008E+03    -26.7745E-03     53.5314E-03    -26.7569E-03     5.62019E-03    -26.7131E-03     53.0134E-03    -26.6913E-03     5.61779E-03
             597     1.75259E-03     74.5309E-03    -31.4910E+06    -122.140E+06    -29.4239E+06    -23.3967E+03    -26.7821E-03     53.5538E-03    -26.7717E-03     10.3017E-03    -26.7202E-03     53.0319E-03    -26.6960E-03     10.2958E-03
             598     2.62886E-03     74.5428E-03    -30.2865E+06    -119.580E+06    -26.3306E+06    -65.7354E+03    -26.7974E-03     53.5749E-03    -26.7776E-03     15.2593E-03    -26.7382E-03     53.0601E-03    -26.6919E-03     15.2497E-03
             599     3.50524E-03     74.5599E-03    -28.6668E+06    -116.524E+06    -22.0008E+06    -42.4530E+03    -26.8334E-03     53.6207E-03    -26.7873E-03     20.2500E-03    -26.7778E-03     53.1135E-03    -26.6868E-03     20.2371E-03
             600     4.38148E-03     74.5812E-03    -26.7756E+06    -112.284E+06    -17.4254E+06    -67.5595E+03    -26.8688E-03     53.6645E-03    -26.7957E-03     25.2262E-03    -26.8178E-03     53.1704E-03    -26.6812E-03     25.2085E-03
             601     5.25789E-03     74.6078E-03    -24.6331E+06    -107.370E+06    -12.4014E+06    -12.2090E+03    -26.9122E-03     53.7155E-03    -26.8033E-03     30.1620E-03    -26.8668E-03     53.2375E-03    -26.6739E-03     30.1397E-03
             602     6.13421E-03     74.6384E-03    -22.3740E+06    -102.669E+06    -7.40706E+06    -144.613E+03    -27.0044E-03     53.8166E-03    -26.8122E-03     34.9972E-03    -26.9646E-03     53.3544E-03    -26.6679E-03     34.9664E-03
             603     7.01050E-03     74.6742E-03    -20.2203E+06    -98.3363E+06    -3.56638E+06    -185.899E+03    -27.0613E-03     53.8778E-03    -26.8166E-03     39.8313E-03    -27.0265E-03     53.4325E-03    -26.6625E-03     39.7919E-03
             604     7.88704E-03     74.7141E-03    -17.9889E+06    -92.2609E+06    -1.15989E+06    -114.754E+03    -27.1003E-03     53.9075E-03    -26.8072E-03     44.5808E-03    -27.0721E-03     53.4913E-03    -26.6531E-03     44.5326E-03
             605     8.76332E-03     74.7589E-03    -15.7732E+06    -84.5280E+06     92.8602E+03    -236.345E+03    -27.2256E-03     54.0152E-03    -26.7896E-03     49.0789E-03    -27.2072E-03     53.6404E-03    -26.6437E-03     49.0171E-03
             606     9.63984E-03     74.8071E-03    -14.0735E+06    -77.3531E+06     323.905E+03    -347.318E+03    -27.3259E-03     54.0969E-03    -26.7710E-03     53.4946E-03    -27.3204E-03     53.7660E-03    -26.6369E-03     53.4169E-03
             607     10.5160E-03     74.8603E-03    -12.6952E+06    -69.5566E+06    -765.352E+03    -285.983E+03    -27.3745E-03     54.1181E-03    -26.7436E-03     58.1050E-03    -27.3873E-03     53.8412E-03    -26.6282E-03     58.0110E-03
             608     11.3928E-03     74.9175E-03    -11.4984E+06    -57.8463E+06    -1.32094E+06    -161.123E+03    -27.4588E-03     54.1695E-03    -26.7107E-03     62.9434E-03    -27.5044E-03     53.9728E-03    -26.6168E-03     62.8307E-03
             609     12.2692E-03     74.9796E-03    -10.8152E+06    -42.9439E+06    -2.78488E+06    -4.91174E+03    -27.5766E-03     54.2460E-03    -26.6693E-03     68.0560E-03    -27.6724E-03     54.1590E-03    -26.6053E-03     67.9214E-03
             610     13.1457E-03     75.0462E-03    -10.2507E+06    -23.5995E+06    -7.40258E+06     -98.554E+03    -27.7310E-03     54.3382E-03    -26.6072E-03     74.1910E-03    -27.9035E-03     54.4120E-03    -26.5951E-03     74.0267E-03
             611     14.0221E-03     75.1202E-03    -10.1488E+06     22.4778E+06    -10.3702E+06     399.773E+03    -28.1237E-03     54.6385E-03    -26.5147E-03     88.5235E-03    -28.4860E-03     55.0746E-03    -26.5844E-03     88.3373E-03
             612     14.8992E-03     75.2139E-03    -11.4886E+06     80.5864E+06    -5.04469E+06     865.621E+03    -28.6479E-03     55.0870E-03    -26.4391E-03     112.192E-03    -29.4501E-03     56.1491E-03    -26.5645E-03     112.022E-03
             613     15.7752E-03     75.3325E-03    -9.79612E+06     124.757E+06     37.5528E+06    -203.388E+03    -29.6316E-03     56.1862E-03    -26.5546E-03     141.371E-03    -31.2926E-03     58.1464E-03    -26.5335E-03     141.477E-03
             614     16.6548E-03     75.4838E-03    -4.53529E+06     141.237E+06     83.1502E+06    -210.598E+03    -28.1475E-03     54.8660E-03    -26.7185E-03     105.379E-03    -29.5937E-03     56.5563E-03    -26.5009E-03     105.745E-03
             615     876.274E-06     75.5233E-03    -32.7567E+06    -122.112E+06    -32.0104E+06    -1.85123E+03    -26.7635E-03     53.5284E-03    -26.7649E-03     5.61625E-03    -26.7039E-03     53.0119E-03    -26.7004E-03     5.61328E-03
             616     1.75258E-03     75.5306E-03    -31.8197E+06    -121.906E+06    -29.8301E+06    -78.7479E+03    -26.7745E-03     53.5431E-03    -26.7685E-03     10.3002E-03    -26.7141E-03     53.0234E-03    -26.6948E-03     10.2936E-03
             617     2.62890E-03     75.5429E-03    -30.6443E+06    -119.415E+06    -26.5329E+06    -108.534E+03    -26.7975E-03     53.5725E-03    -26.7750E-03     15.2643E-03    -26.7401E-03     53.0593E-03    -26.6900E-03     15.2541E-03
             618     3.50519E-03     75.5595E-03    -29.0732E+06    -116.313E+06    -22.2803E+06    -169.923E+03    -26.8260E-03     53.6105E-03    -26.7845E-03     20.2531E-03    -26.7723E-03     53.1053E-03    -26.6851E-03     20.2385E-03
             619     4.38154E-03     75.5814E-03    -27.1042E+06    -112.026E+06    -17.7454E+06    -300.925E+03    -26.8651E-03     53.6571E-03    -26.7920E-03     25.2329E-03    -26.8157E-03     53.1652E-03    -26.6790E-03     25.2123E-03
             620     5.25785E-03     75.6073E-03    -24.9103E+06    -107.381E+06    -12.9244E+06    -323.898E+03    -26.9126E-03     53.7118E-03    -26.7992E-03     30.1633E-03    -26.8679E-03     53.2349E-03    -26.6720E-03     30.1369E-03
             621     6.13426E-03     75.6386E-03    -22.6770E+06    -102.426E+06    -7.66492E+06    -207.732E+03    -26.9975E-03     53.8064E-03    -26.8089E-03     35.0816E-03    -26.9592E-03     53.3463E-03    -26.6659E-03     35.0501E-03
             622     7.01055E-03     75.6739E-03    -20.3829E+06    -97.9034E+06    -3.53061E+06    -384.445E+03    -27.0851E-03     53.9007E-03    -26.8156E-03     39.8360E-03    -27.0519E-03     53.4578E-03    -26.6617E-03     39.7939E-03
             623     7.88684E-03     75.7141E-03    -18.1060E+06    -91.9310E+06    -1.47480E+06    -613.917E+03    -27.0966E-03     53.9027E-03    -26.8061E-03     44.5324E-03    -27.0691E-03     53.4888E-03    -26.6539E-03     44.4777E-03
             624     8.76354E-03     75.7585E-03    -15.9555E+06    -84.5475E+06    -522.352E+03    -741.829E+03    -27.1497E-03     53.9334E-03    -26.7837E-03     49.1032E-03    -27.1311E-03     53.5596E-03    -26.6406E-03     49.0351E-03
             625     9.63978E-03     75.8074E-03    -14.1953E+06    -77.2746E+06    -114.339E+03    -679.719E+03    -27.2967E-03     54.0579E-03    -26.7611E-03     53.5689E-03    -27.2914E-03     53.7281E-03    -26.6291E-03     53.4871E-03
             626     10.5163E-03     75.8599E-03    -12.8158E+06    -69.4712E+06    -1.16700E+06    -576.895E+03    -27.3973E-03     54.1313E-03    -26.7340E-03     58.2068E-03    -27.4104E-03     53.8557E-03    -26.6205E-03     58.1089E-03
             627     11.3926E-03     75.9174E-03    -11.4375E+06    -57.8360E+06    -1.66700E+06    -477.656E+03    -27.4357E-03     54.1374E-03    -26.7017E-03     62.9445E-03    -27.4806E-03     53.9412E-03    -26.6096E-03     62.8277E-03
             628     12.2694E-03     75.9792E-03    -10.4046E+06    -43.0919E+06    -3.03882E+06    -201.457E+03    -27.5246E-03     54.1829E-03    -26.6583E-03     67.9861E-03    -27.6174E-03     54.0946E-03    -26.5960E-03     67.8495E-03
             629     13.1458E-03     76.0464E-03    -10.1281E+06    -23.2126E+06    -7.48258E+06    -145.040E+03    -27.6989E-03     54.2933E-03    -26.5944E-03     74.2435E-03    -27.8717E-03     54.3695E-03    -26.5835E-03     74.0787E-03
             630     14.0225E-03     76.1196E-03    -9.85742E+06     21.0492E+06    -10.9837E+06     279.298E+03    -28.0205E-03     54.5188E-03    -26.4983E-03     88.3916E-03    -28.3774E-03     54.9473E-03    -26.5694E-03     88.2052E-03
             631     14.8989E-03     76.2139E-03    -8.11187E+06     80.5877E+06    -4.76861E+06     1.19652E+06    -28.4760E-03     54.8894E-03    -26.4134E-03     111.913E-03    -29.2602E-03     55.9447E-03    -26.5423E-03     111.751E-03
             632     15.7766E-03     76.3320E-03    -7.12891E+06     127.029E+06     40.2959E+06     755.769E+03    -29.5046E-03     56.0344E-03    -26.5298E-03     142.117E-03    -31.1562E-03     57.9948E-03    -26.5022E-03     142.244E-03
             633     16.6514E-03     76.4829E-03    -5.02307E+06     141.061E+06     84.2574E+06    -251.821E+03    -28.3940E-03     55.0886E-03    -26.6947E-03     105.768E-03    -29.8375E-03     56.7707E-03    -26.4706E-03     106.136E-03
             634     876.304E-06     76.5230E-03    -33.4501E+06    -121.805E+06    -32.9089E+06    -75.0004E+03    -26.7531E-03     53.5167E-03    -26.7636E-03     5.58905E-03    -26.6961E-03     53.0040E-03    -26.7030E-03     5.58511E-03
             635     1.75258E-03     76.5306E-03    -32.5192E+06    -121.621E+06    -30.3777E+06    -247.337E+03    -26.7684E-03     53.5321E-03    -26.7637E-03     10.3091E-03    -26.7110E-03     53.0157E-03    -26.6921E-03     10.3003E-03
             636     2.62890E-03     76.5426E-03    -31.0556E+06    -119.310E+06    -26.6890E+06    -176.787E+03    -26.7964E-03     53.5688E-03    -26.7724E-03     15.2703E-03    -26.7410E-03     53.0570E-03    -26.6878E-03     15.2593E-03
             637     3.50519E-03     76.5596E-03    -29.3116E+06    -115.916E+06    -22.3879E+06    -313.733E+03    -26.8212E-03     53.6030E-03    -26.7818E-03     20.2503E-03    -26.7691E-03     53.1003E-03    -26.6832E-03     20.2338E-03
             638     4.38155E-03     76.5810E-03    -27.3252E+06    -111.608E+06    -17.9230E+06    -543.663E+03    -26.8549E-03     53.6431E-03    -26.7882E-03     25.2343E-03    -26.8069E-03     53.1539E-03    -26.6764E-03     25.2105E-03
             639     5.25789E-03     76.6075E-03    -25.1420E+06    -107.192E+06    -13.1081E+06    -655.391E+03    -26.9195E-03     53.7154E-03    -26.7959E-03     30.1829E-03    -26.8759E-03     53.2401E-03    -26.6696E-03     30.1522E-03
             640     6.13421E-03     76.6382E-03    -22.7847E+06    -102.467E+06    -8.08544E+06    -513.170E+03    -26.9681E-03     53.7718E-03    -26.8036E-03     35.0948E-03    -26.9297E-03     53.3121E-03    -26.6624E-03     35.0594E-03
             641     7.01066E-03     76.6742E-03    -20.3904E+06    -97.3713E+06    -3.73740E+06    -579.781E+03    -27.0539E-03     53.8608E-03    -26.8069E-03     39.9012E-03    -27.0211E-03     53.4208E-03    -26.6549E-03     39.8567E-03
             642     7.88699E-03     76.7138E-03    -18.1139E+06    -91.2298E+06    -1.71977E+06    -1.06200E+06    -27.1350E-03     53.9329E-03    -26.7979E-03     44.5329E-03    -27.1082E-03     53.5229E-03    -26.6480E-03     44.4723E-03
             643     8.76325E-03     76.7584E-03    -16.1790E+06    -84.3504E+06    -1.07025E+06    -1.19585E+06    -27.1355E-03     53.9126E-03    -26.7771E-03     49.1313E-03    -27.1175E-03     53.5408E-03    -26.6367E-03     49.0574E-03
             644     9.64007E-03     76.8069E-03    -14.3470E+06    -77.3864E+06    -687.489E+03    -1.14543E+06    -27.2190E-03     53.9700E-03    -26.7510E-03     53.5851E-03    -27.2133E-03     53.6406E-03    -26.6214E-03     53.4975E-03
             645     10.5165E-03     76.8601E-03    -12.7539E+06    -69.3380E+06    -1.49784E+06    -1.01210E+06    -27.3860E-03     54.1072E-03    -26.7213E-03     58.1018E-03    -27.3985E-03     53.8327E-03    -26.6097E-03     57.9983E-03
             646     11.3930E-03     76.9171E-03    -11.6508E+06    -57.8391E+06    -2.16626E+06    -909.317E+03    -27.4987E-03     54.1904E-03    -26.6916E-03     62.8978E-03    -27.5442E-03     53.9954E-03    -26.6017E-03     62.7749E-03
             647     12.2692E-03     76.9792E-03    -10.5892E+06    -43.1413E+06    -3.41661E+06    -638.377E+03    -27.5388E-03     54.1913E-03    -26.6525E-03     67.8996E-03    -27.6321E-03     54.1038E-03    -26.5917E-03     67.7570E-03
             648     13.1462E-03     77.0458E-03    -10.0180E+06    -23.6179E+06    -7.80738E+06    -81.9020E+03    -27.6488E-03     54.2371E-03    -26.5884E-03     74.1265E-03    -27.8198E-03     54.3114E-03    -26.5786E-03     73.9627E-03
             649     14.0224E-03     77.1201E-03    -10.0045E+06     21.0323E+06    -10.9653E+06    -113.448E+03    -27.9751E-03     54.4667E-03    -26.4916E-03     88.0782E-03    -28.3321E-03     54.8947E-03    -26.5624E-03     87.8874E-03
             650     14.8996E-03     77.2128E-03    -10.1383E+06     79.5187E+06    -6.39031E+06    -254.902E+03    -28.5587E-03     54.9652E-03    -26.4065E-03     111.001E-03    -29.3483E-03     56.0196E-03    -26.5390E-03     110.818E-03
             651     15.7770E-03     77.3311E-03    -7.61219E+06     126.502E+06     37.7077E+06     1.34912E+06    -29.3224E-03     55.8392E-03    -26.5169E-03     140.671E-03    -30.9512E-03     57.7808E-03    -26.5007E-03     140.799E-03
             652     16.6562E-03     77.4841E-03    -3.93408E+06     142.677E+06     84.0819E+06     848.187E+03    -28.5457E-03     55.2363E-03    -26.6906E-03     105.818E-03    -29.9736E-03     56.9129E-03    -26.4713E-03     106.199E-03
             653     876.265E-06     77.5230E-03    -33.7806E+06    -121.420E+06    -33.1890E+06    -290.689E+03    -26.7546E-03     53.5001E-03    -26.7454E-03     5.58449E-03    -26.6995E-03     52.9902E-03    -26.6863E-03     5.57776E-03
             654     1.75262E-03     77.5304E-03    -32.9073E+06    -121.211E+06    -30.6008E+06    -228.777E+03    -26.7746E-03     53.5336E-03    -26.7589E-03     10.3180E-03    -26.7195E-03     53.0200E-03    -26.6885E-03     10.3094E-03
             655     2.62887E-03     77.5426E-03    -31.5777E+06    -119.049E+06    -27.1126E+06    -418.688E+03    -26.7883E-03     53.5576E-03    -26.7693E-03     15.2646E-03    -26.7353E-03     53.0485E-03    -26.6865E-03     15.2505E-03
             656     3.50525E-03     77.5593E-03    -29.6914E+06    -115.415E+06    -22.9343E+06    -602.655E+03    -26.8152E-03     53.5918E-03    -26.7766E-03     20.2534E-03    -26.7649E-03     53.0929E-03    -26.6809E-03     20.2332E-03
             657     4.38151E-03     77.5810E-03    -27.6638E+06    -111.164E+06    -18.2386E+06    -759.804E+03    -26.8558E-03     53.6402E-03    -26.7844E-03     25.2307E-03    -26.8097E-03     53.1542E-03    -26.6743E-03     25.2041E-03
             658     5.25793E-03     77.6072E-03    -25.5657E+06    -106.875E+06    -13.3515E+06    -866.501E+03    -26.8991E-03     53.6911E-03    -26.7920E-03     30.1987E-03    -26.8578E-03     53.2183E-03    -26.6667E-03     30.1653E-03
             659     6.13425E-03     77.6384E-03    -23.2218E+06    -102.359E+06    -8.71854E+06    -1.00864E+06    -26.9553E-03     53.7516E-03    -26.7963E-03     35.0850E-03    -26.9183E-03     53.2941E-03    -26.6578E-03     35.0432E-03
             660     7.01068E-03     77.6736E-03    -20.6983E+06    -96.9160E+06    -4.62644E+06    -1.09516E+06    -27.0055E-03     53.8001E-03    -26.7947E-03     39.9097E-03    -26.9736E-03     53.3641E-03    -26.6473E-03     39.8588E-03
             661     7.88711E-03     77.7142E-03    -18.3388E+06    -90.6028E+06    -2.24274E+06    -1.45594E+06    -27.0951E-03     53.8782E-03    -26.7831E-03     44.5311E-03    -27.0695E-03     53.4724E-03    -26.6364E-03     44.4655E-03
             662     8.76362E-03     77.7578E-03    -16.2075E+06    -83.7607E+06    -1.41496E+06    -1.74346E+06    -27.2068E-03     53.9724E-03    -26.7656E-03     49.0931E-03    -27.1895E-03     53.6043E-03    -26.6277E-03     49.0118E-03
             663     9.63986E-03     77.8070E-03    -14.3224E+06    -77.1996E+06    -1.10991E+06    -1.71863E+06    -27.2764E-03     54.0228E-03    -26.7464E-03     53.5452E-03    -27.2703E-03     53.6951E-03    -26.6193E-03     53.4500E-03
             664     10.5164E-03     77.8595E-03    -12.7491E+06    -69.7896E+06    -2.19293E+06    -1.62932E+06    -27.3585E-03     54.0765E-03    -26.7180E-03     57.9997E-03    -27.3693E-03     53.8007E-03    -26.6093E-03     57.8883E-03
             665     11.3928E-03     77.9172E-03    -11.5436E+06    -57.6625E+06    -2.46299E+06    -1.26553E+06    -27.4748E-03     54.1624E-03    -26.6876E-03     62.7782E-03    -27.5193E-03     53.9683E-03    -26.5995E-03     62.6511E-03
             666     12.2695E-03     77.9787E-03    -10.8046E+06    -43.3798E+06    -3.98028E+06    -918.319E+03    -27.6253E-03     54.2760E-03    -26.6507E-03     67.7911E-03    -27.7189E-03     54.1888E-03    -26.5920E-03     67.6442E-03
             667     13.1456E-03     78.0458E-03    -10.2775E+06    -24.3764E+06    -8.53855E+06    -452.430E+03    -27.7170E-03     54.3090E-03    -26.5920E-03     73.9466E-03    -27.8871E-03     54.3809E-03    -26.5845E-03     73.7775E-03
             668     14.0226E-03     78.1193E-03    -10.4019E+06     21.2881E+06    -11.5194E+06     349.774E+03    -28.0826E-03     54.5834E-03    -26.5008E-03     87.6798E-03    -28.4405E-03     55.0134E-03    -26.5742E-03     87.4938E-03
             669     14.8989E-03     78.2129E-03    -10.9128E+06     80.0361E+06    -7.63627E+06     287.470E+03    -29.1068E-03     55.5386E-03    -26.4318E-03     110.663E-03    -29.9035E-03     56.6029E-03    -26.5702E-03     110.477E-03
             670     15.7742E-03     78.3310E-03    -9.59460E+06     125.217E+06     35.4724E+06    -941.428E+03    -29.9966E-03     56.5751E-03    -26.5785E-03     138.916E-03    -31.6314E-03     58.5174E-03    -26.5688E-03     138.999E-03
             671     16.6511E-03     78.4799E-03    -4.53279E+06     142.344E+06     83.3076E+06    -37.5490E+03    -27.7873E-03     54.5453E-03    -26.7580E-03     105.467E-03    -29.2189E-03     56.2247E-03    -26.5413E-03     105.841E-03
             672     876.367E-06     78.5228E-03    -34.2383E+06    -120.963E+06    -33.3347E+06    -175.411E+03    -26.7547E-03     53.4930E-03    -26.7382E-03     5.60904E-03    -26.7023E-03     52.9863E-03    -26.6799E-03     5.60382E-03
             673     1.75256E-03     78.5303E-03    -33.2146E+06    -120.878E+06    -30.9346E+06    -262.848E+03    -26.7731E-03     53.5288E-03    -26.7558E-03     10.3062E-03    -26.7195E-03     53.0179E-03    -26.6870E-03     10.2972E-03
             674     2.62892E-03     78.5424E-03    -31.8193E+06    -118.336E+06    -27.5534E+06    -524.993E+03    -26.7829E-03     53.5479E-03    -26.7649E-03     15.2635E-03    -26.7315E-03     53.0433E-03    -26.6850E-03     15.2480E-03
             675     3.50519E-03     78.5592E-03    -30.2097E+06    -114.871E+06    -23.6254E+06    -928.632E+03    -26.8088E-03     53.5798E-03    -26.7710E-03     20.2559E-03    -26.7609E-03     53.0854E-03    -26.6788E-03     20.2315E-03
             676     4.38161E-03     78.5808E-03    -28.1876E+06    -110.759E+06    -18.8439E+06    -1.04089E+06    -26.8483E-03     53.6272E-03    -26.7789E-03     25.2452E-03    -26.8045E-03     53.1449E-03    -26.6717E-03     25.2149E-03
             677     5.25785E-03     78.6072E-03    -25.9767E+06    -106.472E+06    -13.6018E+06    -1.09132E+06    -26.8879E-03     53.6754E-03    -26.7874E-03     30.1826E-03    -26.8489E-03     53.2055E-03    -26.6634E-03     30.1463E-03
             678     6.13438E-03     78.6380E-03    -23.5534E+06    -101.653E+06    -8.94233E+06    -1.47300E+06    -26.9394E-03     53.7297E-03    -26.7903E-03     35.0756E-03    -26.9048E-03     53.2765E-03    -26.6534E-03     35.0278E-03
             679     7.01064E-03     78.6738E-03    -20.9372E+06    -96.3397E+06    -5.30874E+06    -1.94109E+06    -26.9935E-03     53.7790E-03    -26.7855E-03     39.8553E-03    -26.9626E-03     53.3472E-03    -26.6420E-03     39.7934E-03
             680     7.88722E-03     78.7134E-03    -18.3728E+06    -89.8906E+06    -2.88199E+06    -2.13013E+06    -27.0793E-03     53.8523E-03    -26.7729E-03     44.4997E-03    -27.0541E-03     53.4510E-03    -26.6304E-03     44.4254E-03
             681     8.76355E-03     78.7583E-03    -16.1067E+06    -83.1113E+06    -1.74855E+06    -2.35698E+06    -27.2292E-03     53.9870E-03    -26.7578E-03     49.0292E-03    -27.2119E-03     53.6225E-03    -26.6227E-03     48.9397E-03
             682     9.63996E-03     78.8065E-03    -14.2670E+06    -77.0414E+06    -1.61117E+06    -2.40424E+06    -27.3183E-03     54.0603E-03    -26.7420E-03     53.5274E-03    -27.3116E-03     53.7341E-03    -26.6177E-03     53.4231E-03
             683     10.5164E-03     78.8597E-03    -12.7935E+06    -70.0090E+06    -2.81498E+06    -2.19076E+06    -27.3742E-03     54.0903E-03    -26.7161E-03     58.0939E-03    -27.3840E-03     53.8144E-03    -26.6102E-03     57.9752E-03
             684     11.3929E-03     78.9166E-03    -11.4814E+06    -57.9363E+06    -3.08339E+06    -1.71220E+06    -27.4989E-03     54.1857E-03    -26.6868E-03     62.8670E-03    -27.5420E-03     53.9913E-03    -26.6015E-03     62.7339E-03
             685     12.2692E-03     78.9789E-03    -10.4562E+06    -43.7086E+06    -4.27775E+06    -1.17066E+06    -27.6323E-03     54.2842E-03    -26.6519E-03     67.8411E-03    -27.7232E-03     54.1952E-03    -26.5947E-03     67.6911E-03
             686     13.1459E-03     79.0456E-03    -10.0730E+06    -25.0280E+06    -9.17732E+06    -634.288E+03    -27.7910E-03     54.3853E-03    -26.5942E-03     74.0562E-03    -27.9585E-03     54.4547E-03    -26.5892E-03     73.8844E-03
             687     14.0219E-03     79.1193E-03    -9.42499E+06     20.2175E+06    -11.6652E+06     153.535E+03    -28.2908E-03     54.8029E-03    -26.5121E-03     88.2454E-03    -28.6438E-03     55.2280E-03    -26.5861E-03     88.0547E-03
             688     14.8982E-03     79.2132E-03    -8.97986E+06     80.5859E+06    -5.53941E+06     833.066E+03    -29.0672E-03     55.5189E-03    -26.4517E-03     111.985E-03    -29.8613E-03     56.5833E-03    -26.5833E-03     111.808E-03
             689     15.7749E-03     79.3322E-03    -8.49728E+06     127.132E+06     37.4524E+06     451.341E+03    -30.2806E-03     56.8755E-03    -26.5949E-03     141.779E-03    -31.9358E-03     58.8432E-03    -26.5797E-03     141.876E-03
             690     16.6493E-03     79.4813E-03    -5.07247E+06     142.074E+06     82.7468E+06    -521.550E+03    -27.8529E-03     54.6198E-03    -26.7669E-03     107.090E-03    -29.3012E-03     56.3145E-03    -26.5518E-03     107.454E-03
             691     876.237E-06     79.5227E-03    -34.7271E+06    -120.503E+06    -33.9750E+06    -3.18639E+03    -26.7513E-03     53.4966E-03    -26.7453E-03     5.61375E-03    -26.7011E-03     52.9939E-03    -26.6901E-03     5.61076E-03
             692     1.75262E-03     79.5302E-03    -33.7979E+06    -120.323E+06    -31.6187E+06    -418.193E+03    -26.7568E-03     53.5101E-03    -26.7533E-03     10.3036E-03    -26.7059E-03     53.0037E-03    -26.6879E-03     10.2926E-03
             693     2.62889E-03     79.5423E-03    -32.3537E+06    -117.571E+06    -28.4316E+06    -773.927E+03    -26.7772E-03     53.5346E-03    -26.7574E-03     15.2669E-03    -26.7283E-03     53.0359E-03    -26.6822E-03     15.2482E-03
             694     3.50526E-03     79.5591E-03    -30.6181E+06    -114.025E+06    -23.9226E+06    -1.08563E+06    -26.8059E-03     53.5722E-03    -26.7664E-03     20.2605E-03    -26.7608E-03     53.0831E-03    -26.6762E-03     20.2341E-03
             695     4.38152E-03     79.5807E-03    -28.6403E+06    -110.262E+06    -19.0865E+06    -1.44198E+06    -26.8376E-03     53.6125E-03    -26.7749E-03     25.2365E-03    -26.7964E-03     53.1336E-03    -26.6689E-03     25.2010E-03
             696     5.25802E-03     79.6070E-03    -26.0849E+06    -105.877E+06    -13.7564E+06    -1.64748E+06    -26.8884E-03     53.6715E-03    -26.7831E-03     30.1765E-03    -26.8506E-03     53.2051E-03    -26.6605E-03     30.1330E-03
             697     6.13420E-03     79.6379E-03    -23.4760E+06    -100.558E+06    -8.98273E+06    -2.00743E+06    -26.9405E-03     53.7268E-03    -26.7863E-03     35.0487E-03    -26.9071E-03     53.2790E-03    -26.6513E-03     34.9939E-03
             698     7.01084E-03     79.6734E-03    -20.9096E+06    -95.3722E+06    -5.66041E+06    -2.70674E+06    -27.0020E-03     53.7833E-03    -26.7813E-03     39.7932E-03    -26.9719E-03     53.3568E-03    -26.6410E-03     39.7213E-03
             699     7.88707E-03     79.7135E-03     -18.374E+06    -89.3746E+06    -3.52561E+06    -3.05546E+06    -27.0946E-03     53.8640E-03    -26.7695E-03     44.5214E-03    -27.0691E-03     53.4663E-03    -26.6309E-03     44.4351E-03
             700     8.76356E-03     79.7579E-03    -16.1555E+06    -82.6281E+06    -2.40812E+06    -3.02997E+06    -27.1935E-03     53.9468E-03    -26.7533E-03     49.1025E-03    -27.1761E-03     53.5858E-03    -26.6221E-03     49.0046E-03
             701     9.63998E-03     79.8066E-03    -14.2830E+06    -76.8348E+06    -2.08161E+06    -3.09097E+06    -27.2893E-03     54.0252E-03    -26.7359E-03     53.4829E-03    -27.2823E-03     53.7008E-03    -26.6142E-03     53.3698E-03
             702     10.5165E-03     79.8593E-03    -12.5837E+06    -69.6987E+06    -3.02492E+06    -2.75718E+06    -27.4145E-03     54.1260E-03    -26.7115E-03     58.0878E-03    -27.4234E-03     53.8516E-03    -26.6074E-03     57.9617E-03
             703     11.3929E-03     79.9167E-03    -11.4697E+06    -58.5707E+06    -3.73975E+06    -2.29914E+06    -27.5161E-03     54.2000E-03    -26.6839E-03     62.9176E-03    -27.5573E-03     54.0034E-03    -26.6010E-03     62.7768E-03
             704     12.2693E-03     79.9787E-03    -10.5095E+06    -44.3258E+06    -4.88619E+06    -1.69725E+06    -27.5634E-03     54.2107E-03    -26.6473E-03     67.9438E-03    -27.6525E-03     54.1193E-03    -26.5922E-03     67.7876E-03
             705     13.1458E-03     80.0453E-03    -9.43854E+06    -25.4449E+06    -9.12981E+06    -958.047E+03    -27.7662E-03     54.3542E-03    -26.5880E-03     74.3458E-03    -27.9302E-03     54.4209E-03    -26.5831E-03     74.1700E-03
             706     14.0225E-03     80.1196E-03    -9.52144E+06     19.1376E+06    -12.4414E+06    -371.738E+03    -28.1506E-03     54.6486E-03    -26.4980E-03     88.6662E-03    -28.5021E-03     55.0704E-03    -26.5742E-03     88.4703E-03
             707     14.8990E-03     80.2133E-03    -9.14445E+06     79.8901E+06    -7.47639E+06     453.371E+03    -28.4834E-03     54.8934E-03    -26.4100E-03     112.242E-03    -29.2709E-03     55.9537E-03    -26.5500E-03     112.069E-03
             708     15.7765E-03     80.3314E-03    -6.44561E+06     128.666E+06     38.1555E+06     451.459E+03    -29.5963E-03     56.1210E-03    -26.5248E-03     142.378E-03    -31.2478E-03     58.0957E-03    -26.5112E-03     142.488E-03
             709     16.6561E-03     80.4830E-03    -4.37975E+06     143.108E+06     83.7683E+06     59.9261E+03    -28.6239E-03     55.3289E-03    -26.7050E-03     105.434E-03    -30.0660E-03     57.0205E-03    -26.4873E-03     105.793E-03
             710     876.320E-06     80.5226E-03    -35.2111E+06    -120.100E+06    -34.7558E+06    -182.908E+03    -26.7427E-03     53.4869E-03    -26.7441E-03     5.60709E-03    -26.6944E-03     52.9880E-03    -26.6927E-03     5.60178E-03
             711     1.75259E-03     80.5300E-03    -34.2095E+06    -119.318E+06    -32.2978E+06    -606.031E+03    -26.7515E-03     53.4984E-03    -26.7468E-03     10.3131E-03    -26.7032E-03     52.9987E-03    -26.6857E-03     10.2996E-03
             712     2.62893E-03     80.5421E-03    -32.7831E+06    -116.640E+06    -28.7222E+06    -1.16924E+06    -26.7739E-03     53.5271E-03    -26.7532E-03     15.2633E-03    -26.7280E-03     53.0341E-03    -26.6802E-03     15.2395E-03
             713     3.50523E-03     80.5590E-03    -30.8428E+06    -113.260E+06    -24.0262E+06    -1.46188E+06    -26.8003E-03     53.5634E-03    -26.7632E-03     20.2565E-03    -26.7573E-03     53.0786E-03    -26.6743E-03     20.2252E-03
             714     4.38162E-03     80.5806E-03    -28.5675E+06    -109.230E+06    -18.7590E+06    -1.79923E+06    -26.8422E-03     53.6159E-03    -26.7736E-03     25.2271E-03    -26.8027E-03     53.1416E-03    -26.6676E-03     25.1870E-03
             715     5.25786E-03     80.6068E-03    -26.1674E+06    -105.053E+06    -13.9006E+06    -2.39169E+06    -26.8845E-03     53.6652E-03    -26.7806E-03     30.1641E-03    -26.8481E-03     53.2032E-03    -26.6599E-03     30.1109E-03
             716     6.13443E-03     80.6378E-03    -23.3384E+06    -99.4686E+06    -9.45158E+06    -2.82861E+06    -26.9482E-03     53.7302E-03    -26.7820E-03     35.0457E-03    -26.9150E-03     53.2884E-03    -26.6511E-03     34.9803E-03
             717     7.01057E-03     80.6732E-03    -20.6965E+06    -93.9615E+06    -5.99234E+06    -3.38349E+06    -27.0236E-03     53.8026E-03    -26.7790E-03     39.7958E-03    -26.9941E-03     53.3834E-03    -26.6427E-03     39.7150E-03
             718     7.88718E-03     80.7133E-03    -18.3983E+06    -88.8153E+06    -4.08487E+06    -3.89618E+06    -27.0659E-03     53.8332E-03    -26.7673E-03     44.5052E-03    -27.0406E-03     53.4391E-03    -26.6322E-03     44.4082E-03
             719     8.76359E-03     80.7577E-03    -16.1658E+06    -82.4113E+06    -3.16180E+06    -3.91046E+06    -27.1603E-03     53.9076E-03    -26.7473E-03     49.1615E-03    -27.1421E-03     53.5487E-03    -26.6202E-03     49.0524E-03
             720     9.64003E-03     80.8065E-03    -14.2766E+06    -76.3790E+06    -2.62837E+06    -3.77642E+06    -27.3049E-03     54.0346E-03    -26.7298E-03     53.4872E-03    -27.2977E-03     53.7132E-03    -26.6115E-03     53.3651E-03
             721     10.5164E-03     80.8591E-03    -12.8311E+06    -69.8297E+06    -3.78027E+06    -3.53027E+06    -27.4162E-03     54.1227E-03    -26.7065E-03     58.1045E-03    -27.4251E-03     53.8491E-03    -26.6056E-03     57.9684E-03
             722     11.3928E-03     80.9168E-03    -11.3031E+06    -58.8169E+06    -4.34261E+06    -2.97583E+06    -27.4682E-03     54.1458E-03    -26.6776E-03     62.9132E-03    -27.5071E-03     53.9484E-03    -26.5976E-03     62.7641E-03
             723     12.2695E-03     80.9781E-03    -10.1110E+06    -44.8975E+06    -5.53860E+06    -2.33683E+06    -27.5603E-03     54.1995E-03    -26.6391E-03     67.8873E-03    -27.6456E-03     54.1055E-03    -26.5870E-03     67.7227E-03
             724     13.1461E-03     81.0455E-03    -9.67323E+06    -26.1752E+06    -9.99851E+06    -1.56995E+06    -27.6978E-03     54.2757E-03    -26.5779E-03     74.3090E-03    -27.8604E-03     54.3400E-03    -26.5759E-03     74.1258E-03
             725     14.0223E-03     81.1192E-03    -9.16676E+06     18.3172E+06    -13.0717E+06    -571.534E+03    -27.8733E-03     54.3519E-03    -26.4786E-03     88.2728E-03    -28.2179E-03     54.7669E-03    -26.5572E-03     88.0777E-03
             726     14.8997E-03     81.2126E-03    -8.43140E+06     79.9649E+06    -7.57180E+06    -597.977E+03    -28.5007E-03     54.8873E-03    -26.3866E-03     111.216E-03    -29.2813E-03     55.9438E-03    -26.5281E-03     111.028E-03
             727     15.7772E-03     81.3300E-03    -7.95380E+06     127.982E+06     37.1744E+06    -35.5988E+03    -29.5913E-03     56.0980E-03    -26.5067E-03     141.144E-03    -31.2368E-03     58.0618E-03    -26.4948E-03     141.254E-03
             728     16.6510E-03     81.4837E-03    -4.83233E+06     142.733E+06     83.3750E+06     995.298E+03    -28.4187E-03     55.1049E-03    -26.6862E-03     105.157E-03    -29.8525E-03     56.7864E-03    -26.4693E-03     105.534E-03
             729     876.293E-06     81.5225E-03    -35.2529E+06    -119.280E+06    -34.7520E+06    -416.204E+03    -26.7415E-03     53.4750E-03    -26.7336E-03     5.59467E-03    -26.6945E-03     52.9803E-03    -26.6833E-03     5.58632E-03
             730     1.75261E-03     81.5298E-03    -34.2246E+06    -118.119E+06    -32.3410E+06    -956.061E+03    -26.7556E-03     53.4979E-03    -26.7424E-03     10.3096E-03    -26.7090E-03     53.0043E-03    -26.6832E-03     10.2916E-03
             731     2.62892E-03     81.5420E-03    -32.7683E+06    -115.467E+06    -28.4703E+06    -1.43675E+06    -26.7734E-03     53.5261E-03    -26.7526E-03     15.2676E-03    -26.7296E-03     53.0385E-03    -26.6800E-03     15.2403E-03
             732     3.50524E-03     81.5588E-03    -30.8718E+06    -112.252E+06    -23.9581E+06    -1.98601E+06    -26.8005E-03     53.5629E-03    -26.7624E-03     20.2463E-03    -26.7592E-03     53.0831E-03    -26.6747E-03     20.2082E-03
             733     4.38156E-03     81.5804E-03    -28.5331E+06    -108.279E+06    -19.0168E+06    -2.34783E+06    -26.8362E-03     53.6072E-03    -26.7710E-03     25.2377E-03    -26.7976E-03     53.1380E-03    -26.6677E-03     25.1905E-03
             734     5.25798E-03     81.6067E-03    -26.0405E+06    -103.544E+06    -14.0446E+06    -2.91207E+06    -26.8938E-03     53.6717E-03    -26.7779E-03     30.1647E-03    -26.8587E-03     53.2173E-03    -26.6602E-03     30.1048E-03
             735     6.13422E-03     81.6375E-03    -23.5593E+06    -98.3259E+06    -10.3133E+06    -3.77964E+06    -26.9365E-03     53.7133E-03    -26.7768E-03     35.0489E-03    -26.9047E-03     53.2788E-03    -26.6516E-03     34.9712E-03
             736     7.01082E-03     81.6733E-03    -20.8568E+06    -92.7814E+06     -6.9722E+06    -4.24901E+06    -27.0013E-03     53.7723E-03    -26.7710E-03     39.8552E-03    -26.9729E-03     53.3607E-03    -26.6411E-03     39.7634E-03
             737     7.88702E-03     81.7130E-03    -18.4547E+06    -87.5430E+06    -4.67332E+06    -4.62830E+06    -27.0969E-03     53.8584E-03    -26.7616E-03     44.4999E-03    -27.0729E-03     53.4717E-03    -26.6313E-03     44.3931E-03
             738     8.76363E-03     81.7575E-03    -16.4401E+06    -82.1564E+06    -4.04461E+06    -4.82947E+06    -27.1412E-03     53.8842E-03    -26.7430E-03     49.1054E-03    -27.1235E-03     53.5282E-03    -26.6202E-03     48.9845E-03
             739     9.64008E-03     81.8063E-03    -14.4760E+06    -76.2900E+06    -3.64036E+06    -4.63677E+06    -27.2587E-03     53.9806E-03    -26.7219E-03     53.6103E-03    -27.2510E-03     53.6613E-03    -26.6085E-03     53.4775E-03
             740     10.5164E-03     81.8591E-03    -12.7867E+06    -69.6079E+06    -4.44859E+06    -4.40493E+06    -27.3834E-03     54.0799E-03    -26.6965E-03     58.1536E-03    -27.3914E-03     53.8084E-03    -26.5993E-03     58.0063E-03
             741     11.3931E-03     81.9163E-03    -11.4658E+06    -59.2806E+06    -5.28137E+06    -3.89499E+06    -27.4565E-03     54.1226E-03    -26.6661E-03     62.9610E-03    -27.4941E-03     53.9243E-03    -26.5899E-03     62.8003E-03
             742     12.2694E-03     81.9783E-03    -10.3829E+06    -45.8190E+06    -6.71448E+06    -3.14461E+06    -27.6266E-03     54.2559E-03    -26.6294E-03     68.0254E-03    -27.7107E-03     54.1600E-03    -26.5815E-03     67.8499E-03
             743     13.1457E-03     82.0450E-03    -9.39930E+06    -26.7640E+06    -10.7665E+06    -2.17740E+06    -27.6558E-03     54.2259E-03    -26.5701E-03     74.1803E-03    -27.8144E-03     54.2873E-03    -26.5715E-03     73.9900E-03
             744     14.0229E-03     82.1189E-03    -8.83150E+06     17.9384E+06    -13.2729E+06    -1.43427E+06    -27.8856E-03     54.3586E-03    -26.4730E-03     87.9362E-03    -28.2268E-03     54.7706E-03    -26.5525E-03     87.7298E-03
             745     14.8996E-03     82.2116E-03    -9.65347E+06     79.1248E+06    -8.07862E+06     27.1087E+03    -28.9149E-03     55.3098E-03    -26.3948E-03     111.441E-03    -29.7024E-03     56.3673E-03    -26.5360E-03     111.256E-03
             746     15.7744E-03     82.3314E-03    -9.66897E+06     126.846E+06     34.4253E+06     1.31283E+06    -29.7659E-03     56.2876E-03    -26.5217E-03     140.702E-03    -31.4089E-03     58.2468E-03    -26.5195E-03     140.827E-03
             747     16.6559E-03     82.4807E-03    -4.70024E+06     143.231E+06     82.0192E+06     327.940E+03    -28.0812E-03     54.7812E-03    -26.6999E-03     105.676E-03    -29.5150E-03     56.4689E-03    -26.4907E-03     106.054E-03
             748     876.310E-06     82.5223E-03    -34.8447E+06    -118.108E+06    -34.3351E+06    -592.994E+03    -26.7457E-03     53.4784E-03    -26.7327E-03     5.59788E-03    -26.6990E-03     52.9883E-03    -26.6826E-03     5.58725E-03
             749     1.75260E-03     82.5298E-03    -34.0062E+06    -116.680E+06    -31.8408E+06    -1.18322E+06    -26.7563E-03     53.5008E-03    -26.7445E-03     10.3057E-03    -26.7115E-03     53.0134E-03    -26.6852E-03     10.2848E-03
             750     2.62891E-03     82.5418E-03    -32.4773E+06    -114.200E+06    -28.2575E+06    -1.78991E+06    -26.7703E-03     53.5232E-03    -26.7529E-03     15.2613E-03    -26.7272E-03     53.0413E-03    -26.6815E-03     15.2294E-03
             751     3.50524E-03     82.5587E-03    -30.5696E+06    -110.824E+06    -23.7860E+06    -2.36209E+06    -26.7989E-03     53.5603E-03    -26.7614E-03     20.2602E-03    -26.7585E-03     53.0869E-03    -26.6754E-03     20.2172E-03
             752     4.38157E-03     82.5802E-03    -28.3550E+06    -107.048E+06    -19.2158E+06       -3.05E+06    -26.8360E-03     53.6045E-03    -26.7684E-03     25.2330E-03    -26.7980E-03     53.1414E-03    -26.6682E-03     25.1768E-03
             753     5.25793E-03     82.6066E-03    -25.8201E+06    -102.104E+06    -14.7312E+06    -3.57169E+06    -26.8780E-03     53.6493E-03    -26.7713E-03     30.1947E-03    -26.8429E-03     53.2027E-03    -26.6594E-03     30.1263E-03
             754     6.13433E-03     82.6376E-03    -23.3644E+06    -96.3755E+06    -10.7637E+06    -4.42938E+06    -26.9269E-03     53.6958E-03    -26.7690E-03     35.0491E-03    -26.8963E-03     53.2714E-03    -26.6492E-03     34.9630E-03
             755     7.01069E-03     82.6728E-03    -21.0901E+06    -91.7341E+06    -7.85150E+06    -5.22462E+06    -26.9839E-03     53.7457E-03    -26.7618E-03     39.8599E-03    -26.9568E-03     53.3409E-03    -26.6375E-03     39.7555E-03
             756     7.88730E-03     82.7132E-03    -18.6523E+06    -86.5445E+06    -5.58446E+06    -5.40801E+06    -27.0893E-03     53.8406E-03    -26.7513E-03     44.5643E-03    -27.0664E-03     53.4604E-03    -26.6267E-03     44.4476E-03
             757     8.76339E-03     82.7572E-03    -16.5830E+06    -81.2548E+06    -4.68183E+06    -5.66069E+06    -27.1529E-03     53.8877E-03    -26.7348E-03     49.1225E-03    -27.1364E-03     53.5374E-03    -26.6163E-03     48.9907E-03
             758     9.64012E-03     82.8059E-03    -14.6498E+06    -75.9510E+06    -4.45264E+06    -5.70472E+06    -27.1846E-03     53.8960E-03    -26.7113E-03     53.7192E-03    -27.1771E-03     53.5797E-03    -26.6022E-03     53.5731E-03
             759     10.5168E-03     82.8591E-03    -12.8984E+06    -69.5521E+06    -5.29960E+06    -5.28865E+06    -27.3321E-03     54.0132E-03    -26.6811E-03     58.1960E-03    -27.3394E-03     53.7432E-03    -26.5881E-03     58.0377E-03
             760     11.3930E-03     82.9159E-03    -11.7144E+06    -59.7179E+06    -6.20713E+06    -4.77702E+06    -27.4826E-03     54.1335E-03    -26.6509E-03     62.9951E-03    -27.5197E-03     53.9350E-03    -26.5784E-03     62.8227E-03
             761     12.2697E-03     82.9782E-03    -10.7224E+06    -46.2680E+06    -7.60825E+06    -4.03871E+06    -27.5760E-03     54.1902E-03    -26.6143E-03     68.2065E-03    -27.6597E-03     54.0937E-03    -26.5697E-03     68.0201E-03
             762     13.1462E-03     83.0450E-03    -9.81285E+06    -27.6658E+06    -11.6324E+06    -3.18838E+06    -27.7036E-03     54.2598E-03    -26.5562E-03     74.1807E-03    -27.8619E-03     54.3188E-03    -26.5600E-03     73.9770E-03
             763     14.0226E-03     83.1180E-03    -9.94168E+06     16.4084E+06    -14.7485E+06    -1.46921E+06    -28.1656E-03     54.6342E-03    -26.4686E-03     88.0866E-03    -28.5101E-03     55.0444E-03    -26.5517E-03     87.8765E-03
             764     14.8989E-03     83.2123E-03    -10.2753E+06     76.9203E+06    -12.0580E+06     742.301E+03    -28.8348E-03     55.2181E-03    -26.3834E-03     111.885E-03    -29.6161E-03     56.2710E-03    -26.5403E-03     111.710E-03
             765     15.7771E-03     83.3312E-03    -7.25987E+06     128.161E+06     33.9762E+06     635.887E+03    -29.8831E-03     56.4002E-03    -26.5171E-03     141.081E-03    -31.5178E-03     58.3655E-03    -26.5226E-03     141.187E-03
             766     16.6495E-03     83.4798E-03    -4.20097E+06     144.731E+06     83.0647E+06    -55.4116E+03    -28.3439E-03     55.0574E-03    -26.7135E-03     106.435E-03    -29.7868E-03     56.7583E-03    -26.5019E-03     106.802E-03
             767     876.284E-06     83.5222E-03    -34.3059E+06    -116.638E+06    -33.7051E+06    -696.968E+03    -26.7523E-03     53.4917E-03    -26.7394E-03     5.61047E-03    -26.7060E-03     53.0073E-03    -26.6891E-03     5.59850E-03
             768     1.75259E-03     83.5296E-03    -33.3439E+06    -115.062E+06    -31.3297E+06    -1.30136E+06    -26.7529E-03     53.5013E-03    -26.7484E-03     10.3004E-03    -26.7078E-03     53.0202E-03    -26.6898E-03     10.2780E-03
             769     2.62890E-03     83.5418E-03    -32.0487E+06    -112.542E+06    -27.9284E+06    -2.09230E+06    -26.7678E-03     53.5212E-03    -26.7535E-03     15.2614E-03    -26.7253E-03     53.0465E-03    -26.6835E-03     15.2256E-03
             770     3.50524E-03     83.5585E-03    -30.2091E+06    -109.271E+06    -23.9013E+06    -2.83071E+06    -26.7927E-03     53.5514E-03    -26.7586E-03     20.2584E-03    -26.7526E-03     53.0854E-03    -26.6759E-03     20.2094E-03
             771     4.38158E-03     83.5802E-03    -28.0861E+06    -105.243E+06    -19.5137E+06    -3.58759E+06    -26.8278E-03     53.5908E-03    -26.7630E-03     25.2454E-03    -26.7906E-03     53.1369E-03    -26.6672E-03     25.1822E-03
             772     5.25792E-03     83.6063E-03    -25.7826E+06    -100.543E+06    -15.5221E+06    -4.50297E+06    -26.8523E-03     53.6140E-03    -26.7617E-03     30.1913E-03    -26.8181E-03     53.1764E-03    -26.6561E-03     30.1109E-03
             773     6.13440E-03     83.6373E-03    -23.2869E+06    -94.5995E+06    -11.4961E+06    -5.10345E+06    -26.9101E-03     53.6669E-03    -26.7568E-03     35.0772E-03    -26.8806E-03     53.2523E-03    -26.6433E-03     34.9825E-03
             774     7.01077E-03     83.6728E-03    -21.0166E+06    -89.8328E+06    -8.01017E+06    -5.89399E+06    -26.9887E-03     53.7411E-03    -26.7524E-03     39.8767E-03    -26.9638E-03     53.3459E-03    -26.6317E-03     39.7636E-03
             775     7.88709E-03     83.7127E-03    -18.8287E+06    -85.7227E+06    -6.27361E+06    -6.43749E+06    -27.0180E-03     53.7564E-03    -26.7384E-03     44.6001E-03    -26.9961E-03     53.3816E-03    -26.6182E-03     44.4704E-03
             776     8.76394E-03     83.7572E-03    -16.4496E+06    -80.1985E+06    -5.25742E+06    -6.64218E+06    -27.1453E-03     53.8638E-03    -26.7184E-03     49.1744E-03    -27.1288E-03     53.5194E-03    -26.6046E-03     49.0300E-03
             777     9.64009E-03     83.8056E-03    -14.6227E+06    -75.2471E+06    -4.95552E+06    -6.70321E+06    -27.2187E-03     53.9170E-03    -26.6983E-03     53.6104E-03    -27.2113E-03     53.6050E-03    -26.5928E-03     53.4511E-03
             778     10.5167E-03     83.8585E-03    -13.1376E+06    -69.7545E+06    -6.17526E+06    -6.33395E+06    -27.2653E-03     53.9329E-03    -26.6676E-03     58.2500E-03    -27.2721E-03     53.6634E-03    -26.5783E-03     58.0787E-03
             779     11.3934E-03     83.9160E-03    -11.7063E+06    -59.8850E+06    -6.90268E+06    -5.66848E+06    -27.4565E-03     54.0913E-03    -26.6348E-03     63.0560E-03    -27.4924E-03     53.8931E-03    -26.5655E-03     62.8722E-03
             780     12.2696E-03     83.9776E-03    -10.4667E+06    -46.4888E+06    -8.07817E+06    -4.86314E+06    -27.5492E-03     54.1472E-03    -26.5980E-03     68.0831E-03    -27.6301E-03     54.0494E-03    -26.5559E-03     67.8864E-03
             781     13.1465E-03     84.0447E-03    -10.2889E+06    -28.9043E+06    -12.8372E+06    -3.74852E+06    -27.7636E-03     54.3045E-03    -26.5408E-03     74.2082E-03    -27.9209E-03     54.3598E-03    -26.5482E-03     73.9967E-03
             782     14.0228E-03     84.1183E-03    -9.97751E+06     13.3307E+06    -16.3160E+06    -1.78368E+06    -28.2467E-03     54.7047E-03    -26.4580E-03     88.2853E-03    -28.5850E-03     55.1022E-03    -26.5444E-03     88.0705E-03
             783     14.8993E-03     84.2120E-03    -8.47774E+06     76.2747E+06    -11.7573E+06    -538.283E+03    -28.8547E-03     55.2338E-03    -26.3790E-03     111.720E-03    -29.6269E-03     56.2807E-03    -26.5361E-03     111.528E-03
             784     15.7756E-03     84.3298E-03    -7.51458E+06     128.525E+06     33.8231E+06    -78.3638E+03    -29.9199E-03     56.4339E-03    -26.5140E-03     141.065E-03    -31.5580E-03     58.4035E-03    -26.5203E-03     141.161E-03
             785     16.6558E-03     84.4831E-03    -4.81405E+06     144.422E+06     82.6605E+06     586.183E+03    -28.2014E-03     54.9094E-03    -26.7080E-03     105.830E-03    -29.6413E-03     56.6053E-03    -26.4972E-03     106.202E-03
             786     876.298E-06     84.5221E-03    -34.0334E+06    -114.887E+06    -33.6391E+06    -768.579E+03    -26.7451E-03     53.4909E-03    -26.7458E-03     5.60781E-03    -26.7000E-03     53.0147E-03    -26.6981E-03     5.59491E-03
             787     1.75257E-03     84.5295E-03    -33.2622E+06    -113.387E+06    -31.5133E+06    -1.52376E+06    -26.7485E-03     53.4941E-03    -26.7456E-03     10.3039E-03    -26.7052E-03     53.0216E-03    -26.6905E-03     10.2786E-03
             788     2.62893E-03     84.5416E-03    -31.9401E+06    -110.542E+06    -28.2257E+06    -2.29780E+06    -26.7654E-03     53.5142E-03    -26.7488E-03     15.2720E-03    -26.7249E-03     53.0498E-03    -26.6833E-03     15.2336E-03
             789     3.50520E-03     84.5585E-03    -30.3028E+06    -107.319E+06    -24.3219E+06    -3.31850E+06    -26.7831E-03     53.5360E-03    -26.7529E-03     20.2580E-03    -26.7456E-03     53.0805E-03    -26.6749E-03     20.2027E-03
             790     4.38160E-03     84.5799E-03    -28.2045E+06    -103.317E+06    -20.2677E+06    -4.26630E+06    -26.7992E-03     53.5518E-03    -26.7527E-03     25.2528E-03    -26.7642E-03     53.1088E-03    -26.6633E-03     25.1809E-03
             791     5.25801E-03     84.6063E-03    -25.9311E+06    -98.3606E+06    -15.9656E+06    -5.22920E+06    -26.8415E-03     53.5917E-03    -26.7503E-03     30.1844E-03    -26.8105E-03     53.1659E-03    -26.6499E-03     30.0946E-03
             792     6.13436E-03     84.6370E-03    -23.6104E+06    -93.0818E+06    -12.2199E+06    -6.08808E+06    -26.8893E-03     53.6336E-03    -26.7443E-03     35.1009E-03    -26.8626E-03     53.2281E-03    -26.6362E-03     34.9935E-03
             793     7.01087E-03     84.6728E-03    -21.0673E+06    -87.8784E+06    -8.59286E+06    -6.64648E+06    -26.9343E-03     53.6705E-03    -26.7362E-03     39.8857E-03    -26.9116E-03     53.2859E-03    -26.6212E-03     39.7631E-03
             794     7.88740E-03     84.7124E-03    -18.7964E+06    -83.9932E+06    -6.45106E+06    -7.48636E+06    -27.0125E-03     53.7349E-03    -26.7224E-03     44.5887E-03    -26.9927E-03     53.3689E-03    -26.6056E-03     44.4454E-03
             795     8.76370E-03     84.7568E-03    -16.8694E+06    -79.4185E+06    -6.13981E+06     -7.7467E+06    -27.1277E-03     53.8288E-03    -26.7012E-03     49.2618E-03    -27.1130E-03     53.4902E-03    -26.5922E-03     49.1033E-03
             796     9.64034E-03     84.8057E-03    -14.9002E+06    -74.5845E+06    -5.69395E+06    -7.62234E+06    -27.2378E-03     53.9208E-03    -26.6830E-03     53.5344E-03    -27.2318E-03     53.6137E-03    -26.5817E-03     53.3630E-03
             797     10.5168E-03     84.8579E-03    -13.0817E+06    -69.5808E+06    -6.74699E+06    -7.45983E+06    -27.2914E-03     53.9478E-03    -26.6564E-03     58.2181E-03    -27.2974E-03     53.6799E-03    -26.5703E-03     58.0319E-03
             798     11.3934E-03     84.9158E-03    -11.6377E+06    -60.0838E+06    -7.79488E+06    -6.83641E+06    -27.3820E-03     54.0033E-03    -26.6213E-03     63.0895E-03    -27.4155E-03     53.8048E-03    -26.5563E-03     62.8914E-03
             799     12.2701E-03     84.9775E-03    -10.5817E+06    -47.1851E+06    -9.10592E+06    -5.86955E+06    -27.5859E-03     54.1699E-03    -26.5839E-03     68.0389E-03    -27.6651E-03     54.0704E-03    -26.5457E-03     67.8289E-03
             800     13.1463E-03     85.0443E-03    -9.41040E+06    -30.3795E+06    -13.3389E+06    -4.32831E+06    -27.7811E-03     54.3122E-03    -26.5311E-03     74.3956E-03    -27.9311E-03     54.3596E-03    -26.5401E-03     74.1767E-03
             801     14.0228E-03     85.1185E-03    -8.97165E+06     11.6034E+06    -16.9462E+06    -2.73206E+06    -28.1316E-03     54.5763E-03    -26.4447E-03     88.2706E-03    -28.4607E-03     54.9639E-03    -26.5333E-03     88.0449E-03
             802     14.8997E-03     85.2114E-03    -9.75091E+06     74.9181E+06    -12.9634E+06    -945.052E+03    -29.0070E-03     55.3735E-03    -26.3665E-03     112.025E-03    -29.7850E-03     56.4205E-03    -26.5258E-03     111.826E-03
             803     15.7759E-03     85.3313E-03    -9.62549E+06     127.140E+06     30.9833E+06     781.611E+03    -30.1360E-03     56.6404E-03    -26.5044E-03     141.496E-03    -31.7872E-03     58.6188E-03    -26.5199E-03     141.601E-03
             804     16.6498E-03     85.4800E-03    -4.56829E+06     144.686E+06     81.4515E+06     284.854E+03    -28.0499E-03     54.7529E-03    -26.7030E-03     104.973E-03    -29.4875E-03     56.4518E-03    -26.4989E-03     105.342E-03
             805     876.269E-06     85.5220E-03    -34.5481E+06    -113.014E+06    -34.1696E+06    -970.077E+03    -26.7370E-03     53.4716E-03    -26.7347E-03     5.59738E-03    -26.6964E-03     53.0064E-03    -26.6916E-03     5.58187E-03
             806     1.75263E-03     85.5294E-03    -33.6331E+06    -111.259E+06    -32.0302E+06    -1.84069E+06    -26.7444E-03     53.4809E-03    -26.7365E-03     10.3094E-03    -26.7052E-03     53.0202E-03    -26.6865E-03     10.2799E-03
             807     2.62887E-03     85.5415E-03    -32.2250E+06    -108.499E+06    -28.8542E+06    -2.80322E+06    -26.7517E-03     53.4907E-03    -26.7390E-03     15.2733E-03    -26.7147E-03     53.0378E-03    -26.6793E-03     15.2283E-03
             808     3.50529E-03     85.5583E-03    -30.3955E+06    -104.879E+06    -24.7367E+06    -3.81271E+06    -26.7643E-03     53.5055E-03    -26.7412E-03     20.2706E-03    -26.7303E-03     53.0630E-03    -26.6687E-03     20.2089E-03
             809     4.38160E-03     85.5798E-03    -28.3608E+06    -100.946E+06    -20.4928E+06    -5.04790E+06    -26.7882E-03     53.5292E-03    -26.7410E-03     25.2388E-03    -26.7571E-03     53.0985E-03    -26.6560E-03     25.1568E-03
             810     5.25804E-03     85.6059E-03    -26.0536E+06    -96.2154E+06    -16.3669E+06    -5.97427E+06    -26.8155E-03     53.5524E-03    -26.7369E-03     30.1963E-03    -26.7877E-03     53.1380E-03    -26.6414E-03     30.0970E-03
             811     6.13446E-03     85.6370E-03    -23.6732E+06    -90.8878E+06    -12.4581E+06    -6.92749E+06    -26.8540E-03     53.5828E-03    -26.7288E-03     35.1128E-03    -26.8305E-03     53.1888E-03    -26.6250E-03     34.9947E-03
             812     7.01092E-03     85.6722E-03    -21.2850E+06    -86.3191E+06    -9.29145E+06    -7.79231E+06    -26.9069E-03     53.6243E-03    -26.7174E-03     39.8849E-03    -26.8866E-03     53.2489E-03    -26.6078E-03     39.7476E-03
             813     7.88745E-03     85.7123E-03    -19.0155E+06    -82.0549E+06    -6.88362E+06    -8.34564E+06    -27.0214E-03     53.7265E-03    -26.7051E-03     44.5917E-03    -27.0049E-03     53.3712E-03    -26.5929E-03     44.4373E-03
             814     8.76398E-03     85.7566E-03    -16.9566E+06    -78.0205E+06    -6.16339E+06    -8.80809E+06    -27.0877E-03     53.7744E-03    -26.6866E-03     49.2431E-03    -27.0755E-03     53.4428E-03    -26.5797E-03     49.0711E-03
             815     9.64045E-03     85.8053E-03    -14.9448E+06    -74.0534E+06    -6.27413E+06    -8.85377E+06    -27.2033E-03     53.8680E-03    -26.6647E-03     53.6795E-03    -27.1974E-03     53.5643E-03    -26.5670E-03     53.4925E-03
             816     10.5169E-03     85.8579E-03    -13.1590E+06    -69.0695E+06    -7.28155E+06    -8.62870E+06    -27.3738E-03     54.0150E-03    -26.6412E-03     58.2203E-03    -27.3804E-03     53.7508E-03    -26.5584E-03     58.0186E-03
             817     11.3934E-03     85.9152E-03    -11.5530E+06    -60.3197E+06    -8.42112E+06    -8.08217E+06    -27.3968E-03     54.0081E-03    -26.6113E-03     63.0874E-03    -27.4286E-03     53.8092E-03    -26.5492E-03     62.8732E-03
             818     12.2700E-03     85.9772E-03    -10.3680E+06    -48.0873E+06    -9.85165E+06    -6.99369E+06    -27.5356E-03     54.1087E-03    -26.5731E-03     68.2186E-03    -27.6115E-03     54.0057E-03    -26.5376E-03     67.9943E-03
             819     13.1466E-03     86.0444E-03    -9.70067E+06    -31.9057E+06    -14.1321E+06    -5.62186E+06    -27.7282E-03     54.2465E-03    -26.5183E-03     74.4280E-03    -27.8759E-03     54.2875E-03    -26.5286E-03     74.1930E-03
             820     14.0232E-03     86.1178E-03    -9.29263E+06     9.39922E+06    -17.7961E+06    -3.19486E+06    -28.1741E-03     54.6068E-03    -26.4326E-03     88.4065E-03    -28.5016E-03     54.9862E-03    -26.5218E-03     88.1743E-03
             821     14.8995E-03     86.2117E-03    -9.65410E+06     72.3111E+06    -16.2018E+06    -221.368E+03    -28.8436E-03     55.1827E-03    -26.3392E-03     112.069E-03    -29.6110E-03     56.2196E-03    -26.5110E-03     111.882E-03
             822     15.7765E-03     86.3308E-03    -8.07673E+06     127.392E+06     29.1606E+06     435.625E+03    -29.8251E-03     56.2884E-03    -26.4632E-03     142.380E-03    -31.4738E-03     58.2760E-03    -26.4904E-03     142.490E-03
             823     16.6550E-03     86.4826E-03    -4.16943E+06     145.818E+06     81.8204E+06    -341.597E+03    -28.4727E-03     55.1459E-03    -26.6733E-03     105.809E-03    -29.9204E-03     56.8593E-03    -26.4696E-03     106.167E-03
             824     876.332E-06     86.5219E-03    -34.6501E+06    -110.590E+06    -34.2876E+06    -1.23469E+06    -26.7320E-03     53.4516E-03    -26.7196E-03     5.59370E-03    -26.6953E-03     52.9988E-03    -26.6804E-03     5.57477E-03
             825     1.75256E-03     86.5293E-03    -33.7374E+06    -108.796E+06    -32.1797E+06    -2.29389E+06    -26.7304E-03     53.4558E-03    -26.7254E-03     10.3108E-03    -26.6951E-03     53.0078E-03    -26.6796E-03     10.2755E-03
             826     2.62898E-03     86.5414E-03    -32.2406E+06    -105.973E+06    -28.8884E+06    -3.45804E+06    -26.7327E-03     53.4591E-03    -26.7265E-03     15.2709E-03    -26.6993E-03     53.0189E-03    -26.6705E-03     15.2175E-03
             827     3.50525E-03     86.5581E-03    -30.2729E+06    -102.340E+06    -24.8274E+06    -4.58225E+06    -26.7454E-03     53.4717E-03    -26.7263E-03     20.2662E-03    -26.7143E-03     53.0418E-03    -26.6582E-03     20.1946E-03
             828     4.38171E-03     86.5797E-03    -28.1190E+06    -98.1920E+06    -20.3455E+06    -5.68524E+06    -26.7690E-03     53.4948E-03    -26.7258E-03     25.2491E-03    -26.7410E-03     53.0773E-03    -26.6443E-03     25.1589E-03
             829     5.25804E-03     86.6058E-03    -25.8511E+06    -93.8663E+06    -16.3131E+06    -6.91516E+06    -26.7910E-03     53.5116E-03    -26.7206E-03     30.1984E-03    -26.7657E-03     53.1086E-03    -26.6285E-03     30.0869E-03
             830     6.13459E-03     86.6366E-03    -23.4498E+06    -88.5104E+06    -12.5388E+06    -7.78735E+06    -26.8181E-03     53.5278E-03    -26.7098E-03     35.0969E-03    -26.7967E-03     53.1454E-03    -26.6101E-03     34.9678E-03
             831     7.01109E-03     86.6721E-03    -21.1539E+06    -84.1701E+06    -9.17329E+06    -8.71119E+06    -26.9259E-03     53.6265E-03    -26.7006E-03     39.9150E-03    -26.9082E-03     53.2615E-03    -26.5938E-03     39.7658E-03
             832     7.88750E-03     86.7119E-03    -18.8755E+06    -80.2982E+06    -7.08147E+06    -9.36351E+06    -27.0047E-03     53.6940E-03    -26.6893E-03     44.6074E-03    -26.9898E-03     53.3476E-03    -26.5809E-03     44.4399E-03
             833     8.76395E-03     86.7564E-03    -16.7795E+06    -76.3789E+06    -6.29382E+06    -9.83665E+06    -27.0362E-03     53.7056E-03    -26.6695E-03     49.1629E-03    -27.0252E-03     53.3822E-03    -26.5659E-03     48.9777E-03
             834     9.64070E-03     86.8047E-03    -14.9687E+06    -73.1893E+06    -6.61531E+06    -10.1531E+06    -27.1622E-03     53.8071E-03    -26.6450E-03     53.7923E-03    -27.1571E-03     53.5083E-03    -26.5502E-03     53.5888E-03
             835     10.5172E-03     86.8580E-03    -13.3930E+06    -68.7208E+06    -7.98841E+06    -9.94999E+06    -27.3377E-03     53.9564E-03    -26.6188E-03     58.3347E-03    -27.3448E-03     53.6953E-03    -26.5396E-03     58.1163E-03
             836     11.3935E-03     86.9146E-03    -11.8418E+06    -60.3206E+06    -9.10443E+06    -9.34350E+06    -27.4900E-03     54.0828E-03    -26.5928E-03     63.1957E-03    -27.5227E-03     53.8857E-03    -26.5337E-03     62.9645E-03
             837     12.2701E-03     86.9770E-03    -10.5663E+06    -49.1033E+06    -10.6939E+06    -8.10618E+06    -27.5805E-03     54.1415E-03    -26.5610E-03     68.3338E-03    -27.6548E-03     54.0350E-03    -26.5279E-03     68.0950E-03
             838     13.1468E-03     87.0439E-03    -10.1679E+06    -33.2591E+06    -15.0123E+06    -6.31373E+06    -27.6943E-03     54.2024E-03    -26.5080E-03     74.2633E-03    -27.8413E-03     54.2387E-03    -26.5201E-03     74.0194E-03
             839     14.0232E-03     87.1176E-03    -10.2126E+06     6.04986E+06    -19.0819E+06    -3.93309E+06    -28.2615E-03     54.6874E-03    -26.4259E-03     88.5267E-03    -28.5876E-03     55.0541E-03    -26.5153E-03     88.2839E-03
             840     14.8997E-03     87.2119E-03    -9.05353E+06     69.7982E+06    -17.6274E+06    -1.58205E+06    -28.8538E-03     55.1864E-03    -26.3326E-03     111.313E-03    -29.6102E-03     56.2095E-03    -26.5088E-03     111.109E-03
             841     15.7771E-03     87.3293E-03    -6.86617E+06     127.995E+06     28.6612E+06    -386.188E+03    -29.2155E-03     55.6585E-03    -26.4430E-03     141.095E-03    -30.8440E-03     57.6339E-03    -26.4754E-03     141.210E-03
             842     16.6536E-03     87.4821E-03    -4.49833E+06     145.841E+06     81.5539E+06     54.8749E+03    -28.4969E-03     55.1412E-03    -26.6443E-03     106.048E-03    -29.9381E-03     56.8476E-03    -26.4415E-03     106.420E-03
             843     876.283E-06     87.5217E-03    -34.5024E+06    -107.710E+06    -34.0833E+06    -1.53014E+06    -26.7130E-03     53.4181E-03    -26.7052E-03     5.61634E-03    -26.6800E-03     52.9792E-03    -26.6694E-03     5.59362E-03
             844     1.75266E-03     87.5292E-03    -33.4898E+06    -105.896E+06    -31.9127E+06    -2.77931E+06    -26.7132E-03     53.4221E-03    -26.7089E-03     10.3084E-03    -26.6813E-03     52.9879E-03    -26.6663E-03     10.2668E-03
             845     2.62894E-03     87.5411E-03    -32.0201E+06    -102.945E+06    -28.6868E+06    -4.10952E+06    -26.7145E-03     53.4237E-03    -26.7092E-03     15.2684E-03    -26.6848E-03     52.9980E-03    -26.6569E-03     15.2066E-03
             846     3.50536E-03     87.5580E-03    -30.1828E+06    -99.5595E+06    -24.7502E+06    -5.37984E+06    -26.7202E-03     53.4282E-03    -26.7080E-03     20.2666E-03    -26.6928E-03     53.0120E-03    -26.6436E-03     20.1847E-03
             847     4.38171E-03     87.5793E-03    -27.9844E+06    -95.4917E+06    -20.4741E+06    -6.51959E+06    -26.7331E-03     53.4371E-03    -26.7040E-03     25.2558E-03    -26.7081E-03     53.0331E-03    -26.6273E-03     25.1549E-03
             848     5.25824E-03     87.6056E-03    -25.6593E+06    -90.8925E+06    -16.1362E+06    -7.72105E+06    -26.7722E-03     53.4707E-03    -26.6985E-03     30.1981E-03    -26.7504E-03     53.0820E-03    -26.6102E-03     30.0763E-03
             849     6.13462E-03     87.6362E-03    -23.3389E+06    -86.0439E+06    -12.5335E+06    -8.85001E+06    -26.8338E-03     53.5243E-03    -26.6905E-03     35.0833E-03    -26.8155E-03     53.1540E-03    -26.5946E-03     34.9404E-03
             850     7.01116E-03     87.6718E-03    -20.9563E+06    -81.7529E+06    -9.27264E+06    -9.57861E+06    -26.8824E-03     53.5640E-03    -26.6816E-03     39.9555E-03    -26.8671E-03     53.2109E-03    -26.5790E-03     39.7952E-03
             851     7.88758E-03     87.7118E-03    -18.7031E+06    -78.6573E+06    -7.32877E+06    -10.3394E+06    -26.9237E-03     53.5894E-03    -26.6656E-03     44.6556E-03    -26.9099E-03     53.2512E-03    -26.5611E-03     44.4758E-03
             852     8.76431E-03     87.7557E-03    -16.7050E+06    -74.5449E+06    -6.76219E+06    -10.7815E+06    -27.0504E-03     53.6933E-03    -26.6428E-03     49.3333E-03    -27.0411E-03     53.3796E-03    -26.5443E-03     49.1359E-03
             853     9.64066E-03     87.8046E-03    -15.0977E+06    -71.6037E+06    -6.88573E+06    -11.1412E+06    -27.1573E-03     53.7797E-03    -26.6224E-03     53.8371E-03    -27.1548E-03     53.4893E-03    -26.5311E-03     53.6209E-03
             854     10.5174E-03     87.8573E-03    -13.5970E+06    -68.1795E+06    -8.71424E+06    -11.2158E+06    -27.2432E-03     53.8364E-03    -26.5932E-03     58.3871E-03    -27.2509E-03     53.5790E-03    -26.5182E-03     58.1531E-03
             855     11.3941E-03     87.9147E-03    -12.5527E+06    -60.3839E+06    -10.3767E+06    -10.6837E+06    -27.5063E-03     54.0707E-03    -26.5644E-03     63.3720E-03    -27.5407E-03     53.8763E-03    -26.5106E-03     63.1236E-03
             856     12.2702E-03     87.9767E-03    -11.1700E+06    -50.0815E+06    -11.8832E+06    -9.52488E+06    -27.6910E-03     54.2311E-03    -26.5400E-03     68.4066E-03    -27.7653E-03     54.1223E-03    -26.5106E-03     68.1492E-03
             857     13.1467E-03     88.0436E-03    -9.67181E+06    -35.5039E+06    -16.0807E+06    -7.25637E+06    -27.8445E-03     54.3417E-03    -26.4972E-03     74.4684E-03    -27.9850E-03     54.3685E-03    -26.5121E-03     74.2114E-03
             858     14.0233E-03     88.1174E-03    -9.32157E+06     3.43372E+06    -20.2163E+06    -4.53555E+06    -28.2619E-03     54.6809E-03    -26.4190E-03     88.7534E-03    -28.5777E-03     55.0345E-03    -26.5116E-03     88.5035E-03
             859     14.8995E-03     88.2122E-03    -9.83789E+06     68.2026E+06    -19.4362E+06    -3.08626E+06    -29.0765E-03     55.4054E-03    -26.3289E-03     111.533E-03    -29.8339E-03     56.4264E-03    -26.5107E-03     111.307E-03
             860     15.7754E-03     88.3285E-03    -8.57377E+06     126.602E+06     26.3542E+06    -1.42030E+06    -29.9272E-03     56.3930E-03    -26.4658E-03     139.781E-03    -31.5463E-03     58.3546E-03    -26.5051E-03     139.862E-03
             861     16.6551E-03     88.4797E-03    -4.72240E+06     145.510E+06     80.7970E+06     364.253E+03    -27.9396E-03     54.6185E-03    -26.6789E-03     106.130E-03    -29.3728E-03     56.3172E-03    -26.4791E-03     106.505E-03
             862     876.342E-06     88.5216E-03    -33.9252E+06    -104.208E+06    -33.5857E+06    -1.81218E+06    -26.6927E-03     53.3744E-03    -26.6816E-03     5.60996E-03    -26.6627E-03     52.9514E-03    -26.6493E-03     5.58359E-03
             863     1.75265E-03     88.5289E-03    -32.9884E+06    -102.469E+06    -31.4787E+06    -3.27870E+06    -26.6880E-03     53.3739E-03    -26.6860E-03     10.3080E-03    -26.6592E-03     52.9555E-03    -26.6469E-03     10.2601E-03
             864     2.62903E-03     88.5411E-03    -31.5967E+06    -99.6015E+06    -28.3410E+06    -4.71480E+06    -26.6888E-03     53.3738E-03    -26.6850E-03     15.2709E-03    -26.6623E-03     52.9637E-03    -26.6365E-03     15.2013E-03
             865     3.50540E-03     88.5576E-03    -29.8046E+06    -96.3251E+06    -24.4395E+06    -6.12984E+06    -26.6918E-03     53.3749E-03    -26.6831E-03     20.2654E-03    -26.6676E-03     52.9738E-03    -26.6224E-03     20.1739E-03
             866     4.38186E-03     88.5792E-03    -27.6243E+06    -92.4928E+06    -20.2903E+06    -7.45656E+06    -26.7075E-03     53.3857E-03    -26.6783E-03     25.2486E-03    -26.6853E-03     52.9960E-03    -26.6056E-03     25.1356E-03
             867     5.25828E-03     88.6052E-03    -25.3225E+06    -87.8774E+06    -16.1013E+06    -8.56694E+06    -26.7478E-03     53.4198E-03    -26.6720E-03     30.2201E-03    -26.7288E-03     53.0456E-03    -26.5884E-03     30.0875E-03
             868     6.13481E-03     88.6362E-03    -23.0093E+06    -83.2416E+06    -12.4055E+06    -9.68503E+06    -26.8070E-03     53.4715E-03    -26.6645E-03     35.1687E-03    -26.7913E-03     53.1146E-03    -26.5725E-03     35.0151E-03
             869     7.01116E-03     88.6713E-03    -20.7829E+06    -79.5689E+06    -9.50866E+06    -10.6322E+06    -26.8036E-03     53.4550E-03    -26.6514E-03     40.0047E-03    -26.7901E-03     53.1128E-03    -26.5534E-03     39.8311E-03
             870     7.88804E-03     88.7113E-03    -18.4375E+06    -76.4369E+06    -7.31730E+06    -11.3273E+06    -26.8647E-03     53.4964E-03    -26.6317E-03     44.7366E-03    -26.8527E-03     53.1688E-03    -26.5307E-03     44.5443E-03
             871     8.76450E-03     88.7554E-03    -16.2901E+06    -72.9470E+06    -6.70358E+06    -11.8004E+06    -27.0328E-03     53.6416E-03    -26.6088E-03     49.4684E-03    -27.0237E-03     53.3352E-03    -26.5129E-03     49.2582E-03
             872     9.64107E-03     88.8044E-03    -14.6429E+06    -69.8104E+06    -6.83317E+06    -12.0464E+06    -27.1407E-03     53.7297E-03    -26.5890E-03     53.9427E-03    -27.1385E-03     53.4475E-03    -26.5007E-03     53.7152E-03
             873     10.5176E-03     88.8566E-03    -13.2314E+06    -66.8820E+06    -8.49665E+06    -12.2604E+06    -27.2706E-03     53.8347E-03    -26.5641E-03     58.5885E-03    -27.2787E-03     53.5830E-03    -26.4904E-03     58.3409E-03
             874     11.3941E-03     88.9145E-03    -11.9254E+06    -60.2876E+06    -10.5652E+06    -11.8777E+06    -27.4384E-03     53.9732E-03    -26.5347E-03     63.6432E-03    -27.4693E-03     53.7783E-03    -26.4828E-03     63.3802E-03
             875     12.2708E-03     88.9765E-03    -10.9043E+06    -50.8178E+06    -12.5813E+06    -11.0236E+06    -27.6235E-03     54.1292E-03    -26.5058E-03     68.6657E-03    -27.6939E-03     54.0170E-03    -26.4792E-03     68.3899E-03
             876     13.1472E-03     89.0434E-03    -9.67335E+06    -38.0490E+06    -17.4652E+06    -9.24823E+06    -27.9199E-03     54.3832E-03    -26.4632E-03     75.1708E-03    -28.0552E-03     54.3997E-03    -26.4814E-03     74.8882E-03
             877     14.0230E-03     89.1177E-03    -8.20168E+06     73.8765E+03    -21.0686E+06    -5.86299E+06    -28.2599E-03     54.6495E-03    -26.3896E-03     89.2690E-03    -28.5643E-03     54.9862E-03    -26.4831E-03     89.0029E-03
             878     14.9004E-03     89.2111E-03    -8.29520E+06     66.7265E+06    -20.0755E+06    -2.45677E+06    -29.0433E-03     55.3375E-03    -26.2942E-03     112.844E-03    -29.7914E-03     56.3513E-03    -26.4793E-03     112.627E-03
             879     15.7766E-03     89.3310E-03    -9.03204E+06     125.815E+06     23.8414E+06    -1.12372E+06    -30.6861E-03     57.1244E-03    -26.4383E-03     141.957E-03    -32.3218E-03     59.1054E-03    -26.4884E-03     142.020E-03
             880     16.6485E-03     89.4785E-03    -5.68435E+06     144.361E+06     78.9021E+06    -723.342E+03    -27.9632E-03     54.6361E-03    -26.6729E-03     106.587E-03    -29.4118E-03     56.3482E-03    -26.4795E-03     106.937E-03
             881     876.340E-06     89.5214E-03    -32.6428E+06    -100.105E+06    -32.3140E+06    -2.10413E+06    -26.6591E-03     53.3200E-03    -26.6609E-03     5.59759E-03    -26.6305E-03     52.9138E-03    -26.6299E-03     5.56745E-03
             882     1.75270E-03     89.5288E-03    -31.8303E+06    -98.5210E+06    -30.3438E+06    -3.72244E+06    -26.6531E-03     53.3101E-03    -26.6570E-03     10.3133E-03    -26.6258E-03     52.9081E-03    -26.6197E-03     10.2596E-03
             883     2.62911E-03     89.5407E-03    -30.4119E+06    -95.8912E+06    -27.2797E+06    -5.34592E+06    -26.6581E-03     53.3125E-03    -26.6544E-03     15.2746E-03    -26.6326E-03     52.9177E-03    -26.6076E-03     15.1968E-03
             884     3.50550E-03     89.5575E-03    -28.5639E+06    -92.6775E+06    -23.4661E+06    -6.86827E+06    -26.6628E-03     53.3148E-03    -26.6519E-03     20.2611E-03    -26.6392E-03     52.9287E-03    -26.5935E-03     20.1601E-03
             885     4.38196E-03     89.5788E-03    -26.5138E+06    -89.0448E+06     -19.443E+06    -8.34529E+06    -26.6797E-03     53.3269E-03    -26.6472E-03     25.2779E-03    -26.6582E-03     52.9515E-03    -26.5768E-03     25.1535E-03
             886     5.25845E-03     89.6050E-03    -24.1706E+06    -85.0080E+06    -15.4528E+06    -9.50516E+06    -26.7000E-03     53.3393E-03    -26.6393E-03     30.2742E-03    -26.6803E-03     52.9768E-03    -26.5582E-03     30.1296E-03
             887     6.13495E-03     89.6356E-03    -21.9733E+06    -80.3373E+06    -11.7129E+06    -10.4439E+06    -26.6996E-03     53.3250E-03    -26.6254E-03     35.2387E-03    -26.6838E-03     52.9800E-03    -26.5356E-03     35.0757E-03
             888     7.01171E-03     89.6711E-03    -19.6737E+06    -76.7392E+06     -8.6036E+06    -11.5900E+06    -26.7556E-03     53.3634E-03    -26.6078E-03     40.0411E-03    -26.7419E-03     53.0325E-03    -26.5110E-03     39.8553E-03
             889     7.88814E-03     89.7105E-03    -17.5923E+06    -74.0887E+06    -6.77852E+06    -12.3796E+06    -26.8752E-03     53.4648E-03    -26.5896E-03     44.8906E-03    -26.8631E-03     53.1469E-03    -26.4906E-03     44.6849E-03
             890     8.76480E-03     89.7554E-03    -15.7194E+06    -71.2698E+06    -6.29346E+06    -12.8551E+06    -26.9402E-03     53.5075E-03    -26.5673E-03     49.5706E-03    -26.9312E-03     53.2079E-03    -26.4726E-03     49.3473E-03
             891     9.64153E-03     89.8034E-03    -13.7226E+06    -68.1770E+06    -6.17602E+06    -13.1222E+06    -27.0449E-03     53.5880E-03    -26.5430E-03     54.1295E-03    -27.0412E-03     53.3114E-03    -26.4552E-03     53.8888E-03
             892     10.5182E-03     89.8568E-03    -12.3236E+06    -65.5404E+06    -7.75565E+06    -13.2028E+06    -27.2687E-03     53.7865E-03    -26.5177E-03     58.9595E-03    -27.2754E-03     53.5392E-03    -26.4436E-03     58.7001E-03
             893     11.3946E-03     89.9137E-03    -11.1305E+06    -59.9249E+06    -10.0584E+06    -12.9472E+06    -27.3898E-03     53.8794E-03    -26.4896E-03     63.9669E-03    -27.4177E-03     53.6842E-03    -26.4368E-03     63.6907E-03
             894     12.2713E-03     89.9763E-03    -10.3210E+06    -50.9585E+06    -12.1551E+06    -12.0312E+06    -27.5117E-03     53.9696E-03    -26.4578E-03     69.0665E-03    -27.5795E-03     53.8551E-03    -26.4298E-03     68.7787E-03
             895     13.1479E-03     90.0430E-03    -9.96567E+06    -39.4035E+06    -17.4627E+06    -10.9509E+06    -27.7651E-03     54.1748E-03    -26.4096E-03     75.5462E-03    -27.8995E-03     54.1845E-03    -26.4254E-03     75.2431E-03
             896     14.0249E-03     90.1178E-03    -9.11623E+06    -4.20401E+06    -22.1484E+06    -8.18872E+06    -28.2582E-03     54.5915E-03    -26.3333E-03     89.5091E-03    -28.5596E-03     54.9098E-03    -26.4248E-03     89.2130E-03
             897     14.9007E-03     90.2106E-03    -8.10903E+06     62.0616E+06    -23.7543E+06    -2.95637E+06    -28.8834E-03     55.1050E-03    -26.2216E-03     113.084E-03    -29.6183E-03     56.1003E-03    -26.4186E-03     112.862E-03
             898     15.7782E-03     90.3309E-03    -6.35455E+06     126.140E+06     21.7223E+06    -265.734E+03    -29.7750E-03     56.1079E-03    -26.3328E-03     143.442E-03    -31.4076E-03     58.1026E-03    -26.3979E-03     143.544E-03
             899     16.6577E-03     90.4827E-03    -4.81821E+06     145.055E+06     78.7262E+06    -701.451E+03    -28.6912E-03     55.2644E-03    -26.5733E-03     106.347E-03    -30.1416E-03     56.9844E-03    -26.3830E-03     106.698E-03
             900     876.360E-06     90.5212E-03    -30.6498E+06    -95.5527E+06    -30.2056E+06    -2.26667E+06    -26.6206E-03     53.2392E-03    -26.6186E-03     5.60040E-03    -26.5917E-03     52.8499E-03    -26.5866E-03     5.56819E-03
             901     1.75280E-03     90.5285E-03    -29.8314E+06    -94.1547E+06    -28.3680E+06    -4.07227E+06    -26.6214E-03     53.2397E-03    -26.6183E-03     10.3202E-03    -26.5934E-03     52.8537E-03    -26.5803E-03     10.2620E-03
             902     2.62916E-03     90.5405E-03    -28.5516E+06    -91.6556E+06    -25.6099E+06    -5.94883E+06    -26.6134E-03     53.2286E-03    -26.6151E-03     15.2771E-03    -26.5872E-03     52.8498E-03    -26.5689E-03     15.1916E-03
             903     3.50566E-03     90.5571E-03    -26.8640E+06    -88.8896E+06    -22.1269E+06    -7.62254E+06    -26.6154E-03     53.2252E-03    -26.6098E-03     20.2958E-03    -26.5906E-03     52.8537E-03    -26.5526E-03     20.1851E-03
             904     4.38213E-03     90.5785E-03    -24.9195E+06    -85.1918E+06    -18.2171E+06    -9.08476E+06    -26.6224E-03     53.2245E-03    -26.6021E-03     25.3346E-03    -26.6002E-03     52.8642E-03    -26.5335E-03     25.2009E-03
             905     5.25867E-03     90.6045E-03    -22.8724E+06    -81.9548E+06    -14.4130E+06    -10.4311E+06    -26.6157E-03     53.2058E-03    -26.5901E-03     30.3366E-03    -26.5954E-03     52.8552E-03    -26.5102E-03     30.1803E-03
             906     6.13533E-03     90.6352E-03    -20.5777E+06    -77.5002E+06    -10.8635E+06    -11.3148E+06    -26.6124E-03     53.1822E-03    -26.5698E-03     35.2693E-03    -26.5949E-03     52.8481E-03    -26.4819E-03     35.0953E-03
             907     7.01196E-03     90.6703E-03    -18.5343E+06    -73.5174E+06    -7.66745E+06    -12.3053E+06    -26.7004E-03     53.2502E-03    -26.5498E-03     40.2058E-03    -26.6870E-03     52.9323E-03    -26.4547E-03     40.0112E-03
             908     7.88868E-03     90.7104E-03    -16.6257E+06    -71.6565E+06    -5.95580E+06    -13.2794E+06    -26.8022E-03     53.3335E-03    -26.5313E-03     45.0682E-03    -26.7899E-03     53.0251E-03    -26.4330E-03     44.8515E-03
             909     8.76532E-03     90.7544E-03    -14.7408E+06    -68.7858E+06    -5.55435E+06    -13.7813E+06    -26.8538E-03     53.3596E-03    -26.5058E-03     49.7703E-03    -26.8443E-03     53.0697E-03    -26.4125E-03     49.5356E-03
             910     9.64206E-03     90.8031E-03    -13.2089E+06    -66.8040E+06    -5.79073E+06    -14.1115E+06    -26.9718E-03     53.4515E-03    -26.4797E-03     54.4063E-03    -26.9680E-03     53.1804E-03    -26.3926E-03     54.1534E-03
             911     10.5188E-03     90.8559E-03    -11.9731E+06    -64.5239E+06    -7.67545E+06    -14.1336E+06    -27.1420E-03     53.5920E-03    -26.4499E-03     59.2352E-03    -27.1481E-03     53.3487E-03    -26.3774E-03     58.9649E-03
             912     11.3955E-03     90.9137E-03    -11.0830E+06    -59.1591E+06    -9.97352E+06    -13.8656E+06    -27.3137E-03     53.7329E-03    -26.4192E-03     64.1740E-03    -27.3425E-03     53.5413E-03    -26.3673E-03     63.8867E-03
             913     12.2721E-03     90.9753E-03    -10.0870E+06    -51.1041E+06    -12.0413E+06    -13.0897E+06    -27.5095E-03     53.8996E-03    -26.3901E-03     69.4347E-03    -27.5763E-03     53.7841E-03    -26.3616E-03     69.1336E-03
             914     13.1488E-03     91.0431E-03    -9.42417E+06    -39.8150E+06    -16.9892E+06    -11.8432E+06    -27.8047E-03     54.1534E-03    -26.3487E-03     75.6769E-03    -27.9367E-03     54.1599E-03    -26.3623E-03     75.3621E-03
             915     14.0251E-03     91.1167E-03    -9.78312E+06    -8.11469E+06    -23.4925E+06    -9.44542E+06    -28.2664E-03     54.5419E-03    -26.2755E-03     89.3270E-03    -28.5628E-03     54.8429E-03    -26.3670E-03     89.0150E-03
             916     14.9022E-03     91.2114E-03    -9.10466E+06     56.8525E+06    -28.3589E+06    -5.90900E+06    -29.0169E-03     55.1752E-03    -26.1583E-03     112.543E-03    -29.7443E-03     56.1544E-03    -26.3693E-03     112.282E-03
             917     15.7787E-03     91.3288E-03    -6.59617E+06     123.880E+06     17.8660E+06    -2.24846E+06    -29.6393E-03     55.9155E-03    -26.2761E-03     140.988E-03    -31.2437E-03     57.8844E-03    -26.3569E-03     141.072E-03
             918     16.6561E-03     91.4804E-03    -4.25313E+06     144.822E+06     78.4167E+06     490.318E+03    -28.5584E-03     55.0913E-03    -26.5329E-03     104.726E-03    -29.9823E-03     56.7867E-03    -26.3446E-03     105.096E-03
             919     876.476E-06     91.5208E-03    -28.8129E+06    -90.5525E+06    -28.4876E+06    -2.38973E+06    -26.5766E-03     53.1291E-03    -26.5525E-03     5.62342E-03    -26.5482E-03     52.7596E-03    -26.5219E-03     5.58967E-03
             920     1.75283E-03     91.5282E-03    -27.9939E+06    -89.3792E+06    -26.6663E+06    -4.48398E+06    -26.5629E-03     53.1251E-03    -26.5622E-03     10.3259E-03    -26.5350E-03     52.7579E-03    -26.5253E-03     10.2625E-03
             921     2.62936E-03     91.5401E-03    -26.7647E+06    -87.0872E+06    -24.0489E+06    -6.43954E+06    -26.5439E-03     53.0998E-03    -26.5559E-03     15.3115E-03    -26.5176E-03     52.7391E-03    -26.5111E-03     15.2199E-03
             922     3.50584E-03     91.5567E-03    -25.2588E+06    -84.6153E+06    -20.7460E+06    -8.30225E+06    -26.5407E-03     53.0874E-03    -26.5467E-03     20.3556E-03    -26.5161E-03     52.7329E-03    -26.4911E-03     20.2364E-03
             923     4.38242E-03     91.5781E-03    -23.4465E+06    -81.4631E+06    -17.1710E+06    -9.78783E+06    -26.5239E-03     53.0571E-03    -26.5332E-03     25.3942E-03    -26.5012E-03     52.7118E-03    -26.4670E-03     25.2516E-03
             924     5.25906E-03     91.6040E-03    -21.5047E+06    -78.2161E+06    -13.3605E+06    -11.1343E+06    -26.5144E-03     53.0301E-03    -26.5157E-03     30.4102E-03    -26.4942E-03     52.6946E-03    -26.4379E-03     30.2452E-03
             925     6.13575E-03     91.6345E-03    -19.4024E+06    -74.6871E+06    -10.1967E+06    -12.3512E+06    -26.5466E-03     53.0396E-03    -26.4930E-03     35.3854E-03    -26.5282E-03     52.7168E-03    -26.4075E-03     35.1984E-03
             926     7.01254E-03     91.6697E-03    -17.3032E+06    -70.6281E+06    -7.07183E+06    -12.9395E+06    -26.5941E-03     53.0648E-03    -26.4707E-03     40.4154E-03    -26.5795E-03     52.7585E-03    -26.3785E-03     40.2132E-03
             927     7.88924E-03     91.7097E-03    -15.5201E+06    -68.8019E+06    -4.98615E+06    -13.8676E+06    -26.6461E-03     53.0937E-03    -26.4477E-03     45.2474E-03    -26.6336E-03     52.7963E-03    -26.3503E-03     45.0239E-03
             928     8.76615E-03     91.7537E-03    -13.9692E+06    -66.7690E+06    -5.17715E+06    -14.5840E+06    -26.7601E-03     53.1762E-03    -26.4160E-03     50.0408E-03    -26.7501E-03     52.8945E-03    -26.3248E-03     49.7965E-03
             929     9.64291E-03     91.8024E-03    -12.6911E+06    -64.9696E+06    -5.57648E+06    -14.8226E+06    -26.9005E-03     53.2898E-03    -26.3893E-03     54.7599E-03    -26.8968E-03     53.0266E-03    -26.3046E-03     54.4986E-03
             930     10.5196E-03     91.8551E-03    -11.3856E+06    -63.0250E+06    -7.26300E+06    -14.9600E+06    -27.0266E-03     53.3863E-03    -26.3597E-03     59.6166E-03    -27.0322E-03     53.1489E-03    -26.2882E-03     59.3368E-03
             931     11.3965E-03     91.9129E-03    -10.2965E+06    -58.1829E+06    -9.73738E+06    -14.6776E+06    -27.2494E-03     53.5769E-03    -26.3275E-03     64.6062E-03    -27.2758E-03     53.3883E-03    -26.2768E-03     64.3095E-03
             932     12.2732E-03     91.9749E-03    -9.69339E+06    -51.2433E+06    -12.4177E+06    -14.1671E+06    -27.5724E-03     53.8749E-03    -26.3026E-03     69.8028E-03    -27.6364E-03     53.7586E-03    -26.2763E-03     69.4881E-03
             933     13.1497E-03     92.0425E-03    -9.14203E+06    -41.0324E+06    -17.5355E+06    -12.8631E+06    -27.9297E-03     54.2023E-03    -26.2726E-03     76.2393E-03    -28.0578E-03     54.2031E-03    -26.2875E-03     75.9118E-03
             934     14.0259E-03     92.1171E-03    -8.15747E+06    -10.3742E+06    -22.9172E+06    -10.6130E+06    -28.4970E-03     54.7157E-03    -26.2186E-03     89.7336E-03    -28.7842E-03     55.0035E-03    -26.3063E-03     89.4055E-03
             935     14.9023E-03     92.2099E-03    -8.16046E+06     53.1417E+06    -29.0655E+06    -7.43241E+06    -29.3345E-03     55.4504E-03    -26.1158E-03     112.949E-03    -30.0503E-03     56.4101E-03    -26.3264E-03     112.666E-03
             936     15.7780E-03     92.3307E-03    -8.97557E+06     119.239E+06     13.0058E+06    -2.81426E+06    -30.3973E-03     56.6452E-03    -26.2479E-03     141.958E-03    -32.0032E-03     58.6049E-03    -26.3428E-03     142.014E-03
             937     16.6533E-03     92.4786E-03    -5.15270E+06     143.291E+06     75.9396E+06     194.597E+03    -28.2851E-03     54.8051E-03    -26.5200E-03     106.971E-03    -29.7235E-03     56.5137E-03    -26.3406E-03     107.338E-03
             938     876.453E-06     92.5205E-03    -26.9416E+06    -85.0941E+06    -26.7882E+06    -2.70231E+06    -26.4826E-03     52.9679E-03    -26.4853E-03     5.65172E-03    -26.4552E-03     52.6205E-03    -26.4568E-03     5.61400E-03
             939     1.75302E-03     92.5278E-03    -26.1172E+06    -84.1091E+06    -24.9524E+06    -4.97827E+06    -26.4633E-03     52.9406E-03    -26.4774E-03     10.3503E-03    -26.4361E-03     52.5946E-03    -26.4423E-03     10.2806E-03
             940     2.62956E-03     92.5396E-03    -24.8128E+06    -82.1831E+06    -22.3159E+06    -7.10271E+06    -26.4538E-03     52.9209E-03    -26.4671E-03     15.3672E-03    -26.4273E-03     52.5793E-03    -26.4235E-03     15.2671E-03
             941     3.50616E-03     92.5562E-03    -23.1947E+06    -80.0221E+06    -18.9868E+06    -8.91136E+06    -26.4294E-03     52.8844E-03    -26.4550E-03     20.4117E-03    -26.4036E-03     52.5473E-03    -26.4003E-03     20.2848E-03
             942     4.38283E-03     92.5774E-03    -21.4260E+06    -77.4770E+06    -15.6007E+06    -10.5831E+06    -26.4030E-03     52.8391E-03    -26.4361E-03     25.4669E-03    -26.3783E-03     52.5085E-03    -26.3707E-03     25.3144E-03
             943     5.25959E-03     92.6033E-03    -19.4126E+06    -74.4381E+06    -12.0817E+06    -11.8927E+06    -26.3999E-03     52.8129E-03    -26.4130E-03     30.5142E-03    -26.3765E-03     52.4914E-03    -26.3373E-03     30.3398E-03
             944     6.13641E-03     92.6337E-03    -17.5145E+06    -71.1652E+06    -8.71828E+06    -13.1028E+06    -26.4373E-03     52.8269E-03    -26.3895E-03     35.5850E-03    -26.4167E-03     52.5167E-03    -26.3046E-03     35.3889E-03
             945     7.01315E-03     92.6690E-03    -15.4922E+06    -68.1803E+06    -6.12020E+06    -13.9491E+06    -26.4394E-03     52.8013E-03    -26.3620E-03     40.5928E-03    -26.4204E-03     52.5031E-03    -26.2713E-03     40.3783E-03
             946     7.89024E-03     92.7086E-03    -13.6071E+06    -66.0688E+06    -3.81798E+06    -14.2047E+06    -26.4786E-03     52.8111E-03    -26.3325E-03     45.5446E-03    -26.4619E-03     52.5227E-03    -26.2361E-03     45.3178E-03
             947     8.76710E-03     92.7529E-03    -12.3288E+06    -64.5265E+06    -3.81217E+06    -15.0071E+06    -26.6216E-03     52.9194E-03    -26.2978E-03     50.4263E-03    -26.6083E-03     52.6443E-03    -26.2054E-03     50.1776E-03
             948     9.64405E-03     92.8014E-03    -10.8953E+06    -62.8569E+06    -4.32323E+06    -15.5560E+06    -26.7518E-03     53.0189E-03    -26.2670E-03     55.1820E-03    -26.7437E-03     52.7614E-03    -26.1817E-03     54.9126E-03
             949     10.5211E-03     92.8543E-03     -9.7578E+06    -61.3669E+06    -5.92362E+06    -15.5322E+06    -26.9518E-03     53.1899E-03    -26.2381E-03     60.1203E-03    -26.9532E-03     52.9560E-03    -26.1646E-03     59.8343E-03
             950     11.3979E-03     92.9119E-03    -9.17234E+06    -57.3613E+06    -8.82376E+06    -15.3360E+06    -27.2583E-03     53.4692E-03    -26.2109E-03     65.2293E-03    -27.2813E-03     53.2815E-03    -26.1585E-03     64.9251E-03
             951     12.2745E-03     92.9745E-03    -8.79628E+06    -50.7925E+06    -11.4528E+06    -14.8262E+06    -27.6144E-03     53.8099E-03    -26.1955E-03     70.4964E-03    -27.6760E-03     53.6933E-03    -26.1664E-03     70.1739E-03
             952     13.1509E-03     93.0420E-03    -8.53081E+06    -41.7384E+06    -16.8343E+06    -13.9241E+06    -27.9937E-03     54.1691E-03    -26.1754E-03     76.8762E-03    -28.1182E-03     54.1639E-03    -26.1866E-03     76.5359E-03
             953     14.0276E-03     93.1168E-03    -8.34038E+06    -11.9321E+06    -21.7450E+06    -12.4035E+06    -28.7110E-03     54.8500E-03    -26.1390E-03     90.5802E-03    -29.0002E-03     55.1303E-03    -26.2183E-03     90.2278E-03
             954     14.9030E-03     93.2110E-03    -8.65940E+06     47.2553E+06    -29.0759E+06    -7.60690E+06    -29.7239E-03     55.7815E-03    -26.0575E-03     113.572E-03    -30.4361E-03     56.7150E-03    -26.2589E-03     113.281E-03
             955     15.7805E-03     93.3294E-03    -8.15929E+06     114.511E+06     9.46478E+06    -2.13644E+06    -30.2227E-03     56.3998E-03    -26.1771E-03     141.980E-03    -31.8140E-03     58.3412E-03    -26.2840E-03     142.050E-03
             956     16.6582E-03     93.4814E-03    -4.34218E+06     143.148E+06     73.5406E+06    -856.489E+03    -28.3568E-03     54.8052E-03    -26.4484E-03     106.695E-03    -29.7904E-03     56.5184E-03    -26.2820E-03     107.053E-03
             957     876.587E-06     93.5199E-03    -24.0380E+06    -79.0930E+06    -23.8397E+06    -3.07502E+06    -26.3554E-03     52.7279E-03    -26.3726E-03     5.63981E-03    -26.3264E-03     52.4020E-03    -26.3422E-03     5.59731E-03
             958     1.75324E-03     93.5271E-03    -23.2736E+06    -78.3110E+06    -22.2726E+06    -5.48715E+06    -26.3420E-03     52.6982E-03    -26.3562E-03     10.4020E-03    -26.3130E-03     52.3731E-03    -26.3203E-03     10.3259E-03
             959     2.62986E-03     93.5390E-03    -22.0945E+06    -76.7847E+06    -19.8737E+06    -7.81197E+06    -26.3209E-03     52.6642E-03    -26.3433E-03     15.4185E-03    -26.2922E-03     52.3421E-03    -26.2993E-03     15.3096E-03
             960     3.50660E-03     93.5554E-03    -20.5208E+06    -75.3848E+06    -16.8342E+06    -9.75046E+06    -26.2824E-03     52.6087E-03    -26.3263E-03     20.4899E-03    -26.2531E-03     52.2877E-03    -26.2714E-03     20.3526E-03
             961     4.38341E-03     93.5766E-03    -18.6526E+06    -72.9345E+06    -13.5272E+06    -11.3978E+06    -26.2576E-03     52.5599E-03    -26.3024E-03     25.5793E-03    -26.2285E-03     52.2450E-03    -26.2372E-03     25.4168E-03
             962     5.26028E-03     93.6022E-03    -16.8459E+06    -70.7690E+06    -10.3278E+06    -12.7808E+06    -26.2532E-03     52.5293E-03    -26.2760E-03     30.6892E-03    -26.2247E-03     52.2197E-03    -26.2006E-03     30.5039E-03
             963     6.13720E-03     93.6328E-03    -15.0017E+06    -67.6867E+06    -7.12810E+06    -13.6747E+06    -26.2379E-03     52.4839E-03    -26.2460E-03     35.8277E-03    -26.2119E-03     52.1850E-03    -26.1617E-03     35.6250E-03
             964     7.01430E-03     93.6679E-03    -13.3192E+06    -65.1810E+06    -4.42918E+06    -14.6731E+06    -26.2439E-03     52.4559E-03    -26.2120E-03     40.8729E-03    -26.2207E-03     52.1669E-03    -26.1203E-03     40.6501E-03
             965     7.89134E-03     93.7073E-03    -11.5049E+06    -64.0835E+06    -2.57207E+06    -15.0806E+06    -26.3017E-03     52.4782E-03    -26.1765E-03     45.9445E-03    -26.2788E-03     52.1945E-03    -26.0798E-03     45.7076E-03
             966     8.76855E-03     93.7518E-03    -9.72782E+06    -61.5571E+06    -1.79098E+06    -15.2837E+06    -26.4034E-03     52.5413E-03    -26.1378E-03     50.9347E-03    -26.3839E-03     52.2739E-03    -26.0434E-03     50.6841E-03
             967     9.64565E-03     93.8001E-03    -8.68170E+06    -60.8407E+06    -2.34895E+06    -15.9552E+06    -26.5967E-03     52.7013E-03    -26.1046E-03     55.7415E-03    -26.5828E-03     52.4473E-03    -26.0155E-03     55.4686E-03
             968     10.5227E-03     93.8532E-03    -7.99429E+06    -60.0833E+06    -4.43194E+06    -15.9468E+06    -26.8993E-03     52.9774E-03    -26.0781E-03     60.7917E-03    -26.8956E-03     52.7449E-03    -26.0015E-03     60.5018E-03
             969     11.3995E-03     93.9110E-03    -7.49106E+06    -56.4108E+06    -7.13725E+06    -15.6486E+06    -27.2338E-03     53.2937E-03    -26.0599E-03     65.9723E-03    -27.2520E-03     53.1057E-03    -26.0029E-03     65.6652E-03
             970     12.2764E-03     93.9738E-03    -7.26496E+06    -49.9060E+06    -9.62723E+06    -15.1237E+06    -27.6353E-03     53.6895E-03    -26.0542E-03     71.3879E-03    -27.6931E-03     53.5723E-03    -26.0194E-03     71.0626E-03
             971     13.1528E-03     94.0418E-03    -7.56995E+06    -41.4918E+06    -14.9430E+06    -14.2582E+06    -28.1631E-03     54.2129E-03    -26.0498E-03     77.7107E-03    -28.2870E-03     54.2060E-03    -26.0534E-03     77.3655E-03
             972     14.0286E-03     94.1167E-03    -8.61952E+06    -13.7336E+06    -20.7852E+06    -12.5653E+06    -28.7995E-03     54.8273E-03    -26.0278E-03     91.3985E-03    -29.0893E-03     55.0980E-03    -26.0993E-03     91.0444E-03
             973     14.9054E-03     94.2112E-03    -9.04552E+06     40.8253E+06    -28.2328E+06    -8.95803E+06    -30.0801E-03     56.0494E-03    -25.9693E-03     114.804E-03    -30.7973E-03     56.9613E-03    -26.1565E-03     114.492E-03
             974     15.7790E-03     94.3310E-03    -6.96705E+06     109.536E+06     9.51752E+06    -4.15069E+06    -31.0271E-03     57.1449E-03    -26.1178E-03     141.114E-03    -32.6023E-03     59.0566E-03    -26.2190E-03     141.140E-03
             975     16.6565E-03     94.4768E-03    -3.67363E+06     142.849E+06     72.7688E+06    -798.774E+03    -28.3185E-03     54.7261E-03    -26.4076E-03     105.316E-03    -29.7334E-03     56.4241E-03    -26.2455E-03     105.667E-03
             976     876.758E-06     94.5190E-03    -20.7456E+06    -72.4795E+06    -20.6481E+06    -3.41842E+06    -26.2029E-03     52.3941E-03    -26.1912E-03     5.64499E-03    -26.1717E-03     52.0919E-03    -26.1593E-03     5.59815E-03
             977     1.75347E-03     94.5263E-03    -20.1054E+06    -71.9436E+06    -19.2795E+06    -5.98093E+06    -26.1758E-03     52.3643E-03    -26.1885E-03     10.4564E-03    -26.1445E-03     52.0621E-03    -26.1515E-03     10.3741E-03
             978     2.63033E-03     94.5380E-03    -19.0634E+06    -71.0587E+06    -17.2391E+06    -8.47228E+06    -26.1307E-03     52.3021E-03    -26.1714E-03     15.4933E-03    -26.0989E-03     52.0004E-03    -26.1269E-03     15.3761E-03
             979     3.50721E-03     94.5544E-03    -17.6227E+06    -70.1625E+06    -14.5922E+06    -10.6569E+06    -26.0922E-03     52.2399E-03    -26.1477E-03     20.6060E-03    -26.0592E-03     51.9376E-03    -26.0934E-03     20.4574E-03
             980     4.38418E-03     94.5753E-03    -15.9647E+06    -68.5287E+06    -11.7015E+06    -12.3388E+06    -26.0556E-03     52.1742E-03    -26.1185E-03     25.7611E-03    -26.0220E-03     51.8746E-03    -26.0545E-03     25.5870E-03
             981     5.26124E-03     94.6011E-03    -14.2215E+06    -66.8555E+06    -8.50442E+06    -13.5053E+06    -26.0248E-03     52.1112E-03    -26.0864E-03     30.9568E-03    -25.9914E-03     51.8146E-03    -26.0114E-03     30.7631E-03
             982     6.13839E-03     94.6313E-03    -12.5414E+06    -64.5214E+06    -5.63981E+06    -14.4169E+06    -25.9838E-03     52.0311E-03    -26.0473E-03     36.1142E-03    -25.9519E-03     51.7420E-03    -25.9637E-03     35.9031E-03
             983     7.01573E-03     94.6662E-03    -10.9437E+06    -61.9417E+06    -2.84250E+06    -15.0576E+06    -25.9965E-03     52.0021E-03    -26.0057E-03     41.2822E-03    -25.9680E-03     51.7232E-03    -25.9142E-03     41.0558E-03
             984     7.89300E-03     94.7059E-03    -9.42074E+06    -61.6512E+06    -963.049E+03    -15.8949E+06    -26.0600E-03     52.0259E-03    -25.9660E-03     46.4338E-03    -26.0322E-03     51.7486E-03    -25.8677E-03     46.1879E-03
             985     8.77038E-03     94.7498E-03    -7.97063E+06    -59.7521E+06    -805.011E+03    -16.0152E+06    -26.1700E-03     52.0912E-03    -25.9212E-03     51.5494E-03    -26.1452E-03     51.8283E-03    -25.8270E-03     51.2913E-03
             986     9.64783E-03     94.7988E-03    -6.87128E+06    -58.2255E+06    -563.626E+03    -15.9746E+06    -26.4249E-03     52.3147E-03    -25.8898E-03     56.4985E-03    -26.4077E-03     52.0681E-03    -25.7982E-03     56.2272E-03
             987     10.5249E-03     94.8517E-03    -6.13107E+06    -58.8478E+06    -2.63362E+06    -16.3277E+06    -26.7762E-03     52.6448E-03    -25.8686E-03     61.7251E-03    -26.7671E-03     52.4127E-03    -25.7876E-03     61.4320E-03
             988     11.4020E-03     94.9101E-03    -5.67507E+06    -55.4587E+06    -5.72242E+06    -15.8487E+06    -27.2044E-03     53.0610E-03    -25.8566E-03     67.0319E-03    -27.2166E-03     52.8728E-03    -25.7966E-03     66.7239E-03
             989     12.2786E-03     94.9727E-03    -5.56135E+06    -49.2685E+06    -7.94949E+06    -15.1429E+06    -27.6771E-03     53.5420E-03    -25.8649E-03     72.4814E-03    -27.7299E-03     53.4232E-03    -25.8252E-03     72.1570E-03
             990     13.1550E-03     95.0418E-03    -5.70450E+06    -41.7580E+06    -12.9907E+06    -14.1051E+06    -28.2154E-03     54.0910E-03    -25.8756E-03     79.0622E-03    -28.3332E-03     54.0780E-03    -25.8717E-03     78.7202E-03
             991     14.0313E-03     95.1166E-03    -5.93503E+06    -15.1194E+06    -17.9153E+06    -12.2927E+06    -29.0181E-03     54.8924E-03    -25.8743E-03     92.6540E-03    -29.2995E-03     55.1511E-03    -25.9334E-03     92.3024E-03
             992     14.9067E-03     95.2113E-03    -6.75986E+06     36.6650E+06    -25.4192E+06    -9.32371E+06    -30.0446E-03     55.8746E-03    -25.8300E-03     116.650E-03    -30.7521E-03     56.7620E-03    -26.0005E-03     116.338E-03
             993     15.7839E-03     95.3334E-03    -8.01525E+06     104.822E+06     8.70327E+06    -4.90292E+06    -31.5719E-03     57.5509E-03    -25.9789E-03     144.338E-03    -33.1710E-03     59.4683E-03    -26.0758E-03     144.343E-03
             994     16.6557E-03     95.4792E-03    -5.26198E+06     140.549E+06     70.8892E+06    -1.33349E+06    -29.0557E-03     55.3487E-03    -26.2930E-03     106.451E-03    -30.4915E-03     57.0592E-03    -26.1347E-03     106.773E-03
             995     876.933E-06     95.5179E-03    -17.1294E+06    -65.2285E+06    -17.0043E+06    -3.61388E+06    -25.9743E-03     51.9400E-03    -25.9658E-03     5.71685E-03    -25.9408E-03     51.6635E-03    -25.9314E-03     5.66765E-03
             996     1.75391E-03     95.5250E-03    -16.6536E+06    -65.1660E+06    -16.1187E+06    -6.43494E+06    -25.9376E-03     51.8953E-03    -25.9577E-03     10.5120E-03    -25.9034E-03     51.6173E-03    -25.9196E-03     10.4241E-03
             997     2.63092E-03     95.5367E-03    -15.8232E+06    -64.8446E+06    -14.5577E+06    -9.09064E+06    -25.8847E-03     51.8194E-03    -25.9346E-03     15.6029E-03    -25.8496E-03     51.5401E-03    -25.8905E-03     15.4781E-03
             998     3.50804E-03     95.5529E-03    -14.7391E+06    -64.5034E+06    -12.3928E+06    -11.4249E+06    -25.8277E-03     51.7319E-03    -25.9042E-03     20.7706E-03    -25.7915E-03     51.4504E-03    -25.8513E-03     20.6127E-03
             999     4.38525E-03     95.5738E-03    -13.4012E+06    -63.9732E+06    -9.90923E+06    -13.1923E+06    -25.7698E-03     51.6373E-03    -25.8675E-03     26.0084E-03    -25.7325E-03     51.3540E-03    -25.8048E-03     25.8242E-03
            1000     5.26257E-03     95.5993E-03    -11.9007E+06    -63.0110E+06    -7.16852E+06    -14.3282E+06    -25.7046E-03     51.5291E-03    -25.8245E-03     31.2609E-03    -25.6668E-03     51.2461E-03    -25.7517E-03     31.0577E-03
            1001     6.14009E-03     95.6294E-03    -10.2989E+06    -61.1900E+06    -4.29792E+06    -15.1327E+06    -25.6804E-03     51.4576E-03    -25.7772E-03     36.5252E-03    -25.6439E-03     51.1797E-03    -25.6950E-03     36.3063E-03
            1002     7.01752E-03     95.6642E-03    -8.77345E+06    -59.1085E+06    -1.73830E+06    -15.6508E+06    -25.6838E-03     51.4124E-03    -25.7286E-03     41.8059E-03    -25.6498E-03     51.1425E-03    -25.6389E-03     41.5736E-03
            1003     7.89527E-03     95.7037E-03    -7.50871E+06    -58.6304E+06     452.327E+03    -16.1721E+06    -25.7582E-03     51.4433E-03    -25.6852E-03     47.0521E-03    -25.7267E-03     51.1758E-03    -25.5870E-03     46.8046E-03
            1004     8.77288E-03     95.7478E-03    -6.41805E+06    -58.1580E+06     497.107E+03    -16.5556E+06    -25.9195E-03     51.5603E-03    -25.6408E-03     52.2933E-03    -25.8905E-03     51.3006E-03    -25.5446E-03     52.0304E-03
            1005     9.65034E-03     95.7967E-03    -5.37745E+06    -56.2453E+06     587.180E+03    -16.3367E+06    -26.1826E-03     51.7915E-03    -25.6090E-03     57.5389E-03    -26.1617E-03     51.5502E-03    -25.5167E-03     57.2655E-03
            1006     10.5279E-03     95.8501E-03    -4.83878E+06    -57.0626E+06    -702.355E+03    -16.4188E+06    -26.6205E-03     52.2168E-03    -25.5963E-03     62.8063E-03    -26.6097E-03     51.9883E-03    -25.5100E-03     62.5144E-03
            1007     11.4050E-03     95.9084E-03    -4.58023E+06    -54.8936E+06    -4.22753E+06    -16.1023E+06    -27.1338E-03     52.7274E-03    -25.5937E-03     68.2806E-03    -27.1430E-03     52.5377E-03    -25.5286E-03     67.9716E-03
            1008     12.2817E-03     95.9723E-03    -4.23940E+06    -48.5684E+06    -6.00511E+06    -15.3189E+06    -27.7005E-03     53.3181E-03    -25.6176E-03     73.8383E-03    -27.7506E-03     53.1981E-03    -25.5711E-03     73.5133E-03
            1009     13.1584E-03     96.0405E-03    -4.10915E+06    -42.3297E+06    -10.7865E+06    -14.2051E+06    -28.3218E-03     53.9705E-03    -25.6487E-03     80.2730E-03    -28.4340E-03     53.9492E-03    -25.6353E-03     79.9311E-03
            1010     14.0344E-03     96.1172E-03    -4.28382E+06    -15.9310E+06    -14.4028E+06    -12.7904E+06    -29.2892E-03     54.9665E-03    -25.6773E-03     93.8146E-03    -29.5698E-03     55.2171E-03    -25.7200E-03     93.4555E-03
            1011     14.9103E-03     96.2117E-03    -4.87368E+06     31.4582E+06    -20.4569E+06    -8.73992E+06    -29.9426E-03     55.6049E-03    -25.6623E-03     116.579E-03    -30.6328E-03     56.4488E-03    -25.8032E-03     116.279E-03
            1012     15.7862E-03     96.3324E-03    -5.13857E+06     100.724E+06     10.0914E+06    -3.17425E+06    -30.3531E-03     56.1150E-03    -25.7620E-03     145.613E-03    -31.9367E-03     58.0087E-03    -25.8501E-03     145.682E-03
            1013     16.6653E-03     96.4839E-03    -4.73631E+06     140.053E+06     69.2680E+06    -1.17719E+06    -30.4872E-03     56.5555E-03    -26.0684E-03     107.142E-03    -31.9255E-03     58.2735E-03    -25.9182E-03     107.466E-03
            1014     877.189E-06     96.5161E-03    -13.6519E+06    -57.5543E+06    -13.6383E+06    -3.79421E+06    -25.6598E-03     51.3212E-03    -25.6613E-03     5.77120E-03    -25.6250E-03     51.0731E-03    -25.6263E-03     5.71987E-03
            1015     1.75444E-03     96.5233E-03    -13.2335E+06    -57.8758E+06    -12.9803E+06    -6.84209E+06    -25.6141E-03     51.2583E-03    -25.6442E-03     10.5989E-03    -25.5779E-03     51.0073E-03    -25.6060E-03     10.5061E-03
            1016     2.63174E-03     96.5348E-03    -12.5799E+06    -58.2883E+06    -11.8698E+06    -9.63600E+06    -25.5527E-03     51.1672E-03    -25.6145E-03     15.7492E-03    -25.5148E-03     50.9121E-03    -25.5711E-03     15.6179E-03
            1017     3.50916E-03     96.5509E-03    -11.8081E+06    -58.5843E+06    -10.1995E+06    -11.9816E+06    -25.4756E-03     51.0520E-03    -25.5764E-03     20.9895E-03    -25.4364E-03     50.7925E-03    -25.5253E-03     20.8252E-03
            1018     4.38669E-03     96.5716E-03    -10.8881E+06    -59.1414E+06    -8.15956E+06    -13.8043E+06    -25.3878E-03     50.9182E-03    -25.5304E-03     26.2887E-03    -25.3473E-03     50.6527E-03    -25.4697E-03     26.0976E-03
            1019     5.26439E-03     96.5969E-03    -9.70161E+06    -58.9374E+06    -6.01655E+06    -15.1308E+06    -25.3146E-03     50.7908E-03    -25.4762E-03     31.6326E-03    -25.2731E-03     50.5231E-03    -25.4068E-03     31.4204E-03
            1020     6.14216E-03     96.6269E-03    -8.46839E+06    -58.1330E+06    -3.64557E+06    -15.7866E+06    -25.2709E-03     50.6901E-03    -25.4191E-03     37.0372E-03    -25.2302E-03     50.4234E-03    -25.3408E-03     36.8116E-03
            1021     7.02016E-03     96.6617E-03    -7.35082E+06    -56.3506E+06    -1.12264E+06    -16.0784E+06    -25.2968E-03     50.6609E-03    -25.3641E-03     42.4547E-03    -25.2601E-03     50.4013E-03    -25.2773E-03     42.2189E-03
            1022     7.89804E-03     96.7009E-03    -6.33176E+06    -55.7565E+06     1.20699E+06    -16.3780E+06    -25.4074E-03     50.7262E-03    -25.3187E-03     47.8864E-03    -25.3747E-03     50.4695E-03    -25.2226E-03     47.6387E-03
            1023     8.77595E-03     96.7453E-03    -5.53186E+06    -55.8470E+06     1.70322E+06    -16.5418E+06    -25.6021E-03     50.8807E-03    -25.2786E-03     53.2496E-03    -25.5730E-03     50.6288E-03    -25.1811E-03     52.9895E-03
            1024     9.65402E-03     96.7938E-03    -5.04337E+06    -55.1385E+06     1.12648E+06    -16.6206E+06    -25.9395E-03     51.1905E-03    -25.2510E-03     58.6818E-03    -25.9185E-03     50.9526E-03    -25.1581E-03     58.4074E-03
            1025     10.5315E-03     96.8482E-03    -4.66325E+06    -55.3524E+06     446.451E+03    -16.2923E+06    -26.4218E-03     51.6711E-03    -25.2492E-03     64.1451E-03    -26.4134E-03     51.4482E-03    -25.1600E-03     63.8579E-03
            1026     11.4087E-03     96.9066E-03    -4.51958E+06    -53.7833E+06    -2.59634E+06    -16.0651E+06    -27.0503E-03     52.3130E-03    -25.2628E-03     69.7564E-03    -27.0627E-03     52.1260E-03    -25.1912E-03     69.4503E-03
            1027     12.2860E-03     96.9708E-03    -4.83213E+06    -48.6001E+06    -5.20955E+06    -15.4116E+06    -27.8284E-03     53.1355E-03    -25.3072E-03     75.2984E-03    -27.8821E-03     53.0147E-03    -25.2557E-03     74.9741E-03
            1028     13.1618E-03     97.0404E-03    -5.43355E+06    -42.1880E+06    -9.49784E+06    -14.3066E+06    -28.7455E-03     54.1232E-03    -25.3776E-03     81.4833E-03    -28.8683E-03     54.1045E-03    -25.3561E-03     81.1387E-03
            1029     14.0377E-03     97.1166E-03    -6.19066E+06    -16.6271E+06    -12.7420E+06    -12.8751E+06    -29.6984E-03     55.1498E-03    -25.4514E-03     94.7408E-03    -29.9915E-03     55.3988E-03    -25.4820E-03     94.3790E-03
            1030     14.9128E-03     97.2133E-03    -6.56398E+06     25.5832E+06    -17.4747E+06    -9.37931E+06    -30.8718E-03     56.3758E-03    -25.5040E-03     115.756E-03    -31.5726E-03     57.1949E-03    -25.6190E-03     115.434E-03
            1031     15.7896E-03     97.3302E-03    -5.55581E+06     94.6043E+06     11.1912E+06    -3.80223E+06    -31.2650E-03     56.9303E-03    -25.6653E-03     140.652E-03    -32.8074E-03     58.7563E-03    -25.7385E-03     140.692E-03
            1032     16.6672E-03     97.4819E-03    -3.75763E+06     139.655E+06     68.9124E+06    -17.5318E+03    -30.3852E-03     56.3819E-03    -25.9967E-03     105.335E-03    -31.7897E-03     58.0691E-03    -25.8492E-03     105.679E-03
            1033     877.567E-06     97.5139E-03    -10.3382E+06    -49.4007E+06    -10.4179E+06    -4.07722E+06    -25.2398E-03     50.4922E-03    -25.2524E-03     5.81416E-03    -25.2049E-03     50.2754E-03    -25.2178E-03     5.75940E-03
            1034     1.75514E-03     97.5208E-03    -10.0467E+06    -50.2199E+06    -10.0257E+06    -7.19624E+06    -25.1850E-03     50.4108E-03    -25.2258E-03     10.7228E-03    -25.1482E-03     50.1891E-03    -25.1885E-03     10.6259E-03
            1035     2.63286E-03     97.5322E-03    -9.65389E+06    -51.4366E+06    -9.33578E+06    -10.1051E+06    -25.1132E-03     50.3025E-03    -25.1893E-03     15.9360E-03    -25.0741E-03     50.0736E-03    -25.1474E-03     15.7994E-03
            1036     3.51064E-03     97.5481E-03    -9.11826E+06    -52.6761E+06    -8.37937E+06    -12.3862E+06    -25.0177E-03     50.1601E-03    -25.1424E-03     21.2487E-03    -24.9762E-03     49.9235E-03    -25.0947E-03     21.0802E-03
            1037     4.38860E-03     97.5686E-03    -8.58602E+06    -54.0524E+06    -6.95335E+06    -14.1649E+06    -24.9136E-03     50.0006E-03    -25.0870E-03     26.6288E-03    -24.8705E-03     49.7552E-03    -25.0309E-03     26.4343E-03
            1038     5.26670E-03     97.5937E-03    -8.06454E+06    -54.6730E+06    -5.43285E+06    -15.5101E+06    -24.8242E-03     49.8477E-03    -25.0235E-03     32.0999E-03    -24.7813E-03     49.5978E-03    -24.9597E-03     31.8844E-03
            1039     6.14497E-03     97.6236E-03    -7.49280E+06    -55.2185E+06    -3.62416E+06    -16.1003E+06    -24.7775E-03     49.7363E-03    -24.9588E-03     37.6192E-03    -24.7357E-03     49.4824E-03    -24.8860E-03     37.3916E-03
            1040     7.02333E-03     97.6580E-03    -6.89653E+06    -53.7271E+06    -1.38644E+06    -16.1628E+06    -24.8111E-03     49.7087E-03    -24.8976E-03     43.2377E-03    -24.7748E-03     49.4612E-03    -24.8166E-03     43.0034E-03
            1041     7.90171E-03     97.6977E-03    -6.35455E+06    -53.2870E+06     1.07105E+06    -16.2672E+06    -24.9430E-03     49.7933E-03    -24.8503E-03     48.8478E-03    -24.9129E-03     49.5483E-03    -24.7585E-03     48.6046E-03
            1042     8.78016E-03     97.7415E-03    -6.09967E+06    -53.8653E+06     1.76123E+06    -16.2322E+06    -25.2538E-03     50.0698E-03    -24.8161E-03     54.4926E-03    -25.2295E-03     49.8276E-03    -24.7203E-03     54.2395E-03
            1043     9.65802E-03     97.7911E-03    -5.97370E+06    -53.1643E+06     1.28768E+06    -16.2071E+06    -25.6600E-03     50.4602E-03    -24.8002E-03     60.0795E-03    -25.6458E-03     50.2323E-03    -24.7080E-03     59.8137E-03
            1044     10.5360E-03     97.8449E-03    -5.75612E+06    -54.2640E+06     618.627E+03    -16.0561E+06    -26.1989E-03     51.0123E-03    -24.8134E-03     65.7883E-03    -26.1966E-03     50.7951E-03    -24.7232E-03     65.5076E-03
            1045     11.4138E-03     97.9046E-03    -6.07254E+06    -52.6227E+06    -2.31521E+06    -15.5910E+06    -27.0686E-03     51.9182E-03    -24.8496E-03     71.5961E-03    -27.0904E-03     51.7384E-03    -24.7761E-03     71.2986E-03
            1046     12.2900E-03     97.9695E-03    -6.42438E+06    -48.1685E+06    -4.69243E+06    -15.1271E+06    -28.0366E-03     52.9664E-03    -24.9298E-03     77.2011E-03    -28.0997E-03     52.8492E-03    -24.8741E-03     76.8821E-03
            1047     13.1665E-03     98.0399E-03    -6.64803E+06    -42.3886E+06    -8.71497E+06    -14.0318E+06    -29.2051E-03     54.2494E-03    -25.0444E-03     83.8472E-03    -29.3372E-03     54.2328E-03    -25.0168E-03     83.5056E-03
            1048     14.0410E-03     98.1179E-03    -7.39562E+06    -17.4185E+06    -11.3396E+06    -12.2590E+06    -30.4778E-03     55.6543E-03    -25.1766E-03     96.4964E-03    -30.7810E-03     55.9024E-03    -25.1973E-03     96.1383E-03
            1049     14.9166E-03     98.2130E-03    -8.58901E+06     21.3444E+06    -15.1305E+06    -9.27291E+06    -32.4654E-03     57.7849E-03    -25.3195E-03     118.364E-03    -33.1962E-03     58.6049E-03    -25.4136E-03     118.024E-03
            1050     15.7865E-03     98.3357E-03    -9.23556E+06     87.8615E+06     7.79340E+06    -4.21478E+06    -34.2218E-03     59.8097E-03    -25.5880E-03     142.524E-03    -35.7978E-03     61.6422E-03    -25.6630E-03     142.482E-03
            1051     16.6573E-03     98.4786E-03    -4.54888E+06     137.189E+06     65.8654E+06    -802.900E+03    -29.9828E-03     55.9640E-03    -25.9812E-03     107.497E-03    -31.4078E-03     57.6689E-03    -25.8442E-03     107.814E-03
            1052     877.994E-06     98.5105E-03    -6.91252E+06    -40.9159E+06    -7.02398E+06    -4.21666E+06    -24.6952E-03     49.4051E-03    -24.7099E-03     5.88123E-03    -24.6604E-03     49.2208E-03    -24.6756E-03     5.82495E-03
            1053     1.75613E-03     98.5175E-03    -6.99927E+06    -42.3387E+06    -7.22004E+06    -7.39988E+06    -24.6375E-03     49.3172E-03    -24.6797E-03     10.8644E-03    -24.6009E-03     49.1264E-03    -24.6442E-03     10.7654E-03
            1054     2.63426E-03     98.5286E-03    -7.02283E+06    -44.3691E+06    -7.28254E+06    -10.2987E+06    -24.5484E-03     49.1858E-03    -24.6374E-03     16.1522E-03    -24.5093E-03     48.9854E-03    -24.5993E-03     16.0139E-03
            1055     3.51258E-03     98.5444E-03    -7.07330E+06    -46.8388E+06    -7.27151E+06    -12.5804E+06    -24.4356E-03     49.0172E-03    -24.5817E-03     21.5506E-03    -24.3937E-03     48.8051E-03    -24.5399E-03     21.3807E-03
            1056     4.39105E-03     98.5646E-03    -7.06144E+06    -48.9611E+06    -6.79519E+06    -14.2311E+06    -24.3250E-03     48.8415E-03    -24.5165E-03     27.0526E-03    -24.2816E-03     48.6189E-03    -24.4693E-03     26.8588E-03
            1057     5.26966E-03     98.5896E-03    -7.29434E+06    -50.7516E+06    -5.68881E+06    -15.1756E+06    -24.2308E-03     48.6787E-03    -24.4479E-03     32.6335E-03    -24.1889E-03     48.4473E-03    -24.3922E-03     32.4244E-03
            1058     6.14848E-03     98.6191E-03    -7.61077E+06    -52.0559E+06    -4.29402E+06    -15.7038E+06    -24.1976E-03     48.5774E-03    -24.3798E-03     38.3311E-03    -24.1594E-03     48.3398E-03    -24.3148E-03     38.1110E-03
            1059     7.02728E-03     98.6537E-03    -7.81745E+06    -51.5765E+06    -2.77800E+06    -15.7242E+06    -24.2252E-03     48.5403E-03    -24.3151E-03     44.1228E-03    -24.1939E-03     48.3062E-03    -24.2429E-03     43.8971E-03
            1060     7.90631E-03     98.6929E-03    -8.21695E+06    -51.2444E+06    -529.913E+03    -15.4009E+06    -24.3953E-03     48.6628E-03    -24.2675E-03     49.9687E-03    -24.3741E-03     48.4321E-03    -24.1839E-03     49.7399E-03
            1061     8.78499E-03     98.7375E-03    -8.46483E+06    -52.1592E+06     854.389E+03    -15.3698E+06    -24.7637E-03     49.0051E-03    -24.2414E-03     55.9601E-03    -24.7512E-03     48.7749E-03    -24.1492E-03     55.7220E-03
            1062     9.66368E-03     98.7871E-03    -8.78878E+06    -51.2297E+06     605.413E+03    -15.3265E+06    -25.2844E-03     49.5212E-03    -24.2368E-03     61.7760E-03    -25.2848E-03     49.3067E-03    -24.1467E-03     61.5256E-03
            1063     10.5419E-03     98.8414E-03    -9.15494E+06    -52.5322E+06     325.169E+03    -15.5510E+06    -26.0872E-03     50.3632E-03    -24.2759E-03     67.8064E-03    -26.1031E-03     50.1591E-03    -24.1849E-03     67.5355E-03
            1064     11.4191E-03     98.9021E-03    -8.78510E+06    -51.8952E+06    -1.95069E+06    -15.3815E+06    -27.0603E-03     51.4088E-03    -24.3485E-03     73.8663E-03    -27.0964E-03     51.2351E-03    -24.2703E-03     73.5749E-03
            1065     12.2963E-03     98.9680E-03    -8.36689E+06    -46.6640E+06    -3.25845E+06    -14.9452E+06    -28.1788E-03     52.6461E-03    -24.4673E-03     79.7034E-03    -28.2563E-03     52.5377E-03    -24.4038E-03     79.3887E-03
            1066     13.1718E-03     99.0394E-03    -8.21113E+06    -43.4893E+06    -7.23087E+06    -14.0754E+06    -29.5259E-03     54.1516E-03    -24.6256E-03     86.6888E-03    -29.6672E-03     54.1302E-03    -24.5868E-03     86.3482E-03
            1067     14.0473E-03     99.1192E-03    -7.97783E+06    -18.4193E+06    -8.76079E+06    -12.0692E+06    -31.3356E-03     56.1528E-03    -24.8172E-03     99.4803E-03    -31.6528E-03     56.4018E-03    -24.8228E-03     99.1184E-03
            1068     14.9197E-03     99.2154E-03     -7.8776E+06     16.6903E+06    -10.6490E+06    -8.27983E+06    -33.0805E-03     58.1085E-03    -25.0281E-03     122.135E-03    -33.8201E-03     58.9103E-03    -25.0941E-03     121.803E-03
            1069     15.7954E-03     99.3411E-03    -6.88844E+06     84.0920E+06     11.1872E+06    -4.03332E+06    -34.1841E-03     59.4882E-03    -25.3041E-03     148.496E-03    -35.8021E-03     61.3478E-03    -25.3601E-03     148.470E-03
            1070     16.6684E-03     99.4859E-03    -4.04315E+06     136.669E+06     66.3001E+06    -1.92085E+06    -31.9811E-03     57.7110E-03    -25.7298E-03     109.575E-03    -33.4424E-03     59.4510E-03    -25.5906E-03     109.856E-03
            1071     878.671E-06     99.5061E-03    -4.31768E+06    -32.3571E+06    -4.42514E+06    -4.12802E+06    -24.0122E-03     48.0253E-03    -24.0131E-03     5.95801E-03    -23.9805E-03     47.8762E-03    -23.9820E-03     5.90320E-03
            1072     1.75727E-03     99.5128E-03    -4.65562E+06    -34.4271E+06    -5.24235E+06    -7.31429E+06    -23.9446E-03     47.9317E-03    -23.9871E-03     11.0162E-03    -23.9107E-03     47.7742E-03    -23.9567E-03     10.9189E-03
            1073     2.63610E-03     99.5240E-03    -5.27866E+06    -37.4619E+06    -6.28512E+06    -10.0903E+06    -23.8385E-03     47.7771E-03    -23.9386E-03     16.3895E-03    -23.8021E-03     47.6071E-03    -23.9081E-03     16.2549E-03
            1074     3.51501E-03     99.5394E-03    -6.06341E+06    -41.0295E+06    -7.25256E+06    -12.2472E+06    -23.7202E-03     47.5958E-03    -23.8755E-03     21.8947E-03    -23.6816E-03     47.4110E-03    -23.8435E-03     21.7305E-03
            1075     4.39410E-03     99.5594E-03    -7.17501E+06    -44.4026E+06    -7.96727E+06    -13.5882E+06    -23.6018E-03     47.4052E-03    -23.8035E-03     27.5174E-03    -23.5636E-03     47.2070E-03    -23.7685E-03     27.3337E-03
            1076     5.27340E-03     99.5841E-03    -8.45744E+06    -47.4936E+06    -7.84100E+06    -14.0270E+06    -23.5236E-03     47.2544E-03    -23.7309E-03     33.2621E-03    -23.4886E-03     47.0436E-03    -23.6889E-03     33.0700E-03
            1077     6.15272E-03     99.6135E-03    -9.98168E+06    -48.9410E+06     -6.9108E+06    -14.2068E+06    -23.4934E-03     47.1554E-03    -23.6620E-03     39.1462E-03    -23.4671E-03     46.9399E-03    -23.6111E-03     38.9481E-03
            1078     7.03230E-03     99.6479E-03    -11.5633E+06    -49.8660E+06    -5.58906E+06    -14.1470E+06    -23.5577E-03     47.1599E-03    -23.6023E-03     45.1245E-03    -23.5425E-03     46.9429E-03    -23.5411E-03     44.9223E-03
            1079     7.91170E-03     99.6873E-03    -12.6306E+06    -49.3905E+06    -3.23885E+06    -13.8280E+06    -23.7713E-03     47.3328E-03    -23.5615E-03     51.2761E-03    -23.7698E-03     47.1205E-03    -23.4878E-03     51.0713E-03
            1080     8.79116E-03     99.7321E-03    -13.5609E+06    -50.2731E+06    -971.315E+03    -13.7905E+06    -24.1645E-03     47.7126E-03    -23.5481E-03     57.4935E-03    -24.1762E-03     47.5005E-03    -23.4604E-03     57.2800E-03
            1081     9.67024E-03     99.7819E-03    -14.2038E+06    -49.4599E+06    -355.553E+03    -14.0221E+06    -24.8839E-03     48.4473E-03    -23.5634E-03     63.6450E-03    -24.9110E-03     48.2494E-03    -23.4729E-03     63.4156E-03
            1082     10.5486E-03     99.8375E-03    -14.1618E+06    -49.7491E+06     404.471E+03    -14.9093E+06    -25.8749E-03     49.5081E-03    -23.6331E-03     70.0676E-03    -25.9189E-03     49.3239E-03    -23.5385E-03     69.8088E-03
            1083     11.4264E-03     99.8989E-03    -13.6482E+06    -50.8098E+06    -1.47367E+06    -15.5505E+06    -27.0187E-03     50.7643E-03    -23.7456E-03     76.3828E-03    -27.0805E-03     50.6016E-03    -23.6595E-03     76.0926E-03
            1084     12.3030E-03     99.9658E-03    -12.8418E+06    -45.7021E+06    -2.63604E+06    -15.3018E+06    -28.3917E-03     52.3007E-03    -23.9090E-03     82.4525E-03    -28.4945E-03     52.2033E-03    -23.8373E-03     82.1350E-03
            1085     13.1791E-03     100.039E-03    -11.7861E+06    -43.5434E+06    -5.72283E+06    -14.9462E+06    -30.0029E-03     54.1295E-03    -24.1267E-03     89.2325E-03    -30.1664E-03     54.1133E-03    -24.0751E-03     88.8799E-03
            1086     14.0534E-03     100.120E-03    -10.1171E+06    -20.0543E+06    -6.66984E+06    -13.4151E+06    -31.9522E-03     56.3327E-03    -24.3804E-03     102.397E-03    -32.2888E-03     56.5815E-03    -24.3700E-03     102.014E-03
            1087     14.9271E-03     100.220E-03    -8.05906E+06     11.6871E+06    -6.93198E+06    -9.64518E+06    -33.4645E-03     58.1172E-03    -24.6528E-03     122.885E-03    -34.2057E-03     58.8915E-03    -24.6927E-03     122.534E-03
            1088     15.7999E-03     100.340E-03    -6.14259E+06     80.7518E+06     17.1096E+06    -5.14924E+06    -34.0698E-03     59.0392E-03    -24.9694E-03     146.354E-03    -35.6804E-03     60.8650E-03    -24.9920E-03     146.334E-03
            1089     16.6767E-03     100.491E-03    -4.31038E+06     135.597E+06     69.0073E+06    -1.54634E+06    -34.3394E-03     59.8001E-03    -25.4607E-03     106.517E-03    -35.7905E-03     61.5174E-03    -25.3061E-03     106.774E-03
            1090     879.316E-06     100.500E-03    -2.78149E+06    -24.0080E+06    -3.21005E+06    -3.94766E+06    -23.1603E-03     46.3272E-03    -23.1669E-03     6.05316E-03    -23.1349E-03     46.2159E-03    -23.1441E-03     6.00104E-03
            1091     1.75881E-03     100.507E-03    -3.70634E+06    -26.9242E+06    -4.70904E+06    -6.84829E+06    -23.0840E-03     46.2172E-03    -23.1332E-03     11.1676E-03    -23.0569E-03     46.0949E-03    -23.1123E-03     11.0770E-03
            1092     2.63830E-03     100.518E-03    -5.08185E+06    -31.0263E+06    -6.80167E+06    -9.29451E+06    -22.9790E-03     46.0577E-03    -23.0787E-03     16.6363E-03    -22.9500E-03     45.9202E-03    -23.0604E-03     16.5129E-03
            1093     3.51801E-03     100.533E-03    -7.08842E+06    -35.9052E+06    -9.11823E+06    -10.9237E+06    -22.8575E-03     45.8685E-03    -23.0110E-03     22.2495E-03    -22.8286E-03     45.7133E-03    -22.9942E-03     22.1037E-03
            1094     4.39785E-03     100.553E-03    -9.68108E+06    -40.7759E+06    -11.0802E+06    -11.5746E+06    -22.7479E-03     45.6845E-03    -22.9366E-03     28.0047E-03    -22.7226E-03     45.5122E-03    -22.9189E-03     27.8488E-03
            1095     5.27784E-03     100.577E-03    -12.5446E+06    -44.8274E+06    -11.9627E+06    -11.6912E+06    -22.6759E-03     45.5399E-03    -22.8640E-03     33.9263E-03    -22.6587E-03     45.3537E-03    -22.8406E-03     33.7667E-03
            1096     6.15801E-03     100.606E-03    -15.2331E+06    -46.7811E+06    -11.0668E+06    -11.4298E+06    -22.6764E-03     45.4774E-03    -22.8010E-03     39.9886E-03    -22.6728E-03     45.2856E-03    -22.7664E-03     39.8292E-03
            1097     7.03814E-03     100.641E-03    -17.7017E+06    -47.9497E+06    -8.67300E+06    -11.1647E+06    -22.8043E-03     45.5610E-03    -22.7567E-03     46.2164E-03    -22.8172E-03     45.3659E-03    -22.7048E-03     46.0559E-03
            1098     7.91830E-03     100.680E-03    -19.6278E+06    -47.6368E+06    -5.86473E+06    -11.4466E+06    -23.0893E-03     45.8228E-03    -22.7334E-03     52.5972E-03    -23.1203E-03     45.6319E-03    -22.6652E-03     52.4268E-03
            1099     8.79826E-03     100.725E-03    -20.4257E+06    -48.1206E+06    -2.67719E+06    -11.8584E+06    -23.6193E-03     46.3637E-03    -22.7444E-03     59.0544E-03    -23.6645E-03     46.1733E-03    -22.6584E-03     58.8698E-03
            1100     9.67776E-03     100.776E-03    -20.2491E+06    -46.6679E+06    -649.369E+03    -12.7800E+06    -24.4395E-03     47.2305E-03    -22.7910E-03     65.6492E-03    -24.4990E-03     47.0543E-03    -22.6972E-03     65.4400E-03
            1101     10.5566E-03     100.832E-03    -19.5554E+06    -46.8240E+06     437.805E+03    -14.2271E+06    -25.5701E-03     48.4616E-03    -22.8915E-03     72.3236E-03    -25.6438E-03     48.2984E-03    -22.7931E-03     72.0779E-03
            1102     11.4346E-03     100.895E-03    -18.7421E+06    -48.5846E+06    -1.12837E+06    -15.6776E+06    -27.0412E-03     50.0892E-03    -23.0480E-03     78.8804E-03    -27.1317E-03     49.9440E-03    -22.9560E-03     78.5914E-03
            1103     12.3113E-03     100.964E-03    -17.0213E+06    -44.5676E+06    -2.25441E+06    -16.5252E+06    -28.7405E-03     52.0100E-03    -23.2695E-03     85.1921E-03    -28.8672E-03     51.9247E-03    -23.1914E-03     84.8599E-03
            1104     13.1865E-03     101.038E-03    -14.6374E+06    -42.6596E+06    -4.82769E+06    -16.4751E+06    -30.7690E-03     54.3301E-03    -23.5611E-03     92.1610E-03    -30.9544E-03     54.3261E-03    -23.5021E-03     91.7853E-03
            1105     14.0602E-03     101.122E-03    -12.4490E+06    -21.0163E+06    -5.52241E+06    -15.8300E+06    -32.7567E-03     56.6526E-03    -23.8959E-03     104.738E-03    -33.1107E-03     56.9038E-03    -23.8749E-03     104.319E-03
            1106     14.9330E-03     101.222E-03    -10.1514E+06     6.39370E+06    -5.75056E+06    -12.3616E+06    -35.0415E-03     59.3093E-03    -24.2678E-03     123.920E-03    -35.8029E-03     60.0742E-03    -24.2911E-03     123.513E-03
            1107     15.8047E-03     101.345E-03    -8.41915E+06      74.785E+06     16.5370E+06    -5.76201E+06    -36.9911E-03     61.7137E-03    -24.7226E-03     145.425E-03    -38.6064E-03     63.5167E-03    -24.7361E-03     145.324E-03
            1108     16.6726E-03     101.493E-03    -4.83168E+06     133.080E+06     68.1900E+06    -1.38974E+06    -35.8049E-03     61.1413E-03    -25.3364E-03     108.005E-03    -37.2653E-03     62.8594E-03    -25.1814E-03     108.226E-03
            1109     880.292E-06     101.492E-03    -3.21629E+06    -16.4484E+06    -3.55728E+06    -3.46700E+06    -22.1374E-03     44.2880E-03    -22.1507E-03     6.12507E-03    -22.1245E-03     44.2156E-03    -22.1399E-03     6.07952E-03
            1110     1.76053E-03     101.499E-03    -4.74531E+06    -20.3318E+06    -6.10969E+06    -5.79779E+06    -22.0637E-03     44.1744E-03    -22.1108E-03     11.3112E-03    -22.0492E-03     44.0886E-03    -22.1049E-03     11.2349E-03
            1111     2.64101E-03     101.510E-03    -7.31922E+06    -25.8859E+06    -9.49816E+06    -7.43290E+06    -21.9659E-03     44.0207E-03    -22.0547E-03     16.8619E-03    -21.9516E-03     43.9159E-03    -22.0541E-03     16.7636E-03
            1112     3.52153E-03     101.525E-03    -10.8511E+06    -32.2258E+06    -13.0182E+06    -8.08427E+06    -21.8576E-03     43.8464E-03    -21.9888E-03     22.5700E-03    -21.8469E-03     43.7205E-03    -21.9915E-03     22.4624E-03
            1113     4.40227E-03     101.544E-03    -14.9611E+06    -38.5450E+06    -15.5529E+06    -7.94345E+06    -21.7683E-03     43.6902E-03    -21.9220E-03     28.4557E-03    -21.7658E-03     43.5428E-03    -21.9222E-03     28.3486E-03
            1114     5.28310E-03     101.568E-03    -19.2487E+06    -42.9160E+06    -16.2965E+06    -7.55095E+06    -21.7255E-03     43.5867E-03    -21.8612E-03     34.5157E-03    -21.7378E-03     43.4256E-03    -21.8526E-03     34.4118E-03
            1115     6.16405E-03     101.597E-03    -22.9999E+06    -45.2526E+06    -14.9567E+06    -7.48920E+06    -21.7777E-03     43.5923E-03    -21.8147E-03     40.7704E-03    -21.8086E-03     43.4243E-03    -21.7905E-03     40.6645E-03
            1116     7.04500E-03     101.632E-03    -25.3749E+06    -46.3343E+06    -11.4427E+06    -7.62372E+06    -21.9797E-03     43.7721E-03    -21.7923E-03     47.2278E-03    -22.0283E-03     43.5992E-03    -21.7456E-03     47.1162E-03
            1117     7.92582E-03     101.671E-03    -26.5857E+06    -44.8269E+06    -6.95740E+06    -8.42923E+06    -22.4103E-03     44.2091E-03    -21.7988E-03     53.8965E-03    -22.4774E-03     44.0428E-03    -21.7300E-03     53.7685E-03
            1118     8.80622E-03     101.717E-03    -26.5520E+06    -45.2204E+06    -3.35150E+06    -10.1141E+06    -23.0888E-03     44.9320E-03    -21.8432E-03     60.6817E-03    -23.1666E-03     44.7646E-03    -21.7559E-03     60.5232E-03
            1119     9.68615E-03     101.768E-03    -25.3508E+06    -43.3956E+06    -945.821E+03    -12.0843E+06    -24.0185E-03     45.9450E-03    -21.9265E-03     67.5986E-03    -24.1063E-03     45.7915E-03    -21.8315E-03     67.4023E-03
            1120     10.5655E-03     101.826E-03    -23.6346E+06    -43.9058E+06     270.135E+03    -14.0207E+06    -25.3645E-03     47.4332E-03    -22.0687E-03     74.6449E-03    -25.4614E-03     47.2895E-03    -21.9694E-03     74.4055E-03
            1121     11.4434E-03     101.890E-03    -21.2745E+06    -44.5843E+06    -175.738E+03    -16.2371E+06    -27.1074E-03     49.3864E-03    -22.2791E-03     81.5671E-03    -27.2173E-03     49.2631E-03    -22.1844E-03     81.2736E-03
            1122     12.3200E-03     101.961E-03    -18.7926E+06    -42.3580E+06    -1.35727E+06    -18.1100E+06    -29.1611E-03     51.7277E-03    -22.5666E-03     88.1863E-03    -29.3025E-03     51.6560E-03    -22.4847E-03     87.8343E-03
            1123     13.1950E-03     102.038E-03    -16.0531E+06    -41.6356E+06    -4.23172E+06    -18.7546E+06    -31.5451E-03     54.4807E-03    -22.9355E-03     95.6039E-03    -31.7446E-03     54.4877E-03    -22.8730E-03     95.1962E-03
            1124     14.0678E-03     102.124E-03    -13.0079E+06    -20.4795E+06    -3.65886E+06    -18.3624E+06    -34.0957E-03     57.4673E-03    -23.3716E-03     107.552E-03    -34.4651E-03     57.7286E-03    -23.3414E-03     107.090E-03
            1125     14.9396E-03     102.226E-03    -10.9463E+06    -919.666E+03    -5.84647E+06    -14.0757E+06    -37.1804E-03     61.0480E-03    -23.8676E-03     127.201E-03    -37.9614E-03     61.8040E-03    -23.8796E-03     126.739E-03
            1126     15.8073E-03     102.354E-03    -8.54979E+06     67.5563E+06     14.7006E+06    -6.63091E+06    -39.4429E-03     63.8934E-03    -24.4505E-03     148.216E-03    -41.0791E-03     65.6965E-03    -24.4626E-03     148.037E-03
            1127     16.6775E-03     102.500E-03    -4.45000E+06     131.022E+06     67.3660E+06    -2.41796E+06    -37.6310E-03     62.8114E-03    -25.1805E-03     110.400E-03    -39.1136E-03     64.5481E-03    -25.0272E-03     110.564E-03
            1128     881.224E-06     102.482E-03    -6.55663E+06    -10.5748E+06    -6.95445E+06    -2.39952E+06    -20.9561E-03     41.9197E-03    -20.9636E-03     6.16924E-03    -20.9635E-03     41.8864E-03    -20.9735E-03     6.13780E-03
            1129     1.76266E-03     102.489E-03    -9.28496E+06    -15.7861E+06    -10.5128E+06    -3.52580E+06    -20.8984E-03     41.8277E-03    -20.9293E-03     11.4109E-03    -20.9069E-03     41.7775E-03    -20.9455E-03     11.3645E-03
            1130     2.64402E-03     102.499E-03    -13.4665E+06    -22.9905E+06    -14.8664E+06    -3.84543E+06    -20.8197E-03     41.7022E-03    -20.8825E-03     17.0125E-03    -20.8324E-03     41.6285E-03    -20.9039E-03     16.9615E-03
            1131     3.52563E-03     102.514E-03    -18.5615E+06    -30.7489E+06    -18.7086E+06    -3.34458E+06    -20.7459E-03     41.5775E-03    -20.8316E-03     22.8018E-03    -20.7675E-03     41.4781E-03    -20.8536E-03     22.7566E-03
            1132     4.40723E-03     102.533E-03    -23.8651E+06    -37.7618E+06    -20.7117E+06    -2.59834E+06    -20.7003E-03     41.4865E-03    -20.7861E-03     28.7781E-03    -20.7357E-03     41.3630E-03    -20.8003E-03     28.7415E-03
            1133     5.28904E-03     102.557E-03    -28.3046E+06    -41.8842E+06    -20.2824E+06    -2.29038E+06    -20.7186E-03     41.4695E-03    -20.7508E-03     34.9742E-03    -20.7714E-03     41.3318E-03    -20.7505E-03     34.9402E-03
            1134     6.17076E-03     102.587E-03    -31.2843E+06    -43.3270E+06    -17.3922E+06    -2.99614E+06    -20.8459E-03     41.5790E-03    -20.7331E-03     41.4031E-03    -20.9168E-03     41.4354E-03    -20.7119E-03     41.3576E-03
            1135     7.05251E-03     102.621E-03    -32.3575E+06    -43.9925E+06    -12.8419E+06    -4.73663E+06    -21.1601E-03     41.9017E-03    -20.7416E-03     48.0974E-03    -21.2440E-03     41.7517E-03    -20.6951E-03     48.0258E-03
            1136     7.93396E-03     102.661E-03    -31.4442E+06    -42.0894E+06    -7.53807E+06    -6.38775E+06    -21.6956E-03     42.4763E-03    -20.7808E-03     55.0838E-03    -21.7888E-03     42.3303E-03    -20.7118E-03     54.9853E-03
            1137     8.81501E-03     102.707E-03    -29.7396E+06    -41.1223E+06    -3.22824E+06    -8.97599E+06    -22.5203E-03     43.3808E-03    -20.8605E-03     62.2488E-03    -22.6187E-03     43.2370E-03    -20.7739E-03     62.1085E-03
            1138     9.69543E-03     102.760E-03    -27.5570E+06    -39.3814E+06    -570.910E+03    -11.8697E+06    -23.6794E-03     44.6676E-03    -20.9883E-03     69.5598E-03    -23.7832E-03     44.5355E-03    -20.8941E-03     69.3698E-03
            1139     10.5747E-03     102.819E-03    -24.8646E+06    -39.7176E+06     804.696E+03    -14.5219E+06    -25.2030E-03     46.3844E-03    -21.1814E-03     77.1281E-03    -25.3117E-03     46.2615E-03    -21.0838E-03     76.8857E-03
            1140     11.4530E-03     102.885E-03    -21.9470E+06    -40.2002E+06     724.397E+03    -17.4327E+06    -27.2062E-03     48.6568E-03    -21.4505E-03     84.5650E-03    -27.3268E-03     48.5547E-03    -21.3568E-03     84.2588E-03
            1141     12.3295E-03     102.958E-03    -19.2232E+06    -39.1346E+06    -67.4935E+03    -19.6001E+06    -29.6205E-03     51.4312E-03    -21.8107E-03     91.5648E-03    -29.7723E-03     51.3762E-03    -21.7265E-03     91.1939E-03
            1142     13.2039E-03     103.038E-03    -16.5968E+06    -39.2589E+06    -3.12810E+06    -21.2373E+06    -32.3136E-03     54.5743E-03    -22.2607E-03     99.2112E-03    -32.5251E-03     54.5967E-03    -22.1953E-03     98.7686E-03
            1143     14.0765E-03     103.127E-03    -13.4792E+06    -20.2728E+06    -2.19165E+06    -21.2295E+06    -35.6135E-03     58.4158E-03    -22.8023E-03     111.502E-03    -36.0016E-03     58.6907E-03    -22.7644E-03     110.988E-03
            1144     14.9454E-03     103.232E-03    -10.2753E+06    -9.10488E+06    -6.07577E+06    -16.2165E+06    -38.9777E-03     62.3948E-03    -23.4171E-03     131.055E-03    -39.7683E-03     63.1344E-03    -23.4194E-03     130.538E-03
            1145     15.8147E-03     103.362E-03    -7.40256E+06     59.8059E+06     14.5088E+06    -8.29874E+06    -41.1749E-03     65.2841E-03    -24.1093E-03     150.951E-03    -42.8361E-03     67.0895E-03    -24.1127E-03     150.708E-03
            1146     16.6810E-03     103.509E-03    -3.86863E+06     128.809E+06     68.0936E+06    -3.05256E+06    -40.3308E-03     65.2939E-03    -24.9631E-03     110.866E-03    -41.8338E-03     67.0431E-03    -24.8038E-03     110.963E-03
            1147     882.512E-06     103.470E-03    -14.7958E+06    -8.34043E+06    -14.3289E+06     141.111E+03    -19.6503E-03     39.2977E-03    -19.6475E-03     6.17675E-03    -19.6914E-03     39.2982E-03    -19.6856E-03     6.17840E-03
            1148     1.76485E-03     103.476E-03    -18.8888E+06    -14.8835E+06    -18.3776E+06     804.885E+03    -19.6224E-03     39.2533E-03    -19.6310E-03     11.4073E-03    -19.6687E-03     39.2329E-03    -19.6739E-03     11.4173E-03
            1149     2.64747E-03     103.487E-03    -24.2853E+06    -23.2313E+06    -22.2200E+06     1.99841E+06    -19.5882E-03     39.1974E-03    -19.6092E-03     17.0363E-03    -19.6439E-03     39.1487E-03    -19.6514E-03     17.0614E-03
            1150     3.52997E-03     103.501E-03    -29.8986E+06    -31.5467E+06    -24.7287E+06     3.16065E+06    -19.5721E-03     39.1620E-03    -19.5899E-03     22.8694E-03    -19.6403E-03     39.0836E-03    -19.6244E-03     22.9092E-03
            1151     4.41269E-03     103.521E-03    -34.3185E+06    -37.7878E+06    -24.9161E+06     3.43935E+06    -19.6020E-03     39.1805E-03    -19.5786E-03     28.9331E-03    -19.6831E-03     39.0779E-03    -19.5986E-03     28.9757E-03
            1152     5.29525E-03     103.545E-03    -36.6416E+06    -40.5870E+06    -22.5273E+06     2.27490E+06    -19.6984E-03     39.2769E-03    -19.5784E-03     35.2506E-03    -19.7911E-03     39.1606E-03    -19.5791E-03     35.2770E-03
            1153     6.17795E-03     103.574E-03    -36.7222E+06    -40.8605E+06    -18.0106E+06     163.413E+03    -19.9308E-03     39.5267E-03    -19.5959E-03     41.8775E-03    -20.0309E-03     39.4036E-03    -19.5735E-03     41.8748E-03
            1154     7.06033E-03     103.609E-03    -35.4736E+06    -40.0251E+06    -12.6752E+06    -2.80911E+06    -20.3473E-03     39.9859E-03    -19.6386E-03     48.8393E-03    -20.4519E-03     39.8592E-03    -19.5925E-03     48.7949E-03
            1155     7.94247E-03     103.649E-03    -33.2823E+06    -38.8293E+06    -7.72713E+06    -6.03408E+06    -20.9756E-03     40.6875E-03    -19.7120E-03     56.1187E-03    -21.0814E-03     40.5597E-03    -19.6460E-03     56.0277E-03
            1156     8.82423E-03     103.696E-03    -30.1418E+06    -36.4866E+06    -3.00113E+06    -8.91506E+06    -21.9403E-03     41.7689E-03    -19.8286E-03     63.7032E-03    -22.0464E-03     41.6471E-03    -19.7470E-03     63.5670E-03
            1157     9.70495E-03     103.750E-03    -27.1107E+06    -34.8941E+06     116.504E+03    -12.1003E+06    -23.2679E-03     43.2692E-03    -20.0013E-03     71.4621E-03    -23.3755E-03     43.1563E-03    -19.9108E-03     71.2726E-03
            1158     10.5849E-03     103.811E-03    -24.0018E+06    -34.4008E+06     1.84341E+06    -15.4504E+06    -25.0321E-03     45.2774E-03    -20.2452E-03     79.6548E-03    -25.1445E-03     45.1771E-03    -20.1513E-03     79.4039E-03
            1159     11.4631E-03     103.879E-03    -21.2514E+06    -35.5686E+06     1.98311E+06    -18.5571E+06    -27.3203E-03     47.8974E-03    -20.5770E-03     87.7459E-03    -27.4457E-03     47.8153E-03    -20.4847E-03     87.4277E-03
            1160     12.3394E-03     103.955E-03    -18.7347E+06    -35.5639E+06     1.11359E+06    -20.8271E+06    -30.0195E-03     51.0275E-03    -21.0080E-03     95.2421E-03    -30.1770E-03     50.9892E-03    -20.9237E-03     94.8563E-03
            1161     13.2136E-03     104.038E-03    -16.1547E+06    -34.9530E+06    -1.61086E+06    -23.2800E+06    -33.2026E-03     54.7443E-03    -21.5417E-03     103.381E-03    -33.4260E-03     54.7911E-03    -21.4756E-03     102.908E-03
            1162     14.0849E-03     104.130E-03    -13.8031E+06    -20.6111E+06    -1.50010E+06    -23.7758E+06    -36.9206E-03     59.1052E-03    -22.1846E-03     116.380E-03    -37.3247E-03     59.3917E-03    -22.1422E-03     115.821E-03
            1163     14.9540E-03     104.240E-03    -11.3290E+06    -17.0420E+06    -7.63319E+06    -19.1033E+06    -40.6890E-03     63.5978E-03    -22.9088E-03     134.832E-03    -41.4910E-03     64.3216E-03    -22.9058E-03     134.252E-03
            1164     15.8200E-03     104.370E-03    -8.91554E+06     50.7914E+06     10.7614E+06    -10.3384E+06    -43.5951E-03     67.3158E-03    -23.7208E-03     153.738E-03    -45.2878E-03     69.1264E-03    -23.7277E-03     153.409E-03
            1165     16.6852E-03     104.523E-03    -4.83237E+06     124.729E+06     65.7025E+06    -3.59102E+06    -43.3319E-03     68.0571E-03    -24.7252E-03     112.479E-03    -44.8634E-03     69.8240E-03    -24.5706E-03     112.497E-03
            1166     883.561E-06     104.455E-03    -28.9002E+06    -13.5417E+06    -26.2719E+06     5.52511E+06    -18.2901E-03     36.5793E-03    -18.2891E-03     6.09312E-03    -18.3770E-03     36.5915E-03    -18.3589E-03     6.16444E-03
            1167     1.76733E-03     104.461E-03    -33.6662E+06    -18.7309E+06    -28.4237E+06     7.89517E+06    -18.3065E-03     36.6055E-03    -18.2990E-03     11.2715E-03    -18.4066E-03     36.6018E-03    -18.3651E-03     11.3733E-03
            1168     2.65085E-03     104.472E-03    -38.1876E+06    -26.3661E+06    -29.6034E+06     9.17667E+06    -18.3394E-03     36.6540E-03    -18.3147E-03     16.8894E-03    -18.4492E-03     36.6205E-03    -18.3691E-03     17.0077E-03
            1169     3.53457E-03     104.486E-03    -40.9094E+06    -33.4097E+06    -29.0771E+06     9.33401E+06    -18.4052E-03     36.7407E-03    -18.3355E-03     22.7578E-03    -18.5192E-03     36.6751E-03    -18.3731E-03     22.8779E-03
            1170     4.41806E-03     104.505E-03    -41.6445E+06    -37.3487E+06    -26.6738E+06     7.85405E+06    -18.5146E-03     36.8760E-03    -18.3613E-03     28.9023E-03    -18.6303E-03     36.7884E-03    -18.3801E-03     29.0029E-03
            1171     5.30171E-03     104.530E-03    -40.6806E+06    -38.1250E+06    -22.8148E+06     4.88842E+06    -18.7086E-03     37.1038E-03    -18.3952E-03     35.3479E-03    -18.8242E-03     37.0058E-03    -18.3950E-03     35.4093E-03
            1172     6.18506E-03     104.559E-03    -38.6094E+06    -37.3771E+06    -18.1193E+06     1.27492E+06    -19.0273E-03     37.4722E-03    -18.4449E-03     42.1772E-03    -19.1412E-03     37.3688E-03    -18.4253E-03     42.1904E-03
            1173     7.06831E-03     104.594E-03    -35.6313E+06    -35.6147E+06    -12.7708E+06    -2.37673E+06    -19.5093E-03     38.0278E-03    -18.5185E-03     49.3805E-03    -19.6202E-03     37.9227E-03    -18.4790E-03     49.3437E-03
            1174     7.95121E-03     104.635E-03    -32.4480E+06    -33.9712E+06    -7.43271E+06    -6.17342E+06    -20.2717E-03     38.8995E-03    -18.6278E-03     57.0233E-03    -20.3798E-03     38.7933E-03    -18.5687E-03     56.9329E-03
            1175     8.83332E-03     104.684E-03    -29.2550E+06    -31.9235E+06    -2.97409E+06    -9.77412E+06    -21.3244E-03     40.1062E-03    -18.7819E-03     65.0506E-03    -21.4313E-03     40.0045E-03    -18.7080E-03     64.9064E-03
            1176     9.71488E-03     104.739E-03    -25.6860E+06    -30.0381E+06     652.953E+03    -12.9032E+06    -22.7840E-03     41.7791E-03    -18.9951E-03     73.3383E-03    -22.8907E-03     41.6860E-03    -18.9110E-03     73.1421E-03
            1177     10.5950E-03     104.801E-03    -22.4734E+06    -28.6976E+06     3.04425E+06    -16.3674E+06    -24.7878E-03     44.0742E-03    -19.2864E-03     82.1851E-03    -24.9010E-03     43.9969E-03    -19.1970E-03     81.9259E-03
            1178     11.4735E-03     104.872E-03    -19.7329E+06    -31.1696E+06     3.35919E+06    -19.2989E+06    -27.2865E-03     46.9600E-03    -19.6736E-03     91.0511E-03    -27.4116E-03     46.8949E-03    -19.5830E-03     90.7268E-03
            1179     12.3499E-03     104.951E-03    -17.4482E+06    -31.4940E+06     2.32712E+06    -21.7122E+06    -30.3140E-03     50.4791E-03    -20.1651E-03     99.3381E-03    -30.4734E-03     50.4583E-03    -20.0825E-03     98.9429E-03
            1180     13.2238E-03     105.037E-03    -15.4076E+06    -29.4103E+06     452.487E+03    -24.7757E+06    -34.0282E-03     54.8069E-03    -20.7787E-03     108.355E-03    -34.2645E-03     54.8830E-03    -20.7114E-03     107.860E-03
            1181     14.0945E-03     105.134E-03    -12.4965E+06    -19.9703E+06     731.755E+03    -26.1472E+06    -38.1293E-03     59.6506E-03    -21.5212E-03     121.491E-03    -38.5426E-03     59.9468E-03    -21.4705E-03     120.891E-03
            1182     14.9623E-03     105.248E-03    -9.89050E+06    -26.4622E+06    -8.60994E+06    -20.8567E+06    -42.5320E-03     64.8836E-03    -22.3516E-03     139.791E-03    -43.3331E-03     65.5811E-03    -22.3420E-03     139.159E-03
            1183     15.8268E-03     105.383E-03    -8.05994E+06     41.6944E+06     6.54044E+06    -11.4030E+06    -46.4076E-03     69.6928E-03    -23.2852E-03     158.351E-03    -48.1194E-03     71.5055E-03    -23.3013E-03     157.929E-03
            1184     16.6893E-03     105.537E-03    -4.50792E+06     120.231E+06     62.9929E+06    -4.98746E+06    -46.9375E-03     71.4018E-03    -24.4643E-03     115.461E-03    -48.4953E-03     73.1882E-03    -24.3172E-03     115.371E-03
            1185     884.875E-06     105.437E-03    -49.8160E+06    -28.0183E+06    -47.2520E+06     9.80324E+06    -16.9909E-03     33.9938E-03    -17.0030E-03     5.90587E-03    -17.1308E-03     33.9944E-03    -17.1264E-03     6.03246E-03
            1186     1.76947E-03     105.444E-03    -49.5277E+06    -27.6941E+06    -41.2329E+06     14.3531E+06    -17.0468E-03     34.0841E-03    -17.0373E-03     11.0025E-03    -17.1946E-03     34.0771E-03    -17.1314E-03     11.1879E-03
            1187     2.65426E-03     105.454E-03    -49.4266E+06    -30.7410E+06    -35.9679E+06     15.2003E+06    -17.1476E-03     34.2361E-03    -17.0885E-03     16.5913E-03    -17.2980E-03     34.2061E-03    -17.1521E-03     16.7876E-03
            1188     3.53876E-03     105.469E-03    -48.2064E+06    -34.2354E+06    -32.0643E+06     12.8761E+06    -17.2880E-03     34.4279E-03    -17.1399E-03     22.4952E-03    -17.4329E-03     34.3730E-03    -17.1807E-03     22.6614E-03
            1189     4.42339E-03     105.488E-03    -45.0323E+06    -35.4596E+06    -28.0427E+06     9.01278E+06    -17.4753E-03     34.6673E-03    -17.1920E-03     28.6897E-03    -17.6085E-03     34.5959E-03    -17.2155E-03     28.8058E-03
            1190     5.30775E-03     105.512E-03    -40.8616E+06    -34.7221E+06    -23.4292E+06     4.83665E+06    -17.7455E-03     34.9974E-03    -17.2519E-03     35.2603E-03    -17.8658E-03     34.9172E-03    -17.2595E-03     35.3218E-03
            1191     6.19204E-03     105.542E-03    -36.8214E+06    -33.2775E+06    -18.3369E+06     930.393E+03    -18.1220E-03     35.4502E-03    -17.3283E-03     42.2338E-03    -18.2322E-03     35.3647E-03    -17.3183E-03     42.2437E-03
            1192     7.07604E-03     105.578E-03    -33.4297E+06    -30.8609E+06    -12.8570E+06    -2.94887E+06    -18.6899E-03     36.1199E-03    -17.4300E-03     49.6969E-03    -18.7959E-03     36.0349E-03    -17.4011E-03     49.6544E-03
            1193     7.95956E-03     105.620E-03    -30.0416E+06    -29.0213E+06    -7.32267E+06    -6.73018E+06    -19.5118E-03     37.0812E-03    -17.5694E-03     57.6889E-03    -19.6141E-03     36.9950E-03    -17.5204E-03     57.5936E-03
            1194     8.84256E-03     105.669E-03    -26.6514E+06    -26.5178E+06    -2.18749E+06    -10.5704E+06    -20.6596E-03     38.4153E-03    -17.7557E-03     66.1474E-03    -20.7610E-03     38.3343E-03    -17.6896E-03     65.9958E-03
            1195     9.72451E-03     105.726E-03    -23.2390E+06    -25.1026E+06     1.66814E+06    -14.2407E+06    -22.2593E-03     40.2633E-03    -18.0039E-03     75.0788E-03    -22.3606E-03     40.1881E-03    -17.9255E-03     74.8690E-03
            1196     10.6052E-03     105.790E-03    -20.1738E+06    -23.7449E+06     4.54292E+06    -16.9473E+06    -24.3711E-03     42.7039E-03    -18.3329E-03     84.6734E-03    -24.4799E-03     42.6437E-03    -18.2465E-03     84.4112E-03
            1197     11.4841E-03     105.864E-03    -17.5347E+06    -26.1701E+06     5.63818E+06    -20.0982E+06    -27.0958E-03     45.8588E-03    -18.7629E-03     94.3263E-03    -27.2186E-03     45.8101E-03    -18.6714E-03     93.9962E-03
            1198     12.3608E-03     105.946E-03    -14.6335E+06    -27.0758E+06     5.03244E+06    -22.8424E+06    -30.4929E-03     49.7998E-03    -19.3069E-03     103.491E-03    -30.6482E-03     49.7926E-03    -19.2213E-03     103.084E-03
            1199     13.2345E-03     106.037E-03    -13.1142E+06    -24.1647E+06     4.11885E+06    -24.6811E+06    -34.5829E-03     54.5715E-03    -19.9885E-03     113.512E-03    -34.8236E-03     54.6682E-03    -19.9139E-03     113.017E-03
            1200     14.1048E-03     106.139E-03    -13.4950E+06    -16.9723E+06     4.12289E+06    -26.6343E+06    -39.2889E-03     60.1089E-03    -20.8200E-03     127.011E-03    -39.7258E-03     60.4261E-03    -20.7552E-03     126.395E-03
            1201     14.9716E-03     106.257E-03    -11.8520E+06    -35.3899E+06    -9.56395E+06    -24.1658E+06    -44.5460E-03     66.3048E-03    -21.7588E-03     145.234E-03    -45.3622E-03     66.9816E-03    -21.7381E-03     144.524E-03
            1202     15.8354E-03     106.397E-03    -7.09161E+06     30.7776E+06     1.17584E+06    -14.7455E+06    -49.5971E-03     72.4186E-03    -22.8215E-03     162.977E-03    -51.3288E-03     74.2317E-03    -22.8500E-03     162.409E-03
            1203     16.6946E-03     106.556E-03    -4.35234E+06     114.839E+06     59.5445E+06    -5.49496E+06    -50.9379E-03     75.1346E-03    -24.1967E-03     118.264E-03    -52.5287E-03     76.9454E-03    -24.0592E-03     118.053E-03
            1204     885.593E-06     106.417E-03    -82.4853E+06    -43.7699E+06    -82.2658E+06     6.42165E+06    -15.8800E-03     31.7761E-03    -15.8960E-03     5.68804E-03    -16.1097E-03     31.7961E-03    -16.1243E-03     5.77093E-03
            1205     1.77146E-03     106.424E-03    -72.1853E+06    -38.7099E+06    -67.5807E+06     10.8750E+06    -15.9290E-03     31.8629E-03    -15.9338E-03     10.6286E-03    -16.1359E-03     31.8719E-03    -16.1109E-03     10.7690E-03
            1206     2.65703E-03     106.434E-03    -60.2369E+06    -35.4726E+06    -51.0525E+06     12.6729E+06    -16.0467E-03     32.0464E-03    -15.9997E-03     16.1297E-03    -16.2224E-03     32.0303E-03    -16.1162E-03     16.2934E-03
            1207     3.54267E-03     106.449E-03    -50.2489E+06     -33.703E+06    -38.7392E+06     10.8139E+06    -16.2379E-03     32.3041E-03    -16.0662E-03     22.0191E-03    -16.3841E-03     32.2645E-03    -16.1382E-03     22.1588E-03
            1208     4.42800E-03     106.468E-03    -43.4590E+06    -32.6716E+06    -31.1001E+06     7.08955E+06    -16.4958E-03     32.6285E-03    -16.1328E-03     28.2688E-03    -16.6206E-03     32.5732E-03    -16.1779E-03     28.3604E-03
            1209     5.31332E-03     106.493E-03    -38.9615E+06    -31.0404E+06    -25.3999E+06     3.27583E+06    -16.8090E-03     33.0177E-03    -16.2087E-03     34.8971E-03    -16.9222E-03     32.9559E-03    -16.2342E-03     34.9390E-03
            1210     6.19839E-03     106.523E-03    -34.9413E+06    -28.7895E+06    -19.6865E+06    -818.109E+03    -17.2463E-03     33.5496E-03    -16.3032E-03     41.9932E-03    -17.3514E-03     33.4854E-03    -16.3093E-03     41.9813E-03
            1211     7.08317E-03     106.560E-03    -30.3025E+06    -26.1211E+06    -13.2307E+06    -4.65132E+06    -17.8708E-03     34.2975E-03    -16.4267E-03     49.6854E-03    -17.9669E-03     34.2316E-03    -16.4110E-03     49.6222E-03
            1212     7.96744E-03     106.603E-03    -25.9698E+06    -24.1308E+06    -6.79207E+06    -8.10900E+06    -18.7348E-03     35.3228E-03    -16.5880E-03     57.9615E-03    -18.8236E-03     35.2534E-03    -16.5493E-03     57.8503E-03
            1213     8.85110E-03     106.653E-03    -22.4525E+06    -21.3523E+06    -802.225E+03    -11.2565E+06    -19.9580E-03     36.7555E-03    -16.7975E-03     66.8798E-03    -20.0465E-03     36.6908E-03    -16.7380E-03     66.7222E-03
            1214     9.73366E-03     106.711E-03    -20.1004E+06    -19.8574E+06     3.60603E+06    -14.6398E+06    -21.6080E-03     38.6779E-03    -17.0699E-03     76.4063E-03    -21.7018E-03     38.6194E-03    -16.9939E-03     76.1951E-03
            1215     10.6150E-03     106.778E-03    -17.6643E+06    -19.4789E+06     6.80418E+06    -17.6515E+06    -23.8273E-03     41.2507E-03    -17.4234E-03     86.7662E-03    -23.9302E-03     41.2020E-03    -17.3355E-03     86.4997E-03
            1216     11.4945E-03     106.855E-03    -14.9058E+06    -19.8091E+06     9.25275E+06    -20.8449E+06    -26.7746E-03     44.6580E-03    -17.8833E-03     97.3527E-03    -26.8954E-03     44.6288E-03    -17.7867E-03     97.0183E-03
            1217     12.3712E-03     106.940E-03    -12.6486E+06    -22.5101E+06     8.75892E+06    -23.9916E+06    -30.4816E-03     48.9499E-03    -18.4683E-03     107.593E-03    -30.6366E-03     48.9549E-03    -18.3735E-03     107.176E-03
            1218     13.2453E-03     107.036E-03    -11.1624E+06    -22.5907E+06     7.39369E+06    -23.4918E+06    -34.9575E-03     54.1593E-03    -19.2017E-03     118.530E-03    -35.1952E-03     54.2560E-03    -19.1158E-03     118.053E-03
            1219     14.1155E-03     107.143E-03    -11.0988E+06    -10.9973E+06     9.24694E+06    -24.5198E+06    -40.3094E-03     60.4147E-03    -20.1053E-03     132.722E-03    -40.7539E-03     60.7545E-03    -20.0270E-03     132.125E-03
            1220     14.9814E-03     107.267E-03    -11.0850E+06    -38.9928E+06    -8.14347E+06    -26.1934E+06    -46.6743E-03     67.8225E-03    -21.1483E-03     151.529E-03    -47.4961E-03     68.4910E-03    -21.1164E-03     150.756E-03
            1221     15.8412E-03     107.413E-03    -10.3171E+06     17.0472E+06    -5.64287E+06    -18.4421E+06    -52.9557E-03     75.2974E-03    -22.3417E-03     170.424E-03    -54.7442E-03     77.1271E-03    -22.3797E-03     169.700E-03
            1222     16.6973E-03     107.580E-03    -4.65501E+06     105.949E+06     55.2584E+06    -7.22519E+06    -55.0662E-03     78.9739E-03    -23.9078E-03     123.708E-03    -56.7122E-03     80.8201E-03    -23.7784E-03     123.350E-03
            1223     886.371E-06     107.395E-03    -98.0022E+06    -49.4604E+06    -98.3379E+06    -790.167E+03    -15.1176E-03     30.2559E-03    -15.1383E-03     5.48446E-03    -15.3933E-03     30.2933E-03    -15.4162E-03     5.47417E-03
            1224     1.77256E-03     107.401E-03    -89.5178E+06    -44.3097E+06    -88.1530E+06    -355.229E+03    -15.1176E-03     30.2602E-03    -15.1426E-03     10.2239E-03    -15.3732E-03     30.2963E-03    -15.3893E-03     10.2192E-03
            1225     2.65909E-03     107.412E-03    -76.9784E+06    -38.3613E+06    -75.0401E+06     339.589E+03    -15.1521E-03     30.3127E-03    -15.1606E-03     15.4807E-03    -15.3726E-03     30.3414E-03    -15.3686E-03     15.4849E-03
            1226     3.54548E-03     107.427E-03    -63.3619E+06    -33.1729E+06    -61.4614E+06     343.248E+03    -15.2857E-03     30.4764E-03    -15.1906E-03     21.1793E-03    -15.4654E-03     30.4915E-03    -15.3580E-03     21.1837E-03
            1227     4.43187E-03     107.447E-03    -50.9407E+06    -30.4841E+06    -47.4208E+06    -664.417E+03    -15.5318E-03     30.7812E-03    -15.2495E-03     27.3505E-03    -15.6735E-03     30.7714E-03    -15.3685E-03     27.3419E-03
            1228     5.31792E-03     107.472E-03    -40.2969E+06    -27.9574E+06    -34.0044E+06    -2.45471E+06    -15.8972E-03     31.2320E-03    -15.3348E-03     34.0168E-03    -16.0089E-03     31.2000E-03    -15.4059E-03     33.9849E-03
            1229     6.20378E-03     107.503E-03    -32.0266E+06    -24.3333E+06    -22.8971E+06    -4.93910E+06    -16.4055E-03     31.8469E-03    -15.4414E-03     41.2680E-03    -16.4976E-03     31.8052E-03    -15.4741E-03     41.2034E-03
            1230     7.08919E-03     107.540E-03    -26.5432E+06    -22.1788E+06    -14.1750E+06    -7.56201E+06    -17.0687E-03     32.6453E-03    -15.5765E-03     49.0973E-03    -17.1500E-03     32.5946E-03    -15.5768E-03     48.9975E-03
            1231     7.97431E-03     107.584E-03    -22.7480E+06    -19.9142E+06    -6.66313E+06    -9.68825E+06    -17.9802E-03     33.7289E-03    -15.7487E-03     57.6503E-03    -18.0584E-03     33.6750E-03    -15.7202E-03     57.5203E-03
            1232     8.85847E-03     107.635E-03    -19.7235E+06    -16.8474E+06     314.297E+03    -12.1415E+06    -19.2075E-03     35.1771E-03    -15.9696E-03     66.9574E-03    -19.2889E-03     35.1278E-03    -15.9150E-03     66.7909E-03
            1233     9.74197E-03     107.695E-03    -16.5539E+06    -14.7666E+06     6.49169E+06    -14.8587E+06    -20.8923E-03     37.1463E-03    -16.2541E-03     77.0103E-03    -20.9775E-03     37.1015E-03    -16.1762E-03     76.8001E-03
            1234     10.6239E-03     107.764E-03    -14.0381E+06    -14.3695E+06     10.6820E+06    -17.8661E+06    -23.2138E-03     39.8334E-03    -16.6197E-03     88.1197E-03    -23.3078E-03     39.7957E-03    -16.5251E-03     87.8556E-03
            1235     11.5038E-03     107.844E-03    -12.4530E+06    -14.2576E+06     13.2043E+06    -20.6570E+06    -26.2459E-03     43.3369E-03    -17.0909E-03     99.7102E-03    -26.3630E-03     43.3210E-03    -16.9862E-03     99.3851E-03
            1236     12.3816E-03     107.934E-03    -11.8098E+06    -17.4822E+06     13.0754E+06    -23.3269E+06    -30.1813E-03     47.8768E-03    -17.6956E-03     111.187E-03    -30.3397E-03     47.8936E-03    -17.5877E-03     110.786E-03
            1237     13.2555E-03     108.034E-03    -9.85674E+06    -23.0795E+06     10.4242E+06    -24.5071E+06    -35.1821E-03     53.6429E-03    -18.4608E-03     123.420E-03    -35.4115E-03     53.7256E-03    -18.3609E-03     122.934E-03
            1238     14.1255E-03     108.147E-03    -6.07034E+06    -5.88246E+06     15.3274E+06    -23.9740E+06    -41.2369E-03     60.6600E-03    -19.4231E-03     138.766E-03    -41.6694E-03     61.0063E-03    -19.3292E-03     138.172E-03
            1239     14.9907E-03     108.278E-03    -6.10275E+06    -39.1157E+06    -1.87514E+06    -23.9034E+06    -48.2036E-03     68.7588E-03    -20.5552E-03     158.254E-03    -49.0040E-03     69.4049E-03    -20.4990E-03     157.488E-03
            1240     15.8516E-03     108.432E-03    -7.23224E+06     5.95519E+06    -3.02267E+06    -18.5010E+06    -55.6621E-03     77.5214E-03    -21.8593E-03     178.961E-03    -57.4804E-03     79.3452E-03    -21.8726E-03     178.134E-03
            1241     16.7060E-03     108.607E-03    -4.99699E+06     96.4179E+06     55.3126E+06    -9.28190E+06    -59.8221E-03     83.4194E-03    -23.5973E-03     130.366E-03    -61.5359E-03     85.2986E-03    -23.4533E-03     129.833E-03
            1242     886.599E-06     108.372E-03    -82.5247E+06    -44.9170E+06    -81.5796E+06    -3.98074E+06    -14.7387E-03     29.4987E-03    -14.7600E-03     5.23832E-03    -14.9680E-03     29.5121E-03    -14.9831E-03     5.18672E-03
            1243     1.77344E-03     108.379E-03    -80.3547E+06    -41.1187E+06    -78.4115E+06    -6.77753E+06    -14.7346E-03     29.4835E-03    -14.7489E-03     9.74343E-03    -14.9631E-03     29.5082E-03    -14.9648E-03     9.65557E-03
            1244     2.66008E-03     108.389E-03    -76.5038E+06    -35.9550E+06    -74.0242E+06    -9.19331E+06    -14.7225E-03     29.4637E-03    -14.7412E-03     14.6764E-03    -14.9456E-03     29.5023E-03    -14.9483E-03     14.5572E-03
            1245     3.54700E-03     108.404E-03    -70.1404E+06    -30.9075E+06    -67.5208E+06    -10.7746E+06    -14.7355E-03     29.4721E-03    -14.7366E-03     19.9834E-03    -14.9436E-03     29.5173E-03    -14.9277E-03     19.8437E-03
            1246     4.43388E-03     108.424E-03    -61.3840E+06    -27.9381E+06    -57.6538E+06    -11.8919E+06    -14.8370E-03     29.5890E-03    -14.7520E-03     25.7692E-03    -15.0200E-03     29.6221E-03    -14.9107E-03     25.6151E-03
            1247     5.32084E-03     108.449E-03    -51.3222E+06    -25.0584E+06    -46.9670E+06    -12.8900E+06    -15.0975E-03     29.8841E-03    -14.7866E-03     32.2290E-03    -15.2499E-03     29.9016E-03    -14.9107E-03     32.0620E-03
            1248     6.20739E-03     108.481E-03    -41.0900E+06    -21.2643E+06    -36.4217E+06    -13.5780E+06    -15.5488E-03     30.3977E-03    -14.8489E-03     39.4690E-03    -15.6711E-03     30.4042E-03    -14.9406E-03     39.2929E-03
            1249     7.09369E-03     108.518E-03    -31.4609E+06    -19.5821E+06    -23.1198E+06    -13.7353E+06    -16.2577E-03     31.2282E-03    -14.9705E-03     47.4788E-03    -16.3541E-03     31.2104E-03    -15.0121E-03     47.2998E-03
            1250     7.97917E-03     108.563E-03    -23.1304E+06    -17.2809E+06    -9.47501E+06    -13.9806E+06    -17.2166E-03     32.3628E-03    -15.1461E-03     56.2778E-03    -17.2958E-03     32.3260E-03    -15.1349E-03     56.0937E-03
            1251     8.86428E-03     108.616E-03    -16.9392E+06    -13.8864E+06     1.37755E+06    -14.0116E+06    -18.4624E-03     33.8291E-03    -15.3667E-03     65.8670E-03    -18.5343E-03     33.7876E-03    -15.3151E-03     65.6785E-03
            1252     9.74811E-03     108.677E-03    -14.3107E+06    -10.9843E+06     9.17091E+06    -14.5883E+06    -20.1621E-03     35.8092E-03    -15.6470E-03     76.4580E-03    -20.2427E-03     35.7734E-03    -15.5645E-03     76.2548E-03
            1253     10.6308E-03     108.749E-03    -13.2188E+06    -8.40155E+06     14.3303E+06    -17.2902E+06    -22.4856E-03     38.4914E-03    -16.0058E-03     88.3037E-03    -22.5848E-03     38.4724E-03    -15.9028E-03     88.0526E-03
            1254     11.5116E-03     108.831E-03    -11.9227E+06    -10.1533E+06     16.8979E+06    -19.8338E+06    -25.5529E-03     42.0229E-03    -16.4700E-03     100.798E-03    -25.6713E-03     42.0141E-03    -16.3535E-03     100.491E-03
            1255     12.3896E-03     108.925E-03    -10.9412E+06    -13.0816E+06     17.7479E+06    -21.5002E+06    -29.5518E-03     46.6198E-03    -17.0680E-03     113.630E-03    -29.7081E-03     46.6396E-03    -16.9445E-03     113.263E-03
            1256     13.2647E-03     109.031E-03    -10.0645E+06    -18.1975E+06     15.4009E+06    -25.5505E+06    -35.1187E-03     52.9579E-03    -17.8392E-03     127.717E-03    -35.3512E-03     53.0459E-03    -17.7212E-03     127.227E-03
            1257     14.1348E-03     109.151E-03    -7.96881E+06    -6.82893E+06     18.2235E+06    -26.1862E+06    -41.9344E-03     60.7725E-03    -18.8380E-03     144.092E-03    -42.3641E-03     61.0974E-03    -18.7255E-03     143.472E-03
            1258     14.9995E-03     109.290E-03    -4.53666E+06    -38.8786E+06     4.57556E+06    -23.2179E+06    -49.6799E-03     69.7310E-03    -20.0511E-03     163.543E-03    -50.4509E-03     70.3356E-03    -19.9653E-03     162.765E-03
            1259     15.8585E-03     109.449E-03    -1.89564E+06    -897.816E+03    -2.32111E+06    -19.5968E+06    -58.4242E-03     79.8658E-03    -21.4416E-03     185.370E-03    -60.2381E-03     81.6780E-03    -21.4491E-03     184.413E-03
            1260     16.7099E-03     109.639E-03     154.470E+03     83.1962E+06     51.3570E+06    -8.57353E+06    -63.9153E-03     87.2463E-03    -23.3310E-03     136.828E-03    -65.6671E-03     89.1468E-03    -23.1951E-03     136.139E-03
            1261     886.913E-06     109.349E-03    -59.5914E+06    -36.6399E+06    -58.9784E+06    -4.24480E+06    -14.7091E-03     29.4247E-03    -14.7156E-03     4.86058E-03    -14.8684E-03     29.4135E-03    -14.8710E-03     4.80539E-03
            1262     1.77359E-03     109.355E-03    -57.9829E+06    -33.3585E+06    -55.0985E+06    -7.98464E+06    -14.7580E-03     29.4875E-03    -14.7296E-03     9.03631E-03    -14.9197E-03     29.4848E-03    -14.8726E-03     8.93249E-03
            1263     2.66047E-03     109.366E-03    -55.5658E+06    -29.1676E+06    -49.2808E+06    -11.3522E+06    -14.8023E-03     29.5634E-03    -14.7611E-03     13.5859E-03    -14.9666E-03     29.5698E-03    -14.8847E-03     13.4382E-03
            1264     3.54713E-03     109.380E-03    -53.3663E+06    -25.4312E+06    -44.3003E+06    -14.1827E+06    -14.8174E-03     29.6012E-03    -14.7838E-03     18.4143E-03    -14.9835E-03     29.6160E-03    -14.8911E-03     18.2298E-03
            1265     4.43405E-03     109.400E-03    -51.3909E+06    -22.9228E+06    -40.9950E+06    -16.5944E+06    -14.8292E-03     29.6200E-03    -14.7909E-03     23.6591E-03    -14.9939E-03     29.6399E-03    -14.8881E-03     23.4432E-03
            1266     5.32089E-03     109.426E-03    -48.7539E+06    -20.4507E+06    -37.7186E+06    -18.9325E+06    -14.8985E-03     29.6910E-03    -14.7925E-03     29.5063E-03    -15.0586E-03     29.7148E-03    -14.8808E-03     29.2601E-03
            1267     6.20802E-03     109.457E-03    -44.5333E+06    -17.6914E+06    -32.9630E+06    -20.7954E+06    -15.1176E-03     29.9239E-03    -14.8063E-03     36.1937E-03    -15.2677E-03     29.9487E-03    -14.8809E-03     35.9233E-03
            1268     7.09480E-03     109.495E-03    -38.3968E+06    -17.5201E+06    -25.6235E+06    -21.4757E+06    -15.5975E-03     30.4557E-03    -14.8583E-03     43.9671E-03    -15.7281E-03     30.4622E-03    -14.9053E-03     43.6876E-03
            1269     7.98124E-03     109.541E-03    -30.7834E+06    -15.2347E+06    -15.9769E+06    -21.2706E+06    -16.4188E-03     31.3782E-03    -14.9594E-03     52.8623E-03    -16.5295E-03     31.3719E-03    -14.9726E-03     52.5844E-03
            1270     8.86660E-03     109.595E-03    -22.4126E+06    -13.8424E+06    -4.05620E+06    -19.8679E+06    -17.6561E-03     32.7890E-03    -15.1329E-03     62.8287E-03    -17.7463E-03     32.7623E-03    -15.1006E-03     62.5664E-03
            1271     9.75133E-03     109.658E-03    -14.1711E+06    -10.5321E+06     9.05472E+06    -16.8498E+06    -19.3716E-03     34.7587E-03    -15.3871E-03     73.9247E-03    -19.4492E-03     34.7224E-03    -15.3060E-03     73.6958E-03
            1272     10.6346E-03     109.731E-03    -10.0126E+06    -3.94254E+06     18.3896E+06    -15.7129E+06    -21.6594E-03     37.3764E-03    -15.7170E-03     86.3998E-03    -21.7493E-03     37.3636E-03    -15.6049E-03     86.1751E-03
            1273     11.5159E-03     109.817E-03    -10.9571E+06    -7.17122E+06     21.2886E+06    -16.4149E+06    -24.6210E-03     40.7685E-03    -16.1475E-03     99.7923E-03    -24.7354E-03     40.7569E-03    -16.0148E-03     99.5395E-03
            1274     12.3951E-03     109.915E-03    -12.2045E+06    -6.84327E+06     22.6375E+06    -19.5315E+06    -28.7625E-03     45.4712E-03    -16.7087E-03     114.163E-03    -28.9260E-03     45.5017E-03    -16.5679E-03     113.834E-03
            1275     13.2708E-03     110.026E-03    -12.1654E+06    -10.7434E+06     21.3118E+06    -23.9538E+06    -34.7574E-03     52.2205E-03    -17.4631E-03     130.275E-03    -34.9979E-03     52.3184E-03    -17.3233E-03     129.821E-03
            1276     14.1406E-03     110.155E-03    -13.2610E+06    -7.32221E+06     20.7009E+06    -25.5453E+06    -42.0795E-03     60.5421E-03    -18.4626E-03     147.806E-03    -42.5036E-03     60.8339E-03    -18.3292E-03     147.209E-03
            1277     15.0054E-03     110.300E-03    -12.4404E+06    -36.6322E+06     8.04028E+06    -27.7531E+06    -50.7801E-03     70.4931E-03    -19.7130E-03     169.320E-03    -51.5408E-03     71.0574E-03    -19.6017E-03     168.481E-03
            1278     15.8621E-03     110.472E-03    -9.08985E+06    -10.7762E+06    -5.54990E+06    -23.5616E+06    -60.6753E-03     81.8282E-03    -21.1529E-03     195.066E-03    -62.4821E-03     83.5821E-03    -21.1518E-03     193.974E-03
            1279     16.7119E-03     110.669E-03    -6.49170E+06     66.0273E+06     43.0988E+06    -9.62187E+06    -67.0635E-03     90.1931E-03    -23.1296E-03     148.948E-03    -68.8918E-03     92.1099E-03    -23.0005E-03     148.104E-03
            1280     886.477E-06     110.325E-03    -37.0362E+06    -27.8225E+06    -36.0008E+06    -4.50245E+06    -15.1616E-03     30.3120E-03    -15.1504E-03     4.31908E-03    -15.2543E-03     30.2788E-03    -15.2363E-03     4.26029E-03
            1281     1.77311E-03     110.332E-03    -35.9123E+06    -24.8777E+06    -32.1616E+06    -7.89357E+06    -15.2543E-03     30.4429E-03    -15.1886E-03     8.02115E-03    -15.3513E-03     30.4173E-03    -15.2612E-03     7.91800E-03
            1282     2.65940E-03     110.342E-03    -34.6084E+06    -21.8356E+06    -27.4219E+06    -10.8594E+06    -15.3647E-03     30.6109E-03    -15.2462E-03     12.0221E-03    -15.4667E-03     30.5919E-03    -15.3014E-03     11.8800E-03
            1283     3.54584E-03     110.358E-03    -32.8015E+06    -18.7447E+06    -22.4117E+06    -13.3223E+06    -15.4837E-03     30.7919E-03    -15.3083E-03     16.2515E-03    -15.5886E-03     30.7788E-03    -15.3456E-03     16.0770E-03
            1284     4.43200E-03     110.377E-03    -30.6302E+06    -16.5077E+06    -17.4119E+06    -15.8831E+06    -15.5812E-03     30.9501E-03    -15.3689E-03     20.8180E-03    -15.6861E-03     30.9380E-03    -15.3876E-03     20.6097E-03
            1285     5.31835E-03     110.403E-03    -28.7752E+06    -14.2963E+06    -12.3646E+06    -18.3859E+06    -15.6396E-03     31.0613E-03    -15.4217E-03     25.8705E-03    -15.7461E-03     31.0506E-03    -15.4210E-03     25.6293E-03
            1286     6.20450E-03     110.434E-03    -28.2324E+06    -12.7132E+06    -8.62737E+06    -20.4240E+06    -15.6899E-03     31.1498E-03    -15.4599E-03     31.6490E-03    -15.8018E-03     31.1412E-03    -15.4436E-03     31.3811E-03
            1287     7.09097E-03     110.472E-03    -28.5375E+06    -13.1492E+06    -7.81722E+06    -22.4626E+06    -15.7959E-03     31.2757E-03    -15.4799E-03     38.4563E-03    -15.9102E-03     31.2647E-03    -15.4585E-03     38.1618E-03
            1288     7.97744E-03     110.518E-03    -27.9132E+06    -12.2171E+06    -7.07347E+06    -24.1194E+06    -16.1419E-03     31.6435E-03    -15.5016E-03     46.6600E-03    -16.2561E-03     31.6356E-03    -15.4787E-03     46.3439E-03
            1289     8.86380E-03     110.573E-03    -25.3954E+06    -12.8990E+06    -2.58064E+06    -24.4414E+06    -16.9825E-03     32.5566E-03    -15.5741E-03     56.4273E-03    -17.0907E-03     32.5364E-03    -15.5315E-03     56.1061E-03
            1290     9.74885E-03     110.637E-03    -19.9582E+06    -12.0895E+06     5.15135E+06    -23.2093E+06    -18.4513E-03     34.1728E-03    -15.7216E-03     67.9080E-03    -18.5474E-03     34.1403E-03    -15.6493E-03     67.5996E-03
            1291     10.6327E-03     110.714E-03    -12.4045E+06    -6.48796E+06     15.7142E+06    -17.9603E+06    -20.5036E-03     36.4652E-03    -15.9617E-03     81.0365E-03    -20.5918E-03     36.4409E-03    -15.8557E-03     80.7891E-03
            1292     11.5151E-03     110.801E-03    -6.77792E+06    -5.86331E+06     25.3991E+06    -13.7805E+06    -23.4494E-03     39.7700E-03    -16.3206E-03     95.4355E-03    -23.5391E-03     39.7413E-03    -16.1753E-03     95.2275E-03
            1293     12.3951E-03     110.903E-03    -6.98077E+06    -411.060E+03     30.4291E+06    -13.8404E+06    -27.8167E-03     44.6338E-03    -16.8171E-03     111.480E-03    -27.9552E-03     44.6581E-03    -16.6542E-03     111.241E-03
            1294     13.2708E-03     111.020E-03    -11.5793E+06    -2.37709E+06     30.1005E+06    -17.9926E+06    -33.7661E-03     51.2824E-03    -17.5162E-03     129.771E-03    -33.9952E-03     51.3750E-03    -17.3455E-03     129.418E-03
            1295     14.1424E-03     111.156E-03    -13.2584E+06    -3.64243E+06     27.7620E+06    -22.5597E+06    -41.0706E-03     59.5176E-03    -18.4470E-03     149.534E-03    -41.4518E-03     59.7590E-03    -18.2837E-03     149.009E-03
            1296     15.0074E-03     111.310E-03    -13.3418E+06    -26.9461E+06     18.8281E+06    -28.6114E+06    -49.6385E-03     69.2678E-03    -19.6293E-03     174.194E-03    -50.3286E-03     69.7612E-03    -19.4768E-03     173.388E-03
            1297     15.8671E-03     111.491E-03    -9.17404E+06    -23.8463E+06     4.99353E+06    -28.4874E+06    -59.6657E-03     80.6645E-03    -20.9988E-03     205.674E-03    -61.3107E-03     82.1791E-03    -20.9260E-03     204.539E-03
            1298     16.7183E-03     111.704E-03    -654.572E+03     43.0066E+06     47.2699E+06    -10.8793E+06    -69.9760E-03     92.9099E-03    -22.9339E-03     167.246E-03    -71.7693E-03     94.7203E-03    -22.7589E-03     166.263E-03
            1299     885.752E-06     111.303E-03    -16.1367E+06    -19.2515E+06    -14.8143E+06    -4.07894E+06    -16.2901E-03     32.5547E-03    -16.2646E-03     3.59111E-03    -16.3216E-03     32.5033E-03    -16.2873E-03     3.53743E-03
            1300     1.77120E-03     111.310E-03    -15.5347E+06    -17.2446E+06    -12.0479E+06    -6.91812E+06    -16.4164E-03     32.7353E-03    -16.3189E-03     6.64491E-03    -16.4519E-03     32.6891E-03    -16.3316E-03     6.55366E-03
            1301     2.65677E-03     111.321E-03    -14.4658E+06    -14.9302E+06    -8.07901E+06    -9.64899E+06    -16.6072E-03     33.0081E-03    -16.4008E-03     9.91721E-03    -16.6467E-03     32.9664E-03    -16.3986E-03     9.78964E-03
            1302     3.54194E-03     111.336E-03    -13.1176E+06    -12.6224E+06    -3.10426E+06    -12.0907E+06    -16.8427E-03     33.3487E-03    -16.5060E-03     13.3591E-03    -16.8863E-03     33.3097E-03    -16.4842E-03     13.1988E-03
            1303     4.42708E-03     111.356E-03    -12.0461E+06    -10.5434E+06     2.04063E+06    -14.0483E+06    -17.0739E-03     33.6977E-03    -16.6238E-03     17.0473E-03    -17.1230E-03     33.6605E-03    -16.5809E-03     16.8606E-03
            1304     5.31184E-03     111.381E-03    -11.7559E+06    -9.07705E+06     5.76236E+06    -15.5289E+06    -17.2480E-03     33.9843E-03    -16.7363E-03     21.1584E-03    -17.3038E-03     33.9491E-03    -16.6773E-03     20.9513E-03
            1305     6.19674E-03     111.413E-03    -11.5039E+06    -7.81250E+06     9.07030E+06    -16.7797E+06    -17.3324E-03     34.1675E-03    -16.8351E-03     25.8682E-03    -17.3942E-03     34.1341E-03    -16.7617E-03     25.6440E-03
            1306     7.08150E-03     111.451E-03    -11.2347E+06    -7.66430E+06     12.4870E+06    -18.5018E+06    -17.3365E-03     34.2523E-03    -16.9158E-03     31.3849E-03    -17.4028E-03     34.2149E-03    -16.8260E-03     31.1377E-03
            1307     7.96650E-03     111.497E-03    -12.4055E+06    -7.98600E+06     13.8738E+06    -20.0406E+06    -17.2990E-03     34.2650E-03    -16.9660E-03     38.1200E-03    -17.3734E-03     34.2264E-03    -16.8671E-03     37.8527E-03
            1308     8.85166E-03     111.551E-03    -14.7581E+06    -9.45664E+06     12.8949E+06    -21.4089E+06    -17.4400E-03     34.4333E-03    -16.9933E-03     46.5369E-03    -17.5233E-03     34.3930E-03    -16.8937E-03     46.2518E-03
            1309     9.73713E-03     111.617E-03    -17.2904E+06    -10.0522E+06     12.2887E+06    -22.7861E+06    -18.0234E-03     35.0548E-03    -17.0313E-03     57.1089E-03    -18.1188E-03     35.0173E-03    -16.9302E-03     56.8055E-03
            1310     10.6218E-03     111.694E-03    -16.1414E+06    -10.6538E+06     15.6054E+06    -22.2346E+06    -19.3554E-03     36.4843E-03    -17.1289E-03     69.9700E-03    -19.4518E-03     36.4403E-03    -17.0120E-03     69.6712E-03
            1311     11.5053E-03     111.784E-03    -9.26443E+06    -8.41961E+06     25.2853E+06    -18.1862E+06    -21.9029E-03     39.2435E-03    -17.3406E-03     85.3078E-03    -21.9900E-03     39.1946E-03    -17.1885E-03     85.0531E-03
            1312     12.3855E-03     111.889E-03    -1.64822E+06    -2.96204E+06     36.4783E+06    -11.5216E+06    -25.9998E-03     43.7084E-03    -17.7086E-03     103.328E-03    -26.0934E-03     43.6802E-03    -17.5196E-03     103.139E-03
            1313     13.2632E-03     112.012E-03    -139.684E+03     4.97316E+06     43.6121E+06    -8.21700E+06    -31.6903E-03     49.9607E-03    -18.2704E-03     123.765E-03    -31.8483E-03     50.0099E-03    -18.0593E-03     123.571E-03
            1314     14.1356E-03     112.154E-03    -5.91162E+06     6.03077E+06     41.2860E+06    -14.5610E+06    -38.3984E-03     57.4372E-03    -19.0388E-03     145.462E-03    -38.6952E-03     57.6154E-03    -18.8326E-03     145.096E-03
            1315     15.0042E-03     112.316E-03    -9.28312E+06    -11.4845E+06     34.6858E+06    -25.5466E+06    -45.7111E-03     65.7337E-03    -20.0226E-03     172.089E-03    -46.2676E-03     66.1166E-03    -19.8190E-03     171.413E-03
            1316     15.8676E-03     112.506E-03    -11.8122E+06    -29.2817E+06     16.0335E+06    -29.8581E+06    -55.8140E-03     76.9840E-03    -21.1699E-03     207.815E-03    -57.1529E-03     78.1317E-03    -21.0302E-03     206.761E-03
            1317     16.7262E-03     112.731E-03    -14.4166E+06     14.8513E+06     35.6227E+06    -18.3900E+06    -69.6007E-03     92.4798E-03    -22.8790E-03     184.077E-03    -71.3247E-03     94.1067E-03    -22.7015E-03     182.923E-03
            1318     883.919E-06     112.284E-03     2.50716E+06    -11.9142E+06     3.28863E+06    -3.15174E+06    -18.3031E-03     36.5636E-03    -18.2605E-03     2.65132E-03    -18.2784E-03     36.4954E-03    -18.2304E-03     2.60916E-03
            1319     1.76795E-03     112.291E-03     2.59315E+06    -10.5825E+06     5.20211E+06    -5.75261E+06    -18.4779E-03     36.8126E-03    -18.3346E-03     4.90127E-03    -18.4576E-03     36.7483E-03    -18.2970E-03     4.82419E-03
            1320     2.65153E-03     112.302E-03     2.96172E+06    -8.93683E+06     9.03836E+06    -8.07638E+06    -18.7557E-03     37.2079E-03    -18.4522E-03     7.26707E-03    -18.7417E-03     37.1459E-03    -18.3983E-03     7.15848E-03
            1321     3.53498E-03     112.318E-03     3.16200E+06    -7.29189E+06     13.2550E+06    -9.83552E+06    -19.0843E-03     37.6861E-03    -18.6018E-03     9.74536E-03    -19.0781E-03     37.6263E-03    -18.5296E-03     9.61238E-03
            1322     4.41794E-03     112.338E-03     3.21994E+06    -6.13652E+06     16.8610E+06    -11.0450E+06    -19.4382E-03     38.2078E-03    -18.7697E-03     12.4235E-03    -19.4391E-03     38.1489E-03    -18.6811E-03     12.2731E-03
            1323     5.30076E-03     112.364E-03     3.46549E+06    -4.89294E+06     20.4554E+06    -12.0701E+06    -19.7730E-03     38.7213E-03    -18.9483E-03     15.4051E-03    -19.7803E-03     38.6635E-03    -18.8439E-03     15.2396E-03
            1324     6.18308E-03     112.395E-03     3.39493E+06    -4.13997E+06     23.9115E+06    -12.9898E+06    -20.0254E-03     39.1526E-03    -19.1272E-03     18.8482E-03    -20.0400E-03     39.0944E-03    -19.0066E-03     18.6690E-03
            1325     7.06539E-03     112.433E-03     2.12596E+06    -3.74381E+06     26.6073E+06    -13.4391E+06    -20.1719E-03     39.4651E-03    -19.2932E-03     22.9390E-03    -20.1982E-03     39.4076E-03    -19.1579E-03     22.7523E-03
            1326     7.94750E-03     112.478E-03     404.995E+03    -4.40932E+06     28.1338E+06    -14.0430E+06    -20.1670E-03     39.6011E-03    -19.4341E-03     27.9048E-03    -20.2042E-03     39.5415E-03    -19.2876E-03     27.7091E-03
            1327     8.82994E-03     112.533E-03    -1.04734E+06    -5.29937E+06     29.1315E+06    -15.1621E+06    -19.9668E-03     39.5056E-03    -19.5388E-03     34.2264E-03    -20.0124E-03     39.4431E-03    -19.3840E-03     34.0157E-03
            1328     9.71254E-03     112.597E-03    -2.52469E+06    -6.29110E+06     29.8669E+06    -16.3550E+06    -19.7776E-03     39.3843E-03    -19.6067E-03     42.2583E-03    -19.8312E-03     39.3188E-03    -19.4446E-03     42.0322E-03
            1329     10.5961E-03     112.674E-03    -5.45435E+06    -7.88947E+06     29.8747E+06    -18.2476E+06    -20.0235E-03     39.6833E-03    -19.6598E-03     52.6521E-03    -20.0908E-03     39.6155E-03    -19.4911E-03     52.4014E-03
            1330     11.4789E-03     112.765E-03    -7.40468E+06    -9.62866E+06     31.4184E+06    -19.7577E+06    -21.0204E-03     40.7635E-03    -19.7431E-03     66.3751E-03    -21.0996E-03     40.6904E-03    -19.5613E-03     66.1033E-03
            1331     12.3616E-03     112.873E-03    -3.33699E+06    -11.6314E+06     36.8943E+06    -16.1401E+06    -23.5353E-03     43.4514E-03    -19.9161E-03     84.4635E-03    -23.6068E-03     43.3628E-03    -19.7100E-03     84.2310E-03
            1332     13.2403E-03     113.001E-03     5.82340E+06     747.115E+03     50.2266E+06    -8.32896E+06    -27.9431E-03     48.1922E-03    -20.2491E-03     106.231E-03    -28.0298E-03     48.1573E-03    -20.0075E-03     106.076E-03
            1333     14.1156E-03     113.149E-03     10.7435E+06     16.0964E+06     60.9669E+06    -4.07255E+06    -33.4054E-03     54.1645E-03    -20.7591E-03     129.376E-03    -33.5692E-03     54.2478E-03    -20.4932E-03     129.217E-03
            1334     14.9866E-03     113.316E-03     2.74560E+06     5.98013E+06     53.2361E+06    -10.2996E+06    -40.3894E-03     61.8249E-03    -21.4354E-03     156.525E-03    -40.7464E-03     62.0592E-03    -21.1819E-03     156.159E-03
            1335     15.8559E-03     113.511E-03    -8.89828E+06    -20.5308E+06     32.0613E+06    -20.3887E+06    -49.4822E-03     71.7720E-03    -22.2898E-03     195.129E-03    -50.3552E-03     72.4491E-03    -22.0868E-03     194.385E-03
            1336     16.7119E-03     113.754E-03    -10.1281E+06    -1.43199E+06     26.5327E+06    -21.1809E+06    -59.2463E-03     82.6901E-03    -23.4437E-03     194.955E-03    -60.5784E-03     83.9083E-03    -23.2943E-03     193.963E-03
            1337     881.435E-06     113.270E-03     16.9331E+06    -6.21879E+06     17.8239E+06    -2.16328E+06    -21.4492E-03     42.7628E-03    -21.3137E-03     1.63196E-03    -21.3819E-03     42.6808E-03    -21.2401E-03     1.60219E-03
            1338     1.76252E-03     113.277E-03     16.7537E+06    -5.15965E+06     19.5799E+06    -4.23436E+06    -21.6731E-03     43.1336E-03    -21.4605E-03     2.77490E-03    -21.6110E-03     43.0546E-03    -21.3794E-03     2.71669E-03
            1339     2.64349E-03     113.289E-03     16.4021E+06    -4.34704E+06     22.2900E+06    -5.76467E+06    -21.9795E-03     43.5939E-03    -21.6144E-03     4.06225E-03    -21.9244E-03     43.5157E-03    -21.5205E-03     3.98243E-03
            1340     3.52393E-03     113.305E-03     16.0556E+06    -3.50771E+06     25.2752E+06    -6.74392E+06    -22.3847E-03     44.1833E-03    -21.7986E-03     5.45658E-03    -22.3371E-03     44.1057E-03    -21.6904E-03     5.36206E-03
            1341     4.40411E-03     113.326E-03     15.7138E+06    -2.68686E+06     28.6892E+06    -7.68128E+06    -22.8609E-03     44.8777E-03    -22.0169E-03     6.98287E-03    -22.8215E-03     44.8001E-03    -21.8923E-03     6.87402E-03
            1342     5.28360E-03     113.352E-03     15.1482E+06    -2.12856E+06     32.1379E+06    -8.25514E+06    -23.3695E-03     45.6331E-03    -22.2636E-03     8.71871E-03    -23.3393E-03     45.5545E-03    -22.1218E-03     8.60004E-03
            1343     6.16275E-03     113.384E-03     13.9930E+06    -1.72313E+06     34.8862E+06    -8.26139E+06    -23.8893E-03     46.4189E-03    -22.5296E-03     10.7495E-03    -23.8700E-03     46.3404E-03    -22.3730E-03     10.6282E-03
            1344     7.04125E-03     113.422E-03     12.9424E+06    -1.80512E+06     37.3183E+06    -8.11476E+06    -24.3447E-03     47.1529E-03    -22.8082E-03     13.1625E-03    -24.3349E-03     47.0726E-03    -22.6377E-03     13.0405E-03
            1345     7.91942E-03     113.468E-03     12.2501E+06    -1.49218E+06     40.5718E+06    -8.56198E+06    -24.6701E-03     47.7615E-03    -23.0914E-03     16.1338E-03    -24.6700E-03     47.6798E-03    -22.9041E-03     16.0035E-03
            1346     8.79707E-03     113.521E-03     10.9486E+06    -2.57195E+06     42.7848E+06    -9.18587E+06    -24.8134E-03     48.1752E-03    -23.3618E-03     19.8472E-03    -24.8226E-03     48.0875E-03    -23.1601E-03     19.7063E-03
            1347     9.67511E-03     113.585E-03     8.97558E+06    -3.10090E+06     43.9442E+06    -10.0042E+06    -24.6909E-03     48.2950E-03    -23.6041E-03     24.6376E-03    -24.7123E-03     48.2068E-03    -23.3929E-03     24.4844E-03
            1348     10.5525E-03     113.660E-03     7.41704E+06    -4.27074E+06     45.6520E+06    -10.7357E+06    -24.3035E-03     48.1172E-03    -23.8137E-03     31.1154E-03    -24.3349E-03     48.0240E-03    -23.5900E-03     30.9519E-03
            1349     11.4313E-03     113.750E-03     5.26360E+06    -5.11979E+06     46.6737E+06    -12.8102E+06    -24.0304E-03     48.0188E-03    -23.9884E-03     40.0241E-03    -24.0746E-03     47.9243E-03    -23.7552E-03     39.8334E-03
            1350     12.3098E-03     113.856E-03     2.40387E+06    -12.3911E+06     44.8450E+06    -15.5657E+06    -24.2237E-03     48.3749E-03    -24.1512E-03     52.7520E-03    -24.2713E-03     48.2530E-03    -23.9125E-03     52.5251E-03
            1351     13.1897E-03     113.986E-03     5.31327E+06    -7.93690E+06     51.5747E+06    -14.7649E+06    -24.4861E-03     48.8135E-03    -24.3274E-03     70.0923E-03    -24.5400E-03     48.7063E-03    -24.0657E-03     69.8734E-03
            1352     14.0678E-03     114.137E-03     15.8777E+06     8.18005E+06     65.9924E+06    -6.34644E+06    -26.6168E-03     51.1553E-03    -24.5386E-03     92.0637E-03    -26.6819E-03     51.1142E-03    -24.2435E-03     91.9351E-03
            1353     14.9443E-03     114.308E-03     23.6746E+06     13.4759E+06     73.0120E+06     3.97045E+06    -32.6185E-03     57.4943E-03    -24.8757E-03     120.178E-03    -32.7374E-03     57.5349E-03    -24.5645E-03     120.115E-03
            1354     15.8091E-03     114.512E-03     22.8821E+06     1.36673E+06     64.4416E+06    -2.28196E+06    -38.9117E-03     64.2647E-03    -25.3530E-03     157.188E-03    -39.2397E-03     64.4926E-03    -25.0659E-03     156.912E-03
            1355     16.6860E-03     114.749E-03     13.7335E+06    -4.89104E+06     33.1602E+06    -11.2558E+06    -32.6114E-03     58.1646E-03    -25.5533E-03     168.775E-03    -33.1635E-03     58.6600E-03    -25.4003E-03     168.332E-03
            1356     877.607E-06     114.263E-03     26.4895E+06    -2.30325E+06     27.1351E+06    -1.43653E+06    -25.8174E-03     51.7058E-03    -25.8883E-03     84.1999E-06    -25.7221E-03     51.6154E-03    -25.7877E-03     63.9780E-06
            1357     1.75487E-03     114.271E-03     26.0160E+06    -1.67340E+06     28.7896E+06    -2.29013E+06    -26.0857E-03     52.0156E-03    -25.9299E-03     194.085E-06    -25.9961E-03     51.9267E-03    -25.8212E-03     161.442E-06
            1358     2.63180E-03     114.283E-03     25.3411E+06    -1.48807E+06     30.6039E+06    -2.93478E+06    -26.4358E-03     52.5166E-03    -26.0808E-03     356.814E-06    -26.3525E-03     52.4270E-03    -25.9624E-03     314.262E-06
            1359     3.50848E-03     114.300E-03     24.5146E+06    -1.12586E+06     33.2514E+06    -3.47952E+06    -26.9220E-03     53.2119E-03    -26.2899E-03     556.595E-06    -26.8474E-03     53.1216E-03    -26.1576E-03     505.281E-06
            1360     4.38440E-03     114.321E-03     23.5895E+06    -685.253E+03     36.6119E+06    -3.69173E+06    -27.5499E-03     54.1079E-03    -26.5579E-03     790.370E-06    -27.4856E-03     54.0162E-03    -26.4081E-03     734.430E-06
            1361     5.25984E-03     114.348E-03     22.4485E+06    -578.942E+03     39.6620E+06    -3.73000E+06    -28.3277E-03     55.2106E-03    -26.8829E-03     1.05485E-03    -28.2739E-03     55.1167E-03    -26.7163E-03     996.302E-06
            1362     6.13427E-03     114.380E-03     21.6595E+06    -765.923E+03     42.8744E+06    -3.51349E+06    -29.2120E-03     56.4780E-03    -27.2660E-03     1.36474E-03    -29.1669E-03     56.3797E-03    -27.0819E-03     1.30658E-03
            1363     7.00776E-03     114.420E-03     21.2871E+06    -370.355E+03     47.0751E+06    -3.63075E+06    -30.1318E-03     57.8360E-03    -27.7042E-03     1.76954E-03    -30.0957E-03     57.7342E-03    -27.4991E-03     1.70716E-03
            1364     7.88023E-03     114.465E-03     20.5455E+06    -326.574E+03     50.7144E+06    -3.38699E+06    -31.0866E-03     59.2736E-03    -28.1870E-03     2.31785E-03    -31.0601E-03     59.1678E-03    -27.9627E-03     2.25562E-03
            1365     8.75184E-03     114.520E-03     19.5181E+06    -447.716E+03     53.6552E+06    -3.40488E+06    -31.9973E-03     60.7066E-03    -28.7093E-03     3.00030E-03    -31.9809E-03     60.5974E-03    -28.4687E-03     2.93445E-03
            1366     9.62157E-03     114.583E-03     18.6970E+06    -1.31073E+06     56.3680E+06    -3.50575E+06    -32.5983E-03     61.8567E-03    -29.2584E-03     4.03610E-03    -32.5897E-03     61.7404E-03    -29.0018E-03     3.96546E-03
            1367     10.4915E-03     114.657E-03     17.6641E+06    -1.25618E+06     58.4797E+06    -4.46450E+06    -32.8491E-03     62.6611E-03    -29.8120E-03     5.66586E-03    -32.8503E-03     62.5433E-03    -29.5433E-03     5.57961E-03
            1368     11.3602E-03     114.745E-03     15.4994E+06    -3.03899E+06     59.0961E+06    -4.71411E+06    -32.7467E-03     63.1079E-03    -30.3612E-03     8.32736E-03    -32.7587E-03     62.9834E-03    -30.0838E-03     8.23488E-03
            1369     12.2283E-03     114.850E-03     12.9577E+06    -3.96996E+06     59.9382E+06    -7.62271E+06    -31.2396E-03     62.1055E-03    -30.8659E-03     13.1298E-03    -31.2657E-03     61.9797E-03    -30.5792E-03     12.9988E-03
            1370     13.0961E-03     114.973E-03     8.86845E+06    -8.47088E+06     59.0616E+06    -10.6170E+06    -28.0372E-03     59.2796E-03    -31.2424E-03     20.7114E-03    -28.0777E-03     59.1382E-03    -30.9476E-03     20.5452E-03
            1371     13.9718E-03     115.117E-03     4.35368E+06    -1.39359E+06     58.1890E+06    -11.0300E+06    -25.3442E-03     56.8128E-03    -31.4686E-03     33.5971E-03    -25.4186E-03     56.7168E-03    -31.1819E-03     33.4285E-03
            1372     14.8445E-03     115.294E-03     7.99576E+06     1.26425E+06     64.2465E+06    -3.85046E+06    -26.5604E-03     58.3058E-03    -31.7453E-03     52.2409E-03    -26.6443E-03     58.2220E-03    -31.4375E-03     52.1496E-03
            1373     15.7226E-03     115.496E-03     12.5934E+06     10.1255E+06     71.7268E+06     558.329E+03    -21.1471E-03     53.0602E-03    -31.9131E-03     75.1311E-03    -21.2836E-03     53.0711E-03    -31.5874E-03     75.0580E-03
            1374     16.5854E-03     115.731E-03     2.38638E+06     7.13905E+06     39.8324E+06    -1.44778E+06    -915.716E-06     32.1088E-03    -31.1931E-03     76.6228E-03    -1.06028E-03     32.1717E-03    -31.0078E-03     76.5603E-03
            1375     16.6509E-03     57.4910E-03    -5.07132E+06     135.089E+06     82.7021E+06     434.907E+03    -28.3869E-03     55.1040E-03    -26.7171E-03     107.009E-03    -29.8460E-03     56.7849E-03    -26.4921E-03     107.383E-03
            1376     15.7761E-03     57.3372E-03    -8.95029E+06     120.469E+06     38.9159E+06     427.988E+03    -29.9978E-03     56.5432E-03    -26.5454E-03     142.082E-03    -31.6648E-03     58.4932E-03    -26.5125E-03     142.189E-03
            1377     14.8999E-03     57.2174E-03    -9.54937E+06     78.4581E+06    -2.38024E+06    -110.906E+03    -28.6945E-03     55.1131E-03    -26.4186E-03     110.902E-03    -29.4829E-03     56.1530E-03    -26.5304E-03     110.720E-03
            1378     14.0227E-03     57.1254E-03    -8.91697E+06     21.8493E+06    -7.89696E+06     153.394E+03    -27.8457E-03     54.3410E-03    -26.4953E-03     88.3927E-03    -28.2042E-03     54.7683E-03    -26.5535E-03     88.2066E-03
            1379     13.1458E-03     57.0496E-03    -9.38525E+06    -24.4024E+06    -5.74886E+06     658.690E+03    -27.5061E-03     54.1057E-03    -26.5997E-03     74.6954E-03    -27.6768E-03     54.1732E-03    -26.5794E-03     74.5423E-03
            1380     12.2694E-03     56.9825E-03    -10.1897E+06    -43.6325E+06    -1.16735E+06     449.496E+03    -27.4732E-03     54.1464E-03    -26.6732E-03     68.1471E-03    -27.5683E-03     54.0538E-03    -26.6010E-03     68.0182E-03
            1381     11.3927E-03     56.9206E-03    -10.9361E+06    -58.4009E+06     247.612E+03     530.843E+03    -27.3780E-03     54.0994E-03    -26.7214E-03     63.1524E-03    -27.4228E-03     53.8974E-03    -26.6196E-03     63.0486E-03
            1382     10.5160E-03     56.8623E-03    -11.9962E+06    -70.1293E+06     1.07415E+06     505.631E+03    -27.3722E-03     54.1320E-03    -26.7598E-03     58.3325E-03    -27.3839E-03     53.8491E-03    -26.6354E-03     58.2482E-03
            1383     9.63989E-03     56.8095E-03    -13.3574E+06    -78.5416E+06     1.96076E+06     437.813E+03    -27.2776E-03     54.0686E-03    -26.7909E-03     53.7262E-03    -27.2696E-03     53.7286E-03    -26.6479E-03     53.6584E-03
            1384     8.76302E-03     56.7605E-03    -14.9002E+06    -86.3275E+06     1.79269E+06     453.603E+03    -27.2205E-03     54.0357E-03    -26.8152E-03     49.3485E-03    -27.1978E-03     53.6484E-03    -26.6594E-03     49.2953E-03
            1385     7.88697E-03     56.7156E-03    -16.8784E+06    -93.2464E+06     1.20926E+06     609.527E+03    -27.1733E-03     54.0067E-03    -26.8333E-03     44.6674E-03    -27.1419E-03     53.5807E-03    -26.6676E-03     44.6281E-03
            1386     7.01044E-03     56.6756E-03    -18.9696E+06    -98.1148E+06    -1.69199E+06     437.910E+03    -27.0521E-03     53.8892E-03    -26.8371E-03     39.9652E-03    -27.0142E-03     53.4405E-03    -26.6758E-03     39.9338E-03
            1387     6.13409E-03     56.6397E-03    -20.9035E+06    -102.274E+06    -5.82719E+06     339.927E+03    -26.9773E-03     53.8136E-03    -26.8363E-03     35.1617E-03    -26.9330E-03     53.3489E-03    -26.6868E-03     35.1372E-03
            1388     5.25776E-03     56.6087E-03    -22.9379E+06    -107.247E+06    -10.5965E+06     386.799E+03    -26.9297E-03     53.7632E-03    -26.8336E-03     30.2569E-03    -26.8787E-03     53.2808E-03    -26.6978E-03     30.2397E-03
            1389     4.38137E-03     56.5823E-03    -25.0225E+06    -111.688E+06    -15.6530E+06     174.503E+03    -26.8937E-03     53.7206E-03    -26.8269E-03     25.2909E-03    -26.8374E-03     53.2243E-03    -26.7069E-03     25.2763E-03
            1390     3.50513E-03     56.5606E-03    -26.8848E+06    -115.267E+06    -20.2293E+06     146.650E+03    -26.8594E-03     53.6784E-03    -26.8190E-03     20.2734E-03    -26.7993E-03     53.1723E-03    -26.7140E-03     20.2629E-03
            1391     2.62875E-03     56.5438E-03    -28.2802E+06    -117.943E+06    -24.2682E+06     201.534E+03    -26.8333E-03     53.6432E-03    -26.8099E-03     15.2762E-03    -26.7695E-03     53.1307E-03    -26.7192E-03     15.2701E-03
            1392     1.75261E-03     56.5315E-03    -29.5566E+06    -120.219E+06    -27.5701E+06     154.002E+03    -26.8165E-03     53.6174E-03    -26.8009E-03     10.3193E-03    -26.7504E-03     53.0996E-03    -26.7215E-03     10.3157E-03
            1393     876.187E-06     56.5242E-03    -30.2772E+06    -120.548E+06    -29.7111E+06     42.1544E+03    -26.7938E-03     53.5896E-03    -26.7957E-03     5.58630E-03    -26.7275E-03     53.0740E-03    -26.7256E-03     5.58387E-03
            1394     16.6536E-03     56.4891E-03    -4.56716E+06     134.947E+06     83.9967E+06     837.627E+03    -28.5720E-03     55.2456E-03    -26.6736E-03     105.023E-03    -29.9960E-03     56.8888E-03    -26.4426E-03     105.395E-03
            1395     15.7775E-03     56.3369E-03    -7.16246E+06     121.833E+06     41.4996E+06    -318.105E+03    -29.5557E-03     56.0602E-03    -26.5045E-03     141.075E-03    -31.1951E-03     57.9863E-03    -26.4633E-03     141.182E-03
            1396     14.8994E-03     56.2191E-03    -8.04699E+06     77.4403E+06    -2.41027E+06    -806.047E+03    -28.2798E-03     54.6697E-03    -26.3899E-03     111.325E-03    -29.0620E-03     55.7052E-03    -26.5026E-03     111.139E-03
            1397     14.0227E-03     56.1248E-03    -9.03669E+06     20.3072E+06    -8.84236E+06     556.181E+03    -27.7591E-03     54.2391E-03    -26.4800E-03     88.5112E-03    -28.1150E-03     54.6607E-03    -26.5405E-03     88.3313E-03
            1398     13.1464E-03     56.0509E-03    -9.45944E+06    -23.6470E+06    -5.44231E+06     1.06560E+06    -27.4495E-03     54.0412E-03    -26.5917E-03     75.0571E-03    -27.6232E-03     54.1132E-03    -26.5709E-03     74.9093E-03
            1399     12.2690E-03     55.9826E-03    -10.0258E+06    -43.8368E+06    -1.14783E+06     692.195E+03    -27.4208E-03     54.0898E-03    -26.6690E-03     68.4543E-03    -27.5147E-03     53.9958E-03    -26.5966E-03     68.3291E-03
            1400     11.3927E-03     55.9209E-03    -11.0183E+06    -58.3719E+06     236.017E+03     449.755E+03    -27.4450E-03     54.1616E-03    -26.7165E-03     63.2131E-03    -27.4908E-03     53.9603E-03    -26.6147E-03     63.1075E-03
            1401     10.5164E-03     55.8625E-03    -11.8121E+06    -70.1549E+06     1.13627E+06     454.666E+03    -27.2861E-03     54.0420E-03    -26.7559E-03     58.5230E-03    -27.2968E-03     53.7585E-03    -26.6314E-03     58.4386E-03
            1402     9.63939E-03     55.8099E-03    -12.9473E+06    -78.5711E+06     2.49329E+06     669.814E+03    -27.3047E-03     54.0964E-03    -26.7917E-03     53.8381E-03    -27.2954E-03     53.7550E-03    -26.6466E-03     53.7731E-03
            1403     8.76349E-03     55.7604E-03    -14.8271E+06    -86.4058E+06     1.98776E+06     705.084E+03    -27.2691E-03     54.0802E-03    -26.8111E-03     49.3444E-03    -27.2463E-03     53.6922E-03    -26.6544E-03     49.2941E-03
            1404     7.88681E-03     55.7159E-03    -16.6528E+06    -93.3517E+06     1.22407E+06     452.565E+03    -27.1171E-03     53.9455E-03    -26.8284E-03     44.6981E-03    -27.0842E-03     53.5186E-03    -26.6628E-03     44.6570E-03
            1405     7.01050E-03     55.6756E-03    -18.4608E+06    -97.8131E+06    -1.44238E+06     385.301E+03    -27.0476E-03     53.8832E-03    -26.8357E-03     39.9830E-03    -27.0079E-03     53.4349E-03    -26.6743E-03     39.9509E-03
            1406     6.13413E-03     55.6399E-03    -20.7433E+06    -102.382E+06    -6.02371E+06     299.814E+03    -26.9872E-03     53.8205E-03    -26.8333E-03     35.1829E-03    -26.9417E-03     53.3554E-03    -26.6849E-03     35.1579E-03
            1407     5.25770E-03     55.6088E-03    -22.8167E+06    -107.222E+06    -10.4849E+06     331.722E+03    -26.9461E-03     53.7757E-03    -26.8296E-03     30.2601E-03    -26.8947E-03     53.2930E-03    -26.6934E-03     30.2421E-03
            1408     4.38148E-03     55.5823E-03    -24.7843E+06    -111.550E+06    -15.4145E+06     369.044E+03    -26.8951E-03     53.7158E-03    -26.8207E-03     25.2721E-03    -26.8382E-03     53.2196E-03    -26.7001E-03     25.2601E-03
            1409     3.50508E-03     55.5607E-03    -26.6672E+06    -115.293E+06    -20.1248E+06     196.821E+03    -26.8510E-03     53.6629E-03    -26.8119E-03     20.2771E-03    -26.7899E-03     53.1562E-03    -26.7067E-03     20.2673E-03
            1410     2.62889E-03     55.5437E-03    -28.2642E+06    -118.057E+06    -24.1589E+06     159.910E+03    -26.8267E-03     53.6302E-03    -26.8035E-03     15.2775E-03    -26.7628E-03     53.1169E-03    -26.7121E-03     15.2708E-03
            1411     1.75247E-03     55.5317E-03    -29.3579E+06    -120.031E+06    -27.3368E+06     176.164E+03    -26.8087E-03     53.6033E-03    -26.7946E-03     10.3132E-03    -26.7422E-03     53.0858E-03    -26.7147E-03     10.3099E-03
            1412     876.357E-06     55.5240E-03    -30.1609E+06    -120.502E+06    -29.6723E+06     11.7490E+03    -26.7830E-03     53.5769E-03    -26.7940E-03     5.56920E-03    -26.7162E-03     53.0613E-03    -26.7239E-03     5.56638E-03
            1413     16.6574E-03     55.4920E-03    -3.96788E+06     135.507E+06      84.281E+06    -451.581E+03    -29.0777E-03     55.7311E-03    -26.6533E-03     106.585E-03    -30.5149E-03     57.3908E-03    -26.4226E-03     106.934E-03
            1414     15.7770E-03     55.3382E-03    -5.81029E+06     122.303E+06     41.0815E+06     3.34753E+03    -29.3350E-03     55.8104E-03    -26.4754E-03     141.986E-03    -30.9783E-03     57.7480E-03    -26.4389E-03     142.098E-03
            1415     14.9005E-03     55.2197E-03    -9.46923E+06     76.3483E+06    -4.28671E+06     736.821E+03    -28.0016E-03     54.3775E-03    -26.3759E-03     111.968E-03    -28.7888E-03     55.4146E-03    -26.4943E-03     111.808E-03
            1416     14.0230E-03     55.1258E-03    -10.4530E+06     20.1105E+06    -9.17109E+06     595.467E+03    -27.6591E-03     54.1446E-03    -26.4855E-03     89.2810E-03    -28.0228E-03     54.5692E-03    -26.5453E-03     89.1021E-03
            1417     13.1456E-03     55.0509E-03    -10.1163E+06    -23.5665E+06    -5.25040E+06     617.773E+03    -27.5454E-03     54.1450E-03    -26.5996E-03     75.2264E-03    -27.7241E-03     54.2193E-03    -26.5770E-03     75.0715E-03
            1418     12.2695E-03     54.9834E-03    -10.3616E+06    -43.8471E+06    -953.369E+03     696.199E+03    -27.4578E-03     54.1304E-03    -26.6726E-03     68.6971E-03    -27.5539E-03     54.0369E-03    -26.5988E-03     68.5716E-03
            1419     11.3928E-03     54.9203E-03    -10.9256E+06    -58.3452E+06     613.186E+03     382.622E+03    -27.3719E-03     54.0945E-03    -26.7226E-03     63.3685E-03    -27.4177E-03     53.8925E-03    -26.6191E-03     63.2624E-03
            1420     10.5159E-03     54.8637E-03    -11.8182E+06    -70.1784E+06     1.39883E+06     461.783E+03    -27.3758E-03     54.1372E-03    -26.7614E-03     58.6547E-03    -27.3871E-03     53.8533E-03    -26.6355E-03     58.5700E-03
            1421     9.63982E-03     54.8092E-03    -13.1504E+06    -79.1757E+06     2.50794E+06     697.877E+03    -27.3439E-03     54.1359E-03    -26.7920E-03     53.9781E-03    -27.3348E-03     53.7918E-03    -26.6456E-03     53.9135E-03
            1422     8.76324E-03     54.7608E-03    -14.3975E+06    -86.0160E+06     2.54117E+06     778.912E+03    -27.2409E-03     54.0523E-03    -26.8114E-03     49.3156E-03    -27.2172E-03     53.6648E-03    -26.6531E-03     49.2664E-03
            1423     7.88692E-03     54.7159E-03    -16.1286E+06    -92.9988E+06     1.15021E+06     419.816E+03    -27.1273E-03     53.9538E-03    -26.8265E-03     44.7536E-03    -27.0923E-03     53.5280E-03    -26.6625E-03     44.7121E-03
            1424     7.01050E-03     54.6757E-03    -18.3559E+06    -98.1109E+06    -1.67151E+06     335.698E+03    -27.0580E-03     53.8915E-03    -26.8335E-03     40.0016E-03    -27.0171E-03     53.4419E-03    -26.6729E-03     39.9689E-03
            1425     6.13406E-03     54.6400E-03    -20.3928E+06    -102.172E+06    -5.77343E+06     487.849E+03    -27.0171E-03     53.8465E-03    -26.8294E-03     35.1693E-03    -26.9705E-03     53.3816E-03    -26.6805E-03     35.1466E-03
            1426     5.25787E-03     54.6087E-03    -22.6758E+06    -107.356E+06    -10.6265E+06     412.567E+03    -26.9486E-03     53.7699E-03    -26.8213E-03     30.2296E-03    -26.8960E-03     53.2866E-03    -26.6859E-03     30.2126E-03
            1427     4.38142E-03     54.5825E-03    -24.6926E+06    -111.440E+06    -15.2417E+06     402.436E+03    -26.8854E-03     53.6986E-03    -26.8132E-03     25.2681E-03    -26.8284E-03     53.2025E-03    -26.6920E-03     25.2565E-03
            1428     3.50520E-03     54.5606E-03    -26.4916E+06    -115.180E+06    -19.7923E+06     347.542E+03    -26.8487E-03     53.6531E-03    -26.8044E-03     20.2749E-03    -26.7873E-03     53.1462E-03    -26.6979E-03     20.2670E-03
            1429     2.62879E-03     54.5440E-03    -28.0902E+06    -118.043E+06    -24.0245E+06     208.824E+03    -26.8215E-03     53.6151E-03    -26.7936E-03     15.2716E-03    -26.7570E-03     53.1015E-03    -26.7018E-03     15.2656E-03
            1430     1.75265E-03     54.5315E-03    -29.3254E+06    -119.996E+06    -27.3431E+06     119.245E+03    -26.7946E-03     53.5791E-03    -26.7845E-03     10.2926E-03    -26.7281E-03     53.0617E-03    -26.7047E-03     10.2885E-03
            1431     876.200E-06     54.5244E-03    -30.0279E+06    -120.423E+06    -29.4974E+06     99.8529E+03    -26.7809E-03     53.5598E-03    -26.7789E-03     5.59485E-03    -26.7138E-03     53.0441E-03    -26.7082E-03     5.59319E-03
            1432     16.6495E-03     54.4873E-03    -4.29032E+06     134.571E+06     82.6230E+06    -1.66250E+06    -28.5189E-03     55.2064E-03    -26.6875E-03     105.115E-03    -29.9393E-03     56.8498E-03    -26.4633E-03     105.452E-03
            1433     15.7784E-03     54.3397E-03    -8.77354E+06     119.099E+06     37.4947E+06     776.057E+03    -29.5167E-03     56.0318E-03    -26.5151E-03     141.712E-03    -31.1535E-03     57.9514E-03    -26.4876E-03     141.824E-03
            1434     14.8992E-03     54.2212E-03    -9.78280E+06     77.2856E+06    -3.81267E+06     1.97179E+06    -28.2530E-03     54.6710E-03    -26.4180E-03     113.685E-03    -29.0542E-03     55.7229E-03    -26.5349E-03     113.538E-03
            1435     14.0220E-03     54.1260E-03    -10.0448E+06     21.2629E+06    -9.01027E+06     774.242E+03    -27.9452E-03     54.4593E-03    -26.5141E-03     89.8979E-03    -28.3113E-03     54.8914E-03    -26.5754E-03     89.7181E-03
            1436     13.1460E-03     54.0513E-03    -10.7817E+06    -24.1509E+06    -6.25616E+06     169.210E+03    -27.6798E-03     54.2958E-03    -26.6159E-03     75.5445E-03    -27.8595E-03     54.3696E-03    -26.5966E-03     75.3831E-03
            1437     12.2692E-03     53.9833E-03    -10.6635E+06    -43.5236E+06    -1.45367E+06     190.857E+03    -27.5114E-03     54.1965E-03    -26.6850E-03     68.9216E-03    -27.6093E-03     54.1061E-03    -26.6137E-03     68.7893E-03
            1438     11.3923E-03     53.9214E-03    -10.9767E+06    -58.3576E+06     335.709E+03     321.227E+03    -27.4646E-03     54.1968E-03    -26.7322E-03     63.5640E-03    -27.5101E-03     53.9952E-03    -26.6300E-03     63.4571E-03
            1439     10.5162E-03     53.8628E-03    -12.1970E+06    -70.7875E+06     1.07352E+06     614.752E+03    -27.4788E-03     54.2438E-03    -26.7650E-03     58.6173E-03    -27.4909E-03     53.9582E-03    -26.6393E-03     58.5340E-03
            1440     9.63970E-03     53.8099E-03    -13.3588E+06    -79.1042E+06     1.94930E+06     519.546E+03    -27.3293E-03     54.1190E-03    -26.7897E-03     53.9911E-03    -27.3205E-03     53.7763E-03    -26.6459E-03     53.9244E-03
            1441     8.76321E-03     53.7606E-03    -14.6054E+06    -86.1789E+06     2.12971E+06     369.347E+03    -27.2241E-03     54.0359E-03    -26.8118E-03     49.3404E-03    -27.2006E-03     53.6484E-03    -26.6550E-03     49.2861E-03
            1442     7.88691E-03     53.7161E-03    -16.3208E+06    -92.7558E+06     1.34550E+06     590.158E+03    -27.1670E-03     53.9949E-03    -26.8279E-03     44.7102E-03    -27.1337E-03     53.5704E-03    -26.6630E-03     44.6707E-03
            1443     7.01044E-03     53.6758E-03    -18.3549E+06    -97.9702E+06    -1.69227E+06     444.303E+03    -27.0994E-03     53.9278E-03    -26.8285E-03     40.0098E-03    -27.0586E-03     53.4790E-03    -26.6683E-03     39.9784E-03
            1444     6.13427E-03     53.6399E-03    -20.5912E+06    -102.419E+06    -5.76625E+06     513.817E+03    -27.0195E-03     53.8412E-03    -26.8217E-03     35.1254E-03    -26.9736E-03     53.3753E-03    -26.6722E-03     35.1030E-03
            1445     5.25779E-03     53.6090E-03    -22.6471E+06    -107.091E+06    -10.3324E+06     620.508E+03    -26.9362E-03     53.7496E-03    -26.8133E-03     30.2138E-03    -26.8844E-03     53.2671E-03    -26.6769E-03     30.1995E-03
            1446     4.38155E-03     53.5824E-03    -24.7567E+06    -111.413E+06    -15.2950E+06     411.020E+03    -26.8843E-03     53.6875E-03    -26.8032E-03     25.2565E-03    -26.8276E-03     53.1917E-03    -26.6822E-03     25.2449E-03
            1447     3.50514E-03     53.5610E-03    -26.5711E+06    -115.049E+06    -19.7815E+06     356.178E+03    -26.8439E-03     53.6366E-03    -26.7927E-03     20.2592E-03    -26.7832E-03     53.1305E-03    -26.6862E-03     20.2514E-03
            1448     2.62896E-03     53.5438E-03    -28.1060E+06    -117.911E+06    -23.9797E+06     284.036E+03    -26.8079E-03     53.5890E-03    -26.7811E-03     15.2620E-03    -26.7437E-03     53.0760E-03    -26.6893E-03     15.2570E-03
            1449     1.75252E-03     53.5320E-03    -29.2859E+06    -119.909E+06    -27.3109E+06     133.372E+03    -26.7818E-03     53.5540E-03    -26.7722E-03     10.2917E-03    -26.7153E-03     53.0370E-03    -26.6924E-03     10.2878E-03
            1450     876.351E-06     53.5241E-03    -30.1015E+06    -120.337E+06    -29.4785E+06     45.5850E+03    -26.7686E-03     53.5351E-03    -26.7665E-03     5.59578E-03    -26.7020E-03     53.0200E-03    -26.6958E-03     5.59342E-03
            1451     16.6572E-03     53.4874E-03    -4.43888E+06     133.978E+06     82.4974E+06    -284.450E+03    -27.1939E-03     53.9340E-03    -26.7402E-03     106.907E-03    -28.6173E-03     55.5781E-03    -26.5155E-03     107.298E-03
            1452     15.7735E-03     53.3417E-03    -11.0600E+06     116.917E+06     35.8904E+06     260.475E+03    -29.5190E-03     56.1244E-03    -26.6054E-03     141.908E-03    -31.1608E-03     58.0377E-03    -26.5794E-03     142.025E-03
            1453     14.8979E-03     53.2202E-03    -11.5003E+06     77.4471E+06    -5.08708E+06     190.459E+03    -29.1301E-03     55.6146E-03    -26.4844E-03     113.789E-03    -29.9457E-03     56.6790E-03    -26.6055E-03     113.605E-03
            1454     14.0222E-03     53.1267E-03    -10.4670E+06     21.8332E+06    -9.91998E+06     883.256E+03    -28.3210E-03     54.8659E-03    -26.5449E-03     89.4894E-03    -28.6891E-03     55.3031E-03    -26.6110E-03     89.3074E-03
            1455     13.1450E-03     53.0510E-03    -10.0957E+06    -24.1012E+06    -6.36362E+06     258.658E+03    -27.7454E-03     54.3825E-03    -26.6371E-03     75.4390E-03    -27.9209E-03     54.4551E-03    -26.6194E-03     75.2786E-03
            1456     12.2686E-03     52.9841E-03    -10.7601E+06    -43.2761E+06    -1.58095E+06    -64.4091E+03    -27.6864E-03     54.3859E-03    -26.6995E-03     68.6847E-03    -27.7852E-03     54.2974E-03    -26.6291E-03     68.5479E-03
            1457     11.3926E-03     52.9208E-03    -11.8102E+06    -58.8351E+06    -435.855E+03     362.519E+03    -27.6207E-03     54.3540E-03    -26.7333E-03     63.3974E-03    -27.6686E-03     54.1524E-03    -26.6331E-03     63.2903E-03
            1458     10.5161E-03     52.8633E-03    -12.4528E+06    -71.1579E+06     553.944E+03     353.774E+03    -27.4600E-03     54.2209E-03    -26.7608E-03     58.5525E-03    -27.4721E-03     53.9345E-03    -26.6368E-03     58.4659E-03
            1459     9.63960E-03     52.8098E-03    -13.4519E+06    -78.8130E+06     1.88667E+06     413.109E+03    -27.3327E-03     54.1194E-03    -26.7867E-03     53.8399E-03    -27.3247E-03     53.7784E-03    -26.6435E-03     53.7716E-03
            1460     8.76336E-03     52.7608E-03    -15.1867E+06    -86.3617E+06     1.42314E+06     213.378E+03    -27.2340E-03     54.0397E-03    -26.8057E-03     49.3055E-03    -27.2121E-03     53.6532E-03    -26.6513E-03     49.2491E-03
            1461     7.88679E-03     52.7162E-03    -16.8196E+06    -92.9848E+06     1.04775E+06     303.289E+03    -27.1957E-03     54.0166E-03    -26.8208E-03     44.6483E-03    -27.1641E-03     53.5921E-03    -26.6564E-03     44.6049E-03
            1462     7.01069E-03     52.6757E-03    -18.7574E+06    -97.8847E+06    -1.69719E+06     656.912E+03    -27.1055E-03     53.9244E-03    -26.8189E-03     39.9261E-03    -27.0669E-03     53.4767E-03    -26.6582E-03     39.8973E-03
            1463     6.13417E-03     52.6402E-03    -20.9803E+06    -102.540E+06    -6.09669E+06     478.263E+03    -26.9934E-03     53.8039E-03    -26.8105E-03     35.1044E-03    -26.9488E-03     53.3384E-03    -26.6618E-03     35.0816E-03
            1464     5.25795E-03     52.6089E-03    -22.9431E+06    -107.054E+06    -10.2920E+06     472.277E+03    -26.9343E-03     53.7381E-03    -26.8037E-03     30.2024E-03    -26.8841E-03     53.2562E-03    -26.6667E-03     30.1861E-03
            1465     4.38153E-03     52.5827E-03    -24.7832E+06    -111.164E+06    -15.1786E+06     499.055E+03    -26.8819E-03     53.6733E-03    -26.7914E-03     25.2410E-03    -26.8258E-03     53.1786E-03    -26.6702E-03     25.2305E-03
            1466     3.50530E-03     52.5608E-03    -26.6312E+06    -114.947E+06    -19.8639E+06     329.776E+03    -26.8313E-03     53.6104E-03    -26.7790E-03     20.2566E-03    -26.7709E-03     53.1049E-03    -26.6730E-03     20.2485E-03
            1467     2.62887E-03     52.5442E-03    -28.0954E+06    -117.774E+06    -23.9049E+06     212.186E+03    -26.7939E-03     53.5620E-03    -26.7680E-03     15.2529E-03    -26.7300E-03     53.0495E-03    -26.6760E-03     15.2469E-03
            1468     1.75266E-03     52.5317E-03    -29.2377E+06    -119.795E+06    -27.2008E+06     120.810E+03    -26.7720E-03     53.5301E-03    -26.7582E-03     10.2842E-03    -26.7055E-03     53.0135E-03    -26.6781E-03     10.2802E-03
            1469     876.267E-06     52.5246E-03    -30.0387E+06    -120.303E+06    -29.4633E+06     63.7293E+03    -26.7515E-03     53.5043E-03    -26.7528E-03     5.59500E-03    -26.6846E-03     52.9892E-03    -26.6821E-03     5.59288E-03
            1470     16.6458E-03     52.4891E-03    -4.58593E+06     133.961E+06     82.8421E+06     893.806E+03    -27.0482E-03     53.8444E-03    -26.7961E-03     107.676E-03    -28.4826E-03     55.4978E-03    -26.5695E-03     108.078E-03
            1471     15.7742E-03     52.3399E-03    -9.64358E+06     118.090E+06     37.3516E+06    -290.787E+03    -30.1128E-03     56.7616E-03    -26.6488E-03     140.202E-03    -31.7497E-03     58.6750E-03    -26.6193E-03     140.287E-03
            1472     14.8978E-03     52.2204E-03    -11.4144E+06     76.8984E+06    -5.23523E+06    -397.970E+03    -29.3236E-03     55.8210E-03    -26.4973E-03     112.053E-03    -30.1322E-03     56.8772E-03    -26.6185E-03     111.856E-03
            1473     14.0213E-03     52.1256E-03    -11.0628E+06     21.4466E+06    -9.80153E+06    -423.472E+03    -28.2828E-03     54.8342E-03    -26.5513E-03     88.4003E-03    -28.6509E-03     55.2676E-03    -26.6154E-03     88.2016E-03
            1474     13.1455E-03     52.0523E-03    -10.2265E+06    -23.7904E+06    -5.89989E+06    -109.954E+03    -27.8934E-03     54.5309E-03    -26.6375E-03     74.9230E-03    -28.0715E-03     54.6054E-03    -26.6177E-03     74.7562E-03
            1475     12.2690E-03     51.9830E-03    -10.6499E+06    -43.8605E+06    -1.42648E+06     354.842E+03    -27.7502E-03     54.4407E-03    -26.6904E-03     68.2842E-03    -27.8476E-03     54.3486E-03    -26.6185E-03     68.1524E-03
            1476     11.3926E-03     51.9216E-03    -11.3873E+06    -58.8509E+06    -10.4388E+03     279.925E+03    -27.5672E-03     54.2898E-03    -26.7225E-03     63.1435E-03    -27.6137E-03     54.0869E-03    -26.6207E-03     63.0353E-03
            1477     10.5161E-03     51.8630E-03    -12.3389E+06    -71.0866E+06     662.976E+03     100.541E+03    -27.4609E-03     54.2103E-03    -26.7494E-03     58.4186E-03    -27.4727E-03     53.9240E-03    -26.6251E-03     58.3287E-03
            1478     9.63998E-03     51.8100E-03    -13.5658E+06    -79.1937E+06     1.89884E+06     200.511E+03    -27.3276E-03     54.1021E-03    -26.7744E-03     53.6650E-03    -27.3197E-03     53.7594E-03    -26.6305E-03     53.5938E-03
            1479     8.76325E-03     51.7610E-03    -14.8846E+06    -85.9416E+06     1.85195E+06     325.570E+03    -27.2372E-03     54.0294E-03    -26.7922E-03     49.2457E-03    -27.2151E-03     53.6440E-03    -26.6367E-03     49.1907E-03
            1480     7.88718E-03     51.7160E-03    -16.9003E+06    -93.3990E+06     670.125E+03     240.304E+03    -27.1750E-03     53.9794E-03    -26.8044E-03     44.6311E-03    -27.1426E-03     53.5536E-03    -26.6412E-03     44.5869E-03
            1481     7.01062E-03     51.6760E-03    -18.9334E+06    -98.2247E+06    -1.74242E+06     452.026E+03    -27.0717E-03     53.8774E-03    -26.8056E-03     39.8584E-03    -27.0335E-03     53.4283E-03    -26.6445E-03     39.8269E-03
            1482     6.13437E-03     51.6401E-03    -20.7921E+06    -102.116E+06    -5.76198E+06     517.274E+03    -26.9784E-03     53.7772E-03    -26.7988E-03     35.0796E-03    -26.9340E-03     53.3131E-03    -26.6494E-03     35.0573E-03
            1483     5.25792E-03     51.6092E-03    -22.9290E+06    -107.270E+06    -10.4883E+06     266.454E+03    -26.9210E-03     53.7118E-03    -26.7908E-03     30.1980E-03    -26.8700E-03     53.2291E-03    -26.6545E-03     30.1791E-03
            1484     4.38166E-03     51.5826E-03    -24.7825E+06    -111.138E+06    -14.9811E+06     362.560E+03    -26.8671E-03     53.6476E-03    -26.7805E-03     25.2388E-03    -26.8114E-03     53.1528E-03    -26.6584E-03     25.2266E-03
            1485     3.50524E-03     51.5612E-03    -26.4512E+06    -114.680E+06    -19.5844E+06      345.11E+03    -26.8201E-03     53.5883E-03    -26.7682E-03     20.2536E-03    -26.7596E-03     53.0835E-03    -26.6615E-03     20.2456E-03
            1486     2.62901E-03     51.5440E-03    -28.0288E+06    -117.684E+06    -23.8175E+06     172.161E+03    -26.7856E-03     53.5416E-03    -26.7560E-03     15.2577E-03    -26.7216E-03     53.0294E-03    -26.6638E-03     15.2512E-03
            1487     1.75261E-03     51.5322E-03    -29.2588E+06    -119.757E+06    -27.2530E+06     126.741E+03    -26.7607E-03     53.5051E-03    -26.7444E-03     10.2912E-03    -26.6943E-03     52.9887E-03    -26.6646E-03     10.2873E-03
            1488     876.344E-06     51.5244E-03    -30.0251E+06    -120.240E+06    -29.4972E+06     56.9838E+03    -26.7342E-03     53.4760E-03    -26.7418E-03     5.58680E-03    -26.6673E-03     52.9613E-03    -26.6714E-03     5.58458E-03
            1489     16.6557E-03     51.4882E-03    -4.56985E+06     133.964E+06     83.1594E+06     1.29538E+06    -27.7680E-03     54.5343E-03    -26.7664E-03     107.363E-03    -29.1927E-03     56.1772E-03    -26.5382E-03     107.759E-03
            1490     15.7753E-03     51.3409E-03    -7.58292E+06     119.885E+06     39.9098E+06     1.00918E+06    -30.0821E-03     56.6874E-03    -26.6052E-03     140.005E-03    -31.7016E-03     58.5897E-03    -26.5685E-03     140.103E-03
            1491     14.8991E-03     51.2189E-03    -9.37380E+06     77.3868E+06    -3.08440E+06    -336.370E+03    -28.9822E-03     55.4435E-03    -26.4612E-03     111.267E-03    -29.7781E-03     56.4898E-03    -26.5753E-03     111.075E-03
            1492     14.0226E-03     51.1274E-03    -9.29035E+06     20.8306E+06    -8.68133E+06    -831.538E+03    -28.0811E-03     54.6062E-03    -26.5251E-03     88.2728E-03    -28.4405E-03     55.0318E-03    -26.5853E-03     88.0709E-03
            1493     13.1454E-03     51.0506E-03    -10.0732E+06    -24.3442E+06    -5.83188E+06    -127.794E+03    -27.9338E-03     54.5450E-03    -26.6112E-03     74.7657E-03    -28.1111E-03     54.6171E-03    -26.5905E-03     74.5981E-03
            1494     12.2696E-03     50.9842E-03    -10.4391E+06    -44.0686E+06    -1.14791E+06     200.452E+03    -27.6307E-03     54.2961E-03    -26.6653E-03     68.1048E-03    -27.7267E-03     54.2018E-03    -26.5921E-03     67.9718E-03
            1495     11.3927E-03     50.9210E-03    -10.8636E+06    -58.8124E+06     418.877E+03     241.165E+03    -27.5001E-03     54.2025E-03    -26.7024E-03     63.1820E-03    -27.5448E-03     53.9986E-03    -26.5992E-03     63.0735E-03
            1496     10.5167E-03     50.8635E-03    -12.0664E+06    -71.0727E+06     873.042E+03     180.024E+03    -27.4331E-03     54.1638E-03    -26.7307E-03     58.3408E-03    -27.4438E-03     53.8769E-03    -26.6058E-03     58.2519E-03
            1497     9.63982E-03     50.8101E-03    -13.3328E+06    -79.2072E+06     2.08593E+06     114.028E+03    -27.3198E-03     54.0754E-03    -26.7556E-03     53.6847E-03    -27.3110E-03     53.7320E-03    -26.6110E-03     53.6124E-03
            1498     8.76384E-03     50.7611E-03    -14.9801E+06    -86.1317E+06     2.06708E+06     346.998E+03    -27.2267E-03     53.9999E-03    -26.7732E-03     49.2338E-03    -27.2052E-03     53.6134E-03    -26.6162E-03     49.1790E-03
            1499     7.88704E-03     50.7163E-03    -16.7953E+06    -93.5736E+06     776.773E+03     404.544E+03    -27.1102E-03     53.8968E-03    -26.7867E-03     44.6353E-03    -27.0771E-03     53.4698E-03    -26.6227E-03     44.5934E-03
            1500     7.01087E-03     50.6759E-03    -18.7152E+06    -98.2955E+06    -1.82980E+06     223.829E+03    -27.0363E-03     53.8269E-03    -26.7906E-03     39.8560E-03    -26.9967E-03     53.3772E-03    -26.6301E-03     39.8217E-03
            1501     6.13437E-03     50.6405E-03    -20.8017E+06    -102.090E+06    -5.65997E+06     333.395E+03    -26.9683E-03     53.7543E-03    -26.7860E-03     35.0933E-03    -26.9241E-03     53.2903E-03    -26.6361E-03     35.0686E-03
            1502     5.25807E-03     50.6091E-03    -22.7758E+06    -107.104E+06    -10.3330E+06     365.173E+03    -26.8998E-03     53.6782E-03    -26.7784E-03     30.1989E-03    -26.8486E-03     53.1959E-03    -26.6418E-03     30.1813E-03
            1503     4.38163E-03     50.5830E-03    -24.8595E+06    -111.279E+06    -15.2245E+06     183.036E+03    -26.8465E-03     53.6151E-03    -26.7686E-03     25.2385E-03    -26.7906E-03     53.1200E-03    -26.6473E-03     25.2240E-03
            1504     3.50536E-03     50.5611E-03    -26.5812E+06    -114.593E+06    -19.7191E+06     217.225E+03    -26.8063E-03     53.5643E-03    -26.7580E-03     20.2552E-03    -26.7464E-03     53.0603E-03    -26.6518E-03     20.2456E-03
            1505     2.62894E-03     50.5445E-03    -28.0331E+06    -117.610E+06    -23.9460E+06     227.271E+03    -26.7704E-03     53.5177E-03    -26.7473E-03     15.2629E-03    -26.7063E-03     53.0060E-03    -26.6559E-03     15.2571E-03
            1506     1.75267E-03     50.5321E-03    -29.2465E+06    -119.711E+06    -27.2049E+06     149.634E+03    -26.7492E-03     53.4887E-03    -26.7395E-03     10.3102E-03    -26.6829E-03     52.9725E-03    -26.6595E-03     10.3065E-03
            1507     876.322E-06     50.5249E-03    -30.0681E+06    -120.109E+06    -29.4953E+06     88.1722E+03    -26.7319E-03     53.4685E-03    -26.7366E-03     5.59432E-03    -26.6655E-03     52.9545E-03    -26.6663E-03     5.59250E-03
            1508     16.6506E-03     50.4932E-03    -5.54338E+06     132.853E+06     83.2230E+06     539.659E+03    -28.4104E-03     55.1010E-03    -26.6905E-03     107.322E-03    -29.8455E-03     56.7466E-03    -26.4590E-03     107.707E-03
            1509     15.7756E-03     50.3372E-03    -6.37364E+06     121.254E+06     42.6641E+06     506.173E+03    -29.4028E-03     55.9403E-03    -26.5376E-03     140.695E-03    -31.0310E-03     57.8526E-03    -26.4908E-03     140.817E-03
            1510     14.8997E-03     50.2215E-03    -7.21741E+06     78.2077E+06    -1.49981E+06     59.7076E+03    -28.5539E-03     54.9700E-03    -26.4161E-03     110.895E-03    -29.3351E-03     56.0075E-03    -26.5265E-03     110.716E-03
            1511     14.0220E-03     50.1262E-03    -8.82917E+06     20.0789E+06    -9.02795E+06     300.792E+03    -28.0548E-03     54.5410E-03    -26.4863E-03     88.7848E-03    -28.4119E-03     54.9643E-03    -26.5477E-03     88.5979E-03
            1512     13.1467E-03     50.0514E-03    -9.44947E+06    -24.5726E+06    -5.63671E+06     301.605E+03    -27.7411E-03     54.3211E-03    -26.5800E-03     74.6466E-03    -27.9142E-03     54.3898E-03    -26.5589E-03     74.4861E-03
            1513     12.2694E-03     49.9841E-03    -10.1238E+06    -44.1086E+06    -1.19211E+06     109.120E+03    -27.5337E-03     54.1749E-03    -26.6412E-03     68.1570E-03    -27.6281E-03     54.0802E-03    -26.5685E-03     68.0233E-03
            1514     11.3934E-03     49.9215E-03    -11.2985E+06    -58.9987E+06     108.948E+03     267.454E+03    -27.4544E-03     54.1365E-03    -26.6821E-03     63.3214E-03    -27.5006E-03     53.9327E-03    -26.5796E-03     63.2135E-03
            1515     10.5164E-03     49.8636E-03    -12.1922E+06    -70.9455E+06     991.919E+03     329.825E+03    -27.3745E-03     54.0891E-03    -26.7146E-03     58.4568E-03    -27.3862E-03     53.8028E-03    -26.5891E-03     58.3702E-03
            1516     9.64042E-03     49.8102E-03    -13.5857E+06    -79.1028E+06     1.90221E+06     201.399E+03    -27.3156E-03     54.0553E-03    -26.7397E-03     53.8002E-03    -27.3080E-03     53.7131E-03    -26.5957E-03     53.7292E-03
            1517     8.76358E-03     49.7613E-03    -15.0524E+06    -86.4668E+06     1.97503E+06     228.192E+03    -27.2227E-03     53.9799E-03    -26.7572E-03     49.3006E-03    -27.2008E-03     53.5919E-03    -26.6001E-03     49.2444E-03
            1518     7.88753E-03     49.7164E-03    -16.6681E+06    -93.3543E+06     1.13636E+06     331.609E+03    -27.0885E-03     53.8602E-03    -26.7716E-03     44.6277E-03    -27.0557E-03     53.4334E-03    -26.6064E-03     44.5850E-03
            1519     7.01079E-03     49.6763E-03    -18.6736E+06    -98.4933E+06    -1.94192E+06     168.897E+03    -26.9876E-03     53.7640E-03    -26.7765E-03     39.9249E-03    -26.9472E-03     53.3134E-03    -26.6163E-03     39.8901E-03
            1520     6.13451E-03     49.6404E-03    -20.6993E+06    -102.358E+06    -5.72462E+06     248.660E+03    -26.9544E-03     53.7292E-03    -26.7748E-03     35.1073E-03    -26.9092E-03     53.2637E-03    -26.6250E-03     35.0816E-03
            1521     5.25807E-03     49.6095E-03    -22.8352E+06    -106.908E+06    -10.2410E+06     338.505E+03    -26.8886E-03     53.6563E-03    -26.7678E-03     30.2015E-03    -26.8381E-03     53.1750E-03    -26.6309E-03     30.1836E-03
            1522     4.38175E-03     49.5829E-03    -24.7502E+06    -111.162E+06    -15.2432E+06     230.688E+03    -26.8298E-03     53.5877E-03    -26.7579E-03     25.2514E-03    -26.7735E-03     53.0931E-03    -26.6371E-03     25.2376E-03
            1523     3.50531E-03     49.5615E-03    -26.5936E+06    -114.748E+06    -20.0102E+06     147.280E+03    -26.7883E-03     53.5368E-03    -26.7485E-03     20.2564E-03    -26.7277E-03     53.0325E-03    -26.6436E-03     20.2459E-03
            1524     2.62903E-03     49.5444E-03    -28.0981E+06    -117.552E+06    -24.0414E+06     187.532E+03    -26.7572E-03     53.4983E-03    -26.7411E-03     15.2612E-03    -26.6934E-03     52.9872E-03    -26.6501E-03     15.2549E-03
            1525     1.75263E-03     49.5325E-03    -29.2573E+06    -119.608E+06    -27.2763E+06     181.704E+03    -26.7394E-03     53.4756E-03    -26.7362E-03     10.3097E-03    -26.6731E-03     52.9599E-03    -26.6567E-03     10.3065E-03
            1526     876.304E-06     49.5248E-03    -29.9765E+06    -120.034E+06    -29.4239E+06     46.0824E+03    -26.7371E-03     53.4666E-03    -26.7295E-03     5.58940E-03    -26.6704E-03     52.9528E-03    -26.6591E-03     5.58705E-03
            1527     16.6583E-03     49.4934E-03    -4.59555E+06     133.481E+06     83.3876E+06    -537.204E+03    -29.0295E-03     55.6754E-03    -26.6459E-03     105.925E-03    -30.4742E-03     57.3358E-03    -26.4158E-03     106.284E-03
            1528     15.7790E-03     49.3400E-03    -7.24622E+06     120.007E+06     40.5023E+06    -610.050E+03    -29.0626E-03     55.5406E-03    -26.4780E-03     141.953E-03    -30.7166E-03     57.4773E-03    -26.4390E-03     142.071E-03
            1529     14.8994E-03     49.2217E-03    -9.39974E+06     77.4739E+06    -3.42216E+06     891.312E+03    -28.3707E-03     54.7451E-03    -26.3744E-03     111.861E-03    -29.1612E-03     55.7872E-03    -26.4903E-03     111.696E-03
            1530     14.0241E-03     49.1264E-03    -9.67067E+06     20.7609E+06    -8.90069E+06     801.608E+03    -27.9612E-03     54.4200E-03    -26.4588E-03     88.9321E-03    -28.3245E-03     54.8485E-03    -26.5194E-03     88.7517E-03
            1531     13.1460E-03     49.0521E-03    -9.81190E+06    -24.5444E+06    -5.62018E+06     264.940E+03    -27.5111E-03     54.0729E-03    -26.5619E-03     75.0592E-03    -27.6855E-03     54.1417E-03    -26.5401E-03     74.9002E-03
            1532     12.2701E-03     48.9840E-03    -10.2732E+06    -44.2505E+06    -1.10939E+06     462.805E+03    -27.5394E-03     54.1699E-03    -26.6306E-03     68.4710E-03    -27.6349E-03     54.0752E-03    -26.5571E-03     68.3416E-03
            1533     11.3930E-03     48.9221E-03       -11.2E+06    -59.1283E+06     438.895E+03     400.090E+03    -27.4415E-03     54.1137E-03    -26.6722E-03     63.3810E-03    -27.4874E-03     53.9086E-03    -26.5680E-03     63.2749E-03
            1534     10.5169E-03     48.8635E-03    -12.2426E+06    -70.8394E+06     1.01059E+06     296.726E+03    -27.3420E-03     54.0463E-03    -26.7043E-03     58.6034E-03    -27.3540E-03     53.7605E-03    -26.5788E-03     58.5166E-03
            1535     9.64003E-03     48.8107E-03    -13.3887E+06    -79.0792E+06     2.01508E+06     309.097E+03    -27.3001E-03     54.0312E-03    -26.7311E-03     53.8795E-03    -27.2916E-03     53.6886E-03    -26.5870E-03     53.8100E-03
            1536     8.76400E-03     48.7611E-03    -14.9890E+06    -86.4975E+06     1.74571E+06     151.421E+03    -27.2127E-03     53.9605E-03    -26.7478E-03     49.3392E-03    -27.1902E-03     53.5726E-03    -26.5919E-03     49.2821E-03
            1537     7.88731E-03     48.7168E-03    -16.7584E+06    -93.5240E+06     930.624E+03     101.935E+03    -27.0924E-03     53.8548E-03    -26.7623E-03     44.6732E-03    -27.0595E-03     53.4276E-03    -26.5978E-03     44.6276E-03
            1538     7.01105E-03     48.6764E-03    -18.7721E+06    -98.2713E+06    -1.80896E+06     315.677E+03    -27.0011E-03     53.7674E-03    -26.7662E-03     39.9924E-03    -26.9618E-03     53.3178E-03    -26.6055E-03     39.9596E-03
            1539     6.13449E-03     48.6407E-03    -21.0175E+06    -102.576E+06    -6.25275E+06     208.024E+03    -26.9240E-03     53.6861E-03    -26.7620E-03     35.1202E-03    -26.8793E-03     53.2207E-03    -26.6141E-03     35.0940E-03
            1540     5.25817E-03     48.6096E-03    -22.9093E+06    -106.906E+06    -10.6549E+06     170.540E+03    -26.8753E-03     53.6320E-03    -26.7567E-03     30.2010E-03    -26.8245E-03     53.1513E-03    -26.6217E-03     30.1810E-03
            1541     4.38172E-03     48.5833E-03    -24.7998E+06    -111.129E+06    -15.4591E+06     226.619E+03    -26.8224E-03     53.5703E-03    -26.7480E-03     25.2506E-03    -26.7660E-03     53.0763E-03    -26.6282E-03     25.2367E-03
            1542     3.50541E-03     48.5615E-03    -26.5328E+06    -114.798E+06    -19.9856E+06     254.607E+03    -26.7753E-03     53.5154E-03    -26.7402E-03     20.2515E-03    -26.7144E-03     53.0108E-03    -26.6352E-03     20.2424E-03
            1543     2.62897E-03     48.5448E-03    -28.1096E+06    -117.513E+06    -24.0601E+06     213.610E+03    -26.7514E-03     53.4841E-03    -26.7327E-03     15.2614E-03    -26.6877E-03     52.9732E-03    -26.6418E-03     15.2554E-03
            1544     1.75268E-03     48.5325E-03    -29.2630E+06    -119.456E+06    -27.2942E+06     111.057E+03    -26.7387E-03     53.4631E-03    -26.7244E-03     10.2963E-03    -26.6727E-03     52.9483E-03    -26.6452E-03     10.2921E-03
            1545     876.341E-06     48.5252E-03    -30.0174E+06    -120.040E+06    -29.5433E+06      63.773E+03    -26.7225E-03     53.4376E-03    -26.7152E-03     5.58281E-03    -26.6558E-03     52.9239E-03    -26.6453E-03     5.58068E-03
            1546     16.6521E-03     48.4912E-03    -4.78465E+06     132.990E+06     82.0865E+06    -661.226E+03    -28.5405E-03     55.2208E-03    -26.6803E-03     106.627E-03    -29.9816E-03     56.8790E-03    -26.4558E-03     106.981E-03
            1547     15.7758E-03     48.3432E-03    -8.81492E+06     118.557E+06     38.5633E+06     138.084E+03    -29.9727E-03     56.4776E-03    -26.5049E-03     143.177E-03    -31.6329E-03     58.4155E-03    -26.4712E-03     143.277E-03
            1548     14.9007E-03     48.2204E-03    -9.77489E+06     77.0504E+06    -2.85957E+06     341.534E+03    -28.6671E-03     55.0495E-03    -26.3824E-03     113.311E-03    -29.4686E-03     56.0981E-03    -26.4943E-03     113.135E-03
            1549     14.0227E-03     48.1281E-03    -9.20372E+06     21.0789E+06    -8.54023E+06     533.082E+03    -27.8866E-03     54.3469E-03    -26.4603E-03     89.3375E-03    -28.2479E-03     54.7751E-03    -26.5203E-03     89.1552E-03
            1550     13.1467E-03     48.0520E-03    -9.57876E+06    -24.3659E+06    -5.66071E+06     672.592E+03    -27.5566E-03     54.1208E-03    -26.5642E-03     75.6036E-03    -27.7306E-03     54.1907E-03    -26.5433E-03     75.4499E-03
            1551     12.2694E-03     47.9847E-03    -10.4203E+06    -44.5254E+06    -1.42330E+06     408.215E+03    -27.5782E-03     54.2093E-03    -26.6311E-03     68.7124E-03    -27.6736E-03     54.1138E-03    -26.5585E-03     68.5823E-03
            1552     11.3936E-03     47.9218E-03    -11.0048E+06    -59.0695E+06     275.984E+03     384.003E+03    -27.5149E-03     54.1835E-03    -26.6687E-03     63.4189E-03    -27.5598E-03     53.9789E-03    -26.5657E-03     63.3123E-03
            1553     10.5166E-03     47.8644E-03    -11.9789E+06    -70.5039E+06     1.22247E+06     413.143E+03    -27.3690E-03     54.0670E-03    -26.6980E-03     58.6692E-03    -27.3804E-03     53.7821E-03    -26.5723E-03     58.5840E-03
            1554     9.64047E-03     47.8103E-03    -13.3051E+06    -79.1888E+06     1.83881E+06     259.655E+03    -27.2716E-03     53.9953E-03    -26.7236E-03     53.9351E-03    -27.2622E-03     53.6522E-03    -26.5803E-03     53.8652E-03
            1555     8.76377E-03     47.7617E-03    -14.8541E+06    -86.7515E+06     1.60940E+06     193.642E+03    -27.1765E-03     53.9199E-03    -26.7434E-03     49.3192E-03    -27.1526E-03     53.5307E-03    -26.5881E-03     49.2628E-03
            1556     7.88744E-03     47.7168E-03    -16.7741E+06    -93.5392E+06     811.994E+03     262.289E+03    -27.1146E-03     53.8728E-03    -26.7582E-03     44.7062E-03    -27.0815E-03     53.4457E-03    -26.5942E-03     44.6626E-03
            1557     7.01099E-03     47.6767E-03    -18.9394E+06    -98.3946E+06    -2.00324E+06     331.814E+03    -27.0342E-03     53.7923E-03    -26.7581E-03     39.9529E-03    -26.9953E-03     53.3427E-03    -26.5980E-03     39.9202E-03
            1558     6.13466E-03     47.6409E-03    -20.9764E+06    -102.295E+06    -6.40218E+06     266.943E+03    -26.9197E-03     53.6699E-03    -26.7502E-03     35.1368E-03    -26.8750E-03     53.2061E-03    -26.6035E-03     35.1115E-03
            1559     5.25814E-03     47.6098E-03    -23.1217E+06    -107.140E+06    -11.3545E+06     71.4521E+03    -26.8587E-03     53.6021E-03    -26.7433E-03     30.1990E-03    -26.8077E-03     53.1215E-03    -26.6112E-03     30.1777E-03
            1560     4.38183E-03     47.5834E-03    -24.9782E+06    -111.257E+06    -15.7189E+06     207.512E+03    -26.8127E-03     53.5497E-03    -26.7370E-03     25.2257E-03    -26.7567E-03     53.0557E-03    -26.6181E-03     25.2116E-03
            1561     3.50538E-03     47.5619E-03    -26.7563E+06    -114.783E+06    -20.1189E+06     268.227E+03    -26.7750E-03     53.5030E-03    -26.7280E-03     20.2413E-03    -26.7151E-03     52.9989E-03    -26.6234E-03     20.2324E-03
            1562     2.62908E-03     47.5449E-03    -28.1374E+06    -117.358E+06    -24.0992E+06     163.356E+03    -26.7462E-03     53.4634E-03    -26.7172E-03     15.2392E-03    -26.6828E-03     52.9534E-03    -26.6267E-03     15.2326E-03
            1563     1.75268E-03     47.5328E-03    -29.2405E+06    -119.483E+06    -27.2934E+06     107.831E+03    -26.7204E-03     53.4285E-03    -26.7081E-03     10.2911E-03    -26.6543E-03     52.9135E-03    -26.6289E-03     10.2869E-03
            1564     876.361E-06     47.5252E-03    -30.0144E+06    -119.928E+06    -29.4171E+06     67.2964E+03    -26.7003E-03     53.4061E-03    -26.7057E-03     5.59249E-03    -26.6340E-03     52.8928E-03    -26.6354E-03     5.59041E-03
            1565     16.6516E-03     47.4903E-03    -4.53389E+06     133.031E+06     83.0984E+06    -160.222E+03    -27.9148E-03     54.6296E-03    -26.7149E-03     105.442E-03    -29.3353E-03     56.2654E-03    -26.4857E-03     105.808E-03
            1566     15.7769E-03     47.3412E-03    -8.78718E+06     118.141E+06     38.5631E+06    -769.701E+03    -30.1025E-03     56.6445E-03    -26.5420E-03     140.671E-03    -31.7363E-03     58.5546E-03    -26.5077E-03     140.752E-03
            1567     14.8990E-03     47.2222E-03    -9.92527E+06     76.4168E+06    -4.24861E+06    -211.926E+03    -28.7534E-03     55.1567E-03    -26.4033E-03     112.987E-03    -29.5531E-03     56.2048E-03    -26.5210E-03     112.802E-03
            1568     14.0230E-03     47.1274E-03    -10.4591E+06     20.5737E+06    -9.63123E+06     323.756E+03    -28.0198E-03     54.4979E-03    -26.4781E-03     89.3344E-03    -28.3851E-03     54.9271E-03    -26.5410E-03     89.1485E-03
            1569     13.1460E-03     47.0531E-03    -10.1657E+06    -24.1640E+06    -6.06306E+06     586.545E+03    -27.7631E-03     54.3362E-03    -26.5731E-03     75.5250E-03    -27.9403E-03     54.4092E-03    -26.5537E-03     75.3684E-03
            1570     12.2699E-03     46.9843E-03    -10.4131E+06    -44.6937E+06    -1.71282E+06     526.555E+03    -27.5920E-03     54.2252E-03    -26.6333E-03     68.7747E-03    -27.6864E-03     54.1290E-03    -26.5619E-03     68.6463E-03
            1571     11.3930E-03     46.9224E-03    -11.3325E+06    -58.9155E+06     91.3509E+03     324.761E+03    -27.5419E-03     54.2119E-03    -26.6700E-03     63.3945E-03    -27.5883E-03     54.0087E-03    -26.5677E-03     63.2870E-03
            1572     10.5170E-03     46.8642E-03    -12.2478E+06    -70.4087E+06     1.01088E+06     378.765E+03    -27.4328E-03     54.1283E-03    -26.6955E-03     58.6812E-03    -27.4454E-03     53.8445E-03    -26.5706E-03     58.5953E-03
            1573     9.64028E-03     46.8109E-03    -13.4370E+06    -79.1544E+06     1.60976E+06     328.624E+03    -27.2677E-03     53.9858E-03    -26.7181E-03     53.9785E-03    -27.2586E-03     53.6434E-03    -26.5758E-03     53.9096E-03
            1574     8.76391E-03     46.7618E-03    -14.9696E+06    -86.8847E+06     1.39632E+06     218.306E+03    -27.2001E-03     53.9368E-03    -26.7368E-03     49.3038E-03    -27.1762E-03     53.5473E-03    -26.5821E-03     49.2478E-03
            1575     7.88745E-03     46.7171E-03    -16.7136E+06    -93.6950E+06     1.03269E+06     334.284E+03    -27.1230E-03     53.8739E-03    -26.7509E-03     44.6298E-03    -27.0897E-03     53.4457E-03    -26.5857E-03     44.5872E-03
            1576     7.01110E-03     46.6768E-03    -18.6259E+06    -98.3571E+06    -1.82060E+06     287.663E+03    -27.0197E-03     53.7690E-03    -26.7493E-03     39.8937E-03    -26.9795E-03     53.3188E-03    -26.5888E-03     39.8605E-03
            1577     6.13463E-03     46.6412E-03    -20.7018E+06    -102.338E+06    -6.20375E+06     250.976E+03    -26.9430E-03     53.6825E-03    -26.7396E-03     35.0906E-03    -26.8971E-03     53.2178E-03    -26.5922E-03     35.0650E-03
            1578     5.25831E-03     46.6100E-03    -22.7392E+06    -107.036E+06    -10.8853E+06     314.809E+03    -26.8556E-03     53.5859E-03    -26.7303E-03     30.1667E-03    -26.8034E-03     53.1046E-03    -26.5966E-03     30.1486E-03
            1579     4.38181E-03     46.5837E-03    -24.9283E+06    -111.476E+06    -15.6750E+06     210.774E+03    -26.8041E-03     53.5253E-03    -26.7212E-03     25.1938E-03    -26.7476E-03     53.0300E-03    -26.6017E-03     25.1797E-03
            1580     3.50550E-03     46.5620E-03    -26.6161E+06    -114.614E+06    -19.9763E+06     201.996E+03    -26.7673E-03     53.4771E-03    -26.7098E-03     20.2080E-03    -26.7071E-03     52.9735E-03    -26.6049E-03     20.1982E-03
            1581     2.62910E-03     46.5452E-03    -28.1677E+06    -117.340E+06    -24.1843E+06     124.141E+03    -26.7271E-03     53.4240E-03    -26.6968E-03     15.2275E-03    -26.6638E-03     52.9142E-03    -26.6068E-03     15.2204E-03
            1582     1.75275E-03     46.5330E-03    -29.3061E+06    -119.446E+06    -27.3598E+06     93.1807E+03    -26.6993E-03     53.3872E-03    -26.6879E-03     10.2786E-03    -26.6334E-03     52.8726E-03    -26.6090E-03     10.2742E-03
            1583     876.330E-06     46.5256E-03    -29.9620E+06    -119.869E+06    -29.4952E+06     54.3185E+03    -26.6785E-03     53.3664E-03    -26.6880E-03     5.57374E-03    -26.6118E-03     52.8534E-03    -26.6182E-03     5.57149E-03
            1584     16.6554E-03     46.4912E-03    -3.93862E+06     133.623E+06     83.2348E+06     201.298E+03    -28.0211E-03     54.7232E-03    -26.7021E-03     107.144E-03    -29.4519E-03     56.3729E-03    -26.4739E-03     107.525E-03
            1585     15.7756E-03     46.3419E-03    -8.21106E+06     118.354E+06     38.3416E+06    -29.5087E+03    -29.6161E-03     56.1584E-03    -26.5423E-03     141.253E-03    -31.2498E-03     58.0719E-03    -26.5103E-03     141.357E-03
            1586     14.8998E-03     46.2222E-03    -10.3811E+06     75.5383E+06    -4.63226E+06    -323.125E+03    -28.8003E-03     55.2196E-03    -26.4193E-03     112.646E-03    -29.5981E-03     56.2622E-03    -26.5370E-03     112.460E-03
            1587     14.0223E-03     46.1281E-03    -10.2213E+06     20.2305E+06    -9.52919E+06     268.552E+03    -28.1287E-03     54.6189E-03    -26.4903E-03     89.3392E-03    -28.4931E-03     55.0465E-03    -26.5524E-03     89.1511E-03
            1588     13.1464E-03     46.0526E-03    -10.6992E+06    -24.3384E+06    -6.41529E+06     469.058E+03    -27.8382E-03     54.4165E-03    -26.5784E-03     75.4218E-03    -28.0173E-03     54.4899E-03    -26.5596E-03     75.2631E-03
            1589     12.2696E-03     45.9851E-03    -11.0232E+06    -44.4082E+06    -1.84392E+06     266.229E+03    -27.6509E-03     54.2852E-03    -26.6343E-03     68.7605E-03    -27.7487E-03     54.1916E-03    -26.5632E-03     68.6284E-03
            1590     11.3934E-03     45.9222E-03    -11.2361E+06    -58.9803E+06     3.77102E+03     302.504E+03    -27.5338E-03     54.2028E-03    -26.6690E-03     63.4261E-03    -27.5792E-03     53.9989E-03    -26.5672E-03     63.3187E-03
            1591     10.5167E-03     45.8645E-03    -12.2482E+06    -70.8923E+06     781.962E+03     276.660E+03    -27.4613E-03     54.1547E-03    -26.6935E-03     58.5381E-03    -27.4729E-03     53.8690E-03    -26.5690E-03     58.4507E-03
            1592     9.64044E-03     45.8111E-03    -13.6031E+06    -79.0606E+06     1.75815E+06     383.514E+03    -27.3352E-03     54.0476E-03    -26.7125E-03     53.8700E-03    -27.3273E-03     53.7057E-03    -26.5693E-03     53.8016E-03
            1593     8.76397E-03     45.7619E-03    -15.0311E+06    -86.5525E+06     1.37735E+06     335.404E+03    -27.2284E-03     53.9525E-03    -26.7241E-03     49.2691E-03    -27.2053E-03     53.5648E-03    -26.5699E-03     49.2146E-03
            1594     7.88769E-03     45.7173E-03    -16.8444E+06    -93.8792E+06     551.535E+03     122.702E+03    -27.1102E-03     53.8447E-03    -26.7345E-03     44.5583E-03    -27.0766E-03     53.4164E-03    -26.5712E-03     44.5130E-03
            1595     7.01111E-03     45.6771E-03    -18.7834E+06    -98.3522E+06    -2.07201E+06     270.354E+03    -27.0139E-03     53.7468E-03    -26.7330E-03     39.8567E-03    -26.9741E-03     53.2972E-03    -26.5735E-03     39.8233E-03
            1596     6.13481E-03     45.6413E-03    -20.8364E+06    -102.369E+06    -6.29292E+06     257.835E+03    -26.9381E-03     53.6604E-03    -26.7224E-03     35.0049E-03    -26.8926E-03     53.1959E-03    -26.5752E-03     34.9794E-03
            1597     5.25833E-03     45.6104E-03    -22.9835E+06    -107.111E+06    -10.7033E+06     368.656E+03    -26.8623E-03     53.5735E-03    -26.7112E-03     30.1075E-03    -26.8116E-03     53.0920E-03    -26.5761E-03     30.0901E-03
            1598     4.38200E-03     45.5839E-03    -24.8311E+06    -111.230E+06    -15.5516E+06     324.157E+03    -26.7949E-03     53.4917E-03    -26.6968E-03     25.1545E-03    -26.7385E-03     52.9973E-03    -26.5772E-03     25.1419E-03
            1599     3.50556E-03     45.5623E-03    -26.6781E+06    -114.675E+06    -20.0985E+06     135.731E+03    -26.7374E-03     53.4212E-03    -26.6838E-03     20.1722E-03    -26.6773E-03     52.9175E-03    -26.5793E-03     20.1616E-03
            1600     2.62916E-03     45.5454E-03    -28.0488E+06    -117.231E+06    -24.0655E+06     113.426E+03    -26.7011E-03     53.3732E-03    -26.6721E-03     15.1964E-03    -26.6374E-03     52.8636E-03    -26.5818E-03     15.1892E-03
            1601     1.75276E-03     45.5333E-03    -29.1646E+06    -119.428E+06    -27.2195E+06     42.8369E+03    -26.6793E-03     53.3414E-03    -26.6621E-03     10.2594E-03    -26.6129E-03     52.8264E-03    -26.5827E-03     10.2544E-03
            1602     876.434E-06     45.5259E-03    -30.0109E+06    -119.853E+06    -29.3586E+06     91.3188E+03    -26.6609E-03     53.3111E-03    -26.6502E-03     5.57553E-03    -26.5947E-03     52.7981E-03    -26.5797E-03     5.57379E-03
            1603     16.6508E-03     45.4920E-03    -4.32017E+06     133.038E+06     82.9973E+06    -192.206E+03    -27.8956E-03     54.6057E-03    -26.7101E-03     107.122E-03    -29.3259E-03     56.2523E-03    -26.4818E-03     107.499E-03
            1604     15.7762E-03     45.3416E-03    -7.81713E+06     118.226E+06     38.4816E+06     228.721E+03    -29.6697E-03     56.2218E-03    -26.5521E-03     141.073E-03    -31.2993E-03     58.1318E-03    -26.5198E-03     141.179E-03
            1605     14.8987E-03     45.2226E-03    -9.48765E+06     75.6873E+06    -4.82385E+06     708.682E+03    -28.8481E-03     55.2719E-03    -26.4237E-03     112.588E-03    -29.6417E-03     56.3144E-03    -26.5438E-03     112.414E-03
            1606     14.0229E-03     45.1279E-03    -11.0008E+06     19.8250E+06    -10.4527E+06     557.645E+03    -28.2082E-03     54.6988E-03    -26.4906E-03     89.2918E-03    -28.5746E-03     55.1268E-03    -26.5556E-03     89.1065E-03
            1607     13.1458E-03     45.0530E-03    -10.7229E+06    -24.2393E+06    -6.35664E+06    -11.7991E+03    -27.8443E-03     54.4232E-03    -26.5789E-03     75.3580E-03    -28.0236E-03     54.4969E-03    -26.5600E-03     75.1931E-03
            1608     12.2698E-03     44.9848E-03    -10.5606E+06    -44.3793E+06    -1.70437E+06    -39.3447E+03    -27.7232E-03     54.3547E-03    -26.6316E-03     68.5607E-03    -27.8189E-03     54.2603E-03    -26.5604E-03     68.4243E-03
            1609     11.3932E-03     44.9227E-03    -11.4608E+06    -59.2789E+06    -131.052E+03     196.975E+03    -27.5693E-03     54.2310E-03    -26.6617E-03     63.3268E-03    -27.6152E-03     54.0262E-03    -26.5597E-03     63.2179E-03
            1610     10.5170E-03     44.8644E-03    -12.2818E+06    -70.8934E+06     985.604E+03     333.296E+03    -27.4900E-03     54.1735E-03    -26.6835E-03     58.4196E-03    -27.5021E-03     53.8875E-03    -26.5579E-03     58.3328E-03
            1611     9.64055E-03     44.8114E-03    -13.4376E+06    -78.9270E+06     1.99141E+06     276.547E+03    -27.3796E-03     54.0770E-03    -26.6973E-03     53.6839E-03    -27.3715E-03     53.7352E-03    -26.5535E-03     53.6139E-03
            1612     8.76423E-03     44.7620E-03    -14.9850E+06    -86.5596E+06     1.55279E+06     308.937E+03    -27.2015E-03     53.9078E-03    -26.7064E-03     49.1716E-03    -27.1783E-03     53.5197E-03    -26.5514E-03     49.1168E-03
            1613     7.88763E-03     44.7177E-03    -16.7601E+06    -93.8382E+06     462.369E+03     242.457E+03    -27.1146E-03     53.8289E-03    -26.7143E-03     44.5014E-03    -27.0804E-03     53.4007E-03    -26.5516E-03     44.4577E-03
            1614     7.01141E-03     44.6772E-03    -18.8855E+06    -98.6037E+06    -2.18781E+06     146.756E+03    -27.0243E-03     53.7340E-03    -26.7097E-03     39.7602E-03    -26.9845E-03     53.2834E-03    -26.5503E-03     39.7252E-03
            1615     6.13488E-03     44.6417E-03    -20.9821E+06    -102.401E+06    -6.31503E+06     340.820E+03    -26.9156E-03     53.6123E-03    -26.6967E-03     34.9334E-03    -26.8708E-03     53.1478E-03    -26.5494E-03     34.9090E-03
            1616     5.25853E-03     44.6105E-03    -22.9887E+06    -107.172E+06    -10.8844E+06     284.290E+03    -26.8489E-03     53.5319E-03    -26.6830E-03     30.0446E-03    -26.7978E-03     53.0503E-03    -26.5487E-03     30.0261E-03
            1617     4.38211E-03     44.5843E-03    -24.9362E+06    -111.103E+06    -15.4370E+06     325.226E+03    -26.7715E-03     53.4394E-03    -26.6679E-03     25.1091E-03    -26.7159E-03     52.9456E-03    -26.5478E-03     25.0966E-03
            1618     3.50567E-03     44.5626E-03    -26.6359E+06    -114.468E+06    -20.0734E+06     177.728E+03    -26.7147E-03     53.3669E-03    -26.6523E-03     20.1492E-03    -26.6547E-03     52.8642E-03    -26.5480E-03     20.1392E-03
            1619     2.62928E-03     44.5457E-03    -28.1324E+06    -117.275E+06    -24.0718E+06    -18.8829E+03    -26.6741E-03     53.3128E-03    -26.6387E-03     15.1624E-03    -26.6108E-03     52.8031E-03    -26.5482E-03     15.1535E-03
            1620     1.75284E-03     44.5337E-03    -29.2153E+06    -119.455E+06    -27.2301E+06     47.4411E+03    -26.6396E-03     53.2684E-03    -26.6289E-03     10.2389E-03    -26.5734E-03     52.7534E-03    -26.5494E-03     10.2339E-03
            1621     876.377E-06     44.5261E-03    -30.0082E+06    -119.836E+06    -29.4070E+06     11.8895E+03    -26.6230E-03     53.2475E-03    -26.6244E-03     5.57536E-03    -26.5568E-03     52.7346E-03    -26.5542E-03     5.57259E-03
            1622     16.6550E-03     44.4911E-03    -3.92842E+06     133.252E+06     82.7918E+06    -135.790E+03    -27.9043E-03     54.6074E-03    -26.7031E-03     106.804E-03    -29.3321E-03     56.2542E-03    -26.4766E-03     107.186E-03
            1623     15.7760E-03     44.3433E-03    -8.95589E+06     117.255E+06     37.4591E+06     860.153E+03    -29.5512E-03     56.0994E-03    -26.5482E-03     141.428E-03    -31.1868E-03     58.0108E-03    -26.5179E-03     141.549E-03
            1624     14.8994E-03     44.2220E-03    -11.9430E+06     75.9826E+06    -5.67513E+06     1.27108E+06    -28.9532E-03     55.3744E-03    -26.4212E-03     112.600E-03    -29.7583E-03     56.4233E-03    -26.5424E-03     112.431E-03
            1625     14.0224E-03     44.1285E-03    -10.8628E+06     21.1556E+06    -9.84027E+06    -237.979E+03    -28.2416E-03     54.7266E-03    -26.4850E-03     88.9850E-03    -28.6097E-03     55.1597E-03    -26.5491E-03     88.7890E-03
            1626     13.1465E-03     44.0528E-03    -10.1021E+06    -24.7078E+06    -6.01456E+06    -706.115E+03    -27.8917E-03     54.4618E-03    -26.5702E-03     75.2315E-03    -28.0676E-03     54.5317E-03    -26.5498E-03     75.0574E-03
            1627     12.2698E-03     43.9852E-03    -10.6039E+06      -44.86E+06    -1.63700E+06     50.6823E+03    -27.7380E-03     54.3571E-03    -26.6191E-03     68.3497E-03    -27.8331E-03     54.2601E-03    -26.5469E-03     68.2143E-03
            1628     11.3936E-03     43.9226E-03    -11.3057E+06    -59.4525E+06     97.0485E+03     231.243E+03    -27.6124E-03     54.2579E-03    -26.6455E-03     63.1470E-03    -27.6577E-03     54.0518E-03    -26.5424E-03     63.0381E-03
            1629     10.5170E-03     43.8648E-03    -12.3018E+06    -70.8992E+06     949.624E+03     192.605E+03    -27.4899E-03     54.1524E-03    -26.6626E-03     58.3783E-03    -27.5019E-03     53.8664E-03    -26.5372E-03     58.2898E-03
            1630     9.64087E-03     43.8112E-03    -13.4321E+06    -79.0800E+06     2.02397E+06     261.420E+03    -27.3541E-03     54.0302E-03    -26.6761E-03     53.5923E-03    -27.3457E-03     53.6875E-03    -26.5319E-03     53.5222E-03
            1631     8.76435E-03     43.7627E-03    -15.0417E+06    -86.4891E+06     1.66930E+06     323.611E+03    -27.2280E-03     53.9107E-03    -26.6827E-03     49.0676E-03    -27.2054E-03     53.5228E-03    -26.5271E-03     49.0129E-03
            1632     7.88802E-03     43.7176E-03    -16.9069E+06    -93.8630E+06     534.229E+03     234.302E+03    -27.1100E-03     53.7965E-03    -26.6865E-03     44.4290E-03    -27.0766E-03     53.3683E-03    -26.5232E-03     44.3853E-03
            1633     7.01153E-03     43.6777E-03    -18.8413E+06    -98.7385E+06    -2.12904E+06     202.924E+03    -27.0034E-03     53.6830E-03    -26.6795E-03     39.6546E-03    -26.9632E-03     53.2315E-03    -26.5197E-03     39.6203E-03
            1634     6.13516E-03     43.6419E-03    -20.9338E+06    -102.536E+06    -6.18344E+06     230.390E+03    -26.8999E-03     53.5648E-03    -26.6649E-03     34.8862E-03    -26.8548E-03     53.0993E-03    -26.5168E-03     34.8605E-03
            1635     5.25870E-03     43.6109E-03    -22.9557E+06    -107.137E+06    -10.8040E+06     347.657E+03    -26.8094E-03     53.4594E-03    -26.6499E-03     29.9913E-03    -26.7583E-03     52.9777E-03    -26.5153E-03     29.9738E-03
            1636     4.38222E-03     43.5846E-03    -24.8756E+06    -111.072E+06    -15.4852E+06     233.853E+03    -26.7483E-03     53.3818E-03    -26.6335E-03     25.0587E-03    -26.6924E-03     52.8881E-03    -26.5138E-03     25.0451E-03
            1637     3.50583E-03     43.5630E-03    -26.6464E+06    -114.211E+06    -19.9919E+06     182.900E+03    -26.6891E-03     53.3047E-03    -26.6156E-03     20.0991E-03    -26.6296E-03     52.8032E-03    -26.5113E-03     20.0892E-03
            1638     2.62934E-03     43.5462E-03    -28.2254E+06    -117.241E+06    -24.2675E+06     86.3044E+03    -26.6363E-03     53.2357E-03    -26.5994E-03     15.1366E-03    -26.5732E-03     52.7266E-03    -26.5098E-03     15.1291E-03
            1639     1.75292E-03     43.5340E-03    -29.5496E+06    -119.582E+06    -27.4886E+06     14.5352E+03    -26.6024E-03     53.1912E-03    -26.5888E-03     10.2212E-03    -26.5373E-03     52.6765E-03    -26.5101E-03     10.2159E-03
            1640     876.473E-06     43.5267E-03    -30.3408E+06    -119.831E+06    -29.8458E+06     106.830E+03    -26.5697E-03     53.1642E-03    -26.5945E-03     5.57580E-03    -26.5045E-03     52.6525E-03    -26.5260E-03     5.57429E-03
            1641     16.6524E-03     43.4948E-03    -5.32395E+06     131.637E+06     81.5585E+06     898.433E+03    -27.9716E-03     54.6853E-03    -26.7136E-03     107.742E-03    -29.4099E-03     56.3354E-03    -26.4890E-03     108.128E-03
            1642     15.7753E-03     43.3420E-03    -10.3854E+06     117.266E+06     39.4829E+06     1.70422E+06    -30.0578E-03     56.6185E-03    -26.5607E-03     142.066E-03    -31.7125E-03     58.5381E-03    -26.5182E-03     142.185E-03
            1643     14.8994E-03     43.2226E-03    -9.77210E+06     77.9399E+06    -916.999E+03    -537.720E+03    -29.0876E-03     55.5086E-03    -26.4210E-03     112.033E-03    -29.8906E-03     56.5563E-03    -26.5245E-03     111.839E-03
            1644     14.0232E-03     43.1283E-03    -8.46099E+06     21.2309E+06    -8.54885E+06    -1.03412E+06    -28.2453E-03     54.7087E-03    -26.4634E-03     88.7140E-03    -28.6025E-03     55.1361E-03    -26.5247E-03     88.5082E-03
            1645     13.1463E-03     43.0530E-03    -9.35071E+06    -25.2756E+06    -5.96238E+06     128.112E+03    -27.8549E-03     54.3999E-03    -26.5449E-03     74.9045E-03    -28.0258E-03     54.4651E-03    -26.5245E-03     74.7415E-03
            1646     12.2703E-03     42.9851E-03    -10.6301E+06    -45.1287E+06    -1.79311E+06     171.781E+03    -27.6842E-03     54.2789E-03    -26.5947E-03     68.2785E-03    -27.7788E-03     54.1807E-03    -26.5228E-03     68.1449E-03
            1647     11.3937E-03     42.9229E-03    -11.2820E+06    -59.4421E+06    -100.857E+03     109.918E+03    -27.6219E-03     54.2418E-03    -26.6199E-03     63.0741E-03    -27.6667E-03     54.0359E-03    -26.5179E-03     62.9637E-03
            1648     10.5176E-03     42.8648E-03    -12.2330E+06    -71.3997E+06     691.309E+03     162.894E+03    -27.4599E-03     54.0960E-03    -26.6361E-03     58.2563E-03    -27.4704E-03     53.8076E-03    -26.5113E-03     58.1675E-03
            1649     9.64088E-03     42.8117E-03    -13.6643E+06    -79.5445E+06     1.69617E+06     201.147E+03    -27.3330E-03     53.9825E-03    -26.6494E-03     53.5338E-03    -27.3245E-03     53.6381E-03    -26.5058E-03     53.4631E-03
            1650     8.76467E-03     42.7626E-03    -15.0248E+06    -86.2725E+06     1.93831E+06     393.313E+03    -27.2477E-03     53.9025E-03    -26.6547E-03     48.9604E-03    -27.2257E-03     53.5152E-03    -26.4982E-03     48.9066E-03
            1651     7.88827E-03     42.7182E-03    -16.9337E+06    -93.6222E+06     628.446E+03     336.753E+03    -27.0976E-03     53.7514E-03    -26.6539E-03     44.3793E-03    -27.0647E-03     53.3243E-03    -26.4904E-03     44.3370E-03
            1652     7.01180E-03     42.6779E-03    -19.0350E+06    -98.7865E+06    -2.30536E+06     146.604E+03    -26.9764E-03     53.6209E-03    -26.6444E-03     39.6285E-03    -26.9368E-03     53.1696E-03    -26.4851E-03     39.5937E-03
            1653     6.13537E-03     42.6423E-03    -21.0939E+06    -102.668E+06    -6.24176E+06     238.951E+03    -26.8769E-03     53.5058E-03    -26.6288E-03     34.8105E-03    -26.8323E-03     53.0399E-03    -26.4806E-03     34.7850E-03
            1654     5.25887E-03     42.6114E-03    -23.1484E+06    -107.149E+06    -10.8652E+06     225.884E+03    -26.7876E-03     53.3987E-03    -26.6111E-03     29.9400E-03    -26.7373E-03     52.9173E-03    -26.4765E-03     29.9210E-03
            1655     4.38245E-03     42.5850E-03    -25.0092E+06    -110.941E+06    -15.6084E+06     194.417E+03    -26.7161E-03     53.3075E-03    -26.5914E-03     24.9937E-03    -26.6608E-03     52.8149E-03    -26.4723E-03     24.9797E-03
            1656     3.50595E-03     42.5635E-03    -26.7353E+06    -114.258E+06    -20.1893E+06     176.557E+03    -26.6457E-03     53.2180E-03    -26.5723E-03     20.0406E-03    -26.5863E-03     52.7166E-03    -26.4688E-03     20.0307E-03
            1657     2.62949E-03     42.5466E-03    -28.2518E+06    -117.142E+06    -24.3479E+06     233.691E+03    -26.5950E-03     53.1510E-03    -26.5560E-03     15.0971E-03    -26.5321E-03     52.6426E-03    -26.4669E-03     15.0916E-03
            1658     1.75297E-03     42.5346E-03    -29.5386E+06    -119.575E+06    -27.5834E+06     176.607E+03    -26.5635E-03     53.1072E-03    -26.5437E-03     10.1896E-03    -26.4983E-03     52.5926E-03    -26.4654E-03     10.1864E-03
            1659     876.482E-06     42.5271E-03    -30.4635E+06    -119.727E+06    -29.7482E+06     126.779E+03    -26.5395E-03     53.0715E-03    -26.5320E-03     5.56741E-03    -26.4752E-03     52.5603E-03    -26.4630E-03     5.56618E-03
            1660     16.6517E-03     42.4933E-03    -5.59323E+06     131.368E+06     83.1685E+06     1.32960E+06    -28.6018E-03     55.2990E-03    -26.6972E-03     105.722E-03    -30.0287E-03     56.9312E-03    -26.4637E-03     106.100E-03
            1661     15.7770E-03     42.3417E-03    -6.94860E+06     119.641E+06     42.4071E+06    -918.726E+03    -29.9525E-03     56.4721E-03    -26.5197E-03     140.348E-03    -31.5873E-03     58.3841E-03    -26.4711E-03     140.434E-03
            1662     14.9002E-03     42.2227E-03    -7.07698E+06     77.8676E+06    -1.07789E+06    -1.29034E+06    -28.7549E-03     55.1306E-03    -26.3757E-03     111.655E-03    -29.5437E-03     56.1738E-03    -26.4837E-03     111.455E-03
            1663     14.0234E-03     42.1283E-03    -8.98842E+06     20.0155E+06    -8.99369E+06     565.665E+03    -28.1776E-03     54.6102E-03    -26.4326E-03     88.8753E-03    -28.5360E-03     55.0338E-03    -26.4935E-03     88.6904E-03
            1664     13.1475E-03     42.0533E-03    -10.3490E+06    -25.2620E+06    -6.42782E+06     748.567E+03    -27.8387E-03     54.3522E-03    -26.5136E-03     74.8932E-03    -28.0140E-03     54.4198E-03    -26.4941E-03     74.7380E-03
            1665     12.2704E-03     41.9856E-03    -10.5012E+06    -44.9519E+06    -1.72710E+06     173.386E+03    -27.6459E-03     54.2096E-03    -26.5637E-03     68.2456E-03    -27.7400E-03     54.1119E-03    -26.4920E-03     68.1124E-03
            1666     11.3942E-03     41.9227E-03    -11.4044E+06    -59.8486E+06    -249.101E+03     147.351E+03    -27.5352E-03     54.1269E-03    -26.5916E-03     63.0408E-03    -27.5794E-03     53.9188E-03    -26.4895E-03     62.9316E-03
            1667     10.5176E-03     41.8653E-03    -12.4488E+06    -71.3390E+06     761.548E+03     120.700E+03    -27.4686E-03     54.0775E-03    -26.6089E-03     58.2026E-03    -27.4803E-03     53.7895E-03    -26.4836E-03     58.1134E-03
            1668     9.64145E-03     41.8118E-03    -13.4952E+06    -79.4037E+06     1.77245E+06     197.946E+03    -27.3387E-03     53.9569E-03    -26.6182E-03     53.4972E-03    -27.3295E-03     53.6128E-03    -26.4747E-03     53.4267E-03
            1669     8.76492E-03     41.7629E-03    -15.1178E+06    -86.8587E+06     1.69873E+06     222.384E+03    -27.2030E-03     53.8254E-03    -26.6223E-03     48.9092E-03    -27.1801E-03     53.4355E-03    -26.4660E-03     48.8536E-03
            1670     7.88846E-03     41.7184E-03    -16.7346E+06    -93.4530E+06     957.410E+03     411.908E+03    -27.0986E-03     53.7199E-03    -26.6213E-03     44.2830E-03    -27.0654E-03     53.2928E-03    -26.4568E-03     44.2418E-03
            1671     7.01209E-03     41.6783E-03    -18.8985E+06    -98.6161E+06    -2.19003E+06     313.066E+03    -26.9657E-03     53.5729E-03    -26.6072E-03     39.5514E-03    -26.9258E-03     53.1221E-03    -26.4477E-03     39.5190E-03
            1672     6.13558E-03     41.6428E-03    -21.1362E+06    -102.729E+06    -6.30591E+06     144.242E+03    -26.8598E-03     53.4475E-03    -26.5877E-03     34.7371E-03    -26.8152E-03     52.9815E-03    -26.4397E-03     34.7105E-03
            1673     5.25916E-03     41.6117E-03    -23.1379E+06    -107.175E+06    -10.9360E+06     167.341E+03    -26.7704E-03     53.3359E-03    -26.5656E-03     29.8564E-03    -26.7199E-03     52.8545E-03    -26.4313E-03     29.8367E-03
            1674     4.38263E-03     41.5856E-03    -25.0625E+06    -110.934E+06    -15.8680E+06     138.761E+03    -26.6708E-03     53.2130E-03    -26.5422E-03     24.9288E-03    -26.6154E-03     52.7209E-03    -26.4244E-03     24.9142E-03
            1675     3.50613E-03     41.5640E-03    -26.7461E+06    -114.399E+06    -20.3129E+06     176.477E+03    -26.6034E-03     53.1262E-03    -26.5227E-03     19.9832E-03    -26.5437E-03     52.6243E-03    -26.4196E-03     19.9734E-03
            1676     2.62959E-03     41.5473E-03    -28.2145E+06    -117.182E+06    -24.2969E+06     293.860E+03    -26.5565E-03     53.0604E-03    -26.5039E-03     15.0415E-03    -26.4934E-03     52.5516E-03    -26.4145E-03     15.0368E-03
            1677     1.75309E-03     41.5351E-03    -29.3313E+06    -119.260E+06    -27.3822E+06     240.108E+03    -26.5186E-03     53.0044E-03    -26.4858E-03     10.1321E-03    -26.4530E-03     52.4908E-03    -26.4073E-03     10.1298E-03
            1678     876.553E-06     41.5278E-03    -30.0968E+06    -119.614E+06    -29.5453E+06     84.8647E+03    -26.4874E-03     52.9503E-03    -26.4629E-03     5.53040E-03    -26.4218E-03     52.4389E-03    -26.3936E-03     5.52863E-03
            1679     16.6577E-03     41.4941E-03    -4.20574E+06     132.957E+06     83.8743E+06    -413.814E+03    -29.1443E-03     55.7905E-03    -26.6462E-03     105.654E-03    -30.5800E-03     57.4401E-03    -26.4135E-03     106.013E-03
            1680     15.7783E-03     41.3431E-03    -4.49874E+06     120.207E+06     40.5977E+06    -1.17987E+06    -29.3539E-03     55.8128E-03    -26.4589E-03     141.941E-03    -30.9901E-03     57.7420E-03    -26.4237E-03     142.041E-03
            1681     14.9006E-03     41.2233E-03    -8.89490E+06     75.3820E+06    -5.29789E+06     1.18673E+06    -28.6269E-03     54.9642E-03    -26.3373E-03     112.962E-03    -29.4166E-03     56.0054E-03    -26.4602E-03     112.795E-03
            1682     14.0239E-03     41.1286E-03    -10.6047E+06     20.1374E+06    -9.19112E+06     1.41260E+06    -28.1558E-03     54.5719E-03    -26.4162E-03     89.1972E-03    -28.5226E-03     54.9993E-03    -26.4759E-03     89.0230E-03
            1683     13.1469E-03     41.0534E-03    -10.2128E+06    -24.4999E+06    -5.66995E+06     321.884E+03    -27.8486E-03     54.3469E-03    -26.4983E-03     75.2256E-03    -28.0253E-03     54.4169E-03    -26.4763E-03     75.0651E-03
            1684     12.2713E-03     40.9857E-03    -10.3568E+06    -44.9211E+06    -1.42973E+06     176.020E+03    -27.7281E-03     54.2714E-03    -26.5432E-03     68.4359E-03    -27.8221E-03     54.1732E-03    -26.4702E-03     68.3023E-03
            1685     11.3943E-03     40.9234E-03    -11.0322E+06    -59.9483E+06    -14.1970E+03     200.383E+03    -27.5417E-03     54.1079E-03    -26.5662E-03     63.1500E-03    -27.5840E-03     53.8982E-03    -26.4633E-03     63.0419E-03
            1686     10.5181E-03     40.8652E-03    -12.0842E+06    -71.3130E+06     1.07011E+06     177.710E+03    -27.4510E-03     54.0332E-03    -26.5823E-03     58.2378E-03    -27.4610E-03     53.7441E-03    -26.4560E-03     58.1497E-03
            1687     9.64162E-03     40.8122E-03    -13.2714E+06    -79.2616E+06     1.89045E+06     269.748E+03    -27.3443E-03     53.9331E-03    -26.5888E-03     53.4703E-03    -27.3342E-03     53.5891E-03    -26.4452E-03     53.4010E-03
            1688     8.76518E-03     40.7634E-03    -14.8395E+06    -87.1349E+06     1.42714E+06     180.702E+03    -27.2275E-03     53.8146E-03    -26.5871E-03     48.8882E-03    -27.2022E-03     53.4232E-03    -26.4321E-03     48.8323E-03
            1689     7.88885E-03     40.7187E-03    -16.7805E+06    -93.8091E+06     895.569E+03     326.766E+03    -27.0931E-03     53.6760E-03    -26.5829E-03     44.1450E-03    -27.0594E-03     53.2472E-03    -26.4181E-03     44.1029E-03
            1690     7.01235E-03     40.6789E-03    -18.7301E+06    -98.2733E+06    -1.97021E+06     499.750E+03    -26.9563E-03     53.5209E-03    -26.5646E-03     39.4347E-03    -26.9163E-03     53.0712E-03    -26.4048E-03     39.4048E-03
            1691     6.13590E-03     40.6431E-03    -20.9368E+06    -102.626E+06    -6.32197E+06     246.902E+03    -26.8482E-03     53.3876E-03    -26.5394E-03     34.6472E-03    -26.8027E-03     52.9218E-03    -26.3918E-03     34.6221E-03
            1692     5.25940E-03     40.6124E-03    -23.0767E+06    -107.167E+06    -10.9457E+06     90.1706E+03    -26.7329E-03     53.2466E-03    -26.5137E-03     29.7415E-03    -26.6821E-03     52.7651E-03    -26.3795E-03     29.7210E-03
            1693     4.38288E-03     40.5861E-03    -24.9698E+06    -111.007E+06    -15.9869E+06     165.533E+03    -26.6355E-03     53.1220E-03    -26.4865E-03     24.8371E-03    -26.5793E-03     52.6294E-03    -26.3693E-03     24.8229E-03
            1694     3.50632E-03     40.5647E-03    -26.8218E+06    -114.510E+06    -20.4572E+06     276.511E+03    -26.5619E-03     53.0247E-03    -26.4628E-03     19.8973E-03    -26.5022E-03     52.5225E-03    -26.3601E-03     19.8888E-03
            1695     2.62979E-03     40.5479E-03    -28.3506E+06    -117.083E+06    -24.2959E+06     261.550E+03    -26.5014E-03     52.9418E-03    -26.4405E-03     14.9784E-03    -26.4391E-03     52.4337E-03    -26.3511E-03     14.9733E-03
            1696     1.75321E-03     40.5359E-03    -29.4468E+06    -119.072E+06    -27.4260E+06     161.375E+03    -26.4603E-03     52.8782E-03    -26.4179E-03     10.0997E-03    -26.3955E-03     52.3657E-03    -26.3396E-03     10.0963E-03
            1697     876.631E-06     40.5284E-03    -30.1573E+06    -119.501E+06    -29.5764E+06     50.2037E+03    -26.4096E-03     52.8090E-03    -26.3994E-03     5.46560E-03    -26.3444E-03     52.2983E-03    -26.3303E-03     5.46338E-03
            1698     16.6522E-03     40.4928E-03    -4.38594E+06     132.310E+06     81.8866E+06    -1.46146E+06    -28.2830E-03     54.9727E-03    -26.6897E-03     107.444E-03    -29.7247E-03     56.6312E-03    -26.4658E-03     107.791E-03
            1699     15.7767E-03     40.3451E-03    -9.20805E+06     116.492E+06     37.2426E+06     1.04349E+06    -30.3350E-03     56.8436E-03    -26.5086E-03     143.030E-03    -31.9864E-03     58.7679E-03    -26.4780E-03     143.127E-03
            1700     14.8999E-03     40.2226E-03    -11.1128E+06     75.7807E+06    -4.56675E+06     2.00309E+06    -29.1261E-03     55.4871E-03    -26.3610E-03     113.692E-03    -29.9313E-03     56.5352E-03    -26.4776E-03     113.531E-03
            1701     14.0239E-03     40.1291E-03    -9.91060E+06     20.9889E+06    -9.42813E+06     291.358E+03    -28.3125E-03     54.7248E-03    -26.4123E-03     89.2228E-03    -28.6754E-03     55.1543E-03    -26.4755E-03     89.0335E-03
            1702     13.1476E-03     40.0536E-03    -9.28103E+06    -24.5813E+06    -5.62406E+06     59.7483E+03    -27.8710E-03     54.3626E-03    -26.4916E-03     75.4125E-03    -28.0423E-03     54.4300E-03    -26.4706E-03     75.2494E-03
            1703     12.2705E-03     39.9857E-03    -9.94138E+06    -44.7282E+06    -1.30368E+06     331.245E+03    -27.7814E-03     54.3160E-03    -26.5346E-03     68.4383E-03    -27.8731E-03     54.2174E-03    -26.4619E-03     68.3070E-03
            1704     11.3949E-03     39.9237E-03    -10.7388E+06    -59.5447E+06     40.5459E+03     256.922E+03    -27.6946E-03     54.2431E-03    -26.5485E-03     63.2007E-03    -27.7363E-03     54.0351E-03    -26.4464E-03     63.0927E-03
            1705     10.5183E-03     39.8656E-03    -11.6705E+06    -71.5988E+06     800.976E+03     314.225E+03    -27.5144E-03     54.0681E-03    -26.5537E-03     58.2056E-03    -27.5213E-03     53.7771E-03    -26.4290E-03     58.1195E-03
            1706     9.64181E-03     39.8125E-03    -13.2209E+06    -79.6303E+06     1.72194E+06     360.766E+03    -27.3732E-03     53.9279E-03    -26.5548E-03     53.2972E-03    -27.3619E-03     53.5820E-03    -26.4115E-03     53.2291E-03
            1707     8.76560E-03     39.7635E-03    -14.7610E+06    -86.8471E+06     1.34721E+06     385.987E+03    -27.2452E-03     53.7916E-03    -26.5464E-03     48.7041E-03    -27.2198E-03     53.4015E-03    -26.3923E-03     48.6509E-03
            1708     7.88915E-03     39.7193E-03    -16.5395E+06    -94.0254E+06     610.806E+03     344.308E+03    -27.0872E-03     53.6235E-03    -26.5363E-03     44.0179E-03    -27.0515E-03     53.1935E-03    -26.3730E-03     43.9762E-03
            1709     7.01271E-03     39.6792E-03    -18.6236E+06    -98.2665E+06    -1.98528E+06     519.342E+03    -26.9603E-03     53.4737E-03    -26.5134E-03     39.3087E-03    -26.9196E-03     53.0239E-03    -26.3538E-03     39.2791E-03
            1710     6.13626E-03     39.6438E-03    -20.7156E+06    -102.283E+06    -6.29459E+06     435.567E+03    -26.8208E-03     53.3028E-03    -26.4820E-03     34.4864E-03    -26.7747E-03     52.8383E-03    -26.3351E-03     34.4639E-03
            1711     5.25971E-03     39.6129E-03    -22.8950E+06    -107.135E+06    -11.0277E+06     207.653E+03    -26.6971E-03     53.1488E-03    -26.4517E-03     29.6022E-03    -26.6452E-03     52.6673E-03    -26.3183E-03     29.5832E-03
            1712     4.38317E-03     39.5869E-03    -25.0878E+06    -111.217E+06    -15.9666E+06     337.500E+03    -26.5958E-03     53.0166E-03    -26.4208E-03     24.7076E-03    -26.5399E-03     52.5231E-03    -26.3029E-03     24.6956E-03
            1713     3.50660E-03     39.5654E-03    -26.9036E+06    -114.354E+06    -20.4448E+06     375.117E+03    -26.5014E-03     52.8935E-03    -26.3921E-03     19.8065E-03    -26.4422E-03     52.3922E-03    -26.2895E-03     19.7994E-03
            1714     2.62997E-03     39.5488E-03    -28.3424E+06    -116.929E+06    -24.2808E+06     159.604E+03    -26.4274E-03     52.7959E-03    -26.3684E-03     14.9148E-03    -26.3653E-03     52.2885E-03    -26.2792E-03     14.9085E-03
            1715     1.75331E-03     39.5367E-03    -29.4221E+06    -119.008E+06    -27.3908E+06     54.7172E+03    -26.3792E-03     52.7285E-03    -26.3493E-03     10.0670E-03    -26.3145E-03     52.2163E-03    -26.2710E-03     10.0623E-03
            1716     876.682E-06     39.5294E-03    -30.0908E+06    -119.384E+06    -29.5395E+06    -29.8729E+03    -26.3365E-03     52.6779E-03    -26.3415E-03     5.40912E-03    -26.2711E-03     52.1676E-03    -26.2724E-03     5.40586E-03
            1717     16.6501E-03     39.4899E-03    -5.05719E+06     130.974E+06     81.6297E+06     332.929E+03    -27.5241E-03     54.2353E-03    -26.7111E-03     105.912E-03    -28.9370E-03     55.8585E-03    -26.4856E-03     106.291E-03
            1718     15.7755E-03     39.3437E-03    -11.3287E+06     115.621E+06     38.4294E+06     575.824E+03    -30.4560E-03     57.0049E-03    -26.5489E-03     140.426E-03    -32.0922E-03     58.8998E-03    -26.5080E-03     140.520E-03
            1719     14.9003E-03     39.2227E-03    -10.3206E+06     76.9105E+06    -2.18667E+06    -647.117E+03    -29.4497E-03     55.8308E-03    -26.3811E-03     112.539E-03    -30.2556E-03     56.8794E-03    -26.4886E-03     112.338E-03
            1720     14.0235E-03     39.1290E-03    -9.15629E+06     20.8696E+06    -9.84098E+06    -73.2133E+03    -28.3723E-03     54.7789E-03    -26.4066E-03     88.9418E-03    -28.7290E-03     55.2058E-03    -26.4728E-03     88.7481E-03
            1721     13.1471E-03     39.0538E-03    -9.72014E+06    -24.7991E+06    -6.49346E+06     383.488E+03    -28.0339E-03     54.5110E-03    -26.4770E-03     75.0464E-03    -28.2059E-03     54.5793E-03    -26.4595E-03     74.8863E-03
            1722     12.2714E-03     38.9860E-03    -10.2469E+06    -44.9864E+06    -2.00171E+06     277.111E+03    -27.7931E-03     54.3062E-03    -26.5131E-03     68.1659E-03    -27.8845E-03     54.2073E-03    -26.4430E-03     68.0342E-03
            1723     11.3945E-03     38.9234E-03    -11.1174E+06    -59.6428E+06    -298.063E+03     457.596E+03    -27.7354E-03     54.2597E-03    -26.5243E-03     62.8802E-03    -27.7782E-03     54.0522E-03    -26.4232E-03     62.7745E-03
            1724     10.5187E-03     38.8659E-03    -12.2698E+06    -71.4078E+06     423.419E+03     434.436E+03    -27.6475E-03     54.1664E-03    -26.5189E-03     57.9358E-03    -27.6572E-03     53.8778E-03    -26.3955E-03     57.8506E-03
            1725     9.64248E-03     38.8127E-03    -13.5014E+06    -79.7481E+06     1.54921E+06     357.486E+03    -27.4269E-03     53.9357E-03    -26.5087E-03     53.0809E-03    -27.4166E-03     53.5898E-03    -26.3658E-03     53.0127E-03
            1726     8.76599E-03     38.7640E-03    -15.0796E+06    -86.9325E+06     1.31663E+06     479.648E+03    -27.2013E-03     53.6968E-03    -26.4955E-03     48.4747E-03    -27.1771E-03     53.3067E-03    -26.3410E-03     48.4228E-03
            1727     7.88954E-03     38.7197E-03    -16.8900E+06    -94.0351E+06     120.247E+03     377.401E+03    -27.0793E-03     53.5587E-03    -26.4795E-03     43.8587E-03    -27.0445E-03     53.1298E-03    -26.3180E-03     43.8175E-03
            1728     7.01318E-03     38.6798E-03    -18.7017E+06    -98.5238E+06    -2.31973E+06     302.198E+03    -26.9494E-03     53.4005E-03    -26.4511E-03     39.1212E-03    -26.9083E-03     52.9499E-03    -26.2927E-03     39.0889E-03
            1729     6.13665E-03     38.6444E-03    -20.5641E+06    -102.043E+06    -6.08775E+06     466.080E+03    -26.7886E-03     53.2038E-03    -26.4152E-03     34.3101E-03    -26.7423E-03     52.7399E-03    -26.2678E-03     34.2880E-03
            1730     5.26012E-03     38.6137E-03    -22.7978E+06    -107.149E+06    -10.8157E+06     602.479E+03    -26.6544E-03     53.0344E-03    -26.3800E-03     29.4503E-03    -26.6023E-03     52.5523E-03    -26.2456E-03     29.4366E-03
            1731     4.38352E-03     38.5877E-03    -24.9682E+06    -111.252E+06    -15.6697E+06     573.009E+03    -26.5319E-03     52.8772E-03    -26.3454E-03     24.5797E-03    -26.4758E-03     52.3830E-03    -26.2262E-03     24.5709E-03
            1732     3.50687E-03     38.5664E-03    -26.7805E+06    -114.054E+06    -20.1637E+06     307.282E+03    -26.4280E-03     52.7419E-03    -26.3139E-03     19.7112E-03    -26.3691E-03     52.2415E-03    -26.2105E-03     19.7033E-03
            1733     2.63018E-03     38.5497E-03    -28.1663E+06    -116.742E+06    -24.2867E+06     84.3780E+03    -26.3503E-03     52.6377E-03    -26.2874E-03     14.8339E-03    -26.2876E-03     52.1310E-03    -26.1987E-03     14.8266E-03
            1734     1.75348E-03     38.5377E-03    -29.2742E+06    -119.056E+06    -27.4441E+06     18.2269E+03    -26.2834E-03     52.5564E-03    -26.2730E-03     10.0032E-03    -26.2178E-03     52.0438E-03    -26.1951E-03     9.99807E-03
            1735     876.699E-06     38.5304E-03    -30.0610E+06    -119.382E+06    -29.5554E+06    -4.68613E+03    -26.2540E-03     52.5363E-03    -26.2823E-03     5.42598E-03    -26.1885E-03     52.0260E-03    -26.2134E-03     5.42310E-03
            1736     16.6580E-03     38.4977E-03    -4.78395E+06     131.651E+06     83.3694E+06     1.15881E+06    -28.5556E-03     55.2376E-03    -26.6820E-03     107.799E-03    -29.9987E-03     56.8893E-03    -26.4491E-03     108.178E-03
            1737     15.7764E-03     38.3406E-03    -7.37259E+06     118.443E+06     40.9368E+06    -346.413E+03    -29.9985E-03     56.5026E-03    -26.5040E-03     141.302E-03    -31.6434E-03     58.4230E-03    -26.4604E-03     141.393E-03
            1738     14.9005E-03     38.2237E-03    -9.50982E+06     75.8502E+06    -3.77015E+06    -1.07987E+06    -29.2201E-03     55.5635E-03    -26.3434E-03     111.282E-03    -30.0109E-03     56.6007E-03    -26.4585E-03     111.077E-03
            1739     14.0239E-03     38.1286E-03    -10.4980E+06     19.7631E+06    -9.85948E+06    -94.8045E+03    -28.4040E-03     54.7851E-03    -26.3811E-03     88.4786E-03    -28.7664E-03     55.2090E-03    -26.4438E-03     88.2832E-03
            1740     13.1482E-03     38.0538E-03    -10.1772E+06    -24.4791E+06    -6.02218E+06     322.874E+03    -28.0287E-03     54.4748E-03    -26.4461E-03     74.5281E-03    -28.2037E-03     54.5442E-03    -26.4260E-03     74.3669E-03
            1741     12.2714E-03     37.9861E-03    -10.6278E+06    -45.2441E+06    -1.87452E+06     415.163E+03    -27.8746E-03     54.3493E-03    -26.4747E-03     67.8763E-03    -27.9680E-03     54.2498E-03    -26.4030E-03     67.7456E-03
            1742     11.3956E-03     37.9238E-03    -11.6615E+06    -60.0037E+06    -221.659E+03     466.902E+03    -27.7169E-03     54.1967E-03    -26.4797E-03     62.6018E-03    -27.7617E-03     53.9877E-03    -26.3769E-03     62.4964E-03
            1743     10.5190E-03     37.8658E-03    -12.6137E+06    -71.1797E+06     613.281E+03     499.542E+03    -27.5930E-03     54.0652E-03    -26.4721E-03     57.6951E-03    -27.6048E-03     53.7776E-03    -26.3476E-03     57.6112E-03
            1744     9.64290E-03     37.8130E-03    -13.6494E+06    -79.7174E+06     1.53436E+06     327.996E+03    -27.4383E-03     53.8961E-03    -26.4577E-03     52.9015E-03    -27.4286E-03     53.5504E-03    -26.3147E-03     52.8329E-03
            1745     8.76657E-03     37.7646E-03    -15.0406E+06    -87.0160E+06     1.53100E+06     371.287E+03    -27.2425E-03     53.6797E-03    -26.4372E-03     48.3066E-03    -27.2182E-03     53.2886E-03    -26.2815E-03     48.2535E-03
            1746     7.89015E-03     37.7201E-03    -16.8226E+06    -93.8153E+06     483.902E+03     423.297E+03    -27.0599E-03     53.4732E-03    -26.4133E-03     43.6994E-03    -27.0256E-03     53.0447E-03    -26.2504E-03     43.6591E-03
            1747     7.01363E-03     37.6804E-03    -18.8575E+06    -98.5254E+06    -2.38762E+06     186.227E+03    -26.9039E-03     53.2823E-03    -26.3785E-03     38.9187E-03    -26.8633E-03     52.8320E-03    -26.2202E-03     38.8852E-03
            1748     6.13715E-03     37.6452E-03    -20.9717E+06    -102.422E+06    -6.22908E+06     339.839E+03    -26.7432E-03     53.0817E-03    -26.3386E-03     34.1332E-03    -26.6981E-03     52.6167E-03    -26.1908E-03     34.1097E-03
            1749     5.26055E-03     37.6146E-03    -22.8491E+06    -107.264E+06    -10.6352E+06     717.716E+03    -26.5942E-03     52.8937E-03    -26.2995E-03     29.2973E-03    -26.5424E-03     52.4108E-03    -26.1640E-03     29.2852E-03
            1750     4.38388E-03     37.5887E-03    -24.6989E+06    -110.833E+06    -15.3611E+06     601.045E+03    -26.4598E-03     52.7206E-03    -26.2608E-03     24.4389E-03    -26.4033E-03     52.2275E-03    -26.1411E-03     24.4306E-03
            1751     3.50717E-03     37.5674E-03    -26.4099E+06    -113.729E+06    -19.9085E+06     315.888E+03    -26.3483E-03     52.5749E-03    -26.2266E-03     19.5986E-03    -26.2884E-03     52.0752E-03    -26.1229E-03     19.5910E-03
            1752     2.63043E-03     37.5508E-03    -28.0437E+06    -116.726E+06    -24.2879E+06     216.560E+03    -26.2631E-03     52.4614E-03    -26.1983E-03     14.7489E-03    -26.1998E-03     51.9546E-03    -26.1099E-03     14.7434E-03
            1753     1.75362E-03     37.5389E-03    -29.3328E+06    -118.997E+06    -27.5271E+06     147.510E+03    -26.2006E-03     52.3817E-03    -26.1811E-03     9.93385E-03    -26.1352E-03     51.8696E-03    -26.1037E-03     9.93047E-03
            1754     876.783E-06     37.5317E-03    -30.1432E+06    -119.361E+06    -29.6352E+06     94.4005E+03    -26.1811E-03     52.3480E-03    -26.1669E-03     5.41965E-03    -26.1159E-03     51.8380E-03    -26.0983E-03     5.41811E-03
            1755     16.6493E-03     37.4922E-03    -4.43402E+06     131.907E+06     82.8455E+06    -106.435E+03    -29.3010E-03     55.9675E-03    -26.6665E-03     106.679E-03    -30.7339E-03     57.6127E-03    -26.4371E-03     107.020E-03
            1756     15.7788E-03     37.3435E-03    -6.61228E+06     118.457E+06     39.7746E+06     47.4566E+03    -30.3449E-03     56.7973E-03    -26.4525E-03     141.117E-03    -31.9745E-03     58.7085E-03    -26.4158E-03     141.194E-03
            1757     14.9007E-03     37.2222E-03    -8.97212E+06     75.6781E+06    -3.56787E+06     533.112E+03    -28.9603E-03     55.2556E-03    -26.2953E-03     111.575E-03    -29.7470E-03     56.2894E-03    -26.4098E-03     111.396E-03
            1758     14.0254E-03     37.1294E-03    -9.73257E+06     19.8427E+06    -8.92499E+06    -7.43797E+03    -28.3650E-03     54.7078E-03    -26.3427E-03     88.4075E-03    -28.7250E-03     55.1295E-03    -26.4020E-03     88.2135E-03
            1759     13.1481E-03     37.0537E-03    -10.3250E+06    -25.1115E+06    -6.13599E+06     288.537E+03    -27.9761E-03     54.3816E-03    -26.4055E-03     74.8362E-03    -28.1506E-03     54.4481E-03    -26.3848E-03     74.6752E-03
            1760     12.2726E-03     36.9863E-03    -10.8370E+06    -45.3372E+06    -1.80213E+06     413.382E+03    -27.9403E-03     54.3715E-03    -26.4312E-03     67.9294E-03    -28.0349E-03     54.2718E-03    -26.3587E-03     67.7982E-03
            1761     11.3959E-03     36.9238E-03    -11.2316E+06    -59.8133E+06     20.5021E+03     415.147E+03    -27.7718E-03     54.1996E-03    -26.4278E-03     62.6084E-03    -27.8148E-03     53.9904E-03    -26.3247E-03     62.5024E-03
            1762     10.5199E-03     36.8664E-03    -12.0932E+06    -71.2923E+06     921.445E+03     489.132E+03    -27.5501E-03     53.9664E-03    -26.4162E-03     57.5903E-03    -27.5592E-03     53.6767E-03    -26.2907E-03     57.5068E-03
            1763     9.64328E-03     36.8133E-03    -13.4994E+06    -79.8127E+06     1.56425E+06     368.354E+03    -27.3926E-03     53.7921E-03    -26.3995E-03     52.6724E-03    -27.3817E-03     53.4454E-03    -26.2564E-03     52.6050E-03
            1764     8.76713E-03     36.7650E-03    -14.9718E+06    -86.9103E+06     1.58469E+06     305.252E+03    -27.2725E-03     53.6456E-03    -26.3732E-03     48.1287E-03    -27.2480E-03     53.2549E-03    -26.2175E-03     48.0748E-03
            1765     7.89073E-03     36.7209E-03    -16.7750E+06    -93.6325E+06     707.156E+03     431.294E+03    -27.0823E-03     53.4218E-03    -26.3395E-03     43.5130E-03    -27.0482E-03     52.9937E-03    -26.1759E-03     43.4730E-03
            1766     7.01426E-03     36.6811E-03    -18.9775E+06    -98.4711E+06    -2.38342E+06     485.293E+03    -26.8500E-03     53.1463E-03    -26.2963E-03     38.7159E-03    -26.8099E-03     52.6962E-03    -26.1379E-03     38.6865E-03
            1767     6.13767E-03     36.6461E-03    -21.3365E+06    -102.700E+06    -6.66145E+06     398.183E+03    -26.6749E-03     52.9264E-03    -26.2515E-03     33.9500E-03    -26.6305E-03     52.4610E-03    -26.1049E-03     33.9275E-03
            1768     5.26100E-03     36.6156E-03    -23.3853E+06    -107.429E+06    -11.2802E+06     369.300E+03    -26.5264E-03     52.7341E-03    -26.2077E-03     29.1298E-03    -26.4760E-03     52.2520E-03    -26.0744E-03     29.1134E-03
            1769     4.38432E-03     36.5898E-03    -24.9525E+06    -110.486E+06    -15.7651E+06     396.411E+03    -26.3822E-03     52.5472E-03    -26.1650E-03     24.2871E-03    -26.3269E-03     52.0568E-03    -26.0474E-03     24.2763E-03
            1770     3.50752E-03     36.5687E-03    -26.6519E+06    -113.642E+06    -20.3158E+06     463.852E+03    -26.2604E-03     52.3882E-03    -26.1277E-03     19.4726E-03    -26.2012E-03     51.8898E-03    -26.0259E-03     19.4670E-03
            1771     2.63066E-03     36.5521E-03    -28.2139E+06    -116.531E+06    -24.4096E+06     433.727E+03    -26.1699E-03     52.2678E-03    -26.0979E-03     14.6378E-03    -26.1075E-03     51.7624E-03    -26.0100E-03     14.6353E-03
            1772     1.75379E-03     36.5403E-03    -29.4312E+06    -118.768E+06    -27.4597E+06     245.398E+03    -26.1222E-03     52.1941E-03    -26.0720E-03     9.86688E-03    -26.0577E-03     51.6832E-03    -25.9944E-03     9.86481E-03
            1773     876.970E-06     36.5329E-03    -30.3301E+06    -119.285E+06    -29.6877E+06     208.795E+03    -26.0808E-03     52.1122E-03    -26.0314E-03     5.37112E-03    -26.0166E-03     51.6030E-03    -25.9629E-03     5.37108E-03
            1774     16.6587E-03     36.4919E-03    -4.22992E+06     131.486E+06     82.8700E+06    -314.438E+03    -29.0584E-03     55.6836E-03    -26.6252E-03     105.553E-03    -30.4678E-03     57.3045E-03    -26.3954E-03     105.898E-03
            1775     15.7776E-03     36.3432E-03    -7.79708E+06     117.223E+06     39.0359E+06     545.954E+03    -29.9904E-03     56.4132E-03    -26.4228E-03     140.881E-03    -31.6088E-03     58.3067E-03    -26.3863E-03     140.980E-03
            1776     14.9023E-03     36.2231E-03    -9.14726E+06     75.8859E+06    -4.07555E+06     666.308E+03    -29.0110E-03     55.2821E-03    -26.2711E-03     112.552E-03    -29.8019E-03     56.3218E-03    -26.3882E-03     112.373E-03
            1777     14.0246E-03     36.1291E-03    -9.57406E+06     20.2823E+06    -9.67545E+06     759.304E+03    -28.3508E-03     54.6674E-03    -26.3166E-03     88.8665E-03    -28.7091E-03     55.0918E-03    -26.3805E-03     88.6834E-03
            1778     13.1492E-03     36.0544E-03    -10.1060E+06    -25.1530E+06    -6.41710E+06     400.046E+03    -28.1500E-03     54.5265E-03    -26.3766E-03     75.1026E-03    -28.3236E-03     54.5936E-03    -26.3575E-03     74.9419E-03
            1779     12.2723E-03     35.9859E-03    -10.3750E+06    -45.4646E+06    -2.01765E+06     292.229E+03    -28.0020E-03     54.3947E-03    -26.3927E-03     67.9922E-03    -28.0932E-03     54.2935E-03    -26.3218E-03     67.8597E-03
            1780     11.3967E-03     35.9243E-03    -11.1824E+06    -59.7875E+06    -229.914E+03     410.682E+03    -27.8553E-03     54.2365E-03    -26.3812E-03     62.4720E-03    -27.8976E-03     54.0275E-03    -26.2794E-03     62.3658E-03
            1781     10.5202E-03     35.8664E-03    -12.1631E+06    -71.2352E+06     732.914E+03     510.361E+03    -27.6430E-03     54.0015E-03    -26.3585E-03     57.4585E-03    -27.6520E-03     53.7123E-03    -26.2339E-03     57.3752E-03
            1782     9.64430E-03     35.8140E-03    -13.4001E+06    -79.6487E+06     1.53958E+06     503.630E+03    -27.4156E-03     53.7471E-03    -26.3316E-03     52.5250E-03    -27.4041E-03     53.4009E-03    -26.1890E-03     52.4595E-03
            1783     8.76758E-03     35.7654E-03    -15.2000E+06    -87.1712E+06     1.09409E+06     391.899E+03    -27.2540E-03     53.5506E-03    -26.2966E-03     47.8922E-03    -27.2293E-03     53.1594E-03    -26.1427E-03     47.8398E-03
            1784     7.89139E-03     35.7215E-03    -17.0464E+06    -93.9001E+06     360.793E+03     460.778E+03    -27.0584E-03     53.3154E-03    -26.2570E-03     43.1800E-03    -27.0246E-03     52.8867E-03    -26.0943E-03     43.1405E-03
            1785     7.01490E-03     35.6821E-03    -19.1021E+06    -98.4909E+06    -2.59143E+06     641.363E+03    -26.8181E-03     53.0245E-03    -26.2064E-03     38.4970E-03    -26.7782E-03     52.5747E-03    -26.0489E-03     38.4699E-03
            1786     6.13822E-03     35.6471E-03    -21.2206E+06    -102.536E+06    -6.89489E+06     672.176E+03    -26.6152E-03     52.7693E-03    -26.1542E-03     33.7324E-03    -26.5700E-03     52.3048E-03    -26.0092E-03     33.7137E-03
            1787     5.26156E-03     35.6168E-03    -23.3566E+06    -107.146E+06    -11.6388E+06     281.206E+03    -26.4416E-03     52.5470E-03    -26.1054E-03     28.9197E-03    -26.3909E-03     52.0668E-03    -25.9744E-03     28.9024E-03
            1788     4.38473E-03     35.5911E-03    -25.3999E+06    -110.761E+06    -16.3343E+06     232.593E+03    -26.2983E-03     52.3576E-03    -26.0593E-03     24.1202E-03    -26.2440E-03     51.8673E-03    -25.9435E-03     24.1075E-03
            1789     3.50789E-03     35.5700E-03    -27.0512E+06    -113.609E+06    -20.4491E+06     496.515E+03    -26.1745E-03     52.1925E-03    -26.0180E-03     19.3020E-03    -26.1171E-03     51.6950E-03    -25.9163E-03     19.2969E-03
            1790     2.63098E-03     35.5537E-03    -28.4258E+06    -116.199E+06    -24.4872E+06     427.811E+03    -26.0721E-03     52.0529E-03    -25.9808E-03     14.5161E-03    -26.0111E-03     51.5495E-03    -25.8936E-03     14.5135E-03
            1791     1.75404E-03     35.5418E-03    -29.5574E+06    -118.613E+06    -27.6665E+06     330.979E+03    -26.0007E-03     51.9518E-03    -25.9511E-03     9.79718E-03    -25.9368E-03     51.4421E-03    -25.8746E-03     9.79630E-03
            1792     877.013E-06     35.5347E-03    -30.3640E+06    -119.002E+06    -29.7170E+06     100.471E+03    -25.9388E-03     51.8717E-03    -25.9329E-03     5.30358E-03    -25.8751E-03     51.3639E-03    -25.8649E-03     5.30216E-03
            1793     16.6528E-03     35.4941E-03    -4.63503E+06     131.064E+06     82.7010E+06    -545.905E+03    -29.0345E-03     55.6859E-03    -26.6514E-03     107.741E-03    -30.4690E-03     57.3295E-03    -26.4212E-03     108.078E-03
            1794     15.7783E-03     35.3427E-03    -8.59877E+06     116.593E+06     38.9837E+06     575.690E+03    -30.4408E-03     56.8862E-03    -26.4454E-03     142.048E-03    -32.0802E-03     58.7959E-03    -26.4071E-03     142.131E-03
            1795     14.9008E-03     35.2234E-03    -10.3636E+06     75.9612E+06    -4.33288E+06     893.494E+03    -29.2018E-03     55.4785E-03    -26.2767E-03     112.419E-03    -29.9984E-03     56.5205E-03    -26.3935E-03     112.241E-03
            1796     14.0254E-03     35.1293E-03    -10.5293E+06     20.3061E+06    -10.2714E+06     365.130E+03    -28.5788E-03     54.8859E-03    -26.3071E-03     89.0660E-03    -28.9427E-03     55.3143E-03    -26.3726E-03     88.8753E-03
            1797     13.1487E-03     35.0539E-03    -9.95687E+06    -24.9794E+06    -6.44608E+06     314.351E+03    -28.3560E-03     54.7090E-03    -26.3530E-03     74.9193E-03    -28.5293E-03     54.7770E-03    -26.3346E-03     74.7559E-03
            1798     12.2735E-03     34.9864E-03    -10.5412E+06    -45.3986E+06    -2.16783E+06     499.357E+03    -28.1286E-03     54.4839E-03    -26.3553E-03     67.8052E-03    -28.2202E-03     54.3831E-03    -26.2850E-03     67.6750E-03
            1799     11.3968E-03     34.9241E-03    -11.3570E+06    -59.9735E+06    -494.613E+03     411.234E+03    -27.9419E-03     54.2739E-03    -26.3320E-03     62.2355E-03    -27.9841E-03     54.0643E-03    -26.2310E-03     62.1292E-03
            1800     10.5211E-03     34.8669E-03    -12.3373E+06    -71.3221E+06     444.363E+03     502.528E+03    -27.7256E-03     54.0229E-03    -26.2972E-03     57.1143E-03    -27.7347E-03     53.7337E-03    -26.1737E-03     57.0309E-03
            1801     9.64453E-03     34.8143E-03    -13.5614E+06     -79.482E+06     1.38054E+06     598.210E+03    -27.5044E-03     53.7608E-03    -26.2564E-03     52.2856E-03    -27.4936E-03     53.4157E-03    -26.1146E-03     52.2215E-03
            1802     8.76874E-03     34.7661E-03    -15.0552E+06    -87.0527E+06     1.03313E+06     605.468E+03    -27.2594E-03     53.4683E-03    -26.2089E-03     47.6012E-03    -27.2339E-03     53.0773E-03    -26.0557E-03     47.5518E-03
            1803     7.89206E-03     34.7223E-03    -17.0673E+06    -94.2270E+06    -63.5166E+03     594.819E+03    -26.9847E-03     53.1466E-03    -26.1620E-03     42.8780E-03    -26.9496E-03     52.7167E-03    -26.0009E-03     42.8407E-03
            1804     7.01550E-03     34.6831E-03    -19.0499E+06    -98.5784E+06    -2.83809E+06     673.772E+03    -26.7815E-03     52.8877E-03    -26.1062E-03     38.1946E-03    -26.7408E-03     52.4376E-03    -25.9498E-03     38.1682E-03
            1805     6.13897E-03     34.6483E-03    -20.9751E+06    -102.216E+06    -7.05465E+06     587.404E+03    -26.5609E-03     52.6061E-03    -26.0452E-03     33.4558E-03    -26.5147E-03     52.1430E-03    -25.9018E-03     33.4362E-03
            1806     5.26211E-03     34.6183E-03    -22.9403E+06    -106.901E+06    -11.4316E+06     578.527E+03    -26.3601E-03     52.3512E-03    -25.9911E-03     28.6733E-03    -26.3080E-03     51.8713E-03    -25.8600E-03     28.6601E-03
            1807     4.38527E-03     34.5926E-03    -25.0986E+06    -110.852E+06    -16.0875E+06     476.372E+03    -26.2041E-03     52.1442E-03    -25.9401E-03     23.8920E-03    -26.1485E-03     51.6526E-03    -25.8234E-03     23.8826E-03
            1808     3.50834E-03     34.5717E-03    -26.9489E+06    -113.546E+06    -20.4438E+06     292.911E+03    -26.0678E-03     51.9602E-03    -25.8924E-03     19.1210E-03    -26.0099E-03     51.4629E-03    -25.7909E-03     19.1134E-03
            1809     2.63134E-03     34.5553E-03    -28.3061E+06    -116.127E+06    -24.3494E+06     387.302E+03    -25.9529E-03     51.8043E-03    -25.8515E-03     14.3914E-03    -25.8916E-03     51.3010E-03    -25.7638E-03     14.3884E-03
            1810     1.75424E-03     34.5437E-03    -29.4458E+06    -118.293E+06    -27.5678E+06     381.689E+03    -25.8595E-03     51.6818E-03    -25.8223E-03     9.70138E-03    -25.7957E-03     51.1734E-03    -25.7459E-03     9.70123E-03
            1811     877.121E-06     34.5364E-03    -30.1484E+06    -118.700E+06    -29.7749E+06     101.340E+03    -25.8045E-03     51.6197E-03    -25.8153E-03     5.24730E-03    -25.7400E-03     51.1133E-03    -25.7483E-03     5.24592E-03
            1812     16.6523E-03     34.4897E-03    -4.78514E+06     130.633E+06     81.7867E+06    -47.0238E+03    -28.8403E-03     55.5217E-03    -26.6814E-03     105.951E-03    -30.2530E-03     57.1440E-03    -26.4549E-03     106.290E-03
            1813     15.7770E-03     34.3425E-03    -9.89452E+06     115.539E+06     38.1749E+06    -256.838E+03    -30.7348E-03     57.2042E-03    -26.4694E-03     139.965E-03    -32.3569E-03     59.0907E-03    -26.4317E-03     140.027E-03
            1814     14.9019E-03     34.2233E-03    -9.79741E+06     76.0537E+06    -2.93627E+06     127.845E+03    -29.4883E-03     55.7755E-03    -26.2872E-03     112.294E-03    -30.2867E-03     56.8176E-03    -26.3979E-03     112.104E-03
            1815     14.0250E-03     34.1292E-03    -9.25800E+06     20.4431E+06    -9.60996E+06     592.680E+03    -28.9577E-03     55.2496E-03    -26.2919E-03     88.9592E-03    -29.3174E-03     55.6768E-03    -26.3561E-03     88.7672E-03
            1816     13.1498E-03     34.0535E-03    -10.3949E+06    -25.2319E+06    -6.86390E+06     534.610E+03    -28.5206E-03     54.8364E-03    -26.3158E-03     74.4238E-03    -28.6941E-03     54.9033E-03    -26.2985E-03     74.2623E-03
            1817     12.2733E-03     33.9864E-03    -10.9398E+06    -45.3041E+06    -2.55220E+06     382.190E+03    -28.2325E-03     54.5368E-03    -26.3043E-03     67.3822E-03    -28.3251E-03     54.4371E-03    -26.2355E-03     67.2502E-03
            1818     11.3980E-03     33.9241E-03    -11.3802E+06    -60.0342E+06    -763.803E+03     461.826E+03    -28.0140E-03     54.2836E-03    -26.2697E-03     61.8671E-03    -28.0553E-03     54.0737E-03    -26.1699E-03     61.7617E-03
            1819     10.5216E-03     33.8673E-03    -12.4029E+06    -71.4917E+06     216.206E+03     576.502E+03    -27.8036E-03     54.0266E-03    -26.2230E-03     56.7257E-03    -27.8121E-03     53.7367E-03    -26.1003E-03     56.6432E-03
            1820     9.64587E-03     33.8147E-03    -13.7754E+06    -79.5062E+06     1.09897E+06     679.734E+03    -27.5318E-03     53.7014E-03    -26.1695E-03     51.9032E-03    -27.5213E-03     53.3565E-03    -26.0288E-03     51.8403E-03
            1821     8.76921E-03     33.7668E-03    -15.3072E+06    -86.9545E+06     961.563E+03     732.012E+03    -27.2198E-03     53.3339E-03    -26.1140E-03     47.2520E-03    -27.1953E-03     52.9435E-03    -25.9610E-03     47.2047E-03
            1822     7.89296E-03     33.7234E-03    -17.0052E+06    -94.0282E+06    -60.2772E+03     723.086E+03    -26.9786E-03     53.0365E-03    -26.0579E-03     42.6093E-03    -26.9434E-03     52.6072E-03    -25.8972E-03     42.5739E-03
            1823     7.01641E-03     33.6842E-03    -19.0330E+06    -98.5843E+06    -2.88099E+06     635.670E+03    -26.7248E-03     52.7173E-03    -25.9925E-03     37.8690E-03    -26.6837E-03     52.2671E-03    -25.8364E-03     37.8423E-03
            1824     6.13960E-03     33.6498E-03    -21.1002E+06    -102.092E+06    -7.09491E+06     597.980E+03    -26.4857E-03     52.4096E-03    -25.9239E-03     33.1425E-03    -26.4401E-03     51.9473E-03    -25.7808E-03     33.1234E-03
            1825     5.26286E-03     33.6197E-03    -23.1628E+06    -106.854E+06    -11.5171E+06     651.448E+03    -26.2848E-03     52.1460E-03    -25.8612E-03     28.4099E-03    -26.2336E-03     51.6667E-03    -25.7303E-03     28.3978E-03
            1826     4.38590E-03     33.5944E-03    -24.8985E+06    -110.506E+06    -15.8950E+06     606.878E+03    -26.0919E-03     51.8947E-03    -25.8028E-03     23.6595E-03    -26.0360E-03     51.4042E-03    -25.6860E-03     23.6520E-03
            1827     3.50882E-03     33.5735E-03    -26.6461E+06    -113.473E+06    -20.5227E+06     416.881E+03    -25.9350E-03     51.6851E-03    -25.7501E-03     18.9297E-03    -25.8756E-03     51.1878E-03    -25.6495E-03     18.9239E-03
            1828     2.63170E-03     33.5575E-03    -28.2873E+06    -116.127E+06    -24.3898E+06     383.526E+03    -25.8134E-03     51.5212E-03    -25.7078E-03     14.2231E-03    -25.7520E-03     51.0179E-03    -25.6204E-03     14.2202E-03
            1829     1.75450E-03     33.5457E-03    -29.3732E+06    -117.883E+06    -27.4452E+06     337.240E+03    -25.7216E-03     51.3971E-03    -25.6755E-03     9.58415E-03    -25.6581E-03     50.8904E-03    -25.5992E-03     9.58350E-03
            1830     877.266E-06     33.5387E-03    -30.0892E+06    -118.373E+06    -29.5807E+06     277.883E+03    -25.6706E-03     51.3213E-03    -25.6508E-03     5.20062E-03    -25.6066E-03     50.8161E-03    -25.5834E-03     5.20159E-03
            1831     16.6554E-03     33.4904E-03    -3.91446E+06     131.395E+06     83.3356E+06     774.592E+03    -28.7558E-03     55.4054E-03    -26.6496E-03     105.829E-03    -30.1610E-03     57.0215E-03    -26.4178E-03     106.196E-03
            1832     15.7779E-03     33.3419E-03    -7.74130E+06     116.439E+06     38.7591E+06    -149.572E+03    -29.9584E-03     56.4119E-03    -26.4536E-03     140.284E-03    -31.5702E-03     58.2972E-03    -26.4174E-03     140.374E-03
            1833     14.9006E-03     33.2232E-03    -10.6749E+06     74.5728E+06    -5.95126E+06    -383.118E+03    -30.0390E-03     56.3057E-03    -26.2668E-03     112.302E-03    -30.8384E-03     57.3493E-03    -26.3892E-03     112.094E-03
            1834     14.0261E-03     33.1277E-03    -10.8193E+06     20.2458E+06    -10.4616E+06     609.951E+03    -29.2945E-03     55.5466E-03    -26.2521E-03     88.0781E-03    -29.6589E-03     55.9748E-03    -26.3181E-03     87.8829E-03
            1835     13.1501E-03     33.0537E-03    -10.1313E+06    -24.5278E+06    -6.35164E+06     559.413E+03    -28.5984E-03     54.8591E-03    -26.2607E-03     73.9325E-03    -28.7711E-03     54.9271E-03    -26.2422E-03     73.7714E-03
            1836     12.2749E-03     32.9859E-03    -10.5640E+06    -45.2862E+06    -2.48706E+06     414.553E+03    -28.3343E-03     54.5704E-03    -26.2361E-03     66.9266E-03    -28.4247E-03     54.4697E-03    -26.1676E-03     66.7947E-03
            1837     11.3984E-03     32.9246E-03    -11.5408E+06    -60.4419E+06    -1.08046E+06     483.875E+03    -28.0687E-03     54.2574E-03    -26.1886E-03     61.3842E-03    -28.1092E-03     54.0454E-03    -26.0897E-03     61.2792E-03
            1838     10.5228E-03     32.8673E-03    -12.4168E+06    -71.6294E+06     182.751E+03     642.683E+03    -27.7999E-03     53.9328E-03    -26.1329E-03     56.3029E-03    -27.8077E-03     53.6417E-03    -26.0101E-03     56.2217E-03
            1839     9.64646E-03     32.8154E-03    -13.6349E+06    -79.3600E+06     1.19044E+06     864.455E+03    -27.4747E-03     53.5477E-03    -26.0730E-03     51.4890E-03    -27.4634E-03     53.2028E-03    -25.9322E-03     51.4291E-03
            1840     8.77036E-03     32.7678E-03    -15.3570E+06    -86.9981E+06     788.479E+03     789.343E+03    -27.2125E-03     53.2218E-03    -26.0093E-03     46.9251E-03    -27.1876E-03     52.8312E-03    -25.8569E-03     46.8790E-03
            1841     7.89378E-03     32.7243E-03    -17.1003E+06    -94.0017E+06    -113.608E+03     688.642E+03    -26.9599E-03     52.9025E-03    -25.9426E-03     42.2244E-03    -26.9249E-03     52.4734E-03    -25.7821E-03     42.1889E-03
            1842     7.01724E-03     32.6857E-03    -18.9762E+06    -98.4702E+06    -2.83436E+06     693.481E+03    -26.6735E-03     52.5400E-03    -25.8665E-03     37.5121E-03    -26.6322E-03     52.0900E-03    -25.7103E-03     37.4866E-03
            1843     6.14052E-03     32.6513E-03    -21.2099E+06    -102.115E+06    -7.02232E+06     862.707E+03    -26.4092E-03     52.1978E-03    -25.7886E-03     32.8148E-03    -26.3641E-03     51.7352E-03    -25.6449E-03     32.7994E-03
            1844     5.26357E-03     32.6216E-03    -23.3724E+06    -106.579E+06    -11.8948E+06     701.125E+03    -26.1775E-03     51.8927E-03    -25.7152E-03     28.1104E-03    -26.1271E-03     51.4155E-03    -25.5862E-03     28.0992E-03
            1845     4.38654E-03     32.5963E-03    -25.2975E+06    -110.301E+06    -16.4752E+06     489.721E+03    -25.9762E-03     51.6248E-03    -25.6486E-03     23.4029E-03    -25.9216E-03     51.1367E-03    -25.5344E-03     23.3942E-03
            1846     3.50941E-03     32.5758E-03    -26.9097E+06    -113.307E+06    -20.5176E+06     569.587E+03    -25.7979E-03     51.3893E-03    -25.5914E-03     18.7014E-03    -25.7401E-03     50.8932E-03    -25.4907E-03     18.6977E-03
            1847     2.63213E-03     32.5597E-03    -28.2434E+06    -115.886E+06    -24.4235E+06     382.939E+03    -25.6597E-03     51.2029E-03    -25.5432E-03     14.0397E-03    -25.5983E-03     50.7007E-03    -25.4563E-03     14.0369E-03
            1848     1.75480E-03     32.5483E-03    -29.3206E+06    -117.736E+06    -27.4236E+06     238.866E+03    -25.5657E-03     51.0714E-03    -25.5057E-03     9.45749E-03    -25.5022E-03     50.5653E-03    -25.4296E-03     9.45566E-03
            1849     877.416E-06     32.5410E-03    -30.0158E+06    -118.003E+06    -29.3638E+06     221.998E+03    -25.5084E-03     50.9747E-03    -25.4663E-03     5.12781E-03    -25.4449E-03     50.4709E-03    -25.3985E-03     5.12809E-03
            1850     16.6553E-03     32.4917E-03    -4.75013E+06     130.810E+06     82.1877E+06     41.3660E+03    -28.9988E-03     55.6952E-03    -26.6964E-03     108.745E-03    -30.4414E-03     57.3471E-03    -26.4682E-03     109.084E-03
            1851     15.7764E-03     32.3438E-03    -8.05872E+06     116.391E+06     38.6502E+06     661.906E+03    -31.5886E-03     58.0485E-03    -26.4600E-03     141.487E-03    -33.2244E-03     59.9568E-03    -26.4238E-03     141.537E-03
            1852     14.9023E-03     32.2196E-03    -9.71478E+06     75.3150E+06    -4.07142E+06     770.946E+03    -30.3980E-03     56.6219E-03    -26.2239E-03     111.166E-03    -31.1899E-03     57.6586E-03    -26.3394E-03     110.966E-03
            1853     14.0270E-03     32.1285E-03    -10.0993E+06     19.7065E+06    -10.1389E+06    -295.689E+03    -29.1981E-03     55.3880E-03    -26.1899E-03     87.1814E-03    -29.5554E-03     55.8088E-03    -26.2545E-03     86.9762E-03
            1854     13.1513E-03     32.0527E-03    -10.0110E+06    -24.9727E+06    -6.59858E+06     357.390E+03    -28.6519E-03     54.8438E-03    -26.1919E-03     73.7486E-03    -28.8226E-03     54.9095E-03    -26.1742E-03     73.5848E-03
            1855     12.2753E-03     31.9862E-03    -10.4500E+06    -45.0116E+06    -2.14768E+06     740.955E+03    -28.4273E-03     54.5859E-03    -26.1586E-03     66.6385E-03    -28.5175E-03     54.4854E-03    -26.0889E-03     66.5107E-03
            1856     11.4000E-03     31.9245E-03    -11.2214E+06    -60.5014E+06    -972.865E+03     584.460E+03    -28.1469E-03     54.2437E-03    -26.0968E-03     61.0631E-03    -28.1854E-03     54.0304E-03    -25.9977E-03     60.9595E-03
            1857     10.5238E-03     31.8679E-03    -12.2180E+06    -71.8870E+06     149.534E+03     734.749E+03    -27.7392E-03     53.7711E-03    -26.0319E-03     55.8992E-03    -27.7449E-03     53.4778E-03    -25.9092E-03     55.8201E-03
            1858     9.64762E-03     31.8163E-03    -13.4673E+06    -79.4436E+06     1.14860E+06     962.226E+03    -27.4429E-03     53.4088E-03    -25.9659E-03     51.1320E-03    -27.4301E-03     53.0628E-03    -25.8254E-03     51.0740E-03
            1859     8.77118E-03     31.7685E-03    -14.9068E+06    -86.7526E+06     930.382E+03     897.805E+03    -27.2310E-03     53.1222E-03    -25.8912E-03     46.5272E-03    -27.2042E-03     52.7317E-03    -25.7391E-03     46.4828E-03
            1860     7.89493E-03     31.7258E-03    -16.8107E+06    -93.8448E+06    -25.8735E+03     749.521E+03    -26.9197E-03     52.7316E-03    -25.8118E-03     41.7522E-03    -26.8834E-03     52.3025E-03    -25.6515E-03     41.7179E-03
            1861     7.01820E-03     31.6870E-03    -18.9300E+06    -98.5650E+06    -3.04698E+06     848.508E+03    -26.6023E-03     52.3269E-03    -25.7245E-03     37.0864E-03    -26.5602E-03     51.8765E-03    -25.5694E-03     37.0632E-03
            1862     6.14142E-03     31.6532E-03    -20.8002E+06    -102.062E+06    -7.05407E+06     860.165E+03    -26.3269E-03     51.9637E-03    -25.6368E-03     32.4351E-03    -26.2796E-03     51.5007E-03    -25.4939E-03     32.4200E-03
            1863     5.26443E-03     31.6236E-03    -22.7395E+06    -106.266E+06    -11.3286E+06     936.971E+03    -26.0716E-03     51.6271E-03    -25.5555E-03     27.7531E-03    -26.0193E-03     51.1496E-03    -25.4251E-03     27.7453E-03
            1864     4.38730E-03     31.5987E-03    -24.9137E+06    -110.057E+06    -16.1162E+06     805.244E+03    -25.8431E-03     51.3226E-03    -25.4795E-03     23.0709E-03    -25.7875E-03     50.8346E-03    -25.3644E-03     23.0664E-03
            1865     3.51001E-03     31.5782E-03    -26.8208E+06    -113.045E+06    -20.5234E+06     465.486E+03    -25.6478E-03     51.0609E-03    -25.4131E-03     18.4419E-03    -25.5899E-03     50.5659E-03    -25.3129E-03     18.4371E-03
            1866     2.63263E-03     31.5624E-03    -28.2154E+06    -115.649E+06    -24.3613E+06     346.718E+03    -25.4928E-03     50.8511E-03    -25.3583E-03     13.8493E-03    -25.4317E-03     50.3499E-03    -25.2715E-03     13.8462E-03
            1867     1.75513E-03     31.5509E-03    -29.3655E+06    -117.641E+06    -27.4665E+06     263.100E+03    -25.3814E-03     50.6970E-03    -25.3157E-03     9.32634E-03    -25.3182E-03     50.1916E-03    -25.2398E-03     9.32492E-03
            1868     877.607E-06     31.5440E-03    -30.1864E+06    -117.712E+06    -29.5964E+06     107.313E+03    -25.3064E-03     50.5894E-03    -25.2830E-03     5.04881E-03    -25.2439E-03     50.0876E-03    -25.2165E-03     5.04765E-03
            1869     16.6456E-03     31.4868E-03    -4.73821E+06     130.175E+06     81.9297E+06     642.572E+03    -29.4990E-03     56.1567E-03    -26.6577E-03     104.602E-03    -30.9004E-03     57.7659E-03    -26.4299E-03     104.924E-03
            1870     15.7790E-03     31.3384E-03    -9.01539E+06     115.990E+06     39.2555E+06    -55.0351E+03    -31.8262E-03     58.2152E-03    -26.3891E-03     137.272E-03    -33.4285E-03     60.0831E-03    -26.3479E-03     137.303E-03
            1871     14.9042E-03     31.2211E-03    -8.80494E+06     75.8655E+06    -2.71196E+06    -93.6938E+03    -29.8925E-03     56.0387E-03    -26.1462E-03     110.194E-03    -30.6746E-03     57.0667E-03    -26.2570E-03     109.991E-03
            1872     14.0274E-03     31.1268E-03    -9.07021E+06     19.4311E+06    -10.4178E+06     608.812E+03    -28.9865E-03     55.1074E-03    -26.1210E-03     87.6042E-03    -29.3369E-03     55.5249E-03    -26.1881E-03     87.4134E-03
            1873     13.1522E-03     31.0532E-03    -10.1920E+06    -25.5209E+06    -7.22877E+06     612.911E+03    -28.8490E-03     54.9686E-03    -26.1196E-03     73.3981E-03    -29.0187E-03     55.0325E-03    -26.1040E-03     73.2359E-03
            1874     12.2766E-03     30.9856E-03    -10.5366E+06    -45.2028E+06    -2.58111E+06     646.202E+03    -28.4521E-03     54.5252E-03    -26.0731E-03     66.3493E-03    -28.5407E-03     54.4233E-03    -26.0052E-03     66.2209E-03
            1875     11.4008E-03     30.9247E-03    -11.1755E+06    -60.2745E+06    -1.05488E+06     829.085E+03    -28.1311E-03     54.1359E-03    -26.0048E-03     60.7103E-03    -28.1688E-03     53.9230E-03    -25.9065E-03     60.6106E-03
            1876     10.5248E-03     30.8686E-03    -12.2678E+06    -71.9848E+06    -139.125E+03     819.062E+03    -27.8192E-03     53.7474E-03    -25.9282E-03     55.5754E-03    -27.8242E-03     53.4537E-03    -25.8067E-03     55.4976E-03
            1877     9.64868E-03     30.8170E-03    -13.5281E+06    -79.4379E+06     1.04649E+06     941.872E+03    -27.5273E-03     53.3726E-03    -25.8453E-03     50.7391E-03    -27.5143E-03     53.0265E-03    -25.7052E-03     50.6811E-03
            1878     8.77256E-03     30.7697E-03    -15.0138E+06    -86.6555E+06     788.382E+03     988.048E+03    -27.1913E-03     52.9465E-03    -25.7551E-03     46.0196E-03    -27.1645E-03     52.5565E-03    -25.6038E-03     45.9769E-03
            1879     7.89597E-03     30.7270E-03    -16.7709E+06    -93.7571E+06    -64.2194E+03     956.155E+03    -26.8625E-03     52.5277E-03    -25.6652E-03     41.2755E-03    -26.8258E-03     52.0988E-03    -25.5053E-03     41.2444E-03
            1880     7.01940E-03     30.6890E-03    -18.7668E+06    -98.3250E+06    -3.03440E+06     901.193E+03    -26.5362E-03     52.1022E-03    -25.5660E-03     36.6291E-03    -26.4934E-03     51.6525E-03    -25.4114E-03     36.6070E-03
            1881     6.14242E-03     30.6551E-03    -20.9163E+06    -102.039E+06    -7.25812E+06     906.913E+03    -26.2263E-03     51.6924E-03    -25.4661E-03     32.0006E-03    -26.1792E-03     51.2299E-03    -25.3241E-03     31.9865E-03
            1882     5.26541E-03     30.6260E-03    -22.9453E+06    -106.237E+06    -11.4296E+06     1.02236E+06    -25.9536E-03     51.3278E-03    -25.3741E-03     27.3440E-03    -25.9021E-03     50.8508E-03    -25.2440E-03     27.3376E-03
            1883     4.38814E-03     30.6012E-03    -24.6820E+06    -109.539E+06    -15.7899E+06     965.444E+03    -25.6900E-03     50.9788E-03    -25.2888E-03     22.7214E-03    -25.6343E-03     50.4925E-03    -25.1732E-03     22.7192E-03
            1884     3.51072E-03     30.5811E-03    -26.4083E+06    -112.696E+06    -20.3115E+06      686.59E+03    -25.4718E-03     50.6864E-03    -25.2146E-03     18.1472E-03    -25.4125E-03     50.1922E-03    -25.1144E-03     18.1454E-03
            1885     2.63316E-03     30.5653E-03    -28.1542E+06    -115.473E+06    -24.3823E+06     479.108E+03    -25.3031E-03     50.4568E-03    -25.1538E-03     13.6280E-03    -25.2419E-03     49.9565E-03    -25.0674E-03     13.6268E-03
            1886     1.75551E-03     30.5542E-03    -29.3993E+06    -117.307E+06    -27.4851E+06     321.103E+03    -25.1746E-03     50.2826E-03    -25.1079E-03     9.17440E-03    -25.1120E-03     49.7789E-03    -25.0326E-03     9.17383E-03
            1887     877.751E-06     30.5471E-03    -30.1662E+06    -117.489E+06    -29.6916E+06     135.780E+03    -25.0924E-03     50.1729E-03    -25.0805E-03     4.96264E-03    -25.0299E-03     49.6723E-03    -25.0149E-03     4.96191E-03
            1888     16.6670E-03     30.4916E-03    -3.47166E+06     130.993E+06     83.8758E+06     645.981E+03    -30.6200E-03     57.1278E-03    -26.5079E-03     104.582E-03    -32.0095E-03     58.7269E-03    -26.2734E-03     104.907E-03
            1889     15.7811E-03     30.3370E-03    -5.85485E+06     117.527E+06     40.6636E+06     710.806E+03    -29.5642E-03     55.8303E-03    -26.2662E-03     139.711E-03    -31.1548E-03     57.6989E-03    -26.2248E-03     139.815E-03
            1890     14.9043E-03     30.2218E-03    -9.55583E+06     74.5543E+06    -5.64513E+06     302.356E+03    -29.5369E-03     55.6241E-03    -26.0872E-03     111.425E-03    -30.3160E-03     56.6504E-03    -26.2097E-03     111.233E-03
            1891     14.0285E-03     30.1266E-03    -10.5009E+06     19.2425E+06    -11.0979E+06     942.275E+03    -29.4099E-03     55.4796E-03    -26.0697E-03     88.0777E-03    -29.7682E-03     55.9011E-03    -26.1379E-03     87.8861E-03
            1892     13.1531E-03     30.0520E-03    -10.0754E+06    -24.8712E+06    -6.79111E+06     823.226E+03    -28.9376E-03     54.9883E-03    -26.0507E-03     73.0970E-03    -29.1064E-03     55.0527E-03    -26.0339E-03     72.9377E-03
            1893     12.2778E-03     29.9860E-03    -10.4725E+06    -45.2421E+06    -2.53331E+06     800.208E+03    -28.5290E-03     54.5206E-03    -25.9916E-03     66.0393E-03    -28.6164E-03     54.4176E-03    -25.9235E-03     65.9132E-03
            1894     11.4018E-03     29.9248E-03    -11.4991E+06    -60.6326E+06    -1.23983E+06     903.576E+03    -28.1671E-03     54.0789E-03    -25.9119E-03     60.3810E-03    -28.2047E-03     53.8641E-03    -25.8135E-03     60.2829E-03
            1895     10.5259E-03     29.8691E-03    -12.4056E+06    -71.8984E+06    -282.579E+03     850.461E+03    -27.9914E-03     53.8083E-03    -25.8169E-03     55.0962E-03    -27.9966E-03     53.5150E-03    -25.6960E-03     55.0187E-03
            1896     9.65015E-03     29.8177E-03    -13.5113E+06    -79.4530E+06     1.01134E+06     941.223E+03    -27.6106E-03     53.3221E-03    -25.7115E-03     50.1376E-03    -27.5970E-03     52.9756E-03    -25.5716E-03     50.0798E-03
            1897     8.77380E-03     29.7711E-03    -15.0827E+06    -86.5189E+06     647.219E+03     1.16777E+06    -27.1523E-03     52.7563E-03    -25.6040E-03     45.5122E-03    -27.1254E-03     52.3668E-03    -25.4534E-03     45.4726E-03
            1898     7.89731E-03     29.7286E-03    -16.9092E+06    -93.8445E+06    -605.158E+03     1.06589E+06    -26.7976E-03     52.2980E-03    -25.5004E-03     40.7859E-03    -26.7603E-03     51.8693E-03    -25.3428E-03     40.7569E-03
            1899     7.02052E-03     29.6909E-03    -18.9403E+06    -98.2236E+06    -3.21157E+06     1.10975E+06    -26.4684E-03     51.8577E-03    -25.3893E-03     36.0951E-03    -26.4262E-03     51.4089E-03    -25.2355E-03     36.0762E-03
            1900     6.14369E-03     29.6576E-03    -21.1881E+06    -101.926E+06    -7.40953E+06     1.19604E+06    -26.1244E-03     51.3996E-03    -25.2752E-03     31.5164E-03    -26.0784E-03     50.9381E-03    -25.1338E-03     31.5064E-03
            1901     5.26643E-03     29.6286E-03    -23.2483E+06    -106.025E+06    -12.0844E+06     1.01882E+06    -25.7992E-03     50.9683E-03    -25.1691E-03     26.8975E-03    -25.7484E-03     50.4937E-03    -25.0421E-03     26.8914E-03
            1902     4.38907E-03     29.6043E-03    -25.0377E+06    -109.154E+06    -16.4347E+06     838.644E+03    -25.5215E-03     50.5957E-03    -25.0742E-03     22.3339E-03    -25.4672E-03     50.1127E-03    -24.9618E-03     22.3305E-03
            1903     3.51149E-03     29.5843E-03    -26.6340E+06    -112.364E+06    -20.4042E+06     826.402E+03    -25.2793E-03     50.2730E-03    -24.9937E-03     17.8222E-03    -25.2214E-03     49.7808E-03    -24.8942E-03     17.8225E-03
            1904     2.63376E-03     29.5689E-03    -27.9793E+06    -115.027E+06    -24.2803E+06     676.348E+03    -25.0869E-03     50.0139E-03    -24.9270E-03     13.3743E-03    -25.0256E-03     49.5153E-03    -24.8411E-03     13.3758E-03
            1905     1.75590E-03     29.5576E-03    -29.1377E+06    -116.952E+06    -27.3265E+06     377.891E+03    -24.9506E-03     49.8286E-03    -24.8779E-03     8.99057E-03    -24.8874E-03     49.3260E-03    -24.8027E-03     8.99084E-03
            1906     877.985E-06     29.5510E-03    -29.9576E+06    -117.153E+06    -29.3957E+06     232.881E+03    -24.8672E-03     49.7105E-03    -24.8433E-03     4.88277E-03    -24.8046E-03     49.2109E-03    -24.7770E-03     4.88337E-03
            1907     16.6517E-03     29.4878E-03    -4.74749E+06     129.678E+06     81.8872E+06    -1.04228E+06    -30.2527E-03     56.8349E-03    -26.5822E-03     107.546E-03    -31.6754E-03     58.4637E-03    -26.3539E-03     107.838E-03
            1908     15.7808E-03     29.3424E-03    -7.53262E+06     116.406E+06     39.7980E+06     1.25689E+06    -31.1821E-03     57.5101E-03    -26.3280E-03     143.793E-03    -32.8153E-03     59.4142E-03    -26.2869E-03     143.857E-03
            1909     14.9029E-03     29.2186E-03    -8.84923E+06     75.2868E+06    -3.51251E+06     2.13759E+06    -30.4849E-03     56.5826E-03    -26.0977E-03     112.835E-03    -31.2734E-03     57.6171E-03    -26.2116E-03     112.652E-03
            1910     14.0295E-03     29.1261E-03    -9.61372E+06     19.6478E+06    -10.7460E+06     990.507E+03    -29.9222E-03     55.9507E-03    -26.0285E-03     87.4367E-03    -30.2753E-03     56.3706E-03    -26.0968E-03     87.2411E-03
            1911     13.1539E-03     29.0518E-03    -10.2002E+06    -24.9845E+06    -7.25831E+06     788.571E+03    -29.0475E-03     55.0310E-03    -25.9835E-03     72.9188E-03    -29.2149E-03     55.0946E-03    -25.9688E-03     72.7594E-03
            1912     12.2784E-03     28.9855E-03    -10.6785E+06    -45.1452E+06    -2.65564E+06     961.746E+03    -28.7035E-03     54.6138E-03    -25.9102E-03     65.4814E-03    -28.7909E-03     54.5107E-03    -25.8426E-03     65.3571E-03
            1913     11.4030E-03     28.9256E-03    -11.2433E+06    -60.4018E+06    -1.29837E+06     959.703E+03    -28.4201E-03     54.2259E-03    -25.8058E-03     59.8628E-03    -28.4562E-03     54.0114E-03    -25.7084E-03     59.7650E-03
            1914     10.5274E-03     28.8690E-03    -12.2516E+06    -72.0729E+06    -490.773E+03     994.042E+03    -28.0550E-03     53.7429E-03    -25.6880E-03     54.5676E-03    -28.0581E-03     53.4481E-03    -25.5681E-03     54.4926E-03
            1915     9.65149E-03     28.8189E-03    -13.5773E+06    -79.7090E+06     483.722E+03     1.06479E+06    -27.6364E-03     53.2008E-03    -25.5645E-03     49.4825E-03    -27.6214E-03     52.8533E-03    -25.4268E-03     49.4268E-03
            1916     8.77523E-03     28.7724E-03    -14.9781E+06    -86.4925E+06     496.324E+03     1.27760E+06    -27.1813E-03     52.6207E-03    -25.4394E-03     44.8875E-03    -27.1533E-03     52.2310E-03    -25.2898E-03     44.8498E-03
            1917     7.89874E-03     28.7305E-03    -16.8086E+06    -93.4672E+06    -610.512E+03     1.37292E+06    -26.7513E-03     52.0687E-03    -25.3174E-03     40.1818E-03    -26.7136E-03     51.6413E-03    -25.1605E-03     40.1573E-03
            1918     7.02198E-03     28.6931E-03    -18.9438E+06    -98.3910E+06    -3.48058E+06     1.33300E+06    -26.3707E-03     51.5615E-03    -25.1908E-03     35.5252E-03    -26.3275E-03     51.1119E-03    -25.0381E-03     35.5097E-03
            1919     6.14490E-03     28.6601E-03    -20.8974E+06    -101.714E+06    -7.35734E+06     1.35336E+06    -26.0026E-03     51.0662E-03    -25.0636E-03     30.9389E-03    -25.9554E-03     50.6051E-03    -24.9226E-03     30.9314E-03
            1920     5.26767E-03     28.6317E-03    -22.9169E+06    -105.535E+06    -11.9068E+06     1.19973E+06    -25.6420E-03     50.5865E-03    -24.9445E-03     26.3915E-03    -25.5904E-03     50.1134E-03    -24.8178E-03     26.3882E-03
            1921     4.39008E-03     28.6076E-03    -24.9070E+06    -108.855E+06    -16.4414E+06     962.921E+03    -25.3260E-03     50.1646E-03    -24.8387E-03     21.8856E-03    -25.2713E-03     49.6828E-03    -24.7269E-03     21.8841E-03
            1922     3.51236E-03     28.5880E-03    -26.6120E+06    -112.069E+06    -20.5869E+06     762.826E+03    -25.0663E-03     49.8149E-03    -24.7487E-03     17.4562E-03    -25.0084E-03     49.3245E-03    -24.6505E-03     17.4559E-03
            1923     2.63443E-03     28.5727E-03    -27.9959E+06    -114.599E+06    -24.3519E+06     691.345E+03    -24.8533E-03     49.5281E-03    -24.6748E-03     13.0914E-03    -24.7925E-03     49.0317E-03    -24.5898E-03     13.0933E-03
            1924     1.75636E-03     28.5618E-03    -29.0862E+06    -116.449E+06    -27.3689E+06     547.875E+03    -24.6999E-03     49.3204E-03    -24.6205E-03     8.80480E-03    -24.6372E-03     48.8204E-03    -24.5463E-03     8.80741E-03
            1925     878.199E-06     28.5550E-03    -29.8941E+06    -116.715E+06    -29.3504E+06     233.756E+03    -24.6123E-03     49.1929E-03    -24.5806E-03     4.77575E-03    -24.5500E-03     48.6953E-03    -24.5148E-03     4.77642E-03
            1926     16.6514E-03     28.4828E-03    -4.89801E+06     129.235E+06     81.2287E+06    -341.071E+03    -29.2389E-03     55.9484E-03    -26.7095E-03     105.247E-03    -30.6402E-03     57.5556E-03    -26.4836E-03     105.541E-03
            1927     15.7762E-03     28.3384E-03    -10.9732E+06     113.329E+06     36.6147E+06    -543.783E+03    -33.3928E-03     59.8000E-03    -26.4071E-03     139.096E-03    -35.0129E-03     61.6772E-03    -26.3725E-03     139.078E-03
            1928     14.9055E-03     28.2177E-03    -11.4070E+06     75.1557E+06    -5.37036E+06     1.12339E+06    -31.5841E-03     57.6575E-03    -26.0734E-03     111.117E-03    -32.3837E-03     58.6990E-03    -26.1927E-03     110.902E-03
            1929     14.0292E-03     28.1242E-03    -10.5801E+06     20.8763E+06    -11.6237E+06     1.36928E+06    -29.9533E-03     55.9175E-03    -25.9642E-03     86.3008E-03    -30.3062E-03     56.3407E-03    -26.0373E-03     86.1113E-03
            1930     13.1550E-03     28.0515E-03    -10.4430E+06    -25.2248E+06    -7.88186E+06     757.500E+03    -29.3178E-03     55.2221E-03    -25.9043E-03     71.8917E-03    -29.4838E-03     55.2843E-03    -25.8920E-03     71.7303E-03
            1931     12.2796E-03     27.9853E-03    -10.7652E+06    -45.3504E+06    -3.31480E+06     836.920E+03    -28.9109E-03     54.7170E-03    -25.8060E-03     64.8399E-03    -28.9964E-03     54.6128E-03    -25.7412E-03     64.7137E-03
            1932     11.4045E-03     27.9252E-03    -11.3607E+06    -60.3136E+06    -1.75225E+06     969.174E+03    -28.5967E-03     54.2747E-03    -25.6780E-03     59.0486E-03    -28.6320E-03     54.0606E-03    -25.5828E-03     58.9506E-03
            1933     10.5289E-03     27.8701E-03    -12.1750E+06    -72.1778E+06    -914.197E+03     1.16272E+06    -28.0755E-03     53.6155E-03    -25.5400E-03     53.8262E-03    -28.0766E-03     53.3198E-03    -25.4222E-03     53.7541E-03
            1934     9.65286E-03     27.8196E-03    -13.3515E+06    -79.6897E+06     385.859E+03     1.27561E+06    -27.6445E-03     53.0460E-03    -25.4015E-03     48.7772E-03    -27.6277E-03     52.6977E-03    -25.2646E-03     48.7249E-03
            1935     8.77692E-03     27.7741E-03    -15.0913E+06    -86.4148E+06     158.314E+03     1.42334E+06    -27.2113E-03     52.4668E-03    -25.2556E-03     44.0808E-03    -27.1831E-03     52.0778E-03    -25.1076E-03     44.0453E-03
            1936     7.90035E-03     27.7326E-03    -16.9968E+06    -93.2909E+06    -817.178E+03     1.63190E+06    -26.7028E-03     51.8160E-03    -25.1132E-03     39.5146E-03    -26.6657E-03     51.3898E-03    -24.9574E-03     39.4941E-03
            1937     7.02350E-03     27.6956E-03    -18.9232E+06    -98.1738E+06    -3.68897E+06     1.55303E+06    -26.2658E-03     51.2348E-03    -24.9690E-03     34.8849E-03    -26.2223E-03     50.7863E-03    -24.8176E-03     34.8729E-03
            1938     6.14640E-03     27.6632E-03    -21.0630E+06    -101.471E+06    -7.64912E+06     1.42972E+06    -25.8524E-03     50.6791E-03    -24.8267E-03     30.3108E-03    -25.8058E-03     50.2197E-03    -24.6873E-03     30.3048E-03
            1939     5.26894E-03     27.6351E-03    -22.9489E+06    -105.098E+06    -11.7770E+06     1.29657E+06    -25.4627E-03     50.1585E-03    -24.6958E-03     25.8114E-03    -25.4119E-03     49.6874E-03    -24.5691E-03     25.8098E-03
            1940     4.39127E-03     27.6115E-03    -24.6970E+06    -108.429E+06    -16.4100E+06     1.10675E+06    -25.1097E-03     49.6875E-03    -24.5778E-03     21.4073E-03    -25.0546E-03     49.2074E-03    -24.4668E-03     21.4080E-03
            1941     3.51328E-03     27.5921E-03    -26.4212E+06    -111.718E+06    -20.6542E+06     949.564E+03    -24.8234E-03     49.3023E-03    -24.4789E-03     17.0616E-03    -24.7649E-03     48.8133E-03    -24.3819E-03     17.0640E-03
            1942     2.63516E-03     27.5771E-03    -27.9325E+06    -114.185E+06    -24.4054E+06     777.824E+03    -24.5971E-03     48.9949E-03    -24.3978E-03     12.7826E-03    -24.5365E-03     48.5006E-03    -24.3138E-03     12.7858E-03
            1943     1.75685E-03     27.5663E-03    -28.9760E+06    -115.855E+06    -27.2919E+06     576.413E+03    -24.4282E-03     48.7653E-03    -24.3370E-03     8.59920E-03    -24.3659E-03     48.2679E-03    -24.2635E-03     8.60232E-03
            1944     878.456E-06     27.5598E-03    -29.6708E+06    -116.224E+06    -29.2235E+06     347.525E+03    -24.3271E-03     48.6204E-03    -24.2933E-03     4.65823E-03    -24.2647E-03     48.1248E-03    -24.2279E-03     4.66045E-03
            1945     16.6530E-03     27.4843E-03    -3.98634E+06     129.861E+06     82.1715E+06     1.42142E+06    -30.3514E-03     56.9721E-03    -26.6207E-03     104.512E-03    -31.7423E-03     58.5716E-03    -26.3923E-03     104.822E-03
            1946     15.7800E-03     27.3319E-03    -9.51965E+06     113.918E+06     37.3664E+06     925.162E+03    -32.3731E-03     58.6797E-03    -26.3066E-03     136.880E-03    -33.9661E-03     60.5349E-03    -26.2711E-03     136.908E-03
            1947     14.9053E-03     27.2166E-03    -12.0527E+06     74.6279E+06    -5.98145E+06    -308.538E+03    -31.4807E-03     57.4693E-03    -25.9886E-03     108.475E-03    -32.2645E-03     58.4927E-03    -26.1093E-03     108.241E-03
            1948     14.0316E-03     27.1232E-03    -10.6764E+06     20.6788E+06    -11.4767E+06     146.240E+03    -30.0388E-03     55.9101E-03    -25.8713E-03     85.4623E-03    -30.3894E-03     56.3295E-03    -25.9431E-03     85.2565E-03
            1949     13.1562E-03     27.0505E-03    -9.87350E+06    -25.3669E+06    -7.69658E+06     855.721E+03    -29.4616E-03     55.2558E-03    -25.7943E-03     70.9147E-03    -29.6221E-03     55.3135E-03    -25.7816E-03     70.7545E-03
            1950     12.2815E-03     26.9853E-03    -10.3840E+06    -45.1019E+06    -3.07755E+06     942.194E+03    -29.0681E-03     54.7433E-03    -25.6752E-03     64.0333E-03    -29.1513E-03     54.6385E-03    -25.6102E-03     63.9081E-03
            1951     11.4060E-03     26.9250E-03    -11.3630E+06    -60.8118E+06    -1.98897E+06     1.09850E+06    -28.5839E-03     54.1131E-03    -25.5292E-03     58.2570E-03    -28.6166E-03     53.8954E-03    -25.4345E-03     58.1620E-03
            1952     10.5307E-03     26.8711E-03    -12.3038E+06    -72.0423E+06    -1.04307E+06     1.31728E+06    -28.1613E-03     53.5348E-03    -25.3735E-03     52.9940E-03    -28.1623E-03     53.2394E-03    -25.2564E-03     52.9242E-03
            1953     9.65487E-03     26.8207E-03    -13.3758E+06    -79.8176E+06     115.874E+03     1.41538E+06    -27.6444E-03     52.8581E-03    -25.2137E-03     48.0118E-03    -27.6263E-03     52.5089E-03    -25.0780E-03     47.9622E-03
            1954     8.77859E-03     26.7758E-03    -14.8312E+06    -86.5602E+06     118.811E+03     1.61698E+06    -27.1503E-03     52.2017E-03    -25.0513E-03     43.2724E-03    -27.1200E-03     51.8110E-03    -24.9037E-03     43.2402E-03
            1955     7.90214E-03     26.7349E-03    -16.6211E+06    -92.9221E+06    -690.571E+03     1.83018E+06    -26.6726E-03     51.5620E-03    -24.8894E-03     38.7458E-03    -26.6340E-03     51.1365E-03    -24.7340E-03     38.7283E-03
            1956     7.02526E-03     26.6986E-03    -18.7756E+06    -97.8725E+06    -3.61848E+06     1.78236E+06    -26.1564E-03     50.8809E-03    -24.7245E-03     34.1468E-03    -26.1124E-03     50.4333E-03    -24.5735E-03     34.1384E-03
            1957     6.14797E-03     26.6665E-03    -20.7196E+06    -100.981E+06    -7.50536E+06     1.59629E+06    -25.6762E-03     50.2423E-03    -24.5661E-03     29.6362E-03    -25.6285E-03     49.7843E-03    -24.4272E-03     29.6330E-03
            1958     5.27043E-03     26.6390E-03    -22.6938E+06    -104.740E+06    -11.8157E+06     1.31663E+06    -25.2479E-03     49.6705E-03    -24.4226E-03     25.2144E-03    -25.1962E-03     49.2007E-03    -24.2969E-03     25.2135E-03
            1959     4.39247E-03     26.6157E-03    -24.5852E+06    -108.076E+06    -16.4454E+06     1.28608E+06    -24.8784E-03     49.1719E-03    -24.2935E-03     20.8929E-03    -24.8231E-03     48.6933E-03    -24.1834E-03     20.8963E-03
            1960     3.51435E-03     26.5968E-03    -26.2639E+06    -111.227E+06    -20.6079E+06     1.17067E+06    -24.5626E-03     48.7470E-03    -24.1844E-03     16.6332E-03    -24.5041E-03     48.2602E-03    -24.0881E-03     16.6387E-03
            1961     2.63594E-03     26.5821E-03    -27.6138E+06    -113.616E+06    -24.1082E+06     887.187E+03    -24.3140E-03     48.4102E-03    -24.0963E-03     12.4493E-03    -24.2530E-03     47.9179E-03    -24.0120E-03     12.4542E-03
            1962     1.75741E-03     26.5715E-03    -28.7166E+06    -115.339E+06    -27.0003E+06     646.069E+03    -24.1315E-03     48.1605E-03    -24.0290E-03     8.36521E-03    -24.0690E-03     47.6649E-03    -23.9551E-03     8.36938E-03
            1963     878.737E-06     26.5651E-03    -29.5130E+06    -115.494E+06    -28.9469E+06     452.381E+03    -24.0138E-03     47.9965E-03    -23.9826E-03     4.54750E-03    -23.9521E-03     47.5039E-03    -23.9171E-03     4.55117E-03
            1964     16.6608E-03     26.4844E-03    -4.95401E+06     128.554E+06     82.3888E+06     1.36054E+06    -31.8603E-03     58.3783E-03    -26.5181E-03     105.076E-03    -33.2544E-03     59.9723E-03    -26.2853E-03     105.355E-03
            1965     15.7822E-03     26.3319E-03    -6.69114E+06     116.530E+06     42.0273E+06     1.89979E+06    -31.9144E-03     58.1048E-03    -26.1905E-03     139.436E-03    -33.5061E-03     59.9646E-03    -26.1396E-03     139.482E-03
            1966     14.9075E-03     26.2136E-03    -7.37407E+06     75.7601E+06    -2.26874E+06     300.853E+03    -31.0027E-03     56.8964E-03    -25.8937E-03     108.379E-03    -31.7597E-03     57.9027E-03    -26.0042E-03     108.160E-03
            1967     14.0327E-03     26.1227E-03    -8.67885E+06     19.1852E+06    -11.0476E+06     180.257E+03    -30.3009E-03     56.0683E-03    -25.7674E-03     84.9350E-03    -30.6387E-03     56.4755E-03    -25.8379E-03     84.7274E-03
            1968     13.1581E-03     26.0496E-03    -9.54093E+06    -25.5573E+06    -7.91213E+06     961.272E+03    -29.6366E-03     55.3023E-03    -25.6656E-03     70.6639E-03    -29.7935E-03     55.3575E-03    -25.6543E-03     70.5048E-03
            1969     12.2833E-03     25.9846E-03    -10.0865E+06    -45.4300E+06    -3.14239E+06     1.26543E+06    -29.1830E-03     54.7103E-03    -25.5273E-03     63.2664E-03    -29.2626E-03     54.6019E-03    -25.4625E-03     63.1456E-03
            1970     11.4081E-03     25.9260E-03    -10.8928E+06    -60.5630E+06    -1.70523E+06     1.48107E+06    -28.6510E-03     54.0130E-03    -25.3620E-03     57.5158E-03    -28.6810E-03     53.7943E-03    -25.2669E-03     57.4264E-03
            1971     10.5325E-03     25.8711E-03    -12.1285E+06    -72.1912E+06    -1.09299E+06     1.49306E+06    -28.1766E-03     53.3632E-03    -25.1866E-03     52.1755E-03    -28.1753E-03     53.0657E-03    -25.0698E-03     52.1090E-03
            1972     9.65690E-03     25.8226E-03    -13.4282E+06    -79.7071E+06    -38.9525E+03     1.57904E+06    -27.6324E-03     52.6396E-03    -25.0072E-03     47.1590E-03    -27.6138E-03     52.2905E-03    -24.8724E-03     47.1123E-03
            1973     8.78057E-03     25.7777E-03    -14.7495E+06    -86.6739E+06    -3.38263E+03     1.65756E+06    -27.1047E-03     51.9303E-03    -24.8256E-03     42.5388E-03    -27.0729E-03     51.5385E-03    -24.6786E-03     42.5082E-03
            1974     7.90407E-03     25.7375E-03    -16.4016E+06    -93.1202E+06    -516.937E+03     1.98038E+06    -26.6005E-03     51.2454E-03    -24.6449E-03     37.8681E-03    -26.5604E-03     50.8179E-03    -24.4886E-03     37.8533E-03
            1975     7.02713E-03     25.7018E-03    -18.2695E+06    -97.1712E+06    -3.16948E+06     2.01702E+06    -26.0242E-03     50.4842E-03    -24.4600E-03     33.3546E-03    -25.9790E-03     50.0384E-03    -24.3084E-03     33.3500E-03
            1976     6.14978E-03     25.6704E-03    -20.2913E+06    -100.540E+06    -7.51347E+06     1.68662E+06    -25.4817E-03     49.7655E-03    -24.2838E-03     28.9311E-03    -25.4322E-03     49.3089E-03    -24.1462E-03     28.9298E-03
            1977     5.27191E-03     25.6434E-03    -22.2795E+06    -104.437E+06    -11.9618E+06     1.67934E+06    -25.0245E-03     49.1510E-03    -24.1265E-03     24.5818E-03    -24.9707E-03     48.6821E-03    -24.0026E-03     24.5861E-03
            1978     4.39387E-03     25.6206E-03    -24.3316E+06    -107.664E+06    -16.3044E+06     1.60312E+06    -24.6269E-03     48.6134E-03    -23.9864E-03     20.3226E-03    -24.5711E-03     48.1362E-03    -23.8766E-03     20.3305E-03
            1979     3.51544E-03     25.6020E-03    -26.0772E+06    -110.543E+06    -20.4062E+06     1.31583E+06    -24.2840E-03     48.1497E-03    -23.8657E-03     16.1646E-03    -24.2258E-03     47.6656E-03    -23.7696E-03     16.1724E-03
            1980     2.63683E-03     25.5876E-03    -27.5424E+06    -113.022E+06    -24.1110E+06     1.01582E+06    -24.0051E-03     47.7726E-03    -23.7676E-03     12.0877E-03    -23.9446E-03     47.2831E-03    -23.6843E-03     12.0945E-03
            1981     1.75798E-03     25.5773E-03    -28.6706E+06    -114.672E+06    -26.8136E+06     701.529E+03    -23.8023E-03     47.4984E-03    -23.6961E-03     8.12043E-03    -23.7408E-03     47.0058E-03    -23.6223E-03     8.12548E-03
            1982     879.025E-06     25.5710E-03    -29.3174E+06    -114.737E+06    -28.7597E+06     376.081E+03    -23.6808E-03     47.3267E-03    -23.6459E-03     4.40875E-03    -23.6194E-03     46.8374E-03    -23.5808E-03     4.41151E-03
            1983     16.6531E-03     25.4791E-03    -4.92699E+06     128.193E+06     82.6222E+06     114.125E+03    -32.3520E-03     58.8851E-03    -26.5331E-03     105.019E-03    -33.7409E-03     60.4720E-03    -26.2987E-03     105.250E-03
            1984     15.7835E-03     25.3309E-03    -6.41737E+06     116.284E+06     41.7854E+06    -129.632E+03    -33.1591E-03     59.3138E-03    -26.1547E-03     139.690E-03    -34.7494E-03     61.1730E-03    -26.1051E-03     139.668E-03
            1985     14.9081E-03     25.2124E-03    -7.64376E+06     75.3297E+06    -3.79896E+06     1.35383E+06    -31.3454E-03     57.1517E-03    -25.8063E-03     108.880E-03    -32.1027E-03     58.1602E-03    -25.9234E-03     108.669E-03
            1986     14.0340E-03     25.1208E-03    -8.73065E+06     19.5194E+06    -11.3850E+06     1.65118E+06    -30.5297E-03     56.1919E-03    -25.6622E-03     84.2939E-03    -30.8640E-03     56.5976E-03    -25.7348E-03     84.1036E-03
            1987     13.1598E-03     25.0490E-03    -9.46378E+06    -25.6053E+06     -8.0977E+06     1.40186E+06    -29.8571E-03     55.3954E-03    -25.5383E-03     70.0870E-03    -30.0118E-03     55.4491E-03    -25.5280E-03     69.9327E-03
            1988     12.2850E-03     24.9843E-03    -10.1934E+06    -45.9283E+06    -3.54832E+06     1.56349E+06    -29.3518E-03     54.7275E-03    -25.3757E-03     62.7005E-03    -29.4289E-03     54.6156E-03    -25.3121E-03     62.5840E-03
            1989     11.4102E-03     24.9261E-03    -10.8432E+06    -60.2809E+06    -1.71568E+06     1.70397E+06    -28.8491E-03     54.0329E-03    -25.1838E-03     56.7294E-03    -28.8783E-03     53.8146E-03    -25.0892E-03     56.6428E-03
            1990     10.5349E-03     24.8724E-03    -11.8889E+06    -72.0819E+06    -1.17473E+06     1.78428E+06    -28.1779E-03     53.1614E-03    -24.9834E-03     51.3771E-03    -28.1742E-03     52.8630E-03    -24.8676E-03     51.3158E-03
            1991     9.65881E-03     24.8240E-03    -13.3101E+06    -79.5920E+06     25.2950E+03     1.86581E+06    -27.6287E-03     52.4136E-03    -24.7849E-03     46.3046E-03    -27.6089E-03     52.0640E-03    -24.6501E-03     46.2628E-03
            1992     8.78284E-03     24.7800E-03    -14.8732E+06    -86.6093E+06    -377.095E+03     1.86440E+06    -27.0941E-03     51.6721E-03    -24.5780E-03     41.6376E-03    -27.0619E-03     51.2807E-03    -24.4327E-03     41.6105E-03
            1993     7.90618E-03     24.7405E-03    -16.4775E+06    -93.3303E+06    -1.03611E+06     1.82592E+06    -26.4588E-03     50.8351E-03    -24.3762E-03     36.9825E-03    -26.4174E-03     50.4068E-03    -24.2222E-03     36.9668E-03
            1994     7.02914E-03     24.7054E-03    -18.0547E+06    -96.8395E+06    -3.31755E+06     2.07304E+06    -25.8574E-03     50.0334E-03    -24.1760E-03     32.5026E-03    -25.8110E-03     49.5888E-03    -24.0260E-03     32.4996E-03
            1995     6.15153E-03     24.6748E-03    -20.0979E+06    -100.129E+06    -7.58086E+06     2.08726E+06    -25.2994E-03     49.2823E-03    -23.9829E-03     28.1595E-03    -25.2492E-03     48.8273E-03    -23.8465E-03     28.1640E-03
            1996     5.27367E-03     24.6482E-03    -22.2967E+06    -104.038E+06    -11.9764E+06     2.04169E+06    -24.7961E-03     48.6050E-03    -23.8089E-03     23.8823E-03    -24.7429E-03     48.1380E-03    -23.6856E-03     23.8920E-03
            1997     4.39528E-03     24.6260E-03    -24.0764E+06    -107.024E+06    -16.1799E+06     1.83485E+06    -24.3540E-03     48.0080E-03    -23.6540E-03     19.7092E-03    -24.2978E-03     47.5334E-03    -23.5448E-03     19.7206E-03
            1998     3.51668E-03     24.6079E-03    -25.7416E+06    -109.799E+06    -20.0349E+06     1.55319E+06    -23.9770E-03     47.4996E-03    -23.5226E-03     15.6482E-03    -23.9187E-03     47.0182E-03    -23.4263E-03     15.6594E-03
            1999     2.63774E-03     24.5939E-03    -27.2193E+06    -112.253E+06    -23.7490E+06     1.18422E+06    -23.6733E-03     47.0888E-03    -23.4155E-03     11.6940E-03    -23.6128E-03     46.6021E-03    -23.3321E-03     11.7032E-03
            2000     1.75862E-03     24.5838E-03    -28.3471E+06    -113.820E+06    -26.6767E+06     724.781E+03    -23.4557E-03     46.7912E-03    -23.3355E-03     7.85346E-03    -23.3940E-03     46.3022E-03    -23.2627E-03     7.85897E-03
            2001     879.354E-06     24.5777E-03    -29.1301E+06    -114.073E+06    -28.5824E+06     306.626E+03    -23.3208E-03     46.5995E-03    -23.2786E-03     4.25033E-03    -23.2597E-03     46.1129E-03    -23.2139E-03     4.25228E-03
            2002     16.6574E-03     24.4737E-03    -4.05593E+06     128.533E+06     82.0062E+06    -413.178E+03    -32.5493E-03     59.0800E-03    -26.5306E-03     102.728E-03    -33.9118E-03     60.6465E-03    -26.3011E-03     102.939E-03
            2003     15.7820E-03     24.3275E-03    -7.82711E+06     114.253E+06     38.9363E+06     157.969E+03    -33.6531E-03     59.7721E-03    -26.1190E-03     136.839E-03    -35.2176E-03     61.6015E-03    -26.0787E-03     136.802E-03
            2004     14.9100E-03     24.2105E-03    -10.2786E+06     74.1962E+06    -5.47303E+06     1.45094E+06    -31.9476E-03     57.6836E-03    -25.7360E-03     108.158E-03    -32.7105E-03     58.6894E-03    -25.8561E-03     107.938E-03
            2005     14.0358E-03     24.1193E-03    -10.2505E+06     20.3715E+06    -12.1759E+06     1.77638E+06    -30.8048E-03     56.3634E-03    -25.5586E-03     84.0144E-03    -31.1435E-03     56.7733E-03    -25.6342E-03     83.8239E-03
            2006     13.1614E-03     24.0480E-03    -9.92474E+06    -25.3944E+06    -8.47445E+06     1.77665E+06    -30.1380E-03     55.5477E-03    -25.4096E-03     69.3127E-03    -30.2925E-03     55.6013E-03    -25.4008E-03     69.1622E-03
            2007     12.2870E-03     23.9841E-03    -10.2150E+06    -45.8566E+06    -3.68364E+06     1.76407E+06    -29.5532E-03     54.7730E-03    -25.2198E-03     61.9784E-03    -29.6285E-03     54.6599E-03    -25.1569E-03     61.8650E-03
            2008     11.4122E-03     23.9259E-03    -11.0648E+06    -60.6342E+06    -2.07085E+06     1.79860E+06    -28.9687E-03     53.9705E-03    -25.0018E-03     55.8729E-03    -28.9963E-03     53.7496E-03    -24.9082E-03     55.7885E-03
            2009     10.5369E-03     23.8739E-03    -11.8027E+06    -71.7243E+06    -1.22887E+06     2.05544E+06    -28.3345E-03     53.1074E-03    -24.7729E-03     50.4709E-03    -28.3298E-03     52.8098E-03    -24.6579E-03     50.4137E-03
            2010     9.66135E-03     23.8257E-03    -12.9017E+06    -79.6049E+06    -163.900E+03     2.10197E+06    -27.6887E-03     52.2318E-03    -24.5432E-03     45.4547E-03    -27.6656E-03     51.8808E-03    -24.4098E-03     45.4170E-03
            2011     8.78513E-03     23.7826E-03    -14.2949E+06    -86.5973E+06    -313.673E+03     2.18156E+06    -27.0232E-03     51.3353E-03    -24.3121E-03     40.5969E-03    -26.9875E-03     50.9424E-03    -24.1674E-03     40.5749E-03
            2012     7.90848E-03     23.7438E-03    -16.1065E+06    -92.8042E+06    -1.36692E+06     2.02622E+06    -26.3198E-03     50.4081E-03    -24.0882E-03     36.0209E-03    -26.2763E-03     49.9819E-03    -23.9372E-03     36.0090E-03
            2013     7.03118E-03     23.7096E-03    -18.1361E+06    -97.0869E+06    -3.97178E+06     2.01879E+06    -25.6874E-03     49.5574E-03    -23.8700E-03     31.5797E-03    -25.6397E-03     49.1122E-03    -23.7227E-03     31.5768E-03
            2014     6.15360E-03     23.6795E-03    -19.9569E+06    -99.7711E+06    -7.59102E+06     2.48127E+06    -25.1002E-03     48.7601E-03    -23.6600E-03     27.2733E-03    -25.0496E-03     48.3065E-03    -23.5243E-03     27.2836E-03
            2015     5.27539E-03     23.6538E-03    -21.8661E+06    -103.345E+06    -11.6648E+06     2.35633E+06    -24.5494E-03     48.0177E-03    -23.4683E-03     23.1099E-03    -24.4953E-03     47.5529E-03    -23.3451E-03     23.1242E-03
            2016     4.39691E-03     23.6320E-03    -23.8396E+06    -106.375E+06    -15.9129E+06     2.04768E+06    -24.0595E-03     47.3577E-03    -23.2983E-03     19.0423E-03    -24.0033E-03     46.8855E-03    -23.1890E-03     19.0569E-03
            2017     3.51796E-03     23.6144E-03    -25.4832E+06    -108.940E+06    -19.9079E+06     1.72912E+06    -23.6432E-03     46.7974E-03    -23.1542E-03     15.0986E-03    -23.5849E-03     46.3196E-03    -23.0588E-03     15.1125E-03
            2018     2.63875E-03     23.6007E-03    -26.8088E+06    -111.333E+06    -23.4451E+06     1.32967E+06    -23.3218E-03     46.3601E-03    -23.0383E-03     11.2734E-03    -23.2610E-03     45.8769E-03    -22.9552E-03     11.2847E-03
            2019     1.75931E-03     23.5910E-03    -27.9127E+06    -112.826E+06    -26.4070E+06     954.478E+03    -23.0838E-03     46.0335E-03    -22.9498E-03     7.56029E-03    -23.0217E-03     45.5484E-03    -22.8777E-03     7.56893E-03
            2020     879.697E-06     23.5850E-03    -28.7274E+06    -113.281E+06    -28.4436E+06     460.963E+03    -22.9349E-03     45.8218E-03    -22.8869E-03     4.09396E-03    -22.8731E-03     45.3384E-03    -22.8232E-03     4.09799E-03
            2021     16.6563E-03     23.4708E-03    -4.04554E+06     127.956E+06     81.9251E+06    -269.251E+03    -32.7716E-03     59.2714E-03    -26.4997E-03     102.889E-03    -34.1225E-03     60.8245E-03    -26.2698E-03     103.092E-03
            2022     15.7848E-03     23.3239E-03    -8.38066E+06     112.832E+06     38.0436E+06     1.18406E+06    -33.6274E-03     59.7073E-03    -26.0799E-03     136.800E-03    -35.1752E-03     61.5156E-03    -26.0411E-03     136.771E-03
            2023     14.9102E-03     23.2083E-03    -10.1135E+06     73.9869E+06    -6.14767E+06     1.79630E+06    -32.4363E-03     58.1156E-03    -25.6793E-03     107.925E-03    -33.1920E-03     59.1159E-03    -25.8026E-03     107.702E-03
            2024     14.0366E-03     23.1175E-03    -10.6868E+06     20.5390E+06    -13.0624E+06     1.74263E+06    -31.3831E-03     56.8468E-03    -25.4637E-03     83.4363E-03    -31.7201E-03     57.2566E-03    -25.5433E-03     83.2406E-03
            2025     13.1632E-03     23.0466E-03    -10.7794E+06    -25.3331E+06    -9.41267E+06     1.42743E+06    -30.5228E-03     55.7984E-03    -25.2756E-03     68.4806E-03    -30.6772E-03     55.8519E-03    -25.2703E-03     68.3246E-03
            2026     12.2891E-03     22.9837E-03    -10.6315E+06    -45.6692E+06    -4.43999E+06     1.60858E+06    -29.8178E-03     54.8691E-03    -25.0513E-03     60.9595E-03    -29.8923E-03     54.7566E-03    -24.9919E-03     60.8441E-03
            2027     11.4142E-03     22.9265E-03    -10.9747E+06    -60.8945E+06    -2.60995E+06     1.87575E+06    -29.1038E-03     53.9079E-03    -24.8041E-03     54.7608E-03    -29.1278E-03     53.6844E-03    -24.7129E-03     54.6787E-03
            2028     10.5393E-03     22.8747E-03    -11.7184E+06    -71.6752E+06    -1.52847E+06     2.10042E+06    -28.4786E-03     53.0241E-03    -24.5456E-03     49.2968E-03    -28.4718E-03     52.7258E-03    -24.4323E-03     49.2409E-03
            2029     9.66378E-03     22.8279E-03    -12.7050E+06    -79.3652E+06    -450.282E+03     2.25616E+06    -27.7336E-03     52.0177E-03    -24.2840E-03     44.3294E-03    -27.7085E-03     51.6670E-03    -24.1528E-03     44.2949E-03
            2030     8.78765E-03     22.7853E-03    -14.0429E+06    -86.6381E+06    -631.118E+03     2.25380E+06    -26.9383E-03     50.9658E-03    -24.0275E-03     39.5136E-03    -26.9000E-03     50.5719E-03    -23.8846E-03     39.4939E-03
            2031     7.91083E-03     22.7478E-03    -15.6744E+06    -92.3347E+06    -1.30080E+06      2.6392E+06    -26.2151E-03     49.9965E-03    -23.7814E-03     34.9217E-03    -26.1696E-03     49.5713E-03    -23.6313E-03     34.9187E-03
            2032     7.03359E-03     22.7140E-03    -17.9925E+06    -96.8612E+06    -4.37955E+06     2.59777E+06    -25.5101E-03     49.0490E-03    -23.5389E-03     30.5589E-03    -25.4610E-03     48.6049E-03    -23.3942E-03     30.5644E-03
            2033     6.15568E-03     22.6850E-03    -20.1345E+06    -99.5920E+06    -8.23256E+06     2.46567E+06    -24.8601E-03     48.1693E-03    -23.3092E-03     26.3440E-03    -24.8094E-03     47.7174E-03    -23.1768E-03     26.3549E-03
            2034     5.27739E-03     22.6597E-03    -21.7999E+06    -102.698E+06    -11.9610E+06     2.58261E+06    -24.2703E-03     47.3720E-03    -23.1017E-03     22.2690E-03    -24.2162E-03     46.9106E-03    -22.9810E-03     22.2868E-03
            2035     4.39855E-03     22.6388E-03    -23.4630E+06    -105.523E+06    -15.9322E+06     2.32757E+06    -23.7365E-03     46.6547E-03    -22.9181E-03     18.3228E-03    -23.6796E-03     46.1861E-03    -22.8108E-03     18.3415E-03
            2036     3.51934E-03     22.6216E-03    -25.1212E+06    -107.976E+06    -19.8731E+06     1.92065E+06    -23.2951E-03     46.0574E-03    -22.7622E-03     14.5185E-03    -23.2364E-03     45.5838E-03    -22.6686E-03     14.5352E-03
            2037     2.63982E-03     22.6085E-03    -26.5614E+06    -110.346E+06    -23.4855E+06     1.53378E+06    -22.9437E-03     45.5798E-03    -22.6361E-03     10.8225E-03    -22.8830E-03     45.1012E-03    -22.5550E-03     10.8367E-03
            2038     1.76002E-03     22.5990E-03    -27.5734E+06    -111.817E+06    -26.0491E+06     1.09452E+06    -22.6826E-03     45.2263E-03    -22.5437E-03     7.25224E-03    -22.6208E-03     44.7452E-03    -22.4719E-03     7.26287E-03
            2039     880.059E-06     22.5933E-03    -28.1234E+06    -112.101E+06    -27.7778E+06     714.253E+03    -22.5271E-03     45.0076E-03    -22.4805E-03     3.92804E-03    -22.4649E-03     44.5282E-03    -22.4161E-03     3.93544E-03
            2040     16.6571E-03     22.4648E-03    -4.26021E+06     127.300E+06     81.7954E+06     297.647E+03    -32.8060E-03     59.3253E-03    -26.5194E-03     103.166E-03    -34.1492E-03     60.8681E-03    -26.2888E-03     103.361E-03
            2041     15.7827E-03     22.3217E-03    -9.62589E+06     111.656E+06     37.8060E+06     1.20256E+06    -34.4031E-03     60.4822E-03    -26.0791E-03     136.554E-03    -35.9462E-03     62.2778E-03    -26.0380E-03     136.497E-03
            2042     14.9105E-03     22.2042E-03    -11.1301E+06     74.1162E+06    -6.30749E+06     1.62050E+06    -33.3611E-03     58.9856E-03    -25.6245E-03     106.760E-03    -34.1173E-03     59.9836E-03    -25.7473E-03     106.518E-03
            2043     14.0385E-03     22.1152E-03    -10.3921E+06     21.0018E+06    -13.2916E+06     1.50186E+06    -32.0001E-03     57.3508E-03    -25.3507E-03     81.4658E-03    -32.3291E-03     57.7561E-03    -25.4325E-03     81.2623E-03
            2044     13.1649E-03     22.0451E-03    -10.0411E+06    -25.4176E+06    -9.52066E+06     1.36323E+06    -30.8254E-03     55.9471E-03    -25.1216E-03     67.0189E-03    -30.9718E-03     55.9951E-03    -25.1178E-03     66.8619E-03
            2045     12.2911E-03     21.9829E-03    -10.5495E+06    -45.7417E+06    -4.77216E+06     1.55519E+06    -30.0759E-03     54.9392E-03    -24.8633E-03     59.5608E-03    -30.1468E-03     54.8242E-03    -24.8055E-03     59.4451E-03
            2046     11.4171E-03     21.9270E-03    -11.1547E+06    -60.7715E+06    -3.14345E+06     1.90282E+06    -29.3311E-03     53.9103E-03    -24.5792E-03     53.4284E-03    -29.3536E-03     53.6866E-03    -24.4906E-03     53.3473E-03
            2047     10.5419E-03     21.8759E-03    -11.8182E+06    -71.7898E+06    -2.01855E+06     2.13051E+06    -28.5137E-03     52.8028E-03    -24.2891E-03     47.9991E-03    -28.5050E-03     52.5032E-03    -24.1779E-03     47.9451E-03
            2048     9.66652E-03     21.8299E-03    -12.8534E+06    -79.4544E+06    -904.627E+03     2.32322E+06    -27.6871E-03     51.6895E-03    -24.0025E-03     42.9444E-03    -27.6607E-03     51.3382E-03    -23.8731E-03     42.9120E-03
            2049     8.79025E-03     21.7888E-03    -14.2794E+06    -86.6057E+06    -1.24547E+06     2.49398E+06    -26.8721E-03     50.5919E-03    -23.7198E-03     38.2664E-03    -26.8333E-03     50.1986E-03    -23.5798E-03     38.2510E-03
            2050     7.91352E-03     21.7516E-03    -15.9005E+06    -92.4741E+06    -1.86495E+06     2.88468E+06    -26.0745E-03     49.5239E-03    -23.4494E-03     33.7340E-03    -26.0286E-03     49.0986E-03    -23.3016E-03     33.7352E-03
            2051     7.03605E-03     21.7194E-03    -17.5417E+06    -96.1384E+06    -4.26591E+06     3.16016E+06    -25.3078E-03     48.4938E-03    -23.1860E-03     29.4730E-03    -25.2573E-03     48.0521E-03    -23.0425E-03     29.4867E-03
            2052     6.15801E-03     21.6907E-03    -19.5750E+06    -99.0755E+06    -8.44341E+06     2.91943E+06    -24.6014E-03     47.5371E-03    -22.9357E-03     25.3631E-03    -24.5481E-03     47.0871E-03    -22.8059E-03     25.3807E-03
            2053     5.27941E-03     21.6666E-03    -21.5972E+06    -102.134E+06    -12.4095E+06     2.65168E+06    -23.9568E-03     46.6686E-03    -22.7118E-03     21.3765E-03    -23.9016E-03     46.2101E-03    -22.5945E-03     21.3959E-03
            2054     4.40031E-03     21.6461E-03    -23.1572E+06    -104.558E+06    -15.9593E+06     2.47978E+06    -23.3939E-03     45.9102E-03    -22.5164E-03     17.5680E-03    -23.3367E-03     45.4459E-03    -22.4110E-03     17.5893E-03
            2055     3.52081E-03     21.6297E-03    -24.5993E+06    -107.035E+06    -19.6058E+06     2.18604E+06    -22.9228E-03     45.2726E-03    -22.3498E-03     13.8925E-03    -22.8631E-03     44.8025E-03    -22.2570E-03     13.9130E-03
            2056     2.64092E-03     21.6169E-03    -25.8754E+06    -109.231E+06    -22.9260E+06     1.72659E+06    -22.5417E-03     44.7576E-03    -22.2159E-03     10.3446E-03    -22.4799E-03     44.2827E-03    -22.1346E-03     10.3616E-03
            2057     1.76078E-03     21.6078E-03    -26.9000E+06    -110.679E+06    -25.4441E+06     1.23633E+06    -22.2665E-03     44.3842E-03    -22.1177E-03     6.92728E-03    -22.2039E-03     43.9070E-03    -22.0454E-03     6.93994E-03
            2058     880.430E-06     21.6022E-03    -27.6854E+06    -110.683E+06    -27.1695E+06     785.610E+03    -22.1002E-03     44.1484E-03    -22.0482E-03     3.74232E-03    -22.0388E-03     43.6746E-03    -21.9835E-03     3.75075E-03
            2059     16.6545E-03     21.4612E-03    -5.03321E+06     126.280E+06     81.3706E+06     1.18850E+06    -33.4570E-03     60.0000E-03    -26.5431E-03     103.255E-03    -34.7963E-03     61.5338E-03    -26.3120E-03     103.429E-03
            2060     15.7838E-03     21.3159E-03    -9.64720E+06     111.603E+06     38.8580E+06     1.52909E+06    -35.8656E-03     61.9112E-03    -26.0456E-03     134.254E-03    -37.3916E-03     63.6864E-03    -25.9991E-03     134.154E-03
            2061     14.9130E-03     21.2002E-03    -10.4640E+06     74.5198E+06    -5.34247E+06     1.08471E+06    -34.0550E-03     59.5711E-03    -25.5162E-03     104.135E-03    -34.7944E-03     60.5535E-03    -25.6358E-03     103.874E-03
            2062     14.0404E-03     21.1120E-03    -10.3284E+06     21.2757E+06    -13.4400E+06     1.07387E+06    -32.2716E-03     57.4665E-03    -25.1949E-03     79.6130E-03    -32.5917E-03     57.8644E-03    -25.2780E-03     79.4034E-03
            2063     13.1678E-03     21.0439E-03    -9.92950E+06    -25.5371E+06    -9.57482E+06     1.24187E+06    -31.1508E-03     56.0832E-03    -24.9325E-03     65.3432E-03    -31.2922E-03     56.1266E-03    -24.9289E-03     65.1841E-03
            2064     12.2940E-03     20.9822E-03    -9.81358E+06    -46.2820E+06     -4.5223E+06     1.80140E+06    -30.2360E-03     54.8774E-03    -24.6414E-03     58.0429E-03    -30.2998E-03     54.7552E-03    -24.5827E-03     57.9315E-03
            2065     11.4196E-03     20.9273E-03    -10.4089E+06    -60.4279E+06    -2.74825E+06     2.03881E+06    -29.4426E-03     53.7688E-03    -24.3262E-03     51.9121E-03    -29.4604E-03     53.5431E-03    -24.2372E-03     51.8339E-03
            2066     10.5452E-03     20.8774E-03    -11.2124E+06    -71.9840E+06    -2.02325E+06     2.05361E+06    -28.5440E-03     52.5492E-03    -24.0052E-03     46.5155E-03    -28.5304E-03     52.2462E-03    -23.8947E-03     46.4619E-03
            2067     9.66938E-03     20.8327E-03    -12.1795E+06    -79.7154E+06    -707.377E+03     2.57553E+06    -27.6120E-03     51.3053E-03    -23.6933E-03     41.5057E-03    -27.5810E-03     50.9502E-03    -23.5636E-03     41.4781E-03
            2068     8.79329E-03     20.7922E-03    -13.6949E+06    -86.5283E+06    -1.17049E+06     3.03487E+06    -26.7274E-03     50.1146E-03    -23.3872E-03     36.8839E-03    -26.6850E-03     49.7199E-03    -23.2478E-03     36.8769E-03
            2069     7.91628E-03     20.7566E-03    -15.5232E+06    -92.4885E+06    -2.37768E+06     3.07308E+06    -25.8782E-03     48.9722E-03    -23.0940E-03     32.5218E-03    -25.8289E-03     48.5464E-03    -22.9493E-03     32.5268E-03
            2070     7.03865E-03     20.7248E-03    -17.2165E+06    -95.8400E+06    -4.54888E+06     3.25690E+06    -25.0907E-03     47.9018E-03    -22.8111E-03     28.3175E-03    -25.0381E-03     47.4611E-03    -22.6699E-03     28.3335E-03
            2071     6.16045E-03     20.6975E-03    -18.7989E+06    -98.2732E+06    -8.16919E+06     3.40932E+06    -24.3194E-03     46.8622E-03    -22.5428E-03     24.2888E-03    -24.2635E-03     46.4143E-03    -22.4139E-03     24.3136E-03
            2072     5.28155E-03     20.6739E-03    -20.5679E+06    -101.183E+06    -12.0474E+06     3.07995E+06    -23.6270E-03     45.9300E-03    -22.3030E-03     20.4377E-03    -23.5684E-03     45.4741E-03    -22.1867E-03     20.4634E-03
            2073     4.40219E-03     20.6544E-03    -22.4424E+06    -103.708E+06    -15.6308E+06     2.72463E+06    -23.0317E-03     45.1261E-03    -22.0944E-03     16.7585E-03    -22.9725E-03     44.6643E-03    -21.9896E-03     16.7835E-03
            2074     3.52232E-03     20.6384E-03    -23.9873E+06    -105.935E+06    -19.1929E+06     2.37369E+06    -22.5232E-03     44.4402E-03    -21.9170E-03     13.2244E-03    -22.4626E-03     43.9740E-03    -21.8246E-03     13.2478E-03
            2075     2.64210E-03     20.6262E-03    -25.2244E+06    -108.068E+06    -22.3741E+06     1.93877E+06    -22.1224E-03     43.8975E-03    -21.7751E-03     9.83015E-03    -22.0598E-03     43.4266E-03    -21.6937E-03     9.85026E-03
            2076     1.76155E-03     20.6174E-03    -26.2861E+06    -109.329E+06    -24.8169E+06     1.49080E+06    -21.8307E-03     43.5003E-03    -21.6696E-03     6.57521E-03    -21.7678E-03     43.0280E-03    -21.5971E-03     6.59138E-03
            2077     880.852E-06     20.6121E-03    -27.0718E+06    -109.043E+06    -26.6301E+06     848.514E+03    -21.6521E-03     43.2439E-03    -21.5917E-03     3.55016E-03    -21.5908E-03     42.7766E-03    -21.5275E-03     3.55952E-03
            2078     16.6555E-03     20.4542E-03    -5.33859E+06     125.632E+06     81.5164E+06     1.32361E+06    -34.7364E-03     61.2349E-03    -26.4984E-03     102.726E-03    -36.0689E-03     62.7580E-03    -26.2653E-03     102.867E-03
            2079     15.7863E-03     20.3087E-03    -8.37942E+06     112.190E+06     40.2613E+06     1.35017E+06    -36.5651E-03     62.5087E-03    -25.9436E-03     132.735E-03    -38.0700E-03     64.2653E-03    -25.8928E-03     132.608E-03
            2080     14.9154E-03     20.1965E-03    -9.59371E+06     75.1036E+06    -5.05364E+06     1.41600E+06    -34.5660E-03     59.9284E-03    -25.3625E-03     101.950E-03    -35.2860E-03     60.8958E-03    -25.4827E-03     101.684E-03
            2081     14.0431E-03     20.1094E-03    -9.63260E+06     21.8403E+06    -13.0440E+06     1.00623E+06    -32.5525E-03     57.5554E-03    -25.0029E-03     77.7868E-03    -32.8631E-03     57.9472E-03    -25.0858E-03     77.5751E-03
            2082     13.1704E-03     20.0417E-03    -9.98260E+06    -26.0606E+06    -9.87698E+06     1.17903E+06    -31.3504E-03     56.0572E-03    -24.7068E-03     63.5099E-03    -31.4860E-03     56.0935E-03    -24.7039E-03     63.3508E-03
            2083     12.2973E-03     19.9822E-03    -9.92747E+06    -46.6660E+06    -5.19940E+06     1.36679E+06    -30.3633E-03     54.7458E-03    -24.3825E-03     56.5051E-03    -30.4232E-03     54.6199E-03    -24.3265E-03     56.3893E-03
            2084     11.4232E-03     19.9275E-03    -9.58510E+06    -60.5900E+06    -2.84959E+06     1.74059E+06    -29.4114E-03     53.4539E-03    -24.0425E-03     50.4849E-03    -29.4224E-03     53.2240E-03    -23.9550E-03     50.4051E-03
            2085     10.5482E-03     19.8794E-03    -10.2895E+06    -72.2940E+06    -1.84551E+06     2.41697E+06    -28.5158E-03     52.2151E-03    -23.6993E-03     45.0361E-03    -28.4957E-03     51.9072E-03    -23.5888E-03     44.9890E-03
            2086     9.67289E-03     19.8353E-03    -11.5640E+06    -80.0484E+06    -742.137E+03     3.03471E+06    -27.5243E-03     50.8861E-03    -23.3619E-03     40.1380E-03    -27.4884E-03     50.5272E-03    -23.2327E-03     40.1181E-03
            2087     8.79637E-03     19.7966E-03    -13.0360E+06    -86.5338E+06    -1.05029E+06     3.49876E+06    -26.5574E-03     49.5911E-03    -23.0337E-03     35.5590E-03    -26.5109E-03     49.1942E-03    -22.8946E-03     35.5598E-03
            2088     7.91920E-03     19.7616E-03    -14.6949E+06    -91.9972E+06    -2.39640E+06     3.62808E+06    -25.6926E-03     48.4097E-03    -22.7171E-03     31.2224E-03    -25.6391E-03     47.9845E-03    -22.5744E-03     31.2359E-03
            2089     7.04150E-03     19.7312E-03    -16.5820E+06    -95.5291E+06    -4.91364E+06     3.53683E+06    -24.8352E-03     47.2469E-03    -22.4117E-03     27.0326E-03    -24.7788E-03     46.8068E-03    -22.2738E-03     27.0535E-03
            2090     6.16295E-03     19.7047E-03    -18.3510E+06    -97.7001E+06    -8.10400E+06     3.55915E+06    -24.0170E-03     46.1438E-03    -22.1268E-03     23.1207E-03    -23.9593E-03     45.6977E-03    -21.9990E-03     23.1485E-03
            2091     5.28386E-03     19.6822E-03    -19.9495E+06    -100.200E+06    -11.7927E+06     3.54938E+06    -23.2872E-03     45.1569E-03    -21.8696E-03     19.3985E-03    -23.2271E-03     44.7043E-03    -21.7544E-03     19.4311E-03
            2092     4.40412E-03     19.6632E-03    -21.6073E+06    -102.610E+06    -15.5342E+06     3.26018E+06    -22.6452E-03     44.2898E-03    -21.6446E-03     15.8450E-03    -22.5834E-03     43.8320E-03    -21.5421E-03     15.8776E-03
            2093     3.52394E-03     19.6481E-03    -23.2820E+06    -104.676E+06    -18.9276E+06     2.76656E+06    -22.1064E-03     43.5618E-03    -21.4554E-03     12.4626E-03    -22.0444E-03     43.1004E-03    -21.3645E-03     12.4916E-03
            2094     2.64331E-03     19.6363E-03    -24.7301E+06    -106.769E+06    -21.9112E+06     2.26497E+06    -21.6782E-03     42.9821E-03    -21.3038E-03     9.23785E-03    -21.6157E-03     42.5163E-03    -21.2227E-03     9.26255E-03
            2095     1.76241E-03     19.6280E-03    -25.7852E+06    -107.704E+06    -24.2607E+06     1.62037E+06    -21.3629E-03     42.5529E-03    -21.1900E-03     6.16532E-03    -21.3007E-03     42.0871E-03    -21.1177E-03     6.18340E-03
            2096     881.242E-06     19.6229E-03    -26.3599E+06    -107.304E+06    -25.8804E+06     812.389E+03    -21.1692E-03     42.2779E-03    -21.1087E-03     3.31955E-03    -21.1079E-03     41.8172E-03    -21.0443E-03     3.32856E-03
            2097     16.6599E-03     19.4499E-03    -5.28399E+06     124.922E+06     81.4035E+06     1.83802E+06    -36.2109E-03     62.6009E-03    -26.3900E-03     100.858E-03    -37.5176E-03     64.0964E-03    -26.1565E-03     100.975E-03
            2098     15.7869E-03     19.3018E-03    -7.72407E+06     112.380E+06     41.6659E+06     1.08029E+06    -36.3988E-03     62.1972E-03    -25.7984E-03     131.705E-03    -37.8792E-03     63.9283E-03    -25.7418E-03     131.573E-03
            2099     14.9174E-03     19.1911E-03    -8.84640E+06     75.2967E+06    -3.85883E+06     509.472E+03    -34.9172E-03     60.1143E-03    -25.1970E-03     99.5536E-03    -35.6178E-03     61.0619E-03    -25.3127E-03     99.2694E-03
            2100     14.0468E-03     19.1066E-03    -8.38592E+06     21.7083E+06    -13.0302E+06     1.49080E+06    -33.0087E-03     57.7988E-03    -24.7901E-03     75.9894E-03    -33.3062E-03     58.1815E-03    -24.8746E-03     75.7816E-03
            2101     13.1741E-03     19.0404E-03    -8.57842E+06    -25.1634E+06    -9.77791E+06     1.92758E+06    -31.4295E-03     55.8877E-03    -24.4582E-03     62.0816E-03    -31.5540E-03     55.9208E-03    -24.4581E-03     61.9347E-03
            2102     12.3007E-03     18.9814E-03    -9.34825E+06    -46.2155E+06    -5.82084E+06     1.10855E+06    -30.3781E-03     54.4870E-03    -24.1090E-03     55.2101E-03    -30.4315E-03     54.3601E-03    -24.0575E-03     55.0933E-03
            2103     11.4265E-03     18.9289E-03    -10.0331E+06    -61.9221E+06    -4.15962E+06     1.59498E+06    -29.4395E-03     53.1844E-03    -23.7449E-03     49.2742E-03    -29.4465E-03     52.9481E-03    -23.6614E-03     49.1947E-03
            2104     10.5518E-03     18.8810E-03    -10.8954E+06    -73.0799E+06    -2.72843E+06     2.87289E+06    -28.4500E-03     51.8282E-03    -23.3782E-03     43.6502E-03    -28.4285E-03     51.5165E-03    -23.2701E-03     43.6115E-03
            2105     9.67596E-03     18.8390E-03    -11.8820E+06    -80.0713E+06    -1.19042E+06     3.36596E+06    -27.4342E-03     50.4509E-03    -23.0168E-03     38.6360E-03    -27.3978E-03     50.0916E-03    -22.8894E-03     38.6225E-03
            2106     8.79956E-03     18.8010E-03    -12.9333E+06    -86.4103E+06    -1.14535E+06     3.69293E+06    -26.4756E-03     49.1365E-03    -22.6609E-03     34.1297E-03    -26.4276E-03     48.7392E-03    -22.5226E-03     34.1347E-03
            2107     7.92251E-03     18.7675E-03    -14.3385E+06    -91.6367E+06    -2.62452E+06     4.08451E+06    -25.5101E-03     47.8241E-03    -22.3139E-03     29.7377E-03    -25.4543E-03     47.3997E-03    -22.1734E-03     29.7587E-03
            2108     7.04441E-03     18.7381E-03    -16.0212E+06    -94.7862E+06    -5.14565E+06     4.08310E+06    -24.5612E-03     46.5450E-03    -21.9838E-03     25.6374E-03    -24.5022E-03     46.1076E-03    -21.8489E-03     25.6669E-03
            2109     6.16573E-03     18.7127E-03    -17.8235E+06    -97.1400E+06    -8.39553E+06     3.89288E+06    -23.7141E-03     45.3913E-03    -21.6772E-03     21.8065E-03    -23.6538E-03     44.9472E-03    -21.5525E-03     21.8397E-03
            2110     5.28629E-03     18.6910E-03    -19.4946E+06    -99.4649E+06    -11.9529E+06     3.88157E+06    -22.9330E-03     44.3319E-03    -21.3989E-03     18.1899E-03    -22.8711E-03     43.8823E-03    -21.2862E-03     18.2278E-03
            2111     4.40628E-03     18.6731E-03    -21.0056E+06    -101.385E+06    -15.3881E+06     3.75466E+06    -22.2417E-03     43.3966E-03    -21.1549E-03     14.7828E-03    -22.1787E-03     42.9437E-03    -21.0544E-03     14.8225E-03
            2112     3.52569E-03     18.6585E-03    -22.4399E+06    -103.212E+06    -18.4739E+06     3.32890E+06    -21.6595E-03     42.6091E-03    -20.9496E-03     11.5702E-03    -21.5960E-03     42.1531E-03    -20.8597E-03     11.6071E-03
            2113     2.64470E-03     18.6475E-03    -23.7707E+06    -105.086E+06    -21.0687E+06     2.62311E+06    -21.1935E-03     41.9791E-03    -20.7856E-03     8.54270E-03    -21.1299E-03     41.5191E-03    -20.7041E-03     8.57241E-03
            2114     1.76332E-03     18.6395E-03    -24.8049E+06    -105.767E+06    -23.3712E+06     1.71328E+06    -20.8502E-03     41.5114E-03    -20.6612E-03     5.68850E-03    -20.7871E-03     41.0526E-03    -20.5887E-03     5.70804E-03
            2115     881.752E-06     18.6347E-03    -25.5017E+06    -105.620E+06    -25.1830E+06     833.051E+03    -20.6396E-03     41.2115E-03    -20.5719E-03     3.04704E-03    -20.5775E-03     40.7569E-03    -20.5077E-03     3.05645E-03
            2116     16.6606E-03     18.4438E-03    -5.20397E+06     124.508E+06     82.1339E+06     831.997E+03    -37.8183E-03     64.1396E-03    -26.3213E-03     99.2780E-03    -39.1142E-03     65.6210E-03    -26.0837E-03     99.3296E-03
            2117     15.7922E-03     18.2962E-03    -5.36779E+06     113.262E+06     43.0729E+06     794.996E+03    -37.1826E-03     62.8411E-03    -25.6584E-03     131.582E-03    -38.6422E-03     64.5588E-03    -25.5995E-03     131.414E-03
            2118     14.9205E-03     18.1862E-03    -6.87176E+06     73.9243E+06    -4.77304E+06     1.38337E+06    -34.8951E-03     59.9146E-03    -25.0195E-03     98.6321E-03    -35.5646E-03     60.8361E-03    -25.1406E-03     98.3608E-03
            2119     14.0490E-03     18.1028E-03    -8.30024E+06     21.0281E+06    -13.9302E+06     2.19763E+06    -33.2647E-03     57.8592E-03    -24.5945E-03     74.6315E-03    -33.5508E-03     58.2310E-03    -24.6827E-03     74.4333E-03
            2120     13.1772E-03     18.0391E-03    -8.14471E+06    -23.8815E+06    -10.0216E+06     2.16719E+06    -31.7413E-03     55.9700E-03    -24.2287E-03     61.0620E-03    -31.8608E-03     56.0049E-03    -24.2324E-03     60.9189E-03
            2121     12.3037E-03     17.9814E-03    -8.69166E+06    -45.8794E+06    -5.52722E+06     2.19825E+06    -30.6013E-03     54.4477E-03    -23.8464E-03     54.0590E-03    -30.6489E-03     54.3177E-03    -23.7949E-03     53.9581E-03
            2122     11.4299E-03     17.9298E-03    -10.4412E+06    -62.5400E+06    -4.27043E+06     2.59147E+06    -29.5731E-03     53.0202E-03    -23.4471E-03     47.6984E-03    -29.5784E-03     52.7788E-03    -23.3626E-03     47.6338E-03
            2123     10.5551E-03     17.8836E-03    -11.5287E+06    -73.5684E+06    -3.36287E+06     2.74781E+06    -28.4608E-03     51.5049E-03    -23.0441E-03     41.9938E-03    -28.4386E-03     51.1904E-03    -22.9375E-03     41.9560E-03
            2124     9.67956E-03     17.8428E-03    -12.1686E+06    -79.9779E+06    -1.31952E+06     3.13588E+06    -27.4211E-03     50.0716E-03    -22.6505E-03     36.9791E-03    -27.3844E-03     49.7117E-03    -22.5235E-03     36.9647E-03
            2125     8.80318E-03     17.8060E-03    -12.9273E+06    -86.7520E+06    -1.52594E+06     3.73253E+06    -26.3955E-03     48.6542E-03    -22.2587E-03     32.4161E-03    -26.3452E-03     48.2545E-03    -22.1218E-03     32.4235E-03
            2126     7.92582E-03     17.7739E-03    -13.9951E+06    -91.5291E+06    -3.07699E+06     4.24699E+06    -25.3246E-03     47.2023E-03    -21.8778E-03     28.0614E-03    -25.2656E-03     46.7777E-03    -21.7401E-03     28.0863E-03
            2127     7.04770E-03     17.7457E-03    -15.3626E+06    -93.9905E+06    -5.38826E+06     4.50074E+06    -24.3310E-03     45.8475E-03    -21.5165E-03     24.0451E-03    -24.2689E-03     45.4128E-03    -21.3849E-03     24.0815E-03
            2128     6.16872E-03     17.7214E-03    -16.9644E+06    -96.4407E+06    -8.42020E+06     4.47709E+06    -23.4073E-03     44.5879E-03    -21.1807E-03     20.2728E-03    -23.3432E-03     44.1457E-03    -21.0583E-03     20.3148E-03
            2129     5.28905E-03     17.7009E-03    -18.7229E+06    -98.6210E+06    -11.7830E+06     4.42042E+06    -22.5591E-03     43.4347E-03    -20.8757E-03     16.7798E-03    -22.4945E-03     42.9878E-03    -20.7644E-03     16.8256E-03
            2130     4.40865E-03     17.6838E-03    -20.3276E+06    -100.155E+06    -14.9607E+06     4.16089E+06    -21.8030E-03     42.4106E-03    -20.6076E-03     13.5537E-03    -21.7389E-03     41.9621E-03    -20.5077E-03     13.5995E-03
            2131     3.52771E-03     17.6701E-03    -21.6102E+06    -101.550E+06    -17.9177E+06     3.68722E+06    -21.1616E-03     41.5426E-03    -20.3810E-03     10.5492E-03    -21.0971E-03     41.0928E-03    -20.2920E-03     10.5912E-03
            2132     2.64622E-03     17.6595E-03    -22.6004E+06    -102.988E+06    -20.3018E+06     2.87617E+06    -20.6483E-03     40.8490E-03    -20.2007E-03     7.75411E-03    -20.5829E-03     40.3966E-03    -20.1201E-03     7.78749E-03
            2133     1.76439E-03     17.6522E-03    -23.4456E+06    -103.773E+06    -22.2732E+06     1.91946E+06    -20.2716E-03     40.3388E-03    -20.0672E-03     5.14784E-03    -20.2062E-03     39.8864E-03    -19.9941E-03     5.17029E-03
            2134     882.243E-06     17.6475E-03    -24.0179E+06    -103.670E+06    -23.8321E+06     1.07606E+06    -20.0433E-03     40.0182E-03    -19.9749E-03     2.75322E-03    -19.9786E-03     39.5693E-03    -19.9089E-03     2.76591E-03
            2135     16.6595E-03     17.4307E-03    -4.66553E+06     124.605E+06     81.8335E+06    -348.723E+03    -38.4022E-03     64.7187E-03    -26.3165E-03     98.0666E-03    -39.6771E-03     66.1821E-03    -26.0813E-03     98.0694E-03
            2136     15.7917E-03     17.2905E-03    -6.52949E+06     111.488E+06     40.7243E+06     683.924E+03    -38.6212E-03     64.2095E-03    -25.5883E-03     130.416E-03    -40.0584E-03     65.9013E-03    -25.5369E-03     130.202E-03
            2137     14.9222E-03     17.1808E-03    -8.95583E+06     72.9109E+06    -6.36217E+06     2.53216E+06    -35.6197E-03     60.5043E-03    -24.8846E-03     97.6876E-03    -36.2841E-03     61.4143E-03    -25.0092E-03     97.4201E-03
            2138     14.0516E-03     17.0998E-03    -9.70473E+06     21.7102E+06    -14.4883E+06     2.27554E+06    -33.4925E-03     57.9135E-03    -24.4210E-03     72.8378E-03    -33.7746E-03     58.2803E-03    -24.5109E-03     72.6420E-03
            2139     13.1792E-03     17.0370E-03    -9.61133E+06    -24.4824E+06     -11.066E+06     1.86499E+06    -32.2092E-03     56.2251E-03    -24.0159E-03     59.2790E-03    -32.3286E-03     56.2556E-03    -24.0218E-03     59.1317E-03
            2140     12.3071E-03     16.9812E-03    -9.86559E+06    -46.6802E+06    -5.74412E+06     3.09021E+06    -31.0897E-03     54.6745E-03    -23.5848E-03     52.2722E-03    -31.1379E-03     54.5387E-03    -23.5315E-03     52.1833E-03
            2141     11.4335E-03     16.9307E-03    -10.0741E+06    -61.6112E+06    -3.34659E+06     3.39132E+06    -29.8049E-03     52.9404E-03    -23.1355E-03     45.8327E-03    -29.8080E-03     52.6987E-03    -23.0482E-03     45.7805E-03
            2142     10.5590E-03     16.8866E-03    -10.4997E+06    -72.9291E+06    -2.91845E+06     2.70407E+06    -28.6039E-03     51.2885E-03    -22.6846E-03     40.0673E-03    -28.5758E-03     50.9727E-03    -22.5782E-03     40.0314E-03
            2143     9.68336E-03     16.8466E-03    -11.1728E+06    -80.7323E+06    -1.38890E+06     2.80583E+06    -27.4725E-03     49.7187E-03    -22.2462E-03     35.0699E-03    -27.4280E-03     49.3520E-03    -22.1199E-03     35.0536E-03
            2144     8.80702E-03     16.8117E-03    -12.2100E+06    -87.1637E+06    -1.40282E+06     3.74795E+06    -26.3137E-03     48.1274E-03    -21.8137E-03     30.3437E-03    -26.2581E-03     47.7231E-03    -21.6766E-03     30.3536E-03
            2145     7.92960E-03     16.7808E-03    -13.4838E+06    -91.4427E+06    -3.31636E+06     4.35863E+06    -25.1768E-03     46.5675E-03    -21.3907E-03     26.0512E-03    -25.1141E-03     46.1420E-03    -21.2551E-03     26.0796E-03
            2146     7.05134E-03     16.7540E-03    -14.7459E+06    -93.5637E+06    -5.77284E+06     4.74718E+06    -24.1025E-03     45.0905E-03    -20.9880E-03     22.0945E-03    -24.0367E-03     44.6570E-03    -20.8598E-03     22.1356E-03
            2147     6.17218E-03     16.7310E-03    -16.1869E+06    -95.7128E+06    -8.34025E+06     5.05901E+06    -23.0738E-03     43.6902E-03    -20.6164E-03     18.4597E-03    -23.0066E-03     43.2500E-03    -20.4959E-03     18.5106E-03
            2148     5.29217E-03     16.7115E-03    -17.7302E+06    -97.5356E+06    -11.3079E+06     5.02149E+06    -22.1325E-03     42.4124E-03    -20.2799E-03     15.1469E-03    -22.0649E-03     41.9685E-03    -20.1694E-03     15.2015E-03
            2149     4.41142E-03     16.6956E-03    -19.1813E+06    -98.6244E+06    -14.2971E+06     4.62356E+06    -21.2972E-03     41.2816E-03    -19.9844E-03     12.1487E-03    -21.2303E-03     40.8380E-03    -19.8851E-03     12.2012E-03
            2150     3.52997E-03     16.6827E-03    -20.3954E+06    -99.7051E+06    -17.1619E+06     3.90809E+06    -20.5889E-03     40.3246E-03    -19.7357E-03     9.40605E-03    -20.5219E-03     39.8810E-03    -19.6474E-03     9.45150E-03
            2151     2.64799E-03     16.6729E-03    -21.3080E+06    -100.781E+06    -19.3782E+06     3.04806E+06    -20.0268E-03     39.5661E-03    -19.5393E-03     6.88581E-03    -19.9594E-03     39.1214E-03    -19.4591E-03     6.92180E-03
            2152     1.76556E-03     16.6659E-03    -21.9986E+06    -101.672E+06    -21.0059E+06     2.09768E+06    -19.6151E-03     39.0120E-03    -19.3969E-03     4.55184E-03    -19.5474E-03     38.5661E-03    -19.3226E-03     4.57684E-03
            2153     882.866E-06     16.6618E-03    -22.4780E+06    -101.388E+06    -22.1937E+06     1.25569E+06    -19.3758E-03     38.6721E-03    -19.2963E-03     2.43701E-03    -19.3091E-03     38.2300E-03    -19.2276E-03     2.45215E-03
            2154     16.6592E-03     16.4210E-03    -4.05611E+06     123.990E+06     81.2730E+06    -153.507E+03    -38.5716E-03     64.8610E-03    -26.2894E-03     95.4221E-03    -39.8077E-03     66.2873E-03    -26.0569E-03     95.4101E-03
            2155     15.7918E-03     16.2806E-03    -9.71567E+06     108.408E+06     38.6159E+06     693.827E+03    -39.1736E-03     64.7066E-03    -25.5329E-03     126.964E-03    -40.5800E-03     66.3514E-03    -25.4830E-03     126.735E-03
            2156     14.9244E-03     16.1749E-03    -11.0379E+06     72.5485E+06    -6.76855E+06     2.13417E+06    -36.6583E-03     61.4301E-03    -24.7718E-03     94.4218E-03    -37.3097E-03     62.3196E-03    -24.8949E-03     94.1350E-03
            2157     14.0538E-03     16.0964E-03    -10.6927E+06     22.9113E+06    -15.3942E+06     2.04635E+06    -34.1915E-03     58.4254E-03    -24.2339E-03     70.5979E-03    -34.4676E-03     58.7896E-03    -24.3286E-03     70.3971E-03
            2158     13.1828E-03     16.0347E-03    -10.6321E+06    -24.7945E+06    -12.1752E+06     2.04849E+06    -32.7019E-03     56.4757E-03    -23.7739E-03     57.0122E-03    -32.8171E-03     56.5006E-03    -23.7834E-03     56.8681E-03
            2159     12.3105E-03     15.9804E-03    -10.3618E+06    -47.8748E+06    -7.51867E+06     2.36149E+06    -31.4475E-03     54.7361E-03    -23.2886E-03     49.9872E-03    -31.4890E-03     54.5928E-03    -23.2417E-03     49.8911E-03
            2160     11.4373E-03     15.9321E-03    -9.56382E+06    -60.9492E+06    -3.90656E+06     2.83063E+06    -30.1864E-03     52.9729E-03    -22.7865E-03     43.5438E-03    -30.1836E-03     52.7312E-03    -22.7038E-03     43.4864E-03
            2161     10.5630E-03     15.8892E-03    -9.42658E+06    -72.2209E+06    -2.46257E+06     2.97989E+06    -28.9106E-03     51.1894E-03    -22.2788E-03     37.6920E-03    -28.8762E-03     50.8723E-03    -22.1727E-03     37.6618E-03
            2162     9.68792E-03     15.8512E-03    -10.5232E+06    -81.5521E+06    -1.63901E+06     3.21027E+06    -27.5753E-03     49.3562E-03    -21.7808E-03     32.5110E-03    -27.5240E-03     48.9828E-03    -21.6555E-03     32.5024E-03
            2163     8.81143E-03     15.8176E-03    -11.8585E+06    -87.5953E+06    -1.74437E+06     3.91280E+06    -26.2678E-03     47.5626E-03    -21.2948E-03     27.8256E-03    -26.2078E-03     47.1546E-03    -21.1593E-03     27.8400E-03
            2164     7.93413E-03     15.7884E-03    -13.1274E+06    -91.2883E+06    -3.31240E+06     4.59239E+06    -25.0300E-03     45.8522E-03    -20.8221E-03     23.5832E-03    -24.9648E-03     45.4259E-03    -20.6873E-03     23.6165E-03
            2165     7.05563E-03     15.7630E-03    -14.4814E+06    -93.3445E+06    -6.10307E+06     5.04242E+06    -23.7999E-03     44.1715E-03    -20.3716E-03     19.7755E-03    -23.7319E-03     43.7385E-03    -20.2458E-03     19.8221E-03
            2166     6.17622E-03     15.7415E-03    -15.7455E+06    -95.1237E+06    -8.50794E+06     5.38488E+06    -22.6543E-03     42.6152E-03    -19.9608E-03     16.3497E-03    -22.5851E-03     42.1770E-03    -19.8426E-03     16.4062E-03
            2167     5.29580E-03     15.7234E-03    -16.8941E+06    -96.2082E+06    -10.9441E+06     5.36697E+06    -21.6046E-03     41.1976E-03    -19.5930E-03     13.3091E-03    -21.5350E-03     40.7583E-03    -19.4837E-03     13.3692E-03
            2168     4.41455E-03     15.7084E-03    -17.9015E+06    -96.8833E+06    -13.5306E+06     4.86028E+06    -20.6855E-03     39.9588E-03    -19.2733E-03     10.6037E-03    -20.6157E-03     39.5207E-03    -19.1745E-03     10.6600E-03
            2169     3.53256E-03     15.6966E-03    -18.8339E+06    -97.7171E+06    -15.9757E+06     4.19202E+06    -19.9180E-03     38.9256E-03    -19.0076E-03     8.17411E-03    -19.8477E-03     38.4879E-03    -18.9185E-03     8.22379E-03
            2170     2.64995E-03     15.6875E-03    -19.7673E+06    -98.5323E+06    -18.1714E+06     3.31930E+06    -19.3143E-03     38.1126E-03    -18.7983E-03     5.96665E-03    -19.2442E-03     37.6751E-03    -18.7176E-03     6.00653E-03
            2171     1.76691E-03     15.6812E-03    -20.5789E+06    -99.3310E+06    -19.7244E+06     2.31146E+06    -18.8824E-03     37.5292E-03    -18.6468E-03     3.93454E-03    -18.8128E-03     37.0910E-03    -18.5715E-03     3.96253E-03
            2172     883.520E-06     15.6772E-03    -21.1406E+06    -98.9153E+06    -20.8447E+06     1.30414E+06    -18.6370E-03     37.1627E-03    -18.5257E-03     2.11336E-03    -18.5691E-03     36.7290E-03    -18.4558E-03     2.12925E-03
            2173     16.6630E-03     15.4151E-03    -3.45697E+06     123.667E+06     82.2522E+06     1.16791E+06    -39.7979E-03     66.0450E-03    -26.2472E-03     93.9971E-03    -41.0093E-03     67.4448E-03    -26.0102E-03     93.9599E-03
            2174     15.7940E-03     15.2694E-03    -9.22760E+06     108.398E+06     40.6749E+06     2.05698E+06    -39.7844E-03     65.2275E-03    -25.4431E-03     125.416E-03    -41.1603E-03     66.8376E-03    -25.3835E-03     125.176E-03
            2175     14.9257E-03     15.1693E-03    -11.1950E+06     72.0333E+06    -5.67745E+06     1.33434E+06    -37.4063E-03     62.0335E-03    -24.6273E-03     90.6895E-03    -38.0298E-03     62.8897E-03    -24.7439E-03     90.3838E-03
            2176     14.0570E-03     15.0909E-03    -10.3914E+06     23.0803E+06    -15.2140E+06     1.99723E+06    -35.1375E-03     59.1505E-03    -24.0129E-03     67.4188E-03    -35.3998E-03     59.5021E-03    -24.1074E-03     67.2134E-03
            2177     13.1865E-03     15.0330E-03    -9.95622E+06    -24.2025E+06    -12.5873E+06     2.17833E+06    -33.2333E-03     56.7131E-03    -23.4797E-03     54.0387E-03    -33.3371E-03     56.7322E-03    -23.4931E-03     53.8977E-03
            2178     12.3146E-03     14.9795E-03    -9.58915E+06    -47.6320E+06    -8.28132E+06     1.63248E+06    -31.8391E-03     54.7738E-03    -22.9347E-03     47.2115E-03    -31.8705E-03     54.6262E-03    -22.8932E-03     47.1085E-03
            2179     11.4418E-03     14.9334E-03    -9.85840E+06    -61.6127E+06    -5.04450E+06     2.07811E+06    -30.6197E-03     52.9899E-03    -22.3702E-03     40.5247E-03    -30.6118E-03     52.7430E-03    -22.2918E-03     40.4599E-03
            2180     10.5682E-03     14.8918E-03    -10.3118E+06    -72.8825E+06    -3.11609E+06     3.10771E+06    -29.2373E-03     51.0321E-03    -21.7948E-03     34.6279E-03    -29.2026E-03     50.7112E-03    -21.6897E-03     34.6016E-03
            2181     9.69320E-03     14.8561E-03    -11.0685E+06    -81.5172E+06    -1.65859E+06     3.74615E+06    -27.7292E-03     48.9570E-03    -21.2278E-03     29.4084E-03    -27.6785E-03     48.5825E-03    -21.1018E-03     29.4092E-03
            2182     8.81696E-03     14.8242E-03    -12.2744E+06    -87.8273E+06    -2.40003E+06     4.29118E+06    -26.2257E-03     46.8988E-03    -20.6732E-03     24.8654E-03    -26.1650E-03     46.4898E-03    -20.5400E-03     24.8871E-03
            2183     7.93943E-03     14.7967E-03    -13.4469E+06    -91.4302E+06    -3.80795E+06     4.77486E+06    -24.7789E-03     44.9233E-03    -20.1444E-03     20.7328E-03    -24.7133E-03     44.4965E-03    -20.0114E-03     20.7707E-03
            2184     7.06081E-03     14.7732E-03    -14.6092E+06    -92.9764E+06    -5.92279E+06     5.25635E+06    -23.3902E-03     43.0393E-03    -19.6491E-03     17.1515E-03    -23.3229E-03     42.6074E-03    -19.5228E-03     17.2027E-03
            2185     6.18089E-03     14.7531E-03    -15.6365E+06    -94.4020E+06    -8.59723E+06     5.37184E+06    -22.0942E-03     41.2931E-03    -19.1989E-03     14.0202E-03    -22.0249E-03     40.8581E-03    -19.0823E-03     14.0779E-03
            2186     5.30001E-03     14.7364E-03    -16.3260E+06    -94.8624E+06    -10.5560E+06     5.20638E+06    -20.9422E-03     39.7465E-03    -18.8043E-03     11.2970E-03    -20.8720E-03     39.3122E-03    -18.6959E-03     11.3560E-03
            2187     4.41810E-03     14.7228E-03    -16.9929E+06    -95.1945E+06    -12.8640E+06     4.86423E+06    -19.9470E-03     38.4125E-03    -18.4655E-03     8.93278E-03    -19.8759E-03     37.9804E-03    -18.3672E-03     8.98993E-03
            2188     3.53545E-03     14.7119E-03    -17.7013E+06    -95.7863E+06    -15.1389E+06     4.33945E+06    -19.1336E-03     37.3207E-03    -18.1872E-03     6.84504E-03    -19.0616E-03     36.8897E-03    -18.0983E-03     6.89718E-03
            2189     2.65214E-03     14.7038E-03    -18.3318E+06    -96.2264E+06    -17.0055E+06     3.61879E+06    -18.5043E-03     36.4743E-03    -17.9700E-03     4.97330E-03    -18.4319E-03     36.0445E-03    -17.8890E-03     5.01742E-03
            2190     1.76835E-03     14.6978E-03    -18.9321E+06    -96.7295E+06    -18.3508E+06     2.59836E+06    -18.0616E-03     35.8737E-03    -17.8121E-03     3.27279E-03    -17.9895E-03     35.4442E-03    -17.7361E-03     3.30472E-03
            2191     884.288E-06     14.6944E-03    -19.4174E+06    -96.1933E+06    -19.2619E+06     1.44602E+06    -17.8044E-03     35.4884E-03    -17.6840E-03     1.73512E-03    -17.7341E-03     35.0635E-03    -17.6127E-03     1.75296E-03
            2192     16.6595E-03     14.4006E-03    -4.70326E+06     122.030E+06     81.8752E+06     1.12337E+06    -41.4989E-03     67.7278E-03    -26.2289E-03     92.6454E-03    -42.6855E-03     69.0935E-03    -25.9897E-03     92.5434E-03
            2193     15.7959E-03     14.2611E-03    -7.19134E+06     109.611E+06     43.7020E+06     2.12846E+06    -41.7565E-03     67.0809E-03    -25.3245E-03     121.939E-03    -43.0837E-03     68.6452E-03    -25.2545E-03     121.633E-03
            2194     14.9292E-03     14.1604E-03    -8.85281E+06     72.4821E+06    -3.40942E+06     1.81605E+06    -38.2308E-03     62.6386E-03    -24.4077E-03     86.1640E-03    -38.8169E-03     63.4607E-03    -24.5171E-03     85.8519E-03
            2195     14.0612E-03     14.0865E-03    -10.1261E+06     22.2984E+06    -14.9314E+06     2.06253E+06    -35.6601E-03     59.3835E-03    -23.7234E-03     63.5035E-03    -35.9045E-03     59.7146E-03    -23.8157E-03     63.2999E-03
            2196     13.1912E-03     14.0299E-03    -9.56976E+06    -23.0057E+06    -11.9749E+06     2.07357E+06    -33.8889E-03     57.0123E-03    -23.1233E-03     50.7637E-03    -33.9854E-03     57.0280E-03    -23.1360E-03     50.6218E-03
            2197     12.3201E-03     13.9793E-03    -9.56542E+06    -46.9841E+06    -8.19918E+06     1.88782E+06    -32.5171E-03     55.0155E-03    -22.4984E-03     44.0002E-03    -32.5440E-03     54.8655E-03    -22.4574E-03     43.9019E-03
            2198     11.4478E-03     13.9339E-03    -9.97845E+06    -62.9016E+06    -5.34944E+06     2.17122E+06    -31.0441E-03     52.8981E-03    -21.8540E-03     37.0164E-03    -31.0302E-03     52.6411E-03    -21.7751E-03     36.9556E-03
            2199     10.5744E-03     13.8953E-03    -10.7148E+06    -73.7858E+06    -3.17440E+06     2.93970E+06    -29.4554E-03     50.6600E-03    -21.2046E-03     31.0236E-03    -29.4183E-03     50.3322E-03    -21.0979E-03     30.9982E-03
            2200     9.69958E-03     13.8610E-03    -11.4860E+06    -81.6573E+06    -1.24490E+06     3.83796E+06    -27.8307E-03     48.3958E-03    -20.5651E-03     25.9088E-03    -27.7804E-03     48.0186E-03    -20.4363E-03     25.9136E-03
            2201     8.82353E-03     13.8317E-03    -12.5969E+06    -87.7187E+06    -1.82527E+06     4.60006E+06    -26.1140E-03     46.0539E-03    -19.9399E-03     21.4376E-03    -26.0545E-03     45.6437E-03    -19.8036E-03     21.4657E-03
            2202     7.94584E-03     13.8061E-03    -14.0249E+06    -91.1340E+06    -4.01177E+06     4.90165E+06    -24.4015E-03     43.7499E-03    -19.3484E-03     17.6273E-03    -24.3379E-03     43.3247E-03    -19.2160E-03     17.6690E-03
            2203     7.06671E-03     13.7845E-03    -14.9842E+06    -92.6611E+06    -5.63758E+06     5.02350E+06    -22.8441E-03     41.6537E-03    -18.8096E-03     14.2802E-03    -22.7790E-03     41.2228E-03    -18.6817E-03     14.3301E-03
            2204     6.18638E-03     13.7662E-03    -15.6541E+06    -93.2604E+06    -7.91247E+06     5.00327E+06    -21.4140E-03     39.7375E-03    -18.3235E-03     11.4723E-03    -21.3470E-03     39.3069E-03    -18.2051E-03     11.5266E-03
            2205     5.30473E-03     13.7511E-03    -16.2427E+06    -93.7331E+06    -10.2225E+06     4.68973E+06    -20.1548E-03     38.0550E-03    -17.9002E-03     9.07197E-03    -20.0861E-03     37.6255E-03    -17.7918E-03     9.12543E-03
            2206     4.42218E-03     13.7388E-03    -16.5896E+06    -93.7346E+06    -12.2825E+06     4.47704E+06    -19.0926E-03     36.6351E-03    -17.5426E-03     7.05216E-03    -19.0223E-03     36.2087E-03    -17.4440E-03     7.10507E-03
            2207     3.53870E-03     13.7290E-03    -16.7767E+06    -94.0191E+06    -14.3125E+06     4.10994E+06    -18.2327E-03     35.4837E-03    -17.2510E-03     5.32844E-03    -18.1598E-03     35.0589E-03    -17.1619E-03     5.37815E-03
            2208     2.65461E-03     13.7215E-03    -16.9616E+06    -94.0755E+06    -15.7391E+06     3.58993E+06    -17.5763E-03     34.6029E-03    -17.0267E-03     3.83261E-03    -17.5020E-03     34.1800E-03    -16.9443E-03     3.87674E-03
            2209     1.77002E-03     13.7164E-03    -17.1533E+06    -93.9717E+06    -16.6464E+06     2.75783E+06    -17.1149E-03     33.9811E-03    -16.8662E-03     2.51506E-03    -17.0403E-03     33.5603E-03    -16.7883E-03     2.54930E-03
            2210     885.091E-06     13.7131E-03    -17.3422E+06    -93.2391E+06    -17.1381E+06     1.51399E+06    -16.8454E-03     33.5984E-03    -16.7530E-03     1.31217E-03    -16.7721E-03     33.1822E-03    -16.6784E-03     1.33101E-03
            2211     16.6620E-03     13.3857E-03    -4.95765E+06     121.461E+06       81.42E+06     306.037E+03    -43.4858E-03     69.6394E-03    -26.1536E-03     89.6639E-03    -44.6326E-03     70.9638E-03    -25.9155E-03     89.4936E-03
            2212     15.7994E-03     13.2474E-03    -7.81374E+06     108.742E+06     44.2220E+06     719.372E+03    -43.2066E-03     68.3518E-03    -25.1452E-03     117.178E-03    -44.4800E-03     69.8555E-03    -25.0704E-03     116.803E-03
            2213     14.9350E-03     13.1533E-03    -8.59927E+06     71.7653E+06    -2.25260E+06     2.54956E+06    -39.2566E-03     63.3929E-03    -24.1363E-03     82.3853E-03    -39.8138E-03     64.1811E-03    -24.2392E-03     82.0699E-03
            2214     14.0660E-03     13.0813E-03    -8.24066E+06     23.0810E+06    -13.4611E+06     2.88203E+06    -36.3857E-03     59.7565E-03    -23.3708E-03     60.1859E-03    -36.6088E-03     60.0715E-03    -23.4596E-03     59.9935E-03
            2215     13.1967E-03     13.0270E-03    -8.55483E+06    -22.1764E+06    -11.1327E+06     2.29670E+06    -34.7435E-03     57.4307E-03    -22.6872E-03     47.3862E-03    -34.8290E-03     57.4395E-03    -22.6983E-03     47.2476E-03
            2216     12.3265E-03     12.9778E-03    -9.13916E+06    -47.1166E+06    -7.88722E+06     2.35624E+06    -33.2992E-03     55.2663E-03    -21.9671E-03     40.3627E-03    -33.3184E-03     55.1088E-03    -21.9250E-03     40.2721E-03
            2217     11.4552E-03     12.9353E-03    -9.91944E+06    -63.0187E+06    -4.69693E+06     2.61324E+06    -31.5215E-03     52.7521E-03    -21.2306E-03     33.2575E-03    -31.5037E-03     52.4892E-03    -21.1483E-03     33.2056E-03
            2218     10.5820E-03     12.8987E-03    -10.7230E+06    -73.9440E+06    -2.51961E+06     3.04001E+06    -29.6675E-03     50.1629E-03    -20.4954E-03     27.1628E-03    -29.6281E-03     49.8304E-03    -20.3852E-03     27.1422E-03
            2219     9.70738E-03     12.8668E-03    -11.7999E+06    -82.5692E+06    -792.512E+03     3.93696E+06    -27.7460E-03     47.5271E-03    -19.7811E-03     22.0837E-03    -27.6945E-03     47.1431E-03    -19.6483E-03     22.0929E-03
            2220     8.83108E-03     12.8399E-03    -13.1306E+06    -87.7867E+06    -1.01945E+06     4.77235E+06    -25.8032E-03     44.8964E-03    -19.0932E-03     17.8423E-03    -25.7461E-03     44.4841E-03    -18.9520E-03     17.8754E-03
            2221     7.95314E-03     12.8168E-03    -14.4068E+06    -90.2348E+06    -3.16944E+06     4.93074E+06    -23.9215E-03     42.3668E-03    -18.4453E-03     14.3889E-03    -23.8615E-03     41.9447E-03    -18.3095E-03     14.4332E-03
            2222     7.07359E-03     12.7972E-03    -15.4743E+06    -91.9941E+06    -5.25033E+06     4.54808E+06    -22.1818E-03     40.0410E-03    -17.8593E-03     11.3997E-03    -22.1201E-03     39.6131E-03    -17.7297E-03     11.4453E-03
            2223     6.19253E-03     12.7810E-03    -16.1488E+06    -92.3311E+06    -7.13476E+06     4.30875E+06    -20.6406E-03     37.9786E-03    -17.3380E-03     8.88360E-03    -20.5782E-03     37.5518E-03    -17.2164E-03     8.93019E-03
            2224     5.31031E-03     12.7675E-03    -16.6353E+06    -92.4958E+06    -9.65353E+06     4.03198E+06    -19.2792E-03     36.1618E-03    -16.8827E-03     6.84989E-03    -19.2149E-03     35.7381E-03    -16.7727E-03     6.89575E-03
            2225     4.42685E-03     12.7567E-03    -16.9227E+06    -92.5860E+06    -11.9460E+06     3.58866E+06    -18.1400E-03     34.6404E-03    -16.5003E-03     5.19356E-03    -18.0735E-03     34.2196E-03    -16.4013E-03     5.23562E-03
            2226     3.54259E-03     12.7479E-03    -16.8288E+06    -92.5763E+06    -13.6407E+06     3.31040E+06    -17.2191E-03     33.4116E-03    -16.1925E-03     3.84663E-03    -17.1495E-03     32.9931E-03    -16.1021E-03     3.88645E-03
            2227     2.65751E-03     12.7415E-03    -16.4565E+06    -92.2258E+06    -14.7424E+06     2.89784E+06    -16.5204E-03     32.4788E-03    -15.9585E-03     2.74399E-03    -16.4477E-03     32.0630E-03    -15.8746E-03     2.77948E-03
            2228     1.77196E-03     12.7367E-03    -15.8559E+06    -91.4617E+06    -14.9859E+06     2.15009E+06    -16.0375E-03     31.8349E-03    -15.7974E-03     1.79334E-03    -15.9625E-03     31.4223E-03    -15.7167E-03     1.81992E-03
            2229     886.052E-06     12.7341E-03    -15.2150E+06    -90.5694E+06    -14.9681E+06     1.09275E+06    -15.7702E-03     31.4647E-03    -15.6945E-03     940.124E-06    -15.6933E-03     31.0556E-03    -15.6160E-03     953.629E-06
            2230     16.6658E-03     12.3701E-03    -4.56529E+06     121.333E+06     81.5922E+06     527.070E+03    -45.4373E-03     71.4881E-03    -26.0508E-03     88.9753E-03    -46.5537E-03     72.7825E-03    -25.8121E-03     88.7513E-03
            2231     15.8023E-03     12.2346E-03    -8.17791E+06     107.141E+06     43.3791E+06     1.34862E+06    -44.4606E-03     69.4036E-03    -24.9430E-03     113.771E-03    -45.6783E-03     70.8471E-03    -24.8696E-03     113.361E-03
            2232     14.9371E-03     12.1436E-03    -10.4654E+06     70.5758E+06    -1.67825E+06     1.56709E+06    -40.5614E-03     64.4094E-03    -23.8480E-03     77.8310E-03    -41.0946E-03     65.1612E-03    -23.9436E-03     77.4901E-03
            2233     14.0720E-03     12.0757E-03    -9.62146E+06     23.9748E+06    -12.4692E+06     2.36647E+06    -37.7979E-03     60.7676E-03    -22.9697E-03     56.3493E-03    -38.0162E-03     61.0733E-03    -23.0529E-03     56.1457E-03
            2234     13.2039E-03     12.0232E-03    -8.81905E+06    -21.8211E+06    -11.5627E+06     2.85051E+06    -35.8241E-03     57.9869E-03    -22.1627E-03     43.8547E-03    -35.9023E-03     57.9901E-03    -22.1761E-03     43.7233E-03
            2235     12.3345E-03     11.9764E-03    -9.25337E+06    -47.1306E+06    -7.51806E+06     2.90403E+06    -34.0152E-03     55.3561E-03    -21.3409E-03     36.3581E-03    -34.0293E-03     55.1921E-03    -21.2968E-03     36.2772E-03
            2236     11.4633E-03     11.9368E-03    -10.2747E+06    -62.5042E+06    -3.95693E+06     3.09148E+06    -31.9784E-03     52.4858E-03    -20.5075E-03     29.2356E-03    -31.9599E-03     52.2208E-03    -20.4217E-03     29.1936E-03
            2237     10.5909E-03     11.9024E-03    -11.4150E+06    -74.2841E+06    -1.98530E+06     3.48309E+06    -29.7629E-03     49.4478E-03    -19.6849E-03     23.2265E-03    -29.7244E-03     49.1111E-03    -19.5706E-03     23.2153E-03
            2238     9.71626E-03     11.8739E-03    -12.6499E+06    -83.2051E+06    -401.303E+03     4.22205E+06    -27.4465E-03     46.3485E-03    -18.9020E-03     18.4417E-03    -27.3970E-03     45.9601E-03    -18.7650E-03     18.4582E-03
            2239     8.83951E-03     11.8493E-03    -13.9026E+06    -87.7547E+06    -371.578E+03     4.69386E+06    -25.2880E-03     43.4511E-03    -18.1631E-03     14.5898E-03    -25.2346E-03     43.0380E-03    -18.0176E-03     14.6246E-03
            2240     7.96114E-03     11.8290E-03    -14.9507E+06    -89.2915E+06    -1.93743E+06     4.66545E+06    -23.2845E-03     40.7581E-03    -17.4735E-03     11.4341E-03    -23.2298E-03     40.3390E-03    -17.3321E-03     11.4769E-03
            2241     7.08093E-03     11.8117E-03    -16.0974E+06    -90.7371E+06    -4.18076E+06     4.17218E+06    -21.4159E-03     38.2651E-03    -16.8491E-03     8.90368E-03    -21.3604E-03     37.8424E-03    -16.7151E-03     8.94576E-03
            2242     6.19930E-03     11.7975E-03    -17.1126E+06    -91.4128E+06    -6.65962E+06     3.48917E+06    -19.7562E-03     36.0528E-03    -16.2966E-03     6.78853E-03    -19.7005E-03     35.6311E-03    -16.1725E-03     6.82548E-03
            2243     5.31612E-03     11.7859E-03    -17.6255E+06    -91.3261E+06    -8.87425E+06     2.95384E+06    -18.3336E-03     34.1524E-03    -15.8188E-03     5.15649E-03    -18.2770E-03     33.7347E-03    -15.7052E-03     5.18898E-03
            2244     4.43193E-03     11.7764E-03    -17.7654E+06    -91.4551E+06    -11.2179E+06     2.41181E+06    -17.1311E-03     32.5471E-03    -15.4159E-03     3.84799E-03    -17.0714E-03     32.1321E-03    -15.3137E-03     3.87517E-03
            2245     3.54661E-03     11.7692E-03    -17.7027E+06    -91.5230E+06    -13.0549E+06     1.91320E+06    -16.1627E-03     31.2546E-03    -15.0918E-03     2.82710E-03    -16.0998E-03     30.8417E-03    -14.9987E-03     2.84905E-03
            2246     2.66062E-03     11.7634E-03    -17.1831E+06     -90.786E+06    -14.1892E+06     1.38905E+06    -15.4325E-03     30.2766E-03    -14.8440E-03     2.00312E-03    -15.3664E-03     29.8682E-03    -14.7584E-03     2.01921E-03
            2247     1.77401E-03     11.7595E-03    -16.4294E+06    -89.8277E+06    -15.1242E+06     780.840E+03    -14.9259E-03     29.5936E-03    -14.6677E-03     1.29342E-03    -14.8560E-03     29.1902E-03    -14.5893E-03     1.30234E-03
            2248     887.092E-06     11.7569E-03    -15.8283E+06    -89.0626E+06    -15.4932E+06     374.986E+03    -14.6485E-03     29.1905E-03    -14.5420E-03     678.623E-06    -14.5761E-03     28.7906E-03    -14.4674E-03     682.872E-06
            2249     16.6633E-03     11.3494E-03    -4.81446E+06     120.078E+06     81.3250E+06     226.739E+03    -47.1664E-03     73.1422E-03    -25.9758E-03     87.8711E-03    -48.2480E-03     74.3971E-03    -25.7363E-03     87.5744E-03
            2250     15.8058E-03     11.2203E-03    -8.35892E+06     105.886E+06     43.9604E+06     1.10239E+06    -46.8324E-03     71.5775E-03    -24.7450E-03     108.194E-03    -47.9849E-03     72.9491E-03    -24.6666E-03     107.711E-03
            2251     14.9442E-03     11.1330E-03    -9.21499E+06     70.7340E+06      36.473E+03     2.02233E+06    -42.2069E-03     65.7185E-03    -23.5116E-03     72.5628E-03    -42.7034E-03     66.4336E-03    -23.6006E-03     72.2128E-03
            2252     14.0782E-03     11.0687E-03    -10.1977E+06     23.9966E+06    -12.3255E+06     2.18597E+06    -39.2575E-03     61.7599E-03    -22.5024E-03     52.1032E-03    -39.4639E-03     62.0514E-03    -22.5841E-03     51.8946E-03
            2253     13.2118E-03     11.0186E-03    -10.7827E+06    -21.8917E+06    -12.0974E+06     2.73886E+06    -37.0439E-03     58.6123E-03    -21.5684E-03     39.8939E-03    -37.1224E-03     58.6102E-03    -21.5815E-03     39.7616E-03
            2254     12.3433E-03     10.9753E-03    -10.4568E+06    -46.9495E+06    -7.55180E+06     3.22959E+06    -34.7090E-03     55.3415E-03    -20.6325E-03     32.1990E-03    -34.7234E-03     55.1743E-03    -20.5870E-03     32.1259E-03
            2255     11.4731E-03     10.9380E-03    -11.0061E+06    -62.2422E+06    -3.40954E+06     3.52797E+06    -32.1476E-03     51.8569E-03    -19.7093E-03     25.1980E-03    -32.1300E-03     51.5895E-03    -19.6201E-03     25.1664E-03
            2256     10.6003E-03     10.9075E-03    -12.2819E+06    -74.8712E+06    -1.39173E+06     3.97059E+06    -29.4716E-03     48.2949E-03    -18.8233E-03     19.5282E-03    -29.4349E-03     47.9531E-03    -18.7039E-03     19.5278E-03
            2257     9.72520E-03     10.8820E-03    -13.6776E+06    -83.0991E+06     404.823E+03     4.41403E+06    -26.9264E-03     44.9224E-03    -17.9960E-03     15.3486E-03    -26.8820E-03     44.5334E-03    -17.8537E-03     15.3711E-03
            2258     8.84823E-03     10.8605E-03    -14.9179E+06    -87.1264E+06     536.161E+03     4.27124E+06    -24.5837E-03     41.8086E-03    -17.2249E-03     11.9963E-03    -24.5368E-03     41.3980E-03    -17.0742E-03     12.0283E-03
            2259     7.96899E-03     10.8427E-03    -15.9008E+06    -88.5258E+06    -924.736E+03     4.01232E+06    -22.4345E-03     38.9500E-03    -16.5155E-03     9.30318E-03    -22.3867E-03     38.5342E-03    -16.3687E-03     9.33923E-03
            2260     7.08822E-03     10.8279E-03    -16.9010E+06    -89.3407E+06    -2.77849E+06     3.59329E+06    -20.4835E-03     36.3652E-03    -15.8817E-03     7.22434E-03    -20.4358E-03     35.9484E-03    -15.7415E-03     7.25993E-03
            2261     6.20552E-03     10.8161E-03    -17.9026E+06    -89.9714E+06    -5.45008E+06     2.60868E+06    -18.7809E-03     34.1052E-03    -15.3243E-03     5.63263E-03    -18.7329E-03     33.6901E-03    -15.1952E-03     5.65877E-03
            2262     5.32164E-03     10.8061E-03    -18.6256E+06    -90.1981E+06    -7.90043E+06     1.56013E+06    -17.3547E-03     32.1998E-03    -14.8452E-03     4.33617E-03    -17.3061E-03     31.7878E-03    -14.7269E-03     4.35090E-03
            2263     4.43641E-03     10.7985E-03    -19.0282E+06    -90.5563E+06    -10.3795E+06     913.892E+03    -16.1607E-03     30.6011E-03    -14.4404E-03     3.30416E-03    -16.1098E-03     30.1913E-03    -14.3334E-03     3.31207E-03
            2264     3.55033E-03     10.7922E-03    -19.2294E+06    -90.6519E+06    -13.1539E+06     361.845E+03    -15.2062E-03     29.3122E-03    -14.1060E-03     2.47846E-03    -15.1520E-03     28.9060E-03    -14.0124E-03     2.48034E-03
            2265     2.66340E-03     10.7877E-03    -19.3848E+06    -90.0857E+06    -15.7513E+06    -170.315E+03    -14.4676E-03     28.3083E-03    -13.8407E-03     1.77784E-03    -14.4112E-03     27.9089E-03    -13.7607E-03     1.77372E-03
            2266     1.77597E-03     10.7842E-03    -19.5309E+06    -89.4695E+06    -17.8433E+06    -292.419E+03    -13.9374E-03     27.5818E-03    -13.6445E-03     1.16562E-03    -13.8795E-03     27.1887E-03    -13.5756E-03     1.16062E-03
            2267     888.103E-06     10.7823E-03    -19.6905E+06    -88.8828E+06    -19.1640E+06    -205.466E+03    -13.6158E-03     27.1181E-03    -13.5023E-03     620.038E-06    -13.5576E-03     26.7300E-03    -13.4407E-03     616.749E-06
            2268     16.6673E-03     10.3272E-03    -4.24080E+06     119.723E+06     81.7007E+06     604.080E+03    -49.1192E-03     74.9531E-03    -25.8338E-03     84.8191E-03    -50.1476E-03     76.1547E-03    -25.5928E-03     84.4772E-03
            2269     15.8095E-03     10.2019E-03    -8.50437E+06     104.550E+06     44.3387E+06     965.197E+03    -48.4197E-03     72.9086E-03    -24.4889E-03     101.902E-03    -49.5004E-03     74.2020E-03    -24.4064E-03     101.379E-03
            2270     14.9488E-03     10.1217E-03    -10.9239E+06     70.3277E+06     342.437E+03     2.08486E+06    -44.2830E-03     67.4039E-03    -23.1210E-03     66.9466E-03    -44.7574E-03     68.0888E-03    -23.2054E-03     66.5780E-03
            2271     14.0860E-03     10.0604E-03    -10.7767E+06     24.5446E+06    -11.6551E+06     2.80073E+06    -40.7345E-03     62.7026E-03    -21.9681E-03     47.1872E-03    -40.9302E-03     62.9814E-03    -22.0463E-03     46.9851E-03
            2272     13.2206E-03     10.0135E-03    -10.8827E+06    -22.0421E+06    -11.3439E+06     2.83224E+06    -37.9018E-03     58.8182E-03    -20.9164E-03     35.4179E-03    -37.9728E-03     58.8055E-03    -20.9253E-03     35.2902E-03
            2273     12.3532E-03     9.97387E-03    -11.6697E+06    -47.0576E+06    -6.81580E+06     3.29347E+06    -35.0485E-03     54.9370E-03    -19.8885E-03     28.1217E-03    -35.0644E-03     54.7646E-03    -19.8374E-03     28.0545E-03
            2274     11.4827E-03     9.94032E-03    -12.4508E+06    -62.2489E+06    -2.30169E+06     3.93670E+06    -31.8529E-03     50.7581E-03    -18.9052E-03     21.6113E-03    -31.8407E-03     50.4878E-03    -18.8084E-03     21.5908E-03
            2275     10.6095E-03     9.91398E-03    -13.4791E+06    -74.6657E+06     76.8173E+03     4.15619E+06    -28.8168E-03     46.8070E-03    -17.9902E-03     16.5775E-03    -28.7867E-03     46.4639E-03    -17.8620E-03     16.5842E-03
            2276     9.73397E-03     9.89134E-03    -14.4609E+06    -82.4207E+06     1.69124E+06     4.04084E+06    -26.0868E-03     43.2374E-03    -17.1506E-03     13.0595E-03    -26.0482E-03     42.8501E-03    -17.0016E-03     13.0805E-03
            2277     8.85591E-03     9.87345E-03    -15.4089E+06    -86.1604E+06     1.97106E+06     3.63946E+06    -23.5900E-03     39.9753E-03    -16.3853E-03     10.3475E-03    -23.5486E-03     39.5677E-03    -16.2281E-03     10.3735E-03
            2278     7.97604E-03     9.85810E-03    -16.5881E+06    -87.8268E+06     290.639E+03     3.15957E+06    -21.3412E-03     37.0387E-03    -15.6975E-03     8.29744E-03    -21.2994E-03     36.6254E-03    -15.5447E-03     8.32384E-03
            2279     7.09396E-03     9.84633E-03    -17.5175E+06    -88.0381E+06    -1.52899E+06     2.48743E+06    -19.4000E-03     34.4962E-03    -15.0962E-03     6.74891E-03    -19.3591E-03     34.0851E-03    -14.9508E-03     6.77096E-03
            2280     6.21055E-03     9.83617E-03    -18.3355E+06    -88.3176E+06    -3.92478E+06     1.47158E+06    -17.7763E-03     32.3522E-03    -14.5759E-03     5.59417E-03    -17.7351E-03     31.9438E-03    -14.4408E-03     5.60595E-03
            2281     5.32561E-03     9.82845E-03    -19.2989E+06    -89.0661E+06    -6.91862E+06     319.010E+03    -16.4264E-03     30.5570E-03    -14.1306E-03     4.58738E-03    -16.3843E-03     30.1503E-03    -14.0081E-03     4.58623E-03
            2282     4.43972E-03     9.82197E-03    -20.3691E+06    -90.0143E+06    -10.4261E+06    -416.982E+03    -15.3407E-03     29.0939E-03    -13.7532E-03     3.73745E-03    -15.2973E-03     28.6888E-03    -13.6453E-03     3.72818E-03
            2283     3.55285E-03     9.81721E-03    -21.3769E+06    -90.2672E+06    -14.6711E+06    -771.216E+03    -14.4654E-03     27.9000E-03    -13.4346E-03     2.97769E-03    -14.4204E-03     27.5012E-03    -13.3460E-03     2.96492E-03
            2284     2.66536E-03     9.81333E-03    -22.3345E+06    -90.1252E+06    -18.5903E+06    -883.234E+03    -13.7774E-03     26.9555E-03    -13.1781E-03     2.26591E-03    -13.7315E-03     26.5643E-03    -13.1080E-03     2.25256E-03
            2285     1.77721E-03     9.81089E-03    -23.1744E+06    -89.9990E+06    -21.3738E+06    -806.036E+03    -13.2707E-03     26.2585E-03    -12.9878E-03     1.54884E-03    -13.2251E-03     25.8731E-03    -12.9306E-03     1.53719E-03
            2286     888.725E-06     9.80909E-03    -23.5867E+06    -89.5706E+06    -23.0172E+06    -539.576E+03    -12.9385E-03     25.8083E-03    -12.8699E-03     841.953E-06    -12.8932E-03     25.4281E-03    -12.8209E-03     834.334E-06
            2287     16.6726E-03     9.30718E-03    -4.56222E+06     118.687E+06     81.4459E+06     784.886E+03    -51.9144E-03     77.5690E-03    -25.6546E-03     83.7567E-03    -52.9147E-03     78.7386E-03    -25.4129E-03     83.3423E-03
            2288     15.8140E-03     9.18362E-03    -7.86398E+06     103.836E+06     46.3274E+06     1.67709E+06    -50.4884E-03     74.6589E-03    -24.1705E-03     96.2526E-03    -51.5089E-03     75.8864E-03    -24.0780E-03     95.6882E-03
            2289     14.9564E-03     9.10647E-03    -10.2577E+06     70.1608E+06     4.03931E+06     2.40827E+06    -45.8064E-03     68.4826E-03    -22.6762E-03     59.9918E-03    -46.2444E-03     69.1222E-03    -22.7429E-03     59.6207E-03
            2290     14.0952E-03     9.05163E-03    -11.4491E+06     24.8044E+06    -9.23007E+06     2.80177E+06    -41.8339E-03     63.2336E-03    -21.3997E-03     42.2309E-03    -42.0224E-03     63.4968E-03    -21.4652E-03     42.0312E-03
            2291     13.2300E-03     9.00866E-03    -12.1947E+06    -21.7787E+06    -9.95828E+06     3.54289E+06    -38.2261E-03     58.4800E-03    -20.2538E-03     31.4368E-03    -38.2979E-03     58.4604E-03    -20.2544E-03     31.3252E-03
            2292     12.3622E-03     8.97264E-03    -13.2097E+06    -47.2957E+06    -5.26329E+06     3.87156E+06    -34.6256E-03     53.8067E-03    -19.1810E-03     24.5428E-03    -34.6462E-03     53.6281E-03    -19.1196E-03     24.4913E-03
            2293     11.4914E-03     8.94455E-03    -13.9131E+06    -61.8302E+06    -214.010E+03     3.72436E+06    -31.0847E-03     49.2726E-03    -18.1879E-03     18.7919E-03    -31.0808E-03     49.0008E-03    -18.0792E-03     18.7749E-03
            2294     10.6176E-03     8.92129E-03    -14.2708E+06    -73.7906E+06     2.57540E+06     3.44620E+06    -27.7937E-03     45.0798E-03    -17.2861E-03     14.6801E-03    -27.7711E-03     44.7374E-03    -17.1456E-03     14.6823E-03
            2295     9.74085E-03     8.90316E-03    -14.8327E+06    -81.7524E+06     3.76641E+06     3.14327E+06    -24.8450E-03     41.3271E-03    -16.4820E-03     11.9824E-03    -24.8116E-03     40.9400E-03    -16.3232E-03     11.9950E-03
            2296     8.86189E-03     8.88766E-03    -15.7594E+06    -85.3138E+06     3.43901E+06     2.77230E+06    -22.2568E-03     38.0318E-03    -15.7750E-03     10.0548E-03    -22.2203E-03     37.6266E-03    -15.6113E-03     10.0716E-03
            2297     7.98049E-03     8.87599E-03    -16.6090E+06    -86.6787E+06     1.61809E+06     2.03447E+06    -20.0714E-03     35.2340E-03    -15.1626E-03     8.63153E-03    -20.0333E-03     34.8246E-03    -15.0047E-03     8.64462E-03
            2298     7.09754E-03     8.86589E-03    -17.3846E+06    -86.7928E+06    -629.809E+03     1.04244E+06    -18.2825E-03     32.9240E-03    -14.6415E-03     7.59632E-03    -18.2442E-03     32.5177E-03    -14.4936E-03     7.60037E-03
            2299     6.21299E-03     8.85829E-03    -18.2236E+06    -87.0770E+06    -3.09070E+06     141.968E+03    -16.8246E-03     31.0289E-03    -14.2043E-03     6.72304E-03    -16.7859E-03     30.6255E-03    -14.0671E-03     6.71801E-03
            2300     5.32738E-03     8.85175E-03    -19.4912E+06    -88.2663E+06    -6.39365E+06    -550.623E+03    -15.6649E-03     29.5047E-03    -13.8398E-03     5.93856E-03    -15.6257E-03     29.1016E-03    -13.7155E-03     5.92640E-03
            2301     4.44076E-03     8.84696E-03    -21.1528E+06    -89.7795E+06    -11.2241E+06    -1.04046E+06    -14.7691E-03     28.3015E-03    -13.5325E-03     5.11805E-03    -14.7288E-03     27.9000E-03    -13.4277E-03     5.10089E-03
            2302     3.55351E-03     8.84292E-03    -22.7469E+06    -90.4320E+06    -16.2832E+06    -1.23077E+06    -14.0620E-03     27.3403E-03    -13.2783E-03     4.27540E-03    -14.0212E-03     26.9450E-03    -13.1957E-03     4.25682E-03
            2303     2.66559E-03     8.84025E-03    -23.9536E+06    -90.6097E+06    -19.9820E+06    -1.21794E+06    -13.5254E-03     26.6067E-03    -13.0813E-03     3.36558E-03    -13.4850E-03     26.2175E-03    -13.0151E-03     3.34801E-03
            2304     1.77734E-03     8.83803E-03    -24.6994E+06    -90.8184E+06    -22.9120E+06    -1.07383E+06    -13.1371E-03     26.0748E-03    -12.9377E-03     2.34458E-03    -13.0958E-03     25.6898E-03    -12.8847E-03     2.32955E-03
            2305     888.738E-06     8.83711E-03    -25.1993E+06    -90.8075E+06    -24.7121E+06    -690.796E+03    -12.8970E-03     25.7510E-03    -12.8541E-03     1.30199E-03    -12.8555E-03     25.3694E-03    -12.8094E-03     1.29247E-03
            2306     16.6703E-03     8.27928E-03    -4.69244E+06     117.377E+06     81.3994E+06     493.141E+03    -54.9610E-03     80.4313E-03    -25.4703E-03     80.4173E-03    -55.9169E-03     81.5514E-03    -25.2267E-03     79.9210E-03
            2307     15.8225E-03     8.16121E-03    -7.70104E+06     102.548E+06     47.9023E+06     1.57478E+06    -52.9534E-03     76.7769E-03    -23.8235E-03     89.8172E-03    -53.9056E-03     77.9278E-03    -23.7215E-03     89.1983E-03
            2308     14.9646E-03     8.09335E-03    -9.18832E+06     69.7223E+06     7.03042E+06     3.32301E+06    -46.8607E-03     69.0632E-03    -22.2025E-03     54.5369E-03    -47.2641E-03     69.6619E-03    -22.2551E-03     54.1809E-03
            2309     14.1022E-03     8.04115E-03    -11.3247E+06     24.7774E+06    -6.56185E+06     4.56647E+06    -42.1321E-03     62.9803E-03    -20.8482E-03     37.5258E-03    -42.3093E-03     63.2249E-03    -20.9005E-03     37.3597E-03
            2310     13.2387E-03     8.00429E-03    -13.8507E+06    -21.2157E+06    -7.47308E+06     4.67402E+06    -37.7598E-03     57.4281E-03    -19.6683E-03     27.6527E-03    -37.8362E-03     57.4021E-03    -19.6548E-03     27.5674E-03
            2311     12.3701E-03     7.97364E-03    -14.8188E+06    -46.3323E+06    -2.51712E+06     3.94079E+06    -33.5722E-03     52.1778E-03    -18.6056E-03     21.9997E-03    -33.6021E-03     51.9983E-03    -18.5295E-03     21.9590E-03
            2312     11.4981E-03     7.94947E-03    -15.0994E+06    -60.5306E+06     2.80204E+06     2.66590E+06    -29.7232E-03     47.3821E-03    -17.6589E-03     17.1034E-03    -29.7295E-03     47.1121E-03    -17.5353E-03     17.0800E-03
            2313     10.6229E-03     7.93121E-03    -15.3503E+06    -72.9302E+06     5.60067E+06     1.94223E+06    -26.2197E-03     43.0539E-03    -16.8342E-03     14.1377E-03    -26.2073E-03     42.7121E-03    -16.6782E-03     14.1253E-03
            2314     9.74495E-03     7.91616E-03    -15.6954E+06    -81.3623E+06     6.62053E+06     1.77206E+06    -23.2188E-03     39.3515E-03    -16.1327E-03     12.4937E-03    -23.1942E-03     38.9633E-03    -15.9589E-03     12.4917E-03
            2315     8.86419E-03     7.90457E-03    -16.0454E+06    -84.3821E+06     5.45369E+06     1.25311E+06    -20.7627E-03     36.3025E-03    -15.5397E-03     11.2964E-03    -20.7319E-03     35.8995E-03    -15.3669E-03     11.2956E-03
            2316     7.98172E-03     7.89480E-03    -16.4161E+06    -85.4232E+06     2.90656E+06     356.144E+03    -18.8092E-03     33.8581E-03    -15.0489E-03     10.3800E-03    -18.7739E-03     33.4530E-03    -14.8867E-03     10.3726E-03
            2317     7.09755E-03     7.88734E-03    -16.9514E+06    -85.8539E+06    -37.7379E+03    -501.594E+03    -17.2814E-03     31.9331E-03    -14.6517E-03     9.65231E-03    -17.2431E-03     31.5300E-03    -14.5028E-03     9.63723E-03
            2318     6.21228E-03     7.88090E-03    -17.8583E+06    -86.5405E+06    -2.95149E+06    -1.04655E+06    -16.1107E-03     30.4480E-03    -14.3373E-03     8.89725E-03    -16.0713E-03     30.0466E-03    -14.2007E-03     8.87746E-03
            2319     5.32600E-03     7.87614E-03    -19.0998E+06    -88.0213E+06    -6.38369E+06    -1.32646E+06    -15.2440E-03     29.3336E-03    -14.0896E-03     8.06654E-03    -15.2033E-03     28.9312E-03    -13.9662E-03     8.04482E-03
            2320     4.43914E-03     7.87186E-03    -20.3977E+06    -89.8892E+06    -11.0224E+06    -1.45705E+06    -14.6111E-03     28.5027E-03    -13.8916E-03     7.04945E-03    -14.5672E-03     28.0993E-03    -13.7868E-03     7.02728E-03
            2321     3.55172E-03     7.86908E-03    -21.5424E+06    -90.7498E+06    -15.4433E+06    -1.57901E+06    -14.1631E-03     27.9007E-03    -13.7376E-03     5.90738E-03    -14.1171E-03     27.5008E-03    -13.6520E-03     5.88460E-03
            2322     2.66408E-03     7.86646E-03    -22.4312E+06    -91.2728E+06    -18.6982E+06    -1.65732E+06    -13.8434E-03     27.4693E-03    -13.6259E-03     4.62963E-03    -13.7962E-03     27.0726E-03    -13.5545E-03     4.60662E-03
            2323     1.77612E-03     7.86517E-03    -23.0921E+06    -92.0356E+06    -21.2788E+06    -1.34037E+06    -13.6401E-03     27.1900E-03    -13.5500E-03     3.20679E-03    -13.5913E-03     26.7942E-03    -13.4894E-03     3.18848E-03
            2324     888.076E-06     7.86390E-03    -23.5518E+06    -92.2757E+06    -23.0017E+06    -762.343E+03    -13.5165E-03     27.0310E-03    -13.5146E-03     1.78304E-03    -13.4671E-03     26.6372E-03    -13.4616E-03     1.77268E-03
            2325     16.6809E-03     7.24913E-03    -3.86027E+06     116.879E+06     82.2707E+06     333.227E+03    -57.8200E-03     83.0588E-03    -25.2387E-03     76.5329E-03    -58.7166E-03     84.1187E-03    -24.9913E-03     75.9842E-03
            2326     15.8253E-03     7.13901E-03    -7.22375E+06     100.174E+06     47.0399E+06     1.76097E+06    -53.8486E-03     77.3093E-03    -23.4606E-03     82.1512E-03    -54.7124E-03     78.3676E-03    -23.3602E-03     81.5339E-03
            2327     14.9704E-03     7.07681E-03    -11.4369E+06     67.0291E+06     6.14261E+06     4.81626E+06    -47.4641E-03     69.2327E-03    -21.7686E-03     48.5014E-03    -47.8413E-03     69.7903E-03    -21.8185E-03     48.1768E-03
            2328     14.1115E-03     7.03256E-03    -14.5364E+06     24.9930E+06    -4.65787E+06     6.77811E+06    -41.5442E-03     61.9373E-03    -20.3931E-03     32.9343E-03    -41.7251E-03     62.1696E-03    -20.4315E-03     32.8155E-03
            2329     13.2443E-03     7.00132E-03    -16.2101E+06    -18.8076E+06    -3.87890E+06     5.77618E+06    -36.2775E-03     55.5291E-03    -19.2516E-03     24.9863E-03    -36.3671E-03     55.5060E-03    -19.2202E-03     24.9324E-03
            2330     12.3749E-03     6.97588E-03    -17.0886E+06    -43.5702E+06     1.46036E+06     2.93432E+06    -31.7953E-03     50.0683E-03    -18.2729E-03     20.5257E-03    -31.8429E-03     49.8967E-03    -18.1777E-03     20.4836E-03
            2331     11.5014E-03     6.95697E-03    -17.2064E+06    -58.8900E+06     6.50051E+06     796.318E+03    -27.5680E-03     45.0169E-03    -17.4489E-03     17.1467E-03    -27.5911E-03     44.7514E-03    -17.3061E-03     17.1074E-03
            2332     10.6242E-03     6.94276E-03    -17.0482E+06    -72.5758E+06     8.81984E+06    -142.616E+03    -24.1696E-03     40.9473E-03    -16.7777E-03     15.5565E-03    -24.1705E-03     40.6047E-03    -16.6036E-03     15.5224E-03
            2333     9.74410E-03     6.93165E-03    -16.8935E+06    -80.8665E+06     9.42868E+06    -653.768E+03    -21.5099E-03     37.7458E-03    -16.2359E-03     14.6843E-03    -21.4959E-03     37.3577E-03    -16.0471E-03     14.6541E-03
            2334     8.86223E-03     6.92231E-03    -16.7119E+06    -83.5642E+06     7.42078E+06    -1.17806E+06    -19.4023E-03     35.2009E-03    -15.7987E-03     13.9266E-03    -19.3788E-03     34.8000E-03    -15.6161E-03     13.8965E-03
            2335     7.97844E-03     6.91519E-03    -16.7205E+06    -84.7282E+06     3.72648E+06    -1.83436E+06    -17.8341E-03     33.2922E-03    -15.4580E-03     13.2566E-03    -17.8025E-03     32.8897E-03    -15.2923E-03     13.2224E-03
            2336     7.09358E-03     6.90888E-03    -16.9250E+06    -85.5619E+06     210.966E+03    -2.23622E+06    -16.7097E-03     31.9140E-03    -15.2043E-03     12.4400E-03    -16.6720E-03     31.5119E-03    -15.0546E-03     12.4035E-03
            2337     6.20776E-03     6.90410E-03    -17.4182E+06    -86.6537E+06    -3.20845E+06    -2.36046E+06    -15.9228E-03     30.9423E-03    -15.0195E-03     11.4469E-03    -15.8806E-03     30.5399E-03    -14.8846E-03     11.4110E-03
            2338     5.32153E-03     6.89964E-03    -18.0956E+06    -88.2867E+06    -6.68807E+06    -2.37291E+06    -15.3939E-03     30.2815E-03    -14.8876E-03     10.2488E-03    -15.3473E-03     29.8766E-03    -14.7667E-03     10.2142E-03
            2339     4.43482E-03     6.89654E-03    -18.7260E+06    -90.2759E+06    -10.4807E+06    -2.38908E+06    -15.0547E-03     29.8485E-03    -14.7938E-03     8.82519E-03    -15.0026E-03     29.4398E-03    -14.6881E-03     8.79148E-03
            2340     3.54802E-03     6.89352E-03    -19.1637E+06    -91.3067E+06    -13.7714E+06    -2.35544E+06    -14.8454E-03     29.5755E-03    -14.7301E-03     7.26308E-03    -14.7891E-03     29.1669E-03    -14.6387E-03     7.23064E-03
            2341     2.66102E-03     6.89179E-03    -19.6747E+06    -92.3045E+06    -16.6093E+06    -2.05605E+06    -14.7341E-03     29.4231E-03    -14.6890E-03     5.59086E-03    -14.6747E-03     29.0143E-03    -14.6097E-03     5.56295E-03
            2342     1.77403E-03     6.89001E-03    -20.2950E+06    -93.5394E+06    -18.9425E+06    -1.53127E+06    -14.6808E-03     29.3437E-03    -14.6629E-03     3.81302E-03    -14.6193E-03     28.9329E-03    -14.5925E-03     3.79239E-03
            2343     887.061E-06     6.88946E-03    -20.6171E+06    -93.9465E+06    -20.2427E+06    -884.625E+03    -14.6317E-03     29.2994E-03    -14.6677E-03     2.08934E-03    -14.5693E-03     28.8889E-03    -14.6028E-03     2.07747E-03
            2344     16.6805E-03     6.21588E-03    -3.87120E+06     115.410E+06     82.2760E+06     513.708E+03    -60.3621E-03     85.4178E-03    -25.0557E-03     72.0403E-03    -61.2041E-03     86.4183E-03    -24.8060E-03     71.4561E-03
            2345     15.8342E-03     6.11801E-03    -9.33014E+06     96.2674E+06     46.7301E+06     3.60900E+06    -54.5728E-03     77.7511E-03    -23.1783E-03     76.8737E-03    -55.3735E-03     78.7260E-03    -23.0707E-03     76.2882E-03
            2346     14.9771E-03     6.05939E-03    -13.8703E+06     63.5302E+06     8.70015E+06     7.71863E+06    -46.8601E-03     68.3346E-03    -21.4745E-03     42.9163E-03    -47.2120E-03     68.8386E-03    -21.5030E-03     42.6608E-03
            2347     14.1140E-03     6.02612E-03    -17.6621E+06     26.3281E+06    -716.467E+03     9.23680E+06    -39.6525E-03     59.8061E-03    -20.1536E-03     29.2921E-03    -39.8412E-03     60.0284E-03    -20.1697E-03     29.2349E-03
            2348     13.2475E-03     6.00003E-03    -20.4044E+06    -13.1656E+06     503.858E+03     5.84720E+06    -33.8277E-03     52.9603E-03    -19.1326E-03     24.2165E-03    -33.9469E-03     52.9594E-03    -19.0814E-03     24.1836E-03
            2349     12.3754E-03     5.98064E-03    -20.6536E+06    -39.4575E+06     5.74278E+06     812.714E+03    -28.9070E-03     47.2389E-03    -18.3318E-03     21.4230E-03    -28.9819E-03     47.0841E-03    -18.2160E-03     21.3676E-03
            2350     11.4990E-03     5.96706E-03    -20.0461E+06    -57.6517E+06     9.92727E+06    -2.19961E+06    -25.0577E-03     42.7709E-03    -17.7132E-03     19.7341E-03    -25.1008E-03     42.5097E-03    -17.5510E-03     19.6647E-03
            2351     10.6193E-03     5.95655E-03    -19.1002E+06    -72.2366E+06     11.4871E+06    -3.45260E+06    -22.2596E-03     39.4990E-03    -17.2395E-03     18.7713E-03    -22.2746E-03     39.1567E-03    -17.0496E-03     18.6994E-03
            2352     9.73813E-03     5.94779E-03    -18.1451E+06    -80.6137E+06     10.7807E+06    -4.01411E+06    -20.1614E-03     37.0370E-03    -16.8756E-03     18.0786E-03    -20.1557E-03     36.6496E-03    -16.6785E-03     18.0083E-03
            2353     8.85482E-03     5.94124E-03    -17.6195E+06    -83.4320E+06     7.99291E+06    -4.34735E+06    -18.6344E-03     35.2344E-03    -16.5999E-03     17.2716E-03    -18.6163E-03     34.8343E-03    -16.4135E-03     17.2027E-03
            2354     7.97062E-03     5.93506E-03    -17.1664E+06    -84.7098E+06     3.91822E+06    -4.52358E+06    -17.5965E-03     33.9950E-03    -16.3986E-03     16.2724E-03    -17.5672E-03     33.5927E-03    -16.2313E-03     16.2050E-03
            2355     7.08561E-03     5.93028E-03    -16.8396E+06    -86.1031E+06    -140.207E+03    -4.52538E+06    -16.9333E-03     33.1914E-03    -16.2581E-03     14.9327E-03    -16.8938E-03     32.7867E-03    -16.1095E-03     14.8678E-03
            2356     6.20034E-03     5.92564E-03    -16.5673E+06    -87.4537E+06    -3.83069E+06    -4.18095E+06    -16.5063E-03     32.6691E-03    -16.1628E-03     13.3930E-03    -16.4577E-03     32.2622E-03    -16.0311E-03     13.3343E-03
            2357     5.31461E-03     5.92218E-03    -16.6437E+06    -89.1694E+06    -7.37789E+06    -3.66325E+06    -16.2446E-03     32.3455E-03    -16.1010E-03     11.6678E-03    -16.1884E-03     31.9349E-03    -15.9844E-03     11.6171E-03
            2358     4.42894E-03     5.91868E-03    -17.0428E+06    -90.9875E+06    -10.8104E+06    -3.35759E+06    -16.0990E-03     32.1619E-03    -16.0629E-03     9.82151E-03    -16.0370E-03     31.7476E-03    -15.9603E-03     9.77571E-03
            2359     3.54308E-03     5.91648E-03    -17.6466E+06    -92.5212E+06    -13.9243E+06    -2.99767E+06    -16.0354E-03     32.0762E-03    -16.0409E-03     7.91202E-03    -15.9695E-03     31.6595E-03    -15.9508E-03     7.87157E-03
            2360     2.65729E-03     5.91408E-03    -18.2366E+06    -93.8397E+06    -16.2534E+06    -2.25181E+06    -16.0125E-03     32.0434E-03    -16.0309E-03     5.97702E-03    -15.9442E-03     31.6242E-03    -15.9497E-03     5.94675E-03
            2361     1.77154E-03     5.91298E-03    -18.7608E+06    -95.0575E+06    -18.0530E+06    -1.50413E+06    -16.0142E-03     32.0420E-03    -16.0278E-03     4.04286E-03    -15.9441E-03     31.6201E-03    -15.9530E-03     4.02269E-03
            2362     885.696E-06     5.91176E-03    -19.1704E+06    -95.7195E+06    -19.0697E+06    -883.043E+03    -16.0154E-03     32.0526E-03    -16.0372E-03     2.19721E-03    -15.9449E-03     31.6294E-03    -15.9659E-03     2.18541E-03
            2363     16.6856E-03     5.18734E-03    -4.83510E+06     112.294E+06     81.4702E+06     1.95096E+06    -62.1463E-03     87.1936E-03    -25.0473E-03     68.4570E-03    -62.9304E-03     88.1240E-03    -24.7958E-03     67.8666E-03
            2364     15.8321E-03     5.08942E-03    -12.3085E+06     91.7611E+06     48.8043E+06     6.60159E+06    -55.4700E-03     78.5822E-03    -23.1122E-03     71.1028E-03    -56.2061E-03     79.4604E-03    -22.9834E-03     70.5669E-03
            2365     14.9789E-03     5.04713E-03    -17.9042E+06     59.7487E+06     13.8442E+06     11.0026E+06    -44.8521E-03     66.2999E-03    -21.4478E-03     37.0189E-03    -45.1857E-03     66.7433E-03    -21.4392E-03     36.8570E-03
            2366     14.1148E-03     5.02067E-03    -22.0572E+06     30.0393E+06     3.53103E+06     11.4965E+06    -35.9413E-03     56.2217E-03    -20.2804E-03     28.1717E-03    -36.1506E-03     56.4499E-03    -20.2743E-03     28.1814E-03
            2367     13.2438E-03     5.00193E-03    -23.4258E+06    -4.19386E+06     4.56428E+06     4.59429E+06    -30.1302E-03     49.6260E-03    -19.4959E-03     26.8717E-03    -30.2791E-03     49.6643E-03    -19.4330E-03     26.8452E-03
            2368     12.3678E-03     4.98918E-03    -22.7732E+06    -34.9268E+06     9.10900E+06    -2.68162E+06    -26.1005E-03     45.0481E-03    -18.9476E-03     25.1645E-03    -26.1952E-03     44.9119E-03    -18.8184E-03     25.0769E-03
            2369     11.4888E-03     4.97847E-03    -21.6101E+06    -55.9390E+06     12.2916E+06    -5.94954E+06    -23.1346E-03     41.6845E-03    -18.5499E-03     23.8050E-03    -23.1899E-03     41.4290E-03    -18.3760E-03     23.6948E-03
            2370     10.6087E-03     4.97098E-03    -20.8300E+06    -72.0016E+06     12.1524E+06    -7.63553E+06    -21.2011E-03     39.4588E-03    -18.2577E-03     22.7611E-03    -21.2251E-03     39.1182E-03    -18.0624E-03     22.6399E-03
            2371     9.72593E-03     4.96449E-03    -19.5481E+06    -81.0108E+06     9.95719E+06    -8.24023E+06    -19.8472E-03     37.8838E-03    -18.0366E-03     21.4435E-03    -19.8461E-03     37.4969E-03    -17.8411E-03     21.3217E-03
            2372     8.84301E-03     4.95880E-03    -17.9060E+06    -84.2145E+06     6.93095E+06    -8.25889E+06    -18.9756E-03     36.8455E-03    -17.8699E-03     19.9713E-03    -18.9558E-03     36.4429E-03    -17.6872E-03     19.8539E-03
            2373     7.95926E-03     4.95395E-03    -16.5818E+06    -85.7907E+06     2.82867E+06    -7.84558E+06    -18.4413E-03     36.1820E-03    -17.7407E-03     18.1271E-03    -18.4057E-03     35.7745E-03    -17.5781E-03     18.0181E-03
            2374     7.07536E-03     4.94918E-03    -15.6852E+06    -87.5334E+06    -1.59881E+06    -7.10720E+06    -18.0580E-03     35.7003E-03    -17.6422E-03     16.1638E-03    -18.0084E-03     35.2886E-03    -17.5006E-03     16.0666E-03
            2375     6.19105E-03     4.94541E-03    -15.3799E+06    -89.3057E+06    -5.53536E+06    -6.05498E+06    -17.8379E-03     35.4072E-03    -17.5694E-03     14.0774E-03    -17.7780E-03     34.9916E-03    -17.4453E-03     13.9952E-03
            2376     5.30689E-03     4.94155E-03    -15.2724E+06    -90.8772E+06     -8.5725E+06    -4.86310E+06    -17.6702E-03     35.1865E-03    -17.5163E-03     11.9624E-03    -17.6029E-03     34.7670E-03    -17.4053E-03     11.8967E-03
            2377     4.42236E-03     4.93885E-03    -15.6832E+06    -92.4585E+06    -11.5721E+06    -3.77417E+06    -17.5604E-03     35.0374E-03    -17.4770E-03     9.85738E-03    -17.4883E-03     34.6148E-03    -17.3781E-03     9.80651E-03
            2378     3.53798E-03     4.93594E-03    -16.5673E+06    -94.2021E+06    -14.4093E+06    -2.83305E+06    -17.4908E-03     34.9397E-03    -17.4489E-03     7.80883E-03    -17.4163E-03     34.5136E-03    -17.3603E-03     7.77070E-03
            2379     2.65353E-03     4.93432E-03    -17.5517E+06    -95.5088E+06    -16.5467E+06    -1.96694E+06    -17.4471E-03     34.8782E-03    -17.4310E-03     5.84097E-03    -17.3726E-03     34.4501E-03    -17.3498E-03     5.81451E-03
            2380     1.76893E-03     4.93251E-03    -18.3499E+06    -96.5542E+06    -17.9271E+06    -1.24104E+06    -17.4258E-03     34.8472E-03    -17.4215E-03     3.89902E-03    -17.3516E-03     34.4170E-03    -17.3445E-03     3.88231E-03
            2381     884.556E-06     4.93195E-03    -18.9200E+06    -97.1728E+06    -18.8452E+06    -580.747E+03    -17.4104E-03     34.8334E-03    -17.4230E-03     2.10688E-03    -17.3368E-03     34.4023E-03    -17.3489E-03     2.09903E-03
            2382     16.6751E-03     4.14537E-03    -5.72736E+06     108.176E+06     79.3883E+06     4.31846E+06    -64.4071E-03     89.6015E-03    -25.1944E-03     63.5187E-03    -65.1121E-03     90.4410E-03    -24.9460E-03     62.9346E-03
            2383     15.8356E-03     4.06503E-03    -12.8956E+06     86.7483E+06     52.9035E+06     9.70120E+06    -53.7285E-03     77.0031E-03    -23.2746E-03     58.2902E-03    -54.3453E-03     77.7313E-03    -23.1172E-03     57.8615E-03
            2384     14.9749E-03     4.03487E-03    -18.6967E+06     56.8593E+06     23.5858E+06     13.8955E+06    -38.8956E-03     60.7513E-03    -21.8557E-03     32.6051E-03    -39.1989E-03     61.1234E-03    -21.7931E-03     32.5676E-03
            2385     14.1057E-03     4.02151E-03    -20.4546E+06     37.6098E+06     11.5759E+06     10.6268E+06    -31.0751E-03     52.0842E-03    -21.0092E-03     32.5673E-03    -31.2912E-03     52.3283E-03    -20.9761E-03     32.6022E-03
            2386     13.2289E-03     4.00800E-03    -19.6565E+06     5.98594E+06     7.96849E+06     1.90190E+06    -27.2995E-03     47.7885E-03    -20.4890E-03     31.9366E-03    -27.4443E-03     47.8619E-03    -20.4294E-03     31.8948E-03
            2387     12.3521E-03     3.99692E-03    -19.6154E+06    -30.4885E+06     9.45130E+06    -5.12878E+06    -24.5553E-03     44.7109E-03    -20.1556E-03     29.4297E-03    -24.6375E-03     44.5881E-03    -20.0357E-03     29.3215E-03
            2388     11.4731E-03     3.99150E-03    -20.5777E+06    -53.6336E+06     9.69026E+06    -8.97548E+06    -22.7918E-03     42.7015E-03    -19.9098E-03     27.7727E-03    -22.8395E-03     42.4576E-03    -19.7537E-03     27.6297E-03
            2389     10.5911E-03     3.98375E-03    -20.0615E+06    -71.6449E+06     7.89685E+06    -11.6141E+06    -21.6901E-03     41.4071E-03    -19.7170E-03     25.5378E-03    -21.7033E-03     41.0716E-03    -19.5445E-03     25.3694E-03
            2390     9.71068E-03     3.97949E-03    -18.6776E+06    -81.8527E+06     5.36219E+06    -12.8795E+06    -21.0530E-03     40.6036E-03    -19.5505E-03     23.1518E-03    -21.0388E-03     40.2167E-03    -19.3780E-03     22.9727E-03
            2391     8.82840E-03     3.97397E-03    -16.6683E+06    -86.0536E+06     2.05047E+06    -12.6951E+06    -20.5973E-03     39.9917E-03    -19.3943E-03     20.6845E-03    -20.5610E-03     39.5844E-03    -19.2351E-03     20.5115E-03
            2392     7.94672E-03     3.96956E-03    -14.8461E+06    -88.5957E+06    -1.76312E+06    -11.1704E+06    -20.1969E-03     39.4489E-03    -19.2520E-03     18.1416E-03    -20.1414E-03     39.0311E-03    -19.1109E-03     17.9909E-03
            2393     7.06422E-03     3.96556E-03    -14.0487E+06    -90.3186E+06    -5.18993E+06    -9.08014E+06    -19.9003E-03     39.0269E-03    -19.1266E-03     15.7194E-03    -19.8329E-03     38.6038E-03    -19.0012E-03     15.5975E-03
            2394     6.18190E-03     3.96150E-03    -13.9844E+06    -92.0438E+06    -8.36186E+06    -7.21600E+06    -19.6008E-03     38.6176E-03    -19.0168E-03     13.3409E-03    -19.5257E-03     38.1901E-03    -18.9048E-03     13.2444E-03
            2395     5.29902E-03     3.95854E-03    -14.4544E+06    -93.5766E+06    -10.9604E+06    -5.37892E+06    -19.3659E-03     38.2896E-03    -18.9237E-03     11.1448E-03    -19.2870E-03     37.8588E-03    -18.8219E-03     11.0729E-03
            2396     4.41629E-03     3.95530E-03    -15.1381E+06    -94.7349E+06    -13.0074E+06    -3.60129E+06    -19.1569E-03     38.0019E-03    -18.8451E-03     9.04738E-03    -19.0766E-03     37.5691E-03    -18.7508E-03     8.99907E-03
            2397     3.53317E-03     3.95333E-03    -15.9850E+06    -96.0130E+06    -14.6464E+06    -2.20754E+06    -18.9771E-03     37.7593E-03    -18.7822E-03     7.08098E-03    -18.8968E-03     37.3237E-03    -18.6930E-03     7.05117E-03
            2398     2.64991E-03     3.95106E-03    -16.9085E+06    -96.9329E+06    -16.2230E+06    -1.31617E+06    -18.8428E-03     37.5756E-03    -18.7328E-03     5.23791E-03    -18.7634E-03     37.1390E-03    -18.6488E-03     5.22001E-03
            2399     1.76681E-03     3.95001E-03    -17.7513E+06    -97.7508E+06    -17.5234E+06    -694.523E+03    -18.7473E-03     37.4441E-03    -18.6968E-03     3.49400E-03    -18.6690E-03     37.0065E-03    -18.6170E-03     3.48446E-03
            2400     883.299E-06     3.94884E-03    -18.3810E+06    -98.0736E+06    -18.2605E+06    -250.831E+03    -18.6879E-03     37.3626E-03    -18.6747E-03     1.87364E-03    -18.6112E-03     36.9254E-03    -18.5971E-03     1.87010E-03
            2401     16.6806E-03     3.09910E-03    -6.40019E+06     101.296E+06     75.3504E+06     6.86294E+06    -63.9629E-03     89.5353E-03    -25.5724E-03     57.2751E-03    -64.5487E-03     90.2426E-03    -25.3332E-03     56.7828E-03
            2402     15.8292E-03     3.04282E-03    -11.7907E+06     80.0752E+06     56.8149E+06     12.9925E+06    -45.5796E-03     69.5110E-03    -23.9314E-03     50.7289E-03    -46.0599E-03     70.0726E-03    -23.7464E-03     50.5134E-03
            2403     14.9610E-03     3.03717E-03    -12.7851E+06     59.1987E+06     37.7694E+06     12.9683E+06    -32.1759E-03     55.1681E-03    -22.9922E-03     37.9644E-03    -32.4452E-03     55.4934E-03    -22.8706E-03     37.9958E-03
            2404     14.0813E-03     3.02347E-03    -11.3977E+06     46.0055E+06     21.4104E+06     7.16611E+06    -28.5630E-03     51.0151E-03    -22.4521E-03     39.8530E-03    -28.7514E-03     51.2642E-03    -22.3952E-03     39.8689E-03
            2405     13.2088E-03     3.01175E-03    -11.7636E+06     14.1147E+06     7.06028E+06     616.197E+03    -27.0154E-03     49.0761E-03    -22.0607E-03     36.0002E-03    -27.1235E-03     49.1720E-03    -22.0288E-03     35.9573E-03
            2406     12.3299E-03     3.00750E-03    -13.8254E+06    -25.5830E+06     3.33427E+06    -5.41404E+06    -25.3951E-03     47.1937E-03    -21.7986E-03     31.9600E-03    -25.4422E-03     47.0908E-03    -21.7248E-03     31.8578E-03
            2407     11.4505E-03     2.99870E-03    -14.6502E+06    -51.0735E+06     1.69029E+06    -10.5041E+06    -24.5205E-03     46.0961E-03    -21.5755E-03     28.6811E-03    -24.5283E-03     45.8653E-03    -21.4718E-03     28.5238E-03
            2408     10.5736E-03     2.99580E-03    -14.8882E+06    -70.0815E+06    -3.38362E+06    -14.1701E+06    -24.0106E-03     45.3543E-03    -21.3438E-03     25.0118E-03    -23.9821E-03     45.0336E-03    -21.2375E-03     24.8142E-03
            2409     9.69295E-03     2.98934E-03    -14.1590E+06    -82.8064E+06    -7.64025E+06    -16.1966E+06    -23.4803E-03     44.5944E-03    -21.1141E-03     21.8221E-03    -23.4222E-03     44.2139E-03    -21.0117E-03     21.6025E-03
            2410     8.81473E-03     2.98591E-03    -13.2218E+06    -89.5831E+06    -9.30423E+06    -15.4590E+06    -22.9739E-03     43.8722E-03    -20.8983E-03     18.7636E-03    -22.8981E-03     43.4581E-03    -20.7957E-03     18.5566E-03
            2411     7.93415E-03     2.98169E-03    -12.8685E+06    -92.9662E+06    -10.4382E+06    -12.8660E+06    -22.4585E-03     43.1506E-03    -20.6921E-03     16.1299E-03    -22.3738E-03     42.7202E-03    -20.5908E-03     15.9585E-03
            2412     7.05435E-03     2.97791E-03    -12.7629E+06    -94.4722E+06    -11.5209E+06    -9.94907E+06    -21.9501E-03     42.4482E-03    -20.4981E-03     13.5956E-03    -21.8608E-03     42.0114E-03    -20.4002E-03     13.4633E-03
            2413     6.17339E-03     2.97504E-03    -13.0613E+06    -95.6270E+06    -12.2392E+06    -7.14542E+06    -21.4606E-03     41.7844E-03    -20.3237E-03     11.3810E-03    -21.3699E-03     41.3431E-03    -20.2273E-03     11.2860E-03
            2414     5.29245E-03     2.97177E-03    -13.9375E+06    -96.7403E+06    -13.7771E+06    -4.80386E+06    -21.0163E-03     41.1829E-03    -20.1666E-03     9.36144E-03    -20.9260E-03     40.7395E-03    -20.0750E-03     9.29746E-03
            2415     4.41083E-03     2.96969E-03    -14.8587E+06    -97.2534E+06    -14.7206E+06    -2.96331E+06    -20.6396E-03     40.6721E-03    -20.0325E-03     7.51246E-03    -20.5517E-03     40.2287E-03    -19.9435E-03     7.47278E-03
            2416     3.52908E-03     2.96730E-03    -15.5644E+06    -97.7394E+06    -15.1155E+06    -1.61424E+06    -20.3229E-03     40.2440E-03    -19.9212E-03     5.82799E-03    -20.2372E-03     39.7998E-03    -19.8324E-03     5.80613E-03
            2417     2.64718E-03     2.96601E-03    -16.1507E+06    -98.0953E+06    -15.7400E+06    -695.703E+03    -20.0553E-03     39.8867E-03    -19.8313E-03     4.28663E-03    -19.9711E-03     39.4424E-03    -19.7443E-03     4.27695E-03
            2418     1.76469E-03     2.96452E-03    -16.6832E+06    -98.4260E+06    -16.5248E+06    -175.518E+03    -19.8645E-03     39.6307E-03    -19.7663E-03     2.84497E-03    -19.7813E-03     39.1867E-03    -19.6820E-03     2.84227E-03
            2419     882.541E-06     2.96405E-03    -17.0799E+06    -98.3693E+06    -17.0459E+06    -55.0628E+03    -19.7551E-03     39.4788E-03    -19.7236E-03     1.53603E-03    -19.6732E-03     39.0364E-03    -19.6415E-03     1.53509E-03
            2420     16.6648E-03     2.05815E-03    -5.54936E+06     94.0548E+06     72.3691E+06     8.45349E+06    -56.3586E-03     83.2107E-03    -26.8521E-03     60.1418E-03    -56.8301E-03     83.7919E-03    -26.6186E-03     59.8368E-03
            2421     15.8015E-03     2.04089E-03    -7.28521E+06     77.5703E+06     62.1774E+06     10.4440E+06    -38.4758E-03     64.1569E-03    -25.6811E-03     57.3594E-03    -38.8481E-03     64.5994E-03    -25.4722E-03     57.2725E-03
            2422     14.9243E-03     2.03525E-03    -4.70449E+06     64.6049E+06     45.2942E+06     7.23411E+06    -32.8516E-03     57.8480E-03    -24.9964E-03     48.7037E-03    -33.0782E-03     58.1545E-03    -24.8567E-03     48.7010E-03
            2423     14.0568E-03     2.02393E-03    -2.82511E+06     50.2341E+06     21.1154E+06     4.41673E+06    -31.7687E-03     56.1807E-03    -24.4120E-03     43.8671E-03    -31.9072E-03     56.4252E-03    -24.3751E-03     43.8671E-03
            2424     13.1783E-03     2.01523E-03    -3.24479E+06     19.5146E+06    -927.722E+03     1.43060E+06    -29.9619E-03     53.8684E-03    -23.9064E-03     34.9070E-03    -30.0157E-03     53.9818E-03    -23.9347E-03     34.8899E-03
            2425     12.3059E-03     2.00950E-03    -4.11859E+06    -19.5930E+06    -11.6160E+06    -4.61774E+06    -28.9560E-03     52.4681E-03    -23.5121E-03     28.9152E-03    -28.9371E-03     52.3981E-03    -23.5358E-03     28.8321E-03
            2426     11.4318E-03     2.00544E-03    -4.51592E+06    -47.7492E+06    -16.3800E+06    -9.96200E+06    -28.0553E-03     51.2038E-03    -23.1485E-03     24.3384E-03    -27.9882E-03     50.9983E-03    -23.1546E-03     24.1939E-03
            2427     10.5543E-03     1.99965E-03    -5.29701E+06    -68.0813E+06    -21.2861E+06    -13.5823E+06    -27.1435E-03     49.9336E-03    -22.7901E-03     20.2012E-03    -27.0423E-03     49.6334E-03    -22.7901E-03     20.0150E-03
            2428     9.68031E-03     1.99705E-03    -6.87212E+06    -84.3687E+06    -25.2640E+06    -15.1260E+06    -26.2844E-03     48.7335E-03    -22.4491E-03     17.0440E-03    -26.1610E-03     48.3592E-03    -22.4431E-03     16.8412E-03
            2429     8.80152E-03     1.99303E-03    -8.82046E+06    -93.6818E+06    -24.7362E+06    -13.9577E+06    -25.3969E-03     47.5379E-03    -22.1410E-03     14.3741E-03    -25.2701E-03     47.1187E-03    -22.1160E-03     14.1887E-03
            2430     7.92496E-03     1.99018E-03    -10.4443E+06    -97.7608E+06    -21.9612E+06    -11.6656E+06    -24.5915E-03     46.4490E-03    -21.8576E-03     12.0479E-03    -24.4706E-03     46.0076E-03    -21.8105E-03     11.8935E-03
            2431     7.04579E-03     1.98757E-03    -11.6481E+06    -99.1532E+06    -20.2400E+06    -8.73986E+06    -23.7703E-03     45.3597E-03    -21.5894E-03     10.0762E-03    -23.6557E-03     44.9104E-03    -21.5299E-03     9.96073E-03
            2432     6.16699E-03     1.98491E-03    -12.8155E+06    -99.6641E+06    -17.8915E+06    -5.85470E+06    -23.0563E-03     44.4078E-03    -21.3515E-03     8.31724E-03    -22.9501E-03     43.9541E-03    -21.2778E-03     8.23977E-03
            2433     5.28704E-03     1.98314E-03    -13.6985E+06    -99.6748E+06    -16.6384E+06    -3.53296E+06    -22.4060E-03     43.5415E-03    -21.1355E-03     6.78529E-03    -22.3060E-03     43.0872E-03    -21.0543E-03     6.73835E-03
            2434     4.40682E-03     1.98097E-03    -14.4337E+06    -99.4048E+06    -16.2250E+06    -1.97108E+06    -21.8354E-03     42.7819E-03    -20.9465E-03     5.40056E-03    -21.7400E-03     42.3294E-03    -20.8625E-03     5.37416E-03
            2435     3.52606E-03     1.97975E-03    -15.0118E+06    -99.1264E+06    -15.8345E+06    -942.931E+03    -21.3667E-03     42.1566E-03    -20.7899E-03     4.17192E-03    -21.2751E-03     41.7057E-03    -20.7036E-03     4.15908E-03
            2436     2.64473E-03     1.97833E-03    -15.4327E+06    -98.9347E+06    -15.4799E+06    -289.509E+03    -21.0015E-03     41.6662E-03    -20.6647E-03     3.05820E-03    -20.9128E-03     41.2163E-03    -20.5763E-03     3.05401E-03
            2437     1.76356E-03     1.97767E-03    -15.4957E+06    -98.6457E+06    -15.3538E+06    -9.73133E+03    -20.7238E-03     41.2943E-03    -20.5705E-03     2.02254E-03    -20.6360E-03     40.8458E-03    -20.4818E-03     2.02212E-03
            2438     881.635E-06     1.97691E-03    -15.4755E+06    -98.3392E+06    -15.5682E+06     49.6866E+03    -20.5482E-03     41.0617E-03    -20.5134E-03     1.09013E-03    -20.4604E-03     40.6150E-03    -20.4262E-03     1.09062E-03
            2439     16.6127E-03     1.03740E-03     757.133E+03     91.2649E+06     76.0011E+06     7.11475E+06    -52.0954E-03     81.5051E-03    -29.4098E-03     61.3249E-03    -52.4427E-03     81.9594E-03    -29.1632E-03     61.1826E-03
            2440     15.7469E-03     1.03118E-03     1.01055E+06     81.3061E+06     65.5848E+06     3.38375E+06    -45.4519E-03     73.7072E-03    -28.2554E-03     53.6791E-03    -45.7145E-03     74.0689E-03    -28.0468E-03     53.6133E-03
            2441     14.8878E-03     1.02520E-03     1.12295E+06     67.0152E+06     39.8290E+06     1.09867E+06    -41.9739E-03     69.1821E-03    -27.2082E-03     40.6505E-03    -42.1406E-03     69.4735E-03    -27.1079E-03     40.6104E-03
            2442     14.0197E-03     1.01437E-03     2.14720E+06     49.5372E+06     9.93765E+06     2.14477E+06    -38.6032E-03     64.8556E-03    -26.2523E-03     30.8655E-03    -38.6866E-03     65.0930E-03    -26.2776E-03     30.8603E-03
            2443     13.1584E-03     1.01216E-03     4.14836E+06     22.9840E+06    -14.3095E+06     1.69796E+06    -35.3556E-03     60.8091E-03    -25.4535E-03     22.7440E-03    -35.3512E-03     60.9418E-03    -25.5644E-03     22.7467E-03
            2444     12.2862E-03     1.00671E-03     5.50348E+06    -13.0715E+06    -28.6804E+06    -2.30895E+06    -33.1994E-03     58.0140E-03    -24.8145E-03     17.7799E-03    -33.1133E-03     57.9840E-03    -24.9470E-03     17.7374E-03
            2445     11.4153E-03     1.00411E-03     4.20709E+06    -45.0375E+06    -36.3936E+06    -7.01509E+06    -31.4830E-03     55.7487E-03    -24.2657E-03     14.0298E-03    -31.3450E-03     55.5711E-03    -24.3884E-03     13.9306E-03
            2446     10.5447E-03     1.00165E-03     2.14889E+06    -67.5037E+06    -39.2934E+06    -8.41417E+06    -29.8160E-03     53.5955E-03    -23.7795E-03     11.5847E-03    -29.6510E-03     53.3124E-03    -23.8812E-03     11.4700E-03
            2447     9.66824E-03     999.313E-06    -1.37830E+06    -85.6638E+06    -39.8575E+06    -8.60708E+06    -28.4653E-03     51.8123E-03    -23.3470E-03     9.35123E-03    -28.2905E-03     51.4441E-03    -23.4201E-03     9.23624E-03
            2448     8.79515E-03     997.591E-06    -5.12971E+06    -96.7151E+06    -37.3939E+06    -8.33448E+06    -27.2268E-03     50.1837E-03    -22.9569E-03     7.85165E-03    -27.0582E-03     49.7620E-03    -22.9962E-03     7.74123E-03
            2449     7.91746E-03     995.851E-06    -8.25275E+06    -101.371E+06    -31.5990E+06    -6.92030E+06    -26.0561E-03     48.6678E-03    -22.6116E-03     6.46103E-03    -25.9047E-03     48.2188E-03    -22.6107E-03     6.36977E-03
            2450     7.04104E-03     994.367E-06    -10.9885E+06    -103.027E+06    -26.3227E+06    -5.12183E+06    -25.0399E-03     47.3365E-03    -22.2966E-03     5.33870E-03    -24.9074E-03     46.8755E-03    -22.2628E-03     5.27120E-03
            2451     6.16248E-03     993.203E-06    -12.8700E+06    -102.743E+06    -22.0351E+06    -3.30727E+06    -24.1095E-03     46.1191E-03    -22.0096E-03     4.39823E-03    -23.9930E-03     45.6561E-03    -21.9522E-03     4.35458E-03
            2452     5.28382E-03     991.868E-06    -14.0404E+06    -101.948E+06    -19.2907E+06    -1.94575E+06    -23.3136E-03     45.0646E-03    -21.7510E-03     3.56350E-03    -23.2080E-03     44.6032E-03    -21.6793E-03     3.53771E-03
            2453     4.40419E-03     991.128E-06    -14.5077E+06    -100.869E+06    -17.4803E+06    -890.570E+03    -22.6136E-03     44.1387E-03    -21.5251E-03     2.83907E-03    -22.5146E-03     43.6807E-03    -21.4452E-03     2.82711E-03
            2454     3.52397E-03     990.156E-06    -14.7708E+06    -99.9331E+06    -16.2036E+06    -288.811E+03    -22.0394E-03     43.3765E-03    -21.3371E-03     2.18624E-03    -21.9449E-03     42.9217E-03    -21.2518E-03     2.18219E-03
            2455     2.64359E-03     989.636E-06    -14.7953E+06    -99.2372E+06    -15.3256E+06    -145.565E+03    -21.5922E-03     42.7791E-03    -21.1870E-03     1.59033E-03    -21.5000E-03     42.3266E-03    -21.0983E-03     1.58823E-03
            2456     1.76235E-03     989.082E-06    -14.7195E+06    -98.7863E+06    -14.8647E+06    -35.5501E+03    -21.2637E-03     42.3383E-03    -21.0746E-03     1.05825E-03    -21.1725E-03     41.8873E-03    -20.9843E-03     1.05765E-03
            2457     881.468E-06     988.907E-06    -14.6416E+06    -98.2589E+06    -14.6184E+06     97.7185E+03    -21.0615E-03     42.0557E-03    -20.9942E-03     584.908E-06    -20.9710E-03     41.6069E-03    -20.9036E-03     586.113E-06


