********************************************************************************
Field Output Report, written Mon Aug 12 21:49:07 2024

Source 1
---------

   ODB: G:/Abaqus_calc_2019/1740/Vel_40/odb/zeides_2a_32_red_2500_cal_30_vel_40_fric_050.odb
   Step: Step-1
   Frame: Increment   5034781: Step Time =   0.4423

Loc 1 : Nodal values from source 1

Output sorted by column "Nodal Label".

Field Output reported at nodes for region: DIE_2A_32_D0_36-1.Region_1
   Computation algorithm: EXTRAPOLATE_COMPUTE_AVERAGE
   Averaged at nodes
   Averaging regions: ODB_REGIONS

      Node Label     COORD.COOR1     COORD.COOR2
                          @Loc 1          @Loc 1
-------------------------------------------------
               1     17.2211E-03     209.721E-03


Field Output reported at nodes for region: DIE_2A_32_D0_36-1.Region_2
   Computation algorithm: EXTRAPOLATE_COMPUTE_AVERAGE
   Averaged at nodes
   Averaging regions: ODB_REGIONS

      Node Label     COORD.COOR1     COORD.COOR2
                          @Loc 1          @Loc 1
-------------------------------------------------
               1     17.2211E-03     209.721E-03


Field Output reported at nodes for part: WIRE-1
   Computation algorithm: EXTRAPOLATE_COMPUTE_AVERAGE
   Averaged at nodes
   Averaging regions: ODB_REGIONS

      Node Label     COORD.COOR1     COORD.COOR2           S.S11           S.S22           S.S33           S.S12         PE.PE11         PE.PE22         PE.PE33         PE.PE12         LE.LE11         LE.LE22         LE.LE33         LE.LE12
                          @Loc 1          @Loc 1          @Loc 1          @Loc 1          @Loc 1          @Loc 1          @Loc 1          @Loc 1          @Loc 1          @Loc 1          @Loc 1          @Loc 1          @Loc 1          @Loc 1
-------------------------------------------------------------------------------------------------------------------------------------------------------------------------------------------------------------------------------------------------
               1    -1.83155E-06     96.6330E-03    -131.079E+06    -217.017E+06    -130.234E+06     2.23988E+03    -293.884E-03     589.136E-03    -295.252E-03     14.4376E-03    -294.070E-03     588.467E-03    -295.398E-03     11.6448E-03
               2     13.4122E-03     100.785E-03    -77.3599E+03     56.1108E+06     76.5836E+06    -481.025E+03    -293.448E-03     588.038E-03    -294.591E-03     84.1078E-03    -295.639E-03     590.206E-03    -294.289E-03     60.5412E-03
               3     13.5024E-03     200.026E-03    -48.9286E+06     38.3990E+06     68.2204E+06    -24.4850E+06    -66.7095E-03     359.847E-03    -293.138E-03    -22.9551E-03    -66.9916E-03     360.122E-03    -292.781E-03    -24.3368E-03
               4    -8.80005E-06     193.759E-03    -48.7184E+06    -35.4911E+06    -59.7788E+06    -8.05685E+06    -313.810E-03     638.151E-03    -324.341E-03    -75.8148E-03    -314.962E-03     636.981E-03    -324.517E-03    -77.2522E-03
               5    -728.285E-09    -166.533E-18    -65.0541E+06    -168.938E+06    -64.1006E+06     600.233E+03    -245.586E-03     491.149E-03    -245.563E-03     2.55729E-03    -245.574E-03     490.492E-03    -245.544E-03     2.45556E-03
               6     13.2503E-03    -166.533E-18     7.44210E+06     109.604E+06     89.4644E+06     7.60448E+06    -659.845E-03     953.142E-03    -293.298E-03     177.547E-03    -663.893E-03     957.393E-03    -293.020E-03     134.237E-03
               7     670.117E-06     96.6600E-03    -129.355E+06    -213.371E+06    -127.003E+06     306.985E+03    -294.154E-03     589.020E-03    -294.865E-03     23.4647E-03    -294.416E-03     588.434E-03    -295.003E-03     18.9071E-03
               8     1.34053E-03     96.7065E-03    -125.624E+06    -195.377E+06    -117.977E+06     678.362E+03    -294.633E-03     589.098E-03    -294.466E-03     42.8763E-03    -295.143E-03     588.811E-03    -294.590E-03     34.5380E-03
               9     2.01058E-03     96.7855E-03    -120.185E+06    -170.445E+06    -102.784E+06     573.765E+03    -294.976E-03     589.456E-03    -294.480E-03     63.4153E-03    -295.895E-03     589.642E-03    -294.572E-03     51.0638E-03
              10     2.68180E-03     96.8920E-03    -112.939E+06    -148.052E+06    -83.4762E+06     245.410E+03    -295.369E-03     589.902E-03    -294.533E-03     83.5314E-03    -296.833E-03     590.681E-03    -294.572E-03     67.1758E-03
              11     3.35165E-03     97.0314E-03    -104.476E+06    -121.807E+06    -62.2801E+06     618.843E+03    -295.759E-03     590.339E-03    -294.579E-03     103.113E-03    -297.905E-03     591.861E-03    -294.563E-03     82.8021E-03
              12     4.02256E-03     97.1976E-03    -95.1622E+06    -95.8836E+06    -40.4178E+06     1.07360E+06    -296.087E-03     590.694E-03    -294.607E-03     121.933E-03    -299.030E-03     593.076E-03    -294.532E-03     97.7573E-03
              13     4.69317E-03     97.3920E-03    -85.6762E+06    -63.3633E+06    -19.2908E+06     1.47230E+06    -296.646E-03     591.256E-03    -294.610E-03     140.023E-03    -300.495E-03     594.632E-03    -294.491E-03     112.099E-03
              14     5.36354E-03     97.6117E-03    -76.5557E+06    -30.4843E+06     75.7581E+03     1.89542E+06    -297.289E-03     591.902E-03    -294.613E-03     157.082E-03    -302.110E-03     596.343E-03    -294.458E-03     125.620E-03
              15     6.03407E-03     97.8572E-03    -67.6997E+06    -13.8502E+06     14.8439E+06     1.33017E+06    -297.799E-03     592.418E-03    -294.620E-03     172.176E-03    -303.560E-03     597.847E-03    -294.427E-03     137.522E-03
              16     6.70483E-03     98.1204E-03    -59.1121E+06    -5.86810E+06     24.5411E+06     1.35929E+06    -298.360E-03     592.973E-03    -294.613E-03     184.881E-03    -304.980E-03     599.291E-03    -294.396E-03     147.468E-03
              17     7.37530E-03     98.4045E-03    -50.8525E+06     4.40597E+06     34.5302E+06     2.22844E+06    -298.778E-03     593.389E-03    -294.611E-03     194.858E-03    -306.145E-03     600.491E-03    -294.371E-03     155.156E-03
              18     8.04642E-03     98.6961E-03    -43.2162E+06     15.3419E+06     44.7719E+06     2.39378E+06    -299.066E-03     593.682E-03    -294.616E-03     201.651E-03    -307.008E-03     601.396E-03    -294.352E-03     160.175E-03
              19     8.71690E-03     98.9997E-03    -36.4283E+06     23.5810E+06     53.8135E+06     2.09478E+06    -299.392E-03     594.029E-03    -294.637E-03     205.614E-03    -307.730E-03     602.165E-03    -294.349E-03     162.797E-03
              20     9.38698E-03     99.3027E-03    -29.4361E+06     32.8947E+06     63.6011E+06     1.83703E+06    -299.208E-03     593.878E-03    -294.671E-03     206.416E-03    -307.729E-03     602.228E-03    -294.358E-03     162.795E-03
              21     10.0569E-03     99.6069E-03    -22.9213E+06     39.6629E+06     70.7895E+06     1.97183E+06    -298.594E-03     593.281E-03    -294.687E-03     203.939E-03    -307.055E-03     601.596E-03    -294.357E-03     160.130E-03
              22     10.7283E-03     99.8992E-03    -17.8672E+06     43.6901E+06     73.8248E+06     2.10698E+06    -297.841E-03     592.515E-03    -294.674E-03     198.775E-03    -306.044E-03     600.596E-03    -294.342E-03     155.314E-03
              23     11.3997E-03     100.182E-03    -13.9962E+06     47.1130E+06     72.1343E+06     650.734E+03    -296.951E-03     591.586E-03    -294.635E-03     185.011E-03    -304.331E-03     598.875E-03    -294.323E-03     143.437E-03
              24     12.0689E-03     100.426E-03    -10.3281E+06     53.5641E+06     72.2535E+06    -608.949E+03    -296.028E-03     590.637E-03    -294.609E-03     172.771E-03    -302.871E-03     597.424E-03    -294.310E-03     132.162E-03
              25     12.7396E-03     100.672E-03    -4.22849E+06     57.4467E+06     75.6183E+06    -506.305E+03    -294.498E-03     589.096E-03    -294.598E-03     127.575E-03    -299.070E-03     593.638E-03    -294.297E-03     95.1838E-03
              26     13.4107E-03     102.492E-03    -3.84022E+06     53.2703E+06     76.0748E+06    -593.942E+03    -294.035E-03     588.631E-03    -294.596E-03     85.1489E-03    -296.278E-03     590.829E-03    -294.287E-03     61.3753E-03
              27     13.4108E-03     104.200E-03    -2.34141E+06     55.8048E+06     79.9344E+06     1.21519E+06    -295.019E-03     589.612E-03    -294.592E-03     83.9086E-03    -297.214E-03     591.764E-03    -294.270E-03     60.4047E-03
              28     13.4116E-03     105.915E-03    -3.10818E+06     57.6137E+06     76.3997E+06    -239.593E+03    -294.694E-03     589.299E-03    -294.605E-03     84.9282E-03    -296.926E-03     591.503E-03    -294.302E-03     61.2073E-03
              29     13.4087E-03     107.624E-03    -961.483E+03     60.0663E+06     78.7126E+06     365.220E+03    -293.491E-03     588.125E-03    -294.634E-03     87.1834E-03    -295.765E-03     590.381E-03    -294.326E-03     63.4250E-03
              30     13.4142E-03     109.330E-03     60.7248E+03     59.3952E+06     79.8655E+06    -325.197E+03    -293.092E-03     587.714E-03    -294.622E-03     86.2219E-03    -295.335E-03     589.937E-03    -294.309E-03     62.5658E-03
              31     13.4075E-03     111.036E-03    -4.07831E+06     55.8434E+06     77.1427E+06    -571.631E+03    -293.823E-03     588.464E-03    -294.641E-03     83.6111E-03    -296.026E-03     590.627E-03    -294.331E-03     60.0888E-03
              32     13.4131E-03     112.746E-03    -2.10658E+06     57.5234E+06     79.8390E+06     967.447E+03    -293.299E-03     587.920E-03    -294.620E-03     86.2391E-03    -295.520E-03     590.106E-03    -294.301E-03     62.8664E-03
              33     13.4110E-03     114.451E-03    -2.95898E+06     56.9380E+06     79.9331E+06    -608.680E+03    -294.976E-03     589.525E-03    -294.550E-03     84.2380E-03    -297.191E-03     591.701E-03    -294.228E-03     60.5575E-03
              34     13.4110E-03     116.166E-03    -1.64358E+06     58.7195E+06     81.6157E+06     68.5053E+03    -294.660E-03     589.225E-03    -294.566E-03     83.8075E-03    -296.890E-03     591.422E-03    -294.240E-03     60.0170E-03
              35     13.4128E-03     117.873E-03     295.746E+03     60.1658E+06     82.4206E+06     352.756E+03    -294.270E-03     588.854E-03    -294.585E-03     87.3280E-03    -296.535E-03     591.096E-03    -294.260E-03     63.6072E-03
              36     13.4089E-03     119.592E-03    -3.98531E+06     57.3603E+06     79.0992E+06    -143.076E+03    -293.993E-03     588.637E-03    -294.644E-03     85.5929E-03    -296.223E-03     590.828E-03    -294.326E-03     62.0861E-03
              37     13.4118E-03     121.286E-03    -1.71862E+06     60.1131E+06     81.3918E+06     922.640E+03    -292.067E-03     586.727E-03    -294.661E-03     86.8098E-03    -294.331E-03     588.963E-03    -294.338E-03     63.2770E-03
              38     13.4119E-03     122.996E-03    -1.97068E+06     59.9041E+06     81.9425E+06     32.4710E+03    -293.741E-03     588.314E-03    -294.572E-03     85.8655E-03    -295.964E-03     590.505E-03    -294.247E-03     62.4197E-03
              39     13.4114E-03     124.710E-03    -2.20517E+06     60.5068E+06     82.7473E+06    -193.102E+03    -294.498E-03     589.076E-03    -294.578E-03     83.9366E-03    -296.684E-03     591.228E-03    -294.248E-03     60.5528E-03
              40     13.4111E-03     126.411E-03    -1.99978E+06     60.6417E+06     83.9427E+06     408.204E+03    -293.439E-03     588.057E-03    -294.618E-03     83.9661E-03    -295.656E-03     590.239E-03    -294.284E-03     60.4568E-03
              41     13.4117E-03     128.125E-03    -2.21632E+06     60.1111E+06     82.0398E+06     509.146E+03    -293.420E-03     587.998E-03    -294.578E-03     85.2399E-03    -295.656E-03     590.201E-03    -294.252E-03     61.6789E-03
              42     13.4126E-03     129.829E-03    -743.480E+03     61.4702E+06     82.9149E+06    -131.232E+03    -293.636E-03     588.209E-03    -294.573E-03     84.0515E-03    -295.839E-03     590.388E-03    -294.247E-03     60.5545E-03
              43     13.4101E-03     131.542E-03    -3.74433E+06     58.8096E+06     82.0862E+06    -446.510E+03    -293.691E-03     588.293E-03    -294.603E-03     85.4295E-03    -295.934E-03     590.494E-03    -294.272E-03     61.8611E-03
              44     13.4129E-03     133.246E-03    -2.71464E+06     59.6251E+06     81.2356E+06     329.239E+03    -293.436E-03     588.006E-03    -294.570E-03     85.6619E-03    -295.674E-03     590.211E-03    -294.247E-03     62.1376E-03
              45     13.4115E-03     134.954E-03    -1.94330E+06     60.2699E+06     81.4657E+06     140.766E+03    -293.557E-03     588.107E-03    -294.550E-03     84.0786E-03    -295.762E-03     590.283E-03    -294.227E-03     60.6186E-03
              46     13.4122E-03     136.664E-03    -2.44879E+06     59.9642E+06     82.4294E+06     5.51197E+03    -294.128E-03     588.693E-03    -294.565E-03     85.2069E-03    -296.358E-03     590.887E-03    -294.236E-03     61.6720E-03
              47     13.4110E-03     138.375E-03    -1.70096E+06     60.3430E+06     83.7244E+06     307.005E+03    -293.331E-03     587.925E-03    -294.594E-03     85.2894E-03    -295.567E-03     590.126E-03    -294.260E-03     61.7568E-03
              48     13.4125E-03     140.079E-03    -2.02688E+06     60.4025E+06     85.1233E+06    -211.473E+03    -292.028E-03     586.622E-03    -294.593E-03     86.3180E-03    -294.295E-03     588.848E-03    -294.252E-03     62.7528E-03
              49     13.4129E-03     141.783E-03    -2.17103E+06     60.9095E+06     86.4512E+06     266.064E+03    -292.926E-03     587.469E-03    -294.543E-03     85.9722E-03    -295.186E-03     589.686E-03    -294.196E-03     62.3927E-03
              50     13.4124E-03     143.494E-03    -1.64972E+06     61.7319E+06     86.9087E+06     108.244E+03    -293.800E-03     588.332E-03    -294.532E-03     84.6118E-03    -296.028E-03     590.521E-03    -294.184E-03     61.0687E-03
              51     13.4124E-03     145.198E-03    -2.07731E+06     62.8540E+06     86.5923E+06     756.026E+03    -292.472E-03     587.013E-03    -294.541E-03     84.8709E-03    -294.712E-03     589.217E-03    -294.196E-03     61.4039E-03
              52     13.4141E-03     146.906E-03    -2.22652E+06     63.7306E+06     88.6029E+06    -217.723E+03    -292.376E-03     586.890E-03    -294.514E-03     85.4187E-03    -294.645E-03     589.121E-03    -294.160E-03     61.7906E-03
              53     13.4127E-03     148.609E-03    -2.67292E+06     62.8313E+06     88.7857E+06    -264.877E+03    -293.463E-03     587.987E-03    -294.524E-03     83.3051E-03    -295.684E-03     590.165E-03    -294.168E-03     59.8023E-03
              54     13.4118E-03     150.325E-03    -2.00785E+06     66.0005E+06     88.5638E+06     1.21930E+06    -290.748E-03     585.335E-03    -294.587E-03     83.5950E-03    -292.959E-03     587.517E-03    -294.237E-03     60.4032E-03
              55     13.4150E-03     152.013E-03    -2.02420E+06     66.5662E+06     88.5932E+06     79.5407E+03    -290.357E-03     584.899E-03    -294.542E-03     85.9028E-03    -292.637E-03     587.151E-03    -294.192E-03     62.4280E-03
              56     13.4124E-03     153.728E-03    -3.42670E+06     65.7620E+06     89.7689E+06    -608.346E+03    -291.959E-03     586.467E-03    -294.508E-03     83.7354E-03    -294.214E-03     588.683E-03    -294.149E-03     60.1897E-03
              57     13.4144E-03     155.431E-03    -1.56521E+06     66.8686E+06     93.7918E+06    -45.7338E+03    -290.904E-03     585.472E-03    -294.568E-03     86.1401E-03    -293.191E-03     587.719E-03    -294.193E-03     62.6700E-03
              58     13.4123E-03     157.133E-03    -2.23891E+06     67.4153E+06     93.1647E+06     638.827E+03    -289.416E-03     584.015E-03    -294.599E-03     84.8354E-03    -291.677E-03     586.238E-03    -294.228E-03     61.5820E-03
              59     13.4146E-03     158.832E-03    -2.59424E+06     71.2599E+06     94.1656E+06     149.538E+03    -286.918E-03     581.530E-03    -294.612E-03     84.9952E-03    -289.194E-03     583.777E-03    -294.241E-03     61.8611E-03
              60     13.4148E-03     160.525E-03    -2.26762E+06     74.2107E+06     97.9214E+06     507.759E+03    -286.767E-03     581.320E-03    -294.553E-03     85.7105E-03    -289.062E-03     583.586E-03    -294.168E-03     62.6043E-03
              61     13.4162E-03     162.224E-03    -1.55916E+06     75.2137E+06     98.2194E+06     1.71906E+06    -285.369E-03     579.863E-03    -294.494E-03     82.5750E-03    -287.573E-03     582.044E-03    -294.110E-03     59.9408E-03
              62     13.4180E-03     163.912E-03    -3.17191E+06     79.2020E+06     98.3920E+06     1.63008E+06    -281.433E-03     575.799E-03    -294.366E-03     86.4882E-03    -283.720E-03     578.071E-03    -293.984E-03     63.9255E-03
              63     13.4250E-03     165.597E-03    -1.57531E+06     82.9918E+06     102.413E+06    -487.697E+03    -279.163E-03     573.189E-03    -294.026E-03     87.9576E-03    -281.512E-03     575.531E-03    -293.632E-03     65.1627E-03
              64     13.4307E-03     167.275E-03    -3.08530E+06     85.9707E+06     104.478E+06     1.58162E+06    -277.513E-03     571.056E-03    -293.543E-03     89.4666E-03    -279.889E-03     573.423E-03    -293.141E-03     66.8628E-03
              65     13.4404E-03     168.962E-03    -4.18905E+06     92.0713E+06     105.617E+06     2.94528E+06    -275.797E-03     568.713E-03    -292.916E-03     92.4824E-03    -278.228E-03     571.151E-03    -292.516E-03     69.9253E-03
              66     13.4505E-03     170.624E-03    -3.30136E+06     97.6208E+06     107.315E+06     610.246E+03    -276.185E-03     568.252E-03    -292.067E-03     94.8896E-03    -278.695E-03     570.786E-03    -291.667E-03     71.8630E-03
              67     13.4645E-03     172.309E-03     68.3835E+03     103.824E+06     114.005E+06     1.32167E+06    -280.778E-03     571.902E-03    -291.124E-03     96.5563E-03    -283.332E-03     574.494E-03    -290.705E-03     73.0155E-03
              68     13.4707E-03     174.001E-03    -3.60953E+06     103.105E+06     115.269E+06     486.845E+03    -285.308E-03     575.557E-03    -290.249E-03     99.4435E-03    -287.954E-03     578.222E-03    -289.817E-03     75.2054E-03
              69     13.4849E-03     175.687E-03    -2.12118E+06     102.328E+06     119.698E+06     1.45752E+06    -290.800E-03     580.118E-03    -289.317E-03     105.164E-03    -293.518E-03     582.845E-03    -288.864E-03     80.4956E-03
              70     13.4934E-03     177.398E-03    -4.36683E+06     105.782E+06     128.332E+06     1.00879E+06    -300.484E-03     588.872E-03    -288.389E-03     105.760E-03    -303.161E-03     591.539E-03    -287.894E-03     80.9350E-03
              71     13.5006E-03     179.118E-03    -1.79427E+06     111.206E+06     137.882E+06     2.49776E+06    -311.927E-03     599.559E-03    -287.632E-03     107.066E-03    -314.602E-03     602.224E-03    -287.102E-03     81.6740E-03
              72     13.5045E-03     180.859E-03    -5.48143E+06     112.542E+06     139.109E+06    -1.38574E+06    -326.140E-03     613.174E-03    -287.033E-03     107.791E-03    -328.808E-03     615.821E-03    -286.493E-03     81.7316E-03
              73     13.5031E-03     182.633E-03    -827.862E+03     109.925E+06     134.279E+06     174.704E+03    -340.335E-03     626.943E-03    -286.607E-03     109.710E-03    -342.938E-03     629.545E-03    -286.094E-03     83.1904E-03
              74     13.5052E-03     184.419E-03    -5.49811E+06     102.786E+06     126.382E+06    -2.12311E+06    -352.126E-03     638.430E-03    -286.304E-03     113.299E-03    -354.767E-03     641.051E-03    -285.813E-03     86.0285E-03
              75     13.5026E-03     186.228E-03    -876.124E+03     95.8994E+06     122.421E+06     47.8375E+03    -361.260E-03     647.338E-03    -286.078E-03     113.768E-03    -363.853E-03     649.915E-03    -285.604E-03     86.0014E-03
              76     13.5054E-03     188.043E-03    -4.84978E+06     87.4609E+06     119.043E+06     -1.6603E+06    -367.149E-03     653.093E-03    -285.943E-03     114.160E-03    -369.754E-03     655.645E-03    -285.468E-03     85.8786E-03
              77     13.5022E-03     189.867E-03    -793.586E+03     70.5061E+06     124.208E+06    -4.53822E+06    -370.324E-03     656.209E-03    -285.885E-03     111.482E-03    -372.836E-03     658.607E-03    -285.365E-03     83.0408E-03
              78     13.5070E-03     191.687E-03    -4.89580E+06     45.6492E+06     130.935E+06    -3.24771E+06    -367.564E-03     653.515E-03    -285.952E-03     105.911E-03    -369.924E-03     655.640E-03    -285.356E-03     78.3381E-03
              79     13.5041E-03     193.505E-03    -1.47046E+06     33.3708E+06     153.245E+06    -2.72276E+06    -356.459E-03     642.671E-03    -286.212E-03     101.723E-03    -358.676E-03     644.556E-03    -285.492E-03     75.7239E-03
              80     13.5117E-03     195.283E-03    -2.39125E+06     26.4304E+06     178.237E+06    -4.27605E+06    -331.914E-03     618.655E-03    -286.740E-03     90.0142E-03    -333.774E-03     620.082E-03    -285.884E-03     68.2726E-03
              81     13.5097E-03     197.006E-03     4.82948E+06     23.5076E+06     189.213E+06     3.02848E+06    -289.447E-03     577.021E-03    -287.573E-03     75.5456E-03    -290.718E-03     577.848E-03    -286.668E-03     60.8538E-03
              82     13.5208E-03     198.644E-03     8.29956E+06     35.8133E+06     138.580E+06     210.512E+03    -165.279E-03     455.881E-03    -290.601E-03     25.0312E-03    -165.818E-03     456.291E-03    -289.972E-03     18.9442E-03
              83     12.5536E-03     199.829E-03    -36.3901E+06    -11.7314E+06     105.995E+06    -17.3360E+06    -53.7641E-03     353.119E-03    -299.354E-03    -58.0624E-03    -53.8368E-03     353.067E-03    -298.755E-03    -60.4577E-03
              84     11.6627E-03     199.456E-03    -20.9053E+06    -15.8392E+06     159.430E+06    -16.7742E+06    -28.2536E-03     339.441E-03    -311.188E-03    -131.784E-03    -28.0518E-03     339.054E-03    -310.337E-03    -135.197E-03
              85     10.8420E-03     199.029E-03    -3.87913E+06    -3.99211E+06     169.391E+06    -14.1983E+06    -8.38698E-03     330.601E-03    -322.214E-03    -190.933E-03    -7.92008E-03     329.884E-03    -321.356E-03    -194.167E-03
              86     10.0549E-03     198.584E-03     659.408E+03    -14.1248E+06     165.062E+06    -10.5228E+06     351.294E-06     332.546E-03    -332.897E-03    -232.313E-03     1.03296E-03     331.553E-03    -332.052E-03    -235.425E-03
              87     9.28548E-03     198.133E-03    -13.9547E+06    -3.94417E+06     157.780E+06    -11.9594E+06     145.650E-06     342.737E-03    -342.883E-03    -282.009E-03     1.02036E-03     341.599E-03    -342.068E-03    -285.263E-03
              88     8.54282E-03     197.667E-03    -19.6633E+06    -8.09804E+06     147.130E+06    -14.6647E+06    -3.65714E-03     354.952E-03    -351.295E-03    -345.405E-03    -2.42820E-03     353.466E-03    -350.519E-03    -348.982E-03
              89     7.83245E-03     197.205E-03    -19.5726E+06    -7.05940E+06     138.201E+06    -21.2420E+06    -11.5439E-03     368.951E-03    -357.407E-03    -412.354E-03    -9.92296E-03     366.998E-03    -356.677E-03    -416.443E-03
              90     7.16226E-03     196.746E-03    -20.2630E+06    -13.4531E+06     124.183E+06    -25.0520E+06    -24.7357E-03     385.693E-03    -360.957E-03    -471.336E-03    -22.7526E-03     383.211E-03    -360.287E-03    -476.000E-03
              91     6.51959E-03     196.306E-03    -25.4834E+06    -16.7738E+06     105.437E+06    -28.6397E+06    -43.4919E-03     405.645E-03    -362.153E-03    -519.601E-03    -41.2453E-03     402.711E-03    -361.564E-03    -524.885E-03
              92     5.89905E-03     195.892E-03    -31.4174E+06    -20.5660E+06     84.8826E+06    -30.7367E+06    -68.9498E-03     430.229E-03    -361.279E-03    -556.570E-03    -66.5381E-03     426.916E-03    -360.779E-03    -562.527E-03
              93     5.29633E-03     195.506E-03    -36.8807E+06    -21.7885E+06     65.7437E+06    -33.5776E+06    -99.5561E-03     458.177E-03    -358.621E-03    -578.591E-03    -97.1268E-03     454.612E-03    -358.208E-03    -585.232E-03
              94     4.70520E-03     195.156E-03    -41.6307E+06    -24.5786E+06     47.5120E+06    -35.2983E+06    -134.301E-03     488.856E-03    -354.554E-03    -582.852E-03    -131.984E-03     485.154E-03    -354.221E-03    -590.177E-03
              95     4.12153E-03     194.843E-03    -45.4929E+06    -25.7803E+06     31.1139E+06    -36.6011E+06    -170.779E-03     520.216E-03    -349.437E-03    -566.837E-03    -168.757E-03     516.578E-03    -349.178E-03    -574.645E-03
              96     3.54200E-03     194.565E-03    -49.2435E+06    -27.3125E+06     14.9928E+06    -36.6323E+06    -206.053E-03     549.809E-03    -343.756E-03    -529.320E-03    -204.525E-03     546.428E-03    -343.570E-03    -537.246E-03
              97     2.96156E-03     194.330E-03    -51.3460E+06    -28.6066E+06    -223.007E+03    -35.6300E+06    -238.817E-03     576.892E-03    -338.075E-03    -471.197E-03    -237.877E-03     573.900E-03    -337.960E-03    -478.912E-03
              98     2.37852E-03     194.134E-03    -52.5713E+06    -30.3441E+06    -15.2182E+06    -32.7421E+06    -267.060E-03     599.872E-03    -332.812E-03    -396.472E-03    -266.733E-03     597.390E-03    -332.768E-03    -403.474E-03
              99     1.78885E-03     193.980E-03    -52.9590E+06    -32.9201E+06    -29.5676E+06    -27.9732E+06    -289.434E-03     617.688E-03    -328.254E-03    -310.539E-03    -289.696E-03     615.719E-03    -328.277E-03    -316.288E-03
             100     1.19518E-03     193.867E-03    -53.2112E+06    -34.4760E+06    -42.3074E+06    -20.8336E+06    -305.619E-03     630.167E-03    -324.547E-03    -215.819E-03    -306.389E-03     628.599E-03    -324.632E-03    -219.984E-03
             101     599.319E-06     193.795E-03    -51.1111E+06    -34.7420E+06    -53.9841E+06    -12.3703E+06    -312.911E-03     636.538E-03    -323.627E-03    -121.131E-03    -313.984E-03     635.253E-03    -323.772E-03    -123.512E-03
             102     4.42365E-06     191.967E-03    -126.264E+06    -71.3295E+06    -124.931E+06    -10.9809E+06    -263.900E-03     530.366E-03    -266.466E-03    -43.6054E-03    -264.841E-03     529.725E-03    -266.804E-03    -44.5443E-03
             103     102.465E-09     190.521E-03    -257.830E+06    -151.076E+06    -256.516E+06    -15.6646E+06    -193.493E-03     383.335E-03    -189.841E-03    -539.860E-06    -194.271E-03     383.245E-03    -190.531E-03    -922.468E-06
             104     1.33608E-06     189.187E-03    -358.791E+06    -226.756E+06    -360.611E+06    -12.6570E+06    -168.250E-03     334.532E-03    -166.281E-03     15.6026E-03    -169.200E-03     334.433E-03    -167.235E-03     15.4295E-03
             105     132.998E-09     187.877E-03    -334.740E+06    -264.898E+06    -332.974E+06    -2.08728E+06    -167.791E-03     333.830E-03    -166.039E-03     23.3819E-03    -168.603E-03     333.469E-03    -166.834E-03     23.3605E-03
             106     827.120E-09     186.545E-03    -213.512E+06    -252.634E+06    -213.269E+06     6.43244E+06    -181.390E-03     360.401E-03    -179.010E-03     24.9348E-03    -181.797E-03     359.747E-03    -179.401E-03     24.9197E-03
             107     1.54194E-06     185.164E-03    -150.696E+06    -227.975E+06    -149.202E+06     2.49969E+06    -199.562E-03     399.823E-03    -200.262E-03     27.0486E-03    -199.794E-03     399.110E-03    -200.459E-03     26.7385E-03
             108    -5.06855E-06     183.717E-03    -138.228E+06    -227.087E+06    -139.112E+06    -1.84605E+06    -221.341E-03     444.528E-03    -223.187E-03     24.5484E-03    -221.527E-03     443.792E-03    -223.353E-03     23.9771E-03
             109     5.71211E-06     182.210E-03    -135.367E+06    -234.511E+06    -136.280E+06    -703.816E+03    -245.349E-03     490.499E-03    -245.150E-03     23.7219E-03    -245.515E-03     489.726E-03    -245.295E-03     22.8508E-03
             110    -6.18796E-06     180.625E-03    -136.966E+06    -238.966E+06    -137.191E+06    -789.502E+03    -266.251E-03     534.021E-03    -267.770E-03     21.6718E-03    -266.417E-03     533.237E-03    -267.911E-03     20.4160E-03
             111     4.48913E-06     178.975E-03    -144.073E+06    -245.097E+06    -143.832E+06    -903.881E+03    -284.879E-03     569.273E-03    -284.394E-03     18.4997E-03    -285.061E-03     568.487E-03    -284.549E-03     16.7765E-03
             112    -2.26413E-06     177.271E-03    -149.597E+06    -249.580E+06    -149.982E+06    -591.720E+03    -297.424E-03     593.765E-03    -296.341E-03     18.2101E-03    -297.626E-03     592.980E-03    -296.512E-03     15.8933E-03
             113     1.41114E-06     175.544E-03    -156.339E+06    -252.713E+06    -155.884E+06    -138.758E+03    -304.669E-03     608.398E-03    -303.729E-03     13.9810E-03    -304.889E-03     607.616E-03    -303.915E-03     11.3245E-03
             114     645.711E-09     173.790E-03    -160.399E+06    -259.439E+06    -162.232E+06    -1.13495E+06    -309.405E-03     616.129E-03    -306.724E-03     13.6225E-03    -309.628E-03     615.331E-03    -306.926E-03     10.7798E-03
             115     795.505E-09     172.034E-03    -159.961E+06    -264.829E+06    -162.331E+06    -418.384E+03    -310.464E-03     618.454E-03    -307.990E-03     12.4840E-03    -310.677E-03     617.628E-03    -308.186E-03     9.56231E-03
             116     994.881E-09     170.269E-03    -159.869E+06    -272.987E+06    -159.835E+06    -1.75139E+06    -308.110E-03     615.584E-03    -307.474E-03     13.4009E-03    -308.316E-03     614.715E-03    -307.646E-03     10.4250E-03
             117    -1.97528E-06     168.526E-03    -158.184E+06    -282.778E+06    -157.716E+06    -995.826E+03    -305.170E-03     612.046E-03    -306.876E-03     13.1981E-03    -305.356E-03     611.125E-03    -307.025E-03     10.2125E-03
             118     671.655E-09     166.779E-03    -153.009E+06    -285.799E+06    -149.870E+06     511.330E+03    -303.913E-03     608.069E-03    -304.156E-03     11.8846E-03    -304.077E-03     607.111E-03    -304.269E-03     9.01592E-03
             119     327.971E-09     165.041E-03    -148.981E+06    -291.062E+06    -152.154E+06    -1.31172E+06    -302.450E-03     604.013E-03    -301.564E-03     13.7799E-03    -302.585E-03     603.028E-03    -301.686E-03     10.9406E-03
             120    -210.877E-09     163.315E-03    -151.201E+06    -290.991E+06    -149.288E+06     833.087E+03    -300.691E-03     601.008E-03    -300.317E-03     12.7885E-03    -300.842E-03     600.022E-03    -300.422E-03     9.90241E-03
             121     589.184E-09     161.586E-03    -145.414E+06    -287.616E+06    -146.805E+06    -661.108E+03    -299.308E-03     598.001E-03    -298.693E-03     13.0911E-03    -299.439E-03     597.020E-03    -298.799E-03     10.1906E-03
             122    -181.131E-09     159.869E-03    -144.107E+06    -291.306E+06    -146.226E+06    -369.526E+03    -298.081E-03     596.074E-03    -297.993E-03     13.5801E-03    -298.200E-03     595.072E-03    -298.093E-03     10.8284E-03
             123    -162.151E-09     158.148E-03    -143.091E+06    -287.384E+06    -141.268E+06     1.62893E+06    -296.725E-03     594.294E-03    -297.568E-03     13.0677E-03    -296.851E-03     593.301E-03    -297.651E-03     10.3644E-03
             124    -634.834E-09     156.437E-03    -143.947E+06    -279.765E+06    -142.073E+06     800.299E+03    -296.708E-03     593.178E-03    -296.470E-03     13.5035E-03    -296.849E-03     592.227E-03    -296.566E-03     10.7364E-03
             125     1.73415E-06     154.719E-03    -138.196E+06    -269.886E+06    -140.257E+06     1.66805E+06    -296.959E-03     592.338E-03    -295.379E-03     13.7902E-03    -297.089E-03     591.427E-03    -295.488E-03     11.0464E-03
             126    -772.203E-09     153.009E-03    -140.317E+06    -263.731E+06    -140.420E+06     28.6758E+03    -295.205E-03     591.312E-03    -296.107E-03     14.9704E-03    -295.357E-03     590.438E-03    -296.223E-03     12.1441E-03
             127    -1.44676E-06     151.298E-03    -141.713E+06    -263.018E+06    -139.147E+06     258.341E+03    -294.976E-03     590.864E-03    -295.888E-03     13.3481E-03    -295.133E-03     589.988E-03    -295.996E-03     10.6698E-03
             128     2.43582E-06     149.587E-03    -136.228E+06    -258.491E+06    -138.986E+06     568.477E+03    -295.819E-03     590.442E-03    -294.623E-03     14.6721E-03    -295.958E-03     589.586E-03    -294.746E-03     11.8943E-03
             129    -1.89260E-06     147.878E-03    -141.643E+06    -257.371E+06    -138.557E+06    -31.9832E+03    -295.790E-03     590.526E-03    -294.736E-03     13.8751E-03    -295.957E-03     589.682E-03    -294.850E-03     11.1200E-03
             130     2.74776E-06     146.170E-03    -137.924E+06    -254.159E+06    -140.939E+06     726.098E+03    -294.872E-03     589.986E-03    -295.114E-03     13.2310E-03    -295.020E-03     589.157E-03    -295.250E-03     10.4846E-03
             131    -3.98455E-06     144.459E-03    -139.277E+06    -250.091E+06    -137.270E+06     403.987E+03    -294.155E-03     589.339E-03    -295.184E-03     13.6545E-03    -294.319E-03     588.530E-03    -295.306E-03     10.8898E-03
             132     3.82280E-06     142.752E-03    -136.296E+06    -252.493E+06    -137.790E+06    -1.02308E+06    -295.460E-03     589.959E-03    -294.499E-03     14.4102E-03    -295.606E-03     589.135E-03    -294.625E-03     11.6287E-03
             133    -2.43407E-06     141.040E-03    -138.601E+06    -251.577E+06    -137.203E+06     703.639E+03    -295.764E-03     590.211E-03    -294.447E-03     14.4869E-03    -295.924E-03     589.390E-03    -294.567E-03     11.8322E-03
             134     2.77239E-06     139.333E-03    -132.789E+06    -246.580E+06    -134.617E+06     387.074E+03    -295.242E-03     589.389E-03    -294.147E-03     13.4484E-03    -295.383E-03     588.579E-03    -294.270E-03     10.7821E-03
             135    -1.69325E-06     137.627E-03    -135.353E+06    -242.449E+06    -132.802E+06     361.698E+03    -294.229E-03     589.202E-03    -294.973E-03     14.6057E-03    -294.398E-03     588.418E-03    -295.089E-03     11.6979E-03
             136    -401.138E-09     135.917E-03    -133.916E+06    -240.042E+06    -133.441E+06     191.289E+03    -294.404E-03     589.481E-03    -295.077E-03     13.5092E-03    -294.566E-03     588.703E-03    -295.202E-03     10.7407E-03
             137     1.56755E-06     134.207E-03    -129.277E+06    -234.592E+06    -133.732E+06     1.43031E+06    -295.705E-03     589.340E-03    -293.635E-03     14.4215E-03    -295.852E-03     588.584E-03    -293.776E-03     11.6863E-03
             138    -41.5289E-09     132.502E-03    -134.923E+06    -227.189E+06    -133.369E+06     742.241E+03    -295.182E-03     589.430E-03    -294.248E-03     14.3360E-03    -295.367E-03     588.718E-03    -294.390E-03     11.6362E-03
             139    -264.194E-09     130.792E-03    -134.075E+06    -224.770E+06    -135.157E+06    -367.518E+03    -294.767E-03     589.463E-03    -294.696E-03     13.5716E-03    -294.948E-03     588.762E-03    -294.851E-03     10.8405E-03
             140     622.696E-09     129.084E-03    -138.416E+06    -228.205E+06    -136.748E+06    -435.209E+03    -295.571E-03     589.637E-03    -294.066E-03     13.6957E-03    -295.765E-03     588.927E-03    -294.218E-03     11.0787E-03
             141     1.00965E-06     127.375E-03    -135.915E+06    -227.542E+06    -137.737E+06     527.520E+03    -295.190E-03     589.236E-03    -294.046E-03     13.8137E-03    -295.372E-03     588.528E-03    -294.207E-03     11.1542E-03
             142    -1.16373E-06     125.667E-03    -138.632E+06    -224.156E+06    -134.398E+06     447.495E+03    -293.937E-03     588.622E-03    -294.685E-03     13.7647E-03    -294.145E-03     587.932E-03    -294.831E-03     10.9505E-03
             143     318.985E-09     123.964E-03    -132.444E+06    -223.358E+06    -135.717E+06    -619.339E+03    -294.989E-03     589.419E-03    -294.430E-03     13.2821E-03    -295.164E-03     588.723E-03    -294.593E-03     10.5306E-03
             144     1.21794E-06     122.247E-03    -133.367E+06    -224.916E+06    -134.191E+06     86.3381E+03    -294.366E-03     588.716E-03    -294.349E-03     14.5351E-03    -294.547E-03     588.014E-03    -294.501E-03     11.8026E-03
             145    -2.78799E-06     120.546E-03    -136.066E+06    -228.415E+06    -134.401E+06     48.0764E+03    -293.233E-03     587.986E-03    -294.753E-03     14.9994E-03    -293.423E-03     587.275E-03    -294.897E-03     12.1997E-03
             146     2.28197E-06     118.839E-03    -130.021E+06    -221.212E+06    -131.916E+06     1.51620E+06    -295.352E-03     589.485E-03    -294.133E-03     14.3728E-03    -295.524E-03     588.796E-03    -294.283E-03     11.5918E-03
             147    -202.487E-09     117.128E-03    -133.154E+06    -216.529E+06    -132.354E+06    -888.840E+03    -295.447E-03     589.351E-03    -293.904E-03     14.1590E-03    -295.640E-03     588.688E-03    -294.059E-03     11.4102E-03
             148     154.998E-09     115.424E-03    -135.776E+06    -218.230E+06    -136.841E+06     348.807E+03    -294.472E-03     588.837E-03    -294.365E-03     13.8465E-03    -294.672E-03     588.177E-03    -294.536E-03     11.0480E-03
             149    -6.12847E-09     113.714E-03    -134.189E+06    -213.691E+06    -133.370E+06     716.047E+03    -295.076E-03     589.613E-03    -294.537E-03     13.9961E-03    -295.279E-03     588.968E-03    -294.699E-03     11.1989E-03
             150     551.709E-09     112.004E-03    -134.956E+06    -221.957E+06    -135.355E+06    -2.76081E+06    -295.052E-03     589.410E-03    -294.357E-03     14.6710E-03    -295.244E-03     588.727E-03    -294.517E-03     11.8879E-03
             151    -216.721E-09     110.294E-03    -133.773E+06    -228.951E+06    -131.729E+06     1.09682E+06    -294.440E-03     588.771E-03    -294.331E-03     14.8896E-03    -294.622E-03     588.047E-03    -294.463E-03     12.1411E-03
             152    -3.70903E-09     108.593E-03    -132.570E+06    -219.747E+06    -131.519E+06     1.09511E+06    -294.237E-03     588.596E-03    -294.359E-03     13.9507E-03    -294.426E-03     587.916E-03    -294.505E-03     11.1494E-03
             153     35.4630E-09     106.882E-03    -130.115E+06    -217.632E+06    -131.755E+06    -585.233E+03    -294.953E-03     588.875E-03    -293.922E-03     13.5920E-03    -295.129E-03     588.199E-03    -294.076E-03     10.9371E-03
             154     1.26464E-06     105.177E-03    -128.301E+06    -215.622E+06    -129.840E+06     971.169E+03    -295.025E-03     589.168E-03    -294.143E-03     14.2956E-03    -295.199E-03     588.499E-03    -294.294E-03     11.5979E-03
             155    -1.43985E-06     103.465E-03    -133.105E+06    -208.717E+06    -131.191E+06     526.556E+03    -294.356E-03     589.128E-03    -294.772E-03     14.7964E-03    -294.566E-03     588.507E-03    -294.933E-03     11.8656E-03
             156     1.03045E-06     101.759E-03    -130.868E+06    -207.933E+06    -132.550E+06    -469.085E+03    -294.941E-03     588.822E-03    -293.881E-03     14.1042E-03    -295.139E-03     588.202E-03    -294.052E-03     11.1473E-03
             157     754.739E-09     100.052E-03    -130.888E+06    -212.119E+06    -129.498E+06    -291.536E+03    -295.136E-03     588.419E-03    -293.283E-03     13.2909E-03    -295.326E-03     587.768E-03    -293.434E-03     10.6509E-03
             158    -76.1775E-09     98.3496E-03    -124.667E+06    -215.515E+06    -126.316E+06    -497.264E+03    -294.035E-03     588.945E-03    -294.909E-03     13.9931E-03    -294.194E-03     588.265E-03    -295.048E-03     11.3903E-03
             159     1.87028E-06     94.9296E-03    -127.769E+06    -213.558E+06    -128.322E+06     737.204E+03    -294.872E-03     588.340E-03    -293.468E-03     14.0064E-03    -295.048E-03     587.679E-03    -293.614E-03     11.2683E-03
             160    -68.1174E-09     93.2259E-03    -127.792E+06    -212.101E+06    -127.613E+06    -132.471E+03    -295.107E-03     588.699E-03    -293.592E-03     14.0831E-03    -295.289E-03     588.045E-03    -293.737E-03     11.2873E-03
             161     262.841E-09     91.5156E-03    -130.144E+06    -215.927E+06    -130.607E+06    -645.978E+03    -295.020E-03     589.671E-03    -294.651E-03     14.1880E-03    -295.203E-03     589.005E-03    -294.802E-03     11.4051E-03
             162    -6.29058E-09     89.8036E-03    -130.653E+06    -218.514E+06    -129.341E+06    -264.585E+03    -294.594E-03     589.343E-03    -294.749E-03     14.4526E-03    -294.778E-03     588.663E-03    -294.889E-03     11.6923E-03
             163    -490.224E-09     88.1011E-03    -130.563E+06    -217.533E+06    -131.196E+06     285.697E+03    -293.348E-03     588.809E-03    -295.461E-03     13.7799E-03    -293.529E-03     588.135E-03    -295.612E-03     11.0073E-03
             164    -1.88634E-06     86.3928E-03    -131.141E+06    -210.033E+06    -132.003E+06     1.52925E+06    -294.057E-03     589.165E-03    -295.108E-03     12.6738E-03    -294.247E-03     588.529E-03    -295.274E-03     9.99122E-03
             165     2.82095E-06     84.6816E-03    -131.595E+06    -199.915E+06    -131.143E+06     1.05648E+06    -296.346E-03     590.017E-03    -293.671E-03     13.8708E-03    -296.557E-03     589.434E-03    -293.846E-03     11.1362E-03
             166    -205.919E-09     82.9732E-03    -131.260E+06    -198.585E+06    -130.524E+06    -691.341E+03    -295.998E-03     590.105E-03    -294.107E-03     14.1940E-03    -296.211E-03     589.527E-03    -294.281E-03     11.4471E-03
             167     88.9114E-09     81.2631E-03    -130.006E+06    -208.189E+06    -130.523E+06    -1.74446E+06    -294.763E-03     589.301E-03    -294.538E-03     13.6834E-03    -294.955E-03     588.670E-03    -294.700E-03     10.9689E-03
             168     289.529E-09     79.5546E-03    -127.230E+06    -213.587E+06    -128.516E+06     223.523E+03    -294.538E-03     588.979E-03    -294.440E-03     15.0419E-03    -294.714E-03     588.318E-03    -294.589E-03     12.2639E-03
             169    -599.768E-09     77.8459E-03    -129.770E+06    -206.661E+06    -127.509E+06     1.44534E+06    -294.414E-03     589.068E-03    -294.654E-03     14.2268E-03    -294.612E-03     588.441E-03    -294.803E-03     11.5573E-03
             170     563.683E-09     76.1431E-03    -131.089E+06    -202.527E+06    -131.625E+06    -334.909E+03    -294.106E-03     589.292E-03    -295.185E-03     13.9887E-03    -294.313E-03     588.697E-03    -295.360E-03     11.1368E-03
             171    -2.01288E-06     74.4292E-03    -131.983E+06    -200.269E+06    -131.346E+06     1.32100E+06    -294.364E-03     589.305E-03    -294.941E-03     13.4821E-03    -294.577E-03     588.723E-03    -295.116E-03     10.6602E-03
             172     2.66627E-06     72.7241E-03    -128.923E+06    -196.778E+06    -130.867E+06    -260.901E+03    -294.889E-03     588.843E-03    -293.954E-03     13.4618E-03    -295.089E-03     588.271E-03    -294.136E-03     10.7889E-03
             173    -2.11658E-06     71.0175E-03    -131.830E+06    -205.032E+06    -129.506E+06    -2.18708E+06    -295.136E-03     589.778E-03    -294.642E-03     14.8997E-03    -295.343E-03     589.169E-03    -294.801E-03     12.1356E-03
             174     2.19779E-06     69.2999E-03    -128.592E+06    -206.738E+06    -131.592E+06     1.39226E+06    -295.503E-03     590.287E-03    -294.784E-03     14.9994E-03    -295.690E-03     589.668E-03    -294.956E-03     12.2368E-03
             175    -1.39439E-06     67.5965E-03    -130.234E+06    -198.402E+06    -127.725E+06     919.739E+03    -294.185E-03     588.442E-03    -294.257E-03     14.1640E-03    -294.397E-03     587.860E-03    -294.420E-03     11.4014E-03
             176     472.863E-09     65.8927E-03    -128.912E+06    -204.426E+06    -130.083E+06    -2.66160E+06    -294.561E-03     588.826E-03    -294.265E-03     13.7442E-03    -294.756E-03     588.215E-03    -294.432E-03     10.8823E-03
             177     802.848E-09     64.1805E-03    -129.812E+06     -214.82E+06    -130.882E+06     34.3174E+03    -295.928E-03     590.283E-03    -294.354E-03     13.6160E-03    -296.111E-03     589.622E-03    -294.509E-03     10.7653E-03
             178    -8.58185E-09     62.4726E-03    -127.236E+06    -212.538E+06    -126.342E+06     669.642E+03    -295.371E-03     589.651E-03    -294.279E-03     13.6950E-03    -295.551E-03     588.990E-03    -294.419E-03     10.9128E-03
             179     652.300E-09     60.7606E-03    -129.129E+06    -204.797E+06    -128.429E+06     896.278E+03    -294.689E-03     588.758E-03    -294.069E-03     14.1329E-03    -294.885E-03     588.141E-03    -294.227E-03     11.4701E-03
             180    -500.369E-09     59.0586E-03    -134.047E+06    -203.082E+06    -133.428E+06    -417.223E+03    -294.052E-03     588.994E-03    -294.943E-03     14.7713E-03    -294.271E-03     588.405E-03    -295.121E-03     11.8967E-03
             181    -883.184E-09     57.3455E-03    -129.377E+06    -205.709E+06    -129.675E+06    -99.7649E+03    -294.839E-03     589.711E-03    -294.873E-03     14.3485E-03    -295.035E-03     589.096E-03    -295.035E-03     11.5079E-03
             182     2.18191E-06     55.6364E-03    -127.761E+06    -206.272E+06    -129.682E+06     298.482E+03    -294.603E-03     588.439E-03    -293.836E-03     13.9668E-03    -294.785E-03     587.814E-03    -294.000E-03     11.3955E-03
             183    -2.51172E-06     53.9368E-03    -131.795E+06    -202.807E+06    -131.385E+06     924.395E+03    -293.842E-03     588.614E-03    -294.772E-03     14.6690E-03    -294.054E-03     588.022E-03    -294.943E-03     11.7554E-03
             184     1.55856E-06     52.2224E-03    -130.760E+06    -196.153E+06    -129.802E+06     496.998E+03    -295.523E-03     590.430E-03    -294.907E-03     13.4047E-03    -295.739E-03     589.863E-03    -295.082E-03     10.5929E-03
             185     200.426E-09     50.5140E-03    -129.972E+06    -194.844E+06    -130.838E+06    -416.484E+03    -294.537E-03     589.202E-03    -294.665E-03     13.6803E-03    -294.746E-03     588.638E-03    -294.848E-03     11.0236E-03
             186    -2.17797E-06     48.8081E-03    -130.010E+06    -195.336E+06    -129.254E+06     448.476E+03    -294.372E-03     589.038E-03    -294.667E-03     13.8441E-03    -294.584E-03     588.475E-03    -294.841E-03     11.0578E-03
             187     3.72934E-06     47.0958E-03    -128.197E+06    -197.438E+06    -130.241E+06    -1.15407E+06    -295.451E-03     590.358E-03    -294.906E-03     15.0258E-03    -295.649E-03     589.786E-03    -295.086E-03     12.2205E-03
             188    -4.62491E-06     45.3868E-03    -132.021E+06    -200.790E+06    -131.070E+06     71.0017E+03    -294.599E-03     589.757E-03    -295.158E-03     13.8070E-03    -294.804E-03     589.175E-03    -295.331E-03     11.1014E-03
             189     4.73348E-06     43.6787E-03    -130.236E+06    -196.118E+06    -131.142E+06     1.00304E+06    -295.426E-03     589.423E-03    -293.997E-03     14.0442E-03    -295.629E-03     588.862E-03    -294.179E-03     11.3872E-03
             190    -2.98336E-06     41.9687E-03    -131.420E+06    -194.284E+06    -129.824E+06    -239.545E+03    -295.454E-03     589.850E-03    -294.396E-03     14.4247E-03    -295.672E-03     589.297E-03    -294.573E-03     11.6331E-03
             191     2.61580E-06     40.2631E-03    -130.291E+06    -202.162E+06    -131.748E+06    -1.94194E+06    -294.065E-03     589.495E-03    -295.430E-03     12.8015E-03    -294.260E-03     588.899E-03    -295.607E-03     10.0347E-03
             192    -4.11870E-06     38.5531E-03    -128.257E+06    -209.032E+06    -127.899E+06    -281.414E+03    -293.429E-03     589.656E-03    -296.228E-03     13.6524E-03    -293.610E-03     589.020E-03    -296.378E-03     10.9382E-03
             193     1.83518E-06     36.8418E-03    -128.703E+06    -206.290E+06    -129.057E+06     1.12351E+06    -295.211E-03     590.547E-03    -295.336E-03     13.4444E-03    -295.400E-03     589.924E-03    -295.496E-03     10.7127E-03
             194     243.255E-09     35.1305E-03    -129.448E+06    -198.057E+06    -129.654E+06     1.26851E+06    -296.131E-03     589.952E-03    -293.822E-03     14.2641E-03    -296.337E-03     589.372E-03    -293.995E-03     11.5088E-03
             195     728.303E-09     33.4231E-03    -128.473E+06    -192.952E+06    -127.823E+06         159.375    -295.212E-03     589.315E-03    -294.103E-03     14.1398E-03    -295.423E-03     588.756E-03    -294.276E-03     11.4054E-03
             196    -249.026E-09     31.7162E-03    -129.425E+06    -196.960E+06    -130.368E+06    -1.03102E+06    -294.250E-03     588.490E-03    -294.239E-03     13.6247E-03    -294.455E-03     587.914E-03    -294.418E-03     10.9159E-03
             197    -259.637E-09     30.0061E-03    -132.115E+06    -199.308E+06    -129.671E+06     548.993E+03    -293.019E-03     586.274E-03    -293.255E-03     13.9227E-03    -293.234E-03     585.689E-03    -293.423E-03     11.3152E-03
             198     430.698E-09     28.3089E-03    -128.859E+06    -193.965E+06    -129.937E+06     749.056E+03    -292.321E-03     584.737E-03    -292.416E-03     12.8690E-03    -292.526E-03     584.173E-03    -292.597E-03     10.2686E-03
             199    -768.615E-09     26.6144E-03    -125.436E+06    -191.644E+06    -124.707E+06    -29.1315E+03    -291.561E-03     583.551E-03    -291.990E-03     12.1260E-03    -291.759E-03     582.986E-03    -292.154E-03     9.44079E-03
             200     517.656E-09     24.9042E-03    -125.733E+06    -195.416E+06    -126.059E+06    -825.875E+03    -289.934E-03     579.315E-03    -289.381E-03     12.1266E-03    -290.122E-03     578.729E-03    -289.545E-03     9.74058E-03
             201     454.009E-09     23.2299E-03    -125.024E+06    -196.706E+06    -126.265E+06     978.283E+03    -286.036E-03     572.206E-03    -286.171E-03     11.0155E-03    -286.214E-03     571.610E-03    -286.336E-03     8.86706E-03
             202    -1.64244E-06     21.5542E-03    -123.549E+06    -196.817E+06    -123.127E+06    -342.343E+03    -281.956E-03     564.421E-03    -282.466E-03     9.04587E-03    -282.129E-03     563.815E-03    -282.617E-03     6.92203E-03
             203     2.14954E-06     19.8934E-03    -122.781E+06    -198.553E+06    -123.538E+06    -580.435E+03    -277.138E-03     554.294E-03    -277.156E-03     8.86451E-03    -277.303E-03     553.677E-03    -277.308E-03     6.88476E-03
             204    -2.68738E-06     18.2569E-03    -121.875E+06    -193.764E+06    -121.704E+06     1.22719E+06    -269.787E-03     541.228E-03    -271.442E-03     7.48191E-03    -269.954E-03     540.627E-03    -271.592E-03     5.69511E-03
             205     961.810E-09     16.6391E-03    -121.851E+06    -189.072E+06    -121.586E+06     78.8593E+03    -262.412E-03     525.730E-03    -263.318E-03     4.89560E-03    -262.583E-03     525.145E-03    -263.475E-03     3.36942E-03
             206    -444.068E-09     15.0524E-03    -121.696E+06    -186.542E+06    -121.880E+06     676.695E+03    -255.028E-03     509.248E-03    -254.220E-03     4.88361E-03    -255.200E-03     508.675E-03    -254.382E-03     3.46148E-03
             207     1.07853E-06     13.4865E-03    -121.421E+06    -180.801E+06    -120.781E+06     763.098E+03    -246.404E-03     490.598E-03    -244.193E-03     2.27284E-03    -246.585E-03     490.047E-03    -244.359E-03     1.06285E-03
             208     1.46747E-06     11.9578E-03    -119.144E+06    -174.595E+06    -120.251E+06     1.08737E+06    -235.277E-03     468.983E-03    -233.706E-03     1.98689E-03    -235.455E-03     468.458E-03    -233.881E-03     944.604E-06
             209    -1.75774E-06     10.4596E-03    -117.383E+06    -168.593E+06    -116.518E+06      923.11E+03    -224.302E-03     449.159E-03    -224.857E-03     660.946E-06    -224.483E-03     448.658E-03    -225.024E-03    -394.140E-06
             210     1.28785E-06     8.99326E-03    -115.252E+06    -167.276E+06    -116.228E+06    -285.174E+03    -217.685E-03     435.409E-03    -217.723E-03     754.479E-06    -217.858E-03     434.912E-03    -217.895E-03    -322.660E-06
             211    -854.283E-09     7.53216E-03    -117.663E+06    -168.630E+06    -117.126E+06    -145.425E+03    -215.537E-03     431.613E-03    -216.076E-03     4.24912E-03    -215.719E-03     431.119E-03    -216.247E-03     3.18593E-03
             212    -349.050E-09     6.07433E-03    -122.076E+06    -172.308E+06    -121.398E+06    -1.27939E+06    -219.270E-03     439.290E-03    -220.020E-03     5.50502E-03    -219.465E-03     438.786E-03    -220.200E-03     4.53925E-03
             213     488.661E-09     4.59613E-03    -114.474E+06    -176.547E+06    -114.991E+06     2.24325E+03    -228.208E-03     456.265E-03    -228.057E-03     6.79854E-03    -228.369E-03     455.718E-03    -228.210E-03     5.94706E-03
             214    -391.053E-09     3.08150E-03    -84.5421E+06    -173.559E+06    -84.3044E+06     1.06997E+06    -237.350E-03     474.387E-03    -237.037E-03     5.49085E-03    -237.405E-03     473.766E-03    -237.084E-03     4.87260E-03
             215     749.815E-09     1.54875E-03    -65.2435E+06    -169.820E+06    -65.2525E+06     157.818E+03    -243.447E-03     486.627E-03    -243.180E-03     3.37573E-03    -243.434E-03     485.968E-03    -243.165E-03     3.08106E-03
             216     702.889E-06    -166.533E-18    -64.4694E+06    -166.249E+06    -63.3884E+06     293.864E+03    -245.679E-03     491.283E-03    -245.604E-03     3.82681E-03    -245.670E-03     490.638E-03    -245.586E-03     3.55976E-03
             217     1.40566E-03    -166.533E-18    -62.7817E+06    -158.173E+06    -60.5951E+06    -1.17660E+06    -245.871E-03     491.566E-03    -245.695E-03     5.59415E-03    -245.871E-03     490.957E-03    -245.678E-03     4.99857E-03
             218     2.10967E-03    -166.533E-18    -59.6789E+06    -140.972E+06    -54.3179E+06    -2.24771E+06    -245.908E-03     491.684E-03    -245.776E-03     6.62964E-03    -245.930E-03     491.151E-03    -245.757E-03     5.73023E-03
             219     2.81254E-03    -166.533E-18    -55.9580E+06    -115.838E+06    -46.1372E+06    -1.16523E+06    -245.886E-03     491.709E-03    -245.823E-03     8.83850E-03    -245.943E-03     491.289E-03    -245.805E-03     7.65603E-03
             220     3.51496E-03    -166.533E-18    -52.7137E+06    -88.9782E+06    -38.2870E+06     58.8146E+03    -245.997E-03     491.859E-03    -245.863E-03     11.6134E-03    -246.093E-03     491.563E-03    -245.849E-03     10.1977E-03
             221     4.21802E-03    -166.533E-18    -49.0996E+06    -57.7247E+06    -30.3839E+06    -1.37901E+06    -246.479E-03     492.416E-03    -245.937E-03     14.5540E-03    -246.622E-03     492.267E-03    -245.934E-03     12.8666E-03
             222     4.91960E-03    -166.533E-18    -43.7336E+06    -29.3391E+06    -20.0947E+06    -3.42174E+06    -247.626E-03     493.746E-03    -246.120E-03     16.7596E-03    -247.806E-03     493.725E-03    -246.115E-03     14.7714E-03
             223     5.62231E-03    -166.533E-18    -37.3113E+06    -15.2513E+06    -6.83884E+06    -2.43417E+06    -249.299E-03     495.771E-03    -246.471E-03     18.0656E-03    -249.495E-03     495.800E-03    -246.429E-03     15.8095E-03
             224     6.32144E-03    -166.533E-18    -31.9440E+06    -10.8996E+06     3.70845E+06    -732.425E+03    -251.693E-03     498.673E-03    -246.980E-03     20.4167E-03    -251.895E-03     498.712E-03    -246.900E-03     17.8784E-03
             225     7.01977E-03    -166.533E-18    -28.1073E+06    -3.86616E+06     11.8873E+06     904.051E+03    -255.095E-03     502.765E-03    -247.670E-03     23.4092E-03    -255.316E-03     502.838E-03    -247.564E-03     20.5109E-03
             226     7.71428E-03    -166.533E-18    -26.1542E+06     3.97253E+06     20.7825E+06     3.58846E+06    -259.684E-03     508.289E-03    -248.605E-03     25.9528E-03    -259.936E-03     508.402E-03    -248.469E-03     22.6899E-03
             227     8.40708E-03    -166.533E-18    -25.5622E+06     7.83147E+06     30.3129E+06     4.88785E+06    -266.197E-03     516.055E-03    -249.858E-03     28.6277E-03    -266.489E-03     516.197E-03    -249.680E-03     24.8290E-03
             228     9.09271E-03    -166.533E-18    -24.8510E+06     12.4295E+06     41.0320E+06     3.30768E+06    -275.731E-03     527.265E-03    -251.534E-03     31.7245E-03    -276.068E-03     527.441E-03    -251.311E-03     27.2705E-03
             229     9.77276E-03    -166.533E-18    -22.1662E+06     18.8911E+06     49.0818E+06     1.44809E+06    -290.021E-03     543.805E-03    -253.785E-03     34.7208E-03    -290.406E-03     544.042E-03    -253.534E-03     29.2692E-03
             230     10.4413E-03    -166.533E-18    -18.7403E+06     27.6420E+06     52.8700E+06     1.09685E+06    -311.088E-03     567.931E-03    -256.843E-03     39.6600E-03    -311.533E-03     568.262E-03    -256.591E-03     32.8435E-03
             231     11.0902E-03    -166.533E-18    -16.5810E+06     34.7211E+06     55.5975E+06     1.32821E+06    -340.882E-03     601.897E-03    -261.014E-03     55.9282E-03    -341.480E-03     602.410E-03    -260.763E-03     47.0929E-03
             232     11.7088E-03    -166.533E-18    -15.8643E+06     43.8211E+06     58.1336E+06    -2.04734E+06    -387.581E-03     654.324E-03    -266.744E-03     76.2618E-03    -388.496E-03     655.209E-03    -266.493E-03     62.9044E-03
             233     12.3178E-03    -166.533E-18    -10.2565E+06     66.0776E+06     66.2951E+06    -2.85682E+06    -467.363E-03     742.279E-03    -274.915E-03     62.6763E-03    -468.328E-03     743.340E-03    -274.665E-03     45.1803E-03
             234     12.8837E-03    -166.533E-18     1.51946E+06     95.5745E+06     81.4629E+06     3.76228E+06    -588.823E-03     875.353E-03    -286.530E-03     109.621E-03    -591.257E-03     877.977E-03    -286.263E-03     78.7132E-03
             235     13.4038E-03     2.68457E-03    -2.63591E+06     93.1242E+06     74.6121E+06    -3.54493E+06    -565.123E-03     857.618E-03    -292.496E-03     180.647E-03    -570.329E-03     862.925E-03    -292.254E-03     133.815E-03
             236     13.3867E-03     4.61616E-03    -7.84136E+06     74.0670E+06     65.1903E+06    -3.71787E+06    -433.594E-03     726.057E-03    -292.463E-03     147.602E-03    -438.128E-03     730.613E-03    -292.233E-03     107.414E-03
             237     13.4047E-03     6.47026E-03    -881.852E+03     73.4949E+06     72.6795E+06     2.55175E+06    -374.931E-03     668.384E-03    -293.453E-03     133.704E-03    -378.771E-03     672.274E-03    -293.195E-03     100.120E-03
             238     13.4037E-03     8.24840E-03    -3.21517E+06     73.7491E+06     74.0917E+06    -1.45040E+06    -354.022E-03     647.594E-03    -293.572E-03     129.357E-03    -357.988E-03     651.597E-03    -293.304E-03     95.2281E-03
             239     13.4074E-03     10.0701E-03    -3.04154E+06     71.6826E+06     75.6086E+06    -674.936E+03    -346.082E-03     639.698E-03    -293.616E-03     112.743E-03    -349.264E-03     642.906E-03    -293.337E-03     81.6410E-03
             240     13.4084E-03     11.8377E-03    -899.327E+03     68.0000E+06     75.4025E+06    -848.320E+03    -332.157E-03     625.998E-03    -293.841E-03     113.167E-03    -335.294E-03     629.155E-03    -293.561E-03     83.3201E-03
             241     13.4090E-03     13.6081E-03    -1.43873E+06     62.1894E+06     75.3555E+06    -1.40703E+06    -320.620E-03     614.681E-03    -294.061E-03     107.969E-03    -323.582E-03     617.640E-03    -293.772E-03     79.5097E-03
             242     13.4105E-03     15.3335E-03    -1.98820E+06     57.9212E+06     76.6222E+06    -905.406E+03    -312.899E-03     607.129E-03    -294.230E-03     105.633E-03    -315.801E-03     610.006E-03    -293.928E-03     77.8768E-03
             243     13.4088E-03     17.0730E-03    -2.65109E+06     57.1184E+06     75.6288E+06    -553.315E+03    -310.016E-03     604.381E-03    -294.365E-03     98.2806E-03    -312.692E-03     607.031E-03    -294.066E-03     71.6068E-03
             244     13.4069E-03     18.8034E-03    -2.31395E+06     56.4767E+06     74.2017E+06     371.152E+03    -302.167E-03     596.799E-03    -294.632E-03     96.4455E-03    -304.724E-03     599.334E-03    -294.340E-03     71.0371E-03
             245     13.4086E-03     20.5163E-03    -595.068E+03     57.5353E+06     74.6072E+06     373.103E+03    -295.022E-03     589.840E-03    -294.818E-03     97.2477E-03    -297.575E-03     592.379E-03    -294.527E-03     72.3697E-03
             246     13.4070E-03     22.2092E-03    -1.66231E+06     56.6898E+06     74.5068E+06     73.1711E+03    -293.698E-03     588.535E-03    -294.837E-03     91.5548E-03    -296.109E-03     590.925E-03    -294.544E-03     67.2787E-03
             247     13.4092E-03     23.9245E-03    -2.48801E+06     55.9215E+06     73.5706E+06     41.2897E+03    -291.817E-03     586.692E-03    -294.875E-03     87.5379E-03    -294.125E-03     588.977E-03    -294.585E-03     63.7698E-03
             248     13.4065E-03     25.6219E-03    -1.43959E+06     56.6474E+06     74.1538E+06     186.602E+03    -291.106E-03     585.996E-03    -294.890E-03     89.6128E-03    -293.442E-03     588.313E-03    -294.599E-03     65.8310E-03
             249     13.4099E-03     27.3282E-03    -2.62323E+06     55.8011E+06     75.7149E+06    -360.353E+03    -292.123E-03     587.001E-03    -294.878E-03     86.3507E-03    -294.381E-03     589.228E-03    -294.576E-03     62.7897E-03
             250     13.4055E-03     29.0339E-03    -1.88686E+06     56.1672E+06     75.6960E+06    -221.876E+03    -291.773E-03     586.655E-03    -294.882E-03     86.1061E-03    -294.028E-03     588.883E-03    -294.582E-03     62.5357E-03
             251     13.4112E-03     30.7357E-03    -847.666E+03     56.8517E+06     74.7368E+06     466.228E+03    -291.741E-03     586.552E-03    -294.811E-03     87.1536E-03    -293.984E-03     588.777E-03    -294.518E-03     63.7171E-03
             252     13.4078E-03     32.4466E-03    -2.34078E+06     55.8158E+06     74.9650E+06     223.960E+03    -292.802E-03     587.581E-03    -294.780E-03     85.5403E-03    -294.999E-03     589.751E-03    -294.482E-03     62.2642E-03
             253     13.4093E-03     34.1519E-03    -1.45140E+06     56.6736E+06     75.7478E+06     835.009E+03    -292.849E-03     587.630E-03    -294.781E-03     85.4499E-03    -295.043E-03     589.801E-03    -294.483E-03     62.1628E-03
             254     13.4095E-03     35.8531E-03    -1.10877E+06     56.8267E+06     74.4448E+06     316.703E+03    -292.437E-03     587.146E-03    -294.709E-03     84.1039E-03    -294.623E-03     589.313E-03    -294.417E-03     60.7183E-03
             255     13.4113E-03     37.5646E-03    -2.55037E+06     56.0619E+06     75.5881E+06    -937.553E+03    -293.585E-03     588.265E-03    -294.680E-03     83.4319E-03    -295.795E-03     590.446E-03    -294.380E-03     59.7566E-03
             256     13.4078E-03     39.2735E-03    -1.97992E+06     56.7929E+06     77.1163E+06    -459.844E+03    -293.993E-03     588.699E-03    -294.707E-03     83.8681E-03    -296.202E-03     590.880E-03    -294.401E-03     60.2110E-03
             257     13.4115E-03     40.9817E-03    -2.02955E+06     56.3030E+06     74.6447E+06     295.544E+03    -293.399E-03     588.077E-03    -294.678E-03     84.8414E-03    -295.606E-03     590.260E-03    -294.383E-03     61.3221E-03
             258     13.4094E-03     42.6894E-03    -2.16689E+06     56.1872E+06     74.4043E+06     37.6815E+03    -293.933E-03     588.587E-03    -294.654E-03     84.0705E-03    -296.120E-03     590.750E-03    -294.360E-03     60.6018E-03
             259     13.4104E-03     44.4016E-03    -1.86132E+06     56.7467E+06     76.0471E+06     125.000E+03    -294.218E-03     588.882E-03    -294.664E-03     84.8197E-03    -296.417E-03     591.055E-03    -294.363E-03     61.3252E-03
             260     13.4100E-03     46.1071E-03    -2.43776E+06     56.2761E+06     75.6211E+06    -64.4719E+03    -294.132E-03     588.765E-03    -294.633E-03     85.6258E-03    -296.358E-03     590.963E-03    -294.333E-03     62.0101E-03
             261     13.4115E-03     47.8208E-03    -1.33874E+06     57.2104E+06     76.1349E+06     423.950E+03    -293.941E-03     588.567E-03    -294.626E-03     84.3099E-03    -296.132E-03     590.736E-03    -294.327E-03     60.8319E-03
             262     13.4095E-03     49.5249E-03    -1.34324E+06     57.0034E+06     75.6298E+06     221.963E+03    -293.506E-03     588.138E-03    -294.632E-03     84.7097E-03    -295.712E-03     590.322E-03    -294.335E-03     61.1651E-03
             263     13.4122E-03     51.2338E-03    -2.19095E+06     56.3162E+06     75.0113E+06    -523.114E+03    -293.976E-03     588.560E-03    -294.584E-03     85.4959E-03    -296.223E-03     590.782E-03    -294.287E-03     61.6736E-03
             264     13.4105E-03     52.9453E-03    -1.59861E+06     57.2197E+06     77.2491E+06    -151.658E+03    -294.819E-03     589.402E-03    -294.582E-03     84.4433E-03    -297.035E-03     591.591E-03    -294.277E-03     60.7321E-03
             265     13.4105E-03     54.6556E-03    -2.07564E+06     56.4286E+06     76.0527E+06     279.282E+03    -294.292E-03     588.905E-03    -294.613E-03     84.6692E-03    -296.497E-03     591.082E-03    -294.312E-03     61.1057E-03
             266     13.4112E-03     56.3620E-03    -2.53998E+06     55.8509E+06     75.2329E+06    -272.970E+03    -294.068E-03     588.688E-03    -294.620E-03     84.6738E-03    -296.291E-03     590.882E-03    -294.321E-03     60.9860E-03
             267     13.4097E-03     58.0737E-03    -595.911E+03     57.4479E+06     75.8412E+06     542.933E+03    -293.387E-03     587.995E-03    -294.608E-03     84.8391E-03    -295.597E-03     590.187E-03    -294.311E-03     61.2729E-03
             268     13.4135E-03     59.7776E-03    -1.05409E+06     57.1849E+06     76.3467E+06    -105.664E+03    -294.315E-03     588.922E-03    -294.606E-03     85.3296E-03    -296.532E-03     591.116E-03    -294.306E-03     61.7081E-03
             269     13.4064E-03     61.4959E-03    -3.35138E+06     55.1219E+06     75.9719E+06    -62.0424E+03    -294.749E-03     589.412E-03    -294.664E-03     84.1488E-03    -296.950E-03     591.577E-03    -294.359E-03     60.5872E-03
             270     13.4133E-03     63.1959E-03    -2.39921E+06     55.2865E+06     73.6085E+06    -91.6684E+03    -292.387E-03     587.039E-03    -294.651E-03     85.7323E-03    -294.629E-03     589.255E-03    -294.360E-03     62.0720E-03
             271     13.4098E-03     64.9033E-03    -2.42183E+06     55.7617E+06     75.1902E+06    -684.602E+03    -293.441E-03     588.032E-03    -294.590E-03     84.7711E-03    -295.678E-03     590.240E-03    -294.292E-03     61.0105E-03
             272     13.4120E-03     66.6174E-03    -1.45614E+06     56.8013E+06     77.0144E+06     483.776E+03    -294.490E-03     589.098E-03    -294.608E-03     84.6168E-03    -296.677E-03     591.259E-03    -294.304E-03     61.2011E-03
             273     13.4091E-03     68.3238E-03    -1.83626E+06     56.0348E+06     75.8911E+06     1.03340E+06    -293.304E-03     587.947E-03    -294.643E-03     85.3378E-03    -295.490E-03     590.106E-03    -294.342E-03     62.0626E-03
             274     13.4123E-03     70.0310E-03    -2.45179E+06     55.6868E+06     76.5758E+06    -339.671E+03    -293.721E-03     588.348E-03    -294.627E-03     85.3505E-03    -295.949E-03     590.543E-03    -294.321E-03     61.7043E-03
             275     13.4093E-03     71.7368E-03    -2.08657E+06     55.7153E+06     75.4215E+06    -178.099E+03    -294.199E-03     588.791E-03    -294.593E-03     83.9940E-03    -296.397E-03     590.961E-03    -294.293E-03     60.4168E-03
             276     13.4129E-03     73.4525E-03    -1.44032E+06     56.1612E+06     75.4276E+06     331.743E+03    -293.264E-03     587.870E-03    -294.606E-03     84.5339E-03    -295.463E-03     590.045E-03    -294.308E-03     61.0384E-03
             277     13.4093E-03     75.1524E-03    -2.27469E+06     55.6260E+06     76.3020E+06    -908.401E+03    -293.864E-03     588.493E-03    -294.629E-03     83.9199E-03    -296.102E-03     590.699E-03    -294.325E-03     60.0204E-03
             278     13.4111E-03     76.8650E-03    -2.55341E+06     55.2971E+06     75.8116E+06    -677.654E+03    -293.750E-03     588.367E-03    -294.618E-03     83.6939E-03    -295.989E-03     590.574E-03    -294.315E-03     59.7960E-03
             279     13.4117E-03     78.5720E-03    -1.12101E+06      56.393E+06     75.7305E+06     220.734E+03    -293.149E-03     587.747E-03    -294.598E-03     85.3346E-03    -295.368E-03     589.943E-03    -294.300E-03     61.7810E-03
             280     13.4105E-03     80.2859E-03    -2.28159E+06     55.2915E+06     75.2575E+06     340.544E+03    -293.732E-03     588.340E-03    -294.608E-03     86.6873E-03    -295.953E-03     590.531E-03    -294.309E-03     63.2401E-03
             281     13.4112E-03     81.9892E-03    -1.52212E+06     56.2290E+06     76.9781E+06     334.557E+03    -293.828E-03     588.441E-03    -294.612E-03     86.3875E-03    -296.062E-03     590.645E-03    -294.307E-03     62.8149E-03
             282     13.4109E-03     83.6975E-03    -2.16502E+06     55.5679E+06     76.6498E+06     398.332E+03    -294.658E-03     589.267E-03    -294.609E-03     84.2963E-03    -296.866E-03     591.442E-03    -294.304E-03     60.6923E-03
             283     13.4097E-03     85.4098E-03    -3.34002E+06     54.1241E+06     75.1169E+06    -76.3279E+03    -293.790E-03     588.419E-03    -294.629E-03     85.2241E-03    -296.011E-03     590.603E-03    -294.327E-03     61.6448E-03
             284     13.4124E-03     87.1174E-03    -2.10779E+06     55.2600E+06     76.0141E+06    -348.209E+03    -292.807E-03     587.428E-03    -294.621E-03     86.8027E-03    -295.069E-03     589.659E-03    -294.318E-03     63.0827E-03
             285     13.4100E-03     88.8211E-03    -1.70992E+06     55.9793E+06     77.6588E+06     94.8592E+03    -294.975E-03     589.563E-03    -294.589E-03     85.3025E-03    -297.190E-03     591.746E-03    -294.279E-03     61.7033E-03
             286     13.4111E-03     90.5372E-03    -1.86210E+06     55.5369E+06     76.8327E+06     287.547E+03    -294.911E-03     589.527E-03    -294.616E-03     84.5953E-03    -297.106E-03     591.690E-03    -294.310E-03     61.0887E-03
             287     13.4097E-03     92.2479E-03    -1.42794E+06     55.4127E+06     75.0252E+06    -205.603E+03    -292.601E-03     587.236E-03    -294.635E-03     87.5870E-03    -294.888E-03     589.497E-03    -294.338E-03     63.7377E-03
             288     13.4131E-03     93.9449E-03    -1.44317E+06     55.7183E+06     76.0360E+06    -143.526E+03    -293.411E-03     588.007E-03    -294.597E-03     85.5700E-03    -295.644E-03     590.213E-03    -294.295E-03     61.9162E-03
             289     13.4088E-03     95.6622E-03    -2.05742E+06     55.1373E+06     77.3386E+06     525.329E+03    -294.270E-03     588.895E-03    -294.625E-03     83.7326E-03    -296.444E-03     591.033E-03    -294.315E-03     60.3527E-03
             290     13.4118E-03     97.3673E-03    -2.34895E+06     54.5252E+06     76.7982E+06     134.201E+03    -293.438E-03     588.088E-03    -294.650E-03     85.9522E-03    -295.659E-03     590.271E-03    -294.341E-03     62.4518E-03
             291     13.4100E-03     99.0739E-03    -991.464E+03     55.6803E+06     77.8148E+06     387.129E+03    -293.924E-03     588.531E-03    -294.607E-03     84.9462E-03    -296.125E-03     590.700E-03    -294.298E-03     61.4470E-03
             292     670.194E-06     98.3646E-03    -125.045E+06    -214.245E+06    -123.741E+06    -247.569E+03    -294.131E-03     588.758E-03    -294.627E-03     23.5753E-03    -294.376E-03     588.158E-03    -294.754E-03     19.0732E-03
             293     1.34128E-03     98.4149E-03    -123.289E+06    -196.172E+06    -117.049E+06    -104.088E+03    -294.504E-03     588.826E-03    -294.321E-03     43.0673E-03    -295.003E-03     588.530E-03    -294.443E-03     34.7109E-03
             294     2.01218E-03     98.4919E-03    -118.776E+06    -169.954E+06    -103.827E+06    -180.559E+03    -295.064E-03     589.426E-03    -294.361E-03     62.9542E-03    -295.971E-03     589.608E-03    -294.462E-03     50.6128E-03
             295     2.68152E-03     98.6015E-03    -113.018E+06    -148.568E+06    -84.5206E+06    -153.222E+03    -295.486E-03     589.963E-03    -294.477E-03     83.0963E-03    -296.944E-03     590.738E-03    -294.520E-03     66.7314E-03
             296     3.35200E-03     98.7390E-03    -105.465E+06    -122.593E+06    -63.5091E+06    -152.281E+03    -295.732E-03     590.283E-03    -294.550E-03     102.885E-03    -297.879E-03     591.804E-03    -294.537E-03     82.5559E-03
             297     4.02224E-03     98.9055E-03    -96.5576E+06    -97.3204E+06    -42.0534E+06    -220.550E+03    -296.097E-03     590.680E-03    -294.583E-03     121.848E-03    -299.045E-03     593.061E-03    -294.512E-03     97.6301E-03
             298     4.69288E-03     99.0993E-03    -87.0664E+06    -66.8483E+06    -21.5171E+06     584.583E+03    -296.594E-03     591.182E-03    -294.588E-03     140.095E-03    -300.446E-03     594.550E-03    -294.472E-03     112.146E-03
             299     5.36356E-03     99.3206E-03    -77.3811E+06    -32.6999E+06    -2.11477E+06     2.04632E+06    -297.145E-03     591.723E-03    -294.578E-03     157.167E-03    -301.964E-03     596.157E-03    -294.429E-03     125.729E-03
             300     6.03456E-03     99.5639E-03    -68.2047E+06    -12.9473E+06     13.9253E+06     2.66870E+06    -297.817E-03     592.397E-03    -294.580E-03     172.177E-03    -303.580E-03     597.832E-03    -294.393E-03     137.541E-03
             301     6.70501E-03     99.8302E-03    -60.1722E+06    -5.95462E+06     24.5892E+06     2.10056E+06    -298.380E-03     592.967E-03    -294.587E-03     184.800E-03    -305.006E-03     599.287E-03    -294.368E-03     147.382E-03
             302     7.37598E-03     100.111E-03    -52.4787E+06     2.96237E+06     33.6687E+06     1.31512E+06    -298.849E-03     593.441E-03    -294.592E-03     194.654E-03    -306.216E-03     600.535E-03    -294.352E-03     154.932E-03
             303     8.04624E-03     100.406E-03    -44.5365E+06     14.3873E+06     43.4480E+06     1.30548E+06    -299.295E-03     593.906E-03    -294.611E-03     201.419E-03    -307.237E-03     601.615E-03    -294.350E-03     159.897E-03
             304     8.71651E-03     100.707E-03    -36.5562E+06     23.5084E+06     53.8868E+06     1.34743E+06    -299.315E-03     593.959E-03    -294.643E-03     205.624E-03    -307.651E-03     602.092E-03    -294.355E-03     162.822E-03
             305     9.38694E-03     101.014E-03    -29.7841E+06     30.8969E+06     63.5259E+06     2.00159E+06    -298.907E-03     593.570E-03    -294.663E-03     206.868E-03    -307.433E-03     601.916E-03    -294.347E-03     163.310E-03
             306     10.0583E-03     101.313E-03    -24.3066E+06     38.1016E+06     70.2117E+06     3.08777E+06    -298.276E-03     592.929E-03    -294.653E-03     204.517E-03    -306.754E-03     601.252E-03    -294.322E-03     160.777E-03
             307     10.7289E-03     101.609E-03    -18.4827E+06     45.8909E+06     73.3500E+06     2.51232E+06    -297.615E-03     592.231E-03    -294.617E-03     198.626E-03    -305.815E-03     600.316E-03    -294.290E-03     155.217E-03
             308     11.3997E-03     101.887E-03    -12.1462E+06     50.1000E+06     72.5925E+06     1.96718E+06    -296.996E-03     591.571E-03    -294.576E-03     184.979E-03    -304.363E-03     598.863E-03    -294.268E-03     143.445E-03
             309     12.0705E-03     102.142E-03    -6.37862E+06     56.8512E+06     76.3072E+06     1.28093E+06    -296.493E-03     591.069E-03    -294.576E-03     174.146E-03    -303.359E-03     597.893E-03    -294.268E-03     133.514E-03
             310     12.7399E-03     102.377E-03    -3.80786E+06     58.1050E+06     78.6707E+06    -166.626E+03    -295.184E-03     589.778E-03    -294.595E-03     129.147E-03    -299.806E-03     594.365E-03    -294.280E-03     96.5986E-03
             311     670.913E-06     100.073E-03    -128.529E+06    -212.725E+06    -125.015E+06    -516.165E+03    -294.948E-03     588.778E-03    -293.830E-03     22.8616E-03    -295.209E-03     588.190E-03    -293.960E-03     18.3557E-03
             312     1.34078E-03     100.120E-03    -124.546E+06    -196.762E+06    -116.741E+06    -550.510E+03    -294.824E-03     589.238E-03    -294.414E-03     42.5404E-03    -295.325E-03     588.937E-03    -294.532E-03     34.1895E-03
             313     2.01046E-03     100.201E-03    -120.233E+06    -170.548E+06    -103.883E+06    -44.4045E+03    -294.983E-03     589.468E-03    -294.485E-03     62.7050E-03    -295.896E-03     589.649E-03    -294.582E-03     50.3516E-03
             314     2.68141E-03     100.309E-03    -113.919E+06    -148.492E+06    -84.4793E+06     284.784E+03    -295.182E-03     589.708E-03    -294.526E-03     82.9433E-03    -296.644E-03     590.484E-03    -294.568E-03     66.5914E-03
             315     3.35194E-03     100.447E-03    -106.127E+06    -121.920E+06    -63.5352E+06    -46.6921E+03    -295.525E-03     590.062E-03    -294.537E-03     102.882E-03    -297.676E-03     591.588E-03    -294.524E-03     82.5635E-03
             316     4.02266E-03     100.613E-03    -97.3535E+06    -96.3391E+06    -42.2349E+06    -445.874E+03    -296.042E-03     590.588E-03    -294.546E-03     122.110E-03    -299.000E-03     592.982E-03    -294.477E-03     97.8807E-03
             317     4.69310E-03     100.808E-03    -88.1418E+06    -70.6818E+06    -22.1821E+06    -26.5916E+03    -296.625E-03     591.181E-03    -294.556E-03     140.375E-03    -300.482E-03     594.539E-03    -294.437E-03     112.401E-03
             318     5.36410E-03     101.027E-03    -78.9481E+06    -37.9838E+06    -4.01497E+06     1.41237E+06    -297.262E-03     591.817E-03    -294.556E-03     157.114E-03    -302.078E-03     596.230E-03    -294.406E-03     125.650E-03
             319     6.03442E-03     101.273E-03    -69.7533E+06    -14.7823E+06     11.3427E+06     2.62690E+06    -297.860E-03     592.424E-03    -294.563E-03     171.905E-03    -303.620E-03     597.851E-03    -294.384E-03     137.268E-03
             320     6.70514E-03     101.537E-03    -60.6021E+06    -4.34092E+06     24.0047E+06     2.67754E+06    -298.428E-03     593.011E-03    -294.583E-03     184.424E-03    -305.051E-03     599.334E-03    -294.369E-03     147.003E-03
             321     7.37548E-03     101.820E-03    -52.2839E+06     5.39349E+06     34.7850E+06     1.59236E+06    -298.982E-03     593.588E-03    -294.606E-03     194.547E-03    -306.353E-03     600.691E-03    -294.364E-03     154.807E-03
             322     8.04592E-03     102.114E-03    -44.9709E+06     13.6810E+06     44.0781E+06     521.005E+03    -299.123E-03     593.748E-03    -294.625E-03     201.685E-03    -307.072E-03     601.458E-03    -294.359E-03     160.179E-03
             323     8.71641E-03     102.417E-03    -38.7840E+06     21.0419E+06     52.9952E+06     1.29721E+06    -298.905E-03     593.534E-03    -294.629E-03     206.076E-03    -307.257E-03     601.669E-03    -294.338E-03     163.329E-03
             324     9.38788E-03     102.720E-03    -33.0823E+06     27.7780E+06     61.1021E+06     2.44685E+06    -298.678E-03     593.297E-03    -294.619E-03     207.013E-03    -307.214E-03     601.637E-03    -294.306E-03     163.500E-03
             325     10.0583E-03     103.023E-03    -26.4348E+06     38.1435E+06     67.9080E+06     2.03683E+06    -298.332E-03     592.934E-03    -294.602E-03     203.939E-03    -306.802E-03     601.248E-03    -294.279E-03     160.178E-03
             326     10.7296E-03     103.315E-03    -19.6370E+06     48.1496E+06     71.9884E+06     970.086E+03    -297.703E-03     592.281E-03    -294.578E-03     198.135E-03    -305.903E-03     600.374E-03    -294.260E-03     154.665E-03
             327     11.3998E-03     103.599E-03    -13.8907E+06     51.5849E+06     71.8925E+06     135.575E+03    -296.788E-03     591.333E-03    -294.545E-03     184.887E-03    -304.170E-03     598.641E-03    -294.240E-03     143.307E-03
             328     12.0714E-03     103.844E-03    -9.17616E+06     55.6693E+06     75.1287E+06    -239.833E+03    -296.167E-03     590.706E-03    -294.539E-03     173.336E-03    -303.026E-03     597.512E-03    -294.230E-03     132.696E-03
             329     12.7429E-03     104.093E-03    -4.67283E+06     57.6961E+06     79.7429E+06     483.227E+03    -295.537E-03     590.109E-03    -294.572E-03     127.723E-03    -300.118E-03     594.648E-03    -294.251E-03     95.3216E-03
             330     670.032E-06     101.780E-03    -129.571E+06    -211.452E+06    -126.940E+06    -176.130E+03    -294.942E-03     589.172E-03    -294.230E-03     23.4591E-03    -295.210E-03     588.597E-03    -294.370E-03     18.8142E-03
             331     1.34019E-03     101.830E-03    -126.399E+06    -198.210E+06    -116.708E+06     314.035E+03    -294.819E-03     589.396E-03    -294.578E-03     43.0200E-03    -295.330E-03     589.094E-03    -294.691E-03     34.6762E-03
             332     2.01112E-03     101.908E-03    -121.461E+06    -171.223E+06    -102.891E+06     478.337E+03    -294.732E-03     589.285E-03    -294.553E-03     63.3639E-03    -295.657E-03     589.469E-03    -294.643E-03     51.0056E-03
             333     2.68140E-03     102.017E-03    -114.622E+06    -148.534E+06    -83.8545E+06     396.403E+03    -295.054E-03     589.573E-03    -294.519E-03     83.4299E-03    -296.527E-03     590.355E-03    -294.556E-03     67.0684E-03
             334     3.35208E-03     102.154E-03    -106.634E+06    -121.625E+06    -63.3619E+06     465.688E+03    -295.505E-03     590.015E-03    -294.510E-03     102.918E-03    -297.660E-03     591.543E-03    -294.496E-03     82.6069E-03
             335     4.02272E-03     102.321E-03    -98.1588E+06    -95.3000E+06    -42.2276E+06     452.279E+03    -295.997E-03     590.516E-03    -294.520E-03     121.830E-03    -298.955E-03     592.910E-03    -294.450E-03     97.6348E-03
             336     4.69370E-03     102.515E-03    -89.3770E+06    -73.5280E+06    -22.3789E+06     645.517E+03    -296.758E-03     591.307E-03    -294.548E-03     139.991E-03    -300.609E-03     594.644E-03    -294.424E-03     112.031E-03
             337     5.36354E-03     102.737E-03    -80.1871E+06    -41.9681E+06    -4.32989E+06     1.42189E+06    -297.350E-03     591.918E-03    -294.568E-03     156.844E-03    -302.162E-03     596.309E-03    -294.413E-03     125.376E-03
             338     6.03429E-03     102.980E-03    -70.8445E+06    -15.6491E+06     10.8067E+06     1.45987E+06    -297.857E-03     592.433E-03    -294.576E-03     172.027E-03    -303.623E-03     597.861E-03    -294.396E-03     137.374E-03
             339     6.70483E-03     103.246E-03    -61.7223E+06    -4.92075E+06     23.0442E+06     1.01535E+06    -298.531E-03     593.125E-03    -294.594E-03     184.794E-03    -305.167E-03     599.458E-03    -294.383E-03     147.327E-03
             340     7.37535E-03     103.528E-03    -53.4406E+06     6.15224E+06     33.6036E+06     1.44288E+06    -298.802E-03     593.409E-03    -294.607E-03     194.899E-03    -306.191E-03     600.532E-03    -294.370E-03     155.155E-03
             341     8.04605E-03     103.823E-03    -46.7084E+06     13.3439E+06     42.3915E+06     2.34092E+06    -298.763E-03     593.364E-03    -294.601E-03     201.918E-03    -306.724E-03     601.083E-03    -294.340E-03     160.478E-03
             342     8.71766E-03     104.123E-03    -40.3731E+06     19.0779E+06     51.1708E+06     2.64527E+06    -298.897E-03     593.490E-03    -294.593E-03     205.822E-03    -307.243E-03     601.612E-03    -294.306E-03     163.103E-03
             343     9.38786E-03     104.430E-03    -32.7254E+06     29.0752E+06     60.7640E+06     1.38215E+06    -298.863E-03     593.458E-03    -294.595E-03     206.426E-03    -307.382E-03     601.788E-03    -294.286E-03     162.882E-03
             344     10.0589E-03     104.730E-03    -24.6070E+06     39.6495E+06     68.9902E+06    -169.828E+03    -298.382E-03     592.978E-03    -294.596E-03     203.626E-03    -306.844E-03     601.294E-03    -294.273E-03     159.794E-03
             345     10.7286E-03     105.025E-03    -17.5077E+06     46.6673E+06     74.0781E+06     169.466E+03    -297.770E-03     592.359E-03    -294.589E-03     197.794E-03    -305.956E-03     600.433E-03    -294.261E-03     154.285E-03
             346     11.4007E-03     105.302E-03    -11.9146E+06     51.3633E+06     74.8368E+06     1.65296E+06    -297.228E-03     591.804E-03    -294.576E-03     184.069E-03    -304.575E-03     599.073E-03    -294.259E-03     142.523E-03
             347     12.0700E-03     105.559E-03    -7.91726E+06     56.5664E+06     76.7564E+06     2.07254E+06    -296.431E-03     591.015E-03    -294.584E-03     172.371E-03    -303.229E-03     597.763E-03    -294.271E-03     131.919E-03
             348     12.7389E-03     105.796E-03    -4.71333E+06     58.7952E+06     78.0020E+06     766.123E+03    -295.292E-03     589.894E-03    -294.602E-03     127.767E-03    -299.852E-03     594.419E-03    -294.290E-03     95.4173E-03
             349     670.504E-06     103.489E-03    -130.780E+06    -212.768E+06    -126.728E+06     617.896E+03    -294.435E-03     589.087E-03    -294.651E-03     24.0887E-03    -294.709E-03     588.509E-03    -294.787E-03     19.4448E-03
             350     1.34082E-03     103.538E-03    -126.168E+06    -199.474E+06    -117.663E+06     860.387E+03    -294.550E-03     589.032E-03    -294.482E-03     43.1183E-03    -295.057E-03     588.725E-03    -294.598E-03     34.7876E-03
             351     2.01101E-03     103.615E-03    -121.181E+06    -172.183E+06    -103.818E+06     943.915E+03    -294.797E-03     589.238E-03    -294.440E-03     63.2318E-03    -295.717E-03     589.417E-03    -294.534E-03     50.8939E-03
             352     2.68194E-03     103.724E-03    -114.862E+06    -149.962E+06    -84.3414E+06     1.23510E+06    -295.177E-03     589.639E-03    -294.462E-03     83.2833E-03    -296.645E-03     590.411E-03    -294.499E-03     66.9466E-03
             353     3.35214E-03     103.862E-03    -107.263E+06    -122.943E+06    -63.5828E+06     1.85786E+06    -295.579E-03     590.067E-03    -294.489E-03     102.746E-03    -297.733E-03     591.588E-03    -294.473E-03     82.4582E-03
             354     4.02270E-03     104.028E-03    -99.1018E+06    -96.2889E+06    -42.7575E+06     2.25283E+06    -296.211E-03     590.736E-03    -294.524E-03     121.974E-03    -299.176E-03     593.130E-03    -294.455E-03     97.7757E-03
             355     4.69266E-03     104.224E-03    -90.4543E+06    -73.3346E+06    -22.7579E+06     2.01984E+06    -296.793E-03     591.362E-03    -294.569E-03     140.181E-03    -300.654E-03     594.707E-03    -294.445E-03     112.230E-03
             356     5.36373E-03     104.444E-03    -81.1027E+06    -41.7660E+06    -4.09612E+06     1.00017E+06    -297.254E-03     591.839E-03    -294.584E-03     156.996E-03    -302.074E-03     596.234E-03    -294.427E-03     125.528E-03
             357     6.03445E-03     104.688E-03    -71.5743E+06    -15.8374E+06     11.3474E+06     654.705E+03    -297.887E-03     592.474E-03    -294.587E-03     172.165E-03    -303.660E-03     597.904E-03    -294.403E-03     137.493E-03
             358     6.70501E-03     104.954E-03    -63.2934E+06    -5.93904E+06     22.8075E+06     1.21792E+06    -298.350E-03     592.945E-03    -294.595E-03     184.960E-03    -304.997E-03     599.281E-03    -294.381E-03     147.507E-03
             359     7.37552E-03     105.237E-03    -56.2313E+06     3.18354E+06     32.1000E+06     2.09811E+06    -298.606E-03     593.195E-03    -294.589E-03     194.766E-03    -306.000E-03     600.308E-03    -294.352E-03     155.054E-03
             360     8.04694E-03     105.529E-03    -48.4341E+06     11.9887E+06     40.9000E+06     2.42216E+06    -298.958E-03     593.542E-03    -294.584E-03     201.464E-03    -306.914E-03     601.250E-03    -294.327E-03     159.999E-03
             361     8.71674E-03     105.833E-03    -39.5573E+06     21.9611E+06     50.8894E+06     592.082E+03    -299.135E-03     593.730E-03    -294.596E-03     205.287E-03    -307.471E-03     601.856E-03    -294.316E-03     162.495E-03
             362     9.38765E-03     106.136E-03    -31.2810E+06     32.2316E+06     61.4189E+06    -1.48283E+06    -298.833E-03     593.446E-03    -294.614E-03     206.133E-03    -307.352E-03     601.791E-03    -294.308E-03     162.510E-03
             363     10.0578E-03     106.440E-03    -24.6972E+06     38.3464E+06     69.0843E+06    -1.40071E+06    -298.377E-03     592.999E-03    -294.622E-03     203.361E-03    -306.835E-03     601.304E-03    -294.296E-03     159.506E-03
             364     10.7300E-03     106.730E-03    -19.4871E+06     43.4774E+06     72.8052E+06    -291.418E+03    -298.395E-03     593.027E-03    -294.633E-03     197.342E-03    -306.568E-03     601.075E-03    -294.303E-03     153.774E-03
             365     11.3983E-03     107.016E-03    -14.6013E+06     47.7064E+06     71.8719E+06     672.246E+03    -297.723E-03     592.371E-03    -294.648E-03     183.289E-03    -305.063E-03     599.620E-03    -294.337E-03     141.630E-03
             366     12.0693E-03     107.263E-03    -9.52220E+06     55.9472E+06     74.1109E+06     1.75154E+06    -296.081E-03     590.739E-03    -294.658E-03     171.572E-03    -302.869E-03     597.477E-03    -294.355E-03     131.106E-03
             367     12.7419E-03     107.509E-03    -3.94611E+06     61.7591E+06     78.5397E+06     1.35580E+06    -294.399E-03     589.048E-03    -294.649E-03     128.718E-03    -298.977E-03     593.603E-03    -294.340E-03     96.3761E-03
             368     670.038E-06     105.195E-03    -127.660E+06    -216.175E+06    -125.752E+06     1.03355E+06    -294.671E-03     588.976E-03    -294.305E-03     23.4779E-03    -294.923E-03     588.372E-03    -294.435E-03     18.9641E-03
             369     1.34092E-03     105.245E-03    -125.306E+06    -200.798E+06    -117.845E+06     1.04341E+06    -294.487E-03     588.906E-03    -294.419E-03     42.6728E-03    -294.986E-03     588.589E-03    -294.535E-03     34.3567E-03
             370     2.01163E-03     105.322E-03    -121.062E+06    -174.888E+06    -104.900E+06     1.35960E+06    -294.887E-03     589.285E-03    -294.398E-03     63.0378E-03    -295.797E-03     589.449E-03    -294.494E-03     50.7201E-03
             371     2.68131E-03     105.432E-03    -114.874E+06    -152.505E+06    -85.1201E+06     2.26476E+06    -295.190E-03     589.636E-03    -294.446E-03     83.1307E-03    -296.651E-03     590.395E-03    -294.484E-03     66.8183E-03
             372     3.35227E-03     105.568E-03    -106.939E+06    -125.731E+06    -63.9971E+06     2.87436E+06    -295.629E-03     590.112E-03    -294.483E-03     102.857E-03    -297.778E-03     591.621E-03    -294.465E-03     82.5732E-03
             373     4.02268E-03     105.737E-03    -98.1174E+06    -99.4873E+06    -42.9167E+06     3.72785E+06    -296.255E-03     590.780E-03    -294.525E-03     122.183E-03    -299.212E-03     593.160E-03    -294.453E-03     98.0066E-03
             374     4.69342E-03     105.931E-03    -89.0319E+06    -70.9415E+06    -21.8999E+06     4.00777E+06    -296.756E-03     591.320E-03    -294.564E-03     140.251E-03    -300.617E-03     594.677E-03    -294.442E-03     112.328E-03
             375     5.36378E-03     106.152E-03    -80.0164E+06    -37.6691E+06    -2.30098E+06     2.45871E+06    -297.356E-03     591.941E-03    -294.585E-03     157.089E-03    -302.185E-03     596.359E-03    -294.426E-03     125.609E-03
             376     6.03409E-03     106.397E-03    -71.0626E+06    -16.3896E+06     12.7915E+06     1.22333E+06    -297.873E-03     592.472E-03    -294.599E-03     172.143E-03    -303.649E-03     597.901E-03    -294.408E-03     137.457E-03
             377     6.70472E-03     106.662E-03    -61.8458E+06    -9.54369E+06     23.5167E+06     2.11087E+06    -298.246E-03     592.848E-03    -294.602E-03     184.691E-03    -304.877E-03     599.158E-03    -294.381E-03     147.268E-03
             378     7.37619E-03     106.943E-03    -52.1286E+06     1.40948E+06     34.7522E+06     3.02970E+06    -298.769E-03     593.373E-03    -294.604E-03     194.385E-03    -306.133E-03     600.456E-03    -294.356E-03     154.686E-03
             379     8.04571E-03     107.239E-03    -42.8722E+06     15.2888E+06     45.7296E+06     1.53507E+06    -299.127E-03     593.741E-03    -294.614E-03     201.382E-03    -307.068E-03     601.451E-03    -294.346E-03     159.877E-03
             380     8.71681E-03     107.540E-03    -35.0462E+06     25.6574E+06     55.7326E+06     88.0945E+03    -299.064E-03     593.692E-03    -294.627E-03     205.774E-03    -307.407E-03     601.839E-03    -294.335E-03     162.967E-03
             381     9.38704E-03     107.846E-03    -29.0883E+06     32.3277E+06     64.6537E+06     725.355E+03    -298.913E-03     593.552E-03    -294.639E-03     206.633E-03    -307.437E-03     601.900E-03    -294.320E-03     163.054E-03
             382     10.0587E-03     108.145E-03    -24.3693E+06     36.6429E+06     70.1635E+06     1.98786E+06    -299.033E-03     593.692E-03    -294.659E-03     203.740E-03    -307.489E-03     601.988E-03    -294.326E-03     159.896E-03
             383     10.7269E-03     108.442E-03    -19.9928E+06     42.7973E+06     72.3157E+06     2.39318E+06    -298.694E-03     593.378E-03    -294.685E-03     198.179E-03    -306.892E-03     601.448E-03    -294.356E-03     154.607E-03
             384     11.3979E-03     108.725E-03    -15.5723E+06     47.8676E+06     70.5325E+06     1.31051E+06    -297.174E-03     591.852E-03    -294.677E-03     184.891E-03    -304.566E-03     599.153E-03    -294.372E-03     143.268E-03
             385     12.0676E-03     108.973E-03    -10.5348E+06     57.4893E+06     73.0685E+06    -481.480E+03    -295.909E-03     590.562E-03    -294.654E-03     174.415E-03    -302.800E-03     597.409E-03    -294.356E-03     133.787E-03
             386     12.7369E-03     109.213E-03    -3.89528E+06     62.3334E+06     78.6901E+06    -814.067E+03    -294.378E-03     589.013E-03    -294.635E-03     130.078E-03    -299.015E-03     593.629E-03    -294.326E-03     97.6068E-03
             387     670.503E-06     106.905E-03    -129.279E+06    -219.174E+06    -127.988E+06     57.2841E+03    -294.761E-03     588.948E-03    -294.187E-03     23.0542E-03    -295.011E-03     588.333E-03    -294.322E-03     18.5550E-03
             388     1.34060E-03     106.951E-03    -126.700E+06    -203.936E+06    -119.032E+06     1.13549E+06    -294.663E-03     589.109E-03    -294.446E-03     42.8267E-03    -295.165E-03     588.782E-03    -294.562E-03     34.4788E-03
             389     2.01082E-03     107.031E-03    -121.929E+06    -177.132E+06    -104.742E+06     1.55651E+06    -294.804E-03     589.251E-03    -294.447E-03     63.0291E-03    -295.716E-03     589.405E-03    -294.537E-03     50.7050E-03
             390     2.68207E-03     107.138E-03    -114.922E+06    -155.126E+06    -85.5276E+06     1.62874E+06    -295.168E-03     589.634E-03    -294.466E-03     83.0119E-03    -296.624E-03     590.380E-03    -294.502E-03     66.6904E-03
             391     3.35219E-03     107.277E-03    -106.550E+06    -129.226E+06    -64.7160E+06     2.21924E+06    -295.745E-03     590.251E-03    -294.506E-03     102.812E-03    -297.886E-03     591.743E-03    -294.488E-03     82.5029E-03
             392     4.02259E-03     107.444E-03    -97.3499E+06    -103.611E+06    -43.3102E+06     3.15089E+06    -296.179E-03     590.732E-03    -294.553E-03     121.808E-03    -299.120E-03     593.085E-03    -294.478E-03     97.6339E-03
             393     4.69312E-03     107.639E-03    -87.2969E+06    -72.0191E+06    -22.1022E+06     3.66382E+06    -296.710E-03     591.287E-03    -294.577E-03     139.978E-03    -300.555E-03     594.631E-03    -294.457E-03     112.057E-03
             394     5.36360E-03     107.860E-03    -76.9854E+06    -35.1893E+06    -1.32791E+06     3.67598E+06    -297.285E-03     591.873E-03    -294.588E-03     157.062E-03    -302.104E-03     596.298E-03    -294.432E-03     125.607E-03
             395     6.03428E-03     108.105E-03    -67.3807E+06    -15.1964E+06     15.5194E+06     3.30194E+06    -297.799E-03     592.401E-03    -294.602E-03     172.183E-03    -303.566E-03     597.830E-03    -294.404E-03     137.528E-03
             396     6.70524E-03     108.369E-03    -58.5082E+06    -11.0621E+06     25.4296E+06     2.22865E+06    -298.452E-03     593.061E-03    -294.609E-03     184.858E-03    -305.074E-03     599.362E-03    -294.381E-03     147.406E-03
             397     7.37477E-03     108.653E-03    -50.1023E+06     1.42655E+06     34.9845E+06     888.416E+03    -298.852E-03     593.463E-03    -294.611E-03     194.939E-03    -306.225E-03     600.561E-03    -294.365E-03     155.174E-03
             398     8.04639E-03     108.946E-03    -42.9193E+06     16.1693E+06     45.6995E+06     1.33243E+06    -298.949E-03     593.560E-03    -294.611E-03     202.019E-03    -306.910E-03     601.294E-03    -294.344E-03     160.515E-03
             399     8.71677E-03     109.249E-03    -37.5982E+06     25.3182E+06     55.6648E+06     2.71411E+06    -299.074E-03     593.693E-03    -294.619E-03     205.957E-03    -307.428E-03     601.842E-03    -294.323E-03     163.212E-03
             400     9.38834E-03     109.552E-03    -32.6087E+06     30.9019E+06     64.1615E+06     3.18542E+06    -299.260E-03     593.904E-03    -294.643E-03     206.580E-03    -307.787E-03     602.238E-03    -294.320E-03     163.032E-03
             401     10.0572E-03     109.857E-03    -26.4347E+06     35.9573E+06     70.0630E+06     2.90258E+06    -298.954E-03     593.623E-03    -294.669E-03     204.515E-03    -307.440E-03     601.939E-03    -294.332E-03     160.684E-03
             402     10.7285E-03     110.152E-03    -19.1821E+06     43.8252E+06     74.1641E+06     1.96154E+06    -297.836E-03     592.496E-03    -294.660E-03     199.643E-03    -306.072E-03     600.604E-03    -294.325E-03     156.168E-03
             403     11.3993E-03     110.432E-03    -12.1027E+06     50.3237E+06     74.7250E+06     1.32693E+06    -297.002E-03     591.622E-03    -294.620E-03     185.878E-03    -304.401E-03     598.940E-03    -294.302E-03     144.318E-03
             404     12.0722E-03     110.681E-03    -6.66780E+06     61.7009E+06     78.6127E+06     610.182E+03    -296.612E-03     591.229E-03    -294.617E-03     173.256E-03    -303.484E-03     598.068E-03    -294.304E-03     132.528E-03
             405     12.7442E-03     110.926E-03    -4.26603E+06     62.5002E+06     80.1556E+06    -299.933E+03    -295.091E-03     589.730E-03    -294.639E-03     127.321E-03    -299.687E-03     594.301E-03    -294.323E-03     94.8374E-03
             406     670.415E-06     108.610E-03    -131.357E+06    -220.980E+06    -127.665E+06     649.362E+03    -294.482E-03     588.872E-03    -294.390E-03     23.3084E-03    -294.743E-03     588.252E-03    -294.517E-03     18.7336E-03
             407     1.34085E-03     108.660E-03    -127.361E+06    -205.289E+06    -119.287E+06     5.04355E+03    -294.746E-03     589.180E-03    -294.434E-03     42.9197E-03    -295.247E-03     588.846E-03    -294.548E-03     34.5828E-03
             408     2.01127E-03     108.738E-03    -121.559E+06    -178.841E+06    -105.292E+06     391.740E+03    -294.956E-03     589.431E-03    -294.475E-03     63.0923E-03    -295.864E-03     589.578E-03    -294.565E-03     50.7432E-03
             409     2.68130E-03     108.846E-03    -115.041E+06    -157.626E+06    -85.9317E+06     970.768E+03    -295.354E-03     589.885E-03    -294.532E-03     83.0032E-03    -296.808E-03     590.621E-03    -294.566E-03     66.6394E-03
             410     3.35178E-03     108.985E-03    -107.226E+06    -131.578E+06    -65.1459E+06     1.34598E+06    -295.690E-03     590.266E-03    -294.576E-03     102.702E-03    -297.830E-03     591.748E-03    -294.556E-03     82.3766E-03
             411     4.02228E-03     109.152E-03    -98.1717E+06    -106.002E+06    -43.7304E+06     1.40783E+06    -296.117E-03     590.720E-03    -294.602E-03     121.927E-03    -299.063E-03     593.068E-03    -294.525E-03     97.7109E-03
             412     4.69282E-03     109.347E-03    -88.4343E+06    -74.7687E+06    -23.0791E+06     1.13836E+06    -296.643E-03     591.250E-03    -294.607E-03     140.338E-03    -300.497E-03     594.591E-03    -294.486E-03     112.369E-03
             413     5.36358E-03     109.568E-03    -78.7080E+06    -37.8391E+06    -3.38633E+06     1.80982E+06    -297.142E-03     591.737E-03    -294.595E-03     157.113E-03    -301.963E-03     596.155E-03    -294.443E-03     125.646E-03
             414     6.03455E-03     109.812E-03    -69.4141E+06    -17.6212E+06     12.4495E+06     3.18959E+06    -297.756E-03     592.349E-03    -294.593E-03     172.033E-03    -303.519E-03     597.766E-03    -294.404E-03     137.399E-03
             415     6.70465E-03     110.079E-03    -61.4957E+06    -6.90873E+06     23.4321E+06     2.85584E+06    -298.304E-03     592.893E-03    -294.589E-03     184.976E-03    -304.946E-03     599.224E-03    -294.372E-03     147.548E-03
             416     7.37630E-03     110.360E-03    -55.1550E+06     3.99507E+06     33.4949E+06     1.28207E+06    -298.720E-03     593.306E-03    -294.586E-03     195.074E-03    -306.120E-03     600.427E-03    -294.344E-03     155.337E-03
             417     8.04634E-03     110.655E-03    -49.2003E+06     10.7620E+06     42.9053E+06     1.80308E+06    -299.095E-03     593.692E-03    -294.598E-03     201.719E-03    -307.063E-03     601.399E-03    -294.327E-03     160.230E-03
             418     8.71750E-03     110.956E-03    -42.3245E+06     22.8443E+06     52.9991E+06     3.30601E+06    -299.277E-03     593.895E-03    -294.618E-03     205.528E-03    -307.633E-03     602.028E-03    -294.325E-03     162.776E-03
             419     9.38654E-03     111.263E-03    -34.6063E+06     32.3582E+06     62.8442E+06     2.99065E+06    -299.038E-03     593.679E-03    -294.641E-03     207.008E-03    -307.597E-03     602.048E-03    -294.324E-03     163.427E-03
             420     10.0582E-03     111.565E-03    -27.2129E+06     38.4994E+06     69.9167E+06     978.330E+03    -298.230E-03     592.867E-03    -294.637E-03     204.800E-03    -306.747E-03     601.222E-03    -294.304E-03     160.954E-03
             421     10.7296E-03     111.858E-03    -20.6388E+06     45.9332E+06     74.0798E+06    -717.530E+03    -297.647E-03     592.255E-03    -294.608E-03     198.436E-03    -305.869E-03     600.353E-03    -294.275E-03     154.910E-03
             422     11.4014E-03     112.140E-03    -15.1592E+06     50.1773E+06     73.7508E+06    -1.21856E+06    -297.539E-03     592.132E-03    -294.593E-03     184.518E-03    -304.925E-03     599.428E-03    -294.275E-03     142.820E-03
             423     12.0675E-03     112.394E-03    -10.3917E+06     59.0853E+06     76.3586E+06    -1.11659E+06    -296.653E-03     591.266E-03    -294.614E-03     173.141E-03    -303.548E-03     598.113E-03    -294.302E-03     132.320E-03
             424     12.7346E-03     112.631E-03    -5.11060E+06     61.6347E+06     80.0164E+06    -22.6998E+03    -294.571E-03     589.198E-03    -294.627E-03     128.946E-03    -299.200E-03     593.796E-03    -294.309E-03     96.5134E-03
             425     670.496E-06     110.320E-03    -131.521E+06    -222.335E+06    -128.806E+06     414.618E+03    -294.608E-03     589.006E-03    -294.398E-03     23.7478E-03    -294.866E-03     588.381E-03    -294.529E-03     19.2013E-03
             426     1.34060E-03     110.366E-03    -127.741E+06    -203.386E+06    -120.786E+06    -445.380E+03    -294.823E-03     589.317E-03    -294.494E-03     42.5443E-03    -295.324E-03     588.993E-03    -294.618E-03     34.2167E-03
             427     2.01112E-03     110.446E-03    -123.672E+06    -181.515E+06    -106.730E+06    -130.181E+03    -295.018E-03     589.567E-03    -294.549E-03     62.8542E-03    -295.929E-03     589.704E-03    -294.640E-03     50.5051E-03
             428     2.68123E-03     110.555E-03    -117.376E+06    -159.218E+06    -87.3037E+06     635.106E+03    -295.275E-03     589.863E-03    -294.587E-03     83.2524E-03    -296.740E-03     590.599E-03    -294.623E-03     66.8830E-03
             429     3.35163E-03     110.692E-03    -109.462E+06    -132.564E+06    -66.4063E+06     775.266E+03    -295.596E-03     590.196E-03    -294.600E-03     103.112E-03    -297.751E-03     591.685E-03    -294.581E-03     82.7708E-03
             430     4.02237E-03     110.860E-03    -100.798E+06    -107.067E+06    -45.2679E+06     833.290E+03    -296.104E-03     590.713E-03    -294.609E-03     122.260E-03    -299.065E-03     593.068E-03    -294.534E-03     98.0220E-03
             431     4.69300E-03     111.055E-03    -92.1015E+06    -75.3616E+06    -24.9006E+06     942.798E+03    -296.646E-03     591.257E-03    -294.611E-03     140.326E-03    -300.514E-03     594.603E-03    -294.492E-03     112.363E-03
             432     5.36368E-03     111.275E-03    -83.6099E+06    -41.3075E+06    -6.46243E+06     1.33816E+06    -297.184E-03     591.786E-03    -294.602E-03     157.102E-03    -302.019E-03     596.197E-03    -294.454E-03     125.630E-03
             433     6.03388E-03     111.521E-03    -74.6077E+06    -21.1557E+06     8.50961E+06     1.63579E+06    -297.715E-03     592.312E-03    -294.597E-03     172.100E-03    -303.496E-03     597.728E-03    -294.415E-03     137.438E-03
             434     6.70536E-03     111.785E-03    -65.3706E+06    -6.20987E+06     21.3769E+06     2.09252E+06    -298.218E-03     592.808E-03    -294.590E-03     184.713E-03    -304.870E-03     599.144E-03    -294.379E-03     147.284E-03
             435     7.37549E-03     112.068E-03    -56.8365E+06     4.06687E+06     32.5058E+06     3.28535E+06    -298.758E-03     593.351E-03    -294.593E-03     194.460E-03    -306.145E-03     600.457E-03    -294.354E-03     154.769E-03
             436     8.04650E-03     112.363E-03    -48.4774E+06     10.3308E+06     42.0610E+06     2.91923E+06    -299.109E-03     593.717E-03    -294.608E-03     201.509E-03    -307.064E-03     601.415E-03    -294.342E-03     160.039E-03
             437     8.71587E-03     112.666E-03    -40.0895E+06     20.1496E+06     52.6165E+06     2.18847E+06    -299.045E-03     593.665E-03    -294.620E-03     206.148E-03    -307.410E-03     601.807E-03    -294.328E-03     163.365E-03
             438     9.38812E-03     112.970E-03    -32.2267E+06     33.6385E+06     63.5679E+06     2.19967E+06    -298.670E-03     593.287E-03    -294.617E-03     207.407E-03    -307.239E-03     601.677E-03    -294.301E-03     163.828E-03
             439     10.0589E-03     113.273E-03    -25.1691E+06     43.9346E+06     71.7057E+06     1.08929E+06    -298.435E-03     593.043E-03    -294.608E-03     204.330E-03    -306.940E-03     601.406E-03    -294.277E-03     160.470E-03
             440     10.7290E-03     113.567E-03    -19.0276E+06     47.2325E+06     75.0454E+06     203.946E+03    -298.279E-03     592.890E-03    -294.611E-03     198.538E-03    -306.502E-03     600.996E-03    -294.277E-03     154.930E-03
             441     11.3970E-03     113.851E-03    -13.3049E+06     50.9739E+06     74.5214E+06     230.995E+03    -296.888E-03     591.478E-03    -294.590E-03     186.013E-03    -304.295E-03     598.802E-03    -294.272E-03     144.439E-03
             442     12.0717E-03     114.102E-03    -7.82204E+06     58.8354E+06     78.0754E+06    -36.1311E+03    -295.537E-03     590.089E-03    -294.552E-03     175.310E-03    -302.424E-03     596.931E-03    -294.236E-03     134.864E-03
             443     12.7472E-03     114.342E-03    -4.05023E+06     60.6485E+06     81.3919E+06    -447.904E+03    -295.197E-03     589.742E-03    -294.545E-03     129.109E-03    -299.809E-03     594.319E-03    -294.220E-03     96.7258E-03
             444     670.231E-06     112.026E-03    -133.618E+06    -220.475E+06    -131.967E+06    -1.65575E+06    -294.824E-03     589.316E-03    -294.493E-03     23.6037E-03    -295.089E-03     588.707E-03    -294.639E-03     19.0584E-03
             445     1.34051E-03     112.076E-03    -130.645E+06    -205.598E+06    -122.472E+06     414.726E+03    -294.721E-03     589.327E-03    -294.607E-03     42.8538E-03    -295.235E-03     589.002E-03    -294.731E-03     34.5225E-03
             446     2.01029E-03     112.153E-03    -125.935E+06    -182.077E+06    -107.205E+06     657.311E+03    -294.909E-03     589.494E-03    -294.585E-03     63.3374E-03    -295.834E-03     589.637E-03    -294.675E-03     50.9842E-03
             447     2.68141E-03     112.262E-03    -119.058E+06    -159.864E+06    -88.2432E+06     243.427E+03    -295.166E-03     589.748E-03    -294.582E-03     83.3487E-03    -296.637E-03     590.485E-03    -294.619E-03     66.9886E-03
             448     3.35211E-03     112.400E-03    -110.906E+06    -133.746E+06    -67.7036E+06     761.266E+03    -295.643E-03     590.231E-03    -294.588E-03     102.941E-03    -297.800E-03     591.716E-03    -294.572E-03     82.5987E-03
             449     4.02238E-03     112.567E-03    -102.044E+06    -108.511E+06    -46.8348E+06     1.10139E+06    -296.182E-03     590.792E-03    -294.610E-03     122.035E-03    -299.142E-03     593.141E-03    -294.539E-03     97.8035E-03
             450     4.69285E-03     112.762E-03    -92.6253E+06    -77.3387E+06    -26.3096E+06     1.97391E+06    -296.685E-03     591.307E-03    -294.623E-03     140.170E-03    -300.548E-03     594.644E-03    -294.508E-03     112.215E-03
             451     5.36328E-03     112.983E-03    -82.6448E+06    -41.6964E+06    -6.42494E+06     2.21732E+06    -297.144E-03     591.761E-03    -294.616E-03     157.045E-03    -301.973E-03     596.166E-03    -294.468E-03     125.592E-03
             452     6.03457E-03     113.228E-03    -72.7115E+06    -19.8226E+06     10.5583E+06     1.19062E+06    -297.715E-03     592.328E-03    -294.612E-03     172.137E-03    -303.493E-03     597.746E-03    -294.425E-03     137.465E-03
             453     6.70446E-03     113.494E-03    -63.2154E+06    -10.9600E+06      22.627E+06     1.62837E+06    -298.401E-03     593.016E-03    -294.615E-03     184.934E-03    -305.042E-03     599.328E-03    -294.394E-03     147.484E-03
             454     7.37537E-03     113.776E-03    -54.1857E+06     314.255E+03     32.9308E+06     3.08156E+06    -298.795E-03     593.410E-03    -294.615E-03     195.076E-03    -306.182E-03     600.510E-03    -294.372E-03     155.366E-03
             455     8.04555E-03     114.071E-03    -46.2239E+06     12.7486E+06     42.7798E+06     3.24481E+06    -298.813E-03     593.416E-03    -294.603E-03     202.153E-03    -306.782E-03     601.142E-03    -294.341E-03     160.704E-03
             456     8.71804E-03     114.373E-03    -39.2551E+06     21.1555E+06     52.4487E+06     2.01426E+06    -298.862E-03     593.455E-03    -294.593E-03     206.229E-03    -307.223E-03     601.600E-03    -294.305E-03     163.486E-03
             457     9.38776E-03     114.678E-03    -32.2915E+06     33.9812E+06     63.3071E+06     767.859E+03    -298.897E-03     593.493E-03    -294.595E-03     206.871E-03    -307.443E-03     601.861E-03    -294.281E-03     163.289E-03
             458     10.0584E-03     114.981E-03    -25.3564E+06     45.9482E+06     71.4718E+06     342.616E+03    -298.575E-03     593.174E-03    -294.599E-03     204.446E-03    -307.076E-03     601.541E-03    -294.272E-03     160.593E-03
             459     10.7287E-03     115.277E-03    -18.8851E+06     47.6334E+06     74.6918E+06     18.0286E+03    -297.750E-03     592.337E-03    -294.588E-03     199.340E-03    -305.978E-03     600.452E-03    -294.256E-03     155.849E-03
             460     11.4022E-03     115.558E-03    -13.5569E+06     51.1239E+06     74.3805E+06    -263.060E+03    -296.583E-03     591.127E-03    -294.544E-03     185.046E-03    -303.974E-03     598.436E-03    -294.227E-03     143.492E-03
             461     12.0721E-03     115.804E-03    -8.66918E+06     58.6059E+06     78.1358E+06     301.483E+03    -296.022E-03     590.549E-03    -294.528E-03     172.320E-03    -302.830E-03     597.308E-03    -294.209E-03     131.872E-03
             462     12.7378E-03     116.053E-03    -3.82621E+06     59.6384E+06     82.0918E+06     488.553E+03    -295.362E-03     589.916E-03    -294.554E-03     127.155E-03    -299.910E-03     594.424E-03    -294.224E-03     94.7977E-03
             463     669.770E-06     113.735E-03    -133.724E+06    -219.438E+06    -129.402E+06     677.851E+03    -294.735E-03     589.335E-03    -294.599E-03     23.3878E-03    -295.008E-03     588.729E-03    -294.734E-03     18.8180E-03
             464     1.34050E-03     113.782E-03    -130.551E+06    -208.556E+06    -121.118E+06     331.505E+03    -294.555E-03     589.144E-03    -294.589E-03     43.0950E-03    -295.066E-03     588.802E-03    -294.703E-03     34.7659E-03
             465     2.01174E-03     113.862E-03    -124.797E+06    -182.303E+06    -107.893E+06     591.122E+03    -294.977E-03     589.511E-03    -294.534E-03     63.2061E-03    -295.892E-03     589.649E-03    -294.628E-03     50.8710E-03
             466     2.68130E-03     113.970E-03    -118.177E+06    -160.770E+06    -88.5416E+06     1.03205E+06    -295.344E-03     589.921E-03    -294.577E-03     83.0823E-03    -296.809E-03     590.652E-03    -294.615E-03     66.7059E-03
             467     3.35151E-03     114.108E-03    -110.279E+06    -134.974E+06    -67.6579E+06     1.02228E+06    -295.655E-03     590.264E-03    -294.608E-03     102.964E-03    -297.810E-03     591.743E-03    -294.591E-03     82.6021E-03
             468     4.02213E-03     114.275E-03    -101.323E+06    -109.542E+06    -46.5375E+06     1.12140E+06    -296.140E-03     590.764E-03    -294.624E-03     122.225E-03    -299.098E-03     593.108E-03    -294.551E-03     97.9940E-03
             469     4.69268E-03     114.470E-03    -91.6333E+06    -78.8192E+06    -25.7956E+06     896.608E+03    -296.675E-03     591.303E-03    -294.628E-03     140.489E-03    -300.539E-03     594.637E-03    -294.510E-03     112.508E-03
             470     5.36357E-03     114.691E-03    -81.1962E+06    -41.8491E+06    -5.36874E+06     470.400E+03    -297.158E-03     591.776E-03    -294.619E-03     157.215E-03    -301.986E-03     596.184E-03    -294.467E-03     125.717E-03
             471     6.03379E-03     114.936E-03    -71.5411E+06    -20.4829E+06     11.1756E+06     1.09294E+06    -297.721E-03     592.333E-03    -294.612E-03     172.407E-03    -303.498E-03     597.751E-03    -294.423E-03     137.735E-03
             472     6.70518E-03     115.202E-03    -63.2902E+06    -14.4309E+06     21.2084E+06     1.94246E+06    -298.298E-03     592.900E-03    -294.601E-03     185.339E-03    -304.940E-03     599.204E-03    -294.383E-03     147.909E-03
             473     7.37560E-03     115.484E-03    -55.4634E+06    -2.04002E+06     31.5555E+06     1.90660E+06    -298.628E-03     593.214E-03    -294.587E-03     195.286E-03    -306.021E-03     600.312E-03    -294.345E-03     155.580E-03
             474     8.04721E-03     115.779E-03    -47.4195E+06     12.3742E+06     42.8669E+06     1.75216E+06    -298.934E-03     593.513E-03    -294.579E-03     202.028E-03    -306.907E-03     601.237E-03    -294.314E-03     160.543E-03
             475     8.71655E-03     116.080E-03    -39.1544E+06     23.8894E+06     53.7375E+06     1.24669E+06    -299.183E-03     593.773E-03    -294.591E-03     205.833E-03    -307.539E-03     601.920E-03    -294.300E-03     163.042E-03
             476     9.38791E-03     116.387E-03    -31.6407E+06     34.9309E+06     64.3672E+06     665.108E+03    -298.901E-03     593.510E-03    -294.609E-03     206.700E-03    -307.437E-03     601.871E-03    -294.292E-03     163.133E-03
             477     10.0583E-03     116.689E-03    -25.1762E+06     45.9577E+06     72.5259E+06     537.859E+03    -298.237E-03     592.841E-03    -294.604E-03     204.367E-03    -306.729E-03     601.196E-03    -294.271E-03     160.598E-03
             478     10.7303E-03     116.984E-03    -19.6122E+06     48.9319E+06     75.6544E+06     323.705E+03    -297.825E-03     592.412E-03    -294.587E-03     198.041E-03    -306.026E-03     600.498E-03    -294.252E-03     154.572E-03
             479     11.3993E-03     117.264E-03    -14.4569E+06     50.7676E+06     74.5484E+06     70.9449E+03    -297.426E-03     592.006E-03    -294.580E-03     183.392E-03    -304.793E-03     599.286E-03    -294.260E-03     141.702E-03
             480     12.0684E-03     117.518E-03    -9.80577E+06     57.5952E+06     76.8527E+06    -14.7207E+03    -296.115E-03     590.704E-03    -294.589E-03     172.844E-03    -302.968E-03     597.503E-03    -294.274E-03     132.221E-03
             481     12.7430E-03     117.759E-03    -3.73732E+06     59.3639E+06     81.1140E+06     115.579E+03    -294.706E-03     589.298E-03    -294.592E-03     129.900E-03    -299.315E-03     593.870E-03    -294.267E-03     97.5087E-03
             482     670.654E-06     115.442E-03    -132.836E+06    -221.449E+06    -130.483E+06     367.191E+03    -294.729E-03     589.212E-03    -294.483E-03     23.1107E-03    -294.991E-03     588.595E-03    -294.622E-03     18.5489E-03
             483     1.34085E-03     115.490E-03    -128.347E+06    -208.989E+06    -120.421E+06     664.111E+03    -294.903E-03     589.514E-03    -294.611E-03     42.4419E-03    -295.399E-03     589.161E-03    -294.724E-03     34.1389E-03
             484     2.01031E-03     115.570E-03    -124.330E+06    -183.752E+06    -107.599E+06     877.328E+03    -294.851E-03     589.461E-03    -294.610E-03     62.8363E-03    -295.762E-03     589.590E-03    -294.701E-03     50.4953E-03
             485     2.68122E-03     115.678E-03    -117.771E+06    -161.795E+06    -88.0654E+06     813.340E+03    -295.131E-03     589.724E-03    -294.593E-03     83.2617E-03    -296.596E-03     590.451E-03    -294.628E-03     66.8762E-03
             486     3.35186E-03     115.816E-03    -109.369E+06    -135.535E+06    -66.8875E+06     663.887E+03    -295.604E-03     590.193E-03    -294.588E-03     103.333E-03    -297.759E-03     591.672E-03    -294.568E-03     82.9720E-03
             487     4.02245E-03     115.983E-03    -100.164E+06    -110.034E+06    -45.3246E+06     681.760E+03    -296.120E-03     590.719E-03    -294.599E-03     122.531E-03    -299.078E-03     593.063E-03    -294.521E-03     98.2892E-03
             488     4.69314E-03     116.178E-03    -90.5741E+06    -78.1167E+06    -24.2298E+06     389.601E+03    -296.639E-03     591.240E-03    -294.601E-03     140.606E-03    -300.501E-03     594.573E-03    -294.477E-03     112.634E-03
             489     5.36345E-03     116.399E-03    -81.8638E+06    -42.8511E+06    -4.73060E+06     628.124E+03    -297.157E-03     591.747E-03    -294.591E-03     157.459E-03    -301.994E-03     596.156E-03    -294.434E-03     125.960E-03
             490     6.03464E-03     116.643E-03    -73.4099E+06    -23.8106E+06     10.3250E+06     1.55134E+06    -297.810E-03     592.398E-03    -294.588E-03     172.636E-03    -303.599E-03     597.811E-03    -294.395E-03     137.943E-03
             491     6.70487E-03     116.910E-03    -64.5300E+06    -15.4425E+06     20.3110E+06     1.81328E+06    -298.314E-03     592.896E-03    -294.582E-03     185.086E-03    -304.958E-03     599.197E-03    -294.365E-03     147.636E-03
             492     7.37611E-03     117.191E-03    -55.9134E+06    -1.33288E+06     30.8344E+06     1.32207E+06    -298.700E-03     593.276E-03    -294.576E-03     194.660E-03    -306.081E-03     600.365E-03    -294.339E-03     154.936E-03
             493     8.04610E-03     117.486E-03    -47.7259E+06     13.5865E+06     42.2168E+06     9.53666E+03    -299.109E-03     593.693E-03    -294.584E-03     201.694E-03    -307.072E-03     601.413E-03    -294.324E-03     160.170E-03
             494     8.71741E-03     117.790E-03    -39.9630E+06     24.0544E+06     53.1092E+06    -889.681E+03    -299.169E-03     593.774E-03    -294.606E-03     205.931E-03    -307.533E-03     601.929E-03    -294.317E-03     163.092E-03
             495     9.38719E-03     118.094E-03    -32.4831E+06     33.7087E+06     64.0337E+06    -648.806E+03    -298.869E-03     593.494E-03    -294.625E-03     206.712E-03    -307.423E-03     601.867E-03    -294.307E-03     163.070E-03
             496     10.0588E-03     118.397E-03    -25.2116E+06     43.7163E+06     72.8022E+06     632.197E+03    -298.636E-03     593.275E-03    -294.639E-03     203.588E-03    -307.115E-03     601.609E-03    -294.302E-03     159.734E-03
             497     10.7284E-03     118.692E-03    -18.5622E+06     49.4983E+06     77.2798E+06     1.48023E+06    -298.170E-03     592.820E-03    -294.650E-03     197.830E-03    -306.371E-03     600.907E-03    -294.309E-03     154.302E-03
             498     11.3985E-03     118.977E-03    -12.8858E+06     51.6132E+06     76.4361E+06     1.05616E+06    -297.004E-03     591.637E-03    -294.634E-03     185.064E-03    -304.401E-03     598.950E-03    -294.308E-03     143.453E-03
             499     12.0707E-03     119.223E-03    -7.95561E+06     59.0479E+06     78.7746E+06     792.843E+03    -296.304E-03     590.929E-03    -294.625E-03     172.963E-03    -303.157E-03     597.734E-03    -294.305E-03     132.333E-03
             500     12.7402E-03     119.464E-03    -4.79078E+06     60.9075E+06     80.8958E+06     367.190E+03    -295.169E-03     589.809E-03    -294.640E-03     127.933E-03    -299.753E-03     594.358E-03    -294.317E-03     95.5345E-03
             501     670.378E-06     117.151E-03    -132.123E+06    -222.304E+06    -129.151E+06    -250.393E+03    -295.189E-03     589.512E-03    -294.323E-03     23.3161E-03    -295.449E-03     588.888E-03    -294.455E-03     18.7662E-03
             502     1.33963E-03     117.200E-03    -128.792E+06    -211.140E+06    -120.723E+06     565.910E+03    -294.772E-03     589.474E-03    -294.702E-03     42.6356E-03    -295.271E-03     589.116E-03    -294.812E-03     34.2767E-03
             503     2.01085E-03     117.276E-03    -123.192E+06    -184.205E+06    -105.937E+06     501.988E+03    -294.656E-03     589.270E-03    -294.614E-03     63.3568E-03    -295.568E-03     589.399E-03    -294.698E-03     50.9855E-03
             504     2.68158E-03     117.386E-03    -116.291E+06    -162.207E+06    -86.5002E+06     314.622E+03    -295.010E-03     589.558E-03    -294.547E-03     83.6788E-03    -296.471E-03     590.280E-03    -294.576E-03     67.3075E-03
             505     3.35209E-03     117.523E-03    -108.314E+06    -135.789E+06    -65.6855E+06     398.877E+03    -295.646E-03     590.185E-03    -294.539E-03     103.250E-03    -297.793E-03     591.656E-03    -294.513E-03     82.9018E-03
             506     4.02259E-03     117.691E-03    -99.4102E+06    -109.868E+06    -44.2562E+06     61.5096E+03    -296.177E-03     590.744E-03    -294.567E-03     122.321E-03    -299.129E-03     593.082E-03    -294.485E-03     98.0745E-03
             507     4.69296E-03     117.886E-03    -90.3499E+06    -80.7073E+06    -23.6354E+06     1.09613E+06    -296.591E-03     591.172E-03    -294.580E-03     140.334E-03    -300.445E-03     594.487E-03    -294.450E-03     112.374E-03
             508     5.36421E-03     118.106E-03    -81.1538E+06    -45.7796E+06    -4.31583E+06     3.03336E+06    -297.188E-03     591.762E-03    -294.574E-03     157.164E-03    -302.012E-03     596.148E-03    -294.411E-03     125.701E-03
             509     6.03441E-03     118.352E-03    -71.7587E+06    -23.2951E+06     11.5594E+06     2.92794E+06    -297.876E-03     592.456E-03    -294.580E-03     172.231E-03    -303.649E-03     597.858E-03    -294.384E-03     137.561E-03
             510     6.70519E-03     118.617E-03    -62.5968E+06    -14.9326E+06     22.1948E+06     1.77046E+06    -298.458E-03     593.048E-03    -294.590E-03     184.895E-03    -305.089E-03     599.340E-03    -294.367E-03     147.445E-03
             511     7.37524E-03     118.899E-03    -54.1302E+06     332.579E+03     32.9123E+06     1.05729E+06    -298.953E-03     593.553E-03    -294.600E-03     194.948E-03    -306.342E-03     600.656E-03    -294.358E-03     155.173E-03
             512     8.04624E-03     119.195E-03    -46.5527E+06     16.9749E+06     44.4294E+06     375.137E+03    -299.124E-03     593.740E-03    -294.616E-03     201.968E-03    -307.104E-03     601.485E-03    -294.351E-03     160.416E-03
             513     8.71638E-03     119.497E-03    -39.6572E+06     25.5028E+06     54.7439E+06    -477.720E+03    -299.070E-03     593.702E-03    -294.633E-03     205.792E-03    -307.437E-03     601.861E-03    -294.339E-03     162.967E-03
             514     9.38813E-03     119.803E-03    -33.0088E+06     33.1421E+06     64.6616E+06    -1.01965E+06    -299.187E-03     593.847E-03    -294.659E-03     206.524E-03    -307.739E-03     602.212E-03    -294.336E-03     162.838E-03
             515     10.0571E-03     120.106E-03    -26.3823E+06     40.1314E+06     71.5215E+06    -928.663E+03    -298.933E-03     593.621E-03    -294.687E-03     204.160E-03    -307.449E-03     601.978E-03    -294.350E-03     160.142E-03
             516     10.7274E-03     120.402E-03    -19.8560E+06     46.7455E+06     75.0759E+06     63.1212E+03    -297.767E-03     592.453E-03    -294.685E-03     198.423E-03    -306.012E-03     600.575E-03    -294.349E-03     154.792E-03
             517     11.4002E-03     120.680E-03    -14.1502E+06     52.3042E+06     74.9479E+06     956.982E+03    -297.049E-03     591.704E-03    -294.656E-03     184.437E-03    -304.442E-03     599.015E-03    -294.336E-03     142.796E-03
             518     12.0701E-03     120.935E-03    -9.71744E+06     58.3910E+06     77.3779E+06     577.991E+03    -296.862E-03     591.530E-03    -294.668E-03     172.751E-03    -303.714E-03     598.330E-03    -294.351E-03     132.072E-03
             519     12.7369E-03     121.181E-03    -4.75732E+06     61.1471E+06     81.1871E+06     476.930E+03    -294.341E-03     589.019E-03    -294.678E-03     129.020E-03    -298.954E-03     593.597E-03    -294.354E-03     96.6000E-03
             520     669.395E-06     118.860E-03    -130.105E+06    -224.191E+06    -127.648E+06     1.05452E+06    -294.835E-03     589.192E-03    -294.357E-03     23.6209E-03    -295.086E-03     588.557E-03    -294.482E-03     19.0295E-03
             521     1.34122E-03     118.907E-03    -127.442E+06    -210.883E+06    -118.778E+06    -25.2603E+03    -294.457E-03     588.964E-03    -294.508E-03     42.9807E-03    -294.955E-03     588.606E-03    -294.611E-03     34.5826E-03
             522     2.01126E-03     118.984E-03    -122.065E+06    -185.103E+06    -105.396E+06    -29.9518E+03    -294.864E-03     589.311E-03    -294.447E-03     63.2632E-03    -295.768E-03     589.430E-03    -294.529E-03     50.8906E-03
             523     2.68161E-03     119.092E-03    -115.797E+06    -162.991E+06    -86.1528E+06     628.373E+03    -295.277E-03     589.762E-03    -294.485E-03     83.4748E-03    -296.733E-03     590.478E-03    -294.511E-03     67.1078E-03
             524     3.35214E-03     119.232E-03    -108.078E+06    -136.146E+06    -65.1287E+06     647.897E+03    -295.691E-03     590.217E-03    -294.525E-03     103.233E-03    -297.837E-03     591.684E-03    -294.497E-03     82.8874E-03
             525     4.02245E-03     119.399E-03    -99.5213E+06    -109.509E+06    -43.5717E+06     877.221E+03    -296.152E-03     590.711E-03    -294.559E-03     122.189E-03    -299.104E-03     593.048E-03    -294.474E-03     97.9622E-03
             526     4.69335E-03     119.593E-03    -90.2364E+06    -85.5815E+06    -23.2210E+06     1.73357E+06    -296.705E-03     591.292E-03    -294.587E-03     140.257E-03    -300.554E-03     594.585E-03    -294.448E-03     112.274E-03
             527     5.36340E-03     119.814E-03    -80.3506E+06    -50.8284E+06    -4.48094E+06     2.84200E+06    -297.366E-03     591.961E-03    -294.595E-03     157.193E-03    -302.182E-03     596.324E-03    -294.427E-03     125.695E-03
             528     6.03423E-03     120.060E-03    -70.5343E+06    -21.6195E+06     11.5275E+06     3.07498E+06    -297.892E-03     592.492E-03    -294.601E-03     172.077E-03    -303.657E-03     597.897E-03    -294.409E-03     137.414E-03
             529     6.70491E-03     120.325E-03    -61.9097E+06    -11.5089E+06     22.8612E+06     1.91135E+06    -298.451E-03     593.064E-03    -294.613E-03     184.776E-03    -305.083E-03     599.369E-03    -294.392E-03     147.321E-03
             530     7.37586E-03     120.609E-03    -53.9093E+06     1.56726E+06     33.7586E+06     574.819E+03    -298.972E-03     593.599E-03    -294.628E-03     194.849E-03    -306.363E-03     600.707E-03    -294.383E-03     155.045E-03
             531     8.04594E-03     120.903E-03    -45.6778E+06     16.7569E+06     45.6306E+06     622.495E+03    -299.171E-03     593.820E-03    -294.650E-03     201.572E-03    -307.144E-03     601.559E-03    -294.380E-03     159.995E-03
             532     8.71701E-03     121.206E-03    -38.0618E+06     26.9890E+06     56.9080E+06     1.21712E+06    -299.248E-03     593.926E-03    -294.678E-03     205.589E-03    -307.612E-03     602.086E-03    -294.377E-03     162.747E-03
             533     9.38624E-03     121.511E-03    -31.4823E+06     34.2912E+06     66.7725E+06     1.33120E+06    -299.097E-03     593.801E-03    -294.704E-03     206.940E-03    -307.657E-03     602.177E-03    -294.374E-03     163.291E-03
             534     10.0576E-03     121.817E-03    -25.7912E+06     40.4560E+06     73.3812E+06     1.05014E+06    -298.388E-03     593.095E-03    -294.706E-03     204.549E-03    -306.911E-03     601.457E-03    -294.361E-03     160.656E-03
             535     10.7291E-03     122.108E-03    -20.6311E+06     46.2076E+06     76.0914E+06     461.702E+03    -298.193E-03     592.887E-03    -294.695E-03     198.630E-03    -306.446E-03     601.011E-03    -294.351E-03     154.976E-03
             536     11.3975E-03     122.391E-03    -15.3021E+06     51.3890E+06     74.8028E+06     108.148E+03    -297.626E-03     592.311E-03    -294.686E-03     185.667E-03    -305.068E-03     599.664E-03    -294.364E-03     143.863E-03
             537     12.0662E-03     122.646E-03    -9.34829E+06     58.5681E+06     77.8269E+06     273.052E+03    -295.254E-03     589.914E-03    -294.660E-03     174.888E-03    -302.178E-03     596.787E-03    -294.342E-03     134.289E-03
             538     12.7431E-03     122.882E-03    -4.07208E+06     61.6897E+06     82.2278E+06     265.211E+03    -293.744E-03     588.351E-03    -294.606E-03     129.657E-03    -298.370E-03     592.942E-03    -294.279E-03     97.4187E-03
             539     671.496E-06     120.567E-03    -132.855E+06    -225.632E+06    -129.829E+06    -75.8109E+03    -293.936E-03     588.401E-03    -294.466E-03     23.5705E-03    -294.193E-03     587.765E-03    -294.595E-03     18.9886E-03
             540     1.34078E-03     120.613E-03    -128.377E+06    -210.111E+06    -120.291E+06     196.642E+03    -294.782E-03     589.040E-03    -294.258E-03     42.4443E-03    -295.279E-03     588.684E-03    -294.369E-03     34.0963E-03
             541     2.01150E-03     120.692E-03    -124.458E+06    -186.826E+06    -106.277E+06     660.589E+03    -295.048E-03     589.443E-03    -294.395E-03     62.8673E-03    -295.957E-03     589.555E-03    -294.475E-03     50.5132E-03
             542     2.68159E-03     120.800E-03    -117.872E+06    -163.792E+06    -86.9666E+06     651.795E+03    -295.359E-03     589.847E-03    -294.487E-03     83.2738E-03    -296.822E-03     590.562E-03    -294.514E-03     66.8935E-03
             543     3.35195E-03     120.939E-03    -109.658E+06    -136.827E+06    -65.9003E+06      730.98E+03    -295.690E-03     590.229E-03    -294.539E-03     103.145E-03    -297.841E-03     591.696E-03    -294.511E-03     82.7966E-03
             544     4.02275E-03     121.107E-03    -100.618E+06    -110.808E+06    -44.7404E+06     1.13709E+06    -296.127E-03     590.697E-03    -294.570E-03     121.990E-03    -299.078E-03     593.027E-03    -294.487E-03     97.7686E-03
             545     4.69298E-03     121.301E-03    -91.1670E+06    -89.0839E+06    -24.7374E+06     1.51053E+06    -296.835E-03     591.440E-03    -294.605E-03     140.267E-03    -300.682E-03     594.718E-03    -294.467E-03     112.274E-03
             546     5.36378E-03     121.523E-03    -81.8633E+06     -53.543E+06    -5.67591E+06     1.85618E+06    -297.433E-03     592.057E-03    -294.624E-03     157.185E-03    -302.250E-03     596.410E-03    -294.456E-03     125.665E-03
             547     6.03414E-03     121.767E-03    -72.9053E+06    -22.0701E+06     10.0787E+06     2.06554E+06    -297.994E-03     592.627E-03    -294.634E-03     172.099E-03    -303.772E-03     598.039E-03    -294.445E-03     137.392E-03
             548     6.70452E-03     122.034E-03    -64.0440E+06    -7.96887E+06     22.3981E+06     1.31923E+06    -298.601E-03     593.257E-03    -294.656E-03     184.741E-03    -305.257E-03     599.592E-03    -294.440E-03     147.210E-03
             549     7.37475E-03     122.316E-03    -55.6301E+06     4.16391E+06     33.3487E+06    -174.320E+03    -298.900E-03     593.575E-03    -294.675E-03     194.658E-03    -306.303E-03     600.699E-03    -294.434E-03     154.831E-03
             550     8.04554E-03     122.612E-03    -48.1475E+06     13.2778E+06     43.1272E+06    -370.385E+03    -299.119E-03     593.807E-03    -294.689E-03     201.686E-03    -307.097E-03     601.537E-03    -294.423E-03     160.104E-03
             551     8.71547E-03     122.913E-03    -41.0308E+06     24.9456E+06     53.9937E+06     621.763E+03    -299.188E-03     593.891E-03    -294.704E-03     206.062E-03    -307.577E-03     602.067E-03    -294.410E-03     163.185E-03
             552     9.38712E-03     123.221E-03    -33.9501E+06     33.5911E+06     64.6204E+06     1.14138E+06    -298.779E-03     593.492E-03    -294.714E-03     207.181E-03    -307.363E-03     601.888E-03    -294.390E-03     163.529E-03
             553     10.0578E-03     123.522E-03    -26.5790E+06     39.7710E+06     72.8357E+06     1.50162E+06    -298.379E-03     593.089E-03    -294.710E-03     204.122E-03    -306.886E-03     601.432E-03    -294.365E-03     160.259E-03
             554     10.7280E-03     123.818E-03    -19.4809E+06     47.5869E+06     78.1586E+06     1.67644E+06    -297.936E-03     592.632E-03    -294.696E-03     199.134E-03    -306.179E-03     600.748E-03    -294.346E-03     155.609E-03
             555     11.3986E-03     124.104E-03    -14.4569E+06     52.4467E+06     77.6822E+06     259.093E+03    -296.310E-03     590.950E-03    -294.640E-03     186.432E-03    -303.749E-03     598.298E-03    -294.307E-03     144.908E-03
             556     12.0733E-03     124.348E-03    -9.55346E+06     58.6509E+06     79.8614E+06    -328.430E+03    -295.440E-03     590.021E-03    -294.581E-03     174.347E-03    -302.350E-03     596.874E-03    -294.253E-03     133.761E-03
             557     12.7410E-03     124.591E-03    -4.30274E+06     62.0427E+06     83.4688E+06     107.438E+03    -295.162E-03     589.735E-03    -294.573E-03     128.228E-03    -299.768E-03     594.304E-03    -294.240E-03     95.8670E-03
             558     670.281E-06     122.273E-03    -133.114E+06    -225.698E+06    -131.213E+06     259.918E+03    -294.439E-03     588.803E-03    -294.364E-03     23.1733E-03    -294.695E-03     588.165E-03    -294.500E-03     18.6513E-03
             559     1.34118E-03     122.322E-03    -130.977E+06    -212.359E+06    -122.616E+06     641.090E+03    -294.715E-03     589.122E-03    -294.407E-03     42.2004E-03    -295.216E-03     588.760E-03    -294.522E-03     33.8856E-03
             560     2.01080E-03     122.400E-03    -125.700E+06    -187.571E+06    -107.574E+06     783.507E+03    -295.007E-03     589.481E-03    -294.473E-03     62.7950E-03    -295.920E-03     589.593E-03    -294.557E-03     50.4377E-03
             561     2.68159E-03     122.508E-03    -118.720E+06    -164.782E+06    -88.0753E+06     793.552E+03    -295.288E-03     589.821E-03    -294.533E-03     83.2076E-03    -296.752E-03     590.533E-03    -294.562E-03     66.8266E-03
             562     3.35193E-03     122.647E-03    -110.701E+06    -137.896E+06    -67.3424E+06     1.04693E+06    -295.687E-03     590.254E-03    -294.567E-03     103.029E-03    -297.837E-03     591.717E-03    -294.543E-03     82.6948E-03
             563     4.02221E-03     122.813E-03    -102.010E+06    -112.111E+06    -46.4692E+06     1.04694E+06    -296.244E-03     590.845E-03    -294.601E-03     122.050E-03    -299.200E-03     593.175E-03    -294.522E-03     97.8110E-03
             564     4.69302E-03     123.009E-03    -93.1847E+06    -90.9189E+06    -26.8701E+06     1.29350E+06    -296.896E-03     591.539E-03    -294.643E-03     140.261E-03    -300.747E-03     594.814E-03    -294.511E-03     112.261E-03
             565     5.36308E-03     123.230E-03    -83.9149E+06    -54.5304E+06    -7.78874E+06     1.68141E+06    -297.448E-03     592.110E-03    -294.663E-03     157.021E-03    -302.268E-03     596.462E-03    -294.501E-03     125.499E-03
             566     6.03380E-03     123.476E-03    -74.3498E+06    -21.7493E+06     9.17342E+06     1.24970E+06    -298.030E-03     592.705E-03    -294.675E-03     172.157E-03    -303.818E-03     598.125E-03    -294.490E-03     137.426E-03
             567     6.70421E-03     123.742E-03    -65.0257E+06    -6.77942E+06     22.5338E+06     679.424E+03    -298.570E-03     593.265E-03    -294.695E-03     185.102E-03    -305.240E-03     599.614E-03    -294.478E-03     147.569E-03
             568     7.37464E-03     124.025E-03    -56.8398E+06     5.79546E+06     33.2397E+06     724.738E+03    -298.891E-03     593.594E-03    -294.703E-03     195.144E-03    -306.317E-03     600.742E-03    -294.463E-03     155.313E-03
             569     8.04543E-03     124.319E-03    -49.6726E+06     13.2249E+06     42.4118E+06     531.515E+03    -299.051E-03     593.757E-03    -294.706E-03     202.242E-03    -307.054E-03     601.508E-03    -294.441E-03     160.656E-03
             570     8.71656E-03     124.624E-03    -42.5066E+06     23.4747E+06     53.3167E+06     26.7055E+03    -298.992E-03     593.700E-03    -294.708E-03     206.270E-03    -307.389E-03     601.876E-03    -294.414E-03     163.422E-03
             571     9.38660E-03     124.927E-03    -34.8101E+06     32.8485E+06     64.2229E+06    -139.070E+03    -298.817E-03     593.527E-03    -294.711E-03     207.156E-03    -307.396E-03     601.913E-03    -294.387E-03     163.516E-03
             572     10.0573E-03     125.232E-03    -27.4592E+06     38.8804E+06     71.6437E+06    -556.927E+03    -298.444E-03     593.148E-03    -294.704E-03     204.972E-03    -306.980E-03     601.516E-03    -294.362E-03     161.037E-03
             573     10.7277E-03     125.526E-03    -20.6896E+06     46.0367E+06     75.7128E+06    -669.699E+03    -297.241E-03     591.905E-03    -294.664E-03     199.214E-03    -305.509E-03     600.043E-03    -294.322E-03     155.647E-03
             574     11.4015E-03     125.806E-03    -13.4208E+06     53.1388E+06     77.2592E+06     784.798E+03    -296.346E-03     590.947E-03    -294.601E-03     184.171E-03    -303.726E-03     598.243E-03    -294.272E-03     142.668E-03
             575     12.0699E-03     126.057E-03    -8.49437E+06     59.7379E+06     80.6856E+06     783.143E+03    -296.472E-03     591.063E-03    -294.591E-03     172.468E-03    -303.325E-03     597.863E-03    -294.262E-03     131.819E-03
             576     12.7399E-03     126.306E-03    -4.72065E+06     61.6934E+06     83.8608E+06    -17.2918E+03    -295.016E-03     589.631E-03    -294.615E-03     127.939E-03    -299.632E-03     594.206E-03    -294.278E-03     95.4489E-03
             577     669.627E-06     123.979E-03    -132.523E+06    -227.046E+06    -131.075E+06    -246.652E+03    -294.733E-03     589.254E-03    -294.522E-03     23.2282E-03    -294.986E-03     588.611E-03    -294.656E-03     18.6550E-03
             578     1.34014E-03     124.029E-03    -129.983E+06    -214.029E+06    -122.298E+06     414.597E+03    -294.591E-03     589.147E-03    -294.556E-03     43.0146E-03    -295.091E-03     588.780E-03    -294.668E-03     34.6480E-03
             579     2.01128E-03     124.107E-03    -124.967E+06    -187.912E+06    -109.069E+06     623.057E+03    -294.941E-03     589.456E-03    -294.515E-03     63.1349E-03    -295.850E-03     589.571E-03    -294.607E-03     50.7624E-03
             580     2.68112E-03     124.216E-03    -118.745E+06    -166.385E+06    -89.7421E+06     828.804E+03    -295.338E-03     589.893E-03    -294.555E-03     83.4057E-03    -296.799E-03     590.602E-03    -294.590E-03     67.0264E-03
             581     3.35183E-03     124.354E-03    -110.853E+06    -139.932E+06    -68.9367E+06     1.36295E+06    -295.782E-03     590.378E-03    -294.596E-03     103.084E-03    -297.927E-03     591.833E-03    -294.577E-03     82.7555E-03
             582     4.02247E-03     124.522E-03    -102.341E+06    -113.589E+06    -47.4859E+06     1.98733E+06    -296.387E-03     591.032E-03    -294.644E-03     122.112E-03    -299.342E-03     593.357E-03    -294.569E-03     97.8777E-03
             583     4.69236E-03     124.717E-03    -93.2960E+06    -91.2527E+06    -27.0664E+06     2.04550E+06    -296.957E-03     591.654E-03    -294.697E-03     140.252E-03    -300.808E-03     594.929E-03    -294.565E-03     112.252E-03
             584     5.36322E-03     124.939E-03    -83.6071E+06    -54.0285E+06    -7.65638E+06     1.20664E+06    -297.471E-03     592.185E-03    -294.714E-03     157.173E-03    -302.293E-03     596.541E-03    -294.553E-03     125.637E-03
             585     6.03342E-03     125.184E-03    -73.9285E+06    -21.4524E+06     9.21598E+06     799.427E+03    -297.950E-03     592.666E-03    -294.716E-03     172.289E-03    -303.738E-03     598.089E-03    -294.531E-03     137.556E-03
             586     6.70414E-03     125.450E-03    -65.2853E+06    -7.50475E+06     22.2237E+06     1.26052E+06    -298.344E-03     593.060E-03    -294.716E-03     185.062E-03    -305.009E-03     599.402E-03    -294.499E-03     147.574E-03
             587     7.37519E-03     125.733E-03    -56.9020E+06     5.56166E+06     33.3960E+06     1.31351E+06    -298.768E-03     593.475E-03    -294.708E-03     195.065E-03    -306.189E-03     600.618E-03    -294.466E-03     155.267E-03
             588     8.04530E-03     126.029E-03    -48.3353E+06     15.1114E+06     43.9411E+06     726.858E+03    -298.994E-03     593.699E-03    -294.706E-03     202.101E-03    -306.993E-03     601.453E-03    -294.438E-03     160.523E-03
             589     8.71583E-03     126.330E-03    -40.1099E+06     24.4120E+06     55.4952E+06     196.926E+03    -298.915E-03     593.621E-03    -294.707E-03     206.199E-03    -307.299E-03     601.789E-03    -294.406E-03     163.380E-03
             590     9.38719E-03     126.637E-03    -32.6435E+06     32.8518E+06     66.2824E+06     38.2620E+03    -298.677E-03     593.378E-03    -294.701E-03     207.422E-03    -307.251E-03     601.760E-03    -294.370E-03     163.816E-03
             591     10.0579E-03     126.939E-03    -26.0236E+06     40.2048E+06     73.5677E+06     77.6667E+03    -298.104E-03     592.780E-03    -294.675E-03     205.048E-03    -306.637E-03     601.150E-03    -294.328E-03     161.192E-03
             592     10.7301E-03     127.234E-03    -20.1817E+06     46.6448E+06     76.8848E+06    -357.498E+03    -297.927E-03     592.575E-03    -294.648E-03     198.492E-03    -306.178E-03     600.697E-03    -294.302E-03     154.867E-03
             593     11.3980E-03     127.514E-03    -14.9621E+06     51.6110E+06     75.5810E+06    -655.436E+03    -297.497E-03     592.132E-03    -294.635E-03     184.618E-03    -304.915E-03     599.461E-03    -294.310E-03     142.825E-03
             594     12.0687E-03     127.770E-03    -9.20322E+06     58.5822E+06     78.3779E+06     81.5816E+03    -295.824E-03     590.452E-03    -294.629E-03     174.195E-03    -302.721E-03     597.297E-03    -294.308E-03     133.568E-03
             595     12.7410E-03     128.008E-03    -4.08892E+06     61.8355E+06     82.5795E+06     615.048E+03    -294.112E-03     588.714E-03    -294.603E-03     129.317E-03    -298.735E-03     593.303E-03    -294.273E-03     96.9967E-03
             596     671.179E-06     125.689E-03    -135.450E+06    -227.448E+06    -130.899E+06     246.456E+03    -294.368E-03     588.937E-03    -294.569E-03     23.3666E-03    -294.635E-03     588.295E-03    -294.697E-03     18.7913E-03
             597     1.34102E-03     125.736E-03    -130.640E+06    -214.732E+06    -122.920E+06    -208.947E+03    -294.818E-03     589.293E-03    -294.476E-03     43.0027E-03    -295.318E-03     588.924E-03    -294.590E-03     34.6466E-03
             598     2.01084E-03     125.815E-03    -125.941E+06    -189.226E+06    -109.569E+06     7.30847E+03    -295.004E-03     589.527E-03    -294.523E-03     63.1795E-03    -295.915E-03     589.637E-03    -294.614E-03     50.8061E-03
             599     2.68174E-03     125.924E-03    -119.534E+06    -167.942E+06    -90.6894E+06     674.014E+03    -295.483E-03     590.067E-03    -294.585E-03     83.2559E-03    -296.940E-03     590.767E-03    -294.621E-03     66.8835E-03
             600     3.35168E-03     126.063E-03    -111.951E+06    -142.268E+06    -70.0741E+06     1.04697E+06    -295.965E-03     590.620E-03    -294.655E-03     102.861E-03    -298.108E-03     592.065E-03    -294.637E-03     82.5162E-03
             601     4.02171E-03     126.230E-03    -102.956E+06    -116.549E+06    -48.8533E+06     1.74424E+06    -296.348E-03     591.056E-03    -294.708E-03     122.033E-03    -299.297E-03     593.368E-03    -294.634E-03     97.8042E-03
             602     4.69254E-03     126.426E-03    -93.3459E+06    -90.1550E+06    -27.9122E+06     1.75648E+06    -296.892E-03     591.631E-03    -294.739E-03     140.369E-03    -300.744E-03     594.913E-03    -294.613E-03     112.378E-03
             603     5.36253E-03     126.647E-03    -83.8068E+06    -52.2244E+06    -7.40001E+06     822.685E+03    -297.413E-03     592.158E-03    -294.746E-03     157.379E-03    -302.245E-03     596.529E-03    -294.585E-03     125.835E-03
             604     6.03339E-03     126.893E-03    -74.6305E+06    -23.1520E+06     9.65964E+06     809.984E+03    -297.886E-03     592.627E-03    -294.742E-03     172.461E-03    -303.682E-03     598.049E-03    -294.551E-03     137.713E-03
             605     6.70400E-03     127.158E-03    -65.2334E+06    -7.92702E+06     23.0447E+06     911.258E+03    -298.349E-03     593.084E-03    -294.735E-03     185.132E-03    -305.023E-03     599.431E-03    -294.514E-03     147.605E-03
             606     7.37429E-03     127.441E-03    -55.9831E+06     6.41389E+06     34.6515E+06     261.502E+03    -298.606E-03     593.323E-03    -294.717E-03     195.216E-03    -306.029E-03     600.469E-03    -294.472E-03     155.423E-03
             607     8.04569E-03     127.736E-03    -47.6762E+06     15.6257E+06     44.7940E+06    -183.703E+03    -298.836E-03     593.534E-03    -294.698E-03     202.307E-03    -306.833E-03     601.287E-03    -294.427E-03     160.760E-03
             608     8.71650E-03     128.039E-03    -40.1265E+06     24.1546E+06     55.3106E+06    -113.941E+03    -298.942E-03     593.632E-03    -294.689E-03     206.398E-03    -307.340E-03     601.812E-03    -294.390E-03     163.532E-03
             609     9.38700E-03     128.343E-03    -33.1386E+06     32.1717E+06     65.5017E+06     233.842E+03    -298.656E-03     593.342E-03    -294.685E-03     207.025E-03    -307.232E-03     601.724E-03    -294.357E-03     163.383E-03
             610     10.0586E-03     128.647E-03    -26.2694E+06     39.9054E+06     73.4812E+06     424.272E+03    -298.332E-03     593.009E-03    -294.677E-03     203.940E-03    -306.830E-03     601.342E-03    -294.329E-03     160.098E-03
             611     10.7280E-03     128.941E-03    -19.8253E+06     46.9733E+06     77.7776E+06     789.936E+03    -298.044E-03     592.710E-03    -294.666E-03     198.733E-03    -306.280E-03     600.817E-03    -294.316E-03     155.180E-03
             612     11.3992E-03     129.229E-03    -14.8062E+06     51.7885E+06     76.8701E+06     80.5964E+03    -296.966E-03     591.603E-03    -294.637E-03     185.516E-03    -304.395E-03     598.940E-03    -294.306E-03     143.862E-03
             613     12.0707E-03     129.471E-03    -10.1629E+06     57.7087E+06     78.5236E+06    -603.023E+03    -295.690E-03     590.297E-03    -294.607E-03     173.947E-03    -302.588E-03     597.135E-03    -294.283E-03     133.336E-03
             614     12.7416E-03     129.720E-03    -4.15661E+06     61.7483E+06     82.5198E+06    -181.200E+03    -294.463E-03     589.049E-03    -294.586E-03     128.414E-03    -299.070E-03     593.622E-03    -294.257E-03     96.0653E-03
             615     669.781E-06     127.395E-03    -135.456E+06    -227.893E+06    -133.404E+06     319.014E+03    -294.901E-03     589.220E-03    -294.320E-03     23.0215E-03    -295.161E-03     588.578E-03    -294.460E-03     18.5211E-03
             616     1.34049E-03     127.445E-03    -132.522E+06    -214.333E+06    -123.473E+06     152.558E+03    -294.735E-03     589.317E-03    -294.582E-03     42.4872E-03    -295.241E-03     588.950E-03    -294.696E-03     34.1527E-03
             617     2.01108E-03     127.523E-03    -127.443E+06    -191.030E+06    -109.116E+06     316.444E+03    -295.141E-03     589.747E-03    -294.606E-03     63.0413E-03    -296.056E-03     589.848E-03    -294.690E-03     50.6791E-03
             618     2.68083E-03     127.632E-03    -120.935E+06    -169.441E+06    -90.4445E+06     520.763E+03    -295.577E-03     590.257E-03    -294.679E-03     83.2608E-03    -297.040E-03     590.951E-03    -294.710E-03     66.8762E-03
             619     3.35111E-03     127.772E-03    -112.704E+06    -143.201E+06    -69.8930E+06     686.148E+03    -295.888E-03     590.622E-03    -294.734E-03     102.961E-03    -298.036E-03     592.064E-03    -294.712E-03     82.6116E-03
             620     4.02176E-03     127.938E-03    -103.583E+06    -117.934E+06    -48.9059E+06     392.625E+03    -296.325E-03     591.088E-03    -294.763E-03     122.265E-03    -299.281E-03     593.399E-03    -294.686E-03     97.9970E-03
             621     4.69207E-03     128.134E-03    -93.8148E+06    -89.9490E+06    -28.4801E+06     131.109E+03    -296.796E-03     591.568E-03    -294.772E-03     140.502E-03    -300.654E-03     594.856E-03    -294.648E-03     112.478E-03
             622     5.36298E-03     128.356E-03    -83.9495E+06    -52.4341E+06    -7.80687E+06     632.756E+03    -297.265E-03     592.024E-03    -294.759E-03     157.411E-03    -302.098E-03     596.395E-03    -294.600E-03     125.873E-03
             623     6.03345E-03     128.600E-03    -73.8879E+06    -23.7844E+06     10.6972E+06     603.728E+03    -297.807E-03     592.553E-03    -294.746E-03     172.609E-03    -303.604E-03     597.973E-03    -294.551E-03     137.861E-03
             624     6.70396E-03     128.867E-03    -64.2067E+06    -6.89847E+06     24.5909E+06    -142.440E+03    -298.264E-03     592.993E-03    -294.729E-03     185.411E-03    -304.943E-03     599.348E-03    -294.503E-03     147.875E-03
             625     7.37513E-03     129.149E-03    -55.5571E+06     6.66084E+06     35.3949E+06    -244.075E+03    -298.640E-03     593.345E-03    -294.705E-03     195.419E-03    -306.069E-03     600.498E-03    -294.457E-03     155.605E-03
             626     8.04562E-03     129.444E-03    -47.7438E+06     15.3790E+06     44.9109E+06     162.971E+03    -298.878E-03     593.565E-03    -294.688E-03     202.188E-03    -306.873E-03     601.316E-03    -294.416E-03     160.636E-03
             627     8.71652E-03     129.747E-03    -40.5135E+06     23.6718E+06     55.2561E+06     255.723E+03    -299.007E-03     593.694E-03    -294.687E-03     205.975E-03    -307.392E-03     601.859E-03    -294.386E-03     163.127E-03
             628     9.38729E-03     130.053E-03    -33.4349E+06     31.7671E+06     65.4653E+06     155.068E+03    -298.975E-03     593.675E-03    -294.700E-03     206.608E-03    -307.540E-03     602.045E-03    -294.371E-03     162.931E-03
             629     10.0570E-03     130.354E-03    -26.6145E+06     39.3306E+06     72.8355E+06     279.639E+03    -298.559E-03     593.267E-03    -294.707E-03     204.329E-03    -307.079E-03     601.620E-03    -294.362E-03     160.396E-03
             630     10.7283E-03     130.652E-03    -20.2243E+06     46.2464E+06     76.6023E+06     186.143E+03    -297.480E-03     592.161E-03    -294.681E-03     198.758E-03    -305.721E-03     600.273E-03    -294.336E-03     155.235E-03
             631     11.4002E-03     130.931E-03    -13.8534E+06     52.5072E+06     77.0120E+06     729.627E+03    -296.462E-03     591.087E-03    -294.624E-03     184.654E-03    -303.848E-03     598.386E-03    -294.295E-03     143.157E-03
             632     12.0700E-03     131.185E-03    -8.09968E+06     59.8758E+06     80.8036E+06     602.962E+03    -296.087E-03     590.690E-03    -294.602E-03     173.189E-03    -302.970E-03     597.522E-03    -294.273E-03     132.520E-03
             633     12.7399E-03     131.423E-03    -4.68375E+06     61.5481E+06     83.6143E+06    -373.446E+03    -294.824E-03     589.431E-03    -294.607E-03     128.687E-03    -299.460E-03     594.027E-03    -294.272E-03     96.1680E-03
             634     670.219E-06     129.105E-03    -135.802E+06    -228.365E+06    -132.206E+06    -163.952E+03    -295.197E-03     589.631E-03    -294.433E-03     23.1062E-03    -295.462E-03     588.986E-03    -294.566E-03     18.5929E-03
             635     1.34028E-03     129.152E-03    -131.385E+06    -215.730E+06    -122.833E+06     569.568E+03    -294.907E-03     589.687E-03    -294.779E-03     42.6762E-03    -295.409E-03     589.312E-03    -294.890E-03     34.3004E-03
             636     2.01057E-03     129.231E-03    -126.574E+06    -192.316E+06    -108.484E+06     1.03537E+06    -295.165E-03     589.938E-03    -294.772E-03     63.1072E-03    -296.076E-03     590.031E-03    -294.852E-03     50.7325E-03
             637     2.68085E-03     129.341E-03    -119.570E+06    -169.492E+06    -88.7299E+06     727.188E+03    -295.395E-03     590.184E-03    -294.789E-03     83.2429E-03    -296.854E-03     590.874E-03    -294.813E-03     66.8600E-03
             638     3.35139E-03     129.479E-03    -111.055E+06    -143.054E+06    -67.9157E+06     289.551E+03    -295.739E-03     590.526E-03    -294.787E-03     103.076E-03    -297.885E-03     591.967E-03    -294.758E-03     82.7093E-03
             639     4.02168E-03     129.647E-03    -101.808E+06    -116.915E+06    -46.4248E+06    -136.165E+03    -296.293E-03     591.085E-03    -294.792E-03     122.379E-03    -299.248E-03     593.398E-03    -294.707E-03     98.0912E-03
             640     4.69201E-03     129.842E-03     -92.348E+06    -91.3579E+06    -25.6620E+06     40.8773E+03    -296.754E-03     591.550E-03    -294.797E-03     140.587E-03    -300.611E-03     594.830E-03    -294.659E-03     112.548E-03
             641     5.36257E-03     130.063E-03    -82.8073E+06    -53.8587E+06    -6.12331E+06     496.241E+03    -297.184E-03     591.952E-03    -294.768E-03     157.589E-03    -302.016E-03     596.317E-03    -294.601E-03     126.043E-03
             642     6.03334E-03     130.309E-03    -73.4024E+06    -22.3220E+06     10.7533E+06     67.0980E+03    -297.661E-03     592.390E-03    -294.729E-03     172.678E-03    -303.456E-03     597.814E-03    -294.537E-03     137.956E-03
             643     6.70449E-03     130.574E-03    -64.4147E+06    -6.55566E+06     23.9610E+06    -189.889E+03    -298.248E-03     592.951E-03    -294.704E-03     185.322E-03    -304.921E-03     599.303E-03    -294.481E-03     147.809E-03
             644     7.37497E-03     130.858E-03    -56.0161E+06     5.98884E+06     34.8211E+06    -2.08342E+03    -298.817E-03     593.509E-03    -294.693E-03     195.088E-03    -306.237E-03     600.651E-03    -294.446E-03     155.266E-03
             645     8.04563E-03     131.152E-03    -48.1006E+06     14.8151E+06     44.6547E+06     80.7817E+03    -299.137E-03     593.837E-03    -294.700E-03     201.858E-03    -307.130E-03     601.582E-03    -294.428E-03     160.259E-03
             646     8.71610E-03     131.455E-03    -40.4583E+06     23.4576E+06     55.3574E+06     209.227E+03    -299.108E-03     593.824E-03    -294.716E-03     205.790E-03    -307.487E-03     601.982E-03    -294.414E-03     162.931E-03
             647     9.38652E-03     131.761E-03    -33.1774E+06     31.7317E+06     65.7228E+06     301.429E+03    -298.781E-03     593.505E-03    -294.724E-03     206.814E-03    -307.346E-03     601.874E-03    -294.393E-03     163.177E-03
             648     10.0578E-03     132.064E-03    -26.4212E+06     39.3688E+06     73.1002E+06     282.766E+03    -298.233E-03     592.942E-03    -294.709E-03     204.771E-03    -306.765E-03     601.308E-03    -294.362E-03     160.869E-03
             649     10.7284E-03     132.358E-03    -19.9206E+06     46.6090E+06     77.1699E+06     161.184E+03    -297.661E-03     592.338E-03    -294.677E-03     198.988E-03    -305.922E-03     600.470E-03    -294.330E-03     155.392E-03
             650     11.3982E-03     132.640E-03    -13.9421E+06     52.4545E+06     76.9853E+06     70.9357E+03    -296.832E-03     591.466E-03    -294.633E-03     185.267E-03    -304.253E-03     598.800E-03    -294.304E-03     143.615E-03
             651     12.0703E-03     132.891E-03    -8.91399E+06     58.7996E+06     79.0956E+06     120.280E+03    -295.828E-03     590.433E-03    -294.605E-03     173.915E-03    -302.714E-03     597.267E-03    -294.282E-03     133.323E-03
             652     12.7413E-03     133.135E-03    -4.64299E+06     61.2585E+06     81.9871E+06     247.849E+03    -294.433E-03     589.019E-03    -294.586E-03     128.992E-03    -299.047E-03     593.597E-03    -294.258E-03     96.6437E-03
             653     670.199E-06     130.813E-03    -132.590E+06    -229.289E+06    -130.045E+06     238.921E+03    -294.923E-03     589.689E-03    -294.767E-03     23.0686E-03    -295.173E-03     589.032E-03    -294.892E-03     18.5181E-03
             654     1.34015E-03     130.861E-03    -129.295E+06    -218.152E+06    -120.783E+06     688.232E+03    -295.152E-03     590.002E-03    -294.850E-03     42.9121E-03    -295.644E-03     589.612E-03    -294.951E-03     34.5310E-03
             655     2.00994E-03     130.940E-03    -124.252E+06    -192.621E+06    -107.532E+06     408.190E+03    -295.163E-03     590.021E-03    -294.858E-03     63.4669E-03    -296.067E-03     590.112E-03    -294.936E-03     51.0676E-03
             656     2.68054E-03     131.049E-03    -117.165E+06    -169.878E+06    -87.6256E+06     632.038E+03    -295.317E-03     590.156E-03    -294.839E-03     83.4344E-03    -296.769E-03     590.843E-03    -294.861E-03     67.0309E-03
             657     3.35097E-03     131.187E-03    -109.255E+06    -142.872E+06    -66.0777E+06     625.649E+03    -295.724E-03     590.543E-03    -294.818E-03     103.151E-03    -297.868E-03     591.983E-03    -294.783E-03     82.7691E-03
             658     4.02146E-03     131.355E-03    -100.708E+06    -116.198E+06    -44.4211E+06     649.100E+03    -296.095E-03     590.898E-03    -294.802E-03     122.429E-03    -299.049E-03     593.210E-03    -294.710E-03     98.1730E-03
             659     4.69239E-03     131.550E-03    -91.6250E+06    -93.1432E+06    -23.9273E+06     1.12275E+06    -296.671E-03     591.457E-03    -294.786E-03     140.754E-03    -300.527E-03     594.727E-03    -294.638E-03     112.739E-03
             660     5.36289E-03     131.772E-03    -82.4687E+06    -54.6093E+06    -4.67978E+06     1.39551E+06    -297.242E-03     591.996E-03    -294.754E-03     157.631E-03    -302.075E-03     596.357E-03    -294.579E-03     126.088E-03
             661     6.03384E-03     132.016E-03    -73.5995E+06    -19.5451E+06     11.8336E+06     1.02384E+06    -297.788E-03     592.511E-03    -294.723E-03     172.462E-03    -303.585E-03     597.943E-03    -294.529E-03     137.744E-03
             662     6.70428E-03     132.283E-03    -64.9450E+06    -5.91486E+06     24.1982E+06     81.6366E+03    -298.426E-03     593.142E-03    -294.716E-03     185.000E-03    -305.095E-03     599.490E-03    -294.493E-03     147.477E-03
             663     7.37483E-03     132.566E-03    -56.3790E+06     5.32319E+06     34.7015E+06    -182.407E+03    -298.896E-03     593.615E-03    -294.719E-03     194.879E-03    -306.311E-03     600.748E-03    -294.471E-03     155.051E-03
             664     8.04533E-03     132.861E-03    -48.2596E+06     14.3033E+06     44.5941E+06    -38.3247E+03    -299.068E-03     593.794E-03    -294.725E-03     201.880E-03    -307.057E-03     601.533E-03    -294.453E-03     160.301E-03
             665     8.71565E-03     133.164E-03    -40.7656E+06     22.8344E+06     54.9484E+06     31.8583E+03    -298.900E-03     593.624E-03    -294.725E-03     206.255E-03    -307.289E-03     601.791E-03    -294.424E-03     163.421E-03
             666     9.38674E-03     133.468E-03    -33.5445E+06     31.3123E+06     65.1228E+06     125.860E+03    -298.601E-03     593.313E-03    -294.712E-03     207.450E-03    -307.184E-03     601.699E-03    -294.383E-03     163.829E-03
             667     10.0577E-03     133.771E-03    -26.4059E+06     39.4112E+06     72.9831E+06     1.75886E+03    -298.225E-03     592.915E-03    -294.690E-03     204.664E-03    -306.749E-03     601.274E-03    -294.344E-03     160.790E-03
             668     10.7289E-03     134.066E-03    -19.9267E+06     46.4356E+06     77.0575E+06    -158.470E+03    -297.737E-03     592.399E-03    -294.662E-03     198.899E-03    -305.993E-03     600.525E-03    -294.315E-03     155.301E-03
             669     11.4002E-03     134.350E-03    -14.1741E+06     52.0494E+06     76.7345E+06     8.64302E+03    -296.810E-03     591.430E-03    -294.621E-03     185.413E-03    -304.244E-03     598.776E-03    -294.292E-03     143.728E-03
             670     12.0697E-03     134.598E-03    -9.19961E+06     58.4221E+06     78.7617E+06     219.565E+03    -295.721E-03     590.309E-03    -294.588E-03     174.194E-03    -302.615E-03     597.150E-03    -294.266E-03     133.610E-03
             671     12.7411E-03     134.842E-03    -4.47456E+06     61.3227E+06     81.7595E+06     202.571E+03    -294.423E-03     588.988E-03    -294.565E-03     128.540E-03    -299.025E-03     593.555E-03    -294.239E-03     96.2448E-03
             672     670.044E-06     132.521E-03    -132.984E+06    -230.975E+06    -128.947E+06     439.137E+03    -295.111E-03     589.638E-03    -294.527E-03     23.7526E-03    -295.364E-03     588.974E-03    -294.644E-03     19.1985E-03
             673     1.34024E-03     132.571E-03    -128.630E+06    -218.508E+06    -120.066E+06     275.068E+03    -295.037E-03     589.839E-03    -294.802E-03     43.1580E-03    -295.528E-03     589.446E-03    -294.899E-03     34.7620E-03
             674     2.01073E-03     132.648E-03    -123.537E+06    -193.044E+06    -106.390E+06     409.908E+03    -295.113E-03     589.909E-03    -294.796E-03     63.4051E-03    -296.013E-03     589.994E-03    -294.869E-03     51.0181E-03
             675     2.68089E-03     132.757E-03    -117.244E+06    -171.520E+06    -87.0995E+06     607.264E+03    -295.374E-03     590.164E-03    -294.790E-03     83.8142E-03    -296.830E-03     590.848E-03    -294.807E-03     67.3967E-03
             676     3.35107E-03     132.896E-03    -109.303E+06    -143.938E+06    -65.8287E+06     1.33606E+06    -295.701E-03     590.479E-03    -294.778E-03     103.546E-03    -297.849E-03     591.919E-03    -294.740E-03     83.1651E-03
             677     4.02185E-03     133.062E-03    -100.573E+06    -117.081E+06    -44.3781E+06     1.71155E+06    -296.152E-03     590.919E-03    -294.766E-03     122.599E-03    -299.108E-03     593.231E-03    -294.673E-03     98.3426E-03
             678     4.69233E-03     133.258E-03    -91.1492E+06    -94.3049E+06    -24.1674E+06     1.69692E+06    -296.784E-03     591.549E-03    -294.766E-03     140.675E-03    -300.633E-03     594.811E-03    -294.618E-03     112.658E-03
             679     5.36308E-03     133.479E-03    -81.2340E+06    -55.8945E+06    -4.20385E+06     2.02516E+06    -297.410E-03     592.169E-03    -294.759E-03     157.165E-03    -302.226E-03     596.510E-03    -294.581E-03     125.629E-03
             680     6.03331E-03     133.725E-03    -71.3259E+06    -19.0641E+06     13.6874E+06     2.53050E+06    -297.972E-03     592.726E-03    -294.753E-03     172.167E-03    -303.759E-03     598.151E-03    -294.554E-03     137.437E-03
             681     6.70377E-03     133.991E-03    -62.3529E+06    -3.47288E+06     27.1127E+06     2.47682E+06    -298.440E-03     593.197E-03    -294.757E-03     185.054E-03    -305.105E-03     599.550E-03    -294.526E-03     147.561E-03
             682     7.37444E-03     134.274E-03    -54.7270E+06     6.44569E+06     37.1648E+06     1.73070E+06    -298.748E-03     593.497E-03    -294.749E-03     195.227E-03    -306.165E-03     600.634E-03    -294.493E-03     155.460E-03
             683     8.04495E-03     134.570E-03    -47.4673E+06     14.6535E+06     46.1377E+06     1.17440E+06    -298.813E-03     593.542E-03    -294.729E-03     202.254E-03    -306.807E-03     601.286E-03    -294.451E-03     160.737E-03
             684     8.71656E-03     134.870E-03    -40.1330E+06     23.4925E+06      56.216E+06     747.342E+03    -298.791E-03     593.501E-03    -294.711E-03     206.145E-03    -307.174E-03     601.662E-03    -294.406E-03     163.354E-03
             685     9.38757E-03     135.177E-03    -32.8821E+06     31.8947E+06     66.3164E+06     106.455E+03    -298.773E-03     593.477E-03    -294.704E-03     206.910E-03    -307.337E-03     601.844E-03    -294.371E-03     163.291E-03
             686     10.0580E-03     135.479E-03    -26.1593E+06     39.3036E+06     73.3222E+06    -202.410E+03    -298.407E-03     593.104E-03    -294.696E-03     204.070E-03    -306.915E-03     601.445E-03    -294.349E-03     160.174E-03
             687     10.7283E-03     135.775E-03    -19.8347E+06     46.3327E+06     76.7842E+06    -36.5479E+03    -297.542E-03     592.211E-03    -294.669E-03     198.338E-03    -305.770E-03     600.311E-03    -294.323E-03     154.820E-03
             688     11.3988E-03     136.056E-03    -14.3801E+06     51.7893E+06     75.9100E+06     31.7126E+03    -296.504E-03     591.118E-03    -294.613E-03     184.931E-03    -303.914E-03     598.440E-03    -294.288E-03     143.336E-03
             689     12.0713E-03     136.307E-03    -9.37898E+06     58.2743E+06     78.4882E+06     115.670E+03    -295.687E-03     590.263E-03    -294.577E-03     173.688E-03    -302.576E-03     597.098E-03    -294.255E-03     133.075E-03
             690     12.7414E-03     136.550E-03    -4.58430E+06     61.3611E+06     82.6547E+06     109.844E+03    -294.752E-03     589.321E-03    -294.570E-03     128.833E-03    -299.364E-03     593.896E-03    -294.239E-03     96.4674E-03
             691     670.444E-06     134.230E-03    -130.093E+06    -232.683E+06    -130.049E+06     969.691E+03    -295.281E-03     589.442E-03    -294.162E-03     23.6829E-03    -295.515E-03     588.766E-03    -294.286E-03     19.1498E-03
             692     1.34040E-03     134.279E-03    -128.980E+06    -218.322E+06    -120.679E+06     389.277E+03    -294.850E-03     589.529E-03    -294.680E-03     43.0155E-03    -295.340E-03     589.137E-03    -294.779E-03     34.6626E-03
             693     2.01049E-03     134.357E-03    -124.149E+06    -195.519E+06    -105.744E+06     940.749E+03    -295.033E-03     589.709E-03    -294.676E-03     63.4553E-03    -295.936E-03     589.784E-03    -294.741E-03     51.0657E-03
             694     2.68098E-03     134.465E-03    -117.730E+06    -172.763E+06    -86.4115E+06     1.61039E+06    -295.351E-03     590.038E-03    -294.688E-03     83.7277E-03    -296.805E-03     590.712E-03    -294.698E-03     67.3450E-03
             695     3.35184E-03     134.604E-03    -109.840E+06    -145.607E+06    -65.9990E+06     1.69499E+06    -295.804E-03     590.506E-03    -294.702E-03     103.322E-03    -297.947E-03     591.934E-03    -294.662E-03     82.9585E-03
             696     4.02204E-03     134.771E-03    -100.853E+06    -118.737E+06    -45.0663E+06     1.98481E+06    -296.453E-03     591.189E-03    -294.736E-03     122.293E-03    -299.403E-03     593.490E-03    -294.643E-03     98.0166E-03
             697     4.69238E-03     134.966E-03    -91.6517E+06    -94.4951E+06    -24.6447E+06     1.92198E+06    -297.001E-03     591.781E-03    -294.780E-03     140.372E-03    -300.846E-03     595.037E-03    -294.634E-03     112.350E-03
             698     5.36249E-03     135.188E-03    -82.2449E+06    -56.8109E+06    -4.76851E+06     1.35403E+06    -297.425E-03     592.215E-03    -294.789E-03     157.316E-03    -302.249E-03     596.558E-03    -294.612E-03     125.760E-03
             699     6.03308E-03     135.434E-03    -72.7616E+06    -22.2868E+06     12.6969E+06     1.59322E+06    -297.889E-03     592.665E-03    -294.776E-03     172.553E-03    -303.684E-03     598.086E-03    -294.575E-03     137.811E-03
             700     6.70398E-03     135.699E-03    -63.5301E+06    -5.61617E+06     25.9032E+06     3.08035E+06    -298.389E-03     593.153E-03    -294.764E-03     185.414E-03    -305.066E-03     599.510E-03    -294.534E-03     147.917E-03
             701     7.37460E-03     135.983E-03    -54.9310E+06     8.46225E+06     37.1656E+06     3.59840E+06    -298.672E-03     593.419E-03    -294.747E-03     195.074E-03    -306.093E-03     600.567E-03    -294.494E-03     155.322E-03
             702     8.04609E-03     136.276E-03    -46.9735E+06     17.5707E+06     47.4277E+06     2.12960E+06    -298.844E-03     593.578E-03    -294.735E-03     201.552E-03    -306.825E-03     601.317E-03    -294.455E-03     160.045E-03
             703     8.71610E-03     136.580E-03    -39.2064E+06     24.4459E+06     57.6944E+06     878.495E+03    -299.033E-03     593.770E-03    -294.737E-03     205.346E-03    -307.398E-03     601.915E-03    -294.428E-03     162.511E-03
             704     9.38633E-03     136.883E-03    -32.0164E+06     32.4441E+06     67.4867E+06     902.754E+03    -298.809E-03     593.554E-03    -294.745E-03     206.300E-03    -307.361E-03     601.912E-03    -294.408E-03     162.661E-03
             705     10.0571E-03     137.189E-03    -25.5799E+06     39.8873E+06     74.6187E+06     968.966E+03    -298.078E-03     592.808E-03    -294.730E-03     203.889E-03    -306.577E-03     601.142E-03    -294.378E-03     160.063E-03
             706     10.7283E-03     137.481E-03    -19.8003E+06     46.5533E+06     78.1410E+06     659.480E+03    -297.575E-03     592.269E-03    -294.694E-03     198.439E-03    -305.812E-03     600.374E-03    -294.342E-03     154.909E-03
             707     11.4001E-03     137.764E-03    -14.1345E+06     52.2406E+06      77.854E+06     270.289E+03    -296.856E-03     591.508E-03    -294.652E-03     184.395E-03    -304.259E-03     598.821E-03    -294.318E-03     142.753E-03
             708     12.0693E-03     138.014E-03    -9.43336E+06     58.2659E+06     79.8104E+06     22.2943E+03    -295.719E-03     590.347E-03    -294.628E-03     172.374E-03    -302.567E-03     597.136E-03    -294.300E-03     131.821E-03
             709     12.7413E-03     138.258E-03    -4.70365E+06     61.0150E+06     83.2476E+06     164.851E+03    -294.287E-03     588.896E-03    -294.609E-03     128.198E-03    -298.882E-03     593.449E-03    -294.275E-03     95.8736E-03
             710     669.973E-06     135.938E-03    -133.638E+06    -235.293E+06    -131.397E+06     316.747E+03    -294.430E-03     589.267E-03    -294.837E-03     23.1601E-03    -294.675E-03     588.584E-03    -294.959E-03     18.6032E-03
             711     1.34064E-03     135.987E-03    -130.567E+06    -219.449E+06    -122.027E+06     795.393E+03    -294.671E-03     589.250E-03    -294.579E-03     42.9634E-03    -295.166E-03     588.856E-03    -294.681E-03     34.6100E-03
             712     2.01135E-03     136.064E-03    -124.804E+06    -198.034E+06    -106.099E+06     1.11458E+06    -295.079E-03     589.665E-03    -294.586E-03     63.2730E-03    -295.977E-03     589.725E-03    -294.648E-03     50.9023E-03
             713     2.68154E-03     136.174E-03    -117.510E+06    -174.742E+06    -86.9612E+06     1.50122E+06    -295.493E-03     590.137E-03    -294.644E-03     83.2434E-03    -296.936E-03     590.795E-03    -294.655E-03     66.8797E-03
             714     3.35148E-03     136.311E-03    -109.141E+06    -147.653E+06    -66.0531E+06     2.05163E+06    -296.013E-03     590.721E-03    -294.708E-03     102.989E-03    -298.145E-03     592.133E-03    -294.666E-03     82.6321E-03
             715     4.02174E-03     136.480E-03    -100.277E+06    -120.408E+06    -44.5733E+06     2.50521E+06    -296.517E-03     591.286E-03    -294.770E-03     122.120E-03    -299.458E-03     593.573E-03    -294.672E-03     97.8572E-03
             716     4.69187E-03     136.674E-03    -90.8805E+06    -94.9694E+06    -23.6777E+06     2.70754E+06    -296.931E-03     591.741E-03    -294.810E-03     140.427E-03    -300.775E-03     594.994E-03    -294.659E-03     112.421E-03
             717     5.36265E-03     136.897E-03    -81.6598E+06    -56.1727E+06    -3.72629E+06     2.59970E+06    -297.367E-03     592.172E-03    -294.805E-03     157.465E-03    -302.192E-03     596.519E-03    -294.624E-03     125.927E-03
             718     6.03357E-03     137.140E-03    -72.4840E+06    -23.0912E+06     13.4756E+06     2.29329E+06    -297.962E-03     592.755E-03    -294.792E-03     172.331E-03    -303.751E-03     598.165E-03    -294.586E-03     137.595E-03
             719     6.70390E-03     137.408E-03    -63.3651E+06    -10.6605E+06     25.3115E+06     2.51694E+06    -298.494E-03     593.287E-03    -294.792E-03     184.708E-03    -305.147E-03     599.603E-03    -294.559E-03     147.195E-03
             720     7.37466E-03     137.690E-03    -54.2157E+06     7.79665E+06     36.7754E+06      3.1932E+06    -298.786E-03     593.572E-03    -294.785E-03     194.275E-03    -306.189E-03     600.703E-03    -294.534E-03     154.483E-03
             721     8.04428E-03     137.986E-03    -46.0364E+06     20.6564E+06     47.4502E+06     3.20859E+06    -298.978E-03     593.762E-03    -294.784E-03     201.148E-03    -306.954E-03     601.509E-03    -294.510E-03     159.613E-03
             722     8.71542E-03     138.286E-03    -39.6563E+06     25.8008E+06     57.1467E+06     2.83615E+06    -298.943E-03     593.730E-03    -294.787E-03     205.573E-03    -307.319E-03     601.891E-03    -294.481E-03     162.763E-03
             723     9.38616E-03     138.595E-03    -33.6962E+06     33.1715E+06     67.3152E+06     2.06360E+06    -298.483E-03     593.261E-03    -294.778E-03     206.773E-03    -307.054E-03     601.635E-03    -294.440E-03     163.197E-03
             724     10.0572E-03     138.894E-03    -27.2284E+06     40.8365E+06     75.2096E+06     1.27040E+06    -298.076E-03     592.826E-03    -294.750E-03     204.299E-03    -306.600E-03     601.180E-03    -294.393E-03     160.459E-03
             725     10.7287E-03     139.190E-03    -20.5257E+06     47.8610E+06     79.8138E+06     626.193E+03    -297.920E-03     592.645E-03    -294.725E-03     198.571E-03    -306.181E-03     600.771E-03    -294.366E-03     154.947E-03
             726     11.3974E-03     139.473E-03    -14.6659E+06     51.8099E+06     79.5200E+06     323.302E+03    -297.038E-03     591.738E-03    -294.700E-03     184.498E-03    -304.458E-03     599.059E-03    -294.356E-03     142.789E-03
             727     12.0693E-03     139.722E-03    -9.56192E+06     58.3817E+06     82.1559E+06     553.988E+03    -295.687E-03     590.365E-03    -294.678E-03     173.424E-03    -302.580E-03     597.194E-03    -294.338E-03     132.800E-03
             728     12.7388E-03     139.966E-03    -4.45655E+06     61.6151E+06     85.6986E+06     253.913E+03    -293.568E-03     588.202E-03    -294.634E-03     129.504E-03    -298.209E-03     592.796E-03    -294.288E-03     97.1254E-03
             729     670.314E-06     137.646E-03    -133.067E+06    -237.997E+06    -129.314E+06     664.864E+03    -294.496E-03     589.291E-03    -294.796E-03     23.5461E-03    -294.737E-03     588.592E-03    -294.904E-03     18.9494E-03
             730     1.34084E-03     137.693E-03    -128.953E+06    -221.467E+06    -121.172E+06     779.037E+03    -294.918E-03     589.552E-03    -294.635E-03     42.5771E-03    -295.399E-03     589.141E-03    -294.732E-03     34.2599E-03
             731     2.01061E-03     137.774E-03    -124.034E+06    -199.293E+06    -107.325E+06     883.185E+03    -295.181E-03     589.864E-03    -294.683E-03     62.5968E-03    -296.064E-03     589.911E-03    -294.751E-03     50.2598E-03
             732     2.68090E-03     137.881E-03    -117.587E+06    -177.233E+06    -88.2546E+06     1.14416E+06    -295.535E-03     590.276E-03    -294.741E-03     82.8672E-03    -296.969E-03     590.920E-03    -294.755E-03     66.5010E-03
             733     3.35129E-03     138.021E-03    -109.687E+06    -150.322E+06    -67.1351E+06     1.64027E+06    -295.932E-03     590.718E-03    -294.786E-03     102.940E-03    -298.059E-03     592.117E-03    -294.744E-03     82.5794E-03
             734     4.02152E-03     138.188E-03    -100.630E+06    -123.199E+06    -45.3769E+06     2.35417E+06    -296.313E-03     591.124E-03    -294.811E-03     122.198E-03    -299.250E-03     593.398E-03    -294.714E-03     97.9545E-03
             735     4.69232E-03     138.384E-03    -91.2506E+06    -95.8161E+06    -24.6147E+06     2.64081E+06    -296.908E-03     591.733E-03    -294.824E-03     140.377E-03    -300.750E-03     594.981E-03    -294.676E-03     112.367E-03
             736     5.36274E-03     138.604E-03    -81.2839E+06    -57.1686E+06    -4.24693E+06     2.71288E+06    -297.580E-03     592.412E-03    -294.832E-03     157.063E-03    -302.392E-03     596.745E-03    -294.652E-03     125.513E-03
             737     6.03270E-03     138.851E-03    -71.6351E+06    -25.1142E+06     13.2540E+06     3.64800E+06    -298.138E-03     592.982E-03    -294.844E-03     172.012E-03    -303.916E-03     598.378E-03    -294.637E-03     137.262E-03
             738     6.70315E-03     139.115E-03    -63.6131E+06    -11.7372E+06     25.0360E+06     4.36822E+06    -298.572E-03     593.426E-03    -294.854E-03     184.626E-03    -305.227E-03     599.741E-03    -294.620E-03     147.112E-03
             739     7.37326E-03     139.399E-03    -56.9679E+06     7.25270E+06     35.9257E+06     3.89284E+06    -298.779E-03     593.623E-03    -294.844E-03     194.606E-03    -306.200E-03     600.764E-03    -294.592E-03     154.822E-03
             740     8.04487E-03     139.693E-03    -50.4772E+06     20.7287E+06     46.0200E+06     3.54664E+06    -298.835E-03     593.661E-03    -294.826E-03     201.724E-03    -306.845E-03     601.432E-03    -294.553E-03     160.199E-03
             741     8.71508E-03     139.996E-03    -42.9401E+06     26.7230E+06     56.3716E+06     3.02419E+06    -298.666E-03     593.473E-03    -294.807E-03     205.924E-03    -307.065E-03     601.651E-03    -294.502E-03     163.156E-03
             742     9.38648E-03     140.300E-03    -34.8295E+06     35.7781E+06     67.9513E+06     1.89969E+06    -298.493E-03     593.281E-03    -294.788E-03     206.523E-03    -307.064E-03     601.658E-03    -294.449E-03     162.960E-03
             743     10.0578E-03     140.603E-03    -27.0855E+06     41.9948E+06     76.3311E+06     861.461E+03    -298.457E-03     593.234E-03    -294.777E-03     203.926E-03    -306.973E-03     601.582E-03    -294.417E-03     160.034E-03
             744     10.7268E-03     140.899E-03    -20.3835E+06     47.6155E+06     80.3853E+06     835.951E+03    -297.548E-03     592.301E-03    -294.752E-03     198.603E-03    -305.796E-03     600.412E-03    -294.390E-03     155.087E-03
             745     11.3996E-03     141.181E-03    -14.7892E+06     51.7173E+06     79.7820E+06     1.08684E+06    -296.231E-03     590.916E-03    -294.684E-03     185.840E-03    -303.662E-03     598.246E-03    -294.339E-03     144.326E-03
             746     12.0693E-03     141.431E-03    -9.19804E+06     58.8151E+06     82.9776E+06     529.913E+03    -295.262E-03     589.882E-03    -294.621E-03     174.957E-03    -302.200E-03     596.756E-03    -294.278E-03     134.335E-03
             747     12.7425E-03     141.671E-03    -4.26136E+06     62.2174E+06     86.8689E+06     142.088E+03    -293.845E-03     588.417E-03    -294.572E-03     129.659E-03    -298.508E-03     593.034E-03    -294.222E-03     97.2103E-03
             748     670.492E-06     139.353E-03    -131.913E+06    -240.833E+06    -131.323E+06     573.071E+03    -295.191E-03     589.661E-03    -294.471E-03     22.9623E-03    -295.417E-03     588.947E-03    -294.587E-03     18.4642E-03
             749     1.33979E-03     139.403E-03    -129.834E+06    -222.657E+06    -122.912E+06     748.916E+03    -295.088E-03     589.898E-03    -294.810E-03     42.7091E-03    -295.572E-03     589.487E-03    -294.913E-03     34.3673E-03
             750     2.01030E-03     139.481E-03    -126.016E+06    -201.081E+06    -108.898E+06     953.550E+03    -295.184E-03     590.016E-03    -294.832E-03     63.1081E-03    -296.080E-03     590.067E-03    -294.902E-03     50.7214E-03
             751     2.68056E-03     139.590E-03    -119.579E+06    -179.300E+06    -89.6972E+06     1.32792E+06    -295.485E-03     590.328E-03    -294.843E-03     83.3933E-03    -296.931E-03     590.973E-03    -294.858E-03     66.9935E-03
             752     3.35081E-03     139.729E-03    -111.738E+06    -152.537E+06    -68.9055E+06     1.67901E+06    -295.849E-03     590.698E-03    -294.849E-03     103.107E-03    -297.983E-03     592.094E-03    -294.810E-03     82.7438E-03
             753     4.02163E-03     139.896E-03    -103.385E+06    -125.924E+06    -47.9520E+06     2.18651E+06    -296.408E-03     591.270E-03    -294.862E-03     121.923E-03    -299.346E-03     593.534E-03    -294.770E-03     97.6714E-03
             754     4.69187E-03     140.091E-03    -94.7467E+06    -96.3782E+06    -27.7532E+06     2.23303E+06    -297.036E-03     591.920E-03    -294.884E-03     139.927E-03    -300.879E-03     595.166E-03    -294.746E-03     111.914E-03
             755     5.36186E-03     140.314E-03    -86.3132E+06    -59.3710E+06    -8.08841E+06     2.36919E+06    -297.572E-03     592.469E-03    -294.897E-03     156.946E-03    -302.398E-03     596.801E-03    -294.726E-03     125.392E-03
             756     6.03257E-03     140.558E-03    -78.0807E+06    -30.8414E+06     8.70009E+06     3.56506E+06    -297.999E-03     592.897E-03    -294.898E-03     172.191E-03    -303.795E-03     598.281E-03    -294.696E-03     137.463E-03
             757     6.70307E-03     140.825E-03    -69.4657E+06    -13.0588E+06     21.2942E+06     4.65929E+06    -298.360E-03     593.240E-03    -294.879E-03     185.012E-03    -305.040E-03     599.565E-03    -294.653E-03     147.535E-03
             758     7.37414E-03     141.107E-03    -60.6301E+06     7.38170E+06     33.4923E+06     4.83943E+06    -298.719E-03     593.571E-03    -294.852E-03     194.949E-03    -306.162E-03     600.728E-03    -294.607E-03     155.180E-03
             759     8.04407E-03     141.402E-03    -51.4385E+06     23.6400E+06     46.2064E+06     3.17518E+06    -298.813E-03     593.647E-03    -294.834E-03     201.579E-03    -306.835E-03     601.436E-03    -294.563E-03     160.032E-03
             760     8.71565E-03     141.703E-03    -42.1067E+06     29.2287E+06     58.0310E+06     643.624E+03    -298.789E-03     593.618E-03    -294.829E-03     205.288E-03    -307.173E-03     601.787E-03    -294.520E-03     162.476E-03
             761     9.38625E-03     142.008E-03    -33.5569E+06     34.3961E+06     68.7784E+06     519.048E+03    -298.843E-03     593.672E-03    -294.830E-03     206.291E-03    -307.399E-03     602.032E-03    -294.487E-03     162.658E-03
             762     10.0555E-03     142.312E-03    -26.4557E+06     42.3145E+06     76.9406E+06     1.48278E+06    -298.119E-03     592.935E-03    -294.816E-03     204.070E-03    -306.637E-03     601.286E-03    -294.454E-03     160.223E-03
             763     10.7282E-03     142.606E-03    -20.3125E+06     47.2637E+06     80.7220E+06     1.39328E+06    -296.899E-03     591.657E-03    -294.758E-03     198.354E-03    -305.137E-03     599.756E-03    -294.394E-03     154.933E-03
             764     11.3990E-03     142.886E-03    -14.3347E+06     51.7846E+06     80.1747E+06     1.38261E+06    -295.725E-03     590.384E-03    -294.659E-03     184.628E-03    -303.119E-03     597.678E-03    -294.313E-03     143.213E-03
             765     12.0726E-03     143.139E-03    -9.60089E+06     59.6917E+06     82.4788E+06     1.12129E+06    -294.916E-03     589.494E-03    -294.578E-03     172.807E-03    -301.785E-03     596.301E-03    -294.238E-03     132.356E-03
             766     12.7418E-03     143.378E-03    -4.68315E+06     63.2163E+06     86.5174E+06     396.115E+03    -294.294E-03     588.836E-03    -294.543E-03     127.813E-03    -298.903E-03     593.402E-03    -294.195E-03     95.4656E-03
             767     669.556E-06     141.063E-03    -137.105E+06    -242.518E+06    -134.506E+06     340.940E+03    -295.311E-03     590.019E-03    -294.708E-03     23.4871E-03    -295.558E-03     589.311E-03    -294.830E-03     18.9661E-03
             768     1.34044E-03     141.111E-03    -133.392E+06    -223.643E+06    -125.299E+06     263.681E+03    -294.910E-03     589.833E-03    -294.923E-03     42.7420E-03    -295.408E-03     589.428E-03    -295.032E-03     34.3508E-03
             769     2.01051E-03     141.190E-03    -128.102E+06    -203.703E+06    -109.584E+06     918.570E+03    -295.155E-03     590.028E-03    -294.873E-03     63.2399E-03    -296.060E-03     590.073E-03    -294.940E-03     50.8162E-03
             770     2.68068E-03     141.299E-03    -121.272E+06    -181.460E+06    -90.4542E+06     1.65394E+06    -295.540E-03     590.416E-03    -294.876E-03     83.3386E-03    -296.990E-03     591.054E-03    -294.889E-03     66.9335E-03
             771     3.35119E-03     141.437E-03    -113.469E+06    -155.329E+06    -70.1649E+06     2.36544E+06    -296.062E-03     590.963E-03    -294.901E-03     103.013E-03    -298.198E-03     592.348E-03    -294.862E-03     82.6523E-03
             772     4.02091E-03     141.605E-03    -104.906E+06    -128.536E+06    -49.2070E+06     3.03195E+06    -296.620E-03     591.561E-03    -294.942E-03     122.040E-03    -299.565E-03     593.821E-03    -294.849E-03     97.7638E-03
             773     4.69089E-03     141.800E-03    -95.9746E+06    -98.5543E+06    -28.3886E+06     3.98990E+06    -297.017E-03     591.984E-03    -294.967E-03     140.278E-03    -300.873E-03     595.231E-03    -294.827E-03     112.266E-03
             774     5.36185E-03     142.022E-03    -86.9448E+06    -61.5063E+06    -8.37366E+06     5.08664E+06    -297.396E-03     592.350E-03    -294.954E-03     157.346E-03    -302.228E-03     596.680E-03    -294.781E-03     125.843E-03
             775     6.03217E-03     142.268E-03    -77.1440E+06    -31.9603E+06     9.29120E+06     4.77126E+06    -297.882E-03     592.811E-03    -294.928E-03     172.317E-03    -303.671E-03     598.185E-03    -294.724E-03     137.634E-03
             776     6.70308E-03     142.532E-03    -66.5338E+06    -14.9525E+06     22.9294E+06     3.78666E+06    -298.403E-03     593.308E-03    -294.906E-03     184.751E-03    -305.058E-03     599.608E-03    -294.673E-03     147.278E-03
             777     7.37357E-03     142.816E-03    -55.7899E+06     5.77248E+06     35.9648E+06     3.61996E+06    -298.715E-03     593.596E-03    -294.881E-03     194.418E-03    -306.117E-03     600.717E-03    -294.629E-03     154.662E-03
             778     8.04468E-03     143.110E-03    -46.4639E+06     27.8324E+06     49.0301E+06     3.19159E+06    -298.927E-03     593.789E-03    -294.863E-03     201.138E-03    -306.914E-03     601.568E-03    -294.590E-03     159.609E-03
             779     8.71456E-03     143.411E-03    -39.4481E+06     33.5715E+06     59.6510E+06     2.27364E+06    -299.109E-03     593.978E-03    -294.870E-03     205.225E-03    -307.490E-03     602.166E-03    -294.563E-03     162.366E-03
             780     9.38484E-03     143.717E-03    -33.5943E+06     32.7259E+06     68.9254E+06     1.63114E+06    -298.630E-03     593.507E-03    -294.877E-03     206.476E-03    -307.196E-03     601.870E-03    -294.531E-03     162.853E-03
             781     10.0572E-03     144.020E-03    -27.2207E+06     40.1650E+06     76.9678E+06     2.06302E+06    -297.665E-03     592.506E-03    -294.841E-03     203.682E-03    -306.176E-03     600.839E-03    -294.474E-03     159.894E-03
             782     10.7277E-03     144.311E-03    -20.9177E+06     48.6167E+06     81.4026E+06     2.35107E+06    -297.009E-03     591.782E-03    -294.774E-03     197.701E-03    -305.253E-03     599.889E-03    -294.407E-03     154.208E-03
             783     11.3989E-03     144.595E-03    -15.5174E+06     52.8804E+06     80.3996E+06     1.09174E+06    -296.124E-03     590.820E-03    -294.695E-03     183.772E-03    -303.532E-03     598.127E-03    -294.348E-03     142.190E-03
             784     12.0684E-03     144.840E-03    -9.67672E+06     59.9007E+06     83.2147E+06     593.418E+03    -295.040E-03     589.674E-03    -294.634E-03     172.443E-03    -301.897E-03     596.468E-03    -294.291E-03     131.982E-03
             785     12.7413E-03     145.089E-03    -4.27045E+06     64.2914E+06     87.2320E+06     885.463E+03    -293.550E-03     588.129E-03    -294.578E-03     128.223E-03    -298.153E-03     592.691E-03    -294.229E-03     95.9919E-03
             786     670.144E-06     142.772E-03    -135.606E+06    -243.138E+06    -135.025E+06    -341.842E+03    -295.161E-03     589.850E-03    -294.690E-03     23.4088E-03    -295.398E-03     589.140E-03    -294.816E-03     18.8213E-03
             787     1.33977E-03     142.819E-03    -133.412E+06    -225.494E+06    -126.015E+06     471.129E+03    -294.993E-03     589.861E-03    -294.868E-03     42.9429E-03    -295.489E-03     589.448E-03    -294.978E-03     34.5457E-03
             788     2.01017E-03     142.899E-03    -128.919E+06    -206.994E+06    -110.814E+06     1.17577E+06    -295.346E-03     590.225E-03    -294.879E-03     63.3744E-03    -296.246E-03     590.254E-03    -294.946E-03     50.9760E-03
             789     2.68051E-03     143.007E-03    -122.372E+06      -184.5E+06    -91.6136E+06     2.11847E+06    -295.772E-03     590.706E-03    -294.934E-03     83.1459E-03    -297.218E-03     591.329E-03    -294.947E-03     66.7525E-03
             790     3.35032E-03     143.146E-03    -114.231E+06    -158.478E+06    -70.5927E+06     2.58131E+06    -296.102E-03     591.084E-03    -294.982E-03     102.966E-03    -298.237E-03     592.455E-03    -294.939E-03     82.5988E-03
             791     4.02079E-03     143.314E-03    -104.943E+06    -131.946E+06    -49.0704E+06     3.30122E+06    -296.419E-03     591.417E-03    -294.998E-03     122.272E-03    -299.364E-03     593.664E-03    -294.900E-03     98.0069E-03
             792     4.69161E-03     143.509E-03    -94.8898E+06    -102.203E+06    -28.0165E+06     4.13896E+06    -296.955E-03     591.947E-03    -294.992E-03     140.546E-03    -300.805E-03     595.179E-03    -294.846E-03     112.534E-03
             793     5.36156E-03     143.731E-03    -83.8016E+06    -64.7902E+06    -7.35653E+06     4.37033E+06    -297.556E-03     592.535E-03    -294.979E-03     157.281E-03    -302.369E-03     596.841E-03    -294.800E-03     125.750E-03
             794     6.03260E-03     143.975E-03    -73.0743E+06    -31.7353E+06     11.3991E+06     4.45271E+06    -298.101E-03     593.074E-03    -294.973E-03     171.900E-03    -303.868E-03     598.435E-03    -294.764E-03     137.171E-03
             795     6.70273E-03     144.243E-03    -64.2511E+06    -13.9161E+06     24.6195E+06     3.80924E+06    -298.571E-03     593.541E-03    -294.970E-03     184.243E-03    -305.211E-03     599.832E-03    -294.733E-03     146.733E-03
             796     7.37303E-03     144.524E-03    -56.8623E+06     6.36775E+06     36.2130E+06     2.26564E+06    -298.738E-03     593.692E-03    -294.954E-03     193.882E-03    -306.134E-03     600.803E-03    -294.699E-03     154.101E-03
             797     8.04366E-03     144.818E-03    -49.7620E+06     25.2881E+06     48.0642E+06     2.51375E+06    -298.866E-03     593.801E-03    -294.934E-03     200.828E-03    -306.848E-03     601.556E-03    -294.658E-03     159.321E-03
             798     8.71460E-03     145.121E-03    -42.5433E+06     33.6410E+06     59.5212E+06     3.80581E+06    -298.853E-03     593.780E-03    -294.927E-03     205.023E-03    -307.239E-03     601.962E-03    -294.617E-03     162.238E-03
             799     9.38554E-03     145.425E-03    -35.2472E+06     35.7609E+06     69.6517E+06     3.19513E+06    -298.332E-03     593.246E-03    -294.914E-03     205.813E-03    -306.897E-03     601.610E-03    -294.566E-03     162.247E-03
             800     10.0558E-03     145.726E-03    -28.2002E+06     38.8604E+06     77.0641E+06     2.02324E+06    -297.647E-03     592.519E-03    -294.871E-03     203.202E-03    -306.148E-03     600.833E-03    -294.502E-03     159.424E-03
             801     10.7270E-03     146.021E-03    -21.1559E+06     47.9786E+06      81.903E+06     2.00954E+06    -297.008E-03     591.811E-03    -294.803E-03     197.942E-03    -305.250E-03     599.911E-03    -294.432E-03     154.481E-03
             802     11.3981E-03     146.300E-03    -14.6708E+06     55.2457E+06     82.0424E+06     2.19302E+06    -295.895E-03     590.607E-03    -294.712E-03     184.781E-03    -303.324E-03     597.941E-03    -294.360E-03     143.256E-03
             803     12.0703E-03     146.552E-03    -9.78446E+06     61.9621E+06     84.5737E+06     1.35816E+06    -294.812E-03     589.439E-03    -294.627E-03     174.743E-03    -301.728E-03     596.295E-03    -294.280E-03     134.310E-03
             804     12.7406E-03     146.790E-03    -4.99252E+06     64.3952E+06     88.3711E+06     231.943E+03    -293.448E-03     588.003E-03    -294.555E-03     130.042E-03    -298.103E-03     592.612E-03    -294.199E-03     97.7380E-03
             805     670.250E-06     144.481E-03    -138.088E+06    -244.514E+06    -135.227E+06     426.740E+03    -294.619E-03     589.592E-03    -294.973E-03     23.1157E-03    -294.867E-03     588.878E-03    -295.094E-03     18.5316E-03
             806     1.34080E-03     144.528E-03    -134.962E+06    -229.191E+06    -126.840E+06     1.07973E+06    -295.276E-03     590.106E-03    -294.830E-03     42.6849E-03    -295.770E-03     589.675E-03    -294.936E-03     34.3183E-03
             807     2.01061E-03     144.608E-03    -130.054E+06    -209.501E+06    -111.603E+06     1.61657E+06    -295.520E-03     590.462E-03    -294.943E-03     63.0256E-03    -296.417E-03     590.478E-03    -295.008E-03     50.6619E-03
             808     2.68011E-03     144.717E-03    -123.163E+06    -187.419E+06    -92.3615E+06     1.87698E+06    -295.724E-03     590.726E-03    -295.002E-03     83.3579E-03    -297.173E-03     591.340E-03    -295.014E-03     66.9467E-03
             809     3.35036E-03     144.855E-03    -114.944E+06    -160.793E+06    -70.9894E+06     2.49720E+06    -296.017E-03     591.038E-03    -295.022E-03     103.232E-03    -298.157E-03     592.405E-03    -294.977E-03     82.8409E-03
             810     4.02090E-03     145.022E-03    -105.733E+06    -134.398E+06    -49.5594E+06     2.38963E+06    -296.518E-03     591.548E-03    -295.030E-03     122.203E-03    -299.461E-03     593.783E-03    -294.930E-03     97.9111E-03
             811     4.69103E-03     145.218E-03    -96.0521E+06    -105.087E+06    -29.2691E+06     2.19489E+06    -297.164E-03     592.207E-03    -295.044E-03     139.929E-03    -301.001E-03     595.416E-03    -294.898E-03     111.879E-03
             812     5.36181E-03     145.439E-03    -87.2938E+06    -67.7081E+06    -9.69257E+06     2.77504E+06    -297.772E-03     592.830E-03    -295.058E-03     156.505E-03    -302.579E-03     597.115E-03    -294.882E-03     124.931E-03
             813     6.03121E-03     145.685E-03    -79.3839E+06    -35.3804E+06     7.60652E+06     3.77697E+06    -298.219E-03     593.288E-03    -295.070E-03     171.339E-03    -303.996E-03     598.636E-03    -294.865E-03     136.574E-03
             814     6.70171E-03     145.950E-03    -71.2290E+06    -10.5680E+06     21.5281E+06     3.26747E+06    -298.436E-03     593.495E-03    -295.059E-03     183.939E-03    -305.104E-03     599.810E-03    -294.833E-03     146.422E-03
             815     7.37251E-03     146.233E-03    -62.6517E+06     9.09492E+06     33.6455E+06     1.63949E+06    -298.789E-03     593.826E-03    -295.036E-03     193.879E-03    -306.216E-03     600.965E-03    -294.791E-03     154.048E-03
             816     8.04284E-03     146.527E-03    -53.9114E+06     20.5835E+06     45.2579E+06     1.49106E+06    -298.858E-03     593.880E-03    -295.022E-03     200.673E-03    -306.855E-03     601.628E-03    -294.748E-03     159.103E-03
             817     8.71354E-03     146.829E-03    -44.9993E+06     30.7804E+06     58.0479E+06     2.05362E+06    -298.435E-03     593.433E-03    -294.998E-03     204.618E-03    -306.810E-03     601.589E-03    -294.687E-03     161.884E-03
             818     9.38451E-03     147.133E-03    -36.2793E+06     36.5292E+06     69.5501E+06     2.23960E+06    -297.977E-03     592.930E-03    -294.954E-03     205.509E-03    -306.520E-03     601.273E-03    -294.606E-03     162.048E-03
             819     10.0560E-03     147.434E-03    -28.5323E+06     40.1484E+06     77.3092E+06     1.84233E+06    -297.474E-03     592.364E-03    -294.890E-03     203.547E-03    -305.978E-03     600.685E-03    -294.520E-03     159.815E-03
             820     10.7276E-03     147.726E-03    -21.7912E+06     47.2603E+06     81.8133E+06     1.10303E+06    -296.667E-03     591.470E-03    -294.803E-03     198.264E-03    -304.911E-03     599.567E-03    -294.431E-03     154.865E-03
             821     11.3990E-03     148.009E-03    -15.4177E+06     54.1495E+06     81.9095E+06     1.29090E+06    -295.440E-03     590.128E-03    -294.688E-03     184.306E-03    -302.850E-03     597.438E-03    -294.335E-03     142.866E-03
             822     12.0713E-03     148.253E-03    -9.17796E+06     64.3002E+06     85.9155E+06     1.94941E+06    -294.670E-03     589.265E-03    -294.595E-03     173.131E-03    -301.553E-03     596.095E-03    -294.245E-03     132.724E-03
             823     12.7443E-03     148.503E-03    -4.39211E+06     66.8613E+06     89.9387E+06     902.781E+03    -294.030E-03     588.575E-03    -294.546E-03     127.756E-03    -298.636E-03     593.142E-03    -294.186E-03     95.5170E-03
             824     670.248E-06     146.187E-03    -137.772E+06    -248.149E+06    -136.661E+06     1.22383E+06    -295.020E-03     590.083E-03    -295.063E-03     22.9822E-03    -295.259E-03     589.352E-03    -295.187E-03     18.4277E-03
             825     1.33962E-03     146.239E-03    -135.434E+06    -232.631E+06    -126.275E+06     1.72715E+06    -295.238E-03     590.262E-03    -295.024E-03     42.6626E-03    -295.730E-03     589.813E-03    -295.122E-03     34.3065E-03
             826     2.00930E-03     146.316E-03    -130.314E+06    -212.466E+06    -111.310E+06     2.24509E+06    -295.398E-03     590.440E-03    -295.041E-03     63.1526E-03    -296.296E-03     590.444E-03    -295.101E-03     50.7698E-03
             827     2.68030E-03     146.426E-03    -123.838E+06    -189.384E+06    -92.0954E+06     2.74148E+06    -295.703E-03     590.759E-03    -295.056E-03     83.3321E-03    -297.154E-03     591.365E-03    -295.062E-03     66.9149E-03
             828     3.35071E-03     146.564E-03    -115.898E+06    -162.545E+06    -71.3009E+06     2.64941E+06    -296.231E-03     591.316E-03    -295.085E-03     102.567E-03    -298.364E-03     592.667E-03    -295.037E-03     82.1690E-03
             829     4.02055E-03     146.732E-03    -107.420E+06    -135.775E+06    -50.5174E+06     2.67135E+06    -296.835E-03     591.968E-03    -295.133E-03     121.599E-03    -299.773E-03     594.189E-03    -295.033E-03     97.2957E-03
             830     4.69046E-03     146.928E-03    -99.1989E+06    -108.039E+06    -30.5475E+06     3.53931E+06    -297.410E-03     592.591E-03    -295.181E-03     139.672E-03    -301.254E-03     595.788E-03    -295.033E-03     111.609E-03
             831     5.35990E-03     147.149E-03    -90.8005E+06    -71.5481E+06    -11.3138E+06     5.26206E+06    -297.794E-03     592.994E-03    -295.200E-03     156.479E-03    -302.614E-03     597.270E-03    -295.021E-03     124.914E-03
             832     6.03089E-03     147.395E-03    -81.3886E+06    -35.4046E+06     6.91311E+06     5.07764E+06    -298.081E-03     593.268E-03    -295.187E-03     171.471E-03    -303.868E-03     598.620E-03    -294.983E-03     136.738E-03
             833     6.70129E-03     147.659E-03    -70.9227E+06    -6.16343E+06     23.3139E+06     2.90727E+06    -298.506E-03     593.669E-03    -295.162E-03     183.959E-03    -305.181E-03     600.003E-03    -294.934E-03     146.418E-03
             834     7.37175E-03     147.942E-03    -60.9264E+06     10.2924E+06     35.8339E+06     1.70786E+06    -298.721E-03     593.857E-03    -295.136E-03     193.795E-03    -306.139E-03     600.992E-03    -294.883E-03     153.978E-03
             835     8.04222E-03     148.237E-03    -51.9585E+06     19.5075E+06     46.2734E+06     1.31187E+06    -298.642E-03     593.741E-03    -295.099E-03     200.673E-03    -306.625E-03     601.474E-03    -294.820E-03     159.147E-03
             836     8.71306E-03     148.536E-03    -43.8724E+06     28.9148E+06     57.7355E+06     1.34982E+06    -298.324E-03     593.374E-03    -295.050E-03     204.770E-03    -306.692E-03     601.521E-03    -294.740E-03     162.042E-03
             837     9.38454E-03     148.841E-03    -36.2787E+06     35.6510E+06     69.0129E+06     1.49409E+06    -297.841E-03     592.833E-03    -294.992E-03     205.415E-03    -306.377E-03     601.166E-03    -294.646E-03     161.967E-03
             838     10.0563E-03     149.139E-03    -28.8341E+06     41.6822E+06     77.5976E+06     955.327E+03    -297.367E-03     592.289E-03    -294.922E-03     202.613E-03    -305.851E-03     600.594E-03    -294.553E-03     158.877E-03
             839     10.7271E-03     149.435E-03    -21.7756E+06     47.0835E+06     81.7880E+06     822.966E+03    -296.526E-03     591.364E-03    -294.838E-03     196.362E-03    -304.727E-03     599.418E-03    -294.465E-03     152.957E-03
             840     11.3994E-03     149.711E-03    -15.3564E+06     54.1210E+06     82.1775E+06     800.029E+03    -295.963E-03     590.710E-03    -294.747E-03     182.324E-03    -303.325E-03     597.972E-03    -294.393E-03     140.823E-03
             841     12.0695E-03     149.965E-03    -10.2944E+06     62.9719E+06     84.9633E+06     559.151E+03    -295.401E-03     590.100E-03    -294.698E-03     170.598E-03    -302.244E-03     596.883E-03    -294.350E-03     130.019E-03
             842     12.7388E-03     150.203E-03    -5.12830E+06     67.2254E+06     88.5238E+06     921.751E+03    -292.782E-03     587.421E-03    -294.639E-03     126.146E-03    -297.366E-03     591.968E-03    -294.286E-03     93.9499E-03
             843     669.279E-06     147.899E-03    -139.505E+06    -252.611E+06    -136.421E+06     588.590E+03    -295.484E-03     590.444E-03    -294.960E-03     23.4210E-03    -295.727E-03     589.693E-03    -295.074E-03     18.8471E-03
             844     1.33988E-03     147.947E-03    -135.454E+06    -237.176E+06    -127.468E+06     2.11729E+06    -295.187E-03     590.337E-03    -295.151E-03     42.9566E-03    -295.673E-03     589.871E-03    -295.248E-03     34.5783E-03
             845     2.01082E-03     148.026E-03    -130.581E+06    -216.118E+06    -111.771E+06     2.91239E+06    -295.528E-03     590.659E-03    -295.131E-03     63.0088E-03    -296.420E-03     590.644E-03    -295.187E-03     50.6280E-03
             846     2.67993E-03     148.135E-03    -123.197E+06    -192.816E+06    -92.3022E+06     3.15834E+06    -296.052E-03     591.234E-03    -295.183E-03     82.8429E-03    -297.487E-03     591.816E-03    -295.186E-03     66.4338E-03
             847     3.34938E-03     148.274E-03    -114.936E+06    -165.667E+06    -71.0401E+06     4.11055E+06    -296.497E-03     591.750E-03    -295.253E-03     102.434E-03    -298.621E-03     593.083E-03    -295.201E-03     82.0321E-03
             848     4.01934E-03     148.442E-03    -106.469E+06    -138.129E+06    -49.3645E+06     5.18873E+06    -296.947E-03     592.256E-03    -295.309E-03     121.570E-03    -299.879E-03     594.464E-03    -295.202E-03     97.2769E-03
             849     4.68962E-03     148.637E-03    -96.9249E+06    -112.408E+06    -28.3422E+06     6.23323E+06    -297.354E-03     592.697E-03    -295.342E-03     139.791E-03    -301.187E-03     595.869E-03    -295.180E-03     111.752E-03
             850     5.36019E-03     148.859E-03    -86.3712E+06    -75.3694E+06    -8.41823E+06     6.62053E+06    -297.742E-03     593.074E-03    -295.331E-03     156.489E-03    -302.537E-03     597.319E-03    -295.139E-03     124.942E-03
             851     6.03017E-03     149.102E-03    -75.5894E+06    -32.2394E+06     11.2621E+06     5.79458E+06    -298.182E-03     593.483E-03    -295.301E-03     171.289E-03    -303.948E-03     598.834E-03    -295.089E-03     136.539E-03
             852     6.70066E-03     149.370E-03    -66.3171E+06    -3.44975E+06     27.5452E+06     4.90439E+06    -298.520E-03     593.795E-03    -295.275E-03     183.712E-03    -305.175E-03     600.122E-03    -295.036E-03     146.195E-03
             853     7.37064E-03     149.651E-03    -58.4323E+06     13.0211E+06     39.1824E+06     3.67946E+06    -298.542E-03     593.774E-03    -295.233E-03     193.492E-03    -305.947E-03     600.905E-03    -294.971E-03     153.733E-03
             854     8.04214E-03     149.943E-03    -50.8820E+06     21.3202E+06     48.9221E+06     2.26526E+06    -298.482E-03     593.659E-03    -295.177E-03     200.217E-03    -306.447E-03     601.377E-03    -294.889E-03     158.751E-03
             855     8.71319E-03     150.245E-03    -43.1943E+06     27.6735E+06     59.6738E+06     1.92687E+06    -298.394E-03     593.522E-03    -295.128E-03     203.484E-03    -306.722E-03     601.622E-03    -294.807E-03     160.781E-03
             856     9.38414E-03     150.546E-03    -35.6344E+06     36.0138E+06     70.9793E+06     2.06753E+06    -298.138E-03     593.226E-03    -295.088E-03     203.991E-03    -306.643E-03     601.527E-03    -294.734E-03     160.495E-03
             857     10.0542E-03     150.849E-03    -28.8515E+06     43.6297E+06     79.2578E+06     1.79397E+06    -297.486E-03     592.523E-03    -295.037E-03     201.225E-03    -305.941E-03     600.801E-03    -294.663E-03     157.495E-03
             858     10.7261E-03     151.138E-03    -22.5745E+06     48.1750E+06     82.6755E+06     651.435E+03    -296.861E-03     591.830E-03    -294.969E-03     195.171E-03    -305.038E-03     599.858E-03    -294.593E-03     151.736E-03
             859     11.3960E-03     151.421E-03    -16.8996E+06     53.3526E+06     81.1252E+06     384.361E+03    -295.931E-03     590.810E-03    -294.879E-03     182.588E-03    -303.302E-03     598.075E-03    -294.526E-03     141.078E-03
             860     12.0665E-03     151.671E-03    -10.9781E+06     62.6252E+06     83.9267E+06     294.688E+03    -294.008E-03     588.781E-03    -294.773E-03     173.367E-03    -300.916E-03     595.629E-03    -294.428E-03     132.927E-03
             861     12.7387E-03     151.912E-03    -4.79913E+06     67.1571E+06     88.5871E+06    -132.025E+03    -291.611E-03     586.242E-03    -294.631E-03     129.473E-03    -296.279E-03     590.874E-03    -294.279E-03     97.2241E-03
             862     670.510E-06     149.609E-03    -136.962E+06    -256.943E+06    -135.190E+06     1.06459E+06    -295.638E-03     590.585E-03    -294.948E-03     23.2597E-03    -295.861E-03     589.804E-03    -295.052E-03     18.7111E-03
             863     1.33986E-03     149.656E-03    -134.800E+06    -242.538E+06    -126.529E+06     1.57399E+06    -295.606E-03     590.903E-03    -295.296E-03     42.2485E-03    -296.078E-03     590.402E-03    -295.382E-03     33.9037E-03
             864     2.00873E-03     149.736E-03    -128.749E+06    -219.704E+06    -112.310E+06     2.13364E+06    -295.826E-03     591.176E-03    -295.350E-03     62.6842E-03    -296.699E-03     591.138E-03    -295.406E-03     50.2941E-03
             865     2.67907E-03     149.845E-03    -122.439E+06    -197.910E+06    -92.9184E+06     3.38283E+06    -296.076E-03     591.469E-03    -295.393E-03     82.8524E-03    -297.500E-03     592.025E-03    -295.393E-03     66.4400E-03
             866     3.34939E-03     149.984E-03     -114.68E+06    -170.862E+06    -71.4492E+06     4.79881E+06    -296.507E-03     591.929E-03    -295.422E-03     102.763E-03    -298.625E-03     593.240E-03    -295.365E-03     82.3567E-03
             867     4.01928E-03     150.152E-03    -105.313E+06    -142.852E+06    -49.1121E+06     5.86839E+06    -297.007E-03     592.459E-03    -295.452E-03     121.839E-03    -299.936E-03     594.650E-03    -295.338E-03     97.5072E-03
             868     4.68899E-03     150.347E-03    -95.4615E+06    -115.502E+06    -28.0177E+06     5.95519E+06    -297.433E-03     592.905E-03    -295.471E-03     139.737E-03    -301.258E-03     596.061E-03    -295.305E-03     111.654E-03
             869     5.35916E-03     150.568E-03    -85.7444E+06    -77.0322E+06    -7.51603E+06     5.40997E+06    -297.903E-03     593.367E-03    -295.464E-03     156.154E-03    -302.690E-03     597.597E-03    -295.265E-03     124.552E-03
             870     6.02947E-03     150.814E-03    -76.8098E+06    -35.0095E+06     11.7560E+06     6.13310E+06    -298.282E-03     593.724E-03    -295.442E-03     170.886E-03    -304.046E-03     599.057E-03    -295.221E-03     136.099E-03
             871     6.69941E-03     151.079E-03    -68.2682E+06    -3.18903E+06     27.6590E+06     6.85470E+06    -298.420E-03     593.824E-03    -295.404E-03     183.207E-03    -305.079E-03     600.149E-03    -295.162E-03     145.693E-03
             872     7.37103E-03     151.359E-03    -59.9224E+06     17.1693E+06     40.1974E+06     5.93279E+06    -298.685E-03     594.045E-03    -295.360E-03     192.407E-03    -306.082E-03     601.174E-03    -295.097E-03     152.639E-03
             873     8.04081E-03     151.653E-03    -52.1303E+06     25.2690E+06     50.6813E+06     4.16494E+06    -298.765E-03     594.097E-03    -295.332E-03     198.399E-03    -306.700E-03     601.790E-03    -295.040E-03     156.916E-03
             874     8.71142E-03     151.952E-03    -44.6505E+06     28.8578E+06     61.3384E+06     2.39838E+06    -298.560E-03     593.871E-03    -295.312E-03     201.904E-03    -306.861E-03     601.938E-03    -294.982E-03     159.175E-03
             875     9.38155E-03     152.256E-03    -37.0555E+06     35.0913E+06     72.1310E+06     1.82152E+06    -298.051E-03     593.328E-03    -295.277E-03     202.702E-03    -306.525E-03     601.586E-03    -294.914E-03     159.238E-03
             876     10.0533E-03     152.554E-03    -29.1936E+06     43.2860E+06     80.7417E+06     2.13134E+06    -297.176E-03     592.384E-03    -295.208E-03     200.532E-03    -305.594E-03     600.618E-03    -294.825E-03     156.935E-03
             877     10.7236E-03     152.848E-03    -22.2229E+06     50.0836E+06     84.8394E+06     2.33620E+06    -296.250E-03     591.347E-03    -295.097E-03     196.292E-03    -304.432E-03     599.382E-03    -294.713E-03     153.046E-03
             878     11.3951E-03     153.127E-03    -16.1043E+06     55.3945E+06     83.9736E+06     857.616E+03    -294.630E-03     589.564E-03    -294.934E-03     184.399E-03    -302.046E-03     596.876E-03    -294.571E-03     143.045E-03
             879     12.0696E-03     153.374E-03    -9.75914E+06     63.0669E+06     86.8521E+06    -828.596E+03    -292.638E-03     587.388E-03    -294.750E-03     172.476E-03    -299.520E-03     594.207E-03    -294.393E-03     132.211E-03
             880     12.7461E-03     153.611E-03    -5.02582E+06     66.9370E+06     90.4374E+06    -841.425E+03    -291.867E-03     586.451E-03    -294.584E-03     126.801E-03    -296.473E-03     591.015E-03    -294.222E-03     94.6411E-03
             881     669.163E-06     151.319E-03    -138.839E+06    -260.219E+06    -135.701E+06     130.076E+03    -295.351E-03     591.042E-03    -295.692E-03     22.9425E-03    -295.579E-03     590.248E-03    -295.791E-03     18.3955E-03
             882     1.33900E-03     151.368E-03    -134.392E+06    -246.310E+06    -126.968E+06     865.741E+03    -295.817E-03     591.336E-03    -295.519E-03     42.8094E-03    -296.285E-03     590.821E-03    -295.602E-03     34.3948E-03
             883     2.00926E-03     151.447E-03    -130.318E+06    -225.248E+06    -112.761E+06     2.62098E+06    -295.942E-03     591.497E-03    -295.555E-03     63.1517E-03    -296.821E-03     591.440E-03    -295.603E-03     50.7086E-03
             884     2.67893E-03     151.555E-03    -123.992E+06    -202.270E+06    -93.3495E+06     3.77311E+06    -296.201E-03     591.774E-03    -295.573E-03     83.1039E-03    -297.632E-03     592.318E-03    -295.567E-03     66.6348E-03
             885     3.34853E-03     151.695E-03    -115.851E+06    -175.299E+06    -72.3564E+06     4.05986E+06    -296.634E-03     592.224E-03    -295.591E-03     102.524E-03    -298.748E-03     593.515E-03    -295.530E-03     82.0715E-03
             886     4.01851E-03     151.862E-03    -106.740E+06    -148.188E+06    -51.0826E+06     4.81869E+06    -297.086E-03     592.698E-03    -295.613E-03     121.278E-03    -300.002E-03     594.858E-03    -295.499E-03     96.9239E-03
             887     4.68873E-03     152.058E-03    -97.5621E+06    -117.592E+06    -30.0942E+06     5.47710E+06    -297.657E-03     593.290E-03    -295.633E-03     139.128E-03    -301.478E-03     596.434E-03    -295.471E-03     111.001E-03
             888     5.35838E-03     152.279E-03    -88.5315E+06    -79.9861E+06    -9.40540E+06      6.1482E+06    -298.137E-03     593.782E-03    -295.645E-03     155.692E-03    -302.931E-03     598.005E-03    -295.448E-03     124.018E-03
             889     6.02818E-03     152.524E-03    -79.1238E+06    -39.8476E+06     10.5456E+06     7.04702E+06    -298.429E-03     594.068E-03    -295.639E-03     170.021E-03    -304.181E-03     599.368E-03    -295.414E-03     135.199E-03
             890     6.69916E-03     152.788E-03    -69.1309E+06    -4.44105E+06     28.0143E+06     7.26842E+06    -298.835E-03     594.460E-03    -295.625E-03     181.752E-03    -305.467E-03     600.749E-03    -295.378E-03     144.180E-03
             891     7.36806E-03     153.070E-03    -59.4143E+06     17.7071E+06     41.5466E+06     7.35875E+06    -299.015E-03     594.629E-03    -295.614E-03     190.768E-03    -306.375E-03     601.720E-03    -295.346E-03     150.969E-03
             892     8.03856E-03     153.362E-03    -50.6261E+06     29.0810E+06     53.1186E+06     6.85285E+06    -298.836E-03     594.432E-03    -295.597E-03     197.171E-03    -306.738E-03     602.104E-03    -295.300E-03     155.724E-03
             893     8.70866E-03     153.661E-03    -42.8173E+06     33.3146E+06     64.2039E+06     5.38422E+06    -298.441E-03     594.004E-03    -295.563E-03     201.330E-03    -306.718E-03     602.061E-03    -295.228E-03     158.686E-03
             894     9.38004E-03     153.963E-03    -35.6877E+06     36.4253E+06     74.3885E+06     3.66692E+06    -297.602E-03     593.099E-03    -295.497E-03     202.233E-03    -306.050E-03     601.333E-03    -295.126E-03     158.887E-03
             895     10.0506E-03     154.262E-03    -28.6932E+06     43.6176E+06     82.5959E+06     2.36084E+06    -296.541E-03     591.922E-03    -295.381E-03     200.220E-03    -304.948E-03     600.142E-03    -294.989E-03     156.698E-03
             896     10.7238E-03     154.553E-03    -21.2118E+06     50.5635E+06     87.1377E+06     1.32114E+06    -295.205E-03     590.419E-03    -295.214E-03     194.850E-03    -303.347E-03     598.413E-03    -294.821E-03     151.718E-03
             897     11.3979E-03     154.831E-03    -13.8929E+06     57.7541E+06     88.0522E+06     1.13210E+06    -293.623E-03     588.629E-03    -295.006E-03     180.807E-03    -300.944E-03     595.851E-03    -294.630E-03     139.631E-03
             898     12.0689E-03     155.078E-03    -9.29540E+06     64.4547E+06     90.3479E+06     926.594E+03    -292.679E-03     587.490E-03    -294.811E-03     169.379E-03    -299.472E-03     594.217E-03    -294.439E-03     129.253E-03
             899     12.7360E-03     155.315E-03    -4.73454E+06     67.0660E+06     93.4922E+06     177.030E+03    -291.705E-03     586.353E-03    -294.648E-03     127.120E-03    -296.295E-03     590.893E-03    -294.271E-03     95.0433E-03
             900     670.040E-06     153.030E-03    -139.329E+06    -260.955E+06    -137.278E+06     110.426E+03    -295.536E-03     591.431E-03    -295.895E-03     23.9109E-03    -295.767E-03     590.639E-03    -296.001E-03     19.2818E-03
             901     1.33950E-03     153.079E-03    -136.290E+06    -252.742E+06    -126.490E+06     1.67665E+06    -295.919E-03     591.629E-03    -295.710E-03     42.6182E-03    -296.387E-03     591.083E-03    -295.778E-03     34.2000E-03
             902     2.00868E-03     153.157E-03    -130.945E+06    -231.864E+06    -111.011E+06     3.45753E+06    -296.145E-03     591.889E-03    -295.743E-03     62.5719E-03    -297.016E-03     591.793E-03    -295.772E-03     50.1388E-03
             903     2.67830E-03     153.267E-03    -123.735E+06    -204.936E+06    -93.2442E+06     3.59258E+06    -296.570E-03     592.348E-03    -295.778E-03     82.7540E-03    -297.994E-03     592.876E-03    -295.768E-03     66.2489E-03
             904     3.34799E-03     153.406E-03    -115.520E+06    -179.248E+06    -72.4797E+06     4.08653E+06    -297.000E-03     592.835E-03    -295.835E-03     102.128E-03    -299.107E-03     594.105E-03    -295.770E-03     81.6099E-03
             905     4.01755E-03     153.574E-03    -106.977E+06    -152.464E+06    -51.1501E+06     5.11027E+06    -297.417E-03     593.301E-03    -295.884E-03     120.707E-03    -300.326E-03     595.437E-03    -295.763E-03     96.2814E-03
             906     4.68697E-03     153.768E-03    -97.5420E+06    -121.763E+06    -29.8983E+06     6.09542E+06    -297.917E-03     593.835E-03    -295.918E-03     138.455E-03    -301.725E-03     596.952E-03    -295.750E-03     110.264E-03
             907     5.35684E-03     153.991E-03    -87.2931E+06    -84.7777E+06    -9.49723E+06     6.94587E+06    -298.465E-03     594.405E-03    -295.940E-03     154.529E-03    -303.221E-03     598.578E-03    -295.738E-03     122.837E-03
             908     6.02694E-03     154.234E-03    -77.0174E+06    -43.6704E+06     10.8805E+06     7.64659E+06    -298.983E-03     594.947E-03    -295.964E-03     168.565E-03    -304.690E-03     600.195E-03    -295.735E-03     133.687E-03
             909     6.69542E-03     154.500E-03    -67.6693E+06    -6.69015E+06     28.9486E+06     8.33980E+06    -299.142E-03     595.119E-03    -295.977E-03     180.579E-03    -305.736E-03     601.365E-03    -295.725E-03     142.981E-03
             910     7.36586E-03     154.780E-03    -58.8740E+06     16.5196E+06     42.4591E+06     8.16265E+06    -298.960E-03     594.915E-03    -295.956E-03     190.101E-03    -306.294E-03     601.977E-03    -295.682E-03     150.323E-03
             911     8.03600E-03     155.072E-03    -50.1818E+06     29.2709E+06     53.9571E+06     7.74950E+06    -298.718E-03     594.625E-03    -295.906E-03     196.610E-03    -306.602E-03     602.278E-03    -295.606E-03     155.181E-03
             912     8.70702E-03     155.370E-03    -42.0853E+06     35.6925E+06     65.5189E+06     7.39960E+06    -298.043E-03     593.880E-03    -295.837E-03     200.120E-03    -306.283E-03     601.907E-03    -295.500E-03     157.566E-03
             913     9.37761E-03     155.671E-03    -34.2453E+06     41.5715E+06     77.4979E+06     5.71567E+06    -297.040E-03     592.772E-03    -295.732E-03     200.983E-03    -305.458E-03     600.991E-03    -295.355E-03     157.725E-03
             914     10.0503E-03     155.968E-03    -26.4997E+06     47.1776E+06     86.6140E+06     3.70317E+06    -296.101E-03     591.685E-03    -295.584E-03     198.736E-03    -304.474E-03     599.880E-03    -295.181E-03     155.261E-03
             915     10.7210E-03     156.258E-03    -20.0062E+06     52.3911E+06     90.5991E+06     2.81800E+06    -294.992E-03     590.392E-03    -295.400E-03     193.153E-03    -303.102E-03     598.354E-03    -294.994E-03     150.048E-03
             916     11.3912E-03     156.533E-03    -15.4165E+06     57.5590E+06     88.9999E+06     2.11673E+06    -293.426E-03     588.599E-03    -295.173E-03     180.017E-03    -300.743E-03     595.808E-03    -294.790E-03     138.863E-03
             917     12.0657E-03     156.779E-03    -10.1195E+06     65.8402E+06     90.9780E+06     2.08188E+06    -291.951E-03     586.894E-03    -294.943E-03     169.456E-03    -298.761E-03     593.637E-03    -294.569E-03     129.384E-03
             918     12.7450E-03     157.020E-03    -4.56588E+06     69.8578E+06     94.1669E+06     1.58532E+06    -290.414E-03     585.131E-03    -294.717E-03     126.686E-03    -295.004E-03     589.680E-03    -294.341E-03     94.7541E-03
             919     669.053E-06     154.742E-03    -139.140E+06    -266.864E+06    -137.252E+06     2.53466E+06    -296.492E-03     592.225E-03    -295.733E-03     22.9096E-03    -296.709E-03     591.400E-03    -295.831E-03     18.3576E-03
             920     1.33840E-03     154.791E-03    -137.155E+06    -257.957E+06    -127.161E+06     2.81383E+06    -296.149E-03     592.228E-03    -296.079E-03     42.1247E-03    -296.611E-03     591.655E-03    -296.141E-03     33.7187E-03
             921     2.00813E-03     154.870E-03    -130.913E+06    -236.242E+06    -112.412E+06     2.46320E+06    -296.544E-03     592.629E-03    -296.084E-03     62.3498E-03    -297.405E-03     592.512E-03    -296.114E-03     49.8635E-03
             922     2.67755E-03     154.979E-03    -123.942E+06    -209.233E+06    -94.0816E+06     3.43403E+06    -296.958E-03     593.098E-03    -296.140E-03     82.1529E-03    -298.370E-03     593.600E-03    -296.127E-03     65.6106E-03
             923     3.34668E-03     155.119E-03    -116.175E+06    -184.132E+06    -72.7105E+06     4.54275E+06    -297.312E-03     593.520E-03    -296.208E-03     101.391E-03    -299.408E-03     594.761E-03    -296.136E-03     80.8310E-03
             924     4.01597E-03     155.285E-03    -107.017E+06    -156.960E+06    -50.8545E+06     5.29324E+06    -297.867E-03     594.134E-03    -296.268E-03     120.134E-03    -300.764E-03     596.242E-03    -296.139E-03     95.6386E-03
             925     4.68546E-03     155.482E-03    -97.2740E+06    -126.353E+06    -29.9263E+06     5.88434E+06    -298.519E-03     594.848E-03    -296.329E-03     137.663E-03    -302.307E-03     597.929E-03    -296.154E-03     109.397E-03
             926     5.35468E-03     155.702E-03    -87.9625E+06    -89.1557E+06    -9.98557E+06     6.57853E+06    -299.012E-03     595.394E-03    -296.382E-03     153.506E-03    -303.746E-03     599.528E-03    -296.176E-03     121.731E-03
             927     6.02309E-03     155.948E-03    -78.8352E+06    -48.4003E+06     9.82582E+06     7.38609E+06    -299.196E-03     595.607E-03    -296.411E-03     167.865E-03    -304.891E-03     600.822E-03    -296.178E-03     132.926E-03
             928     6.69337E-03     156.211E-03    -69.1543E+06    -11.9983E+06     27.4715E+06     8.66228E+06    -299.122E-03     595.519E-03    -296.397E-03     179.830E-03    -305.697E-03     601.726E-03    -296.142E-03     142.207E-03
             929     7.36328E-03     156.491E-03    -60.0720E+06     16.1820E+06     41.9475E+06     9.39852E+06    -298.980E-03     595.326E-03    -296.346E-03     188.798E-03    -306.287E-03     602.356E-03    -296.072E-03     149.009E-03
             930     8.03351E-03     156.782E-03    -51.9217E+06     30.2578E+06     53.5480E+06     8.16539E+06    -298.522E-03     594.795E-03    -296.273E-03     194.888E-03    -306.372E-03     602.413E-03    -295.974E-03     153.466E-03
             931     8.70339E-03     157.079E-03    -43.2584E+06     36.6349E+06     65.6626E+06     6.29596E+06    -297.650E-03     593.824E-03    -296.174E-03     198.252E-03    -305.857E-03     601.817E-03    -295.836E-03     155.685E-03
             932     9.37546E-03     157.377E-03    -34.5001E+06     44.1104E+06     78.5829E+06     5.48789E+06    -296.767E-03     592.808E-03    -296.041E-03     199.011E-03    -305.141E-03     600.988E-03    -295.662E-03     155.761E-03
             933     10.0461E-03     157.674E-03    -27.3170E+06     48.4265E+06     87.4976E+06     5.39091E+06    -295.487E-03     591.351E-03    -295.863E-03     196.606E-03    -303.804E-03     599.489E-03    -295.457E-03     153.260E-03
             934     10.7191E-03     157.962E-03    -21.2989E+06     52.6146E+06     91.1833E+06     5.47651E+06    -293.911E-03     589.532E-03    -295.622E-03     192.005E-03    -301.986E-03     597.455E-03    -295.211E-03     149.125E-03
             935     11.3942E-03     158.239E-03    -15.7206E+06     58.0552E+06     89.7993E+06     5.22120E+06    -292.788E-03     588.122E-03    -295.335E-03     179.767E-03    -300.096E-03     595.321E-03    -294.947E-03     138.762E-03
             936     12.0660E-03     158.481E-03    -10.5571E+06     69.1615E+06     92.1666E+06     3.61829E+06    -291.409E-03     586.472E-03    -295.063E-03     168.820E-03    -298.228E-03     593.232E-03    -294.687E-03     128.774E-03
             937     12.7334E-03     158.718E-03    -5.19715E+06     74.2212E+06     95.3918E+06     1.32116E+06    -288.685E-03     583.461E-03    -294.776E-03     126.262E-03    -293.292E-03     588.036E-03    -294.399E-03     94.3944E-03
             938     668.797E-06     156.455E-03    -141.331E+06    -276.681E+06    -139.039E+06     1.66323E+06    -296.658E-03     593.172E-03    -296.514E-03     22.8534E-03    -296.870E-03     592.304E-03    -296.603E-03     18.2747E-03
             939     1.33828E-03     156.504E-03    -137.038E+06    -261.031E+06    -130.521E+06     2.38827E+06    -296.780E-03     593.344E-03    -296.565E-03     42.0628E-03    -297.232E-03     592.762E-03    -296.640E-03     33.6096E-03
             940     2.00720E-03     156.582E-03    -132.767E+06    -238.464E+06    -115.804E+06     2.25805E+06    -297.074E-03     593.682E-03    -296.607E-03     61.9084E-03    -297.935E-03     593.560E-03    -296.648E-03     49.3602E-03
             941     2.67570E-03     156.694E-03    -126.162E+06    -215.535E+06    -95.4838E+06     3.14803E+06    -297.322E-03     593.990E-03    -296.667E-03     81.6241E-03    -298.730E-03     594.461E-03    -296.649E-03     65.0319E-03
             942     3.34497E-03     156.831E-03    -117.422E+06    -188.232E+06    -73.3876E+06     4.03311E+06    -297.808E-03     594.529E-03    -296.721E-03     100.955E-03    -299.899E-03     595.747E-03    -296.644E-03     80.3278E-03
             943     4.01418E-03     157.000E-03    -108.279E+06    -162.369E+06    -52.3325E+06     4.60726E+06    -298.566E-03     595.366E-03    -296.800E-03     119.317E-03    -301.447E-03     597.438E-03    -296.669E-03     94.7379E-03
             944     4.68272E-03     157.195E-03    -99.2726E+06    -131.302E+06    -31.8506E+06     5.88519E+06    -299.100E-03     595.989E-03    -296.889E-03     136.528E-03    -302.870E-03     599.033E-03    -296.713E-03     108.178E-03
             945     5.35104E-03     157.418E-03    -89.9645E+06    -93.3246E+06    -11.3722E+06     7.03488E+06    -299.251E-03     596.191E-03    -296.940E-03     152.658E-03    -303.981E-03     600.303E-03    -296.731E-03     120.779E-03
             946     6.02100E-03     157.660E-03    -80.3287E+06    -52.6417E+06     8.94329E+06     7.90946E+06    -299.284E-03     596.225E-03    -296.941E-03     166.734E-03    -304.959E-03     601.402E-03    -296.703E-03     131.735E-03
             947     6.69013E-03     157.925E-03    -71.1752E+06    -18.3447E+06     25.7096E+06     8.83634E+06    -299.338E-03     596.243E-03    -296.905E-03     178.175E-03    -305.876E-03     602.388E-03    -296.646E-03     140.492E-03
             948     7.35925E-03     158.203E-03    -62.0054E+06     13.2260E+06     40.7151E+06     9.63126E+06    -299.068E-03     595.907E-03    -296.839E-03     187.103E-03    -306.344E-03     602.892E-03    -296.565E-03     147.252E-03
             949     8.02896E-03     158.493E-03    -52.8226E+06     33.6297E+06     54.1656E+06     8.97616E+06    -298.280E-03     595.018E-03    -296.738E-03     193.032E-03    -306.096E-03     602.609E-03    -296.439E-03     151.619E-03
             950     8.70069E-03     158.787E-03    -44.9457E+06     39.9161E+06     66.5297E+06     7.09179E+06    -297.457E-03     594.065E-03    -296.608E-03     196.277E-03    -305.620E-03     602.017E-03    -296.268E-03     153.755E-03
             951     9.37076E-03     159.086E-03    -38.3701E+06     43.2928E+06     77.7251E+06     6.01783E+06    -296.329E-03     592.769E-03    -296.440E-03     197.162E-03    -304.664E-03     600.896E-03    -296.059E-03     154.000E-03
             952     10.0432E-03     159.379E-03    -31.6750E+06     47.1175E+06     85.9880E+06     6.08756E+06    -294.539E-03     590.743E-03    -296.204E-03     194.836E-03    -302.823E-03     598.833E-03    -295.797E-03     151.637E-03
             953     10.7161E-03     159.664E-03    -24.7308E+06     52.8097E+06     90.6940E+06     5.93792E+06    -292.921E-03     588.818E-03    -295.897E-03     189.917E-03    -300.954E-03     596.688E-03    -295.484E-03     147.184E-03
             954     11.3884E-03     159.938E-03    -18.0313E+06     58.6421E+06     89.7475E+06     5.22445E+06    -291.068E-03     586.596E-03    -295.528E-03     178.119E-03    -298.331E-03     593.742E-03    -295.138E-03     137.362E-03
             955     12.0624E-03     160.186E-03    -10.8706E+06     73.9931E+06     94.4223E+06     3.37942E+06    -288.984E-03     584.120E-03    -295.136E-03     169.364E-03    -295.816E-03     590.902E-03    -294.755E-03     129.639E-03
             956     12.7436E-03     160.416E-03    -4.74048E+06     78.7632E+06     99.0888E+06     1.19604E+06    -287.451E-03     582.200E-03    -294.749E-03     127.605E-03    -292.099E-03     586.823E-03    -294.361E-03     95.8814E-03
             957     669.170E-06     158.171E-03    -141.884E+06    -282.735E+06    -138.648E+06     1.24845E+06    -297.046E-03     594.424E-03    -297.379E-03     22.3472E-03    -297.251E-03     593.525E-03    -297.456E-03     17.7550E-03
             958     1.33699E-03     158.219E-03    -138.587E+06    -264.714E+06    -131.088E+06     1.29819E+06    -297.435E-03     594.635E-03    -297.200E-03     41.8474E-03    -297.889E-03     594.037E-03    -297.270E-03     33.3342E-03
             959     2.00513E-03     158.299E-03    -133.945E+06    -241.733E+06    -116.714E+06     2.18382E+06    -297.608E-03     594.841E-03    -297.232E-03     61.9729E-03    -298.470E-03     594.707E-03    -297.271E-03     49.3842E-03
             960     2.67455E-03     158.407E-03    -126.921E+06    -219.675E+06    -96.8220E+06     2.52141E+06    -298.067E-03     595.359E-03    -297.293E-03     81.4126E-03    -299.471E-03     595.814E-03    -297.274E-03     64.7220E-03
             961     3.34310E-03     158.548E-03    -118.444E+06    -193.166E+06    -75.6781E+06     3.43915E+06    -298.750E-03     596.142E-03    -297.392E-03     100.217E-03    -300.830E-03     597.335E-03    -297.318E-03     79.4665E-03
             962     4.01092E-03     158.715E-03    -109.953E+06    -167.389E+06    -54.0460E+06     4.84016E+06    -299.222E-03     596.732E-03    -297.510E-03     118.532E-03    -302.099E-03     598.781E-03    -297.378E-03     93.8205E-03
             963     4.67900E-03     158.913E-03    -100.400E+06    -136.341E+06    -32.9498E+06     5.70711E+06    -299.428E-03     597.010E-03    -297.582E-03     135.832E-03    -303.194E-03     600.031E-03    -297.404E-03     107.343E-03
             964     5.34837E-03     159.131E-03    -90.2489E+06    -99.0341E+06    -12.7524E+06     6.86344E+06    -299.660E-03     597.264E-03    -297.604E-03     151.484E-03    -304.363E-03     601.332E-03    -297.393E-03     119.496E-03
             965     6.01647E-03     159.376E-03    -80.5074E+06    -59.8456E+06     7.18385E+06     8.88115E+06    -299.837E-03     597.439E-03    -297.602E-03     164.956E-03    -305.469E-03     602.552E-03    -297.363E-03     129.845E-03
             966     6.68534E-03     159.638E-03    -71.4492E+06    -23.1720E+06     24.6629E+06     10.8145E+06    -299.605E-03     597.169E-03    -297.564E-03     176.191E-03    -306.098E-03     603.255E-03    -297.303E-03     138.439E-03
             967     7.35510E-03     159.917E-03    -63.0381E+06     11.5792E+06     40.1282E+06     10.7839E+06    -298.931E-03     596.400E-03    -297.468E-03     184.721E-03    -306.148E-03     603.317E-03    -297.193E-03     144.893E-03
             968     8.02553E-03     160.203E-03    -55.4626E+06     34.0961E+06     53.5052E+06     10.3245E+06    -298.086E-03     595.412E-03    -297.326E-03     190.308E-03    -305.833E-03     602.928E-03    -297.027E-03     148.969E-03
             969     8.69487E-03     160.498E-03    -48.6805E+06     41.6758E+06     65.8591E+06     10.4689E+06    -296.882E-03     594.028E-03    -297.146E-03     193.840E-03    -304.983E-03     601.913E-03    -296.806E-03     151.497E-03
             970     9.36695E-03     160.793E-03    -41.8345E+06     46.5853E+06     78.0449E+06     9.09935E+06    -295.194E-03     592.094E-03    -296.900E-03     195.033E-03    -303.472E-03     600.163E-03    -296.517E-03     152.147E-03
             971     10.0394E-03     161.083E-03    -34.5589E+06     48.5682E+06     86.9244E+06     6.71251E+06    -293.536E-03     590.118E-03    -296.581E-03     193.072E-03    -301.769E-03     598.148E-03    -296.167E-03     150.091E-03
             972     10.7125E-03     161.367E-03    -26.5632E+06     54.7021E+06     92.5414E+06     4.68320E+06    -291.720E-03     587.913E-03    -296.193E-03     189.462E-03    -299.751E-03     595.775E-03    -295.771E-03     146.849E-03
             973     11.3872E-03     161.640E-03    -17.5990E+06     62.3301E+06     92.7760E+06     2.90964E+06    -289.114E-03     584.829E-03    -295.716E-03     177.887E-03    -296.376E-03     591.982E-03    -295.317E-03     137.330E-03
             974     12.0661E-03     161.875E-03    -10.5861E+06     75.9948E+06     96.3335E+06     1.59082E+06    -287.002E-03     582.209E-03    -295.207E-03     167.293E-03    -293.779E-03     588.939E-03    -294.820E-03     127.814E-03
             975     12.7384E-03     162.113E-03    -4.87346E+06      80.977E+06     99.9739E+06     1.37497E+06    -285.907E-03     580.635E-03    -294.728E-03     124.539E-03    -290.478E-03     585.187E-03    -294.339E-03     93.1379E-03
             976     667.222E-06     159.887E-03    -143.264E+06    -285.746E+06    -142.556E+06     188.841E+03    -298.026E-03     596.012E-03    -297.985E-03     22.7013E-03    -298.230E-03     595.106E-03    -298.076E-03     18.0506E-03
             977     1.33615E-03     159.937E-03    -141.230E+06    -267.901E+06    -133.210E+06     1.08731E+06    -298.086E-03     596.055E-03    -297.968E-03     41.7028E-03    -298.545E-03     595.447E-03    -298.041E-03     33.1327E-03
             978     2.00519E-03     160.015E-03    -135.822E+06    -244.944E+06    -117.664E+06     1.43577E+06    -298.556E-03     596.571E-03    -298.015E-03     61.1306E-03    -299.415E-03     596.420E-03    -298.051E-03     48.4565E-03
             979     2.67231E-03     160.127E-03    -128.748E+06    -223.395E+06    -98.4797E+06     2.15820E+06    -299.119E-03     597.261E-03    -298.142E-03     80.3222E-03    -300.517E-03     597.694E-03    -298.124E-03     63.5163E-03
             980     3.33948E-03     160.266E-03    -121.438E+06    -198.201E+06    -78.2035E+06     3.10538E+06    -299.509E-03     597.778E-03    -298.269E-03     99.5447E-03    -301.591E-03     598.952E-03    -298.196E-03     78.6521E-03
             981     4.00751E-03     160.435E-03    -111.910E+06    -171.861E+06    -56.3801E+06     3.92068E+06    -299.817E-03     598.182E-03    -298.365E-03     117.666E-03    -302.688E-03     600.209E-03    -298.235E-03     92.8045E-03
             982     4.67619E-03     160.629E-03    -102.326E+06    -141.518E+06    -35.3950E+06     4.85117E+06    -300.133E-03     598.559E-03    -298.426E-03     134.188E-03    -303.876E-03     601.538E-03    -298.249E-03     105.546E-03
             983     5.34344E-03     160.850E-03    -93.1756E+06    -106.108E+06    -15.6357E+06     6.13093E+06    -300.346E-03     598.801E-03    -298.455E-03     149.386E-03    -305.014E-03     602.807E-03    -298.244E-03     117.249E-03
             984     6.01178E-03     161.093E-03    -83.7191E+06    -69.2808E+06     3.57842E+06     8.23465E+06    -300.299E-03     598.749E-03    -298.449E-03     162.919E-03    -305.890E-03     603.786E-03    -298.209E-03     127.688E-03
             985     6.68021E-03     161.355E-03    -73.9262E+06    -29.9664E+06     21.5628E+06     10.0991E+06    -299.846E-03     598.232E-03    -298.386E-03     173.782E-03    -306.286E-03     604.240E-03    -298.128E-03     135.931E-03
             986     7.34888E-03     161.630E-03    -64.5681E+06     7.20169E+06     37.5241E+06     12.3217E+06    -298.923E-03     597.175E-03    -298.252E-03     181.927E-03    -306.067E-03     604.007E-03    -297.981E-03     142.090E-03
             987     8.01816E-03     161.916E-03    -56.2670E+06     31.3997E+06     51.2943E+06     14.0863E+06    -297.572E-03     595.620E-03    -298.048E-03     187.661E-03    -305.237E-03     603.048E-03    -297.756E-03     146.458E-03
             988     8.68989E-03     162.207E-03    -48.1317E+06     42.4362E+06     65.1633E+06     13.5658E+06    -295.806E-03     593.581E-03    -297.774E-03     191.142E-03    -303.812E-03     601.377E-03    -297.440E-03     149.055E-03
             989     9.36200E-03     162.497E-03    -39.6095E+06     51.0332E+06     80.0495E+06     12.2070E+06    -293.928E-03     591.354E-03    -297.426E-03     192.322E-03    -302.096E-03     599.330E-03    -297.042E-03     149.774E-03
             990     10.0354E-03     162.788E-03    -30.9333E+06     56.4994E+06     91.8609E+06     8.98215E+06    -291.898E-03     588.896E-03    -296.998E-03     190.916E-03    -300.041E-03     596.863E-03    -296.576E-03     148.296E-03
             991     10.7098E-03     163.067E-03    -22.7340E+06     60.1691E+06     97.9244E+06     4.79885E+06    -289.641E-03     586.127E-03    -296.486E-03     187.012E-03    -297.572E-03     593.907E-03    -296.051E-03     144.811E-03
             992     11.3871E-03     163.334E-03    -16.7949E+06     64.8328E+06     95.1660E+06     2.61044E+06    -287.484E-03     583.374E-03    -295.891E-03     175.015E-03    -294.654E-03     590.440E-03    -295.484E-03     134.777E-03
             993     12.0598E-03     163.573E-03    -11.2559E+06     76.8187E+06     97.1250E+06     1.99142E+06    -285.509E-03     580.798E-03    -295.290E-03     167.057E-03    -292.282E-03     587.523E-03    -294.899E-03     127.763E-03
             994     12.7398E-03     163.805E-03    -5.49891E+06     82.8572E+06     100.859E+06     1.81417E+06    -282.986E-03     577.672E-03    -294.686E-03     127.462E-03    -287.620E-03     582.288E-03    -294.294E-03     96.2049E-03
             995     668.357E-06     161.609E-03    -145.417E+06    -287.086E+06    -143.213E+06    -187.167E+03    -299.224E-03     598.089E-03    -298.865E-03     21.8583E-03    -299.433E-03     597.178E-03    -298.954E-03     17.1301E-03
             996     1.33511E-03     161.656E-03    -142.474E+06    -271.992E+06    -134.139E+06     695.410E+03    -299.414E-03     598.496E-03    -299.083E-03     40.7024E-03    -299.867E-03     597.867E-03    -299.152E-03     32.0756E-03
             997     2.00120E-03     161.738E-03    -137.340E+06    -248.031E+06    -119.694E+06     1.64941E+06    -299.753E-03     598.946E-03    -299.193E-03     60.2632E-03    -300.609E-03     598.781E-03    -299.233E-03     47.4846E-03
             998     2.66862E-03     161.847E-03    -131.412E+06    -226.530E+06    -100.260E+06     2.15869E+06    -299.955E-03     599.255E-03    -299.300E-03     79.5239E-03    -301.357E-03     599.678E-03    -299.283E-03     62.5857E-03
             999     3.33665E-03     161.987E-03    -122.940E+06    -201.284E+06    -79.4564E+06     2.29271E+06    -300.345E-03     599.723E-03    -299.378E-03     98.3193E-03    -302.418E-03     600.875E-03    -299.305E-03     77.2803E-03
            1000     4.00388E-03     162.156E-03    -114.001E+06    -176.554E+06    -58.7841E+06     3.23883E+06    -300.782E-03     600.240E-03    -299.458E-03     115.671E-03    -303.628E-03     602.225E-03    -299.331E-03     90.6576E-03
            1001     4.66995E-03     162.351E-03    -105.173E+06    -146.945E+06    -38.3462E+06     4.66512E+06    -301.033E-03     600.555E-03    -299.522E-03     132.231E-03    -304.753E-03     603.491E-03    -299.348E-03     103.412E-03
            1002     5.33760E-03     162.570E-03    -95.7707E+06    -112.769E+06    -18.4854E+06     6.04972E+06    -301.052E-03     600.596E-03    -299.543E-03     147.336E-03    -305.688E-03     604.544E-03    -299.333E-03     115.035E-03
            1003     6.00521E-03     162.812E-03    -86.5875E+06    -77.6931E+06     218.132E+03     7.87964E+06    -300.620E-03     600.123E-03    -299.503E-03     160.336E-03    -306.152E-03     605.071E-03    -299.264E-03     125.020E-03
            1004     6.67315E-03     163.073E-03    -77.5533E+06    -35.8326E+06     18.6866E+06     8.93363E+06    -299.819E-03     599.197E-03    -299.378E-03     171.304E-03    -306.195E-03     605.116E-03    -299.120E-03     133.443E-03
            1005     7.34212E-03     163.345E-03    -67.9859E+06    -4.11855E+06     33.6505E+06     10.4445E+06    -298.702E-03     597.872E-03    -299.169E-03     179.599E-03    -305.773E-03     604.589E-03    -298.896E-03     139.771E-03
            1006     8.01248E-03     163.629E-03    -57.9120E+06     23.0103E+06     46.8902E+06     13.3345E+06    -296.834E-03     595.697E-03    -298.863E-03     184.931E-03    -304.402E-03     603.005E-03    -298.578E-03     143.856E-03
            1007     8.68346E-03     163.914E-03    -48.3274E+06     43.7075E+06     62.4953E+06     13.9764E+06    -294.727E-03     593.198E-03    -298.471E-03     188.264E-03    -302.627E-03     600.901E-03    -298.152E-03     146.411E-03
            1008     9.35607E-03     164.204E-03    -39.4901E+06     53.2439E+06     79.0700E+06     11.8782E+06    -292.399E-03     590.404E-03    -298.005E-03     189.600E-03    -300.461E-03     598.286E-03    -297.630E-03     147.361E-03
            1009     10.0303E-03     164.487E-03    -31.0314E+06     64.9101E+06     94.3536E+06     8.87664E+06    -289.690E-03     587.129E-03    -297.438E-03     188.497E-03    -297.734E-03     595.019E-03    -297.016E-03     146.363E-03
            1010     10.7069E-03     164.764E-03    -23.9268E+06     65.6430E+06     100.825E+06     6.68127E+06    -287.292E-03     584.064E-03    -296.772E-03     185.528E-03    -295.125E-03     591.753E-03    -296.328E-03     143.964E-03
            1011     11.3816E-03     165.029E-03    -18.3871E+06     65.7603E+06     96.8358E+06      5.1466E+06    -284.545E-03     580.545E-03    -296.001E-03     176.085E-03    -291.691E-03     587.579E-03    -295.585E-03     136.459E-03
            1012     12.0641E-03     165.263E-03    -12.5766E+06     80.2063E+06     99.8678E+06     3.44950E+06    -282.027E-03     577.226E-03    -295.199E-03     170.145E-03    -288.836E-03     583.987E-03    -294.798E-03     131.477E-03
            1013     12.7433E-03     165.491E-03    -5.42266E+06     86.8945E+06     104.631E+06     1.10143E+06    -280.170E-03     574.590E-03    -294.419E-03     129.813E-03    -284.846E-03     579.251E-03    -294.014E-03     98.8011E-03
            1014     665.428E-06     163.332E-03    -148.329E+06    -289.609E+06    -144.260E+06     922.548E+03    -300.797E-03     601.277E-03    -300.479E-03     21.6466E-03    -301.017E-03     600.359E-03    -300.565E-03     16.8748E-03
            1015     1.33222E-03     163.383E-03    -144.180E+06    -274.426E+06    -135.165E+06     979.438E+03    -300.804E-03     601.449E-03    -300.644E-03     40.4211E-03    -301.262E-03     600.812E-03    -300.713E-03     31.6910E-03
            1016     1.99927E-03     163.463E-03    -139.636E+06    -251.014E+06    -121.960E+06     1.06801E+06    -300.805E-03     601.454E-03    -300.649E-03     59.8118E-03    -301.664E-03     601.279E-03    -300.692E-03     46.9186E-03
            1017     2.66582E-03     163.572E-03    -132.145E+06    -229.451E+06    -102.489E+06     1.60658E+06    -301.301E-03     601.993E-03    -300.691E-03     78.7014E-03    -302.696E-03     602.401E-03    -300.679E-03     61.5917E-03
            1018     3.33130E-03     163.713E-03    -124.146E+06    -205.149E+06    -81.3665E+06     2.60573E+06    -301.718E-03     602.500E-03    -300.782E-03     96.7214E-03    -303.775E-03     603.624E-03    -300.712E-03     75.4972E-03
            1019     3.99711E-03     163.881E-03    -115.526E+06    -180.405E+06    -60.1187E+06     3.20313E+06    -301.748E-03     602.599E-03    -300.851E-03     114.061E-03    -304.576E-03     604.550E-03    -300.722E-03     88.8794E-03
            1020     4.66453E-03     164.075E-03    -105.641E+06    -152.243E+06    -39.9655E+06     3.93328E+06    -301.861E-03     602.724E-03    -300.864E-03     130.557E-03    -305.542E-03     605.606E-03    -300.689E-03     101.599E-03
            1021     5.33092E-03     164.294E-03    -95.9184E+06    -120.404E+06    -20.7628E+06     5.99837E+06    -301.711E-03     602.542E-03    -300.831E-03     145.242E-03    -306.288E-03     606.412E-03    -300.621E-03     112.841E-03
            1022     5.99735E-03     164.535E-03    -86.1364E+06    -85.2790E+06    -1.57359E+06     8.05685E+06    -300.912E-03     601.638E-03    -300.726E-03     157.999E-03    -306.376E-03     606.498E-03    -300.485E-03     122.605E-03
            1023     6.66587E-03     164.790E-03    -76.2797E+06    -42.2755E+06     18.1115E+06     10.2437E+06    -299.620E-03     600.130E-03    -300.510E-03     168.743E-03    -305.900E-03     605.937E-03    -300.248E-03     130.967E-03
            1024     7.33482E-03     165.064E-03    -67.1763E+06    -9.40514E+06     33.7261E+06     11.0164E+06    -297.880E-03     598.057E-03    -300.178E-03     176.723E-03    -304.822E-03     604.631E-03    -299.898E-03     137.176E-03
            1025     8.00449E-03     165.340E-03    -58.3607E+06     13.8476E+06     46.5511E+06     11.0240E+06    -295.800E-03     595.533E-03    -299.734E-03     182.330E-03    -303.235E-03     602.676E-03    -299.437E-03     141.562E-03
            1026     8.67666E-03     165.624E-03    -49.2241E+06     39.5185E+06     62.0087E+06     12.5759E+06    -293.249E-03     592.433E-03    -299.184E-03     186.467E-03    -301.037E-03     600.007E-03    -298.860E-03     145.029E-03
            1027     9.35033E-03     165.906E-03    -40.6038E+06     58.0174E+06     78.5205E+06     11.9163E+06    -290.241E-03     588.768E-03    -298.527E-03     188.461E-03    -298.199E-03     596.560E-03    -298.160E-03     146.844E-03
            1028     10.0265E-03     166.186E-03    -33.1778E+06     68.2539E+06     93.6925E+06     10.3592E+06    -287.228E-03     584.995E-03    -297.767E-03     188.437E-03    -295.184E-03     592.804E-03    -297.349E-03     147.032E-03
            1029     10.7035E-03     166.457E-03    -25.9299E+06     70.7748E+06     102.947E+06     8.52364E+06    -283.897E-03     580.790E-03    -296.894E-03     186.325E-03    -291.678E-03     588.433E-03    -296.444E-03     145.565E-03
            1030     11.3871E-03     166.717E-03    -17.6491E+06     70.9274E+06     101.334E+06     5.26323E+06    -280.853E-03     576.753E-03    -295.900E-03     176.775E-03    -287.948E-03     583.743E-03    -295.470E-03     137.922E-03
            1031     12.0669E-03     166.944E-03    -10.1381E+06     83.3973E+06     104.151E+06     3.39838E+06    -278.949E-03     573.854E-03    -294.905E-03     170.140E-03    -285.689E-03     580.552E-03    -294.490E-03     132.118E-03
            1032     12.7503E-03     167.177E-03    -5.10876E+06     90.5653E+06     107.704E+06     2.29971E+06    -277.871E-03     571.859E-03    -293.989E-03     130.414E-03    -282.526E-03     576.506E-03    -293.574E-03     99.7879E-03
            1033     666.112E-06     165.065E-03    -148.303E+06    -289.835E+06    -148.494E+06    -1.15286E+06    -302.491E-03     604.350E-03    -301.858E-03     22.6284E-03    -302.707E-03     603.440E-03    -301.966E-03     17.8255E-03
            1034     1.33029E-03     165.113E-03    -145.498E+06    -275.371E+06    -138.913E+06    -622.546E+03    -302.487E-03     604.684E-03    -302.197E-03     40.4092E-03    -302.946E-03     604.052E-03    -302.281E-03     31.5472E-03
            1035     1.99557E-03     165.192E-03    -140.369E+06    -253.146E+06    -123.829E+06    -43.5323E+03    -302.638E-03     604.920E-03    -302.283E-03     58.9409E-03    -303.491E-03     604.736E-03    -302.331E-03     45.8720E-03
            1036     2.66060E-03     165.304E-03    -133.518E+06    -232.726E+06    -104.442E+06     601.976E+03    -302.871E-03     605.232E-03    -302.361E-03     77.6671E-03    -304.254E-03     605.618E-03    -302.352E-03     60.4073E-03
            1037     3.32581E-03     165.444E-03    -124.875E+06    -208.739E+06    -83.1656E+06     1.33516E+06    -302.904E-03     605.313E-03    -302.409E-03     95.7170E-03    -304.944E-03     606.410E-03    -302.341E-03     74.3411E-03
            1038     3.99179E-03     165.610E-03    -115.150E+06    -183.492E+06    -61.8732E+06     1.59409E+06    -303.009E-03     605.428E-03    -302.419E-03     112.858E-03    -305.809E-03     607.347E-03    -302.295E-03     87.4899E-03
            1039     4.65670E-03     165.804E-03    -105.426E+06    -158.263E+06    -41.8335E+06     2.48848E+06    -302.764E-03     605.147E-03    -302.384E-03     128.686E-03    -306.392E-03     607.961E-03    -302.210E-03     99.6129E-03
            1040     5.32242E-03     166.022E-03    -95.2070E+06    -128.402E+06    -22.4408E+06     4.26614E+06    -301.953E-03     604.208E-03    -302.256E-03     143.328E-03    -306.458E-03     607.985E-03    -302.043E-03     110.910E-03
            1041     5.99019E-03     166.258E-03    -84.5588E+06    -93.5612E+06    -3.39203E+06     6.06113E+06    -300.974E-03     602.997E-03    -302.022E-03     156.126E-03    -306.347E-03     607.747E-03    -301.781E-03     120.782E-03
            1042     6.65699E-03     166.514E-03    -74.1637E+06    -55.5346E+06     15.3472E+06     9.47235E+06    -299.202E-03     600.876E-03    -301.674E-03     166.575E-03    -305.358E-03     606.527E-03    -301.409E-03     128.989E-03
            1043     7.32653E-03     166.778E-03    -64.7599E+06    -13.7149E+06     33.0093E+06     13.1363E+06    -296.581E-03     597.744E-03    -301.163E-03     174.945E-03    -303.391E-03     604.180E-03    -300.884E-03     135.857E-03
            1044     7.99873E-03     167.055E-03    -56.9269E+06     11.4965E+06     46.5771E+06     13.8526E+06    -293.908E-03     594.412E-03    -300.504E-03     181.289E-03    -301.204E-03     601.412E-03    -300.205E-03     141.213E-03
            1045     8.67148E-03     167.330E-03    -49.7463E+06     35.9238E+06     60.1008E+06     12.8186E+06    -290.807E-03     590.519E-03    -299.712E-03     185.707E-03    -298.436E-03     597.925E-03    -299.392E-03     145.136E-03
            1046     9.34773E-03     167.607E-03    -41.8405E+06     60.0492E+06     76.7003E+06     12.1542E+06    -287.321E-03     586.123E-03    -298.801E-03     188.575E-03    -295.128E-03     593.772E-03    -298.444E-03     147.989E-03
            1047     10.0257E-03     167.880E-03    -33.0220E+06     67.6769E+06     93.3929E+06     11.7289E+06    -283.753E-03     581.546E-03    -297.793E-03     189.546E-03    -291.570E-03     589.216E-03    -297.376E-03     149.281E-03
            1048     10.7073E-03     168.146E-03    -24.1085E+06     77.7336E+06     107.721E+06     9.77825E+06    -280.550E-03     577.238E-03    -296.688E-03     188.049E-03    -288.245E-03     584.811E-03    -296.227E-03     148.307E-03
            1049     11.3877E-03     168.396E-03    -16.5982E+06     80.2848E+06     107.292E+06     6.48641E+06    -278.390E-03     573.902E-03    -295.512E-03     179.574E-03    -285.456E-03     580.882E-03    -295.068E-03     141.504E-03
            1050     12.0721E-03     168.629E-03    -11.7086E+06     85.1125E+06     106.497E+06     3.93145E+06    -277.254E-03     571.649E-03    -294.395E-03     173.608E-03    -284.019E-03     578.366E-03    -293.969E-03     136.054E-03
            1051     12.7561E-03     168.847E-03    -7.04887E+06     92.7464E+06     108.824E+06     2.98667E+06    -276.378E-03     569.777E-03    -293.399E-03     133.618E-03    -281.094E-03     574.481E-03    -292.979E-03     103.127E-03
            1052     663.683E-06     166.799E-03    -152.061E+06    -283.333E+06    -148.202E+06    -1.09044E+06    -303.868E-03     607.921E-03    -304.053E-03     21.1260E-03    -304.107E-03     607.044E-03    -304.163E-03     16.3227E-03
            1053     1.32877E-03     166.851E-03    -148.239E+06    -274.184E+06    -139.965E+06    -2.45578E+06    -304.177E-03     608.165E-03    -303.987E-03     39.5810E-03    -304.644E-03     607.538E-03    -304.075E-03     30.6595E-03
            1054     1.99189E-03     166.929E-03    -142.126E+06    -255.205E+06    -125.099E+06    -1.82578E+06    -304.554E-03     608.634E-03    -304.080E-03     58.7167E-03    -305.411E-03     608.444E-03    -304.130E-03     45.4880E-03
            1055     2.65557E-03     167.041E-03    -134.997E+06    -232.700E+06    -106.842E+06    -1.70889E+06    -304.426E-03     608.572E-03    -304.145E-03     77.2558E-03    -305.807E-03     608.957E-03    -304.146E-03     59.8501E-03
            1056     3.32044E-03     167.177E-03    -126.530E+06    -210.916E+06    -86.6607E+06    -1.93621E+06    -304.345E-03     608.486E-03    -304.141E-03     94.5669E-03    -306.362E-03     609.556E-03    -304.085E-03     73.0690E-03
            1057     3.98429E-03     167.346E-03    -117.494E+06    -186.748E+06    -65.9071E+06    -1.22928E+06    -304.081E-03     608.165E-03    -304.083E-03     111.509E-03    -306.847E-03     610.041E-03    -303.972E-03     86.0711E-03
            1058     4.64888E-03     167.538E-03    -107.769E+06    -162.442E+06    -45.4880E+06    -514.388E+03    -303.239E-03     607.172E-03    -303.934E-03     127.555E-03    -306.826E-03     609.933E-03    -303.770E-03     98.4688E-03
            1059     5.31559E-03     167.750E-03    -97.4559E+06    -134.639E+06    -26.4968E+06    -35.8483E+03    -302.057E-03     605.711E-03    -303.654E-03     142.215E-03    -306.497E-03     609.403E-03    -303.450E-03     109.879E-03
            1060     5.98143E-03     167.987E-03    -87.5510E+06    -103.355E+06    -8.69318E+06     1.96443E+06    -300.252E-03     603.483E-03    -303.231E-03     155.149E-03    -305.526E-03     608.104E-03    -302.997E-03     120.131E-03
            1061     6.65052E-03     168.236E-03    -78.0471E+06    -70.5638E+06     8.37470E+06     5.35611E+06    -297.791E-03     600.436E-03    -302.645E-03     166.046E-03    -303.821E-03     605.915E-03    -302.388E-03     129.001E-03
            1062     7.32101E-03     168.496E-03    -68.4826E+06    -29.8350E+06     25.5527E+06     10.6564E+06    -294.804E-03     596.685E-03    -301.881E-03     174.855E-03    -301.471E-03     602.929E-03    -301.611E-03     136.481E-03
            1063     7.99343E-03     168.763E-03    -59.7872E+06     6.39093E+06     40.1554E+06     15.5573E+06    -291.166E-03     592.102E-03    -300.936E-03     181.617E-03    -298.296E-03     598.927E-03    -300.658E-03     142.615E-03
            1064     8.66984E-03     169.035E-03    -52.2364E+06     40.3875E+06     54.2162E+06     14.8161E+06    -287.452E-03     587.282E-03    -299.830E-03     186.794E-03    -294.910E-03     594.541E-03    -299.541E-03     147.519E-03
            1065     9.34785E-03     169.302E-03    -44.6973E+06     60.8475E+06     70.9368E+06     11.6077E+06    -283.693E-03     582.319E-03    -298.626E-03     190.351E-03    -291.333E-03     589.811E-03    -298.294E-03     151.106E-03
            1066     10.0296E-03     169.570E-03    -36.4749E+06     66.9604E+06     90.1013E+06     9.84973E+06    -279.981E-03     577.335E-03    -297.355E-03     191.762E-03    -287.630E-03     584.832E-03    -296.948E-03     152.910E-03
            1067     10.7134E-03     169.825E-03    -28.0499E+06     80.7707E+06     108.103E+06     8.66541E+06    -277.490E-03     573.523E-03    -296.033E-03     191.633E-03    -285.073E-03     580.979E-03    -295.568E-03     153.170E-03
            1068     11.3998E-03     170.081E-03    -20.4795E+06     84.3856E+06     109.571E+06     7.69642E+06    -276.347E-03     571.055E-03    -294.709E-03     184.235E-03    -283.377E-03     577.995E-03    -294.254E-03     147.137E-03
            1069     12.0848E-03     170.299E-03    -12.4626E+06     90.0747E+06     110.392E+06     6.29505E+06    -276.616E-03     570.141E-03    -293.525E-03     179.343E-03    -283.437E-03     576.918E-03    -293.086E-03     142.243E-03
            1070     12.7677E-03     170.534E-03    -5.67426E+06     98.5125E+06     112.176E+06     2.99626E+06    -276.707E-03     569.240E-03    -292.533E-03     138.179E-03    -281.520E-03     574.058E-03    -292.107E-03     107.508E-03
            1071     662.417E-06     168.543E-03    -155.907E+06    -276.892E+06    -152.866E+06    -1.31193E+06    -305.602E-03     612.048E-03    -306.446E-03     21.8159E-03    -305.865E-03     611.218E-03    -306.583E-03     16.9054E-03
            1072     1.32474E-03     168.593E-03    -151.654E+06    -268.572E+06    -141.813E+06    -2.55689E+06    -306.034E-03     612.052E-03    -306.018E-03     39.6511E-03    -306.523E-03     611.459E-03    -306.117E-03     30.6558E-03
            1073     1.98833E-03     168.674E-03    -146.370E+06    -253.228E+06    -128.229E+06    -3.92810E+06    -305.968E-03     611.960E-03    -305.992E-03     57.7496E-03    -306.825E-03     611.770E-03    -306.054E-03     44.5504E-03
            1074     2.65158E-03     168.782E-03    -139.209E+06    -230.826E+06    -111.089E+06    -4.40168E+06    -305.927E-03     611.868E-03    -305.941E-03     76.0845E-03    -307.299E-03     612.249E-03    -305.960E-03     58.6914E-03
            1075     3.31364E-03     168.921E-03    -131.369E+06    -210.347E+06    -91.2870E+06    -4.63110E+06    -305.469E-03     611.315E-03    -305.846E-03     94.1153E-03    -307.478E-03     612.375E-03    -305.807E-03     72.6206E-03
            1076     3.97734E-03     169.085E-03    -122.554E+06    -187.548E+06    -71.0279E+06    -4.66065E+06    -304.338E-03     609.955E-03    -305.617E-03     111.358E-03    -307.080E-03     611.803E-03    -305.523E-03     86.0635E-03
            1077     4.64319E-03     169.273E-03    -113.032E+06    -163.625E+06    -51.4631E+06    -4.59771E+06    -303.140E-03     608.382E-03    -305.242E-03     127.728E-03    -306.686E-03     611.095E-03    -305.098E-03     98.9075E-03
            1078     5.30764E-03     169.486E-03    -103.737E+06    -138.913E+06    -33.4643E+06    -4.11607E+06    -301.292E-03     606.016E-03    -304.724E-03     142.726E-03    -305.671E-03     609.632E-03    -304.540E-03     110.832E-03
            1079     5.97623E-03     169.713E-03    -94.5044E+06    -111.765E+06    -16.6540E+06    -2.43296E+06    -298.504E-03     602.517E-03    -304.013E-03     156.382E-03    -303.687E-03     607.017E-03    -303.797E-03     122.086E-03
            1080     6.64628E-03     169.958E-03    -84.8677E+06    -82.6983E+06    -488.355E+03     357.835E+03    -295.431E-03     598.530E-03    -303.099E-03     167.918E-03    -301.329E-03     603.836E-03    -302.859E-03     131.871E-03
            1081     7.31877E-03     170.210E-03    -75.0021E+06    -49.8302E+06     15.1940E+06     4.87268E+06    -291.894E-03     593.896E-03    -302.002E-03     177.415E-03    -298.391E-03     599.906E-03    -301.745E-03     140.261E-03
            1082     7.99452E-03     170.471E-03    -64.3111E+06    -8.53546E+06     32.1119E+06     10.2628E+06    -287.903E-03     588.629E-03    -300.726E-03     185.063E-03    -294.853E-03     595.228E-03    -300.460E-03     147.449E-03
            1083     8.67331E-03     170.730E-03    -54.0294E+06     39.7714E+06     49.6744E+06     13.9974E+06    -283.779E-03     583.072E-03    -299.293E-03     190.859E-03    -291.054E-03     590.153E-03    -299.024E-03     153.194E-03
            1084     9.35553E-03     170.995E-03    -45.8409E+06     65.5308E+06     66.0318E+06     13.5246E+06    -279.949E-03     577.732E-03    -297.783E-03     194.371E-03    -287.384E-03     585.046E-03    -297.482E-03     156.878E-03
            1085     10.0401E-03     171.248E-03    -38.7163E+06      70.771E+06     84.8884E+06     10.5290E+06    -277.169E-03     573.454E-03    -296.285E-03     196.287E-03    -284.644E-03     580.797E-03    -295.907E-03     158.976E-03
            1086     10.7265E-03     171.506E-03    -31.2946E+06     81.4068E+06     105.230E+06     8.88191E+06    -275.710E-03     570.556E-03    -294.846E-03     196.182E-03    -283.158E-03     577.877E-03    -294.393E-03     158.976E-03
            1087     11.4129E-03     171.748E-03    -23.0584E+06     87.3037E+06     112.183E+06     6.85420E+06    -275.921E-03     569.426E-03    -293.505E-03     188.232E-03    -282.882E-03     576.290E-03    -293.037E-03     151.901E-03
            1088     12.0982E-03     171.981E-03    -14.0735E+06     94.5722E+06     113.527E+06     3.54775E+06    -277.082E-03     569.442E-03    -292.360E-03     182.581E-03    -283.903E-03     576.220E-03    -291.910E-03     145.686E-03
            1089     12.7837E-03     172.204E-03    -4.61261E+06     102.782E+06     115.722E+06     1.65111E+06    -279.194E-03     570.686E-03    -291.492E-03     140.229E-03    -284.034E-03     575.539E-03    -291.055E-03     109.313E-03
            1090     662.044E-06     170.295E-03    -158.882E+06    -269.995E+06    -156.944E+06    -2.21793E+06    -308.013E-03     615.656E-03    -307.643E-03     21.7908E-03    -308.293E-03     614.868E-03    -307.806E-03     16.8757E-03
            1091     1.32305E-03     170.343E-03    -155.381E+06    -261.536E+06    -147.856E+06    -3.57540E+06    -307.739E-03     615.524E-03    -307.785E-03     39.7074E-03    -308.241E-03     614.974E-03    -307.920E-03     30.7699E-03
            1092     1.98385E-03     170.423E-03    -150.302E+06    -246.766E+06    -133.216E+06    -4.64884E+06    -307.296E-03     614.969E-03    -307.673E-03     58.3067E-03    -308.166E-03     614.816E-03    -307.764E-03     45.1926E-03
            1093     2.64557E-03     170.530E-03    -144.257E+06    -226.994E+06    -115.136E+06    -5.61653E+06    -306.476E-03     613.909E-03    -307.433E-03     77.1636E-03    -307.858E-03     614.307E-03    -307.471E-03     59.9350E-03
            1094     3.30909E-03     170.667E-03    -136.281E+06    -206.193E+06    -95.3107E+06    -6.50671E+06    -305.313E-03     612.364E-03    -307.052E-03     95.6176E-03    -307.316E-03     613.429E-03    -307.032E-03     74.4685E-03
            1095     3.97370E-03     170.825E-03    -127.437E+06    -185.065E+06    -75.6724E+06    -7.28552E+06    -304.005E-03     610.544E-03    -306.539E-03     113.206E-03    -306.724E-03     612.373E-03    -306.464E-03     88.3662E-03
            1096     4.63776E-03     171.013E-03    -118.355E+06    -162.878E+06    -56.7195E+06    -7.48827E+06    -301.845E-03     607.715E-03    -305.869E-03     130.292E-03    -305.348E-03     610.383E-03    -305.745E-03     102.165E-03
            1097     5.30645E-03     171.216E-03    -108.824E+06    -140.492E+06    -38.9002E+06    -7.18004E+06    -298.949E-03     603.934E-03    -304.986E-03     146.110E-03    -303.250E-03     607.464E-03    -304.819E-03     115.233E-03
            1098     5.97586E-03     171.439E-03    -99.1304E+06    -116.334E+06    -22.7407E+06    -6.46821E+06    -295.843E-03     599.733E-03    -303.890E-03     160.496E-03    -300.912E-03     604.104E-03    -303.692E-03     127.434E-03
            1099     6.64849E-03     171.674E-03    -89.5808E+06    -91.4931E+06    -7.38425E+06    -4.43258E+06    -292.132E-03     594.739E-03    -302.607E-03     172.873E-03    -297.882E-03     599.868E-03    -302.381E-03     138.307E-03
            1100     7.32457E-03     171.921E-03    -79.4738E+06    -62.8328E+06     8.34222E+06    -2.05372E+06    -288.111E-03     589.256E-03    -301.145E-03     182.793E-03    -294.410E-03     595.026E-03    -300.897E-03     147.358E-03
            1101     8.00401E-03     172.169E-03    -68.9608E+06    -24.7575E+06     24.9571E+06     1.42702E+06    -284.212E-03     583.752E-03    -299.540E-03     190.623E-03    -290.932E-03     590.067E-03    -299.280E-03     154.805E-03
            1102     8.68564E-03     172.425E-03    -58.5380E+06     23.7327E+06     42.2506E+06     7.52192E+06    -280.325E-03     578.159E-03    -297.834E-03     196.356E-03    -287.349E-03     584.937E-03    -297.572E-03     160.547E-03
            1103     9.37106E-03     172.674E-03    -48.7319E+06     63.8161E+06     59.3506E+06     12.5548E+06    -277.390E-03     573.503E-03    -296.114E-03     199.938E-03    -284.595E-03     580.590E-03    -295.839E-03     164.218E-03
            1104     10.0580E-03     172.929E-03    -40.6876E+06     77.7843E+06     78.0572E+06     11.8792E+06    -276.110E-03     570.630E-03    -294.521E-03     201.211E-03    -283.381E-03     577.807E-03    -294.184E-03     165.381E-03
            1105     10.7454E-03     173.175E-03    -32.4508E+06     85.2968E+06     100.257E+06     8.04620E+06    -276.447E-03     569.582E-03    -293.135E-03     200.820E-03    -283.743E-03     576.776E-03    -292.711E-03     164.567E-03
            1106     11.4315E-03     173.428E-03    -22.6546E+06     94.1387E+06     116.189E+06     4.12496E+06    -278.049E-03     570.021E-03    -291.972E-03     193.103E-03    -284.966E-03     576.855E-03    -291.495E-03     157.130E-03
            1107     12.1157E-03     173.652E-03    -13.9583E+06     100.332E+06     120.364E+06     1.44062E+06    -280.867E-03     571.931E-03    -291.064E-03     185.631E-03    -287.694E-03     578.716E-03    -290.587E-03     148.552E-03
            1108     12.7967E-03     173.885E-03    -7.01664E+06     103.510E+06     117.787E+06     603.851E+03    -284.021E-03     574.486E-03    -290.465E-03     142.527E-03    -288.911E-03     579.378E-03    -290.016E-03     111.016E-03
            1109     659.318E-06     172.049E-03    -159.336E+06    -261.850E+06    -158.429E+06    -1.33517E+06    -309.401E-03     617.847E-03    -308.447E-03     21.8893E-03    -309.691E-03     617.100E-03    -308.628E-03     17.1009E-03
            1110     1.32069E-03     172.100E-03    -157.190E+06    -252.919E+06    -148.712E+06    -2.97669E+06    -308.001E-03     616.700E-03    -308.699E-03     41.0034E-03    -308.518E-03     616.193E-03    -308.848E-03     32.2862E-03
            1111     1.98260E-03     172.176E-03    -152.784E+06    -239.281E+06    -134.806E+06    -4.73644E+06    -307.215E-03     615.487E-03    -308.272E-03     60.8598E-03    -308.105E-03     615.375E-03    -308.377E-03     48.0209E-03
            1112     2.64492E-03     172.282E-03    -145.977E+06    -221.140E+06    -117.008E+06    -5.99946E+06    -305.957E-03     613.715E-03    -307.758E-03     80.1244E-03    -307.333E-03     614.127E-03    -307.811E-03     63.3916E-03
            1113     3.30876E-03     172.410E-03    -138.362E+06    -200.677E+06    -97.4103E+06    -6.98298E+06    -304.218E-03     611.309E-03    -307.091E-03     98.9378E-03    -306.199E-03     612.369E-03    -307.087E-03     78.5047E-03
            1114     3.97299E-03     172.571E-03    -130.030E+06    -179.547E+06    -77.4371E+06    -8.15428E+06    -301.942E-03     608.184E-03    -306.242E-03     117.656E-03    -304.623E-03     609.990E-03    -306.180E-03     93.7800E-03
            1115     4.64119E-03     172.746E-03    -120.963E+06    -159.138E+06    -58.6714E+06    -9.35265E+06    -298.890E-03     604.062E-03    -305.172E-03     135.356E-03    -302.316E-03     606.663E-03    -305.059E-03     108.521E-03
            1116     5.31081E-03     172.945E-03    -111.856E+06    -138.648E+06    -41.3806E+06    -9.88997E+06    -295.473E-03     599.347E-03    -303.874E-03     152.130E-03    -299.661E-03     602.766E-03    -303.718E-03     122.831E-03
            1117     5.98423E-03     173.159E-03    -102.434E+06    -116.818E+06    -25.0155E+06    -9.82793E+06    -291.853E-03     594.235E-03    -302.383E-03     167.284E-03    -296.768E-03     598.444E-03    -302.190E-03     136.078E-03
            1118     6.66052E-03     173.386E-03    -92.4324E+06    -94.9693E+06    -9.67110E+06    -9.65875E+06    -287.996E-03     588.728E-03    -300.732E-03     180.189E-03    -293.547E-03     593.642E-03    -300.509E-03     147.650E-03
            1119     7.34021E-03     173.620E-03    -82.4123E+06    -68.1304E+06     5.45647E+06    -8.61053E+06    -284.290E-03     583.253E-03    -298.963E-03     190.701E-03    -290.363E-03     588.775E-03    -298.717E-03     157.350E-03
            1120     8.02206E-03     173.864E-03    -72.4272E+06    -36.7815E+06     20.4451E+06    -5.81515E+06    -280.839E-03     577.969E-03    -297.131E-03     198.465E-03    -287.297E-03     583.980E-03    -296.870E-03     164.740E-03
            1121     8.70829E-03     174.105E-03    -61.7273E+06     4.63850E+06     36.4537E+06    -579.111E+03    -278.314E-03     573.618E-03    -295.304E-03     203.687E-03    -285.051E-03     580.047E-03    -295.039E-03     169.780E-03
            1122     9.39501E-03     174.354E-03    -50.6080E+06     48.9810E+06     53.3700E+06     6.18277E+06    -277.208E-03     570.796E-03    -293.588E-03     206.579E-03    -284.135E-03     577.563E-03    -293.319E-03     172.453E-03
            1123     10.0822E-03     174.601E-03    -39.5916E+06     80.5124E+06     72.9963E+06     9.45085E+06    -277.660E-03     569.768E-03    -292.108E-03     207.433E-03    -284.709E-03     576.751E-03    -291.802E-03     172.824E-03
            1124     10.7680E-03     174.852E-03    -29.5591E+06     96.4647E+06     96.6047E+06     5.87223E+06    -279.776E-03     570.728E-03    -290.952E-03     206.741E-03    -286.926E-03     577.836E-03    -290.566E-03     171.176E-03
            1125     11.4522E-03     175.101E-03    -20.6192E+06     98.8082E+06     117.197E+06     2.23388E+06    -282.824E-03     572.961E-03    -290.137E-03     198.087E-03    -289.673E-03     579.748E-03    -289.664E-03     162.247E-03
            1126     12.1332E-03     175.336E-03    -12.4005E+06     102.640E+06     126.753E+06     1.99192E+06    -286.712E-03     576.328E-03    -289.616E-03     191.650E-03    -293.597E-03     583.167E-03    -289.113E-03     154.182E-03
            1127     12.8073E-03     175.578E-03    -5.29163E+06     104.766E+06     123.877E+06     1.81226E+06    -289.872E-03     579.242E-03    -289.370E-03     149.127E-03    -294.862E-03     584.227E-03    -288.895E-03     117.094E-03
            1128     661.292E-06     173.810E-03    -159.577E+06    -255.705E+06    -158.109E+06    -1.31214E+06    -308.431E-03     615.699E-03    -307.268E-03     23.5764E-03    -308.731E-03     614.982E-03    -307.456E-03     18.9769E-03
            1129     1.32220E-03     173.853E-03    -156.523E+06    -245.611E+06    -147.548E+06    -2.28631E+06    -306.840E-03     614.415E-03    -307.575E-03     43.6199E-03    -307.361E-03     613.936E-03    -307.730E-03     35.2896E-03
            1130     1.98454E-03     173.929E-03    -151.578E+06    -231.178E+06    -132.976E+06    -3.94474E+06    -305.424E-03     612.423E-03    -306.999E-03     63.8528E-03    -306.296E-03     612.321E-03    -307.109E-03     51.7251E-03
            1131     2.64845E-03     174.029E-03    -145.321E+06    -214.283E+06    -115.444E+06    -5.56343E+06    -303.552E-03     609.775E-03    -306.223E-03     84.0405E-03    -304.895E-03     610.175E-03    -306.279E-03     68.2879E-03
            1132     3.31289E-03     174.156E-03    -137.506E+06    -194.586E+06    -95.7601E+06    -6.55125E+06    -300.940E-03     606.158E-03    -305.218E-03     104.805E-03    -302.873E-03     607.189E-03    -305.215E-03     85.6097E-03
            1133     3.98187E-03     174.304E-03    -128.789E+06    -173.062E+06    -75.4651E+06    -7.50127E+06    -297.760E-03     601.716E-03    -303.956E-03     125.030E-03    -300.364E-03     603.466E-03    -303.896E-03     102.773E-03
            1134     4.65232E-03     174.476E-03    -120.121E+06    -152.710E+06    -56.1117E+06    -8.77534E+06    -294.430E-03     596.906E-03    -302.476E-03     143.620E-03    -297.741E-03     599.410E-03    -302.361E-03     118.713E-03
            1135     5.32642E-03     174.663E-03    -111.567E+06    -132.549E+06    -38.2573E+06    -9.96455E+06    -290.840E-03     591.659E-03    -300.819E-03     161.483E-03    -294.879E-03     594.941E-03    -300.656E-03     134.355E-03
            1136     6.00367E-03     174.869E-03    -102.499E+06    -112.160E+06    -21.7825E+06    -11.1944E+06    -287.086E-03     586.096E-03    -299.010E-03     177.264E-03    -291.806E-03     590.115E-03    -298.808E-03     148.443E-03
            1137     6.68441E-03     175.085E-03    -93.3550E+06    -91.7610E+06    -7.00997E+06    -12.5172E+06    -283.697E-03     580.802E-03    -297.105E-03     190.532E-03    -289.018E-03     585.485E-03    -296.871E-03     160.447E-03
            1138     7.36752E-03     175.313E-03    -83.9694E+06    -68.4351E+06     6.43269E+06    -13.0602E+06    -280.901E-03     576.080E-03    -295.179E-03     201.251E-03    -286.718E-03     581.336E-03    -294.925E-03     170.289E-03
            1139     8.05423E-03     175.545E-03    -73.7466E+06    -43.2848E+06     20.1718E+06    -11.9453E+06    -279.191E-03     572.519E-03    -293.328E-03     208.422E-03    -285.360E-03     578.214E-03    -293.057E-03     176.876E-03
            1140     8.74041E-03     175.784E-03    -63.0578E+06    -8.52693E+06     35.2874E+06    -8.76810E+06    -278.815E-03     570.457E-03    -291.641E-03     212.937E-03    -285.256E-03     576.541E-03    -291.361E-03     180.849E-03
            1141     9.42717E-03     176.028E-03    -51.7559E+06     31.2808E+06     51.7626E+06    -3.72767E+06    -279.750E-03     569.949E-03    -290.199E-03     215.100E-03    -286.391E-03     576.369E-03    -289.911E-03     182.399E-03
            1142     10.1131E-03     176.275E-03    -39.9744E+06     75.3449E+06     69.8555E+06     502.188E+03    -282.046E-03     571.106E-03    -289.060E-03     215.452E-03    -288.869E-03     577.853E-03    -288.762E-03     181.833E-03
            1143     10.7970E-03     176.530E-03    -30.0020E+06     102.993E+06     90.9646E+06     2.05625E+06    -285.551E-03     573.852E-03    -288.302E-03     214.355E-03    -292.552E-03     580.850E-03    -287.953E-03     179.389E-03
            1144     11.4769E-03     176.785E-03    -22.0826E+06     99.1074E+06     111.803E+06     1.71163E+06    -289.857E-03     577.813E-03    -287.956E-03     206.183E-03    -296.670E-03     584.577E-03    -287.509E-03     170.394E-03
            1145     12.1522E-03     177.027E-03    -14.1861E+06     100.866E+06     127.405E+06     2.26328E+06    -294.220E-03     582.155E-03    -287.935E-03     198.777E-03    -301.188E-03     589.062E-03    -287.424E-03     160.706E-03
            1146     12.8302E-03     177.271E-03    -7.26457E+06     106.610E+06     130.990E+06     2.14293E+06    -298.413E-03     586.604E-03    -288.191E-03     152.110E-03    -303.444E-03     591.609E-03    -287.680E-03     119.548E-03
            1147     663.140E-06     175.558E-03    -155.653E+06    -249.753E+06    -153.304E+06    -1.00521E+06    -304.121E-03     607.944E-03    -303.824E-03     24.5578E-03    -304.410E-03     607.237E-03    -304.002E-03     20.3288E-03
            1148     1.32708E-03     175.604E-03    -152.546E+06    -240.497E+06    -143.925E+06    -2.11466E+06    -302.908E-03     606.559E-03    -303.651E-03     46.6278E-03    -303.403E-03     606.073E-03    -303.801E-03     39.0922E-03
            1149     1.99161E-03     175.671E-03    -146.948E+06    -225.312E+06    -128.399E+06    -2.80618E+06    -301.035E-03     603.981E-03    -302.946E-03     69.3150E-03    -301.870E-03     603.863E-03    -303.048E-03     58.3104E-03
            1150     2.65802E-03     175.768E-03    -140.299E+06    -207.143E+06    -109.508E+06    -3.67064E+06    -298.250E-03     600.147E-03    -301.897E-03     91.6015E-03    -299.542E-03     600.520E-03    -301.941E-03     77.2902E-03
            1151     3.32905E-03     175.884E-03    -132.677E+06    -187.847E+06    -89.3814E+06    -5.08879E+06    -295.118E-03     595.657E-03    -300.539E-03     113.528E-03    -296.958E-03     596.615E-03    -300.521E-03     96.2249E-03
            1152     4.00096E-03     176.027E-03    -123.873E+06    -167.300E+06    -69.0990E+06    -6.27019E+06    -291.721E-03     590.663E-03    -298.942E-03     134.810E-03    -294.182E-03     592.287E-03    -298.865E-03     114.823E-03
            1153     4.67700E-03     176.188E-03    -114.191E+06    -146.198E+06    -48.7940E+06    -6.91889E+06    -288.278E-03     585.445E-03    -297.167E-03     155.147E-03    -291.410E-03     587.790E-03    -297.033E-03     132.783E-03
            1154     5.35586E-03     176.368E-03    -104.321E+06    -125.302E+06    -29.6567E+06    -7.74597E+06    -285.171E-03     580.453E-03    -295.282E-03     173.853E-03    -288.981E-03     583.531E-03    -295.098E-03     149.465E-03
            1155     6.03781E-03     176.563E-03    -95.2229E+06    -104.938E+06    -12.6155E+06    -8.64777E+06    -282.341E-03     575.696E-03    -293.355E-03     190.182E-03    -286.801E-03     579.479E-03    -293.128E-03     164.135E-03
            1156     6.72238E-03     176.772E-03    -86.5552E+06    -83.5139E+06     2.76354E+06    -10.0559E+06    -280.224E-03     571.676E-03    -291.452E-03     203.585E-03    -285.261E-03     576.099E-03    -291.191E-03     176.217E-03
            1157     7.40962E-03     176.992E-03    -78.1141E+06    -62.3389E+06     16.3990E+06    -11.8196E+06    -279.397E-03     569.068E-03    -289.671E-03     213.474E-03    -284.896E-03     574.019E-03    -289.385E-03     185.057E-03
            1158     8.09619E-03     177.222E-03    -70.1902E+06    -40.4999E+06     28.8655E+06    -13.4549E+06    -279.970E-03     568.084E-03    -288.113E-03     220.070E-03    -285.824E-03     573.460E-03    -287.808E-03     190.727E-03
            1159     8.78307E-03     177.460E-03    -61.6627E+06    -13.1150E+06     41.4730E+06    -13.5335E+06    -281.857E-03     568.705E-03    -286.848E-03     223.997E-03    -287.983E-03     574.446E-03    -286.532E-03     193.757E-03
            1160     9.46861E-03     177.703E-03    -52.4832E+06     21.1186E+06     55.8070E+06    -11.0634E+06    -285.071E-03     570.998E-03    -285.927E-03     225.754E-03    -291.434E-03     577.090E-03    -285.602E-03     194.441E-03
            1161     10.1507E-03     177.957E-03    -43.6116E+06     67.4328E+06     71.9109E+06    -7.39751E+06    -289.165E-03     574.531E-03    -285.366E-03     225.301E-03    -295.764E-03     581.008E-03    -285.041E-03     192.643E-03
            1162     10.8298E-03     178.212E-03    -33.8386E+06     96.4858E+06     89.8105E+06    -3.39918E+06    -293.963E-03     579.168E-03    -285.204E-03     223.420E-03    -300.811E-03     585.980E-03    -284.846E-03     188.948E-03
            1163     11.5062E-03     178.480E-03    -24.0847E+06     96.7975E+06     109.084E+06    -678.417E+03    -299.533E-03     585.002E-03    -285.469E-03     213.773E-03    -306.290E-03     591.703E-03    -285.029E-03     177.810E-03
            1164     12.1786E-03     178.727E-03    -16.4064E+06     97.7412E+06     125.099E+06     89.6816E+03    -305.896E-03     592.013E-03    -286.117E-03     203.662E-03    -312.898E-03     598.943E-03    -285.610E-03     164.514E-03
            1165     12.8376E-03     178.987E-03    -7.41409E+06     105.607E+06     134.784E+06     1.39022E+06    -310.628E-03     597.711E-03    -287.083E-03     154.631E-03    -315.701E-03     602.743E-03    -286.551E-03     120.969E-03
            1166     667.750E-06     177.293E-03    -148.251E+06    -245.669E+06    -146.113E+06    -720.007E+03    -296.696E-03     593.106E-03    -296.410E-03     28.4015E-03    -296.961E-03     592.389E-03    -296.569E-03     24.7368E-03
            1167     1.33654E-03     177.329E-03    -144.989E+06    -235.617E+06    -135.931E+06    -1.32571E+06    -294.878E-03     590.945E-03    -296.067E-03     51.4723E-03    -295.334E-03     590.435E-03    -296.195E-03     44.9745E-03
            1168     2.00738E-03     177.398E-03    -139.652E+06    -221.091E+06    -120.512E+06    -1.94609E+06    -292.520E-03     587.588E-03    -295.068E-03     76.4691E-03    -293.288E-03     587.416E-03    -295.147E-03     67.0232E-03
            1169     2.68088E-03     177.482E-03    -132.145E+06    -202.670E+06    -101.066E+06    -2.65235E+06    -289.999E-03     583.790E-03    -293.791E-03     100.897E-03    -291.185E-03     584.072E-03    -293.811E-03     88.6101E-03
            1170     3.35516E-03     177.595E-03    -123.604E+06    -181.930E+06    -79.6732E+06    -3.36911E+06    -287.069E-03     579.379E-03    -292.310E-03     124.595E-03    -288.758E-03     580.206E-03    -292.266E-03     109.708E-03
            1171     4.03409E-03     177.726E-03    -114.462E+06    -161.052E+06    -58.2219E+06    -4.23833E+06    -283.785E-03     574.413E-03    -290.628E-03     147.310E-03    -286.044E-03     575.856E-03    -290.520E-03     130.073E-03
            1172     4.71619E-03     177.879E-03    -104.834E+06    -140.695E+06    -38.1580E+06    -5.25983E+06    -281.037E-03     569.844E-03    -288.807E-03     169.115E-03    -283.918E-03     571.957E-03    -288.642E-03     149.724E-03
            1173     5.40087E-03     178.051E-03    -94.9586E+06    -120.217E+06    -19.3288E+06    -5.58351E+06    -279.124E-03     566.096E-03    -286.972E-03     188.555E-03    -282.641E-03     568.900E-03    -286.757E-03     167.220E-03
            1174     6.08767E-03     178.240E-03    -84.9121E+06    -99.1920E+06    -1.40397E+06    -6.04415E+06    -278.212E-03     563.447E-03    -285.235E-03     205.262E-03    -282.346E-03     566.928E-03    -284.975E-03     182.195E-03
            1175     6.77596E-03     178.444E-03    -75.0710E+06    -76.1984E+06     15.3552E+06    -6.37458E+06    -278.646E-03     562.336E-03    -283.690E-03     218.565E-03    -283.332E-03     566.439E-03    -283.394E-03     194.000E-03
            1176     7.46350E-03     178.662E-03    -66.6523E+06    -54.2604E+06     30.4957E+06    -6.44174E+06    -280.399E-03     562.823E-03    -282.424E-03     228.184E-03    -285.547E-03     567.453E-03    -282.096E-03     202.302E-03
            1177     8.15091E-03     178.893E-03    -59.2960E+06    -31.2588E+06     44.1726E+06    -7.45658E+06    -283.384E-03     564.877E-03    -281.493E-03     234.273E-03    -288.894E-03     569.939E-03    -281.141E-03     207.192E-03
            1178     8.83626E-03     179.131E-03    -52.9555E+06    -8.35211E+06     55.5686E+06    -8.36465E+06    -287.817E-03     568.754E-03    -280.937E-03     237.393E-03    -293.610E-03     574.171E-03    -280.570E-03     209.067E-03
            1179     9.51752E-03     179.384E-03    -47.2224E+06     20.9124E+06     67.9624E+06    -8.22726E+06    -293.200E-03     573.987E-03    -280.787E-03     237.942E-03    -299.247E-03     579.747E-03    -280.409E-03     208.182E-03
            1180     10.1962E-03     179.641E-03    -40.1488E+06     64.8677E+06     84.6015E+06    -6.93049E+06    -299.316E-03     580.356E-03    -281.040E-03     236.232E-03    -305.652E-03     586.540E-03    -280.653E-03     204.614E-03
            1181     10.8700E-03     179.911E-03    -31.9750E+06     89.2441E+06     98.9227E+06    -5.17687E+06    -306.625E-03     588.349E-03    -281.724E-03     232.042E-03    -313.271E-03     594.916E-03    -281.312E-03     197.862E-03
            1182     11.5378E-03     180.183E-03    -23.8553E+06     91.9687E+06     112.449E+06    -2.99807E+06    -313.970E-03     596.828E-03    -282.858E-03     219.314E-03    -320.612E-03     603.390E-03    -282.394E-03     182.796E-03
            1183     12.1967E-03     180.451E-03    -16.0794E+06     94.3083E+06     124.452E+06    -871.719E+03    -320.186E-03     604.540E-03    -284.354E-03     207.470E-03    -327.154E-03     611.428E-03    -283.845E-03     167.176E-03
            1184     12.8566E-03     180.721E-03    -8.87245E+06     103.286E+06     133.627E+06    -821.500E+03    -324.575E-03     610.677E-03    -286.102E-03     156.562E-03    -329.627E-03     615.680E-03    -285.571E-03     121.934E-03
            1185     676.301E-06     178.990E-03    -142.262E+06    -242.098E+06    -139.897E+06    -1.26765E+06    -284.236E-03     568.517E-03    -284.281E-03     31.0425E-03    -284.475E-03     567.785E-03    -284.423E-03     28.1670E-03
            1186     1.35287E-03     179.027E-03    -138.071E+06    -232.556E+06    -129.306E+06    -1.45473E+06    -282.575E-03     566.313E-03    -283.738E-03     57.3921E-03    -282.983E-03     565.761E-03    -283.847E-03     52.1699E-03
            1187     2.03212E-03     179.083E-03    -132.213E+06    -217.218E+06    -113.014E+06    -1.84338E+06    -280.551E-03     563.293E-03    -282.741E-03     84.8274E-03    -281.228E-03     563.040E-03    -282.800E-03     77.2605E-03
            1188     2.71295E-03     179.168E-03    -124.681E+06    -198.520E+06    -93.0452E+06    -2.67320E+06    -278.450E-03     559.969E-03    -281.519E-03     111.775E-03    -279.494E-03     560.119E-03    -281.516E-03     101.901E-03
            1189     3.39714E-03     179.271E-03    -115.310E+06    -177.766E+06      -71.03E+06    -3.16106E+06    -276.285E-03     556.432E-03    -280.146E-03     137.719E-03    -277.783E-03     557.080E-03    -280.077E-03     125.586E-03
            1190     4.08328E-03     179.395E-03    -105.248E+06    -156.562E+06    -48.6262E+06    -3.15558E+06    -274.619E-03     553.311E-03    -278.692E-03     162.359E-03    -276.638E-03     554.529E-03    -278.555E-03     148.091E-03
            1191     4.77146E-03     179.542E-03    -95.3097E+06    -135.517E+06    -27.4773E+06    -3.33637E+06    -273.670E-03     550.911E-03    -277.241E-03     185.178E-03    -276.264E-03     552.756E-03    -277.044E-03     168.872E-03
            1192     5.46192E-03     179.709E-03    -85.3531E+06    -115.462E+06    -8.42101E+06    -4.17389E+06    -273.805E-03     549.692E-03    -275.886E-03     205.240E-03    -276.995E-03     552.187E-03    -275.637E-03     186.984E-03
            1193     6.15302E-03     179.896E-03    -76.2311E+06    -95.8805E+06     8.30355E+06    -3.95291E+06    -275.620E-03     550.367E-03    -274.747E-03     222.074E-03    -279.388E-03     553.497E-03    -274.456E-03     202.015E-03
            1194     6.84304E-03     180.102E-03    -68.3554E+06    -74.1066E+06     24.0073E+06    -2.36489E+06    -278.986E-03     552.918E-03    -273.932E-03     235.566E-03    -283.300E-03     556.655E-03    -273.605E-03     213.825E-03
            1195     7.53175E-03     180.324E-03    -61.3294E+06    -51.6319E+06     38.9798E+06    -526.453E+03    -283.708E-03     557.214E-03    -273.506E-03     244.954E-03    -288.487E-03     561.481E-03    -273.147E-03     221.652E-03
            1196     8.21746E-03     180.558E-03    -55.4869E+06    -24.9022E+06     53.4525E+06     1.12302E+06    -289.812E-03     563.320E-03    -273.508E-03     250.255E-03    -294.970E-03     568.041E-03    -273.124E-03     225.463E-03
            1197     8.89863E-03     180.808E-03    -50.6482E+06     1.49613E+06     66.3400E+06     365.394E+03    -297.105E-03     571.066E-03    -273.961E-03     252.146E-03    -302.580E-03     576.181E-03    -273.558E-03     225.707E-03
            1198     9.57620E-03     181.068E-03    -44.7654E+06     30.2136E+06     78.4107E+06    -2.89098E+06    -305.191E-03     580.058E-03    -274.867E-03     250.071E-03    -310.929E-03     585.524E-03    -274.454E-03     221.703E-03
            1199     10.2472E-03     181.340E-03    -37.4796E+06     67.8221E+06     92.5771E+06    -4.57908E+06    -314.120E-03     590.345E-03    -276.226E-03     244.975E-03    -320.147E-03     596.221E-03    -275.807E-03     214.137E-03
            1200     10.9117E-03     181.622E-03    -30.0819E+06     85.9413E+06     103.231E+06    -3.82669E+06    -323.412E-03     601.447E-03    -278.035E-03     237.778E-03    -329.768E-03     607.710E-03    -277.600E-03     203.756E-03
            1201     11.5670E-03     181.917E-03    -22.4274E+06     88.1021E+06     113.643E+06    -2.61218E+06    -331.135E-03     611.381E-03    -280.246E-03     223.585E-03    -337.585E-03     617.740E-03    -279.773E-03     186.573E-03
            1202     12.2190E-03     182.192E-03    -13.7629E+06     91.8965E+06     123.137E+06    -2.31849E+06    -336.546E-03     619.256E-03    -282.710E-03     209.857E-03    -343.417E-03     626.052E-03    -282.208E-03     168.353E-03
            1203     12.8617E-03     182.475E-03    -5.04543E+06     101.048E+06     129.639E+06    -1.18635E+06    -339.575E-03     624.867E-03    -285.293E-03     157.897E-03    -344.555E-03     629.815E-03    -284.784E-03     122.260E-03
            1204     687.641E-06     180.640E-03    -135.912E+06    -236.768E+06    -133.224E+06    -1.20492E+06    -266.349E-03     533.578E-03    -267.229E-03     35.4948E-03    -266.565E-03     532.834E-03    -267.355E-03     33.4303E-03
            1205     1.37741E-03     180.671E-03    -132.140E+06    -229.484E+06    -122.366E+06    -1.93109E+06    -266.243E-03     532.712E-03    -266.469E-03     64.2536E-03    -266.596E-03     532.106E-03    -266.556E-03     60.4519E-03
            1206     2.06703E-03     180.727E-03    -125.944E+06    -213.804E+06    -106.717E+06    -2.55528E+06    -265.443E-03     531.364E-03    -265.921E-03     94.3271E-03    -266.022E-03     531.020E-03    -265.962E-03     88.6777E-03
            1207     2.75892E-03     180.805E-03    -117.756E+06    -193.250E+06    -86.5583E+06    -3.14995E+06    -264.231E-03     529.388E-03    -265.156E-03     123.369E-03    -265.119E-03     529.398E-03    -265.138E-03     115.895E-03
            1208     3.45257E-03     180.904E-03    -108.924E+06    -173.956E+06    -64.7771E+06    -3.74363E+06    -263.793E-03     528.061E-03    -264.268E-03     151.147E-03    -265.070E-03     528.502E-03    -264.181E-03     141.790E-03
            1209     4.14735E-03     181.027E-03    -99.7525E+06    -154.408E+06    -43.4803E+06    -3.37641E+06    -264.618E-03     528.047E-03    -263.429E-03     177.592E-03    -266.364E-03     529.001E-03    -263.278E-03     166.291E-03
            1210     4.84277E-03     181.172E-03    -90.3726E+06    -133.541E+06    -22.6345E+06    -1.94019E+06    -266.557E-03     529.310E-03    -262.753E-03     201.669E-03    -268.830E-03     530.842E-03    -262.541E-03     188.440E-03
            1211     5.53783E-03     181.340E-03    -82.5685E+06    -113.741E+06    -3.80550E+06    -62.1823E+03    -269.939E-03     532.251E-03    -262.313E-03     222.815E-03    -272.775E-03     534.395E-03    -262.047E-03     207.667E-03
            1212     6.23164E-03     181.532E-03    -76.9145E+06    -94.8548E+06     12.4917E+06     2.31320E+06    -274.907E-03     537.097E-03    -262.190E-03     240.199E-03    -278.311E-03     539.853E-03    -261.879E-03     223.159E-03
            1213     6.92337E-03     181.744E-03    -72.0291E+06    -75.3392E+06     26.6858E+06     4.66446E+06    -281.512E-03     543.970E-03    -262.458E-03     253.607E-03    -285.452E-03     547.311E-03    -262.111E-03     234.716E-03
            1214     7.61130E-03     181.976E-03    -67.1297E+06    -52.1452E+06     40.2224E+06     6.53454E+06    -289.892E-03     553.079E-03    -263.187E-03     262.334E-03    -294.303E-03     556.956E-03    -262.813E-03     241.591E-03
            1215     8.29360E-03     182.224E-03    -61.5218E+06    -20.4984E+06     54.5762E+06     6.99994E+06    -299.828E-03     564.260E-03    -264.432E-03     266.187E-03    -304.644E-03     568.635E-03    -264.040E-03     243.499E-03
            1216     8.97054E-03     182.488E-03    -54.1539E+06     12.8104E+06     69.2803E+06     5.05813E+06    -310.698E-03     576.911E-03    -266.213E-03     265.003E-03    -315.837E-03     581.715E-03    -265.807E-03     240.177E-03
            1217     9.63874E-03     182.767E-03    -46.6894E+06     47.5413E+06     82.9200E+06     277.237E+03    -322.229E-03     590.742E-03    -268.514E-03     259.285E-03    -327.649E-03     595.939E-03    -268.100E-03     231.921E-03
            1218     10.2990E-03     183.056E-03    -39.2205E+06     74.9731E+06     92.7170E+06    -4.41631E+06    -333.530E-03     604.816E-03    -271.286E-03     250.704E-03    -339.235E-03     610.391E-03    -270.874E-03     220.256E-03
            1219     10.9501E-03     183.361E-03    -30.3146E+06     80.8398E+06     99.2477E+06    -5.20364E+06    -342.795E-03     617.231E-03    -274.436E-03     240.329E-03    -348.825E-03     623.161E-03    -274.013E-03     206.189E-03
            1220     11.5974E-03     183.668E-03    -21.5540E+06     86.1983E+06     109.877E+06    -4.07110E+06    -349.057E-03     626.879E-03    -277.822E-03     223.405E-03    -355.210E-03     632.950E-03    -277.367E-03     185.961E-03
            1221     12.2352E-03     183.964E-03    -13.9129E+06     91.0838E+06     117.755E+06    -4.14318E+06    -352.697E-03     633.968E-03    -281.271E-03     209.028E-03    -359.332E-03     640.540E-03    -280.794E-03     166.785E-03
            1222     12.8715E-03     184.258E-03    -7.79271E+06     95.7405E+06     122.334E+06    -3.35555E+06    -353.055E-03     637.699E-03    -284.645E-03     159.668E-03    -357.964E-03     642.569E-03    -284.161E-03     123.155E-03
            1223     704.664E-06     182.222E-03    -134.118E+06    -231.429E+06    -131.997E+06    -1.34473E+06    -245.736E-03     490.998E-03    -245.262E-03     38.6585E-03    -245.942E-03     490.258E-03    -245.391E-03     37.2569E-03
            1224     1.40741E-03     182.257E-03    -130.066E+06    -223.670E+06    -120.500E+06    -2.96356E+06    -246.486E-03     491.923E-03    -245.436E-03     70.2689E-03    -246.800E-03     491.290E-03    -245.526E-03     67.6832E-03
            1225     2.11093E-03     182.312E-03    -123.863E+06    -209.018E+06    -104.962E+06    -3.82957E+06    -247.255E-03     492.750E-03    -245.495E-03     102.928E-03    -247.744E-03     492.325E-03    -245.537E-03     99.0166E-03
            1226     2.81475E-03     182.388E-03    -116.875E+06    -190.133E+06    -86.2977E+06    -3.38392E+06    -248.573E-03     494.059E-03    -245.486E-03     134.361E-03    -249.317E-03     493.933E-03    -245.472E-03     129.033E-03
            1227     3.51894E-03     182.489E-03    -109.935E+06    -172.741E+06    -65.3528E+06    -1.87315E+06    -250.938E-03     496.467E-03    -245.529E-03     164.322E-03    -252.011E-03     496.703E-03    -245.446E-03     157.490E-03
            1228     4.22293E-03     182.615E-03    -103.722E+06    -155.054E+06    -44.7398E+06     306.970E+03    -254.652E-03     500.372E-03    -245.720E-03     192.059E-03    -256.130E-03     501.044E-03    -245.568E-03     183.610E-03
            1229     4.92547E-03     182.766E-03    -98.6011E+06    -136.564E+06    -25.8809E+06     3.40291E+06    -260.106E-03     506.267E-03    -246.161E-03     217.220E-03    -262.055E-03     507.445E-03    -245.949E-03     207.044E-03
            1230     5.62549E-03     182.944E-03    -94.1805E+06    -117.397E+06    -8.39452E+06     7.43291E+06    -267.315E-03     514.260E-03    -246.945E-03     239.370E-03    -269.790E-03     516.004E-03    -246.680E-03     227.343E-03
            1231     6.32198E-03     183.146E-03    -88.5696E+06    -96.3500E+06     8.38657E+06     10.0083E+06    -276.311E-03     524.454E-03    -248.143E-03     257.273E-03    -279.334E-03     526.799E-03    -247.833E-03     243.222E-03
            1232     7.01359E-03     183.372E-03    -82.2184E+06    -75.2003E+06     22.8697E+06     10.8746E+06    -287.245E-03     537.069E-03    -249.824E-03     270.035E-03    -290.790E-03     539.997E-03    -249.481E-03     253.846E-03
            1233     7.69875E-03     183.622E-03    -74.6177E+06    -49.6645E+06     36.8405E+06     10.3992E+06    -299.996E-03     552.051E-03    -252.055E-03     277.069E-03    -304.010E-03     555.531E-03    -251.691E-03     258.608E-03
            1234     8.37642E-03     183.892E-03    -65.4093E+06    -13.3644E+06     52.2364E+06     8.60176E+06    -314.093E-03     568.971E-03    -254.879E-03     278.044E-03    -318.509E-03     572.973E-03    -254.503E-03     257.161E-03
            1235     9.04295E-03     184.180E-03    -56.4802E+06     24.9063E+06     67.2497E+06     5.16295E+06    -328.855E-03     587.152E-03    -258.297E-03     273.603E-03    -333.615E-03     591.623E-03    -257.915E-03     250.003E-03
            1236     9.70064E-03     184.483E-03    -47.1051E+06     66.5255E+06     83.1912E+06     203.927E+03    -343.098E-03     605.351E-03    -262.253E-03     264.988E-03    -348.178E-03     610.277E-03    -261.865E-03     238.259E-03
            1237     10.3472E-03     184.802E-03    -37.5111E+06     87.0731E+06     92.1109E+06    -5.07768E+06    -354.941E-03     621.544E-03    -266.603E-03     253.252E-03    -360.309E-03     626.835E-03    -266.214E-03     222.940E-03
            1238     10.9870E-03     185.123E-03    -29.1040E+06     79.1581E+06     94.2964E+06    -8.20485E+06    -363.409E-03     634.575E-03    -271.165E-03     240.232E-03    -369.094E-03     640.175E-03    -270.766E-03     205.818E-03
            1239     11.6175E-03     185.450E-03    -20.4169E+06     82.9445E+06     104.568E+06    -8.22694E+06    -367.234E-03     642.983E-03    -275.749E-03     221.884E-03    -373.085E-03     648.759E-03    -275.317E-03     183.882E-03
            1240     12.2478E-03     185.755E-03    -11.6456E+06     86.0754E+06     113.090E+06    -5.91839E+06    -366.718E-03     646.843E-03    -280.124E-03     206.737E-03    -373.081E-03     653.144E-03    -279.667E-03     163.937E-03
            1241     12.8764E-03     186.056E-03    -4.33489E+06     88.4764E+06     117.859E+06    -1.99979E+06    -363.523E-03     647.676E-03    -284.153E-03     158.629E-03    -368.268E-03     652.379E-03    -283.686E-03     121.652E-03
            1242     719.966E-06     183.737E-03    -137.578E+06    -224.778E+06    -136.496E+06    -2.34954E+06    -222.516E-03     445.362E-03    -222.846E-03     40.9602E-03    -222.732E-03     444.650E-03    -223.003E-03     40.0509E-03
            1243     1.44047E-03     183.773E-03    -135.488E+06    -218.063E+06    -127.789E+06    -2.88317E+06    -224.793E-03     447.549E-03    -222.755E-03     74.8559E-03    -225.090E-03     446.919E-03    -222.882E-03     73.2269E-03
            1244     2.16002E-03     183.832E-03    -132.445E+06    -206.455E+06    -113.372E+06    -2.11606E+06    -227.688E-03     451.049E-03    -223.361E-03     109.267E-03    -228.122E-03     450.572E-03    -223.437E-03     106.793E-03
            1245     2.87793E-03     183.914E-03    -129.187E+06    -192.406E+06    -95.3682E+06     603.476E+03    -232.084E-03     456.297E-03    -224.213E-03     142.913E-03    -232.722E-03     456.040E-03    -224.223E-03     139.468E-03
            1246     3.59314E-03     184.023E-03    -125.862E+06    -177.460E+06    -75.2207E+06     4.82978E+06    -238.051E-03     463.411E-03    -225.359E-03     174.920E-03    -238.958E-03     463.436E-03    -225.296E-03     170.381E-03
            1247     4.30561E-03     184.158E-03    -121.803E+06    -159.577E+06    -54.4694E+06     8.63834E+06    -245.666E-03     472.491E-03    -226.825E-03     204.219E-03    -246.908E-03     472.878E-03    -226.689E-03     198.394E-03
            1248     5.01462E-03     184.324E-03    -116.396E+06    -141.230E+06    -35.0808E+06     11.2914E+06    -255.159E-03     483.811E-03    -228.652E-03     230.224E-03    -256.799E-03     484.632E-03    -228.454E-03     222.863E-03
            1249     5.71893E-03     184.516E-03    -109.192E+06    -120.347E+06    -17.2394E+06     12.7045E+06    -266.792E-03     497.702E-03    -230.911E-03     252.235E-03    -268.886E-03     499.035E-03    -230.664E-03     243.042E-03
            1250     6.41708E-03     184.739E-03    -99.9365E+06    -96.0332E+06    -902.355E+03     11.9826E+06    -280.699E-03     514.388E-03    -233.689E-03     269.154E-03    -283.281E-03     516.287E-03    -233.409E-03     257.825E-03
            1251     7.10672E-03     184.989E-03    -88.6806E+06    -71.8548E+06     14.4766E+06     9.55683E+06    -296.637E-03     533.708E-03    -237.071E-03     280.133E-03    -299.708E-03     536.183E-03    -236.766E-03     266.349E-03
            1252     7.78657E-03     185.267E-03    -76.6418E+06    -44.4733E+06     29.9099E+06     6.88064E+06    -314.032E-03     555.129E-03    -241.098E-03     284.939E-03    -317.566E-03     558.168E-03    -240.773E-03     268.440E-03
            1253     8.45423E-03     185.567E-03    -64.8726E+06    -6.89019E+06     46.4412E+06     4.72247E+06    -331.941E-03     577.694E-03    -245.753E-03     283.208E-03    -335.887E-03     581.274E-03    -245.417E-03     263.814E-03
            1254     9.11196E-03     185.888E-03    -53.0544E+06     37.9946E+06     64.3027E+06     1.80263E+06    -349.376E-03     600.354E-03    -250.977E-03     276.364E-03    -353.700E-03     604.460E-03    -250.634E-03     253.756E-03
            1255     9.75565E-03     186.226E-03    -41.8536E+06     81.6866E+06     81.7189E+06    -2.28870E+06    -364.409E-03     621.043E-03    -256.634E-03     265.393E-03    -369.074E-03     625.631E-03    -256.283E-03     239.257E-03
            1256     10.3905E-03     186.570E-03    -32.3772E+06     98.2998E+06     91.0098E+06    -5.91480E+06    -375.772E-03     638.290E-03    -262.518E-03     251.770E-03    -380.741E-03     643.245E-03    -262.159E-03     221.724E-03
            1257     11.0160E-03     186.916E-03    -24.2547E+06     83.6202E+06     92.7998E+06    -8.47820E+06    -382.408E-03     650.811E-03    -268.403E-03     237.242E-03    -387.703E-03     656.058E-03    -268.025E-03     202.842E-03
            1258     11.6392E-03     187.259E-03    -17.8474E+06     80.1880E+06     102.388E+06    -8.54064E+06    -382.813E-03     656.869E-03    -274.056E-03     218.193E-03    -388.330E-03     662.316E-03    -273.635E-03     179.996E-03
            1259     12.2584E-03     187.567E-03    -12.3049E+06     78.0105E+06     110.325E+06    -6.65153E+06    -378.865E-03     658.100E-03    -279.235E-03     203.381E-03    -384.967E-03     664.117E-03    -278.778E-03     160.165E-03
            1260     12.8792E-03     187.872E-03    -7.03664E+06     78.3142E+06     114.322E+06    -3.69513E+06    -371.734E-03     655.542E-03    -283.809E-03     157.144E-03    -376.356E-03     660.087E-03    -283.340E-03     119.657E-03
            1261     737.829E-06     185.180E-03    -152.763E+06    -226.868E+06    -148.163E+06     3.90655E+06    -200.613E-03     400.849E-03    -200.236E-03     43.3008E-03    -200.872E-03     400.154E-03    -200.426E-03     42.8670E-03
            1262     1.47405E-03     185.223E-03    -156.657E+06    -220.999E+06    -142.829E+06     6.61314E+06    -203.726E-03     404.379E-03    -200.653E-03     77.5132E-03    -204.059E-03     403.751E-03    -200.820E-03     76.7441E-03
            1263     2.20804E-03     185.288E-03    -159.025E+06    -210.036E+06    -130.548E+06     8.92620E+06    -208.941E-03     410.765E-03    -201.824E-03     113.202E-03    -209.389E-03     410.252E-03    -201.942E-03     111.967E-03
            1264     2.93912E-03     185.382E-03    -158.842E+06    -197.883E+06    -112.925E+06     10.6331E+06    -216.359E-03     419.901E-03    -203.542E-03     147.972E-03    -216.958E-03     419.538E-03    -203.589E-03     146.142E-03
            1265     3.66659E-03     185.505E-03    -154.066E+06    -182.739E+06    -92.3388E+06     11.2627E+06    -226.111E-03     431.894E-03    -205.783E-03     180.836E-03    -226.899E-03     431.739E-03    -205.757E-03     178.207E-03
            1266     4.38814E-03     185.659E-03    -144.534E+06    -163.331E+06    -70.8546E+06     11.2122E+06    -238.247E-03     446.808E-03    -208.560E-03     210.617E-03    -239.270E-03     446.937E-03    -208.468E-03     206.929E-03
            1267     5.10292E-03     185.844E-03    -131.871E+06    -142.665E+06    -50.1051E+06     9.88283E+06    -252.730E-03     464.635E-03    -211.905E-03     236.125E-03    -254.041E-03     465.120E-03    -211.758E-03     231.054E-03
            1268     5.80952E-03     186.063E-03    -116.600E+06    -119.564E+06    -30.6067E+06     7.01930E+06    -269.516E-03     485.370E-03    -215.854E-03     256.572E-03    -271.178E-03     486.294E-03    -215.664E-03     249.709E-03
            1269     6.50596E-03     186.315E-03    -100.710E+06    -92.4300E+06    -12.1049E+06     4.16141E+06    -288.406E-03     508.855E-03    -220.448E-03     271.219E-03    -290.475E-03     510.291E-03    -220.229E-03     262.161E-03
            1270     7.19110E-03     186.599E-03    -85.7374E+06    -65.7425E+06     5.25535E+06     776.035E+03    -308.840E-03     534.563E-03    -225.723E-03     279.491E-03    -311.345E-03     536.538E-03    -225.477E-03     267.833E-03
            1271     7.86304E-03     186.913E-03    -71.6222E+06    -40.0740E+06     21.7754E+06    -2.26478E+06    -329.850E-03     561.508E-03    -231.658E-03     281.605E-03    -332.788E-03     564.012E-03    -231.387E-03     266.992E-03
            1272     8.52252E-03     187.254E-03    -58.2872E+06    -4.38913E+06     39.7480E+06    -3.19496E+06    -350.288E-03     588.462E-03    -238.174E-03     277.751E-03    -353.642E-03     591.505E-03    -237.885E-03     259.900E-03
            1273     9.16607E-03     187.614E-03    -46.8589E+06     42.9993E+06     59.4393E+06    -2.91368E+06    -368.359E-03     613.483E-03    -245.124E-03     269.348E-03    -372.122E-03     617.084E-03    -244.821E-03     247.982E-03
            1274     9.79991E-03     187.988E-03    -38.7184E+06     89.8692E+06     79.1265E+06    -2.55185E+06    -382.739E-03     635.051E-03    -252.312E-03     257.163E-03    -386.884E-03     639.167E-03    -251.990E-03     232.056E-03
            1275     10.4229E-03     188.361E-03    -33.4420E+06     108.138E+06     90.2969E+06    -3.83560E+06    -392.615E-03     652.123E-03    -259.508E-03     242.715E-03    -397.108E-03     656.634E-03    -259.165E-03     213.485E-03
            1276     11.0394E-03     188.735E-03    -30.0331E+06     94.2983E+06     92.7432E+06    -7.55843E+06    -396.489E-03     662.953E-03    -266.464E-03     227.163E-03    -401.342E-03     667.773E-03    -266.093E-03     193.371E-03
            1277     11.6513E-03     189.081E-03    -24.9521E+06     82.9968E+06     102.213E+06    -12.1303E+06    -393.601E-03     666.542E-03    -272.940E-03     207.494E-03    -398.685E-03     671.538E-03    -272.513E-03     169.790E-03
            1278     12.2659E-03     189.402E-03    -16.3088E+06     68.1422E+06     109.850E+06    -12.2877E+06    -386.102E-03     664.794E-03    -278.692E-03     194.112E-03    -391.770E-03     670.327E-03    -278.218E-03     151.367E-03
            1279     12.8831E-03     189.696E-03    -6.15271E+06     62.3452E+06     116.547E+06    -7.35371E+06    -376.023E-03     659.642E-03    -283.619E-03     151.774E-03    -380.384E-03     663.864E-03    -283.118E-03     114.437E-03
            1280     751.855E-06     186.565E-03    -210.888E+06    -249.018E+06    -205.073E+06     9.94500E+06    -182.232E-03     362.165E-03    -179.933E-03     41.9217E-03    -182.646E-03     361.518E-03    -180.292E-03     41.8945E-03
            1281     1.50326E-03     186.611E-03    -204.889E+06    -236.173E+06    -185.935E+06     15.2733E+06    -185.833E-03     367.391E-03    -181.558E-03     76.9606E-03    -186.279E-03     366.789E-03    -181.848E-03     76.8599E-03
            1282     2.25167E-03     186.689E-03    -196.760E+06    -218.411E+06    -161.855E+06     16.9540E+06    -193.076E-03     376.420E-03    -183.344E-03     112.773E-03    -193.572E-03     375.894E-03    -183.551E-03     112.477E-03
            1283     2.99476E-03     186.798E-03    -184.686E+06    -199.540E+06    -135.128E+06     14.4752E+06    -203.687E-03     389.604E-03    -185.917E-03     147.301E-03    -204.244E-03     389.178E-03    -186.035E-03     146.629E-03
            1284     3.73066E-03     186.942E-03    -169.778E+06    -180.246E+06    -110.053E+06     9.17896E+06    -217.370E-03     406.650E-03    -189.281E-03     178.920E-03    -218.011E-03     406.365E-03    -189.324E-03     177.648E-03
            1285     4.45891E-03     187.120E-03    -153.612E+06    -159.037E+06    -87.4323E+06     3.03656E+06    -233.954E-03     427.377E-03    -193.423E-03     206.443E-03    -234.725E-03     427.297E-03    -193.407E-03     204.302E-03
            1286     5.17675E-03     187.336E-03    -136.506E+06    -136.084E+06    -66.6346E+06    -3.31318E+06    -253.300E-03     451.652E-03    -198.351E-03     229.098E-03    -254.263E-03     451.853E-03    -198.289E-03     225.724E-03
            1287     5.88240E-03     187.588E-03    -119.749E+06    -114.136E+06    -47.1705E+06    -9.49775E+06    -274.810E-03     478.878E-03    -204.068E-03     246.134E-03    -276.031E-03     479.425E-03    -203.965E-03     241.112E-03
            1288     6.57514E-03     187.878E-03    -103.856E+06    -90.1072E+06    -28.0525E+06    -13.7630E+06    -297.692E-03     508.226E-03    -210.534E-03     257.135E-03    -299.233E-03     509.184E-03    -210.393E-03     250.041E-03
            1289     7.25314E-03     188.204E-03    -89.3468E+06    -63.5530E+06    -9.12235E+06    -15.8993E+06    -321.090E-03     538.774E-03    -217.684E-03     261.754E-03    -322.991E-03     540.185E-03    -217.508E-03     252.191E-03
            1290     7.91650E-03     188.562E-03    -76.9559E+06    -37.9396E+06     9.23726E+06    -18.5467E+06    -343.795E-03     569.217E-03    -225.421E-03     260.520E-03    -346.071E-03     571.084E-03    -225.209E-03     248.049E-03
            1291     8.56390E-03     188.947E-03    -66.1111E+06    -11.4100E+06     26.9047E+06    -19.7688E+06    -364.151E-03     597.727E-03    -233.576E-03     254.842E-03    -366.810E-03     600.057E-03    -233.329E-03     239.051E-03
            1292     9.19987E-03     189.352E-03    -55.7322E+06     30.2781E+06     46.7928E+06    -16.6646E+06    -380.936E-03     622.858E-03    -241.922E-03     245.603E-03    -383.987E-03     625.704E-03    -241.651E-03     226.230E-03
            1293     9.82320E-03     189.760E-03    -45.1506E+06     76.6677E+06     69.4006E+06    -10.5911E+06    -393.492E-03     643.741E-03    -250.249E-03     234.169E-03    -396.936E-03     647.113E-03    -249.948E-03     210.926E-03
            1294     10.4374E-03     190.172E-03    -34.5609E+06     103.924E+06     87.7051E+06    -4.61723E+06    -400.715E-03     659.035E-03    -258.321E-03     221.337E-03    -404.533E-03     662.857E-03    -257.983E-03     193.904E-03
            1295     11.0467E-03     190.558E-03    -23.3336E+06     110.348E+06     103.034E+06    -4.57868E+06    -401.749E-03     667.645E-03    -265.895E-03     208.023E-03    -405.946E-03     671.858E-03    -265.506E-03     176.103E-03
            1296     11.6551E-03     190.927E-03    -14.0024E+06     97.3105E+06     116.550E+06    -7.79250E+06    -396.758E-03     669.520E-03    -272.762E-03     191.503E-03    -401.218E-03     673.940E-03    -272.300E-03     155.607E-03
            1297     12.2651E-03     191.231E-03    -7.69597E+06     66.6157E+06     121.009E+06    -9.23252E+06    -386.976E-03     665.695E-03    -278.720E-03     180.212E-03    -392.021E-03     670.597E-03    -278.200E-03     139.231E-03
            1298     12.8821E-03     191.530E-03    -4.73886E+06     46.5828E+06     125.775E+06    -6.57151E+06    -374.348E-03     658.049E-03    -283.701E-03     142.452E-03    -378.310E-03     661.793E-03    -283.133E-03     106.459E-03
            1299     764.009E-06     187.901E-03    -325.922E+06    -260.201E+06    -320.892E+06    -3.46714E+06    -169.371E-03     336.377E-03    -167.006E-03     38.2474E-03    -170.161E-03     336.009E-03    -167.761E-03     38.2212E-03
            1300     1.52445E-03     187.956E-03    -304.495E+06    -242.133E+06    -288.351E+06    -7.16762E+06    -174.383E-03     343.376E-03    -168.993E-03     69.1852E-03    -175.139E-03     343.022E-03    -169.642E-03     69.1119E-03
            1301     2.28122E-03     188.046E-03    -275.881E+06    -218.862E+06    -245.162E+06    -12.2427E+06    -183.214E-03     354.694E-03    -171.481E-03     101.093E-03    -183.928E-03     354.361E-03    -171.989E-03     100.889E-03
            1302     3.03182E-03     188.175E-03    -243.870E+06    -194.598E+06    -201.223E+06    -18.4501E+06    -196.009E-03     370.916E-03    -174.907E-03     131.651E-03    -196.680E-03     370.615E-03    -175.277E-03     131.227E-03
            1303     3.77343E-03     188.344E-03    -212.724E+06    -173.200E+06    -162.360E+06    -24.9324E+06    -212.722E-03     392.068E-03    -179.346E-03     159.162E-03    -213.361E-03     391.814E-03    -179.598E-03     158.401E-03
            1304     4.50283E-03     188.554E-03    -183.973E+06    -150.799E+06    -128.953E+06    -31.6478E+06    -232.785E-03     417.589E-03    -184.804E-03     182.258E-03    -233.439E-03     417.440E-03    -184.963E-03     180.910E-03
            1305     5.21925E-03     188.805E-03    -158.287E+06    -130.681E+06    -100.043E+06    -37.0550E+06    -255.414E-03     446.657E-03    -191.243E-03     199.865E-03    -256.139E-03     446.663E-03    -191.324E-03     197.616E-03
            1306     5.92088E-03     189.098E-03    -135.507E+06    -111.399E+06    -73.0632E+06    -40.1881E+06    -279.790E-03     478.386E-03    -198.596E-03     211.375E-03    -280.643E-03     478.595E-03    -198.603E-03     207.882E-03
            1307     6.60592E-03     189.432E-03    -115.345E+06    -93.1217E+06    -47.9013E+06    -41.3855E+06    -304.648E-03     511.398E-03    -206.750E-03     216.537E-03    -305.678E-03     511.849E-03    -206.687E-03     211.424E-03
            1308     7.27511E-03     189.803E-03    -97.0546E+06    -71.4769E+06    -24.2700E+06    -40.0422E+06    -328.447E-03     543.974E-03    -215.527E-03     215.993E-03    -329.694E-03     544.715E-03    -215.404E-03     208.827E-03
            1309     7.92763E-03     190.209E-03    -80.2479E+06    -44.6777E+06    -350.174E+03    -36.5455E+06    -349.668E-03     574.369E-03    -224.702E-03     211.420E-03    -351.174E-03     575.454E-03    -224.522E-03     201.709E-03
            1310     8.56681E-03     190.639E-03    -65.4669E+06    -20.5349E+06     22.4072E+06    -32.6355E+06    -367.287E-03     601.301E-03    -234.014E-03     204.392E-03    -369.073E-03     602.735E-03    -233.777E-03     191.677E-03
            1311     9.19308E-03     191.082E-03    -51.6964E+06     10.5015E+06     43.5005E+06    -27.5203E+06    -380.745E-03     623.925E-03    -243.180E-03     196.456E-03    -382.836E-03     625.760E-03    -242.903E-03     180.343E-03
            1312     9.81024E-03     191.533E-03    -39.3542E+06     47.4800E+06     64.6808E+06    -18.3725E+06    -389.391E-03     641.344E-03    -251.954E-03     189.200E-03    -391.828E-03     643.636E-03    -251.642E-03     169.436E-03
            1313     10.4229E-03     191.968E-03    -28.3323E+06     86.4396E+06     88.2453E+06    -11.2201E+06    -393.020E-03     653.137E-03    -260.117E-03     183.025E-03    -395.866E-03     655.944E-03    -259.760E-03     159.276E-03
            1314     11.0323E-03     192.385E-03    -19.8224E+06     110.057E+06     114.010E+06    -7.65432E+06    -391.918E-03     659.441E-03    -267.523E-03     176.552E-03    -395.206E-03     662.727E-03    -267.084E-03     148.608E-03
            1315     11.6438E-03     192.750E-03    -14.4164E+06     99.7732E+06     126.284E+06    -4.07399E+06    -386.950E-03     660.984E-03    -274.034E-03     166.656E-03    -390.586E-03     664.562E-03    -273.527E-03     134.772E-03
            1316     12.2579E-03     193.074E-03    -10.6861E+06     67.8513E+06     130.632E+06    -795.931E+03    -377.394E-03     656.990E-03    -279.596E-03     159.089E-03    -381.621E-03     661.041E-03    -279.026E-03     122.089E-03
            1317     12.8776E-03     193.339E-03    -5.48090E+06     42.7137E+06     144.683E+06    -916.434E+03    -363.777E-03     647.957E-03    -284.180E-03     129.785E-03    -367.233E-03     651.124E-03    -283.511E-03     96.6607E-03
            1318     764.551E-06     189.215E-03    -353.484E+06    -222.366E+06    -350.231E+06    -21.5382E+06    -169.675E-03     337.068E-03    -167.393E-03     25.3272E-03    -170.620E-03     336.969E-03    -168.310E-03     25.0263E-03
            1319     1.52703E-03     189.279E-03    -336.584E+06    -207.168E+06    -321.169E+06    -38.4595E+06    -174.745E-03     344.472E-03    -169.727E-03     45.7307E-03    -175.670E-03     344.382E-03    -170.544E-03     45.1867E-03
            1320     2.28370E-03     189.383E-03    -310.647E+06    -189.088E+06    -282.015E+06    -53.3467E+06    -183.971E-03     356.725E-03    -172.754E-03     66.8706E-03    -184.851E-03     356.634E-03    -173.439E-03     66.0800E-03
            1321     3.03248E-03     189.532E-03    -280.514E+06    -170.087E+06    -240.896E+06    -65.3018E+06    -196.794E-03     373.736E-03    -176.942E-03     85.9142E-03    -197.619E-03     373.646E-03    -177.493E-03     84.8417E-03
            1322     3.77108E-03     189.727E-03    -248.471E+06    -153.520E+06    -202.215E+06    -75.1476E+06    -212.935E-03     395.219E-03    -182.284E-03     101.577E-03    -213.695E-03     395.125E-03    -182.712E-03     100.182E-03
            1323     4.49678E-03     189.971E-03    -217.419E+06    -138.486E+06    -168.133E+06    -82.1428E+06    -232.027E-03     420.776E-03    -188.749E-03     113.451E-03    -232.729E-03     420.692E-03    -189.074E-03     111.674E-03
            1324     5.20638E-03     190.260E-03    -189.320E+06    -127.019E+06    -138.511E+06    -86.0687E+06    -253.407E-03     449.693E-03    -196.285E-03     120.805E-03    -254.073E-03     449.632E-03    -196.519E-03     118.499E-03
            1325     5.89863E-03     190.596E-03    -164.588E+06    -116.037E+06    -111.952E+06    -87.5860E+06    -275.855E-03     480.635E-03    -204.780E-03     123.044E-03    -276.513E-03     480.620E-03    -204.933E-03     120.031E-03
            1326     6.57336E-03     190.975E-03    -143.356E+06    -105.781E+06    -87.5191E+06    -86.9295E+06    -297.659E-03     511.688E-03    -214.029E-03     120.608E-03    -298.337E-03     511.738E-03    -214.105E-03     116.619E-03
            1327     7.22971E-03     191.393E-03    -125.110E+06    -93.9919E+06    -64.6414E+06    -85.4720E+06    -317.021E-03     540.736E-03    -223.714E-03     115.725E-03    -317.753E-03     540.884E-03    -223.720E-03     110.383E-03
            1328     7.87200E-03     191.840E-03    -108.861E+06    -78.2891E+06    -41.9044E+06    -81.3578E+06    -332.897E-03     566.363E-03    -233.466E-03     110.380E-03    -333.714E-03     566.649E-03    -233.405E-03     103.368E-03
            1329     8.50215E-03     192.309E-03    -93.7180E+06    -57.0936E+06    -15.2521E+06    -75.7122E+06    -344.996E-03     587.942E-03    -242.946E-03     106.788E-03    -345.933E-03     588.407E-03    -242.804E-03     97.7963E-03
            1330     9.12401E-03     192.791E-03    -80.7978E+06    -34.2322E+06     17.3208E+06    -68.9715E+06    -353.234E-03     605.088E-03    -251.855E-03     106.921E-03    -354.356E-03     605.777E-03    -251.601E-03     95.5635E-03
            1331     9.74286E-03     193.266E-03    -67.3918E+06    -12.7762E+06     46.3335E+06    -58.3954E+06    -357.856E-03     617.755E-03    -259.899E-03     110.411E-03    -359.209E-03     618.717E-03    -259.551E-03     96.2567E-03
            1332     10.3602E-03     193.731E-03    -52.4484E+06     33.1177E+06     82.0156E+06    -43.8508E+06    -358.947E-03     625.888E-03    -266.941E-03     115.878E-03    -360.657E-03     627.318E-03    -266.503E-03     98.3561E-03
            1333     10.9823E-03     194.160E-03    -38.6742E+06     62.7729E+06     119.293E+06    -23.4456E+06    -357.674E-03     630.656E-03    -272.981E-03     121.647E-03    -359.827E-03     632.572E-03    -272.420E-03     100.227E-03
            1334     11.6052E-03     194.551E-03    -28.2026E+06     72.4543E+06     133.644E+06    -4.18699E+06    -354.460E-03     632.423E-03    -277.963E-03     125.416E-03    -357.067E-03     634.820E-03    -277.359E-03     99.9035E-03
            1335     12.2317E-03     194.871E-03    -19.6812E+06     72.5812E+06     144.897E+06    -392.003E+03    -348.189E-03     630.222E-03    -282.034E-03     128.441E-03    -351.396E-03     633.208E-03    -281.386E-03     98.2391E-03
            1336     12.8666E-03     195.134E-03    -8.68381E+06     44.2733E+06     166.708E+06    -3.97598E+06    -338.054E-03     623.367E-03    -285.313E-03     110.177E-03    -340.765E-03     625.724E-03    -284.531E-03     82.8871E-03
            1337     749.617E-06     190.553E-03    -254.034E+06    -147.420E+06    -249.287E+06    -25.3074E+06    -193.778E-03     385.351E-03    -191.572E-03    -2.63937E-03    -194.551E-03     385.257E-03    -192.237E-03    -3.30789E-03
            1338     1.49605E-03     190.623E-03    -243.652E+06    -138.802E+06    -229.480E+06    -44.3220E+06    -196.739E-03     391.509E-03    -194.770E-03    -6.95703E-03    -197.493E-03     391.397E-03    -195.362E-03    -8.24954E-03
            1339     2.23709E-03     190.741E-03    -228.760E+06    -128.601E+06    -203.285E+06    -61.8272E+06    -203.040E-03     401.443E-03    -198.403E-03    -12.3367E-03    -203.750E-03     401.293E-03    -198.901E-03    -14.3105E-03
            1340     2.96843E-03     190.908E-03    -211.220E+06    -117.929E+06    -176.672E+06    -76.4028E+06    -210.822E-03     414.172E-03    -203.349E-03    -19.6284E-03    -211.462E-03     413.976E-03    -203.755E-03    -22.2868E-03
            1341     3.68743E-03     191.125E-03    -193.242E+06    -109.289E+06    -152.164E+06    -87.3320E+06    -219.621E-03     429.084E-03    -209.463E-03    -28.6492E-03    -220.171E-03     428.825E-03    -209.785E-03    -31.9886E-03
            1342     4.39277E-03     191.392E-03    -176.412E+06    -103.899E+06    -130.559E+06    -94.6214E+06    -229.107E-03     445.753E-03    -216.645E-03    -39.6824E-03    -229.550E-03     445.405E-03    -216.892E-03    -43.6703E-03
            1343     5.08332E-03     191.711E-03    -161.118E+06    -99.8719E+06    -111.558E+06    -98.8842E+06    -238.749E-03     463.533E-03    -224.783E-03    -52.3257E-03    -239.074E-03     463.091E-03    -224.963E-03    -56.9095E-03
            1344     5.75677E-03     192.080E-03    -147.428E+06    -96.0217E+06    -94.0599E+06    -101.254E+06    -247.665E-03     481.324E-03    -233.659E-03    -65.0932E-03    -247.867E-03     480.799E-03    -233.776E-03    -70.2479E-03
            1345     6.41311E-03     192.493E-03    -135.315E+06    -92.6421E+06    -77.3468E+06    -101.964E+06    -254.839E-03     497.743E-03    -242.904E-03    -75.9216E-03    -254.935E-03     497.152E-03    -242.960E-03    -81.6651E-03
            1346     7.05680E-03     192.942E-03    -124.573E+06    -87.8326E+06    -59.6986E+06    -101.357E+06    -259.971E-03     512.048E-03    -252.077E-03    -82.7738E-03    -259.996E-03     511.430E-03    -252.068E-03    -89.1245E-03
            1347     7.69020E-03     193.419E-03    -115.187E+06    -82.4536E+06    -40.8556E+06    -99.7329E+06    -263.241E-03     523.988E-03    -260.747E-03    -83.9084E-03    -263.229E-03     523.375E-03    -260.665E-03    -90.9006E-03
            1348     8.31784E-03     193.916E-03    -105.771E+06    -71.2310E+06    -17.8000E+06    -97.3532E+06    -264.533E-03     533.042E-03    -268.509E-03    -77.8885E-03    -264.539E-03     532.493E-03    -268.341E-03    -85.5938E-03
            1349     8.94696E-03     194.417E-03    -93.9837E+06    -58.4755E+06     14.9802E+06    -92.0461E+06    -264.835E-03     539.899E-03    -275.064E-03    -63.8837E-03    -264.916E-03     539.456E-03    -274.768E-03    -72.3717E-03
            1350     9.57817E-03     194.920E-03    -81.5181E+06    -50.7751E+06     43.7325E+06    -84.1628E+06    -264.708E-03     544.841E-03    -280.133E-03    -41.5097E-03    -264.930E-03     544.568E-03    -279.722E-03    -50.9893E-03
            1351     10.2171E-03     195.400E-03    -69.6375E+06    -30.7761E+06     71.4163E+06    -70.5547E+06    -265.699E-03     549.299E-03    -283.600E-03    -9.44558E-03    -266.188E-03     549.356E-03    -283.097E-03    -20.1887E-03
            1352     10.8608E-03     195.854E-03    -58.1476E+06    -14.5743E+06     99.6338E+06    -48.2202E+06    -269.674E-03     555.294E-03    -285.621E-03     30.7290E-03    -270.539E-03     555.744E-03    -285.017E-03     18.3397E-03
            1353     11.5146E-03     196.258E-03    -38.5742E+06     15.0919E+06     129.491E+06    -29.5009E+06    -277.189E-03     563.748E-03    -286.560E-03     71.1298E-03    -278.524E-03     564.718E-03    -285.878E-03     56.1818E-03
            1354     12.1775E-03     196.601E-03    -15.1119E+06     51.7383E+06     164.202E+06    -13.2237E+06    -287.542E-03     574.579E-03    -287.037E-03     100.612E-03    -289.482E-03     576.216E-03    -286.269E-03     81.8234E-03
            1355     12.8414E-03     196.867E-03    -483.161E+03     41.3268E+06     184.257E+06    -85.6336E+03    -291.242E-03     578.652E-03    -287.410E-03     93.2918E-03    -293.015E-03     580.049E-03    -286.548E-03     75.4274E-03
            1356     706.234E-06     192.000E-03    -124.486E+06    -70.1594E+06    -120.905E+06    -17.9601E+06    -263.171E-03     530.460E-03    -267.289E-03    -71.3703E-03    -264.058E-03     529.754E-03    -267.611E-03    -72.9907E-03
            1357     1.40861E-03     192.076E-03    -119.881E+06    -67.6500E+06    -108.319E+06    -31.2601E+06    -260.182E-03     529.950E-03    -269.767E-03    -129.389E-03    -260.892E-03     529.077E-03    -270.037E-03    -132.367E-03
            1358     2.10206E-03     192.202E-03    -113.136E+06    -63.1805E+06    -90.1409E+06    -42.9586E+06    -253.922E-03     527.581E-03    -273.659E-03    -188.707E-03    -254.343E-03     526.467E-03    -273.854E-03    -192.985E-03
            1359     2.78612E-03     192.376E-03    -105.670E+06    -58.2601E+06    -71.4616E+06    -51.8850E+06    -244.384E-03     523.007E-03    -278.623E-03    -244.354E-03    -244.452E-03     521.587E-03    -278.743E-03    -249.744E-03
            1360     3.45975E-03     192.600E-03    -98.5571E+06    -55.0679E+06    -53.7326E+06    -57.6356E+06    -231.754E-03     516.247E-03    -284.493E-03    -294.217E-03    -231.445E-03     514.507E-03    -284.539E-03    -300.423E-03
            1361     4.11985E-03     192.875E-03    -91.6255E+06    -52.9151E+06    -36.7351E+06    -60.8837E+06    -216.462E-03     507.544E-03    -291.082E-03    -336.040E-03    -215.777E-03     505.527E-03    -291.056E-03    -342.807E-03
            1362     4.76519E-03     193.197E-03    -85.0140E+06    -51.2072E+06    -20.3659E+06    -62.2092E+06    -198.980E-03     497.077E-03    -298.097E-03    -367.539E-03    -197.958E-03     494.845E-03    -298.001E-03    -374.639E-03
            1363     5.39820E-03     193.567E-03    -78.0500E+06    -48.7524E+06    -3.50692E+06    -61.9377E+06    -179.805E-03     484.897E-03    -305.091E-03    -386.438E-03    -178.537E-03     482.558E-03    -304.925E-03    -393.635E-03
            1364     6.02351E-03     193.977E-03    -70.6617E+06    -46.1572E+06     14.1011E+06    -60.5550E+06    -160.429E-03     472.012E-03    -311.583E-03    -391.841E-03    -159.016E-03     469.680E-03    -311.343E-03    -398.955E-03
            1365     6.64422E-03     194.421E-03    -63.5581E+06    -43.1062E+06     32.7367E+06    -57.6863E+06    -142.499E-03     459.651E-03    -317.151E-03    -384.518E-03    -141.035E-03     457.416E-03    -316.833E-03    -391.431E-03
            1366     7.26538E-03     194.894E-03    -55.6042E+06    -38.3431E+06     53.3445E+06    -54.7105E+06    -126.874E-03     448.264E-03    -321.390E-03    -365.029E-03    -125.454E-03     446.218E-03    -320.987E-03    -371.713E-03
            1367     7.89437E-03     195.383E-03    -48.6999E+06    -32.3175E+06     73.2006E+06    -50.9997E+06    -114.558E-03     438.499E-03    -323.941E-03    -335.097E-03    -113.267E-03     436.711E-03    -323.458E-03    -341.552E-03
            1368     8.53421E-03     195.883E-03    -42.0171E+06    -26.5983E+06     91.1890E+06    -47.2516E+06    -105.620E-03     430.132E-03    -324.512E-03    -294.716E-03    -104.532E-03     428.661E-03    -323.956E-03    -300.924E-03
            1369     9.19339E-03     196.382E-03    -38.0048E+06    -25.5950E+06     104.675E+06    -41.9199E+06    -99.9851E-03     422.854E-03    -322.869E-03    -244.315E-03    -99.1628E-03     421.717E-03    -322.253E-03    -250.172E-03
            1370     9.88106E-03     196.870E-03    -36.1606E+06    -26.4340E+06     113.846E+06    -39.4896E+06    -98.7306E-03     417.799E-03    -319.068E-03    -186.962E-03    -98.2176E-03     416.974E-03    -318.408E-03    -192.454E-03
            1371     10.6012E-03     197.342E-03    -35.5845E+06    -33.7493E+06     119.732E+06    -37.0412E+06    -102.978E-03     416.571E-03    -313.592E-03    -128.612E-03    -102.759E-03     415.979E-03    -312.893E-03    -133.827E-03
            1372     11.3444E-03     197.785E-03    -28.3673E+06    -13.5464E+06     141.729E+06    -36.9727E+06    -115.975E-03     423.238E-03    -307.263E-03    -74.2271E-03    -116.071E-03     422.985E-03    -306.493E-03    -79.9171E-03
            1373     12.0841E-03     198.189E-03    -17.2946E+06     2.86354E+06     163.919E+06    -22.4605E+06    -137.942E-03     438.686E-03    -300.744E-03    -20.9148E-03    -138.455E-03     438.910E-03    -299.904E-03    -28.3910E-03
            1374     12.8054E-03     198.514E-03    -3.34708E+06     13.4537E+06     152.000E+06    -1.71612E+06    -157.931E-03     451.973E-03    -294.042E-03     15.6449E-03    -158.574E-03     452.399E-03    -293.297E-03     8.27595E-03
            1375     12.7424E-03     98.9631E-03    -3.28054E+06     57.2582E+06     78.5856E+06     864.074E+03    -294.637E-03     589.258E-03    -294.621E-03     128.994E-03    -299.227E-03     593.812E-03    -294.307E-03     96.6837E-03
            1376     12.0705E-03     98.7227E-03    -8.57076E+06     53.8695E+06     74.8829E+06     611.511E+03    -295.674E-03     590.316E-03    -294.642E-03     173.579E-03    -302.520E-03     597.105E-03    -294.333E-03     133.072E-03
            1377     11.3973E-03     98.4711E-03    -14.2303E+06     46.8212E+06     71.5142E+06    -405.548E+03    -296.999E-03     591.666E-03    -294.666E-03     184.269E-03    -304.360E-03     598.934E-03    -294.356E-03     142.678E-03
            1378     10.7277E-03     98.1916E-03    -19.4491E+06     42.3810E+06     71.9071E+06    -846.469E+03    -298.221E-03     592.903E-03    -294.682E-03     197.636E-03    -306.403E-03     600.958E-03    -294.356E-03     154.065E-03
            1379     10.0584E-03     97.8963E-03    -24.9211E+06     37.9296E+06     68.7664E+06    -284.354E+03    -298.693E-03     593.366E-03    -294.673E-03     203.515E-03    -307.155E-03     601.675E-03    -294.348E-03     159.629E-03
            1380     9.38739E-03     97.5963E-03    -30.8289E+06     31.4579E+06     62.1143E+06     834.012E+03    -299.068E-03     593.725E-03    -294.658E-03     206.633E-03    -307.596E-03     602.076E-03    -294.348E-03     163.014E-03
            1381     8.71664E-03     97.2884E-03    -37.1109E+06     22.9936E+06     53.0647E+06     1.32671E+06    -299.105E-03     593.748E-03    -294.643E-03     205.636E-03    -307.437E-03     601.876E-03    -294.357E-03     162.866E-03
            1382     8.04573E-03     96.9908E-03    -44.2599E+06     14.6230E+06     43.8533E+06     1.58277E+06    -299.030E-03     593.665E-03    -294.635E-03     201.534E-03    -306.970E-03     601.373E-03    -294.373E-03     160.055E-03
            1383     7.37535E-03     96.6936E-03    -51.5294E+06     6.13047E+06     34.1895E+06     1.57164E+06    -298.766E-03     593.396E-03    -294.630E-03     194.558E-03    -306.130E-03     600.499E-03    -294.393E-03     154.855E-03
            1384     6.70475E-03     96.4145E-03    -59.3623E+06    -3.67335E+06     24.3556E+06     1.23556E+06    -298.301E-03     592.935E-03    -294.634E-03     184.685E-03    -304.919E-03     599.259E-03    -294.421E-03     147.278E-03
            1385     6.03389E-03     96.1478E-03    -68.2203E+06    -14.1324E+06     14.1667E+06     714.758E+03    -297.865E-03     592.508E-03    -294.642E-03     172.085E-03    -303.623E-03     597.931E-03    -294.452E-03     137.429E-03
            1386     5.36345E-03     95.9043E-03    -77.5764E+06    -30.9912E+06    -647.540E+03     353.592E+03    -297.195E-03     591.836E-03    -294.641E-03     156.993E-03    -302.013E-03     596.271E-03    -294.487E-03     125.533E-03
            1387     4.69263E-03     95.6833E-03    -87.1352E+06    -62.7369E+06    -19.8757E+06     908.319E+03    -296.627E-03     591.277E-03    -294.650E-03     140.231E-03    -300.487E-03     594.663E-03    -294.532E-03     112.300E-03
            1388     4.02197E-03     95.4906E-03    -96.4474E+06    -94.5903E+06    -40.6679E+06     1.11030E+06    -296.307E-03     590.943E-03    -294.636E-03     122.083E-03    -299.262E-03     593.338E-03    -294.563E-03     97.8789E-03
            1389     3.35197E-03     95.3221E-03    -105.235E+06    -120.476E+06    -61.8254E+06     1.15853E+06    -295.728E-03     590.327E-03    -294.599E-03     102.803E-03    -297.875E-03     591.852E-03    -294.581E-03     82.5132E-03
            1390     2.68078E-03     95.1857E-03    -113.125E+06    -147.136E+06    -82.9922E+06     1.21035E+06    -295.195E-03     589.773E-03    -294.578E-03     82.9434E-03    -296.656E-03     590.550E-03    -294.615E-03     66.6196E-03
            1391     2.01099E-03     95.0761E-03    -119.791E+06    -170.080E+06    -102.508E+06     908.578E+03    -294.999E-03     589.548E-03    -294.549E-03     62.6258E-03    -295.912E-03     589.729E-03    -294.641E-03     50.2748E-03
            1392     1.34064E-03     94.9993E-03    -124.854E+06    -194.109E+06    -116.841E+06     854.052E+03    -294.931E-03     589.388E-03    -294.457E-03     42.1074E-03    -295.436E-03     589.100E-03    -294.578E-03     33.7700E-03
            1393     670.689E-06     94.9508E-03    -127.400E+06    -210.815E+06    -125.366E+06     745.142E+03    -294.899E-03     588.826E-03    -293.927E-03     22.9543E-03    -295.155E-03     588.246E-03    -294.064E-03     18.4159E-03
            1394     12.7373E-03     97.2542E-03    -4.59509E+06     55.9558E+06     77.2064E+06    -22.9862E+03    -294.819E-03     589.475E-03    -294.655E-03     128.549E-03    -299.411E-03     594.025E-03    -294.344E-03     96.1306E-03
            1395     12.0678E-03     97.0116E-03    -8.17392E+06     54.2135E+06     74.6240E+06     429.998E+03    -296.434E-03     591.078E-03    -294.644E-03     172.138E-03    -303.265E-03     597.856E-03    -294.338E-03     131.467E-03
            1396     11.3999E-03     96.7649E-03    -11.8675E+06     49.3317E+06     72.6410E+06     861.029E+03    -297.122E-03     591.759E-03    -294.637E-03     183.660E-03    -304.463E-03     599.022E-03    -294.328E-03     142.064E-03
            1397     10.7292E-03     96.4801E-03    -17.5360E+06     44.0321E+06     72.4602E+06     211.493E+03    -297.883E-03     592.540E-03    -294.657E-03     197.743E-03    -306.055E-03     600.595E-03    -294.333E-03     154.245E-03
            1398     10.0574E-03     96.1907E-03    -24.0842E+06     36.5604E+06     68.8049E+06    -320.915E+03    -298.597E-03     593.265E-03    -294.668E-03     204.005E-03    -307.058E-03     601.570E-03    -294.342E-03     160.156E-03
            1399     9.38716E-03     95.8844E-03    -30.5992E+06     29.2560E+06     62.5160E+06     41.9445E+03    -298.951E-03     593.618E-03    -294.667E-03     206.637E-03    -307.458E-03     601.939E-03    -294.353E-03     163.092E-03
            1400     8.71644E-03     95.5840E-03    -37.4557E+06     22.1153E+06     53.7299E+06     734.015E+03    -299.013E-03     593.675E-03    -294.662E-03     205.502E-03    -307.330E-03     601.782E-03    -294.371E-03     162.795E-03
            1401     8.04597E-03     95.2789E-03    -44.2555E+06     14.7657E+06     44.8512E+06     791.664E+03    -299.004E-03     593.665E-03    -294.661E-03     201.600E-03    -306.946E-03     601.371E-03    -294.394E-03     160.128E-03
            1402     7.37550E-03     94.9882E-03    -51.5102E+06     6.36023E+06     35.1011E+06     700.362E+03    -298.730E-03     593.391E-03    -294.661E-03     194.747E-03    -306.099E-03     600.498E-03    -294.420E-03     155.041E-03
            1403     6.70429E-03     94.7047E-03    -59.6225E+06    -3.06545E+06     24.8440E+06     851.401E+03    -298.466E-03     593.128E-03    -294.662E-03     184.972E-03    -305.094E-03     599.461E-03    -294.446E-03     147.536E-03
            1404     6.03413E-03     94.4405E-03    -68.2619E+06    -12.9595E+06     14.1005E+06     832.495E+03    -297.901E-03     592.560E-03    -294.659E-03     172.036E-03    -303.659E-03     597.989E-03    -294.471E-03     137.374E-03
            1405     5.36325E-03     94.1955E-03    -77.7764E+06    -30.6594E+06    -1.36534E+06     915.636E+03    -297.165E-03     591.821E-03    -294.656E-03     156.703E-03    -301.979E-03     596.254E-03    -294.506E-03     125.258E-03
            1406     4.69238E-03     93.9771E-03    -87.5731E+06    -62.9211E+06    -20.6692E+06     564.246E+03    -296.793E-03     591.446E-03    -294.652E-03     139.848E-03    -300.649E-03     594.827E-03    -294.537E-03     111.886E-03
            1407     4.02227E-03     93.7799E-03    -96.8970E+06    -94.2395E+06    -41.2411E+06     354.586E+03    -296.344E-03     590.960E-03    -294.616E-03     121.479E-03    -299.292E-03     593.349E-03    -294.545E-03     97.2646E-03
            1408     3.35178E-03     93.6158E-03    -105.526E+06    -120.252E+06    -62.2955E+06     380.273E+03    -295.732E-03     590.295E-03    -294.563E-03     102.360E-03    -297.875E-03     591.817E-03    -294.547E-03     82.0506E-03
            1409     2.68193E-03     93.4767E-03    -113.227E+06    -146.769E+06    -82.8262E+06     431.289E+03    -295.290E-03     589.807E-03    -294.517E-03     82.8871E-03    -296.753E-03     590.587E-03    -294.554E-03     66.5368E-03
            1410     2.01112E-03     93.3691E-03    -119.461E+06    -169.189E+06    -102.037E+06     742.972E+03    -294.933E-03     589.398E-03    -294.465E-03     62.7074E-03    -295.847E-03     589.582E-03    -294.556E-03     50.3653E-03
            1411     1.34086E-03     93.2904E-03    -123.808E+06    -192.606E+06    -116.360E+06     580.718E+03    -294.698E-03     589.118E-03    -294.420E-03     42.4643E-03    -295.202E-03     588.837E-03    -294.543E-03     34.1266E-03
            1412     670.696E-06     93.2437E-03    -126.631E+06    -208.862E+06    -124.486E+06     138.101E+03    -294.867E-03     588.865E-03    -293.998E-03     23.2256E-03    -295.126E-03     588.294E-03    -294.134E-03     18.6610E-03
            1413     12.7417E-03     95.5431E-03    -4.22108E+06     56.5265E+06     76.9260E+06    -19.2275E+03    -294.855E-03     589.478E-03    -294.623E-03     127.282E-03    -299.424E-03     594.010E-03    -294.314E-03     94.9315E-03
            1414     12.0716E-03     95.3043E-03    -9.06924E+06     53.5228E+06     72.3388E+06    -1.02636E+06    -296.016E-03     590.631E-03    -294.614E-03     172.694E-03    -302.866E-03     597.428E-03    -294.317E-03     132.001E-03
            1415     11.3992E-03     95.0541E-03    -13.7522E+06     47.5256E+06     70.1968E+06    -803.839E+03    -297.024E-03     591.653E-03    -294.629E-03     184.899E-03    -304.396E-03     598.941E-03    -294.327E-03     143.286E-03
            1416     10.7277E-03     94.7755E-03    -18.3285E+06     44.2756E+06     71.6352E+06     342.294E+03    -297.909E-03     592.572E-03    -294.662E-03     198.576E-03    -306.095E-03     600.642E-03    -294.342E-03     155.117E-03
            1417     10.0580E-03     94.4785E-03    -24.1812E+06     37.8126E+06     68.3017E+06     695.579E+03    -298.585E-03     593.262E-03    -294.677E-03     203.955E-03    -307.029E-03     601.557E-03    -294.356E-03     160.192E-03
            1418     9.38718E-03     94.1794E-03    -30.9424E+06     29.1901E+06     61.6619E+06     206.227E+03    -298.943E-03     593.622E-03    -294.679E-03     206.489E-03    -307.445E-03     601.939E-03    -294.368E-03     162.957E-03
            1419     8.71640E-03     93.8728E-03    -37.6396E+06     21.7419E+06     53.2547E+06    -326.910E+03    -299.022E-03     593.699E-03    -294.677E-03     205.610E-03    -307.345E-03     601.811E-03    -294.388E-03     162.873E-03
            1420     8.04565E-03     93.5731E-03    -44.5142E+06     14.1546E+06     44.4301E+06    -246.707E+03    -298.856E-03     593.540E-03    -294.684E-03     201.596E-03    -306.789E-03     601.237E-03    -294.418E-03     160.154E-03
            1421     7.37425E-03     93.2782E-03    -51.9990E+06     5.79344E+06     34.4727E+06     54.7675E+03    -298.869E-03     593.555E-03    -294.686E-03     194.639E-03    -306.234E-03     600.656E-03    -294.447E-03     154.911E-03
            1422     6.70445E-03     92.9971E-03    -60.0271E+06    -3.49482E+06     24.2881E+06     290.221E+03    -298.614E-03     593.285E-03    -294.671E-03     184.500E-03    -305.232E-03     599.607E-03    -294.457E-03     147.040E-03
            1423     6.03364E-03     92.7310E-03    -68.8874E+06    -13.6870E+06     13.4946E+06     813.206E+03    -297.874E-03     592.531E-03    -294.657E-03     171.479E-03    -303.624E-03     597.948E-03    -294.470E-03     136.820E-03
            1424     5.36314E-03     92.4890E-03    -78.0720E+06    -29.6067E+06    -1.34126E+06     856.885E+03    -297.384E-03     592.019E-03    -294.635E-03     156.452E-03    -302.199E-03     596.456E-03    -294.485E-03     124.969E-03
            1425     4.69323E-03     92.2666E-03    -87.3216E+06    -61.3759E+06    -20.2699E+06     275.955E+03    -296.846E-03     591.453E-03    -294.606E-03     139.796E-03    -300.703E-03     594.840E-03    -294.492E-03     111.822E-03
            1426     4.02275E-03     92.0737E-03    -96.4629E+06    -94.0808E+06    -41.0623E+06     76.3294E+03    -296.099E-03     590.681E-03    -294.582E-03     121.740E-03    -299.049E-03     593.074E-03    -294.511E-03     97.5330E-03
            1427     3.35212E-03     91.9067E-03    -105.303E+06    -120.086E+06    -62.4340E+06     44.6168E+03    -295.683E-03     590.238E-03    -294.555E-03     102.895E-03    -297.834E-03     591.769E-03    -294.540E-03     82.5685E-03
            1428     2.68136E-03     91.7696E-03    -113.830E+06    -147.122E+06    -83.3827E+06    -57.6075E+03    -295.331E-03     589.844E-03    -294.513E-03     83.2688E-03    -296.799E-03     590.628E-03    -294.552E-03     66.8937E-03
            1429     2.01128E-03     91.6611E-03    -120.781E+06    -169.693E+06    -102.151E+06     397.189E+03    -294.834E-03     589.316E-03    -294.482E-03     63.0324E-03    -295.756E-03     589.502E-03    -294.571E-03     50.6953E-03
            1430     1.34066E-03     91.5836E-03    -125.850E+06    -190.375E+06    -117.475E+06     545.895E+03    -294.450E-03     588.992E-03    -294.542E-03     42.5984E-03    -294.968E-03     588.728E-03    -294.670E-03     34.2552E-03
            1431     669.625E-06     91.5361E-03    -129.111E+06    -208.488E+06    -127.334E+06    -204.489E+03    -294.654E-03     589.283E-03    -294.629E-03     23.2847E-03    -294.922E-03     588.722E-03    -294.776E-03     18.7004E-03
            1432     12.7406E-03     93.8401E-03    -3.63508E+06     57.1596E+06     76.8060E+06     10.2074E+03    -294.311E-03     588.930E-03    -294.620E-03     129.345E-03    -298.910E-03     593.497E-03    -294.313E-03     96.9742E-03
            1433     12.0675E-03     93.5933E-03    -8.13137E+06     54.4900E+06     73.9261E+06     420.539E+03    -295.773E-03     590.424E-03    -294.651E-03     174.077E-03    -302.622E-03     597.222E-03    -294.348E-03     133.561E-03
            1434     11.3980E-03     93.3474E-03    -13.5430E+06     47.6560E+06     71.0099E+06     52.3802E+03    -297.242E-03     591.912E-03    -294.671E-03     184.568E-03    -304.599E-03     599.185E-03    -294.365E-03     142.968E-03
            1435     10.7285E-03     93.0643E-03    -19.7172E+06     43.0178E+06     71.1026E+06    -557.537E+03    -298.218E-03     592.901E-03    -294.683E-03     197.894E-03    -306.386E-03     600.946E-03    -294.362E-03     154.407E-03
            1436     10.0574E-03     92.7719E-03    -25.5706E+06     36.7623E+06     67.6854E+06    -264.126E+03    -298.478E-03     593.168E-03    -294.689E-03     203.801E-03    -306.924E-03     601.456E-03    -294.367E-03     160.041E-03
            1437     9.38659E-03     92.4693E-03    -31.4054E+06     30.6018E+06     61.1064E+06    -161.749E+03    -298.886E-03     593.577E-03    -294.692E-03     206.545E-03    -307.400E-03     601.912E-03    -294.385E-03     162.982E-03
            1438     8.71630E-03     92.1653E-03    -38.1394E+06     22.8969E+06     52.0638E+06    -750.487E+03    -299.104E-03     593.788E-03    -294.685E-03     205.379E-03    -307.428E-03     601.908E-03    -294.402E-03     162.601E-03
            1439     8.04528E-03     91.8651E-03    -45.4905E+06     13.0570E+06     42.4634E+06    -1.06086E+06    -299.183E-03     593.854E-03    -294.671E-03     200.942E-03    -307.101E-03     601.534E-03    -294.411E-03     159.449E-03
            1440     7.37537E-03     91.5700E-03    -53.0041E+06     4.26981E+06     32.2902E+06    -613.528E+03    -298.977E-03     593.620E-03    -294.643E-03     193.908E-03    -306.321E-03     600.697E-03    -294.411E-03     154.175E-03
            1441     6.70464E-03     91.2876E-03    -61.0341E+06    -4.73074E+06     22.5652E+06     10.8815E+03    -298.359E-03     592.986E-03    -294.627E-03     183.882E-03    -304.963E-03     599.291E-03    -294.418E-03     146.456E-03
            1442     6.03428E-03     91.0244E-03    -69.3272E+06    -13.7173E+06     12.9949E+06    -133.944E+03    -297.828E-03     592.451E-03    -294.623E-03     171.413E-03    -303.576E-03     597.867E-03    -294.438E-03     136.749E-03
            1443     5.36382E-03     90.7792E-03    -78.0031E+06    -29.0970E+06    -1.36177E+06    -641.990E+03    -297.283E-03     591.891E-03    -294.608E-03     156.783E-03    -302.104E-03     596.336E-03    -294.460E-03     125.285E-03
            1444     4.69303E-03     90.5594E-03    -87.2974E+06    -61.3394E+06    -20.3213E+06    -119.734E+03    -296.593E-03     591.201E-03    -294.608E-03     140.128E-03    -300.454E-03     594.594E-03    -294.494E-03     112.175E-03
            1445     4.02207E-03     90.3659E-03    -96.7961E+06    -94.4862E+06    -41.3730E+06     130.069E+03    -296.087E-03     590.697E-03    -294.610E-03     122.021E-03    -299.043E-03     593.093E-03    -294.539E-03     97.8122E-03
            1446     3.35149E-03     90.1989E-03    -105.896E+06    -120.066E+06    -62.5960E+06     153.410E+03    -295.677E-03     590.269E-03    -294.592E-03     102.895E-03    -297.830E-03     591.802E-03    -294.577E-03     82.5685E-03
            1447     2.68148E-03     90.0612E-03    -114.035E+06    -146.800E+06    -83.5588E+06     543.131E+03    -295.178E-03     589.757E-03    -294.579E-03     83.0481E-03    -296.645E-03     590.540E-03    -294.619E-03     66.6990E-03
            1448     2.01080E-03     89.9537E-03    -120.986E+06    -169.743E+06    -103.119E+06     335.702E+03    -294.780E-03     589.380E-03    -294.601E-03     63.0983E-03    -295.701E-03     589.569E-03    -294.695E-03     50.7559E-03
            1449     1.34039E-03     89.8760E-03    -125.310E+06    -189.080E+06    -117.698E+06    -10.2475E+03    -294.737E-03     589.386E-03    -294.649E-03     42.7504E-03    -295.254E-03     589.128E-03    -294.782E-03     34.3976E-03
            1450     670.446E-06     89.8283E-03    -128.572E+06    -208.304E+06    -126.294E+06    -201.696E+03    -294.717E-03     589.428E-03    -294.711E-03     23.4174E-03    -294.984E-03     588.865E-03    -294.854E-03     18.8469E-03
            1451     12.7383E-03     92.1257E-03    -3.56225E+06     56.9133E+06      75.634E+06     180.307E+03    -294.470E-03     589.123E-03    -294.652E-03     129.119E-03    -299.035E-03     593.657E-03    -294.352E-03     96.7240E-03
            1452     12.0703E-03     91.8902E-03    -8.18959E+06     54.2656E+06     72.8598E+06     354.725E+03    -296.534E-03     591.187E-03    -294.654E-03     172.086E-03    -303.312E-03     597.918E-03    -294.356E-03     131.583E-03
            1453     11.3986E-03     91.6344E-03    -12.7853E+06     48.5423E+06     71.1289E+06     533.309E+03    -297.052E-03     591.705E-03    -294.652E-03     183.551E-03    -304.387E-03     598.960E-03    -294.349E-03     141.971E-03
            1454     10.7280E-03     91.3570E-03    -17.7153E+06     44.0317E+06     71.8916E+06     740.170E+03    -297.802E-03     592.482E-03    -294.680E-03     197.571E-03    -305.965E-03     600.529E-03    -294.358E-03     154.111E-03
            1455     10.0575E-03     91.0631E-03    -23.9047E+06     37.3853E+06     68.4955E+06     284.844E+03    -298.590E-03     593.284E-03    -294.694E-03     203.732E-03    -307.041E-03     601.584E-03    -294.371E-03     159.902E-03
            1456     9.38706E-03     90.7614E-03    -30.7260E+06     31.3673E+06     62.0323E+06    -169.925E+03    -299.012E-03     593.698E-03    -294.686E-03     205.890E-03    -307.500E-03     602.008E-03    -294.377E-03     162.348E-03
            1457     8.71586E-03     90.4569E-03    -37.4797E+06     23.6546E+06     52.7907E+06    -182.157E+03    -299.216E-03     593.878E-03    -294.663E-03     204.701E-03    -307.513E-03     601.974E-03    -294.379E-03     161.962E-03
            1458     8.04632E-03     90.1552E-03    -44.6743E+06     14.0272E+06     43.0564E+06    -279.327E+03    -299.275E-03     593.909E-03    -294.634E-03     201.006E-03    -307.197E-03     601.597E-03    -294.374E-03     159.499E-03
            1459     7.37594E-03     89.8618E-03    -52.2978E+06     3.20060E+06     32.8328E+06    -524.081E+03    -298.844E-03     593.456E-03    -294.612E-03     194.478E-03    -306.203E-03     600.545E-03    -294.377E-03     154.743E-03
            1460     6.70514E-03     89.5808E-03    -59.6923E+06    -5.54963E+06     23.5048E+06    -569.101E+03    -298.249E-03     592.862E-03    -294.613E-03     184.663E-03    -304.864E-03     599.177E-03    -294.401E-03     147.239E-03
            1461     6.03410E-03     89.3155E-03    -67.9881E+06    -12.6796E+06     13.7137E+06    -637.357E+03    -297.757E-03     592.381E-03    -294.624E-03     172.142E-03    -303.516E-03     597.814E-03    -294.439E-03     137.469E-03
            1462     5.36341E-03     89.0715E-03    -77.7271E+06    -29.7038E+06    -1.87734E+06    -144.727E+03    -297.150E-03     591.778E-03    -294.628E-03     157.029E-03    -301.971E-03     596.224E-03    -294.482E-03     125.559E-03
            1463     4.69248E-03     88.8521E-03    -87.8087E+06    -62.6772E+06    -21.4029E+06     209.366E+03    -296.580E-03     591.222E-03    -294.642E-03     139.966E-03    -300.437E-03     594.607E-03    -294.530E-03     112.019E-03
            1464     4.02227E-03     88.6572E-03    -97.5383E+06    -94.5900E+06    -42.1443E+06     318.345E+03    -296.133E-03     590.777E-03    -294.645E-03     121.938E-03    -299.089E-03     593.173E-03    -294.577E-03     97.7301E-03
            1465     3.35213E-03     88.4912E-03    -106.750E+06    -119.905E+06    -63.4172E+06     431.502E+03    -295.577E-03     590.217E-03    -294.640E-03     102.997E-03    -297.735E-03     591.754E-03    -294.629E-03     82.6691E-03
            1466     2.68110E-03     88.3534E-03    -115.154E+06    -146.184E+06    -84.3475E+06     491.615E+03    -295.151E-03     589.808E-03    -294.657E-03     83.2378E-03    -296.626E-03     590.600E-03    -294.700E-03     66.8877E-03
            1467     2.01056E-03     88.2464E-03    -121.946E+06    -168.605E+06    -103.962E+06     279.672E+03    -295.046E-03     589.701E-03    -294.655E-03     62.8423E-03    -295.969E-03     589.894E-03    -294.753E-03     50.5116E-03
            1468     1.34011E-03     88.1670E-03    -127.052E+06    -189.055E+06    -119.703E+06    -46.2596E+03    -294.989E-03     589.570E-03    -294.582E-03     42.3810E-03    -295.508E-03     589.315E-03    -294.722E-03     34.0468E-03
            1469     670.332E-06     88.1185E-03    -129.942E+06    -208.280E+06    -128.626E+06     160.158E+03    -294.136E-03     589.128E-03    -294.992E-03     22.9575E-03    -294.405E-03     588.569E-03    -295.145E-03     18.4057E-03
            1470     12.7406E-03     90.4217E-03    -3.89717E+06     57.0577E+06     77.1141E+06     274.824E+03    -295.248E-03     589.855E-03    -294.607E-03     127.334E-03    -299.781E-03     594.353E-03    -294.299E-03     95.0718E-03
            1471     12.0688E-03     90.1734E-03    -8.45063E+06     54.2896E+06     73.0935E+06    -60.5415E+03    -295.895E-03     590.487E-03    -294.592E-03     171.705E-03    -302.684E-03     597.227E-03    -294.293E-03     131.202E-03
            1472     11.4002E-03     89.9319E-03    -13.6455E+06     47.7627E+06     69.6459E+06    -513.910E+03    -296.588E-03     591.200E-03    -294.612E-03     183.830E-03    -303.935E-03     598.466E-03    -294.313E-03     142.270E-03
            1473     10.7279E-03     89.6473E-03    -18.7889E+06     42.8886E+06     69.9143E+06    -162.989E+03    -297.675E-03     592.331E-03    -294.656E-03     197.897E-03    -305.846E-03     600.384E-03    -294.341E-03     154.429E-03
            1474     10.0575E-03     89.3546E-03    -24.1373E+06     37.9271E+06     67.0721E+06     537.756E+03    -298.757E-03     593.423E-03    -294.666E-03     203.331E-03    -307.188E-03     601.708E-03    -294.350E-03     159.516E-03
            1475     9.38712E-03     89.0519E-03    -30.2946E+06     32.7816E+06     61.0797E+06     506.570E+03    -299.107E-03     593.751E-03    -294.645E-03     205.595E-03    -307.586E-03     602.062E-03    -294.343E-03     162.051E-03
            1476     8.71757E-03     88.7492E-03    -37.2866E+06     24.0876E+06     52.1458E+06     86.1369E+03    -299.058E-03     593.684E-03    -294.626E-03     205.185E-03    -307.369E-03     601.797E-03    -294.346E-03     162.455E-03
            1477     8.04601E-03     88.4467E-03    -44.3233E+06     14.4892E+06     43.2385E+06    -39.8079E+03    -298.882E-03     593.510E-03    -294.628E-03     201.584E-03    -306.815E-03     601.211E-03    -294.368E-03     160.132E-03
            1478     7.37488E-03     88.1539E-03    -51.6866E+06     4.41665E+06     34.0397E+06    -519.597E+03    -298.614E-03     593.256E-03    -294.641E-03     194.636E-03    -305.978E-03     600.352E-03    -294.403E-03     154.920E-03
            1479     6.70427E-03     87.8720E-03    -60.2509E+06    -5.50122E+06     23.6734E+06    -1.09425E+06    -298.292E-03     592.946E-03    -294.654E-03     184.849E-03    -304.917E-03     599.269E-03    -294.440E-03     147.392E-03
            1480     6.03386E-03     87.6081E-03    -69.7685E+06    -14.4546E+06     12.0925E+06    -478.448E+03    -297.753E-03     592.416E-03    -294.663E-03     172.134E-03    -303.517E-03     597.846E-03    -294.480E-03     137.458E-03
            1481     5.36304E-03     87.3632E-03    -79.2817E+06    -30.9552E+06    -3.16531E+06     385.618E+03    -297.170E-03     591.840E-03    -294.671E-03     156.952E-03    -301.993E-03     596.282E-03    -294.527E-03     125.487E-03
            1482     4.69294E-03     87.1439E-03    -88.8868E+06    -62.3462E+06    -22.2257E+06     685.216E+03    -296.643E-03     591.326E-03    -294.684E-03     140.160E-03    -300.507E-03     594.719E-03    -294.576E-03     112.213E-03
            1483     4.02205E-03     86.9496E-03    -98.7619E+06    -94.1115E+06    -43.2991E+06     782.972E+03    -296.061E-03     590.758E-03    -294.697E-03     122.276E-03    -299.027E-03     593.166E-03    -294.634E-03     98.0666E-03
            1484     3.35091E-03     86.7831E-03    -107.932E+06    -119.563E+06    -64.8127E+06     711.135E+03    -295.654E-03     590.358E-03    -294.704E-03     103.006E-03    -297.817E-03     591.902E-03    -294.698E-03     82.6808E-03
            1485     2.68069E-03     86.6460E-03    -115.903E+06    -145.624E+06    -85.7742E+06     213.008E+03    -295.454E-03     590.136E-03    -294.683E-03     82.9262E-03    -296.926E-03     590.929E-03    -294.732E-03     66.5671E-03
            1486     2.01079E-03     86.5365E-03    -122.665E+06    -167.418E+06    -104.771E+06    -128.331E+03    -295.217E-03     589.827E-03    -294.610E-03     62.7813E-03    -296.143E-03     590.027E-03    -294.713E-03     50.4353E-03
            1487     1.34138E-03     86.4592E-03    -127.619E+06    -190.048E+06    -119.286E+06     414.087E+03    -294.806E-03     589.351E-03    -294.545E-03     42.5943E-03    -295.329E-03     589.093E-03    -294.681E-03     34.2568E-03
            1488     670.436E-06     86.4115E-03    -130.270E+06    -206.509E+06    -128.411E+06     1.19829E+06    -294.293E-03     589.112E-03    -294.819E-03     22.6154E-03    -294.566E-03     588.563E-03    -294.973E-03     18.1045E-03
            1489     12.7429E-03     88.7118E-03    -4.11470E+06     57.0970E+06      77.594E+06    -105.426E+03    -295.092E-03     589.676E-03    -294.585E-03     128.945E-03    -299.707E-03     594.254E-03    -294.273E-03     96.4799E-03
            1490     12.0720E-03     88.4724E-03    -8.78946E+06     54.1805E+06     73.8997E+06     35.6185E+03    -295.455E-03     590.049E-03    -294.595E-03     173.842E-03    -302.310E-03     596.851E-03    -294.291E-03     133.340E-03
            1491     11.3979E-03     88.2196E-03    -13.4221E+06     48.3325E+06     71.5072E+06     345.323E+03    -296.978E-03     591.606E-03    -294.629E-03     184.780E-03    -304.323E-03     598.868E-03    -294.322E-03     143.302E-03
            1492     10.7290E-03     87.9422E-03    -18.9866E+06     43.1247E+06     71.3944E+06     73.8395E+03    -298.449E-03     593.089E-03    -294.640E-03     197.877E-03    -306.614E-03     601.133E-03    -294.318E-03     154.366E-03
            1493     10.0582E-03     87.6438E-03    -25.1134E+06     37.2117E+06     67.4884E+06    -427.282E+03    -298.525E-03     593.154E-03    -294.629E-03     203.117E-03    -306.942E-03     601.418E-03    -294.309E-03     159.385E-03
            1494     9.38798E-03     87.3449E-03    -31.3548E+06     31.8621E+06     60.5821E+06    -178.086E+03    -298.632E-03     593.259E-03    -294.628E-03     205.995E-03    -307.126E-03     601.580E-03    -294.325E-03     162.491E-03
            1495     8.71603E-03     87.0399E-03    -38.0017E+06     25.2075E+06     51.6348E+06     239.733E+03    -298.916E-03     593.546E-03    -294.630E-03     205.582E-03    -307.248E-03     601.683E-03    -294.354E-03     162.836E-03
            1496     8.04585E-03     86.7400E-03    -45.4601E+06     15.2683E+06     42.2229E+06    -342.460E+03    -298.847E-03     593.486E-03    -294.639E-03     201.351E-03    -306.777E-03     601.186E-03    -294.384E-03     159.906E-03
            1497     7.37533E-03     86.4452E-03    -53.5902E+06     4.70571E+06     33.0945E+06    -551.236E+03    -298.537E-03     593.195E-03    -294.657E-03     194.256E-03    -305.893E-03     600.281E-03    -294.421E-03     154.569E-03
            1498     6.70444E-03     86.1651E-03    -62.3022E+06    -5.12396E+06     22.5883E+06    -181.521E+03    -298.173E-03     592.850E-03    -294.676E-03     184.524E-03    -304.798E-03     599.170E-03    -294.466E-03     147.095E-03
            1499     6.03357E-03     85.8987E-03    -71.4000E+06    -15.6501E+06     10.3846E+06    -253.586E+03    -297.682E-03     592.376E-03    -294.694E-03     171.998E-03    -303.445E-03     597.800E-03    -294.516E-03     137.339E-03
            1500     5.36313E-03     85.6564E-03    -80.8808E+06    -32.3572E+06    -4.69637E+06    -243.823E+03    -297.094E-03     591.811E-03    -294.716E-03     157.105E-03    -301.923E-03     596.251E-03    -294.576E-03     125.637E-03
            1501     4.69180E-03     85.4347E-03    -90.3343E+06    -62.8832E+06    -23.3897E+06     354.667E+03    -296.644E-03     591.387E-03    -294.743E-03     140.216E-03    -300.516E-03     594.782E-03    -294.638E-03     112.259E-03
            1502     4.02148E-03     85.2424E-03    -99.3041E+06    -93.5450E+06    -43.9393E+06     585.846E+03    -296.286E-03     591.028E-03    -294.743E-03     121.849E-03    -299.250E-03     593.436E-03    -294.683E-03     97.6124E-03
            1503     3.35145E-03     85.0744E-03    -107.872E+06    -118.884E+06    -65.2104E+06     358.306E+03    -295.864E-03     590.572E-03    -294.708E-03     102.625E-03    -298.022E-03     592.115E-03    -294.706E-03     82.2902E-03
            1504     2.68150E-03     84.9368E-03    -115.651E+06    -144.718E+06    -86.1293E+06     210.348E+03    -295.410E-03     590.079E-03    -294.669E-03     83.0100E-03    -296.881E-03     590.875E-03    -294.722E-03     66.6646E-03
            1505     2.01103E-03     84.8289E-03    -122.066E+06    -166.446E+06    -105.516E+06    -144.041E+03    -294.886E-03     589.553E-03    -294.667E-03     63.2283E-03    -295.815E-03     589.764E-03    -294.776E-03     50.8629E-03
            1506     1.33969E-03     84.7508E-03    -126.766E+06    -192.009E+06    -118.417E+06    -229.831E+03    -294.641E-03     589.429E-03    -294.788E-03     43.0716E-03    -295.162E-03     589.162E-03    -294.918E-03     34.7136E-03
            1507     669.819E-06     84.7040E-03    -130.234E+06    -203.976E+06    -126.824E+06     489.142E+03    -295.525E-03     589.805E-03    -294.280E-03     23.4638E-03    -295.805E-03     589.268E-03    -294.429E-03     18.9228E-03
            1508     12.7376E-03     86.9995E-03    -4.40641E+06     56.6324E+06     76.3478E+06    -83.0769E+03    -294.375E-03     589.014E-03    -294.639E-03     128.919E-03    -298.963E-03     593.566E-03    -294.333E-03     96.5032E-03
            1509     12.0674E-03     86.7637E-03    -8.59275E+06     54.4939E+06     73.6944E+06     327.889E+03    -296.577E-03     591.217E-03    -294.640E-03     172.880E-03    -303.395E-03     597.984E-03    -294.338E-03     132.308E-03
            1510     11.3991E-03     86.5128E-03    -13.1865E+06     48.7394E+06     71.7631E+06     384.677E+03    -297.614E-03     592.237E-03    -294.623E-03     184.152E-03    -304.946E-03     599.487E-03    -294.316E-03     142.586E-03
            1511     10.7285E-03     86.2279E-03    -18.1688E+06     44.0938E+06     72.5282E+06     236.836E+03    -298.086E-03     592.712E-03    -294.626E-03     197.586E-03    -306.240E-03     600.748E-03    -294.301E-03     154.145E-03
            1512     10.0591E-03     85.9389E-03    -23.7256E+06     38.0617E+06     69.6440E+06     95.6324E+03    -298.251E-03     592.892E-03    -294.641E-03     203.962E-03    -306.705E-03     601.195E-03    -294.313E-03     160.198E-03
            1513     9.38665E-03     85.6365E-03    -30.2590E+06     30.7414E+06     63.1469E+06     32.2917E+03    -298.676E-03     593.336E-03    -294.660E-03     206.643E-03    -307.181E-03     601.659E-03    -294.345E-03     163.145E-03
            1514     8.71692E-03     85.3324E-03    -37.0921E+06     24.5888E+06     53.9989E+06     418.037E+03    -299.000E-03     593.661E-03    -294.661E-03     205.404E-03    -307.318E-03     601.778E-03    -294.373E-03     162.684E-03
            1515     8.04596E-03     85.0310E-03    -44.4375E+06     16.3584E+06     43.6872E+06     1.23464E+06    -298.838E-03     593.498E-03    -294.660E-03     201.302E-03    -306.766E-03     601.200E-03    -294.401E-03     159.878E-03
            1516     7.37500E-03     84.7383E-03    -52.6235E+06     5.69074E+06     33.8675E+06     1.52647E+06    -298.594E-03     593.271E-03    -294.678E-03     194.703E-03    -305.958E-03     600.371E-03    -294.441E-03     155.036E-03
            1517     6.70429E-03     84.4562E-03    -61.1099E+06    -4.19655E+06     23.6039E+06     1.12995E+06    -298.227E-03     592.926E-03    -294.699E-03     184.780E-03    -304.853E-03     599.253E-03    -294.487E-03     147.367E-03
            1518     6.03352E-03     84.1920E-03    -69.9011E+06    -14.3938E+06     11.7199E+06     790.941E+03    -297.674E-03     592.394E-03    -294.720E-03     171.916E-03    -303.430E-03     597.816E-03    -294.539E-03     137.282E-03
            1519     5.36233E-03     83.9472E-03    -79.6484E+06    -31.8446E+06    -3.85602E+06     685.320E+03    -297.141E-03     591.880E-03    -294.739E-03     156.626E-03    -301.954E-03     596.308E-03    -294.597E-03     125.186E-03
            1520     4.69228E-03     83.7278E-03    -89.4519E+06    -63.1468E+06    -23.2913E+06     293.998E+03    -296.706E-03     591.459E-03    -294.754E-03     139.804E-03    -300.563E-03     594.842E-03    -294.649E-03     111.852E-03
            1521     4.02185E-03     83.5322E-03    -98.4985E+06    -93.1997E+06    -43.6276E+06     1.47856E+03    -296.339E-03     591.083E-03    -294.744E-03     121.859E-03    -299.299E-03     593.489E-03    -294.684E-03     97.6239E-03
            1522     3.35167E-03     83.3666E-03    -107.032E+06    -118.434E+06    -64.5655E+06    -120.285E+03    -295.761E-03     590.482E-03    -294.721E-03     102.927E-03    -297.919E-03     592.027E-03    -294.717E-03     82.5910E-03
            1523     2.68059E-03     83.2287E-03    -114.546E+06    -144.495E+06    -85.1846E+06    -193.593E+03    -295.165E-03     589.903E-03    -294.738E-03     83.3912E-03    -296.638E-03     590.704E-03    -294.788E-03     67.0303E-03
            1524     2.01012E-03     83.1207E-03    -120.649E+06    -166.043E+06    -104.249E+06     9.07838E+03    -294.842E-03     589.652E-03    -294.810E-03     63.0567E-03    -295.765E-03     589.859E-03    -294.915E-03     50.7103E-03
            1525     1.34022E-03     83.0435E-03    -126.076E+06    -192.790E+06    -117.847E+06    -210.104E+03    -294.869E-03     589.810E-03    -294.940E-03     42.9283E-03    -295.384E-03     589.535E-03    -295.067E-03     34.5685E-03
            1526     669.785E-06     82.9925E-03    -129.952E+06    -204.196E+06    -126.345E+06    -590.536E+03    -295.504E-03     590.069E-03    -294.565E-03     23.6483E-03    -295.784E-03     589.530E-03    -294.712E-03     19.0753E-03
            1527     12.7409E-03     85.2958E-03    -4.50004E+06     56.6852E+06     76.5583E+06     145.083E+03    -294.906E-03     589.539E-03    -294.633E-03     127.527E-03    -299.452E-03     594.048E-03    -294.326E-03     95.2079E-03
            1528     12.0704E-03     85.0508E-03    -8.08527E+06     55.1464E+06     74.2550E+06     251.795E+03    -296.580E-03     591.193E-03    -294.613E-03     171.515E-03    -303.365E-03     597.930E-03    -294.310E-03     130.952E-03
            1529     11.4005E-03     84.8027E-03    -12.7933E+06     49.1726E+06     71.8126E+06    -32.7174E+03    -297.130E-03     591.733E-03    -294.603E-03     184.221E-03    -304.484E-03     599.008E-03    -294.297E-03     142.631E-03
            1530     10.7294E-03     84.5234E-03    -18.4138E+06     43.8326E+06     71.8129E+06    -330.874E+03    -297.455E-03     592.095E-03    -294.640E-03     198.441E-03    -305.638E-03     600.160E-03    -294.318E-03     155.027E-03
            1531     10.0562E-03     84.2290E-03    -24.7095E+06     37.2339E+06     68.1275E+06    -186.457E+03    -298.287E-03     592.962E-03    -294.675E-03     203.697E-03    -306.735E-03     601.257E-03    -294.353E-03     159.916E-03
            1532     9.38747E-03     83.9284E-03    -31.4357E+06     31.3708E+06     61.3901E+06     45.5738E+03    -298.922E-03     593.602E-03    -294.681E-03     206.450E-03    -307.434E-03     601.937E-03    -294.374E-03     162.887E-03
            1533     8.71607E-03     83.6235E-03    -38.5266E+06     23.2489E+06     52.3328E+06    -69.3371E+03    -298.927E-03     593.608E-03    -294.680E-03     205.550E-03    -307.250E-03     601.724E-03    -294.397E-03     162.837E-03
            1534     8.04543E-03     83.3235E-03    -45.3162E+06     13.8847E+06     43.3889E+06     421.614E+03    -298.800E-03     593.496E-03    -294.695E-03     201.417E-03    -306.731E-03     601.189E-03    -294.433E-03     159.987E-03
            1535     7.37456E-03     83.0301E-03    -52.3229E+06     5.97321E+06     34.7805E+06     1.32025E+06    -298.667E-03     593.381E-03    -294.714E-03     194.602E-03    -306.034E-03     600.483E-03    -294.473E-03     154.903E-03
            1536     6.70391E-03     82.7476E-03    -60.1719E+06    -3.19681E+06     24.7537E+06     1.70703E+06    -298.327E-03     593.054E-03    -294.727E-03     184.529E-03    -304.947E-03     599.378E-03    -294.511E-03     147.110E-03
            1537     6.03334E-03     82.4841E-03    -69.1684E+06    -13.5860E+06     12.7945E+06     1.84876E+06    -297.833E-03     592.566E-03    -294.733E-03     171.768E-03    -303.588E-03     597.990E-03    -294.549E-03     137.123E-03
            1538     5.36329E-03     82.2389E-03    -78.3434E+06    -29.8491E+06    -2.41152E+06     1.58184E+06    -297.286E-03     592.019E-03    -294.733E-03     156.746E-03    -302.100E-03     596.456E-03    -294.589E-03     125.302E-03
            1539     4.69232E-03     82.0197E-03    -87.5875E+06    -60.8978E+06    -21.4415E+06     566.081E+03    -296.754E-03     591.491E-03    -294.737E-03     140.002E-03    -300.609E-03     594.881E-03    -294.629E-03     112.062E-03
            1540     4.02164E-03     81.8239E-03    -96.8146E+06    -92.4328E+06    -41.8365E+06    -130.985E+03    -296.072E-03     590.822E-03    -294.750E-03     121.884E-03    -299.023E-03     593.223E-03    -294.685E-03     97.6891E-03
            1541     3.35080E-03     81.6583E-03    -105.452E+06    -118.090E+06    -62.7373E+06    -276.469E+03    -295.588E-03     590.361E-03    -294.773E-03     102.755E-03    -297.739E-03     591.900E-03    -294.762E-03     82.4299E-03
            1542     2.68090E-03     81.5206E-03    -113.637E+06    -144.962E+06     -83.598E+06    -480.691E+03    -295.308E-03     590.106E-03    -294.798E-03     82.9765E-03    -296.776E-03     590.899E-03    -294.841E-03     66.5958E-03
            1543     2.01036E-03     81.4126E-03    -120.578E+06    -167.726E+06    -102.701E+06    -82.4577E+03    -295.155E-03     589.956E-03    -294.801E-03     62.7039E-03    -296.073E-03     590.148E-03    -294.896E-03     50.3664E-03
            1544     1.33991E-03     81.3335E-03    -125.107E+06    -190.707E+06    -116.779E+06     216.345E+03    -295.097E-03     589.859E-03    -294.762E-03     42.6049E-03    -295.609E-03     589.588E-03    -294.888E-03     34.2798E-03
            1545     670.354E-06     81.2840E-03    -128.360E+06    -205.960E+06    -126.254E+06    -861.483E+03    -294.874E-03     589.508E-03    -294.634E-03     23.1915E-03    -295.142E-03     588.956E-03    -294.780E-03     18.6620E-03
            1546     12.7405E-03     83.5857E-03    -4.25846E+06     57.1012E+06     77.0991E+06    -13.1495E+03    -295.241E-03     589.845E-03    -294.604E-03     128.697E-03    -299.841E-03     594.409E-03    -294.295E-03     96.2519E-03
            1547     12.0704E-03     83.3422E-03    -8.20480E+06     55.0390E+06     74.3198E+06     70.2418E+03    -295.859E-03     590.462E-03    -294.603E-03     173.736E-03    -302.711E-03     597.264E-03    -294.299E-03     133.180E-03
            1548     11.3983E-03     83.0956E-03    -13.2083E+06     48.7961E+06     71.6472E+06     32.0959E+03    -296.674E-03     591.307E-03    -294.633E-03     184.589E-03    -304.037E-03     598.588E-03    -294.326E-03     143.058E-03
            1549     10.7270E-03     82.8142E-03    -18.9677E+06     43.3612E+06     71.4795E+06    -220.392E+03    -297.830E-03     592.502E-03    -294.672E-03     198.075E-03    -306.013E-03     600.565E-03    -294.350E-03     154.583E-03
            1550     10.0589E-03     82.5212E-03    -25.0191E+06     36.8888E+06     67.5673E+06     37.8589E+03    -298.446E-03     593.134E-03    -294.688E-03     203.514E-03    -306.881E-03     601.415E-03    -294.367E-03     159.755E-03
            1551     9.38640E-03     82.2200E-03    -31.3578E+06     31.3312E+06     60.6839E+06     182.481E+03    -298.746E-03     593.439E-03    -294.693E-03     206.252E-03    -307.244E-03     601.761E-03    -294.390E-03     162.738E-03
            1552     8.71624E-03     81.9154E-03    -37.9373E+06     23.7324E+06     51.6452E+06     399.407E+03    -298.819E-03     593.521E-03    -294.701E-03     205.261E-03    -307.135E-03     601.636E-03    -294.423E-03     162.553E-03
            1553     8.04513E-03     81.6160E-03    -45.2568E+06     13.9243E+06     42.2003E+06    -79.4226E+03    -298.925E-03     593.639E-03    -294.714E-03     201.294E-03    -306.855E-03     601.335E-03    -294.457E-03     159.826E-03
            1554     7.37484E-03     81.3206E-03    -52.5117E+06     3.45142E+06     33.4207E+06    -278.855E+03    -298.776E-03     593.502E-03    -294.725E-03     194.388E-03    -306.134E-03     600.588E-03    -294.487E-03     154.656E-03
            1555     6.70408E-03     81.0411E-03    -60.0411E+06    -5.52668E+06     24.4167E+06     1.00182E+06    -298.336E-03     593.073E-03    -294.737E-03     184.533E-03    -304.948E-03     599.382E-03    -294.520E-03     147.122E-03
            1556     6.03352E-03     80.7738E-03    -68.2983E+06    -12.8045E+06     13.6814E+06     1.83762E+06    -297.876E-03     592.619E-03    -294.744E-03     171.861E-03    -303.626E-03     598.043E-03    -294.558E-03     137.230E-03
            1557     5.36238E-03     80.5324E-03    -77.1032E+06    -27.5214E+06    -1.00251E+06     987.792E+03    -297.357E-03     592.097E-03    -294.739E-03     156.845E-03    -302.172E-03     596.543E-03    -294.593E-03     125.382E-03
            1558     4.69223E-03     80.3091E-03    -86.0333E+06    -58.6750E+06    -19.0879E+06     334.241E+03    -296.745E-03     591.489E-03    -294.744E-03     139.952E-03    -300.601E-03     594.887E-03    -294.630E-03     111.994E-03
            1559     4.02201E-03     80.1180E-03    -95.2222E+06    -91.6799E+06    -39.7516E+06    -32.8434E+03    -296.123E-03     590.875E-03    -294.752E-03     121.696E-03    -299.071E-03     593.275E-03    -294.680E-03     97.4777E-03
            1560     3.35129E-03     79.9493E-03    -104.395E+06    -117.857E+06    -60.9903E+06    -1.61073E+03    -295.689E-03     590.444E-03    -294.755E-03     102.593E-03    -297.836E-03     591.979E-03    -294.738E-03     82.2660E-03
            1561     2.68060E-03     79.8123E-03    -112.781E+06    -144.875E+06    -82.0755E+06     523.882E+03    -295.480E-03     590.215E-03    -294.735E-03     82.6465E-03    -296.941E-03     590.998E-03    -294.771E-03     66.2998E-03
            1562     2.01066E-03     79.7036E-03    -119.911E+06    -168.461E+06    -102.005E+06     68.4160E+03    -295.314E-03     589.965E-03    -294.652E-03     62.7333E-03    -296.228E-03     590.152E-03    -294.743E-03     50.3929E-03
            1563     1.34116E-03     79.6245E-03    -125.163E+06    -189.445E+06    -117.689E+06    -48.3067E+03    -294.923E-03     589.464E-03    -294.540E-03     42.5127E-03    -295.436E-03     589.201E-03    -294.673E-03     34.1866E-03
            1564     670.363E-06     79.5769E-03    -127.224E+06    -206.575E+06    -126.329E+06     280.159E+03    -294.599E-03     589.063E-03    -294.464E-03     23.6692E-03    -294.861E-03     588.507E-03    -294.612E-03     19.1150E-03
            1565     12.7404E-03     81.8764E-03    -3.81838E+06     57.5081E+06     77.0885E+06     179.928E+03    -294.756E-03     589.374E-03    -294.618E-03     128.483E-03    -299.334E-03     593.918E-03    -294.310E-03     96.1150E-03
            1566     12.0687E-03     81.6354E-03    -8.92967E+06     54.2677E+06     73.1355E+06    -464.513E+03    -295.804E-03     590.426E-03    -294.622E-03     172.193E-03    -302.623E-03     597.194E-03    -294.322E-03     131.636E-03
            1567     11.3988E-03     81.3868E-03    -13.5672E+06     48.3725E+06     70.6969E+06    -112.353E+03    -296.741E-03     591.388E-03    -294.647E-03     183.900E-03    -304.080E-03     598.646E-03    -294.344E-03     142.372E-03
            1568     10.7295E-03     81.1057E-03    -18.4711E+06     43.7702E+06     70.9681E+06     460.777E+03    -297.812E-03     592.496E-03    -294.684E-03     197.888E-03    -305.975E-03     600.542E-03    -294.365E-03     154.468E-03
            1569     10.0562E-03     80.8130E-03    -24.2504E+06     37.5108E+06     67.6075E+06     232.843E+03    -298.397E-03     593.104E-03    -294.707E-03     203.990E-03    -306.844E-03     601.401E-03    -294.388E-03     160.234E-03
            1570     9.38719E-03     80.5110E-03    -30.2180E+06     30.7252E+06     61.6727E+06     230.889E+03    -298.803E-03     593.525E-03    -294.722E-03     206.375E-03    -307.302E-03     601.847E-03    -294.414E-03     162.853E-03
            1571     8.71567E-03     80.2087E-03    -36.6173E+06     23.3377E+06     53.0353E+06     453.332E+03    -298.990E-03     593.716E-03    -294.726E-03     205.327E-03    -307.304E-03     601.828E-03    -294.441E-03     162.597E-03
            1572     8.04536E-03     79.9061E-03    -43.3841E+06     15.6677E+06     43.7115E+06     769.407E+03    -298.969E-03     593.698E-03    -294.729E-03     201.369E-03    -306.893E-03     601.397E-03    -294.470E-03     159.918E-03
            1573     7.37442E-03     79.6137E-03    -51.0738E+06     3.42633E+06     32.7673E+06     574.308E+03    -298.782E-03     593.517E-03    -294.734E-03     194.537E-03    -306.132E-03     600.602E-03    -294.501E-03     154.830E-03
            1574     6.70395E-03     79.3312E-03    -59.1404E+06    -7.45825E+06     23.0651E+06     110.753E+03    -298.489E-03     593.231E-03    -294.742E-03     184.592E-03    -305.095E-03     599.534E-03    -294.530E-03     147.149E-03
            1575     6.03304E-03     79.0675E-03    -67.0072E+06    -13.1876E+06     14.8446E+06     34.3214E+03    -297.971E-03     592.716E-03    -294.745E-03     171.687E-03    -303.711E-03     598.128E-03    -294.555E-03     137.027E-03
            1576     5.36318E-03     78.8215E-03    -75.5323E+06    -26.0738E+06     1.24566E+06     324.891E+03    -297.323E-03     592.059E-03    -294.737E-03     156.518E-03    -302.129E-03     596.502E-03    -294.583E-03     125.049E-03
            1577     4.69242E-03     78.6033E-03    -85.2378E+06    -58.0856E+06    -18.0078E+06     391.913E+03    -296.684E-03     591.424E-03    -294.739E-03     139.728E-03    -300.537E-03     594.819E-03    -294.622E-03     111.769E-03
            1578     4.02140E-03     78.4075E-03    -95.0296E+06    -91.5421E+06    -39.3185E+06     628.652E+03    -296.268E-03     591.002E-03    -294.734E-03     121.675E-03    -299.217E-03     593.402E-03    -294.660E-03     97.4569E-03
            1579     3.35159E-03     78.2423E-03    -104.364E+06    -117.859E+06    -61.2521E+06     599.714E+03    -295.861E-03     590.558E-03    -294.698E-03     102.697E-03    -298.008E-03     592.094E-03    -294.682E-03     82.3741E-03
            1580     2.68138E-03     78.1032E-03    -112.459E+06    -144.828E+06    -82.2178E+06     534.635E+03    -295.464E-03     590.114E-03    -294.651E-03     83.0549E-03    -296.925E-03     590.900E-03    -294.689E-03     66.7207E-03
            1581     2.01124E-03     77.9950E-03    -118.765E+06    -166.628E+06    -101.335E+06     718.510E+03    -295.062E-03     589.661E-03    -294.599E-03     63.0941E-03    -295.977E-03     589.857E-03    -294.692E-03     50.7608E-03
            1582     1.34030E-03     77.9168E-03    -124.075E+06    -190.099E+06    -116.506E+06     475.562E+03    -294.787E-03     589.362E-03    -294.576E-03     43.0225E-03    -295.300E-03     589.098E-03    -294.703E-03     34.6400E-03
            1583     670.268E-06     77.8695E-03    -128.185E+06    -205.182E+06    -124.955E+06     888.483E+03    -294.596E-03     589.211E-03    -294.615E-03     23.5498E-03    -294.869E-03     588.663E-03    -294.757E-03     18.9978E-03
            1584     12.7396E-03     80.1632E-03    -4.08995E+06     57.1444E+06     75.9930E+06    -279.507E+03    -294.501E-03     589.122E-03    -294.621E-03     128.344E-03    -299.089E-03     593.677E-03    -294.317E-03     95.9428E-03
            1585     12.0709E-03     79.9297E-03    -8.42534E+06     54.6186E+06     72.4326E+06    -400.432E+03    -295.821E-03     590.452E-03    -294.632E-03     172.670E-03    -302.656E-03     597.241E-03    -294.337E-03     132.072E-03
            1586     11.3991E-03     79.6777E-03    -13.3526E+06     48.4153E+06     69.6488E+06     163.278E+03    -296.850E-03     591.508E-03    -294.658E-03     185.030E-03    -304.197E-03     598.778E-03    -294.361E-03     143.573E-03
            1587     10.7265E-03     79.3984E-03    -18.1182E+06     44.0884E+06     70.8828E+06     367.046E+03    -297.797E-03     592.501E-03    -294.704E-03     198.216E-03    -305.966E-03     600.556E-03    -294.387E-03     154.798E-03
            1588     10.0580E-03     79.1039E-03    -23.7878E+06     37.9658E+06     67.8574E+06     342.156E+03    -298.423E-03     593.152E-03    -294.729E-03     203.581E-03    -306.861E-03     601.443E-03    -294.410E-03     159.808E-03
            1589     9.38567E-03     78.8032E-03    -30.2931E+06     30.6811E+06     60.9460E+06     93.9694E+03    -298.770E-03     593.509E-03    -294.738E-03     205.994E-03    -307.260E-03     601.823E-03    -294.434E-03     162.469E-03
            1590     8.71591E-03     78.4989E-03    -37.1166E+06     22.8664E+06     51.7400E+06    -43.3583E+03    -299.053E-03     593.792E-03    -294.739E-03     205.352E-03    -307.367E-03     601.905E-03    -294.460E-03     162.601E-03
            1591     8.04504E-03     78.1987E-03    -44.1475E+06     14.9395E+06     42.9554E+06     17.3927E+03    -299.071E-03     593.811E-03    -294.740E-03     201.269E-03    -306.998E-03     601.509E-03    -294.482E-03     159.781E-03
            1592     7.37437E-03     77.9049E-03    -51.2404E+06     4.26082E+06     33.2009E+06     115.438E+03    -298.929E-03     593.663E-03    -294.734E-03     194.167E-03    -306.273E-03     600.744E-03    -294.500E-03     154.441E-03
            1593     6.70374E-03     77.6228E-03    -58.7739E+06    -5.90784E+06     23.6116E+06    -404.476E+03    -298.542E-03     593.266E-03    -294.724E-03     184.018E-03    -305.133E-03     599.560E-03    -294.513E-03     146.576E-03
            1594     6.03394E-03     77.3581E-03    -67.6925E+06    -13.6366E+06     14.1808E+06    -1.03371E+06    -297.865E-03     592.588E-03    -294.723E-03     171.617E-03    -303.610E-03     598.002E-03    -294.534E-03     136.930E-03
            1595     5.36279E-03     77.1141E-03    -77.4980E+06    -28.2174E+06    -384.034E+03    -520.304E+03    -297.222E-03     591.946E-03    -294.724E-03     156.786E-03    -302.042E-03     596.392E-03    -294.572E-03     125.301E-03
            1596     4.69224E-03     76.8943E-03    -87.1054E+06    -59.1544E+06    -19.8269E+06     430.262E+03    -296.754E-03     591.480E-03    -294.726E-03     139.856E-03    -300.611E-03     594.875E-03    -294.613E-03     111.906E-03
            1597     4.02236E-03     76.7000E-03    -96.5913E+06    -91.6308E+06    -40.9601E+06     717.181E+03    -296.264E-03     590.978E-03    -294.715E-03     121.845E-03    -299.218E-03     593.383E-03    -294.646E-03     97.6421E-03
            1598     3.35138E-03     76.5332E-03    -105.436E+06    -117.212E+06    -62.2966E+06     727.242E+03    -295.755E-03     590.447E-03    -294.692E-03     102.945E-03    -297.908E-03     591.991E-03    -294.681E-03     82.6314E-03
            1599     2.68111E-03     76.3952E-03    -113.767E+06    -143.914E+06    -83.3482E+06     400.143E+03    -295.294E-03     589.978E-03    -294.685E-03     83.5859E-03    -296.768E-03     590.779E-03    -294.728E-03     67.2310E-03
            1600     2.01043E-03     76.2869E-03    -120.975E+06    -166.363E+06    -102.594E+06     491.939E+03    -294.991E-03     589.682E-03    -294.691E-03     63.3298E-03    -295.919E-03     589.888E-03    -294.788E-03     50.9753E-03
            1601     1.34032E-03     76.2093E-03    -126.023E+06    -189.490E+06    -116.867E+06     824.851E+03    -294.906E-03     589.603E-03    -294.697E-03     42.8607E-03    -295.428E-03     589.343E-03    -294.824E-03     34.5143E-03
            1602     670.288E-06     76.1589E-03    -129.526E+06    -202.737E+06    -126.818E+06     184.447E+03    -294.486E-03     589.427E-03    -294.942E-03     23.3627E-03    -294.765E-03     588.896E-03    -295.094E-03     18.7639E-03
            1603     12.7411E-03     78.4611E-03    -3.74647E+06     57.2428E+06     75.2894E+06     240.051E+03    -293.928E-03     588.553E-03    -294.625E-03     128.630E-03    -298.502E-03     593.099E-03    -294.327E-03     96.3556E-03
            1604     12.0672E-03     78.2174E-03    -8.56754E+06     54.3451E+06     71.6916E+06     204.340E+03    -295.729E-03     590.391E-03    -294.661E-03     173.047E-03    -302.557E-03     597.172E-03    -294.369E-03     132.525E-03
            1605     11.3975E-03     77.9712E-03    -13.1073E+06     48.7766E+06     70.0943E+06    -99.1002E+03    -297.218E-03     591.901E-03    -294.682E-03     184.036E-03    -304.570E-03     599.176E-03    -294.384E-03     142.404E-03
            1606     10.7286E-03     77.6884E-03    -18.5267E+06     43.6752E+06     70.4167E+06    -391.861E+03    -297.885E-03     592.589E-03    -294.704E-03     197.460E-03    -306.048E-03     600.637E-03    -294.389E-03     153.966E-03
            1607     10.0564E-03     77.3958E-03    -24.3168E+06     37.4171E+06     66.9979E+06    -316.819E+03    -298.326E-03     593.049E-03    -294.723E-03     203.253E-03    -306.758E-03     601.332E-03    -294.407E-03     159.476E-03
            1608     9.38708E-03     77.0951E-03    -30.2923E+06     30.7718E+06     60.8542E+06    -1.07069E+03    -298.789E-03     593.524E-03    -294.735E-03     205.893E-03    -307.273E-03     601.833E-03    -294.431E-03     162.374E-03
            1609     8.71537E-03     76.7910E-03    -36.9036E+06      23.216E+06     52.1275E+06     202.127E+03    -299.057E-03     593.790E-03    -294.733E-03     204.899E-03    -307.358E-03     601.892E-03    -294.453E-03     162.158E-03
            1610     8.04494E-03     76.4895E-03    -44.1228E+06     15.0935E+06     43.1240E+06      78.378E+03    -299.145E-03     593.870E-03    -294.725E-03     200.836E-03    -307.060E-03     601.556E-03    -294.467E-03     159.351E-03
            1611     7.37493E-03     76.1960E-03    -52.0033E+06     5.03742E+06     34.0342E+06    -344.285E+03    -298.926E-03     593.641E-03    -294.715E-03     194.134E-03    -306.276E-03     600.725E-03    -294.477E-03     154.398E-03
            1612     6.70484E-03     75.9144E-03    -60.5933E+06    -4.81829E+06     24.0175E+06    -760.909E+03    -298.348E-03     593.062E-03    -294.714E-03     184.532E-03    -304.967E-03     599.379E-03    -294.499E-03     147.082E-03
            1613     6.03330E-03     75.6505E-03    -69.5949E+06    -13.7978E+06     12.4072E+06    -725.532E+03    -297.772E-03     592.494E-03    -294.722E-03     171.978E-03    -303.533E-03     597.923E-03    -294.539E-03     137.296E-03
            1614     5.36287E-03     75.4060E-03    -79.1391E+06    -30.2597E+06    -3.28418E+06    -453.100E+03    -297.215E-03     591.944E-03    -294.729E-03     156.903E-03    -302.037E-03     596.387E-03    -294.587E-03     125.426E-03
            1615     4.69245E-03     75.1856E-03    -88.8755E+06    -60.8554E+06    -22.2442E+06    -34.9727E+03    -296.731E-03     591.471E-03    -294.740E-03     140.139E-03    -300.596E-03     594.869E-03    -294.634E-03     112.184E-03
            1616     4.02147E-03     74.9917E-03    -98.1556E+06    -91.6196E+06    -42.7004E+06     188.442E+03    -296.237E-03     590.977E-03    -294.740E-03     122.129E-03    -299.203E-03     593.393E-03    -294.678E-03     97.8948E-03
            1617     3.35146E-03     74.8250E-03    -107.150E+06    -117.020E+06    -63.7655E+06     402.925E+03    -295.701E-03     590.436E-03    -294.735E-03     103.074E-03    -297.866E-03     591.990E-03    -294.729E-03     82.7406E-03
            1618     2.68066E-03     74.6874E-03    -115.309E+06    -143.150E+06    -84.6812E+06     581.263E+03    -295.400E-03     590.127E-03    -294.726E-03     83.1963E-03    -296.878E-03     590.932E-03    -294.775E-03     66.8448E-03
            1619     2.01041E-03     74.5785E-03    -122.006E+06    -165.781E+06    -104.099E+06    -35.1042E+03    -295.193E-03     589.876E-03    -294.683E-03     62.7281E-03    -296.119E-03     590.082E-03    -294.786E-03     50.3860E-03
            1620     1.34054E-03     74.4993E-03    -126.892E+06    -189.081E+06    -118.151E+06    -263.995E+03    -294.866E-03     589.511E-03    -294.645E-03     42.3851E-03    -295.386E-03     589.253E-03    -294.778E-03     34.0520E-03
            1621     669.991E-06     74.4528E-03    -130.447E+06    -201.216E+06    -127.363E+06     663.062E+03    -294.519E-03     589.310E-03    -294.791E-03     22.9188E-03    -294.803E-03     588.787E-03    -294.947E-03     18.3377E-03
            1622     12.7387E-03     76.7548E-03    -4.19534E+06     57.2612E+06     76.7202E+06     279.996E+03    -294.670E-03     589.298E-03    -294.627E-03     127.479E-03    -299.223E-03     593.817E-03    -294.321E-03     95.1289E-03
            1623     12.0699E-03     76.5102E-03    -7.76869E+06     55.5294E+06     74.1477E+06     674.628E+03    -295.948E-03     590.582E-03    -294.634E-03     171.685E-03    -302.713E-03     597.301E-03    -294.332E-03     131.320E-03
            1624     11.3994E-03     76.2602E-03    -12.7887E+06     49.2257E+06      71.096E+06         127.781    -296.866E-03     591.511E-03    -294.646E-03     182.914E-03    -304.181E-03     598.750E-03    -294.343E-03     141.372E-03
            1625     10.7276E-03     75.9811E-03    -18.3915E+06     43.8700E+06     70.7065E+06    -142.757E+03    -297.628E-03     592.306E-03    -294.677E-03     197.263E-03    -305.777E-03     600.340E-03    -294.361E-03     153.838E-03
            1626     10.0579E-03     75.6882E-03    -24.2624E+06     37.5364E+06     67.1783E+06    -229.345E+03    -298.237E-03     592.942E-03    -294.705E-03     203.211E-03    -306.662E-03     601.219E-03    -294.388E-03     159.471E-03
            1627     9.38582E-03     75.3860E-03    -30.9159E+06     30.2847E+06     60.6689E+06    -316.253E+03    -298.856E-03     593.572E-03    -294.716E-03     205.803E-03    -307.340E-03     601.877E-03    -294.411E-03     162.271E-03
            1628     8.71646E-03     75.0825E-03    -37.6258E+06     22.7100E+06     52.3551E+06    -201.905E+03    -299.108E-03     593.818E-03    -294.710E-03     204.946E-03    -307.411E-03     601.916E-03    -294.427E-03     162.203E-03
            1629     8.04584E-03     74.7814E-03    -44.6498E+06     14.8184E+06     43.8780E+06     182.649E+03    -298.992E-03     593.700E-03    -294.709E-03     201.254E-03    -306.915E-03     601.391E-03    -294.446E-03     159.807E-03
            1630     7.37482E-03     74.4872E-03    -52.4183E+06     6.21405E+06     35.0555E+06     380.744E+03    -298.631E-03     593.352E-03    -294.722E-03     194.457E-03    -305.993E-03     600.449E-03    -294.479E-03     154.764E-03
            1631     6.70328E-03     74.2069E-03    -60.9194E+06    -3.42890E+06     24.1735E+06     37.8170E+03    -298.277E-03     593.013E-03    -294.736E-03     184.600E-03    -304.902E-03     599.340E-03    -294.522E-03     147.157E-03
            1632     6.03338E-03     73.9413E-03    -70.2101E+06    -14.1893E+06     11.2980E+06    -204.483E+03    -297.825E-03     592.568E-03    -294.743E-03     171.864E-03    -303.585E-03     597.995E-03    -294.564E-03     137.184E-03
            1633     5.36285E-03     73.6980E-03    -79.7156E+06    -30.7106E+06    -4.16125E+06     26.8673E+03    -297.215E-03     591.966E-03    -294.751E-03     156.901E-03    -302.037E-03     596.408E-03    -294.611E-03     125.434E-03
            1634     4.69180E-03     73.4776E-03    -89.2100E+06    -61.2301E+06    -22.9209E+06    -151.347E+03    -296.679E-03     591.449E-03    -294.770E-03     140.187E-03    -300.545E-03     594.848E-03    -294.667E-03     112.223E-03
            1635     4.02179E-03     73.2829E-03    -98.5735E+06    -91.7077E+06    -43.3276E+06    -44.7386E+03    -296.254E-03     591.030E-03    -294.776E-03     121.901E-03    -299.218E-03     593.445E-03    -294.717E-03     97.6630E-03
            1636     3.35090E-03     73.1171E-03    -107.314E+06    -117.182E+06    -64.6064E+06    -15.1449E+03    -295.944E-03     590.689E-03    -294.745E-03     102.771E-03    -298.105E-03     592.240E-03    -294.742E-03     82.4090E-03
            1637     2.68105E-03     72.9782E-03    -114.831E+06    -143.369E+06    -85.3886E+06    -454.633E+03    -295.612E-03     590.291E-03    -294.678E-03     83.0745E-03    -297.086E-03     591.095E-03    -294.731E-03     66.6821E-03
            1638     2.01136E-03     72.8695E-03    -120.702E+06    -164.268E+06    -104.031E+06    -332.994E+03    -295.126E-03     589.727E-03    -294.601E-03     62.8298E-03    -296.049E-03     589.940E-03    -294.708E-03     50.4788E-03
            1639     1.34054E-03     72.7925E-03    -125.699E+06    -189.902E+06    -117.027E+06    -353.645E+03    -294.840E-03     589.397E-03    -294.557E-03     42.5463E-03    -295.357E-03     589.134E-03    -294.685E-03     34.1863E-03
            1640     670.529E-06     72.7433E-03    -128.476E+06    -201.434E+06    -126.002E+06    -384.991E+03    -294.856E-03     589.107E-03    -294.251E-03     22.9466E-03    -295.131E-03     588.578E-03    -294.403E-03     18.4160E-03
            1641     12.7421E-03     75.0459E-03    -4.49388E+06     57.1462E+06     76.7723E+06    -640.282E+03    -295.088E-03     589.716E-03    -294.628E-03     128.593E-03    -299.701E-03     594.293E-03    -294.321E-03     96.0086E-03
            1642     12.0706E-03     74.8011E-03    -8.99057E+06     54.5442E+06     73.4021E+06    -207.493E+03    -296.348E-03     590.966E-03    -294.618E-03     174.148E-03    -303.205E-03     597.771E-03    -294.317E-03     133.567E-03
            1643     11.3991E-03     74.5546E-03    -13.0006E+06     49.1511E+06     71.4415E+06     184.588E+03    -296.880E-03     591.512E-03    -294.631E-03     184.419E-03    -304.222E-03     598.774E-03    -294.327E-03     142.937E-03
            1644     10.7287E-03     74.2724E-03    -17.8390E+06     44.6502E+06     72.3194E+06     441.041E+03    -297.700E-03     592.370E-03    -294.670E-03     197.474E-03    -305.848E-03     600.403E-03    -294.347E-03     154.093E-03
            1645     10.0570E-03     73.9804E-03    -23.9854E+06     38.0735E+06     68.7743E+06     532.251E+03    -298.347E-03     593.041E-03    -294.694E-03     203.441E-03    -306.776E-03     601.320E-03    -294.370E-03     159.718E-03
            1646     9.38764E-03     73.6777E-03    -30.5043E+06     30.8338E+06     61.9008E+06     450.545E+03    -298.803E-03     593.506E-03    -294.703E-03     206.123E-03    -307.287E-03     601.812E-03    -294.394E-03     162.639E-03
            1647     8.71580E-03     73.3743E-03    -37.6616E+06     22.7648E+06     52.6200E+06     216.416E+03    -298.988E-03     593.692E-03    -294.704E-03     205.265E-03    -307.297E-03     601.795E-03    -294.419E-03     162.556E-03
            1648     8.04509E-03     73.0724E-03    -45.1052E+06     14.3318E+06     42.9194E+06     39.5122E+03    -298.877E-03     593.585E-03    -294.708E-03     201.236E-03    -306.804E-03     601.279E-03    -294.449E-03     159.785E-03
            1649     7.37433E-03     72.7803E-03    -52.5203E+06     5.96765E+06     33.7208E+06     127.123E+03    -298.630E-03     593.351E-03    -294.721E-03     194.161E-03    -305.983E-03     600.441E-03    -294.485E-03     154.463E-03
            1650     6.70446E-03     72.4977E-03    -60.4962E+06    -3.09845E+06     23.7735E+06     666.010E+03    -298.257E-03     592.994E-03    -294.737E-03     184.236E-03    -304.868E-03     599.311E-03    -294.526E-03     146.823E-03
            1651     6.03331E-03     72.2338E-03    -69.3795E+06    -13.3630E+06     11.9824E+06     893.699E+03    -297.734E-03     592.486E-03    -294.753E-03     171.732E-03    -303.486E-03     597.910E-03    -294.573E-03     137.088E-03
            1652     5.36232E-03     71.9894E-03    -78.8186E+06    -29.9488E+06    -3.09365E+06     482.699E+03    -297.285E-03     592.048E-03    -294.762E-03     156.669E-03    -302.101E-03     596.486E-03    -294.620E-03     125.202E-03
            1653     4.69233E-03     71.7692E-03    -88.3579E+06    -60.4842E+06    -22.0039E+06     172.842E+03    -296.766E-03     591.532E-03    -294.767E-03     139.760E-03    -300.623E-03     594.925E-03    -294.661E-03     111.802E-03
            1654     4.02125E-03     71.5748E-03    -97.5509E+06    -91.6311E+06    -42.6455E+06    -218.112E+03    -296.299E-03     591.056E-03    -294.757E-03     121.702E-03    -299.255E-03     593.464E-03    -294.696E-03     97.4724E-03
            1655     3.35157E-03     71.4076E-03    -106.086E+06    -116.991E+06    -63.4875E+06    -545.375E+03    -295.903E-03     590.626E-03    -294.723E-03     102.797E-03    -298.058E-03     592.173E-03    -294.717E-03     82.4463E-03
            1656     2.68135E-03     71.2696E-03    -114.128E+06    -142.826E+06    -84.1906E+06    -497.445E+03    -295.316E-03     590.017E-03    -294.701E-03     83.4201E-03    -296.792E-03     590.825E-03    -294.749E-03     67.0300E-03
            1657     2.01029E-03     71.1619E-03    -121.243E+06    -165.394E+06    -103.861E+06    -227.169E+03    -294.966E-03     589.680E-03    -294.713E-03     63.5619E-03    -295.898E-03     589.895E-03    -294.817E-03     51.1787E-03
            1658     1.34057E-03     71.0835E-03    -126.005E+06    -189.035E+06    -118.470E+06    -279.744E+03    -294.852E-03     589.613E-03    -294.762E-03     43.3348E-03    -295.376E-03     589.363E-03    -294.897E-03     34.9176E-03
            1659     670.377E-06     71.0358E-03    -129.761E+06    -203.754E+06    -126.645E+06    -1.38482E+06    -294.935E-03     589.654E-03    -294.719E-03     24.0216E-03    -295.216E-03     589.121E-03    -294.869E-03     19.4086E-03
            1660     12.7373E-03     73.3320E-03    -3.72433E+06     57.5079E+06     75.4922E+06     29.3031E+03    -294.409E-03     589.028E-03    -294.620E-03     127.840E-03    -298.977E-03     593.568E-03    -294.320E-03     95.4901E-03
            1661     12.0678E-03     73.0945E-03    -8.56893E+06     54.6254E+06     72.0697E+06    -532.318E+03    -295.980E-03     590.611E-03    -294.631E-03     172.559E-03    -302.811E-03     597.397E-03    -294.338E-03     131.932E-03
            1662     11.3984E-03     72.8419E-03    -13.7732E+06     48.3432E+06     70.1940E+06    -720.957E+03    -296.879E-03     591.530E-03    -294.651E-03     183.963E-03    -304.240E-03     598.811E-03    -294.350E-03     142.331E-03
            1663     10.7280E-03     72.5664E-03    -18.9065E+06     43.7096E+06     71.4632E+06    -259.145E+03    -297.886E-03     592.572E-03    -294.687E-03     198.037E-03    -306.065E-03     600.633E-03    -294.365E-03     154.558E-03
            1664     10.0581E-03     72.2704E-03    -24.4751E+06     37.7435E+06     68.6526E+06     160.521E+03    -298.576E-03     593.279E-03    -294.703E-03     203.875E-03    -307.017E-03     601.568E-03    -294.379E-03     160.119E-03
            1665     9.38607E-03     71.9708E-03    -30.6850E+06     30.8119E+06     62.1936E+06     391.752E+03    -298.841E-03     593.548E-03    -294.707E-03     206.211E-03    -307.329E-03     601.856E-03    -294.396E-03     162.729E-03
            1666     8.71624E-03     71.6648E-03    -37.1697E+06     23.3307E+06     53.1197E+06     563.176E+03    -298.931E-03     593.639E-03    -294.708E-03     205.212E-03    -307.237E-03     601.742E-03    -294.422E-03     162.525E-03
            1667     8.04559E-03     71.3658E-03    -44.1013E+06     15.3316E+06     43.4060E+06     399.794E+03    -298.915E-03     593.626E-03    -294.711E-03     201.110E-03    -306.836E-03     601.319E-03    -294.453E-03     159.661E-03
            1668     7.37506E-03     71.0707E-03    -51.7396E+06     5.17772E+06     33.3014E+06     417.995E+03    -298.710E-03     593.429E-03    -294.719E-03     194.388E-03    -306.063E-03     600.520E-03    -294.485E-03     154.683E-03
            1669     6.70376E-03     70.7904E-03    -59.8253E+06    -4.43069E+06     23.4143E+06     888.992E+03    -298.294E-03     593.027E-03    -294.733E-03     184.459E-03    -304.906E-03     599.343E-03    -294.523E-03     147.044E-03
            1670     6.03309E-03     70.5255E-03    -68.1964E+06    -12.5406E+06     13.2443E+06     1.18631E+06    -297.832E-03     592.579E-03    -294.747E-03     171.686E-03    -303.580E-03     598.002E-03    -294.564E-03     137.045E-03
            1671     5.36304E-03     70.2807E-03    -77.2677E+06    -28.1800E+06    -1.48474E+06     961.246E+03    -297.256E-03     592.008E-03    -294.752E-03     156.652E-03    -302.068E-03     596.449E-03    -294.606E-03     125.201E-03
            1672     4.69213E-03     70.0609E-03    -86.7231E+06    -59.3725E+06    -20.5060E+06     519.504E+03    -296.791E-03     591.547E-03    -294.757E-03     140.071E-03    -300.650E-03     594.948E-03    -294.648E-03     112.108E-03
            1673     4.02232E-03     69.8665E-03    -96.0936E+06    -90.9662E+06    -41.2384E+06     164.547E+03    -296.331E-03     591.078E-03    -294.747E-03     122.149E-03    -299.291E-03     593.493E-03    -294.681E-03     97.9083E-03
            1674     3.35130E-03     69.6991E-03    -105.263E+06    -116.464E+06    -62.4895E+06     190.202E+03    -295.674E-03     590.411E-03    -294.737E-03     102.973E-03    -297.830E-03     591.961E-03    -294.728E-03     82.6435E-03
            1675     2.68041E-03     69.5621E-03    -113.767E+06    -142.869E+06    -83.4657E+06     358.753E+03    -295.200E-03     589.960E-03    -294.760E-03     83.0867E-03    -296.672E-03     590.763E-03    -294.805E-03     66.7351E-03
            1676     2.01031E-03     69.4535E-03    -120.597E+06    -165.437E+06    -103.026E+06    -34.2113E+03    -294.941E-03     589.749E-03    -294.809E-03     63.0188E-03    -295.865E-03     589.957E-03    -294.909E-03     50.6628E-03
            1677     1.33956E-03     69.3741E-03    -125.551E+06    -188.856E+06    -117.687E+06    -134.368E+03    -294.809E-03     589.727E-03    -294.918E-03     42.4665E-03    -295.326E-03     589.470E-03    -295.051E-03     34.0982E-03
            1678     668.932E-06     69.3279E-03    -128.121E+06    -204.402E+06    -127.394E+06     789.414E+03    -295.154E-03     590.044E-03    -294.890E-03     23.4701E-03    -295.422E-03     589.503E-03    -295.045E-03     18.8970E-03
            1679     12.7435E-03     71.6313E-03    -3.85875E+06     57.6694E+06     76.4911E+06     43.5087E+03    -294.734E-03     589.336E-03    -294.602E-03     127.918E-03    -299.301E-03     593.872E-03    -294.297E-03     95.6063E-03
            1680     12.0713E-03     71.3827E-03    -7.97808E+06     55.4995E+06     73.8010E+06     347.385E+03    -295.512E-03     590.133E-03    -294.621E-03     172.830E-03    -302.329E-03     596.905E-03    -294.321E-03     132.388E-03
            1681     11.3991E-03     71.1390E-03    -13.0932E+06     49.0386E+06     70.7037E+06     264.432E+03    -296.594E-03     591.254E-03    -294.660E-03     184.113E-03    -303.934E-03     598.517E-03    -294.358E-03     142.620E-03
            1682     10.7275E-03     70.8544E-03    -18.9437E+06     43.5622E+06     70.3976E+06    -120.503E+03    -297.900E-03     592.599E-03    -294.699E-03     197.833E-03    -306.069E-03     600.652E-03    -294.383E-03     154.353E-03
            1683     10.0566E-03     70.5631E-03    -24.9133E+06     37.2670E+06     67.2030E+06    -372.453E+03    -298.586E-03     593.298E-03    -294.712E-03     203.451E-03    -307.028E-03     601.589E-03    -294.394E-03     159.632E-03
            1684     9.38739E-03     70.2610E-03    -31.0644E+06     30.3879E+06     60.7741E+06    -398.525E+03    -298.887E-03     593.597E-03    -294.711E-03     206.087E-03    -307.383E-03     601.915E-03    -294.406E-03     162.539E-03
            1685     8.71595E-03     69.9583E-03    -37.6231E+06     22.8295E+06     51.7155E+06    -310.860E+03    -298.965E-03     593.674E-03    -294.709E-03     205.315E-03    -307.276E-03     601.782E-03    -294.429E-03     162.591E-03
            1686     8.04504E-03     69.6559E-03    -44.4773E+06     15.0467E+06     43.0273E+06    -107.171E+03    -298.890E-03     593.609E-03    -294.719E-03     201.329E-03    -306.813E-03     601.302E-03    -294.461E-03     159.888E-03
            1687     7.37427E-03     69.3635E-03    -51.6473E+06     4.63531E+06     33.4731E+06     116.601E+03    -298.712E-03     593.444E-03    -294.732E-03     194.349E-03    -306.059E-03     600.527E-03    -294.496E-03     154.660E-03
            1688     6.70392E-03     69.0817E-03    -59.2793E+06    -5.42856E+06     23.8000E+06     278.174E+03    -298.413E-03     593.155E-03    -294.742E-03     184.424E-03    -305.018E-03     599.461E-03    -294.530E-03     147.004E-03
            1689     6.03381E-03     68.8166E-03    -67.6733E+06    -13.1992E+06     13.9812E+06     680.174E+03    -297.825E-03     592.579E-03    -294.754E-03     171.888E-03    -303.575E-03     598.001E-03    -294.567E-03     137.240E-03
            1690     5.36259E-03     68.5732E-03    -76.7126E+06    -27.4316E+06    -600.158E+03     1.04219E+06    -297.227E-03     591.991E-03    -294.764E-03     157.090E-03    -302.047E-03     596.443E-03    -294.616E-03     125.635E-03
            1691     4.69205E-03     68.3523E-03    -86.2924E+06    -57.7825E+06    -19.5829E+06     1.06345E+06    -296.818E-03     591.593E-03    -294.774E-03     140.249E-03    -300.682E-03     595.002E-03    -294.663E-03     112.286E-03
            1692     4.02115E-03     68.1573E-03    -96.2485E+06    -89.8700E+06    -40.8471E+06     1.07571E+06    -296.254E-03     591.024E-03    -294.770E-03     121.954E-03    -299.214E-03     593.442E-03    -294.705E-03     97.7317E-03
            1693     3.35118E-03     67.9916E-03    -105.477E+06    -116.115E+06    -62.8140E+06     720.828E+03    -295.692E-03     590.457E-03    -294.764E-03     102.819E-03    -297.851E-03     592.011E-03    -294.757E-03     82.4729E-03
            1694     2.68112E-03     67.8533E-03    -113.095E+06    -142.709E+06    -83.7808E+06     281.341E+03    -295.440E-03     590.196E-03    -294.757E-03     83.1962E-03    -296.911E-03     591.003E-03    -294.804E-03     66.8044E-03
            1695     2.01080E-03     67.7450E-03    -119.419E+06    -164.137E+06    -102.750E+06     140.713E+03    -295.284E-03     589.985E-03    -294.701E-03     62.8572E-03    -296.205E-03     590.198E-03    -294.804E-03     50.4888E-03
            1696     1.34062E-03     67.6667E-03    -124.461E+06    -190.068E+06    -116.011E+06     183.456E+03    -295.128E-03     589.706E-03    -294.578E-03     41.9678E-03    -295.636E-03     589.434E-03    -294.702E-03     33.6570E-03
            1697     671.307E-06     67.6164E-03    -128.422E+06    -202.560E+06    -124.011E+06     606.486E+03    -294.632E-03     589.010E-03    -294.378E-03     22.8303E-03    -294.906E-03     588.469E-03    -294.518E-03     18.3120E-03
            1698     12.7380E-03     69.9165E-03    -4.54160E+06     57.2864E+06     76.9718E+06    -253.779E+03    -294.694E-03     589.330E-03    -294.636E-03     129.002E-03    -299.307E-03     593.907E-03    -294.328E-03     96.5460E-03
            1699     12.0681E-03     69.6794E-03    -8.73846E+06     54.9987E+06     73.8136E+06     24.6533E+03    -295.955E-03     590.601E-03    -294.646E-03     173.529E-03    -302.803E-03     597.399E-03    -294.344E-03     132.979E-03
            1700     11.3976E-03     69.4271E-03    -13.0371E+06     49.3991E+06     71.7576E+06     442.597E+03    -297.038E-03     591.703E-03    -294.665E-03     184.193E-03    -304.369E-03     598.956E-03    -294.359E-03     142.714E-03
            1701     10.7284E-03     69.1479E-03    -17.9470E+06     44.7470E+06     72.0049E+06     504.838E+03    -297.946E-03     592.635E-03    -294.689E-03     197.320E-03    -306.096E-03     600.671E-03    -294.368E-03     153.881E-03
            1702     10.0579E-03     68.8538E-03    -23.9980E+06     38.1189E+06     67.5240E+06     209.726E+03    -298.239E-03     592.942E-03    -294.702E-03     203.109E-03    -306.666E-03     601.222E-03    -294.385E-03     159.357E-03
            1703     9.38595E-03     68.5529E-03    -30.6404E+06     30.6967E+06     60.1797E+06    -9.98775E+03    -298.705E-03     593.421E-03    -294.716E-03     206.143E-03    -307.195E-03     601.737E-03    -294.415E-03     162.629E-03
            1704     8.71594E-03     68.2493E-03    -37.5777E+06     22.8319E+06     51.2398E+06    -199.151E+03    -299.026E-03     593.747E-03    -294.721E-03     205.306E-03    -307.335E-03     601.855E-03    -294.443E-03     162.573E-03
            1705     8.04543E-03     67.9486E-03    -44.8328E+06     14.6928E+06     42.4297E+06    -356.653E+03    -298.957E-03     593.684E-03    -294.726E-03     201.168E-03    -306.876E-03     601.373E-03    -294.470E-03     159.719E-03
            1706     7.37466E-03     67.6550E-03    -52.4916E+06     4.57193E+06     32.2083E+06    -554.343E+03    -298.777E-03     593.507E-03    -294.730E-03     194.282E-03    -306.126E-03     600.593E-03    -294.499E-03     154.572E-03
            1707     6.70408E-03     67.3728E-03    -60.5856E+06    -5.93219E+06     22.1389E+06    -741.660E+03    -298.302E-03     593.043E-03    -294.742E-03     184.411E-03    -304.909E-03     599.350E-03    -294.534E-03     146.989E-03
            1708     6.03275E-03     67.1091E-03    -69.1701E+06    -15.1348E+06     12.5925E+06    -471.829E+03    -297.737E-03     592.504E-03    -294.768E-03     171.847E-03    -303.487E-03     597.919E-03    -294.582E-03     137.193E-03
            1709     5.36239E-03     66.8644E-03    -78.5034E+06    -28.6261E+06    -1.63512E+06     266.762E+03    -297.351E-03     592.127E-03    -294.775E-03     156.901E-03    -302.176E-03     596.575E-03    -294.628E-03     125.414E-03
            1710     4.69217E-03     66.6434E-03    -88.0743E+06    -57.3543E+06    -20.2834E+06     671.575E+03    -296.764E-03     591.542E-03    -294.778E-03     140.018E-03    -300.635E-03     594.955E-03    -294.668E-03     112.042E-03
            1711     4.02210E-03     66.4497E-03    -97.0226E+06    -89.1123E+06    -40.8154E+06     445.122E+03    -296.183E-03     590.966E-03    -294.783E-03     121.887E-03    -299.148E-03     593.389E-03    -294.717E-03     97.6562E-03
            1712     3.35112E-03     66.2828E-03    -105.420E+06    -115.078E+06    -62.0280E+06     145.467E+03    -295.813E-03     590.586E-03    -294.773E-03     102.798E-03    -297.972E-03     592.142E-03    -294.764E-03     82.4476E-03
            1713     2.68051E-03     66.1451E-03    -113.455E+06    -141.924E+06    -83.0892E+06    -30.3936E+03    -295.504E-03     590.249E-03    -294.745E-03     83.3033E-03    -296.981E-03     591.060E-03    -294.790E-03     66.8965E-03
            1714     2.01049E-03     66.0354E-03    -120.064E+06    -164.788E+06    -102.397E+06     304.657E+03    -295.297E-03     589.974E-03    -294.677E-03     63.4055E-03    -296.225E-03     590.188E-03    -294.776E-03     51.0302E-03
            1715     1.34123E-03     65.9571E-03    -124.926E+06    -188.614E+06    -116.869E+06     193.116E+03    -295.030E-03     589.602E-03    -294.571E-03     43.2475E-03    -295.549E-03     589.346E-03    -294.701E-03     34.8917E-03
            1716     670.442E-06     65.9108E-03    -127.957E+06    -203.295E+06    -126.181E+06    -1.49976E+06    -294.689E-03     589.079E-03    -294.389E-03     23.4974E-03    -294.963E-03     588.542E-03    -294.540E-03     18.8745E-03
            1717     12.7407E-03     68.2102E-03    -4.10606E+06     57.5663E+06     76.3196E+06     180.295E+03    -294.666E-03     589.317E-03    -294.651E-03     127.826E-03    -299.254E-03     593.874E-03    -294.347E-03     95.4070E-03
            1718     12.0698E-03     67.9685E-03    -8.58475E+06     55.1252E+06     73.1980E+06    -348.399E+03    -296.382E-03     591.023E-03    -294.641E-03     171.708E-03    -303.217E-03     597.811E-03    -294.342E-03     130.964E-03
            1719     11.3998E-03     67.7203E-03    -13.3730E+06     48.9920E+06     70.5544E+06    -331.838E+03    -296.970E-03     591.609E-03    -294.639E-03     183.665E-03    -304.294E-03     598.855E-03    -294.338E-03     142.166E-03
            1720     10.7281E-03     67.4378E-03    -18.7284E+06     43.9237E+06     70.7197E+06    -431.562E+03    -297.567E-03     592.245E-03    -294.677E-03     197.919E-03    -305.730E-03     600.292E-03    -294.360E-03     154.520E-03
            1721     10.0572E-03     67.1468E-03    -24.3406E+06     37.8845E+06     67.6801E+06     77.9844E+03    -298.305E-03     593.017E-03    -294.712E-03     203.697E-03    -306.737E-03     601.301E-03    -294.393E-03     159.979E-03
            1722     9.38692E-03     66.8457E-03    -30.4660E+06     31.0358E+06     61.3179E+06     325.050E+03    -298.849E-03     593.574E-03    -294.725E-03     206.108E-03    -307.327E-03     601.876E-03    -294.419E-03     162.634E-03
            1723     8.71563E-03     66.5399E-03    -37.0162E+06     23.5368E+06     52.4906E+06     266.284E+03    -299.005E-03     593.729E-03    -294.724E-03     204.869E-03    -307.298E-03     601.822E-03    -294.442E-03     162.174E-03
            1724     8.04495E-03     66.2406E-03    -44.1122E+06     15.5130E+06     43.2386E+06     235.503E+03    -298.993E-03     593.717E-03    -294.723E-03     200.977E-03    -306.907E-03     601.403E-03    -294.466E-03     159.533E-03
            1725     7.37454E-03     65.9457E-03    -51.7638E+06     5.10681E+06     32.7528E+06     167.835E+03    -298.686E-03     593.413E-03    -294.727E-03     194.245E-03    -306.032E-03     600.499E-03    -294.496E-03     154.557E-03
            1726     6.70377E-03     65.6656E-03    -60.0071E+06    -5.59639E+06     22.4408E+06     175.248E+03    -298.242E-03     592.987E-03    -294.745E-03     184.295E-03    -304.845E-03     599.292E-03    -294.537E-03     146.892E-03
            1727     6.03346E-03     65.4007E-03    -69.2378E+06    -15.4095E+06     12.1719E+06    -15.5985E+03    -297.917E-03     592.678E-03    -294.761E-03     171.790E-03    -303.669E-03     598.094E-03    -294.577E-03     137.109E-03
            1728     5.36298E-03     65.1556E-03    -78.5668E+06    -29.2645E+06    -1.82980E+06    -343.605E+03    -297.293E-03     592.054E-03    -294.762E-03     156.825E-03    -302.114E-03     596.498E-03    -294.614E-03     125.338E-03
            1729     4.69214E-03     64.9356E-03    -87.5066E+06    -57.6419E+06    -19.9226E+06    -587.302E+03    -296.641E-03     591.418E-03    -294.777E-03     140.099E-03    -300.511E-03     594.830E-03    -294.666E-03     112.117E-03
            1730     4.02101E-03     64.7410E-03    -96.4523E+06    -89.0392E+06    -40.3682E+06    -596.102E+03    -296.280E-03     591.063E-03    -294.783E-03     121.983E-03    -299.245E-03     593.487E-03    -294.716E-03     97.7243E-03
            1731     3.35118E-03     64.5741E-03    -105.367E+06    -115.000E+06    -61.3345E+06    -326.537E+03    -295.962E-03     590.712E-03    -294.750E-03     102.675E-03    -298.119E-03     592.265E-03    -294.737E-03     82.3182E-03
            1732     2.68130E-03     64.4364E-03    -113.749E+06    -141.998E+06    -82.2290E+06    -71.7773E+03    -295.468E-03     590.169E-03    -294.701E-03     82.9278E-03    -296.942E-03     590.973E-03    -294.741E-03     66.5405E-03
            1733     2.01079E-03     64.3273E-03    -120.895E+06    -165.457E+06    -101.674E+06     21.6538E+03    -294.816E-03     589.527E-03    -294.711E-03     63.0505E-03    -295.745E-03     589.735E-03    -294.804E-03     50.6881E-03
            1734     1.33922E-03     64.2489E-03    -126.100E+06    -186.314E+06    -117.378E+06    -177.316E+03    -294.600E-03     589.448E-03    -294.849E-03     42.6985E-03    -295.125E-03     589.205E-03    -294.983E-03     34.3346E-03
            1735     669.290E-06     64.2018E-03    -128.985E+06    -205.585E+06    -127.424E+06    -151.879E+03    -295.321E-03     589.974E-03    -294.653E-03     23.0013E-03    -295.592E-03     589.427E-03    -294.805E-03     18.3794E-03
            1736     12.7391E-03     66.4999E-03    -3.83257E+06     57.9943E+06     76.7771E+06     268.088E+03    -294.844E-03     589.452E-03    -294.608E-03     127.483E-03    -299.412E-03     593.989E-03    -294.303E-03     95.1461E-03
            1737     12.0697E-03     66.2585E-03    -8.52974E+06     54.9897E+06     72.3719E+06     -67.302E+03    -295.575E-03     590.187E-03    -294.612E-03     172.532E-03    -302.411E-03     596.978E-03    -294.318E-03     131.946E-03
            1738     11.3988E-03     66.0123E-03    -13.1773E+06     48.9862E+06     69.5921E+06     88.4934E+03    -296.643E-03     591.292E-03    -294.649E-03     184.928E-03    -303.998E-03     598.572E-03    -294.353E-03     143.434E-03
            1739     10.7278E-03     65.7317E-03    -18.4463E+06     44.1329E+06     70.2620E+06     162.027E+03    -297.715E-03     592.417E-03    -294.702E-03     198.319E-03    -305.877E-03     600.467E-03    -294.388E-03     154.944E-03
            1740     10.0566E-03     65.4374E-03    -24.5615E+06     37.6997E+06     67.2923E+06    -251.905E+03    -298.590E-03     593.316E-03    -294.726E-03     203.494E-03    -307.016E-03     601.593E-03    -294.409E-03     159.745E-03
            1741     9.38635E-03     65.1356E-03    -30.8641E+06     30.7758E+06     61.2218E+06    -373.487E+03    -299.060E-03     593.782E-03    -294.722E-03     205.823E-03    -307.539E-03     602.083E-03    -294.416E-03     162.294E-03
            1742     8.71633E-03     64.8333E-03    -37.5036E+06     23.1988E+06     52.3970E+06    -226.462E+03    -299.058E-03     593.767E-03    -294.709E-03     204.916E-03    -307.358E-03     601.864E-03    -294.426E-03     162.200E-03
            1743     8.04559E-03     64.5314E-03    -44.4915E+06     15.1983E+06     43.0100E+06    -57.6214E+03    -298.905E-03     593.612E-03    -294.707E-03     200.865E-03    -306.817E-03     601.295E-03    -294.449E-03     159.431E-03
            1744     7.37478E-03     64.2386E-03    -51.7464E+06     4.98052E+06     32.7347E+06     217.112E+03    -298.570E-03     593.286E-03    -294.717E-03     193.963E-03    -305.906E-03     600.362E-03    -294.485E-03     154.304E-03
            1745     6.70382E-03     63.9574E-03    -59.6276E+06    -5.54251E+06     23.0426E+06     507.323E+03    -298.354E-03     593.088E-03    -294.734E-03     184.324E-03    -304.957E-03     599.392E-03    -294.524E-03     146.916E-03
            1746     6.03324E-03     63.6914E-03    -67.7240E+06    -13.7436E+06     13.8267E+06     274.142E+03    -297.889E-03     592.635E-03    -294.746E-03     171.775E-03    -303.636E-03     598.053E-03    -294.559E-03     137.109E-03
            1747     5.36261E-03     63.4479E-03    -76.4819E+06    -28.1061E+06    -420.605E+03    -525.713E+03    -297.225E-03     591.975E-03    -294.750E-03     156.785E-03    -302.040E-03     596.419E-03    -294.600E-03     125.299E-03
            1748     4.69195E-03     63.2274E-03    -86.0804E+06    -58.1661E+06    -19.2944E+06    -705.035E+03    -296.821E-03     591.573E-03    -294.752E-03     139.862E-03    -300.680E-03     594.976E-03    -294.640E-03     111.867E-03
            1749     4.02215E-03     63.0325E-03    -95.8145E+06    -89.6277E+06    -40.2528E+06    -390.294E+03    -296.380E-03     591.106E-03    -294.726E-03     121.513E-03    -299.332E-03     593.516E-03    -294.659E-03     97.2673E-03
            1750     3.35147E-03     62.8653E-03    -104.937E+06    -115.753E+06    -61.6828E+06    -121.477E+03    -295.835E-03     590.515E-03    -294.680E-03     102.507E-03    -297.987E-03     592.062E-03    -294.669E-03     82.1598E-03
            1751     2.68106E-03     62.7274E-03    -112.707E+06    -142.123E+06    -82.6757E+06     235.051E+03    -295.352E-03     589.993E-03    -294.641E-03     82.8925E-03    -296.820E-03     590.797E-03    -294.685E-03     66.5147E-03
            1752     2.01076E-03     62.6203E-03    -119.378E+06    -164.558E+06    -102.535E+06    -259.512E+03    -294.939E-03     589.559E-03    -294.620E-03     62.7919E-03    -295.860E-03     589.770E-03    -294.721E-03     50.4010E-03
            1753     1.34090E-03     62.5413E-03    -124.067E+06    -187.263E+06    -117.374E+06    -552.820E+03    -294.690E-03     589.352E-03    -294.662E-03     42.3840E-03    -295.201E-03     589.098E-03    -294.797E-03     34.0505E-03
            1754     670.537E-06     62.4910E-03    -126.436E+06    -206.073E+06    -124.587E+06     230.429E+03    -294.998E-03     589.490E-03    -294.492E-03     22.8737E-03    -295.256E-03     588.930E-03    -294.633E-03     18.3531E-03
            1755     12.7433E-03     64.7927E-03    -4.23673E+06     57.4694E+06     75.7659E+06    -119.177E+03    -294.060E-03     588.678E-03    -294.618E-03     128.939E-03    -298.645E-03     593.233E-03    -294.316E-03     96.6399E-03
            1756     12.0695E-03     64.5550E-03    -8.22596E+06     55.3134E+06     72.8078E+06     562.273E+03    -295.611E-03     590.271E-03    -294.660E-03     174.076E-03    -302.441E-03     597.057E-03    -294.364E-03     133.681E-03
            1757     11.3974E-03     64.3024E-03    -12.9345E+06     49.4863E+06     70.7627E+06     478.070E+03    -297.151E-03     591.841E-03    -294.690E-03     184.199E-03    -304.491E-03     599.105E-03    -294.389E-03     142.653E-03
            1758     10.7274E-03     64.0228E-03    -18.0390E+06     44.8104E+06     71.6218E+06     284.070E+03    -298.178E-03     592.885E-03    -294.707E-03     197.303E-03    -306.327E-03     600.922E-03    -294.388E-03     153.835E-03
            1759     10.0576E-03     63.7286E-03    -23.7243E+06     38.6313E+06     68.1149E+06     241.035E+03    -298.577E-03     593.283E-03    -294.706E-03     203.003E-03    -306.993E-03     601.555E-03    -294.387E-03     159.246E-03
            1760     9.38692E-03     63.4276E-03    -30.3955E+06     31.1760E+06     60.7199E+06     64.2712E+03    -298.749E-03     593.453E-03    -294.704E-03     205.560E-03    -307.215E-03     601.746E-03    -294.401E-03     162.089E-03
            1761     8.71580E-03     63.1241E-03    -37.4652E+06     23.1438E+06     51.2694E+06    -83.3948E+03    -299.009E-03     593.711E-03    -294.702E-03     205.181E-03    -307.315E-03     601.817E-03    -294.425E-03     162.459E-03
            1762     8.04548E-03     62.8230E-03    -44.4846E+06     15.2115E+06     42.5018E+06    -249.645E+03    -298.924E-03     593.631E-03    -294.707E-03     201.183E-03    -306.849E-03     601.328E-03    -294.452E-03     159.719E-03
            1763     7.37458E-03     62.5312E-03    -51.7828E+06     4.21869E+06     32.8496E+06    -325.271E+03    -298.844E-03     593.555E-03    -294.710E-03     194.290E-03    -306.193E-03     600.640E-03    -294.477E-03     154.570E-03
            1764     6.70427E-03     62.2483E-03    -59.2296E+06    -5.59884E+06     23.6072E+06    -466.330E+03    -298.518E-03     593.225E-03    -294.707E-03     184.237E-03    -305.117E-03     599.525E-03    -294.495E-03     146.802E-03
            1765     6.03370E-03     61.9840E-03    -67.4562E+06    -12.5307E+06     14.2297E+06    -803.772E+03    -297.790E-03     592.496E-03    -294.707E-03     171.337E-03    -303.527E-03     597.908E-03    -294.520E-03     136.681E-03
            1766     5.36283E-03     61.7396E-03    -76.9074E+06    -28.2741E+06    -684.731E+03    -650.961E+03    -297.331E-03     592.030E-03    -294.699E-03     156.419E-03    -302.141E-03     596.468E-03    -294.549E-03     124.928E-03
            1767     4.69273E-03     61.5184E-03    -86.6145E+06    -59.1940E+06    -19.9943E+06    -276.280E+03    -296.875E-03     591.553E-03    -294.677E-03     139.645E-03    -300.729E-03     594.947E-03    -294.566E-03     111.661E-03
            1768     4.02206E-03     61.3239E-03    -95.8643E+06    -90.0915E+06    -41.0303E+06    -132.581E+03    -296.173E-03     590.825E-03    -294.652E-03     121.720E-03    -299.127E-03     593.237E-03    -294.587E-03     97.4920E-03
            1769     3.35190E-03     61.1576E-03    -104.700E+06    -115.923E+06    -62.9142E+06     44.1574E+03    -295.585E-03     590.225E-03    -294.640E-03     102.970E-03    -297.740E-03     591.779E-03    -294.635E-03     82.6325E-03
            1770     2.68123E-03     61.0197E-03    -112.792E+06    -142.135E+06    -84.0420E+06     58.8141E+03    -295.337E-03     589.966E-03    -294.629E-03     83.1925E-03    -296.808E-03     590.776E-03    -294.680E-03     66.8022E-03
            1771     2.01093E-03     60.9115E-03    -118.839E+06    -163.358E+06    -103.129E+06     96.8333E+03    -295.196E-03     589.758E-03    -294.563E-03     62.9947E-03    -296.117E-03     589.977E-03    -294.669E-03     50.6037E-03
            1772     1.34070E-03     60.8328E-03    -123.205E+06    -188.850E+06    -116.614E+06     329.380E+03    -294.877E-03     589.352E-03    -294.475E-03     42.8991E-03    -295.385E-03     589.091E-03    -294.605E-03     34.5708E-03
            1773     670.071E-06     60.7852E-03    -127.166E+06    -204.899E+06    -124.687E+06     652.928E+03    -294.677E-03     588.932E-03    -294.254E-03     23.4828E-03    -294.943E-03     588.380E-03    -294.396E-03     19.0132E-03
            1774     12.7358E-03     63.0894E-03    -4.48636E+06     57.0648E+06     74.6542E+06     13.9247E+03    -294.379E-03     589.053E-03    -294.674E-03     128.893E-03    -298.961E-03     593.605E-03    -294.377E-03     96.5097E-03
            1775     12.0668E-03     62.8408E-03    -8.37630E+06     55.4449E+06     73.1351E+06     159.164E+03    -296.618E-03     591.299E-03    -294.681E-03     172.421E-03    -303.424E-03     598.060E-03    -294.383E-03     131.863E-03
            1776     11.3994E-03     62.5946E-03    -12.7384E+06     49.9398E+06     71.6286E+06    -28.3484E+03    -297.345E-03     592.014E-03    -294.669E-03     183.204E-03    -304.672E-03     599.265E-03    -294.365E-03     141.605E-03
            1777     10.7285E-03     62.3137E-03    -18.2650E+06     44.6760E+06     71.4380E+06    -126.080E+03    -298.009E-03     592.687E-03    -294.678E-03     197.462E-03    -306.167E-03     600.731E-03    -294.359E-03     153.981E-03
            1778     10.0578E-03     62.0195E-03    -24.1936E+06     38.2446E+06     67.6861E+06     9.59131E+03    -298.359E-03     593.048E-03    -294.689E-03     203.383E-03    -306.792E-03     601.334E-03    -294.371E-03     159.620E-03
            1779     9.38669E-03     61.7209E-03    -30.2702E+06     31.4211E+06     61.1282E+06     254.904E+03    -298.782E-03     593.479E-03    -294.697E-03     205.957E-03    -307.262E-03     601.786E-03    -294.393E-03     162.465E-03
            1780     8.71615E-03     61.4149E-03    -36.7760E+06     23.9250E+06     52.1959E+06     328.206E+03    -298.950E-03     593.647E-03    -294.697E-03     204.744E-03    -307.238E-03     601.738E-03    -294.417E-03     162.062E-03
            1781     8.04495E-03     61.1160E-03    -44.0053E+06     15.7479E+06     42.8951E+06     197.998E+03    -298.975E-03     593.669E-03    -294.693E-03     200.455E-03    -306.874E-03     601.343E-03    -294.438E-03     159.024E-03
            1782     7.37465E-03     60.8211E-03    -51.7018E+06     5.34516E+06     33.4215E+06    -255.741E+03    -298.920E-03     593.604E-03    -294.684E-03     193.808E-03    -306.258E-03     600.681E-03    -294.449E-03     154.086E-03
            1783     6.70450E-03     60.5399E-03    -59.9454E+06    -4.58573E+06     23.6949E+06    -1.15709E+06    -298.439E-03     593.111E-03    -294.672E-03     184.076E-03    -305.042E-03     599.417E-03    -294.460E-03     146.626E-03
            1784     6.03383E-03     60.2760E-03    -68.9308E+06    -13.4680E+06     12.7463E+06    -1.32633E+06    -297.927E-03     592.587E-03    -294.660E-03     171.637E-03    -303.678E-03     598.008E-03    -294.477E-03     136.943E-03
            1785     5.36368E-03     60.0311E-03    -78.0697E+06    -29.7600E+06    -2.25152E+06    -790.932E+03    -297.363E-03     592.004E-03    -294.641E-03     156.920E-03    -302.181E-03     596.446E-03    -294.496E-03     125.427E-03
            1786     4.69298E-03     59.8103E-03    -87.4888E+06    -59.7814E+06    -21.2650E+06    -321.098E+03    -296.652E-03     591.286E-03    -294.634E-03     140.131E-03    -300.515E-03     594.688E-03    -294.527E-03     112.165E-03
            1787     4.02241E-03     59.6167E-03    -97.2202E+06    -90.2514E+06    -42.4971E+06     133.034E+03    -296.062E-03     590.694E-03    -294.632E-03     121.903E-03    -299.025E-03     593.115E-03    -294.573E-03     97.6757E-03
            1788     3.35118E-03     59.4497E-03    -106.493E+06    -115.750E+06    -64.2311E+06     236.737E+03    -295.656E-03     590.276E-03    -294.620E-03     102.753E-03    -297.816E-03     591.833E-03    -294.618E-03     82.4220E-03
            1789     2.68093E-03     59.3113E-03    -114.917E+06    -142.211E+06    -85.2378E+06    -112.623E+03    -295.316E-03     589.912E-03    -294.596E-03     82.9783E-03    -296.792E-03     590.722E-03    -294.649E-03     66.6097E-03
            1790     2.01087E-03     59.2026E-03    -122.054E+06    -164.578E+06    -104.025E+06     355.110E+03    -294.981E-03     589.545E-03    -294.563E-03     62.7987E-03    -295.912E-03     589.760E-03    -294.668E-03     50.4555E-03
            1791     1.34053E-03     59.1256E-03    -127.074E+06    -188.099E+06    -117.437E+06     1.10965E+06    -294.762E-03     589.309E-03    -294.547E-03     42.8585E-03    -295.291E-03     589.060E-03    -294.677E-03     34.5020E-03
            1792     670.913E-06     59.0759E-03    -131.504E+06    -202.456E+06    -127.853E+06     401.530E+03    -294.377E-03     589.122E-03    -294.745E-03     23.9299E-03    -294.668E-03     588.599E-03    -294.900E-03     19.2914E-03
            1793     12.7415E-03     61.3745E-03    -4.37483E+06     57.7779E+06     77.1847E+06    -89.8121E+03    -295.432E-03     590.083E-03    -294.651E-03     127.080E-03    -299.992E-03     594.609E-03    -294.343E-03     94.6687E-03
            1794     12.0722E-03     61.1348E-03    -7.72576E+06     56.1586E+06     73.9282E+06     244.396E+03    -296.117E-03     590.742E-03    -294.625E-03     171.816E-03    -302.923E-03     597.506E-03    -294.326E-03     131.247E-03
            1795     11.3982E-03     60.8855E-03    -12.9957E+06     49.4558E+06     70.0873E+06     46.8255E+03    -296.855E-03     591.487E-03    -294.632E-03     184.010E-03    -304.193E-03     598.751E-03    -294.335E-03     142.473E-03
            1796     10.7282E-03     60.6041E-03    -18.6266E+06     44.2141E+06     70.2260E+06    -327.442E+03    -297.832E-03     592.497E-03    -294.665E-03     197.643E-03    -305.991E-03     600.543E-03    -294.351E-03     154.183E-03
            1797     10.0570E-03     60.3136E-03    -24.3153E+06     38.1310E+06     67.3716E+06    -213.004E+03    -298.433E-03     593.114E-03    -294.682E-03     203.008E-03    -306.850E-03     601.385E-03    -294.365E-03     159.260E-03
            1798     9.38675E-03     60.0097E-03    -30.7956E+06     31.0048E+06     61.0219E+06    -255.891E+03    -298.884E-03     593.566E-03    -294.681E-03     205.434E-03    -307.351E-03     601.856E-03    -294.377E-03     161.939E-03
            1799     8.71638E-03     59.7085E-03    -37.4559E+06     23.4503E+06     52.4243E+06    -96.0276E+03    -299.088E-03     593.757E-03    -294.668E-03     204.577E-03    -307.379E-03     601.846E-03    -294.386E-03     161.865E-03
            1800     8.04623E-03     59.4065E-03    -44.2551E+06     15.6967E+06     43.5015E+06     179.926E+03    -299.107E-03     593.759E-03    -294.652E-03     200.684E-03    -307.014E-03     601.438E-03    -294.393E-03     159.238E-03
            1801     7.37584E-03     59.1136E-03    -51.8808E+06     7.16002E+06     34.4732E+06     218.584E+03    -298.693E-03     593.338E-03    -294.644E-03     193.923E-03    -306.036E-03     600.421E-03    -294.407E-03     154.251E-03
            1802     6.70444E-03     58.8323E-03    -60.4762E+06    -2.49472E+06     24.0364E+06    -185.065E+03    -298.269E-03     592.916E-03    -294.647E-03     184.326E-03    -304.883E-03     599.236E-03    -294.436E-03     146.911E-03
            1803     6.03399E-03     58.5671E-03    -69.7919E+06    -13.5591E+06     11.7987E+06    -770.747E+03    -297.916E-03     592.558E-03    -294.642E-03     171.830E-03    -303.673E-03     597.985E-03    -294.462E-03     137.147E-03
            1804     5.36322E-03     58.3230E-03    -79.5314E+06    -31.3948E+06    -3.87487E+06    -1.08596E+06    -297.253E-03     591.882E-03    -294.629E-03     156.886E-03    -302.077E-03     596.324E-03    -294.488E-03     125.383E-03
            1805     4.69246E-03     58.1027E-03    -89.3287E+06    -61.3287E+06    -22.8817E+06    -308.620E+03    -296.615E-03     591.245E-03    -294.629E-03     139.988E-03    -300.484E-03     594.645E-03    -294.525E-03     112.014E-03
            1806     4.02183E-03     57.9082E-03    -98.8110E+06    -90.3069E+06    -43.1499E+06     186.501E+03    -296.218E-03     590.832E-03    -294.614E-03     121.719E-03    -299.186E-03     593.254E-03    -294.556E-03     97.4819E-03
            1807     3.35232E-03     57.7417E-03    -107.559E+06    -115.486E+06    -64.0689E+06     34.7284E+03    -295.754E-03     590.327E-03    -294.573E-03     102.699E-03    -297.919E-03     591.886E-03    -294.569E-03     82.3600E-03
            1808     2.68188E-03     57.6033E-03    -115.263E+06    -142.109E+06    -84.8680E+06     375.466E+03    -295.150E-03     589.698E-03    -294.548E-03     83.0599E-03    -296.627E-03     590.508E-03    -294.600E-03     66.7231E-03
            1809     2.01093E-03     57.4955E-03    -121.971E+06    -165.604E+06    -104.180E+06     511.313E+03    -294.746E-03     589.318E-03    -294.572E-03     63.0534E-03    -295.676E-03     589.529E-03    -294.676E-03     50.7130E-03
            1810     1.34055E-03     57.4167E-03    -127.208E+06    -186.542E+06    -119.263E+06     309.565E+03    -294.614E-03     589.268E-03    -294.655E-03     42.9860E-03    -295.144E-03     589.031E-03    -294.796E-03     34.6091E-03
            1811     669.325E-06     57.3692E-03    -129.384E+06    -201.064E+06    -127.503E+06     27.3514E+03    -294.704E-03     589.496E-03    -294.792E-03     23.6331E-03    -294.986E-03     588.975E-03    -294.950E-03     19.0092E-03
            1812     12.7409E-03     59.6674E-03    -4.06407E+06     57.8402E+06     76.1143E+06    -342.946E+03    -294.865E-03     589.476E-03    -294.611E-03     128.902E-03    -299.458E-03     594.039E-03    -294.308E-03     96.5073E-03
            1813     12.0674E-03     59.4264E-03    -9.22683E+06     54.6636E+06     72.5145E+06    -626.090E+03    -295.958E-03     590.574E-03    -294.616E-03     173.488E-03    -302.803E-03     597.369E-03    -294.319E-03     132.928E-03
            1814     11.3997E-03     59.1771E-03    -13.1963E+06     49.4506E+06     70.7958E+06    -69.8668E+03    -297.024E-03     591.658E-03    -294.634E-03     184.146E-03    -304.358E-03     598.915E-03    -294.332E-03     142.635E-03
            1815     10.7279E-03     58.8972E-03    -18.0708E+06     44.8859E+06     71.3373E+06     394.728E+03    -297.961E-03     592.618E-03    -294.657E-03     197.159E-03    -306.098E-03     600.643E-03    -294.339E-03     153.749E-03
            1816     10.0584E-03     58.6028E-03    -24.2259E+06     38.3387E+06     67.8185E+06     261.995E+03    -298.552E-03     593.212E-03    -294.660E-03     202.805E-03    -306.961E-03     601.475E-03    -294.342E-03     159.070E-03
            1817     9.38765E-03     58.3039E-03    -30.6152E+06     31.2536E+06     61.2814E+06     116.607E+03    -298.897E-03     593.550E-03    -294.653E-03     205.582E-03    -307.365E-03     601.842E-03    -294.347E-03     162.104E-03
            1818     8.71647E-03     57.9988E-03    -37.5612E+06     23.3477E+06     52.0039E+06    -122.523E+03    -299.058E-03     593.696E-03    -294.638E-03     204.762E-03    -307.348E-03     601.785E-03    -294.358E-03     162.067E-03
            1819     8.04592E-03     57.6981E-03    -44.6920E+06     15.2351E+06     42.5496E+06    -280.345E+03    -298.865E-03     593.498E-03    -294.633E-03     201.034E-03    -306.779E-03     601.184E-03    -294.377E-03     159.613E-03
            1820     7.37484E-03     57.4055E-03    -52.0673E+06     7.00873E+06     34.0958E+06    -125.197E+03    -298.687E-03     593.328E-03    -294.641E-03     194.413E-03    -306.048E-03     600.430E-03    -294.405E-03     154.708E-03
            1821     6.70474E-03     57.1243E-03    -59.9221E+06    -1.90852E+06     24.6062E+06     287.875E+03    -298.439E-03     593.080E-03    -294.641E-03     184.490E-03    -305.056E-03     599.406E-03    -294.429E-03     147.060E-03
            1822     6.03394E-03     56.8588E-03    -68.5087E+06    -11.8919E+06     12.8271E+06     379.318E+03    -297.829E-03     592.461E-03    -294.632E-03     171.723E-03    -303.581E-03     597.891E-03    -294.451E-03     137.068E-03
            1823     5.36352E-03     56.6150E-03    -77.9854E+06    -32.1408E+06    -2.22782E+06     496.690E+03    -297.216E-03     591.846E-03    -294.630E-03     156.647E-03    -302.032E-03     596.278E-03    -294.481E-03     125.163E-03
            1824     4.69311E-03     56.3949E-03    -87.7017E+06    -62.4026E+06    -20.9804E+06     628.197E+03    -296.709E-03     591.334E-03    -294.625E-03     140.012E-03    -300.573E-03     594.726E-03    -294.512E-03     112.034E-03
            1825     4.02279E-03     56.2001E-03    -96.9526E+06    -89.2927E+06    -41.6802E+06     371.233E+03    -296.158E-03     590.762E-03    -294.604E-03     122.015E-03    -299.124E-03     593.187E-03    -294.542E-03     97.7875E-03
            1826     3.35159E-03     56.0333E-03    -105.867E+06    -115.350E+06    -63.0671E+06     115.569E+03    -295.573E-03     590.163E-03    -294.590E-03     103.100E-03    -297.737E-03     591.725E-03    -294.585E-03     82.7553E-03
            1827     2.68101E-03     55.8960E-03    -114.282E+06    -142.313E+06    -83.8467E+06     362.318E+03    -295.170E-03     589.767E-03    -294.596E-03     83.5115E-03    -296.653E-03     590.582E-03    -294.644E-03     67.1257E-03
            1828     2.01077E-03     55.7878E-03    -121.011E+06    -164.968E+06    -103.044E+06     686.019E+03    -295.024E-03     589.605E-03    -294.581E-03     63.1510E-03    -295.955E-03     589.819E-03    -294.681E-03     50.7751E-03
            1829     1.34010E-03     55.7090E-03    -125.504E+06    -184.935E+06    -118.772E+06     473.956E+03    -294.961E-03     589.441E-03    -294.480E-03     42.1872E-03    -295.481E-03     589.203E-03    -294.624E-03     33.8577E-03
            1830     670.743E-06     55.6600E-03    -127.456E+06    -200.468E+06    -127.469E+06     282.816E+03    -294.764E-03     588.882E-03    -294.118E-03     22.7482E-03    -295.029E-03     588.354E-03    -294.280E-03     18.3177E-03
            1831     12.7385E-03     57.9593E-03    -3.29494E+06     58.4147E+06     75.6637E+06     334.317E+03    -294.486E-03     589.106E-03    -294.621E-03     127.965E-03    -299.047E-03     593.644E-03    -294.322E-03     95.6300E-03
            1832     12.0711E-03     57.7169E-03    -8.77629E+06     54.9204E+06     71.5630E+06    -521.334E+03    -296.158E-03     590.783E-03    -294.625E-03     172.621E-03    -302.978E-03     597.559E-03    -294.334E-03     132.028E-03
            1833     11.3982E-03     57.4688E-03    -14.0322E+06     48.6460E+06     69.6758E+06    -691.598E+03    -297.324E-03     591.952E-03    -294.628E-03     183.983E-03    -304.667E-03     599.216E-03    -294.330E-03     142.369E-03
            1834     10.7292E-03     57.1872E-03    -18.8883E+06     44.2999E+06     71.4529E+06    -143.635E+03    -298.008E-03     592.654E-03    -294.646E-03     197.422E-03    -306.154E-03     600.682E-03    -294.325E-03     154.013E-03
            1835     10.0576E-03     56.8956E-03    -24.4175E+06     38.3240E+06     68.3652E+06     49.6382E+03    -298.472E-03     593.125E-03    -294.653E-03     203.238E-03    -306.893E-03     601.397E-03    -294.332E-03     159.514E-03
            1836     9.38681E-03     56.5942E-03    -30.4886E+06     31.4988E+06     61.5863E+06     104.741E+03    -298.972E-03     593.618E-03    -294.646E-03     205.849E-03    -307.449E-03     601.920E-03    -294.340E-03     162.345E-03
            1837     8.71720E-03     56.2905E-03    -36.9740E+06     23.9532E+06     52.2941E+06     138.363E+03    -298.932E-03     593.566E-03    -294.634E-03     204.919E-03    -307.228E-03     601.663E-03    -294.353E-03     162.234E-03
            1838     8.04595E-03     55.9917E-03    -44.2776E+06     15.6114E+06     42.4317E+06     139.195E+03    -298.863E-03     593.494E-03    -294.632E-03     200.966E-03    -306.776E-03     601.183E-03    -294.378E-03     159.543E-03
            1839     7.37524E-03     55.6969E-03    -52.1335E+06     6.92827E+06     33.5372E+06    -55.9837E+03    -298.801E-03     593.432E-03    -294.632E-03     193.972E-03    -306.147E-03     600.521E-03    -294.398E-03     154.270E-03
            1840     6.70457E-03     55.4154E-03    -60.4207E+06    -2.36488E+06     23.9844E+06    -226.539E+03    -298.351E-03     592.977E-03    -294.626E-03     184.147E-03    -304.962E-03     599.296E-03    -294.415E-03     146.719E-03
            1841     6.03427E-03     55.1512E-03    -69.1835E+06    -12.4575E+06     12.5630E+06    -30.9788E+03    -297.718E-03     592.344E-03    -294.626E-03     171.795E-03    -303.475E-03     597.775E-03    -294.445E-03     137.143E-03
            1842     5.36332E-03     54.9068E-03    -78.2745E+06    -32.5110E+06    -2.40375E+06     245.546E+03    -297.143E-03     591.781E-03    -294.637E-03     156.995E-03    -301.965E-03     596.216E-03    -294.489E-03     125.519E-03
            1843     4.69262E-03     54.6867E-03    -87.3833E+06    -62.3229E+06    -21.0456E+06     427.928E+03    -296.632E-03     591.281E-03    -294.649E-03     140.437E-03    -300.503E-03     594.681E-03    -294.537E-03     112.450E-03
            1844     4.02186E-03     54.4920E-03    -96.8577E+06    -88.8876E+06    -41.7061E+06     921.849E+03    -296.031E-03     590.686E-03    -294.655E-03     122.346E-03    -299.004E-03     593.121E-03    -294.594E-03     98.1170E-03
            1845     3.35172E-03     54.3262E-03    -106.139E+06    -114.830E+06    -63.0349E+06     1.08230E+06    -295.575E-03     590.241E-03    -294.666E-03     103.143E-03    -297.744E-03     591.809E-03    -294.661E-03     82.7995E-03
            1846     2.68107E-03     54.1879E-03    -114.709E+06    -141.849E+06    -84.0096E+06     624.723E+03    -295.428E-03     590.081E-03    -294.653E-03     83.3710E-03    -296.912E-03     590.898E-03    -294.701E-03     66.9789E-03
            1847     2.01083E-03     54.0789E-03    -121.411E+06    -164.189E+06    -102.934E+06     63.2469E+03    -295.282E-03     589.847E-03    -294.566E-03     63.1435E-03    -296.215E-03     590.065E-03    -294.666E-03     50.7641E-03
            1848     1.34170E-03     54.0001E-03    -126.664E+06    -184.596E+06    -117.411E+06     184.815E+03    -294.879E-03     589.316E-03    -294.437E-03     42.9932E-03    -295.411E-03     589.083E-03    -294.573E-03     34.6494E-03
            1849     671.217E-06     53.9530E-03    -130.583E+06    -199.024E+06    -127.369E+06     745.788E+03    -294.227E-03     588.799E-03    -294.572E-03     23.8681E-03    -294.518E-03     588.291E-03    -294.731E-03     19.2526E-03
            1850     12.7423E-03     56.2516E-03    -3.94242E+06     58.1976E+06     76.6937E+06     226.301E+03    -295.119E-03     589.740E-03    -294.620E-03     128.190E-03    -299.690E-03     594.281E-03    -294.315E-03     95.7987E-03
            1851     12.0678E-03     56.0092E-03    -7.74609E+06     56.3057E+06     73.9188E+06     745.277E+03    -296.379E-03     590.982E-03    -294.603E-03     172.336E-03    -303.174E-03     597.735E-03    -294.304E-03     131.837E-03
            1852     11.3998E-03     55.7582E-03    -12.7393E+06     49.9490E+06     70.7153E+06     349.677E+03    -296.916E-03     591.518E-03    -294.602E-03     183.176E-03    -304.229E-03     598.758E-03    -294.302E-03     141.670E-03
            1853     10.7281E-03     55.4798E-03    -18.5539E+06     44.4834E+06     70.5021E+06    -369.043E+03    -297.763E-03     592.389E-03    -294.627E-03     197.059E-03    -305.906E-03     600.420E-03    -294.312E-03     153.622E-03
            1854     10.0579E-03     55.1871E-03    -24.6888E+06     37.9767E+06     67.1114E+06    -634.077E+03    -298.516E-03     593.152E-03    -294.636E-03     202.831E-03    -306.927E-03     601.415E-03    -294.319E-03     159.076E-03
            1855     9.38793E-03     54.8852E-03    -31.0254E+06     30.9247E+06     60.6248E+06    -438.866E+03    -298.676E-03     593.312E-03    -294.635E-03     205.350E-03    -307.136E-03     601.595E-03    -294.332E-03     161.900E-03
            1856     8.71601E-03     54.5837E-03    -37.6075E+06     23.3363E+06     51.4625E+06    -209.166E+03    -298.876E-03     593.509E-03    -294.633E-03     204.733E-03    -307.168E-03     601.601E-03    -294.355E-03     162.053E-03
            1857     8.04576E-03     54.2819E-03    -44.4545E+06     15.5183E+06     42.2994E+06     104.321E+03    -299.084E-03     593.708E-03    -294.624E-03     200.967E-03    -306.999E-03     601.398E-03    -294.371E-03     159.515E-03
            1858     7.37585E-03     53.9889E-03    -51.8137E+06     7.30425E+06     33.9183E+06     394.886E+03    -298.723E-03     593.344E-03    -294.621E-03     194.292E-03    -306.075E-03     600.439E-03    -294.387E-03     154.615E-03
            1859     6.70505E-03     53.7081E-03    -60.0075E+06    -1.92424E+06     24.3671E+06     386.351E+03    -298.161E-03     592.794E-03    -294.633E-03     184.664E-03    -304.784E-03     599.126E-03    -294.422E-03     147.262E-03
            1860     6.03384E-03     53.4430E-03    -68.8247E+06    -12.1153E+06     12.8654E+06    -88.5795E+03    -297.635E-03     592.290E-03    -294.654E-03     172.152E-03    -303.400E-03     597.730E-03    -294.473E-03     137.495E-03
            1861     5.36325E-03     53.1995E-03    -78.0858E+06    -33.2908E+06    -2.58829E+06    -173.936E+03    -297.102E-03     591.782E-03    -294.680E-03     157.249E-03    -301.929E-03     596.221E-03    -294.531E-03     125.751E-03
            1862     4.69253E-03     52.9785E-03    -88.0983E+06    -63.6223E+06    -21.9341E+06     977.986E+03    -296.512E-03     591.222E-03    -294.709E-03     140.422E-03    -300.385E-03     594.620E-03    -294.599E-03     112.444E-03
            1863     4.02197E-03     52.7848E-03    -97.8596E+06    -88.6190E+06    -42.3300E+06     1.34501E+06    -296.069E-03     590.799E-03    -294.730E-03     122.321E-03    -299.047E-03     593.238E-03    -294.672E-03     98.0905E-03
            1864     3.35096E-03     52.6174E-03    -106.643E+06    -113.911E+06    -63.4025E+06     873.932E+03    -295.837E-03     590.561E-03    -294.724E-03     103.167E-03    -298.008E-03     592.134E-03    -294.722E-03     82.8190E-03
            1865     2.68104E-03     52.4794E-03    -113.944E+06    -140.245E+06    -83.8802E+06     450.030E+03    -295.448E-03     590.143E-03    -294.696E-03     83.5960E-03    -296.931E-03     590.967E-03    -294.746E-03     67.2049E-03
            1866     2.01108E-03     52.3699E-03    -120.711E+06    -162.488E+06    -102.829E+06    -130.156E+03    -294.841E-03     589.557E-03    -294.716E-03     63.7207E-03    -295.778E-03     589.787E-03    -294.820E-03     51.3375E-03
            1867     1.33955E-03     52.2932E-03    -126.463E+06    -186.337E+06    -117.321E+06    -281.274E+03    -294.595E-03     589.476E-03    -294.881E-03     43.5789E-03    -295.128E-03     589.240E-03    -295.015E-03     35.1556E-03
            1868     668.573E-06     52.2453E-03    -129.721E+06    -197.962E+06    -126.294E+06     119.078E+03    -295.095E-03     590.053E-03    -294.958E-03     23.4752E-03    -295.387E-03     589.549E-03    -295.114E-03     18.8195E-03
            1869     12.7376E-03     54.5413E-03    -4.46631E+06     57.8072E+06     76.4424E+06    -65.0477E+03    -295.411E-03     590.013E-03    -294.602E-03     127.919E-03    -299.990E-03     594.560E-03    -294.297E-03     95.4593E-03
            1870     12.0726E-03     54.2979E-03    -8.66448E+06     55.5895E+06     73.7059E+06    -424.409E+03    -296.434E-03     591.006E-03    -294.572E-03     171.964E-03    -303.238E-03     597.763E-03    -294.272E-03     131.378E-03
            1871     11.3998E-03     54.0533E-03    -12.8981E+06     50.0394E+06     71.7519E+06    -89.9008E+03    -296.796E-03     591.369E-03    -294.573E-03     183.213E-03    -304.096E-03     598.593E-03    -294.268E-03     141.791E-03
            1872     10.7290E-03     53.7713E-03    -17.9157E+06     45.2619E+06     71.7116E+06     414.813E+03    -297.730E-03     592.332E-03    -294.602E-03     197.327E-03    -305.866E-03     600.357E-03    -294.283E-03     153.959E-03
            1873     10.0588E-03     53.4775E-03    -23.9154E+06     38.6676E+06     67.3014E+06     408.687E+03    -298.280E-03     592.897E-03    -294.616E-03     202.976E-03    -306.688E-03     601.162E-03    -294.301E-03     159.279E-03
            1874     9.38711E-03     53.1791E-03    -30.5888E+06     31.2507E+06     60.1045E+06     140.684E+03    -298.643E-03     593.266E-03    -294.624E-03     205.582E-03    -307.109E-03     601.560E-03    -294.324E-03     162.136E-03
            1875     8.71707E-03     52.8750E-03    -37.5785E+06     23.3306E+06     51.0015E+06     49.5304E+03    -298.957E-03     593.580E-03    -294.622E-03     204.889E-03    -307.247E-03     601.671E-03    -294.347E-03     162.225E-03
            1876     8.04653E-03     52.5737E-03    -44.7935E+06     15.1551E+06     41.7723E+06    -143.660E+03    -298.778E-03     593.404E-03    -294.627E-03     201.155E-03    -306.692E-03     601.092E-03    -294.375E-03     159.758E-03
            1877     7.37484E-03     52.2814E-03    -52.3048E+06     6.80442E+06     33.1671E+06    -304.716E+03    -298.481E-03     593.132E-03    -294.651E-03     194.651E-03    -305.848E-03     600.241E-03    -294.419E-03     154.963E-03
            1878     6.70403E-03     51.9992E-03    -60.0425E+06    -2.09476E+06     23.4061E+06    -199.274E+03    -298.148E-03     592.827E-03    -294.679E-03     184.843E-03    -304.779E-03     599.169E-03    -294.472E-03     147.410E-03
            1879     6.03361E-03     51.7360E-03    -68.3156E+06    -11.8163E+06     11.9550E+06     47.2390E+03    -297.660E-03     592.365E-03    -294.705E-03     172.301E-03    -303.430E-03     597.817E-03    -294.529E-03     137.612E-03
            1880     5.36271E-03     51.4903E-03    -77.8574E+06    -34.9508E+06    -2.26960E+06     1.28396E+06    -297.116E-03     591.862E-03    -294.746E-03     157.307E-03    -301.945E-03     596.297E-03    -294.594E-03     125.810E-03
            1881     4.69209E-03     51.2715E-03    -87.6349E+06    -64.1743E+06    -20.3723E+06     1.67489E+06    -296.627E-03     591.407E-03    -294.780E-03     140.442E-03    -300.500E-03     594.800E-03    -294.661E-03     112.462E-03
            1882     4.02118E-03     51.0759E-03    -96.5883E+06    -86.6260E+06    -40.9118E+06     773.134E+03    -296.226E-03     591.009E-03    -294.783E-03     122.321E-03    -299.202E-03     593.453E-03    -294.722E-03     98.0754E-03
            1883     3.35147E-03     50.9090E-03    -105.023E+06    -112.443E+06    -62.2292E+06     220.281E+03    -295.768E-03     590.548E-03    -294.780E-03     103.302E-03    -297.938E-03     592.126E-03    -294.776E-03     82.9301E-03
            1884     2.68094E-03     50.7704E-03    -113.047E+06    -139.351E+06    -83.0904E+06     180.086E+03    -295.234E-03     590.039E-03    -294.805E-03     83.6477E-03    -296.720E-03     590.870E-03    -294.854E-03     67.2231E-03
            1885     2.00967E-03     50.6633E-03    -119.950E+06    -161.851E+06    -102.792E+06     374.195E+03    -295.013E-03     589.866E-03    -294.853E-03     63.1909E-03    -295.946E-03     590.097E-03    -294.958E-03     50.7922E-03
            1886     1.33967E-03     50.5841E-03    -124.132E+06    -186.565E+06    -116.463E+06    -27.3836E+03    -295.188E-03     590.039E-03    -294.851E-03     42.1834E-03    -295.703E-03     589.789E-03    -294.982E-03     33.8031E-03
            1887     670.926E-06     50.5335E-03    -127.567E+06    -197.902E+06    -125.653E+06    -385.807E+03    -294.918E-03     589.662E-03    -294.744E-03     22.6225E-03    -295.192E-03     589.146E-03    -294.900E-03     18.1030E-03
            1888     12.7440E-03     52.8309E-03    -3.91138E+06     58.4438E+06     77.1305E+06    -125.816E+03    -295.137E-03     589.712E-03    -294.575E-03     127.684E-03    -299.702E-03     594.247E-03    -294.268E-03     95.2872E-03
            1889     12.0684E-03     52.5905E-03    -8.64247E+06     55.3924E+06     72.7292E+06    -144.330E+03    -295.821E-03     590.385E-03    -294.564E-03     172.372E-03    -302.627E-03     597.146E-03    -294.268E-03     131.878E-03
            1890     11.3996E-03     52.3434E-03    -13.5843E+06     49.1853E+06     69.8791E+06    -242.951E+03    -297.028E-03     591.605E-03    -294.577E-03     184.117E-03    -304.362E-03     598.862E-03    -294.279E-03     142.593E-03
            1891     10.7294E-03     52.0635E-03    -18.9077E+06     44.3187E+06     70.8004E+06    -245.910E+03    -297.863E-03     592.469E-03    -294.606E-03     197.997E-03    -306.015E-03     600.506E-03    -294.289E-03     154.622E-03
            1892     10.0576E-03     51.7704E-03    -24.3902E+06     38.3972E+06     68.0422E+06     52.2643E+03    -298.166E-03     592.798E-03    -294.632E-03     203.330E-03    -306.578E-03     601.062E-03    -294.312E-03     159.691E-03
            1893     9.38748E-03     51.4705E-03    -30.4624E+06     31.5623E+06     61.2966E+06     408.232E+03    -298.737E-03     593.381E-03    -294.644E-03     205.924E-03    -307.210E-03     601.681E-03    -294.340E-03     162.483E-03
            1894     8.71671E-03     51.1658E-03    -37.1331E+06     23.8690E+06     51.8523E+06     432.584E+03    -298.855E-03     593.502E-03    -294.647E-03     205.405E-03    -307.168E-03     601.617E-03    -294.368E-03     162.715E-03
            1895     8.04529E-03     50.8675E-03    -44.0662E+06     15.8912E+06     42.3294E+06     373.731E+03    -298.710E-03     593.371E-03    -294.661E-03     201.449E-03    -306.640E-03     601.079E-03    -294.409E-03     160.027E-03
            1896     7.37500E-03     50.5724E-03    -51.5355E+06     7.47801E+06     33.3799E+06     154.556E+03    -298.451E-03     593.142E-03    -294.691E-03     194.471E-03    -305.812E-03     600.250E-03    -294.460E-03     154.792E-03
            1897     6.70422E-03     50.2927E-03    -60.1456E+06    -2.38232E+06     22.9968E+06     179.330E+03    -298.049E-03     592.777E-03    -294.728E-03     184.747E-03    -304.679E-03     599.118E-03    -294.522E-03     147.326E-03
            1898     6.03312E-03     50.0265E-03    -70.0187E+06    -14.0220E+06     10.4619E+06     1.28366E+06    -297.672E-03     592.436E-03    -294.764E-03     172.345E-03    -303.448E-03     597.883E-03    -294.589E-03     137.674E-03
            1899     5.36256E-03     49.7836E-03    -79.7684E+06    -34.0568E+06    -4.14960E+06     980.726E+03    -297.252E-03     592.047E-03    -294.795E-03     157.219E-03    -302.087E-03     596.490E-03    -294.651E-03     125.706E-03
            1900     4.69173E-03     49.5621E-03    -88.4483E+06    -61.9865E+06    -20.9656E+06    -905.086E+03    -296.840E-03     591.651E-03    -294.811E-03     140.287E-03    -300.719E-03     595.056E-03    -294.698E-03     112.242E-03
            1901     4.02195E-03     49.3678E-03    -96.9541E+06    -86.8787E+06    -40.4268E+06    -1.07479E+06    -296.252E-03     591.057E-03    -294.805E-03     122.172E-03    -299.233E-03     593.503E-03    -294.741E-03     97.8641E-03
            1902     3.35070E-03     49.2004E-03    -105.651E+06    -112.537E+06    -61.9056E+06    -232.898E+03    -295.612E-03     590.428E-03    -294.816E-03     103.097E-03    -297.788E-03     592.009E-03    -294.809E-03     82.6958E-03
            1903     2.68005E-03     49.0627E-03    -113.607E+06    -139.950E+06    -83.4136E+06    -101.272E+03    -295.401E-03     590.235E-03    -294.834E-03     83.1714E-03    -296.883E-03     591.059E-03    -294.883E-03     66.7532E-03
            1904     2.01059E-03     48.9537E-03    -119.743E+06    -162.480E+06    -102.707E+06    -166.623E+03    -295.491E-03     590.259E-03    -294.768E-03     63.0894E-03    -296.421E-03     590.485E-03    -294.872E-03     50.6612E-03
            1905     1.34149E-03     48.8731E-03    -125.089E+06    -185.742E+06    -116.276E+06     228.058E+03    -295.119E-03     589.755E-03    -294.636E-03     42.8448E-03    -295.645E-03     589.514E-03    -294.766E-03     34.4536E-03
            1906     670.515E-06     48.8277E-03    -129.032E+06    -197.250E+06    -125.284E+06     502.493E+03    -294.547E-03     589.165E-03    -294.618E-03     23.2147E-03    -294.833E-03     588.658E-03    -294.771E-03     18.6551E-03
            1907     12.7384E-03     51.1224E-03    -4.07330E+06     58.0931E+06     75.8838E+06    -196.898E+03    -294.764E-03     589.356E-03    -294.592E-03     128.530E-03    -299.343E-03     593.906E-03    -294.291E-03     96.1065E-03
            1908     12.0716E-03     50.8843E-03    -8.16467E+06     55.9438E+06     73.2422E+06     197.535E+03    -296.024E-03     590.620E-03    -294.596E-03     172.717E-03    -302.829E-03     597.382E-03    -294.299E-03     132.237E-03
            1909     11.3990E-03     50.6340E-03    -12.8794E+06     49.9740E+06     70.7579E+06     307.283E+03    -297.024E-03     591.631E-03    -294.607E-03     183.928E-03    -304.352E-03     598.886E-03    -294.307E-03     142.412E-03
            1910     10.7281E-03     50.3546E-03    -18.3145E+06     44.8553E+06     70.8437E+06     205.521E+03    -297.832E-03     592.464E-03    -294.632E-03     197.349E-03    -305.972E-03     600.493E-03    -294.316E-03     153.965E-03
            1911     10.0582E-03     50.0631E-03    -24.6792E+06     38.0753E+06     67.3156E+06    -106.104E+03    -298.255E-03     592.908E-03    -294.653E-03     203.180E-03    -306.666E-03     601.171E-03    -294.335E-03     159.518E-03
            1912     9.38704E-03     49.7613E-03    -31.2178E+06     30.8899E+06     61.0252E+06    -271.341E+03    -298.527E-03     593.203E-03    -294.675E-03     206.128E-03    -307.007E-03     601.504E-03    -294.370E-03     162.708E-03
            1913     8.71583E-03     49.4595E-03    -37.6158E+06     23.5548E+06     52.3207E+06    -257.240E+03    -298.759E-03     593.453E-03    -294.694E-03     205.254E-03    -307.070E-03     601.563E-03    -294.412E-03     162.571E-03
            1914     8.04564E-03     49.1576E-03    -44.5926E+06     15.5172E+06     42.5173E+06    -17.6136E+03    -298.707E-03     593.420E-03    -294.714E-03     201.405E-03    -306.641E-03     601.128E-03    -294.459E-03     159.969E-03
            1915     7.37464E-03     48.8657E-03    -52.3698E+06     6.79605E+06     33.0435E+06     827.808E+03    -298.461E-03     593.208E-03    -294.748E-03     194.932E-03    -305.842E-03     600.332E-03    -294.516E-03     155.231E-03
            1916     6.70345E-03     48.5840E-03    -60.9112E+06    -3.05138E+06     23.0934E+06     1.86125E+06    -298.264E-03     593.049E-03    -294.785E-03     185.139E-03    -304.912E-03     599.403E-03    -294.577E-03     147.688E-03
            1917     6.03283E-03     48.3192E-03    -69.3372E+06    -13.5882E+06     12.3159E+06     1.71885E+06    -297.887E-03     592.695E-03    -294.808E-03     172.088E-03    -303.661E-03     598.139E-03    -294.626E-03     137.390E-03
            1918     5.36203E-03     48.0741E-03    -77.6245E+06    -28.9986E+06    -1.90048E+06     56.0695E+03    -297.356E-03     592.169E-03    -294.813E-03     156.937E-03    -302.191E-03     596.631E-03    -294.668E-03     125.381E-03
            1919     4.69221E-03     47.8535E-03    -86.9958E+06    -59.3353E+06    -20.6195E+06    -1.39181E+06    -296.807E-03     591.626E-03    -294.819E-03     140.332E-03    -300.690E-03     595.050E-03    -294.710E-03     112.239E-03
            1920     4.02111E-03     47.6592E-03    -96.8523E+06    -89.8785E+06    -41.1345E+06    -1.56840E+06    -296.274E-03     591.094E-03    -294.820E-03     122.238E-03    -299.255E-03     593.532E-03    -294.755E-03     97.8879E-03
            1921     3.35133E-03     47.4924E-03    -105.635E+06    -114.372E+06    -62.1550E+06    -1.02680E+06    -295.859E-03     590.664E-03    -294.805E-03     102.970E-03    -298.031E-03     592.235E-03    -294.797E-03     82.5489E-03
            1922     2.68113E-03     47.3541E-03    -113.402E+06    -140.510E+06    -82.8288E+06    -679.857E+03    -295.552E-03     590.325E-03    -294.773E-03     83.4481E-03    -297.035E-03     591.147E-03    -294.819E-03     67.0049E-03
            1923     2.01081E-03     47.2433E-03    -120.646E+06    -163.686E+06    -101.917E+06    -32.9313E+03    -295.046E-03     589.806E-03    -294.760E-03     63.5804E-03    -295.984E-03     590.030E-03    -294.857E-03     51.1591E-03
            1924     1.33952E-03     47.1666E-03    -126.297E+06    -185.326E+06    -117.530E+06     347.732E+03    -294.660E-03     589.523E-03    -294.864E-03     43.1376E-03    -295.193E-03     589.291E-03    -295.000E-03     34.7246E-03
            1925     669.210E-06     47.1187E-03    -128.338E+06    -196.631E+06    -127.233E+06    -549.840E+03    -295.047E-03     589.980E-03    -294.932E-03     23.9654E-03    -295.330E-03     589.482E-03    -295.097E-03     19.3374E-03
            1926     12.7415E-03     49.4156E-03    -3.84836E+06     58.2724E+06     75.7734E+06     36.6536E+03    -294.865E-03     589.501E-03    -294.636E-03     128.029E-03    -299.438E-03     594.047E-03    -294.336E-03     95.6093E-03
            1927     12.0677E-03     49.1718E-03    -8.77202E+06     55.3483E+06     72.2355E+06    -239.745E+03    -296.439E-03     591.062E-03    -294.623E-03     172.284E-03    -303.246E-03     597.825E-03    -294.329E-03     131.687E-03
            1928     11.3995E-03     48.9273E-03    -13.4808E+06     49.4162E+06     70.2670E+06    -193.677E+03    -297.008E-03     591.633E-03    -294.624E-03     183.635E-03    -304.325E-03     598.873E-03    -294.325E-03     142.156E-03
            1929     10.7288E-03     48.6456E-03    -18.5032E+06     44.7819E+06     71.1975E+06     121.576E+03    -297.646E-03     592.306E-03    -294.660E-03     197.584E-03    -305.789E-03     600.336E-03    -294.342E-03     154.234E-03
            1930     10.0576E-03     48.3547E-03    -24.0961E+06     38.6741E+06     67.7829E+06     374.202E+03    -298.188E-03     592.879E-03    -294.691E-03     203.461E-03    -306.610E-03     601.156E-03    -294.373E-03     159.791E-03
            1931     9.38653E-03     48.0548E-03    -30.2823E+06     31.6717E+06     60.7676E+06     293.870E+03    -298.588E-03     593.302E-03    -294.714E-03     206.309E-03    -307.077E-03     601.620E-03    -294.412E-03     162.859E-03
            1932     8.71610E-03     47.7500E-03    -37.3937E+06     23.5665E+06     51.2167E+06     244.024E+03    -298.681E-03     593.418E-03    -294.737E-03     205.484E-03    -306.993E-03     601.532E-03    -294.461E-03     162.832E-03
            1933     8.04477E-03     47.4508E-03    -44.8362E+06     15.2688E+06     42.1990E+06     218.451E+03    -298.663E-03     593.437E-03    -294.774E-03     201.633E-03    -306.604E-03     601.150E-03    -294.520E-03     160.204E-03
            1934     7.37340E-03     47.1576E-03    -52.1192E+06     4.40048E+06     33.4718E+06     364.564E+03    -298.750E-03     593.557E-03    -294.807E-03     194.665E-03    -306.129E-03     600.669E-03    -294.570E-03     154.903E-03
            1935     6.70320E-03     46.8749E-03    -58.9579E+06    -4.53528E+06     24.9368E+06     799.208E+03    -298.533E-03     593.351E-03    -294.819E-03     184.466E-03    -305.162E-03     599.683E-03    -294.602E-03     146.956E-03
            1936     6.03303E-03     46.6102E-03    -66.5428E+06    -11.0212E+06     15.3127E+06     580.706E+03    -297.906E-03     592.728E-03    -294.822E-03     171.953E-03    -303.683E-03     598.185E-03    -294.633E-03     137.185E-03
            1937     5.36296E-03     46.3657E-03    -75.7719E+06    -26.3517E+06     324.801E+03     370.969E+03    -297.238E-03     592.070E-03    -294.832E-03     157.317E-03    -302.087E-03     596.555E-03    -294.682E-03     125.730E-03
            1938     4.69150E-03     46.1455E-03    -85.5212E+06    -57.8475E+06    -19.4069E+06     295.097E+03    -296.732E-03     591.587E-03    -294.855E-03     140.626E-03    -300.619E-03     595.021E-03    -294.744E-03     112.550E-03
            1939     4.02160E-03     45.9502E-03    -95.1695E+06    -89.9150E+06    -40.6439E+06    -94.5322E+03    -296.343E-03     591.208E-03    -294.865E-03     122.487E-03    -299.321E-03     593.647E-03    -294.799E-03     98.1436E-03
            1940     3.35083E-03     45.7836E-03    -104.835E+06    -115.292E+06    -61.9757E+06    -474.041E+03    -296.015E-03     590.857E-03    -294.843E-03     103.599E-03    -298.192E-03     592.432E-03    -294.833E-03     83.1427E-03
            1941     2.68080E-03     45.6446E-03    -113.878E+06    -141.481E+06    -82.6398E+06    -196.621E+03    -295.485E-03     590.307E-03    -294.822E-03     83.9828E-03    -296.979E-03     591.134E-03    -294.865E-03     67.5095E-03
            1942     2.01020E-03     45.5366E-03    -120.983E+06    -164.263E+06    -101.792E+06     149.195E+03    -294.954E-03     589.810E-03    -294.856E-03     63.5288E-03    -295.895E-03     590.033E-03    -294.951E-03     51.0914E-03
            1943     1.34011E-03     45.4577E-03    -125.969E+06    -184.273E+06    -117.292E+06     -132.57E+03    -294.994E-03     589.909E-03    -294.915E-03     42.7697E-03    -295.524E-03     589.678E-03    -295.051E-03     34.3807E-03
            1944     670.495E-06     45.4078E-03    -130.002E+06    -197.283E+06    -127.284E+06    -89.6354E+03    -294.881E-03     589.928E-03    -295.048E-03     23.1110E-03    -295.164E-03     589.427E-03    -295.209E-03     18.5752E-03
            1945     12.7379E-03     47.7029E-03    -3.74997E+06     58.4080E+06     76.2582E+06     313.948E+03    -294.717E-03     589.350E-03    -294.633E-03     127.323E-03    -299.246E-03     593.852E-03    -294.331E-03     95.0978E-03
            1946     12.0712E-03     47.4652E-03    -8.42441E+06     55.6244E+06     72.7054E+06     184.026E+03    -295.877E-03     590.516E-03    -294.639E-03     172.026E-03    -302.657E-03     597.252E-03    -294.344E-03     131.591E-03
            1947     11.3985E-03     47.2168E-03    -13.3207E+06     49.4926E+06     69.9741E+06     33.4468E+03    -296.823E-03     591.484E-03    -294.661E-03     183.994E-03    -304.157E-03     598.744E-03    -294.363E-03     142.485E-03
            1948     10.7276E-03     46.9391E-03    -18.7394E+06     44.4043E+06     70.0632E+06    -243.716E+03    -297.621E-03     592.325E-03    -294.704E-03     197.887E-03    -305.781E-03     600.373E-03    -294.391E-03     154.489E-03
            1949     10.0565E-03     46.6457E-03    -24.5492E+06     38.1553E+06     66.6940E+06    -290.196E+03    -298.218E-03     592.958E-03    -294.739E-03     203.513E-03    -306.651E-03     601.245E-03    -294.425E-03     159.792E-03
            1950     9.38640E-03     46.3460E-03    -30.8250E+06     31.1437E+06     59.9980E+06     166.832E+03    -298.641E-03     593.404E-03    -294.763E-03     206.195E-03    -307.138E-03     601.728E-03    -294.463E-03     162.702E-03
            1951     8.71495E-03     46.0427E-03    -37.2758E+06     23.6627E+06     51.1152E+06     473.870E+03    -298.767E-03     593.550E-03    -294.783E-03     205.243E-03    -307.086E-03     601.672E-03    -294.508E-03     162.535E-03
            1952     8.04393E-03     45.7429E-03    -44.0221E+06     15.9791E+06     42.4904E+06     394.297E+03    -298.978E-03     593.777E-03    -294.800E-03     200.973E-03    -306.908E-03     601.485E-03    -294.547E-03     159.483E-03
            1953     7.37436E-03     45.4475E-03    -51.1402E+06     5.19013E+06     33.5238E+06    -433.189E+03    -298.885E-03     593.692E-03    -294.807E-03     194.270E-03    -306.256E-03     600.803E-03    -294.573E-03     154.464E-03
            1954     6.70400E-03     45.1671E-03    -59.0421E+06    -5.27737E+06     24.2736E+06    -1.44356E+06    -298.296E-03     593.120E-03    -294.823E-03     184.845E-03    -304.942E-03     599.467E-03    -294.609E-03     147.288E-03
            1955     6.03293E-03     44.9014E-03    -67.7106E+06    -13.2550E+06     14.0407E+06    -697.530E+03    -297.684E-03     592.543E-03    -294.859E-03     172.632E-03    -303.480E-03     598.010E-03    -294.671E-03     137.841E-03
            1956     5.36144E-03     44.6579E-03    -76.8469E+06    -27.0951E+06    -908.381E+03     377.831E+03    -297.234E-03     592.126E-03    -294.892E-03     157.737E-03    -302.095E-03     596.621E-03    -294.745E-03     126.132E-03
            1957     4.69167E-03     44.4360E-03    -86.5350E+06    -56.9654E+06    -19.9164E+06     728.378E+03    -296.772E-03     591.698E-03    -294.926E-03     140.874E-03    -300.671E-03     595.145E-03    -294.818E-03     112.790E-03
            1958     4.02070E-03     44.2421E-03    -96.4322E+06    -88.9874E+06    -40.9782E+06     899.089E+03    -296.301E-03     591.255E-03    -294.954E-03     122.859E-03    -299.293E-03     593.707E-03    -294.890E-03     98.5198E-03
            1959     3.35065E-03     44.0740E-03    -105.755E+06    -114.744E+06    -62.6973E+06     865.364E+03    -295.914E-03     590.881E-03    -294.967E-03     103.915E-03    -298.100E-03     592.466E-03    -294.961E-03     83.4667E-03
            1960     2.68022E-03     43.9360E-03    -113.981E+06    -141.239E+06    -83.8293E+06     560.218E+03    -295.641E-03     590.609E-03    -294.968E-03     83.9024E-03    -297.134E-03     591.439E-03    -295.017E-03     67.4249E-03
            1961     2.01015E-03     43.8278E-03    -120.849E+06    -162.908E+06    -102.991E+06    -344.518E+03    -295.509E-03     590.426E-03    -294.918E-03     63.5731E-03    -296.449E-03     590.658E-03    -295.021E-03     51.1075E-03
            1962     1.34028E-03     43.7475E-03    -126.013E+06    -185.240E+06    -116.963E+06    -373.763E+03    -295.230E-03     590.059E-03    -294.829E-03     43.0537E-03    -295.760E-03     589.823E-03    -294.962E-03     34.6813E-03
            1963     670.015E-06     43.6997E-03    -129.229E+06    -197.177E+06    -126.653E+06     585.176E+03    -295.214E-03     589.604E-03    -294.390E-03     23.3185E-03    -295.494E-03     589.100E-03    -294.550E-03     18.8423E-03
            1964     12.7430E-03     45.9985E-03    -3.84099E+06     58.4475E+06     76.6653E+06     372.443E+03    -294.786E-03     589.427E-03    -294.641E-03     128.139E-03    -299.325E-03     593.937E-03    -294.337E-03     95.9203E-03
            1965     12.0673E-03     45.7559E-03    -7.92284E+06     56.1476E+06     73.4682E+06     515.471E+03    -295.673E-03     590.327E-03    -294.654E-03     171.916E-03    -302.428E-03     597.040E-03    -294.356E-03     131.626E-03
            1966     11.3979E-03     45.5092E-03    -13.0335E+06     49.7309E+06     70.2638E+06     167.976E+03    -296.539E-03     591.226E-03    -294.687E-03     183.159E-03    -303.841E-03     598.454E-03    -294.389E-03     141.738E-03
            1967     10.7273E-03     45.2297E-03    -18.2719E+06     44.7928E+06     70.1866E+06     252.844E+03    -297.579E-03     592.314E-03    -294.734E-03     197.014E-03    -305.722E-03     600.347E-03    -294.422E-03     153.609E-03
            1968     10.0570E-03     44.9383E-03    -24.3515E+06     38.2121E+06     66.3353E+06     363.518E+03    -298.173E-03     592.940E-03    -294.767E-03     203.081E-03    -306.597E-03     601.221E-03    -294.456E-03     159.364E-03
            1969     9.38539E-03     44.6372E-03    -30.9516E+06     30.9673E+06     59.8952E+06    -1.45966E+03    -298.657E-03     593.448E-03    -294.791E-03     205.714E-03    -307.151E-03     601.768E-03    -294.492E-03     162.187E-03
            1970     8.71514E-03     44.3350E-03    -37.4920E+06     23.6067E+06     51.8518E+06    -399.330E+03    -299.087E-03     593.885E-03    -294.798E-03     204.872E-03    -307.414E-03     602.012E-03    -294.519E-03     162.052E-03
            1971     8.04544E-03     44.0327E-03    -44.2944E+06     15.8361E+06     43.0427E+06    -364.275E+03    -298.944E-03     593.745E-03    -294.801E-03     201.277E-03    -306.896E-03     601.471E-03    -294.545E-03     159.732E-03
            1972     7.37405E-03     43.7405E-03    -52.1777E+06     6.95355E+06     33.5421E+06    -221.356E+03    -298.446E-03     593.277E-03    -294.832E-03     195.147E-03    -305.854E-03     600.427E-03    -294.598E-03     155.350E-03
            1973     6.70264E-03     43.4577E-03    -61.1444E+06    -3.76397E+06     22.3978E+06    -597.163E+03    -298.101E-03     592.984E-03    -294.882E-03     185.537E-03    -304.777E-03     599.364E-03    -294.676E-03     147.978E-03
            1974     6.03189E-03     43.1943E-03    -70.6500E+06    -15.6089E+06     10.2433E+06    -1.42361E+06    -297.769E-03     592.701E-03    -294.932E-03     172.827E-03    -303.576E-03     598.173E-03    -294.756E-03     138.000E-03
            1975     5.36201E-03     42.9479E-03    -80.0850E+06    -29.4232E+06    -3.99569E+06    -1.09187E+06    -297.262E-03     592.236E-03    -294.974E-03     157.879E-03    -302.135E-03     596.731E-03    -294.835E-03     126.244E-03
            1976     4.69077E-03     42.7283E-03    -89.3428E+06    -58.2547E+06    -22.3560E+06    -168.679E+03    -296.787E-03     591.807E-03    -295.020E-03     141.055E-03    -300.699E-03     595.260E-03    -294.917E-03     112.939E-03
            1977     4.02059E-03     42.5325E-03    -98.2742E+06    -89.5595E+06    -42.8288E+06     205.563E+03    -296.381E-03     591.437E-03    -295.056E-03     122.880E-03    -299.377E-03     593.890E-03    -294.998E-03     98.5321E-03
            1978     3.34990E-03     42.3654E-03    -106.618E+06    -114.015E+06    -63.8881E+06     352.849E+03    -296.048E-03     591.116E-03    -295.068E-03     103.679E-03    -298.232E-03     592.702E-03    -295.068E-03     83.2319E-03
            1979     2.67964E-03     42.2262E-03    -114.094E+06    -139.965E+06    -84.7376E+06     213.237E+03    -295.910E-03     590.948E-03    -295.038E-03     83.5673E-03    -297.399E-03     591.780E-03    -295.093E-03     67.0906E-03
            1980     2.01009E-03     42.1170E-03    -120.231E+06    -161.402E+06    -103.727E+06    -8.24628E+03    -295.561E-03     590.520E-03    -294.958E-03     63.1681E-03    -296.493E-03     590.752E-03    -295.068E-03     50.7521E-03
            1981     1.34025E-03     42.0389E-03    -125.117E+06    -186.552E+06    -117.033E+06    -462.714E+03    -295.131E-03     590.055E-03    -294.924E-03     43.0955E-03    -295.653E-03     589.810E-03    -295.057E-03     34.7104E-03
            1982     670.130E-06     41.9910E-03    -129.347E+06    -198.193E+06    -125.637E+06    -517.944E+03    -295.236E-03     589.902E-03    -294.666E-03     23.7793E-03    -295.522E-03     589.393E-03    -294.819E-03     19.1855E-03
            1983     12.7362E-03     44.2854E-03    -4.37140E+06     57.8762E+06     75.8818E+06    -280.628E+03    -295.020E-03     589.680E-03    -294.661E-03     127.280E-03    -299.572E-03     594.202E-03    -294.359E-03     94.9185E-03
            1984     12.0712E-03     44.0496E-03    -8.68386E+06     55.3346E+06     72.2562E+06    -232.629E+03    -295.900E-03     590.555E-03    -294.654E-03     171.233E-03    -302.664E-03     597.274E-03    -294.360E-03     130.805E-03
            1985     11.3988E-03     43.8014E-03    -12.9808E+06     49.6802E+06     70.0511E+06     435.141E+03    -296.527E-03     591.210E-03    -294.683E-03     183.182E-03    -303.802E-03     598.412E-03    -294.386E-03     141.903E-03
            1986     10.7276E-03     43.5221E-03    -18.3256E+06     44.7541E+06     70.7314E+06     651.103E+03    -297.444E-03     592.186E-03    -294.742E-03     197.212E-03    -305.574E-03     600.205E-03    -294.427E-03     153.921E-03
            1987     10.0562E-03     43.2294E-03    -23.9612E+06     38.7627E+06     68.1122E+06     517.829E+03    -298.184E-03     592.969E-03    -294.785E-03     203.090E-03    -306.614E-03     601.255E-03    -294.466E-03     159.366E-03
            1988     9.38608E-03     42.9300E-03    -29.8045E+06     32.2064E+06     62.0786E+06     306.456E+03    -298.755E-03     593.562E-03    -294.807E-03     205.973E-03    -307.263E-03     601.898E-03    -294.500E-03     162.408E-03
            1989     8.71549E-03     42.6243E-03    -36.6857E+06     24.2726E+06     52.5475E+06     243.940E+03    -298.791E-03     593.612E-03    -294.821E-03     205.513E-03    -307.133E-03     601.757E-03    -294.540E-03     162.736E-03
            1990     8.04393E-03     42.3259E-03    -44.4207E+06     15.5088E+06     42.3712E+06     306.483E+03    -298.576E-03     593.434E-03    -294.858E-03     202.121E-03    -306.554E-03     601.187E-03    -294.604E-03     160.598E-03
            1991     7.37302E-03     42.0317E-03    -52.2315E+06     6.91446E+06     33.9222E+06     528.114E+03    -298.453E-03     593.373E-03    -294.920E-03     195.438E-03    -305.876E-03     600.536E-03    -294.685E-03     155.612E-03
            1992     6.70240E-03     41.7507E-03    -60.2220E+06    -2.42788E+06     24.2423E+06     793.882E+03    -298.224E-03     593.201E-03    -294.978E-03     185.451E-03    -304.895E-03     599.580E-03    -294.766E-03     147.904E-03
            1993     6.03195E-03     41.4838E-03    -69.1670E+06    -13.2363E+06     11.4680E+06     669.953E+03    -297.804E-03     592.828E-03    -295.024E-03     172.876E-03    -303.608E-03     598.307E-03    -294.848E-03     138.083E-03
            1994     5.36062E-03     41.2407E-03    -78.9332E+06    -29.9028E+06    -4.18677E+06    -231.892E+03    -297.340E-03     592.410E-03    -295.070E-03     158.083E-03    -302.212E-03     596.908E-03    -294.933E-03     126.431E-03
            1995     4.69042E-03     41.0180E-03    -88.4872E+06    -59.8115E+06    -22.7604E+06    -558.933E+03    -297.023E-03     592.133E-03    -295.110E-03     141.077E-03    -300.930E-03     595.579E-03    -295.009E-03     112.925E-03
            1996     4.02000E-03     40.8238E-03    -97.6424E+06    -89.6498E+06    -43.0277E+06    -405.850E+03    -296.746E-03     591.854E-03    -295.108E-03     122.515E-03    -299.734E-03     594.302E-03    -295.052E-03     98.1195E-03
            1997     3.35003E-03     40.6554E-03    -106.481E+06    -114.340E+06    -64.1655E+06    -498.244E+03    -296.363E-03     591.419E-03    -295.056E-03     103.152E-03    -298.539E-03     592.997E-03    -295.057E-03     82.6816E-03
            1998     2.68048E-03     40.5160E-03    -114.324E+06    -139.997E+06    -84.7567E+06    -298.171E+03    -295.780E-03     590.780E-03    -295.001E-03     83.2463E-03    -297.264E-03     591.607E-03    -295.056E-03     66.7902E-03
            1999     2.01024E-03     40.4075E-03    -121.059E+06    -161.893E+06    -103.831E+06     331.203E+03    -295.334E-03     590.303E-03    -294.969E-03     62.9936E-03    -296.270E-03     590.535E-03    -295.078E-03     50.5703E-03
            2000     1.33956E-03     40.3306E-03    -125.986E+06    -185.043E+06    -117.934E+06     474.028E+03    -295.268E-03     590.197E-03    -294.929E-03     42.6938E-03    -295.795E-03     589.962E-03    -295.068E-03     34.3151E-03
            2001     669.802E-06     40.2794E-03    -128.994E+06    -200.149E+06    -127.302E+06    -933.433E+03    -294.677E-03     589.841E-03    -295.164E-03     22.7363E-03    -294.952E-03     589.321E-03    -295.323E-03     18.1747E-03
            2002     12.7432E-03     42.5789E-03    -4.29709E+06     57.6475E+06     74.7408E+06    -138.236E+03    -294.528E-03     589.195E-03    -294.666E-03     127.314E-03    -299.073E-03     593.712E-03    -294.370E-03     95.0414E-03
            2003     12.0674E-03     42.3389E-03    -8.64398E+06     55.2562E+06     71.9704E+06         814.732    -295.780E-03     590.466E-03    -294.686E-03     172.260E-03    -302.567E-03     597.210E-03    -294.393E-03     131.835E-03
            2004     11.3980E-03     42.0946E-03    -13.2782E+06     49.5082E+06     70.4265E+06     353.805E+03    -296.952E-03     591.668E-03    -294.716E-03     183.917E-03    -304.258E-03     598.898E-03    -294.416E-03     142.545E-03
            2005     10.7270E-03     41.8131E-03    -18.1865E+06     44.9848E+06     71.6272E+06     84.3693E+03    -297.650E-03     592.411E-03    -294.761E-03     197.315E-03    -305.790E-03     600.438E-03    -294.441E-03     153.981E-03
            2006     10.0566E-03     41.5224E-03    -23.7475E+06     38.9742E+06     68.6952E+06    -170.403E+03    -298.104E-03     592.905E-03    -294.800E-03     203.252E-03    -306.541E-03     601.196E-03    -294.479E-03     159.525E-03
            2007     9.38557E-03     41.2193E-03    -30.3590E+06     31.5824E+06     61.6284E+06     154.023E+03    -298.327E-03     593.168E-03    -294.842E-03     206.457E-03    -306.840E-03     601.507E-03    -294.535E-03     162.977E-03
            2008     8.71431E-03     40.9184E-03    -37.1508E+06     23.7371E+06     52.1591E+06     649.286E+03    -298.400E-03     593.295E-03    -294.896E-03     205.980E-03    -306.751E-03     601.448E-03    -294.616E-03     163.267E-03
            2009     8.04323E-03     40.6169E-03    -44.1078E+06     15.7109E+06     42.5479E+06     903.363E+03    -298.672E-03     593.627E-03    -294.955E-03     202.144E-03    -306.648E-03     601.379E-03    -294.701E-03     160.618E-03
            2010     7.37257E-03     40.3234E-03    -51.7269E+06     7.23943E+06     34.0653E+06     770.140E+03    -298.700E-03     593.709E-03    -295.008E-03     195.325E-03    -306.118E-03     600.870E-03    -294.774E-03     155.468E-03
            2011     6.70192E-03     40.0410E-03    -59.8908E+06    -2.53415E+06     24.4416E+06     653.571E+03    -298.351E-03     593.409E-03    -295.058E-03     185.562E-03    -305.026E-03     599.791E-03    -294.845E-03     147.983E-03
            2012     6.03072E-03     39.7762E-03    -68.2160E+06    -12.8408E+06     12.7528E+06     1.04207E+06    -297.971E-03     593.072E-03    -295.101E-03     172.719E-03    -303.765E-03     598.541E-03    -294.920E-03     137.928E-03
            2013     5.36061E-03     39.5304E-03    -77.2319E+06    -27.7901E+06    -2.31704E+06     1.26781E+06    -297.640E-03     592.761E-03    -295.121E-03     157.366E-03    -302.487E-03     597.242E-03    -294.981E-03     125.748E-03
            2014     4.69017E-03     39.3089E-03    -87.2069E+06    -58.5196E+06    -21.5805E+06     592.349E+03    -297.275E-03     592.394E-03    -295.119E-03     140.368E-03    -301.157E-03     595.822E-03    -295.016E-03     112.264E-03
            2015     4.02028E-03     39.1130E-03    -96.9425E+06    -89.6975E+06    -42.1869E+06     70.2858E+03    -296.862E-03     591.946E-03    -295.084E-03     122.192E-03    -299.838E-03     594.383E-03    -295.025E-03     97.8200E-03
            2016     3.35078E-03     38.9451E-03    -105.983E+06    -114.324E+06    -63.2249E+06     39.5177E+03    -296.247E-03     591.276E-03    -295.029E-03     103.342E-03    -298.424E-03     592.855E-03    -295.026E-03     82.8728E-03
            2017     2.68026E-03     38.8072E-03    -114.420E+06    -140.580E+06    -84.1768E+06     126.166E+03    -295.672E-03     590.670E-03    -294.998E-03     83.5844E-03    -297.161E-03     591.497E-03    -295.049E-03     67.1331E-03
            2018     2.00965E-03     38.6990E-03    -121.059E+06    -163.004E+06    -103.390E+06     301.786E+03    -295.481E-03     590.436E-03    -294.956E-03     63.1413E-03    -296.415E-03     590.662E-03    -295.061E-03     50.7299E-03
            2019     1.34069E-03     38.6189E-03    -125.552E+06    -182.818E+06    -118.216E+06     275.443E+03    -295.242E-03     590.118E-03    -294.876E-03     42.6648E-03    -295.768E-03     589.892E-03    -295.020E-03     34.2985E-03
            2020     670.825E-06     38.5726E-03    -127.881E+06    -200.726E+06    -126.073E+06    -26.3363E+03    -294.218E-03     589.746E-03    -295.528E-03     23.0502E-03    -294.489E-03     589.221E-03    -295.682E-03     18.5204E-03
            2021     12.7358E-03     40.8700E-03    -4.18381E+06     57.8096E+06     75.4264E+06     389.534E+03    -294.345E-03     589.044E-03    -294.699E-03     127.330E-03    -298.860E-03     593.530E-03    -294.399E-03     95.1857E-03
            2022     12.0687E-03     40.6326E-03    -8.71397E+06     55.3495E+06     72.9467E+06     221.923E+03    -295.856E-03     590.580E-03    -294.723E-03     171.402E-03    -302.601E-03     597.278E-03    -294.426E-03     131.090E-03
            2023     11.3973E-03     40.3826E-03    -13.2391E+06     49.6480E+06     71.0609E+06    -419.078E+03    -296.871E-03     591.619E-03    -294.747E-03     182.983E-03    -304.182E-03     598.853E-03    -294.445E-03     141.485E-03
            2024     10.7275E-03     40.1065E-03    -18.1097E+06     44.9901E+06     71.4806E+06    -590.011E+03    -297.536E-03     592.327E-03    -294.791E-03     197.442E-03    -305.698E-03     600.377E-03    -294.473E-03     154.021E-03
            2025     10.0563E-03     39.8124E-03    -24.2334E+06     38.2894E+06     67.4803E+06    -34.7075E+03    -297.825E-03     592.671E-03    -294.846E-03     204.025E-03    -306.278E-03     600.979E-03    -294.529E-03     160.344E-03
            2026     9.38496E-03     39.5144E-03    -30.9078E+06     30.7925E+06     60.2614E+06     348.271E+03    -298.161E-03     593.073E-03    -294.912E-03     206.792E-03    -306.678E-03     601.415E-03    -294.611E-03     163.348E-03
            2027     8.71329E-03     39.2093E-03    -37.7135E+06     23.0189E+06     51.1739E+06     289.871E+03    -298.635E-03     593.607E-03    -294.972E-03     205.862E-03    -306.981E-03     601.753E-03    -294.695E-03     163.117E-03
            2028     8.04274E-03     38.9086E-03    -44.5220E+06     15.2425E+06     42.3251E+06     296.397E+03    -298.813E-03     593.836E-03    -295.023E-03     201.932E-03    -306.780E-03     601.577E-03    -294.769E-03     160.387E-03
            2029     7.37193E-03     38.6139E-03    -51.7006E+06     7.20938E+06     34.2834E+06     566.913E+03    -298.764E-03     593.839E-03    -295.074E-03     195.234E-03    -306.171E-03     600.988E-03    -294.838E-03     155.392E-03
            2030     6.70110E-03     38.3326E-03    -59.7039E+06    -2.41717E+06     24.3764E+06       746.8E+03    -298.672E-03     593.778E-03    -295.106E-03     185.037E-03    -305.327E-03     600.141E-03    -294.894E-03     147.442E-03
            2031     6.03118E-03     38.0662E-03    -68.7675E+06    -13.3972E+06     12.3676E+06     755.327E+03    -298.367E-03     593.475E-03    -295.108E-03     172.164E-03    -304.145E-03     598.925E-03    -294.927E-03     137.342E-03
            2032     5.36093E-03     37.8207E-03    -78.3475E+06    -27.3630E+06    -2.29615E+06     1.02761E+06    -297.872E-03     592.959E-03    -295.087E-03     157.056E-03    -302.709E-03     597.427E-03    -294.945E-03     125.464E-03
            2033     4.69098E-03     37.5993E-03    -87.4789E+06    -56.8626E+06    -20.9634E+06     967.378E+03    -297.264E-03     592.328E-03    -295.064E-03     140.324E-03    -301.140E-03     595.752E-03    -294.960E-03     112.271E-03
            2034     4.02082E-03     37.4029E-03    -96.6803E+06    -88.7303E+06    -41.4980E+06     802.593E+03    -296.550E-03     591.602E-03    -295.052E-03     122.373E-03    -299.521E-03     594.036E-03    -294.991E-03     98.0848E-03
            2035     3.34983E-03     37.2364E-03    -105.819E+06    -113.829E+06    -62.7353E+06     704.250E+03    -296.040E-03     591.085E-03    -295.045E-03     103.249E-03    -298.212E-03     592.659E-03    -295.040E-03     82.8409E-03
            2036     2.67970E-03     37.0975E-03    -113.834E+06    -140.387E+06    -83.6459E+06     264.602E+03    -295.778E-03     590.804E-03    -295.026E-03     83.3572E-03    -297.259E-03     591.625E-03    -295.075E-03     66.9300E-03
            2037     2.01067E-03     36.9884E-03    -120.368E+06    -162.695E+06    -102.472E+06    -99.8737E+03    -295.396E-03     590.393E-03    -294.997E-03     63.3342E-03    -296.326E-03     590.616E-03    -295.099E-03     50.9480E-03
            2038     1.33970E-03     36.9106E-03    -125.554E+06    -183.113E+06    -118.040E+06    -189.376E+03    -295.012E-03     590.050E-03    -295.038E-03     42.9703E-03    -295.540E-03     589.825E-03    -295.181E-03     34.5763E-03
            2039     668.958E-06     36.8633E-03    -128.236E+06    -199.821E+06    -126.917E+06     518.729E+03    -295.046E-03     590.259E-03    -295.213E-03     22.9981E-03    -295.322E-03     589.740E-03    -295.371E-03     18.4326E-03
            2040     12.7417E-03     39.1625E-03    -4.71381E+06     57.6754E+06     76.8463E+06    -117.877E+03    -294.847E-03     589.555E-03    -294.708E-03     126.189E-03    -299.355E-03     594.028E-03    -294.401E-03     93.9396E-03
            2041     12.0682E-03     38.9224E-03    -8.62273E+06     55.5002E+06     73.5791E+06    -74.6233E+03    -295.681E-03     590.395E-03    -294.715E-03     170.947E-03    -302.414E-03     597.081E-03    -294.415E-03     130.667E-03
            2042     11.3982E-03     38.6761E-03    -12.5026E+06     50.1074E+06     71.0992E+06    -162.952E+03    -296.114E-03     590.877E-03    -294.763E-03     183.541E-03    -303.422E-03     598.112E-03    -294.462E-03     142.188E-03
            2043     10.7260E-03     38.3973E-03    -18.4615E+06     44.3430E+06     70.2144E+06     343.400E+03    -297.034E-03     591.883E-03    -294.850E-03     197.965E-03    -305.199E-03     599.937E-03    -294.536E-03     154.647E-03
            2044     10.0548E-03     38.1059E-03    -24.6394E+06     37.7003E+06     66.5413E+06     416.073E+03    -297.856E-03     592.783E-03    -294.928E-03     204.043E-03    -306.317E-03     601.098E-03    -294.614E-03     160.326E-03
            2045     9.38345E-03     37.8053E-03    -30.7159E+06     30.9057E+06     60.3631E+06     226.688E+03    -298.538E-03     593.524E-03    -294.986E-03     206.557E-03    -307.057E-03     601.869E-03    -294.684E-03     163.019E-03
            2046     8.71355E-03     37.5007E-03    -37.2766E+06     23.3121E+06     51.4087E+06     298.922E+03    -298.918E-03     593.943E-03    -295.025E-03     205.851E-03    -307.261E-03     602.087E-03    -294.747E-03     163.062E-03
            2047     8.04252E-03     37.2002E-03    -44.3833E+06     15.1373E+06     41.8952E+06     340.918E+03    -299.053E-03     594.109E-03    -295.056E-03     201.717E-03    -307.008E-03     601.838E-03    -294.804E-03     160.154E-03
            2048     7.37158E-03     36.9053E-03    -52.0399E+06     6.69039E+06     33.6616E+06     383.800E+03    -299.061E-03     594.143E-03    -295.082E-03     194.631E-03    -306.438E-03     601.262E-03    -294.848E-03     154.801E-03
            2049     6.70165E-03     36.6220E-03    -60.2988E+06    -2.96915E+06     24.1240E+06     629.780E+03    -298.845E-03     593.933E-03    -295.089E-03     184.621E-03    -305.476E-03     600.271E-03    -294.877E-03     147.061E-03
            2050     6.03141E-03     36.3564E-03    -68.8754E+06    -13.3484E+06     12.3467E+06     927.660E+03    -298.450E-03     593.524E-03    -295.074E-03     172.172E-03    -304.218E-03     598.964E-03    -294.893E-03     137.387E-03
            2051     5.36116E-03     36.1110E-03    -77.7324E+06    -27.3577E+06    -2.07357E+06     649.985E+03    -297.887E-03     592.933E-03    -295.047E-03     157.284E-03    -302.717E-03     597.397E-03    -294.905E-03     125.705E-03
            2052     4.69089E-03     35.8890E-03    -87.0410E+06    -56.3763E+06    -20.3539E+06     750.601E+03    -297.229E-03     592.253E-03    -295.024E-03     140.234E-03    -301.096E-03     595.670E-03    -294.918E-03     112.214E-03
            2053     4.02024E-03     35.6951E-03    -96.2670E+06    -87.9133E+06    -41.1984E+06     815.256E+03    -296.641E-03     591.636E-03    -294.995E-03     121.772E-03    -299.596E-03     594.056E-03    -294.933E-03     97.5293E-03
            2054     3.35043E-03     35.5262E-03    -104.737E+06    -113.226E+06    -62.4245E+06     483.105E+03    -296.057E-03     591.014E-03    -294.957E-03     102.329E-03    -298.202E-03     592.566E-03    -294.953E-03     82.0057E-03
            2055     2.68068E-03     35.3880E-03    -112.535E+06    -139.362E+06    -82.8622E+06     501.855E+03    -295.427E-03     590.385E-03    -294.957E-03     82.8427E-03    -296.892E-03     591.195E-03    -295.006E-03     66.4943E-03
            2056     2.00928E-03     35.2795E-03    -119.552E+06    -161.640E+06    -102.176E+06     194.240E+03    -295.163E-03     590.160E-03    -294.997E-03     63.0054E-03    -296.089E-03     590.384E-03    -295.100E-03     50.6376E-03
            2057     1.33967E-03     35.2012E-03    -124.465E+06    -184.677E+06    -116.205E+06     268.974E+03    -295.205E-03     590.236E-03    -295.031E-03     42.1654E-03    -295.723E-03     589.993E-03    -295.163E-03     33.8210E-03
            2058     670.452E-06     35.1526E-03    -127.818E+06    -197.919E+06    -125.382E+06     932.989E+03    -295.678E-03     590.108E-03    -294.430E-03     22.9411E-03    -295.955E-03     589.593E-03    -294.585E-03     18.3987E-03
            2059     12.7374E-03     37.4508E-03    -3.73864E+06     58.2857E+06     76.3815E+06    -380.512E+03    -294.169E-03     588.872E-03    -294.704E-03     127.019E-03    -298.685E-03     593.361E-03    -294.401E-03     94.8422E-03
            2060     12.0694E-03     37.2163E-03    -7.94764E+06     55.7097E+06     72.5895E+06     202.062E+03    -295.174E-03     589.924E-03    -294.750E-03     172.494E-03    -301.939E-03     596.647E-03    -294.456E-03     132.252E-03
            2061     11.3963E-03     36.9690E-03    -13.5343E+06     48.8251E+06     69.2704E+06     351.012E+03    -296.144E-03     590.966E-03    -294.822E-03     184.255E-03    -303.471E-03     598.217E-03    -294.527E-03     142.903E-03
            2062     10.7254E-03     36.6904E-03    -18.6091E+06     44.0786E+06     70.0829E+06     450.495E+03    -297.167E-03     592.081E-03    -294.914E-03     197.692E-03    -305.321E-03     600.123E-03    -294.601E-03     154.384E-03
            2063     10.0543E-03     36.3973E-03    -24.0460E+06     38.1705E+06     67.1924E+06     378.854E+03    -298.051E-03     593.035E-03    -294.984E-03     203.535E-03    -306.498E-03     601.337E-03    -294.669E-03     159.783E-03
            2064     9.38424E-03     36.0963E-03    -30.3065E+06     31.1460E+06     60.5641E+06     397.502E+03    -298.703E-03     593.732E-03    -295.029E-03     206.379E-03    -307.212E-03     602.068E-03    -294.727E-03     162.824E-03
            2065     8.71245E-03     35.7927E-03    -37.1079E+06     23.3460E+06     51.4683E+06     555.910E+03    -299.158E-03     594.212E-03    -295.054E-03     205.686E-03    -307.488E-03     602.344E-03    -294.777E-03     162.884E-03
            2066     8.04212E-03     35.4897E-03    -44.2364E+06     15.1986E+06     42.2156E+06     692.440E+03    -299.475E-03     594.536E-03    -295.060E-03     201.569E-03    -307.415E-03     602.249E-03    -294.807E-03     159.991E-03
            2067     7.37271E-03     35.1959E-03    -51.8052E+06     6.76329E+06     34.0168E+06     809.701E+03    -299.351E-03     594.406E-03    -295.055E-03     194.578E-03    -306.717E-03     601.514E-03    -294.820E-03     154.743E-03
            2068     6.70193E-03     34.9128E-03    -59.9236E+06    -2.86060E+06     24.2201E+06     645.308E+03    -298.913E-03     593.956E-03    -295.043E-03     184.708E-03    -305.528E-03     600.277E-03    -294.831E-03     147.200E-03
            2069     6.03136E-03     34.6468E-03    -68.3972E+06    -13.4611E+06     12.5083E+06     278.337E+03    -298.533E-03     593.549E-03    -295.017E-03     171.819E-03    -304.268E-03     598.958E-03    -294.836E-03     137.103E-03
            2070     5.36129E-03     34.4007E-03    -77.3519E+06    -27.0174E+06    -1.81350E+06     440.276E+03    -297.935E-03     592.904E-03    -294.969E-03     156.326E-03    -302.728E-03     597.332E-03    -294.827E-03     124.827E-03
            2071     4.69102E-03     34.1803E-03    -86.6524E+06    -56.5931E+06    -20.5805E+06     342.405E+03    -297.396E-03     592.302E-03    -294.907E-03     139.183E-03    -301.227E-03     595.685E-03    -294.802E-03     111.227E-03
            2072     4.02158E-03     33.9843E-03    -95.4930E+06    -87.9628E+06    -40.9234E+06     158.599E+03    -296.823E-03     591.641E-03    -294.819E-03     120.793E-03    -299.747E-03     594.033E-03    -294.757E-03     96.6056E-03
            2073     3.35162E-03     33.8176E-03    -104.113E+06    -112.265E+06    -61.7569E+06     569.818E+03    -295.923E-03     590.657E-03    -294.735E-03     101.648E-03    -298.050E-03     592.195E-03    -294.730E-03     81.4042E-03
            2074     2.68030E-03     33.6805E-03    -112.375E+06    -139.116E+06    -82.7838E+06     600.963E+03    -295.373E-03     590.064E-03    -294.691E-03     81.9869E-03    -296.823E-03     590.861E-03    -294.740E-03     65.7244E-03
            2075     2.01070E-03     33.5704E-03    -118.735E+06    -160.943E+06    -101.937E+06     460.608E+03    -295.023E-03     589.684E-03    -294.660E-03     61.8346E-03    -295.930E-03     589.893E-03    -294.765E-03     49.5745E-03
            2076     1.34054E-03     33.4907E-03    -123.619E+06    -184.515E+06    -115.564E+06     447.423E+03    -294.796E-03     589.465E-03    -294.669E-03     41.9333E-03    -295.304E-03     589.214E-03    -294.800E-03     33.6767E-03
            2077     670.096E-06     33.4442E-03    -127.245E+06    -195.912E+06    -124.093E+06     200.238E+03    -295.013E-03     589.410E-03    -294.397E-03     23.1102E-03    -295.291E-03     588.901E-03    -294.549E-03     18.6034E-03
            2078     12.7407E-03     35.7494E-03    -3.41965E+06     58.0724E+06     74.6579E+06     116.474E+03    -293.586E-03     588.337E-03    -294.751E-03     127.544E-03    -298.091E-03     592.820E-03    -294.457E-03     95.5148E-03
            2079     12.0649E-03     35.5058E-03    -8.31299E+06     55.1021E+06     71.4523E+06     247.900E+03    -295.226E-03     590.044E-03    -294.818E-03     171.946E-03    -301.981E-03     596.758E-03    -294.529E-03     131.691E-03
            2080     11.3961E-03     35.2616E-03    -13.3492E+06     48.9154E+06     69.3261E+06     210.954E+03    -296.379E-03     591.265E-03    -294.885E-03     183.517E-03    -303.711E-03     598.521E-03    -294.590E-03     142.048E-03
            2081     10.7251E-03     34.9813E-03    -18.5446E+06     44.0194E+06     69.8729E+06    -184.682E+03    -297.370E-03     592.334E-03    -294.964E-03     197.995E-03    -305.546E-03     600.398E-03    -294.651E-03     154.580E-03
            2082     10.0546E-03     34.6893E-03    -24.3654E+06     37.7091E+06     66.6243E+06     76.2321E+03    -298.214E-03     593.242E-03    -295.029E-03     204.361E-03    -306.679E-03     601.562E-03    -294.715E-03     160.582E-03
            2083     9.38261E-03     34.3875E-03    -30.6331E+06     30.6949E+06     60.2333E+06     440.723E+03    -299.116E-03     594.179E-03    -295.063E-03     206.777E-03    -307.631E-03     602.520E-03    -294.762E-03     163.165E-03
            2084     8.71319E-03     34.0828E-03    -37.2297E+06     23.0841E+06     51.5533E+06     655.903E+03    -299.631E-03     594.691E-03    -295.060E-03     205.493E-03    -307.946E-03     602.806E-03    -294.782E-03     162.654E-03
            2085     8.04292E-03     33.7806E-03    -44.1779E+06     15.1204E+06     42.5732E+06     646.338E+03    -299.651E-03     594.692E-03    -295.041E-03     201.439E-03    -307.567E-03     602.382E-03    -294.786E-03     159.893E-03
            2086     7.37187E-03     33.4851E-03    -51.3962E+06     7.04638E+06     34.4548E+06     291.775E+03    -299.554E-03     594.570E-03    -295.015E-03     194.260E-03    -306.894E-03     601.652E-03    -294.779E-03     154.443E-03
            2087     6.70212E-03     33.2038E-03    -58.9045E+06    -2.41469E+06     24.9804E+06     148.860E+03    -299.426E-03     594.384E-03    -294.958E-03     183.908E-03    -306.000E-03     600.668E-03    -294.745E-03     146.402E-03
            2088     6.03246E-03     32.9362E-03    -67.3490E+06    -13.4590E+06     13.2227E+06     472.646E+03    -298.840E-03     593.709E-03    -294.869E-03     170.590E-03    -304.522E-03     599.066E-03    -294.685E-03     135.951E-03
            2089     5.36257E-03     32.6917E-03    -76.3632E+06    -27.0039E+06    -1.37805E+06     648.762E+03    -298.109E-03     592.867E-03    -294.758E-03     155.037E-03    -302.849E-03     597.244E-03    -294.615E-03     123.652E-03
            2090     4.69272E-03     32.4706E-03    -85.6658E+06    -55.9820E+06    -20.0555E+06     362.200E+03    -297.404E-03     592.046E-03    -294.642E-03     138.180E-03    -301.196E-03     595.393E-03    -294.536E-03     110.324E-03
            2091     4.02255E-03     32.2747E-03    -95.5231E+06    -87.6685E+06    -40.7050E+06     462.680E+03    -296.496E-03     591.025E-03    -294.529E-03     119.875E-03    -299.394E-03     593.390E-03    -294.466E-03     95.8162E-03
            2092     3.35180E-03     32.1108E-03    -104.906E+06    -112.431E+06    -61.8887E+06     570.117E+03    -295.892E-03     590.302E-03    -294.409E-03     100.902E-03    -298.004E-03     591.821E-03    -294.404E-03     80.7362E-03
            2093     2.68262E-03     31.9708E-03    -112.745E+06    -138.562E+06    -82.5336E+06     376.431E+03    -295.508E-03     589.767E-03    -294.259E-03     81.5898E-03    -296.951E-03     590.557E-03    -294.307E-03     65.3756E-03
            2094     2.01229E-03     31.8633E-03    -119.525E+06    -161.093E+06    -101.508E+06     505.253E+03    -294.800E-03     588.899E-03    -294.099E-03     61.4515E-03    -295.703E-03     589.100E-03    -294.200E-03     49.2713E-03
            2095     1.34082E-03     31.7852E-03    -124.702E+06    -182.595E+06    -116.315E+06     423.309E+03    -294.105E-03     588.162E-03    -294.057E-03     41.4971E-03    -294.616E-03     587.920E-03    -294.193E-03     33.3186E-03
            2096     670.160E-06     31.7344E-03    -127.967E+06    -195.236E+06    -126.168E+06    -408.394E+03    -294.050E-03     588.213E-03    -294.163E-03     22.6279E-03    -294.327E-03     587.708E-03    -294.325E-03     18.1854E-03
            2097     12.7348E-03     34.0372E-03    -4.02467E+06     57.7709E+06     75.8756E+06     418.615E+03    -294.014E-03     588.825E-03    -294.811E-03     127.370E-03    -298.538E-03     593.320E-03    -294.510E-03     95.2531E-03
            2098     12.0689E-03     33.8006E-03    -8.43593E+06     55.1597E+06     72.5582E+06    -192.316E+03    -295.194E-03     590.059E-03    -294.865E-03     171.706E-03    -301.973E-03     596.793E-03    -294.570E-03     131.358E-03
            2099     11.3954E-03     33.5526E-03    -12.8413E+06     49.2628E+06     69.8505E+06     20.8701E+03    -296.050E-03     590.992E-03    -294.942E-03     184.459E-03    -303.399E-03     598.268E-03    -294.646E-03     143.039E-03
            2100     10.7244E-03     33.2737E-03    -18.3074E+06     44.0032E+06     69.5764E+06     551.278E+03    -297.536E-03     592.569E-03    -295.032E-03     198.683E-03    -305.735E-03     600.656E-03    -294.721E-03     155.219E-03
            2101     10.0525E-03     32.9806E-03    -24.3624E+06     37.5046E+06     66.1788E+06     560.291E+03    -298.769E-03     593.848E-03    -295.079E-03     204.428E-03    -307.244E-03     602.178E-03    -294.767E-03     160.531E-03
            2102     9.38345E-03     32.6767E-03    -30.7605E+06     30.3885E+06     59.9928E+06     335.041E+03    -299.622E-03     594.702E-03    -295.080E-03     206.467E-03    -308.123E-03     603.027E-03    -294.779E-03     162.790E-03
            2103     8.71275E-03     32.3727E-03    -37.2037E+06     22.9561E+06     51.5571E+06     87.7841E+03    -300.005E-03     595.048E-03    -295.043E-03     205.237E-03    -308.302E-03     603.145E-03    -294.764E-03     162.356E-03
            2104     8.04269E-03     32.0700E-03    -43.6852E+06     15.3812E+06     42.6944E+06    -167.807E+03    -300.139E-03     595.120E-03    -294.981E-03     200.788E-03    -308.023E-03     602.780E-03    -294.727E-03     159.198E-03
            2105     7.37324E-03     31.7764E-03    -50.6644E+06     7.43977E+06     34.6186E+06    -346.345E+03    -300.138E-03     595.031E-03    -294.893E-03     193.131E-03    -307.420E-03     602.060E-03    -294.657E-03     153.331E-03
            2106     6.70361E-03     31.4913E-03    -58.7462E+06    -3.07034E+06     24.6420E+06    -176.415E+03    -299.800E-03     594.565E-03    -294.764E-03     182.586E-03    -306.320E-03     600.794E-03    -294.552E-03     145.121E-03
            2107     6.03425E-03     31.2274E-03    -67.3810E+06    -14.4755E+06     12.6791E+06     236.086E+03    -299.077E-03     593.683E-03    -294.607E-03     169.491E-03    -304.714E-03     598.993E-03    -294.425E-03     134.910E-03
            2108     5.36422E-03     30.9820E-03    -76.5596E+06    -27.0409E+06    -1.63124E+06     589.878E+03    -298.200E-03     592.635E-03    -294.435E-03     154.242E-03    -302.902E-03     596.974E-03    -294.293E-03     122.960E-03
            2109     4.69456E-03     30.7613E-03    -86.3026E+06    -55.5785E+06    -19.9271E+06     1.05020E+06    -297.169E-03     591.446E-03    -294.277E-03     137.176E-03    -300.926E-03     594.757E-03    -294.171E-03     109.488E-03
            2110     4.02399E-03     30.5689E-03    -95.7057E+06    -87.0959E+06    -40.5780E+06     1.22261E+06    -296.331E-03     590.457E-03    -294.126E-03     118.899E-03    -299.196E-03     592.790E-03    -294.064E-03     95.0053E-03
            2111     3.35415E-03     30.4014E-03    -104.528E+06    -111.617E+06    -61.6966E+06     680.093E+03    -295.729E-03     589.678E-03    -293.949E-03     100.069E-03    -297.813E-03     591.174E-03    -293.944E-03     80.0537E-03
            2112     2.68315E-03     30.2647E-03    -112.783E+06    -137.807E+06    -81.9530E+06     377.789E+03    -294.935E-03     588.712E-03    -293.777E-03     80.9668E-03    -296.363E-03     589.488E-03    -293.824E-03     64.8798E-03
            2113     2.01240E-03     30.1564E-03    -119.594E+06    -160.453E+06    -100.831E+06     327.865E+03    -294.384E-03     587.998E-03    -293.615E-03     61.4253E-03    -295.287E-03     588.199E-03    -293.713E-03     49.2917E-03
            2114     1.34304E-03     30.0798E-03    -124.911E+06    -181.585E+06    -115.849E+06    -51.9655E+03    -294.021E-03     587.442E-03    -293.421E-03     41.6115E-03    -294.536E-03     587.204E-03    -293.556E-03     33.4383E-03
            2115     671.487E-06     30.0317E-03    -129.777E+06    -195.794E+06    -125.814E+06     144.628E+03    -293.379E-03     586.662E-03    -293.283E-03     22.8496E-03    -293.665E-03     586.157E-03    -293.440E-03     18.4564E-03
            2116     12.7403E-03     32.3271E-03    -3.74565E+06     57.8081E+06     75.8000E+06     75.3983E+03    -293.236E-03     588.067E-03    -294.831E-03     127.142E-03    -297.735E-03     592.538E-03    -294.530E-03     95.1995E-03
            2117     12.0644E-03     32.0944E-03    -8.03882E+06     55.1877E+06     72.4827E+06     300.693E+03    -294.515E-03     589.444E-03    -294.929E-03     172.590E-03    -301.305E-03     596.191E-03    -294.635E-03     132.362E-03
            2118     11.3942E-03     31.8446E-03    -13.2818E+06     48.6832E+06     69.5972E+06     595.905E+03    -296.400E-03     591.427E-03    -295.027E-03     185.500E-03    -303.785E-03     598.736E-03    -294.731E-03     144.005E-03
            2119     10.7227E-03     31.5654E-03    -18.3190E+06     43.9840E+06     70.2917E+06     514.347E+03    -298.214E-03     593.309E-03    -295.095E-03     198.516E-03    -306.418E-03     601.401E-03    -294.781E-03     154.931E-03
            2120     10.0540E-03     31.2685E-03    -23.8968E+06     37.9045E+06     67.2936E+06     498.085E+03    -299.382E-03     594.484E-03    -295.101E-03     204.214E-03    -307.860E-03     602.815E-03    -294.785E-03     160.187E-03
            2121     9.38297E-03     30.9680E-03    -29.7758E+06     31.1431E+06     60.9440E+06     311.689E+03    -300.122E-03     595.180E-03    -295.058E-03     206.195E-03    -308.610E-03     603.496E-03    -294.755E-03     162.438E-03
            2122     8.71344E-03     30.6608E-03    -35.9513E+06     23.6862E+06     52.0622E+06    -203.840E+03    -300.626E-03     595.594E-03    -294.968E-03     204.295E-03    -308.884E-03     603.657E-03    -294.690E-03     161.346E-03
            2123     8.04405E-03     30.3605E-03    -42.9360E+06     15.5967E+06     42.5544E+06    -393.886E+03    -300.839E-03     595.671E-03    -294.832E-03     199.448E-03    -308.669E-03     603.281E-03    -294.580E-03     157.816E-03
            2124     7.37487E-03     30.0632E-03    -50.7108E+06     7.09674E+06     33.9659E+06    -45.9475E+03    -300.650E-03     595.314E-03    -294.664E-03     192.148E-03    -307.882E-03     602.292E-03    -294.431E-03     152.383E-03
            2125     6.70582E-03     29.7830E-03    -58.8968E+06    -3.78922E+06     23.8780E+06     115.346E+03    -299.993E-03     594.463E-03    -294.470E-03     181.498E-03    -306.451E-03     600.629E-03    -294.260E-03     144.158E-03
            2126     6.03580E-03     29.5164E-03    -67.5936E+06    -15.4483E+06     12.0162E+06     320.996E+03    -299.133E-03     593.391E-03    -294.258E-03     168.325E-03    -304.709E-03     598.638E-03    -294.078E-03     133.898E-03
            2127     5.36681E-03     29.2737E-03    -76.9984E+06    -27.4564E+06    -2.17044E+06     847.996E+03    -298.130E-03     592.164E-03    -294.035E-03     153.031E-03    -302.776E-03     596.447E-03    -293.894E-03     121.932E-03
            2128     4.69616E-03     29.0542E-03    -86.4216E+06    -55.3945E+06    -20.5092E+06     1.24294E+06    -297.137E-03     590.952E-03    -293.815E-03     135.768E-03    -300.838E-03     594.209E-03    -293.712E-03     108.289E-03
            2129     4.02635E-03     28.8615E-03    -95.4101E+06    -86.5099E+06    -40.8050E+06     980.210E+03    -296.274E-03     589.857E-03    -293.583E-03     117.684E-03    -299.092E-03     592.147E-03    -293.523E-03     93.9848E-03
            2130     3.35564E-03     28.6956E-03    -103.875E+06    -110.341E+06    -61.4803E+06     927.221E+03    -295.275E-03     588.616E-03    -293.342E-03     98.7757E-03    -297.321E-03     590.080E-03    -293.338E-03     78.9804E-03
            2131     2.68526E-03     28.5600E-03    -111.808E+06    -136.675E+06    -81.8444E+06     822.691E+03    -294.299E-03     587.441E-03    -293.142E-03     79.4510E-03    -295.692E-03     588.190E-03    -293.191E-03     63.5800E-03
            2132     2.01402E-03     28.4526E-03    -118.930E+06    -158.791E+06    -100.659E+06     123.552E+03    -293.614E-03     586.607E-03    -292.992E-03     60.2098E-03    -294.496E-03     586.795E-03    -293.093E-03     48.2512E-03
            2133     1.34159E-03     28.3744E-03    -124.105E+06    -182.438E+06    -114.902E+06    -126.481E+03    -293.402E-03     586.229E-03    -292.827E-03     40.7566E-03    -293.903E-03     585.975E-03    -292.957E-03     32.6808E-03
            2134     671.747E-06     28.3285E-03    -127.481E+06    -195.235E+06    -125.143E+06     324.802E+03    -292.895E-03     585.465E-03    -292.570E-03     21.9965E-03    -293.169E-03     584.957E-03    -292.728E-03     17.6096E-03
            2135     12.7351E-03     30.6259E-03    -3.85848E+06     57.2307E+06     74.1008E+06     374.571E+03    -292.751E-03     587.627E-03    -294.876E-03     128.605E-03    -297.283E-03     592.133E-03    -294.583E-03     96.6022E-03
            2136     12.0654E-03     30.3873E-03    -8.75441E+06     54.1512E+06     70.8182E+06     291.370E+03    -294.799E-03     589.785E-03    -294.986E-03     172.516E-03    -301.600E-03     596.542E-03    -294.697E-03     132.212E-03
            2137     11.3931E-03     30.1362E-03    -12.9254E+06     48.8271E+06     69.5682E+06     299.210E+03    -296.872E-03     591.938E-03    -295.066E-03     184.922E-03    -304.273E-03     599.264E-03    -294.770E-03     143.245E-03
            2138     10.7241E-03     29.8533E-03    -17.8213E+06     44.1816E+06     70.5365E+06     94.3804E+03    -298.583E-03     593.690E-03    -295.107E-03     198.600E-03    -306.801E-03     601.797E-03    -294.793E-03     154.888E-03
            2139     10.0525E-03     29.5593E-03    -23.2717E+06     38.2181E+06     67.8290E+06    -301.303E+03    -299.941E-03     595.024E-03    -295.083E-03     204.224E-03    -308.422E-03     603.362E-03    -294.766E-03     160.068E-03
            2140     9.38386E-03     29.2547E-03    -29.2851E+06     31.3734E+06     61.3675E+06    -501.613E+03    -300.962E-03     595.946E-03    -294.985E-03     205.547E-03    -309.428E-03     604.242E-03    -294.681E-03     161.656E-03
            2141     8.71488E-03     28.9502E-03    -35.9160E+06     23.5695E+06     52.0941E+06    -182.700E+03    -301.414E-03     596.233E-03    -294.819E-03     203.532E-03    -309.633E-03     604.257E-03    -294.540E-03     160.531E-03
            2142     8.04624E-03     28.6472E-03    -43.0904E+06     15.3147E+06     42.3260E+06     347.180E+03    -301.498E-03     596.103E-03    -294.605E-03     198.774E-03    -309.276E-03     603.660E-03    -294.353E-03     157.184E-03
            2143     7.37721E-03     28.3543E-03    -50.6659E+06     6.86468E+06     33.5840E+06     562.686E+03    -301.147E-03     595.504E-03    -294.357E-03     190.792E-03    -308.295E-03     602.399E-03    -294.125E-03     151.165E-03
            2144     6.70781E-03     28.0708E-03    -58.6920E+06    -4.07098E+06     23.5775E+06     717.807E+03    -300.376E-03     594.453E-03    -294.077E-03     179.605E-03    -306.728E-03     600.514E-03    -293.868E-03     142.495E-03
            2145     6.03931E-03     27.8092E-03    -67.3860E+06    -15.7631E+06     11.7440E+06     1.01883E+06    -299.328E-03     593.102E-03    -293.774E-03     165.973E-03    -304.790E-03     598.234E-03    -293.594E-03     131.844E-03
            2146     5.36861E-03     27.5651E-03    -76.4269E+06    -27.3628E+06    -2.31006E+06     1.07477E+06    -298.161E-03     591.614E-03    -293.453E-03     150.254E-03    -302.693E-03     595.784E-03    -293.314E-03     119.487E-03
            2147     4.69955E-03     27.3478E-03    -85.5080E+06    -54.6437E+06    -20.2842E+06     901.937E+03    -297.099E-03     590.222E-03    -293.124E-03     132.958E-03    -300.697E-03     593.382E-03    -293.022E-03     105.796E-03
            2148     4.02906E-03     27.1557E-03    -94.5789E+06    -85.7298E+06    -40.5356E+06     857.502E+03    -295.899E-03     588.684E-03    -292.785E-03     114.880E-03    -298.632E-03     590.895E-03    -292.726E-03     91.5120E-03
            2149     3.35873E-03     26.9920E-03    -103.344E+06    -109.890E+06    -61.6529E+06     799.690E+03    -294.712E-03     587.162E-03    -292.450E-03     96.1841E-03    -296.692E-03     588.563E-03    -292.449E-03     76.7031E-03
            2150     2.68721E-03     26.8571E-03    -110.773E+06    -135.619E+06    -82.1492E+06     707.644E+03    -293.799E-03     585.927E-03    -292.128E-03     77.0334E-03    -295.143E-03     586.635E-03    -292.182E-03     61.4410E-03
            2151     2.01597E-03     26.7510E-03    -116.553E+06    -156.956E+06    -100.864E+06     380.830E+03    -292.826E-03     584.654E-03    -291.829E-03     57.8090E-03    -293.664E-03     584.814E-03    -291.936E-03     46.1273E-03
            2152     1.34504E-03     26.6744E-03    -121.026E+06    -182.695E+06    -113.425E+06     12.8213E+03    -291.888E-03     583.576E-03    -291.688E-03     38.9729E-03    -292.358E-03     583.296E-03    -291.815E-03     31.1142E-03
            2153     671.947E-06     26.6256E-03    -124.162E+06    -195.310E+06    -120.898E+06    -33.3469E+03    -291.527E-03     583.364E-03    -291.838E-03     20.8223E-03    -291.784E-03     582.839E-03    -291.979E-03     16.4861E-03
            2154     12.7366E-03     28.9182E-03    -4.35812E+06     57.1016E+06     75.6894E+06     300.209E+03    -293.241E-03     588.177E-03    -294.936E-03     128.057E-03    -297.795E-03     592.698E-03    -294.634E-03     95.8991E-03
            2155     12.0644E-03     28.6786E-03    -8.58284E+06     54.4501E+06     72.4653E+06     295.194E+03    -295.483E-03     590.496E-03    -295.013E-03     173.080E-03    -302.330E-03     597.296E-03    -294.717E-03     132.598E-03
            2156     11.3949E-03     28.4280E-03    -12.5599E+06     48.9040E+06     70.2150E+06    -266.845E+03    -297.210E-03     592.273E-03    -295.062E-03     185.990E-03    -304.661E-03     599.649E-03    -294.764E-03     144.157E-03
            2157     10.7226E-03     28.1432E-03    -17.4609E+06     44.0757E+06     70.2275E+06    -185.428E+03    -299.118E-03     594.193E-03    -295.074E-03     198.908E-03    -307.354E-03     602.319E-03    -294.762E-03     155.052E-03
            2158     10.0544E-03     27.8473E-03    -23.3680E+06     39.3130E+06     66.8380E+06    -256.850E+03    -300.749E-03     595.746E-03    -294.997E-03     203.579E-03    -309.204E-03     604.064E-03    -294.686E-03     159.319E-03
            2159     9.38520E-03     27.5414E-03    -29.9891E+06     31.3586E+06     59.9433E+06    -583.887E+03    -301.695E-03     596.527E-03    -294.832E-03     204.631E-03    -310.104E-03     604.767E-03    -294.535E-03     160.736E-03
            2160     8.71666E-03     27.2380E-03    -36.8820E+06     21.9019E+06     50.5646E+06    -279.549E+03    -302.224E-03     596.816E-03    -294.592E-03     202.291E-03    -310.354E-03     604.745E-03    -294.317E-03     159.368E-03
            2161     8.04777E-03     26.9348E-03    -43.7186E+06     14.5872E+06     41.4561E+06     184.411E+03    -302.435E-03     596.712E-03    -294.277E-03     196.631E-03    -310.080E-03     604.134E-03    -294.028E-03     155.213E-03
            2162     7.37998E-03     26.6418E-03    -50.9122E+06     6.28627E+06     33.3075E+06     549.968E+03    -301.936E-03     595.840E-03    -293.904E-03     187.653E-03    -308.916E-03     602.565E-03    -293.673E-03     148.303E-03
            2163     6.71207E-03     26.3620E-03    -58.7762E+06    -4.29122E+06     23.5023E+06     1.03006E+06    -300.991E-03     594.474E-03    -293.482E-03     176.150E-03    -307.168E-03     600.358E-03    -293.274E-03     139.409E-03
            2164     6.04257E-03     26.0997E-03    -67.1243E+06    -15.4823E+06     11.9149E+06     1.06377E+06    -299.931E-03     592.945E-03    -293.013E-03     161.900E-03    -305.211E-03     597.896E-03    -292.834E-03     128.194E-03
            2165     5.37479E-03     25.8594E-03    -75.9390E+06    -26.5506E+06    -1.87891E+06     892.611E+03    -298.542E-03     591.038E-03    -292.496E-03     145.620E-03    -302.894E-03     595.032E-03    -292.357E-03     115.333E-03
            2166     4.70418E-03     25.6429E-03    -85.0562E+06    -54.0816E+06    -19.8648E+06     692.563E+03    -296.909E-03     588.882E-03    -291.973E-03     128.066E-03    -300.342E-03     591.878E-03    -291.870E-03     101.462E-03
            2167     4.03441E-03     25.4527E-03    -93.9584E+06    -85.0758E+06    -39.9452E+06     739.555E+03    -295.277E-03     586.738E-03    -291.461E-03     109.833E-03    -297.865E-03     588.807E-03    -291.401E-03     87.0566E-03
            2168     3.36289E-03     25.2922E-03    -102.225E+06    -108.708E+06    -60.7869E+06     576.769E+03    -293.895E-03     584.849E-03    -290.954E-03     91.6839E-03    -295.764E-03     586.145E-03    -290.952E-03     72.7362E-03
            2169     2.69198E-03     25.1564E-03    -109.959E+06    -134.891E+06    -81.4837E+06     229.439E+03    -292.656E-03     583.113E-03    -290.457E-03     72.9941E-03    -293.920E-03     583.744E-03    -290.509E-03     57.8775E-03
            2170     2.02007E-03     25.0545E-03    -116.314E+06    -156.590E+06    -100.330E+06     420.291E+03    -291.321E-03     581.324E-03    -290.003E-03     54.7494E-03    -292.114E-03     581.439E-03    -290.109E-03     43.4489E-03
            2171     1.34648E-03     24.9777E-03    -120.983E+06    -181.057E+06    -113.943E+06     562.876E+03    -290.146E-03     579.867E-03    -289.721E-03     36.8929E-03    -290.597E-03     579.576E-03    -289.853E-03     29.3189E-03
            2172     672.901E-06     24.9349E-03    -124.378E+06    -195.663E+06    -122.386E+06    -159.372E+03    -289.780E-03     579.293E-03    -289.513E-03     19.8880E-03    -290.027E-03     578.759E-03    -289.661E-03     15.8441E-03
            2173     12.7356E-03     27.2113E-03    -4.30351E+06     57.2683E+06     76.2578E+06    -339.888E+03    -293.075E-03     588.013E-03    -294.937E-03     128.522E-03    -297.651E-03     592.555E-03    -294.633E-03     96.3577E-03
            2174     12.0648E-03     26.9714E-03    -8.04647E+06     54.7748E+06     73.2446E+06    -381.398E+03    -295.332E-03     590.359E-03    -295.027E-03     174.371E-03    -302.242E-03     597.222E-03    -294.728E-03     133.755E-03
            2175     11.3927E-03     26.7167E-03    -12.5018E+06     48.6683E+06     70.5622E+06    -344.386E+03    -298.136E-03     593.193E-03    -295.056E-03     186.869E-03    -305.640E-03     600.620E-03    -294.756E-03     144.764E-03
            2176     10.7250E-03     26.4330E-03    -17.6744E+06     43.7541E+06     70.4217E+06    -233.720E+03    -300.491E-03     595.488E-03    -294.997E-03     198.895E-03    -308.727E-03     603.612E-03    -294.682E-03     154.830E-03
            2177     10.0554E-03     26.1321E-03    -23.3300E+06     39.4512E+06     67.0024E+06    -12.9369E+03    -301.806E-03     596.636E-03    -294.830E-03     202.638E-03    -310.188E-03     604.881E-03    -294.518E-03     158.392E-03
            2178     9.38721E-03     25.8304E-03    -29.6419E+06     31.5106E+06     59.7335E+06     443.742E+03    -302.792E-03     597.359E-03    -294.566E-03     202.573E-03    -311.060E-03     605.460E-03    -294.270E-03     158.838E-03
            2179     8.71916E-03     25.5224E-03    -36.4272E+06     21.8237E+06     50.1605E+06     441.896E+03    -303.659E-03     597.850E-03    -294.191E-03     199.040E-03    -311.591E-03     605.584E-03    -293.919E-03     156.345E-03
            2180     8.05288E-03     25.2229E-03    -43.5472E+06     14.2167E+06     41.0309E+06     364.908E+03    -303.732E-03     597.434E-03    -293.702E-03     192.079E-03    -311.130E-03     604.609E-03    -293.454E-03     151.015E-03
            2181     7.38549E-03     24.9289E-03    -50.9792E+06     5.68715E+06     32.9635E+06     496.347E+03    -303.103E-03     596.229E-03    -293.126E-03     182.171E-03    -309.806E-03     602.676E-03    -292.896E-03     143.304E-03
            2182     6.71752E-03     24.6536E-03    -58.6622E+06    -4.49702E+06     23.5097E+06     433.595E+03    -302.179E-03     594.638E-03    -292.459E-03     169.465E-03    -308.050E-03     600.216E-03    -292.250E-03     133.318E-03
            2183     6.05067E-03     24.3907E-03    -66.7708E+06    -15.4322E+06     12.3003E+06     428.089E+03    -300.596E-03     592.307E-03    -291.711E-03     154.340E-03    -305.559E-03     596.942E-03    -291.530E-03     121.398E-03
            2184     5.38144E-03     24.1550E-03    -75.2431E+06    -26.1650E+06    -1.06027E+06     421.426E+03    -298.638E-03     589.553E-03    -290.916E-03     138.092E-03    -302.701E-03     593.260E-03    -290.774E-03     108.649E-03
            2185     4.71348E-03     23.9401E-03    -84.1781E+06    -53.2223E+06    -18.9233E+06     601.197E+03    -296.576E-03     586.690E-03    -290.114E-03     120.789E-03    -299.760E-03     589.441E-03    -290.009E-03     95.0740E-03
            2186     4.04247E-03     23.7564E-03    -93.1584E+06    -84.2506E+06    -39.0374E+06     454.205E+03    -294.505E-03     583.821E-03    -289.316E-03     102.860E-03    -296.886E-03     585.685E-03    -289.254E-03     80.9730E-03
            2187     3.37164E-03     23.5945E-03    -101.808E+06    -107.888E+06    -59.5542E+06     327.475E+03    -292.418E-03     580.961E-03    -288.543E-03     85.2454E-03    -294.132E-03     582.102E-03    -288.536E-03     67.1484E-03
            2188     2.69875E-03     23.4654E-03    -109.750E+06    -134.098E+06    -80.0426E+06     606.495E+03    -290.418E-03     578.271E-03    -287.853E-03     67.6652E-03    -291.578E-03     578.797E-03    -287.900E-03     53.3150E-03
            2189     2.02479E-03     23.3626E-03    -116.432E+06    -156.854E+06    -98.9264E+06     818.353E+03    -288.869E-03     576.127E-03    -287.258E-03     50.1642E-03    -289.601E-03     576.175E-03    -287.357E-03     39.4754E-03
            2190     1.35080E-03     23.2922E-03    -121.750E+06    -179.170E+06    -113.327E+06     893.246E+03    -287.723E-03     574.462E-03    -286.739E-03     33.4995E-03    -288.148E-03     574.146E-03    -286.869E-03     26.3715E-03
            2191     676.511E-06     23.2437E-03    -124.566E+06    -193.878E+06    -122.645E+06     895.319E+03    -286.651E-03     572.983E-03    -286.332E-03     18.4030E-03    -286.891E-03     572.449E-03    -286.484E-03     14.6340E-03
            2192     12.7369E-03     25.5063E-03    -4.29882E+06     58.5822E+06     73.9395E+06    -779.397E+03    -293.020E-03     587.972E-03    -294.952E-03     131.148E-03    -297.696E-03     592.626E-03    -294.661E-03     98.6504E-03
            2193     12.0637E-03     25.2648E-03    -8.63860E+06     53.7892E+06     70.6591E+06    -908.912E+03    -296.493E-03     591.512E-03    -295.019E-03     175.821E-03    -303.485E-03     598.459E-03    -294.731E-03     134.831E-03
            2194     11.3947E-03     25.0047E-03    -13.0138E+06     47.9310E+06     68.7816E+06    -177.561E+03    -299.547E-03     594.526E-03    -294.979E-03     186.916E-03    -307.047E-03     601.950E-03    -294.685E-03     144.607E-03
            2195     10.7252E-03     24.7172E-03    -18.4660E+06     44.8099E+06     69.1564E+06    -665.908E+03    -301.980E-03     596.801E-03    -294.821E-03     197.636E-03    -310.136E-03     604.850E-03    -294.513E-03     153.504E-03
            2196     10.0584E-03     24.4195E-03    -24.0086E+06     37.2717E+06     65.9895E+06    -619.550E+03    -303.734E-03     598.258E-03    -294.524E-03     200.224E-03    -311.960E-03     606.340E-03    -294.213E-03     156.011E-03
            2197     9.39137E-03     24.1140E-03    -29.9805E+06     30.1349E+06     59.8847E+06     216.987E+03    -305.179E-03     599.248E-03    -294.069E-03     198.401E-03    -313.196E-03     607.092E-03    -293.770E-03     154.860E-03
            2198     8.72589E-03     23.8089E-03    -36.3993E+06     22.4273E+06     51.1595E+06     741.318E+03    -305.848E-03     599.295E-03    -293.447E-03     193.173E-03    -313.451E-03     606.700E-03    -293.171E-03     150.907E-03
            2199     8.05976E-03     23.5067E-03    -43.0364E+06     14.3805E+06     42.0363E+06     660.109E+03    -305.677E-03     598.351E-03    -292.675E-03     184.367E-03    -312.674E-03     605.126E-03    -292.423E-03     143.950E-03
            2200     7.39428E-03     23.2197E-03    -49.8633E+06     6.22945E+06     34.0061E+06     349.985E+03    -304.962E-03     596.727E-03    -291.764E-03     173.032E-03    -311.219E-03     602.731E-03    -291.531E-03     134.987E-03
            2201     6.72974E-03     22.9409E-03    -57.3595E+06    -4.04092E+06     24.3931E+06     109.897E+03    -303.403E-03     594.130E-03    -290.727E-03     159.530E-03    -308.821E-03     599.259E-03    -290.516E-03     124.392E-03
            2202     6.06315E-03     22.6882E-03    -65.4454E+06    -15.1944E+06     13.0962E+06    -108.286E+03    -301.072E-03     590.680E-03    -289.608E-03     144.409E-03    -305.615E-03     594.899E-03    -289.425E-03     112.594E-03
            2203     5.39607E-03     22.4528E-03    -74.1194E+06    -26.2324E+06    -318.871E+03    -88.7533E+03    -298.367E-03     586.818E-03    -288.451E-03     128.179E-03    -302.056E-03     590.152E-03    -288.307E-03     99.9509E-03
            2204     4.72558E-03     22.2454E-03    -83.0663E+06    -52.8675E+06    -17.6254E+06       231.2E+03    -295.646E-03     582.942E-03    -287.296E-03     111.134E-03    -298.513E-03     585.379E-03    -287.187E-03     86.6439E-03
            2205     4.05573E-03     22.0622E-03    -92.1989E+06    -83.2692E+06    -37.5605E+06     518.761E+03    -292.919E-03     579.073E-03    -286.153E-03     94.2243E-03    -295.060E-03     580.700E-03    -286.087E-03     73.4843E-03
            2206     3.38318E-03     21.9089E-03    -101.031E+06    -107.429E+06    -58.5988E+06     558.305E+03    -290.036E-03     575.102E-03    -285.066E-03     77.5164E-03    -291.571E-03     576.066E-03    -285.057E-03     60.4914E-03
            2207     2.70883E-03     21.7822E-03    -108.647E+06    -133.907E+06    -78.9052E+06     578.461E+03    -287.365E-03     571.485E-03    -284.120E-03     61.0691E-03    -288.402E-03     571.888E-03    -284.163E-03     47.6537E-03
            2208     2.03349E-03     21.6835E-03    -115.131E+06    -156.561E+06    -97.1022E+06     908.388E+03    -285.245E-03     568.587E-03    -283.342E-03     45.1945E-03    -285.903E-03     568.561E-03    -283.434E-03     35.2505E-03
            2209     1.35658E-03     21.6140E-03    -120.183E+06    -176.862E+06    -111.814E+06     1.00721E+06    -283.690E-03     566.433E-03    -282.743E-03     30.5265E-03    -284.081E-03     566.092E-03    -282.872E-03     23.9010E-03
            2210     677.934E-06     21.5717E-03    -122.866E+06    -191.671E+06    -120.602E+06     245.578E+03    -282.493E-03     564.970E-03    -282.477E-03     16.3354E-03    -282.722E-03     564.432E-03    -282.624E-03     12.7614E-03
            2211     12.7326E-03     23.7976E-03    -3.43497E+06     61.1660E+06     74.6814E+06     28.3655E+03    -293.809E-03     588.721E-03    -294.912E-03     129.714E-03    -298.458E-03     593.358E-03    -294.622E-03     97.1900E-03
            2212     12.0649E-03     23.5526E-03    -7.43338E+06     54.1319E+06     70.4547E+06     342.813E+03    -297.869E-03     592.777E-03    -294.909E-03     174.782E-03    -304.813E-03     599.684E-03    -294.624E-03     133.681E-03
            2213     11.3960E-03     23.2910E-03    -13.0665E+06     47.0943E+06     67.1068E+06     220.191E+03    -301.416E-03     596.173E-03    -294.756E-03     185.494E-03    -308.826E-03     603.509E-03    -294.470E-03     143.089E-03
            2214     10.7294E-03     23.0024E-03    -18.7274E+06     46.1321E+06     67.6493E+06    -453.168E+03    -304.366E-03     598.804E-03    -294.438E-03     194.389E-03    -312.330E-03     606.669E-03    -294.139E-03     150.302E-03
            2215     10.0630E-03     22.7012E-03    -24.8658E+06     36.2734E+06     64.0244E+06    -758.258E+03    -306.892E-03     600.798E-03    -293.907E-03     194.657E-03    -314.808E-03     608.570E-03    -293.603E-03     150.615E-03
            2216     9.39940E-03     22.3959E-03    -30.9001E+06     28.5274E+06     58.3676E+06    -839.550E+03    -308.452E-03     601.591E-03    -293.140E-03     191.037E-03    -316.076E-03     609.038E-03    -292.844E-03     147.833E-03
            2217     8.73617E-03     22.0907E-03    -36.6049E+06     21.4140E+06     50.8376E+06    -719.506E+03    -308.834E-03     600.984E-03    -292.150E-03     183.791E-03    -315.953E-03     607.903E-03    -291.874E-03     142.147E-03
            2218     8.07372E-03     21.7939E-03    -42.5656E+06     14.4599E+06     42.6244E+06    -651.651E+03    -308.276E-03     599.242E-03    -290.966E-03     173.820E-03    -314.738E-03     605.482E-03    -290.712E-03     134.316E-03
            2219     7.41150E-03     21.5053E-03    -49.3396E+06     6.30252E+06     34.5407E+06    -674.580E+03    -306.748E-03     596.367E-03    -289.619E-03     161.961E-03    -312.469E-03     601.837E-03    -289.384E-03     125.059E-03
            2220     6.74689E-03     21.2370E-03    -56.4948E+06    -3.80293E+06     25.0812E+06    -620.820E+03    -304.216E-03     592.368E-03    -288.152E-03     148.356E-03    -309.128E-03     596.995E-03    -287.939E-03     114.544E-03
            2221     6.08132E-03     20.9851E-03    -64.3066E+06    -15.1103E+06     14.0828E+06    -547.403E+03    -301.255E-03     587.859E-03    -286.604E-03     133.225E-03    -305.342E-03     591.624E-03    -286.418E-03     102.808E-03
            2222     5.41376E-03     20.7592E-03    -72.9728E+06    -26.4545E+06     877.609E+03    -347.119E+03    -297.849E-03     582.851E-03    -285.002E-03     117.031E-03    -301.141E-03     585.788E-03    -284.854E-03     90.2312E-03
            2223     4.74548E-03     20.5567E-03    -82.0490E+06    -52.9779E+06    -16.7207E+06     46.0668E+03    -294.065E-03     577.478E-03    -283.413E-03     100.688E-03    -296.607E-03     579.590E-03    -283.301E-03     77.6161E-03
            2224     4.07298E-03     20.3811E-03    -90.9896E+06    -83.1696E+06    -36.6576E+06     442.054E+03    -290.243E-03     572.135E-03    -281.892E-03     84.4392E-03    -292.129E-03     573.509E-03    -281.823E-03     65.0608E-03
            2225     3.39868E-03     20.2334E-03    -99.3415E+06    -106.552E+06    -57.0820E+06     613.974E+03    -286.605E-03     567.089E-03    -280.484E-03     68.8615E-03    -287.953E-03     567.870E-03    -280.470E-03     53.0512E-03
            2226     2.72274E-03     20.1120E-03    -107.257E+06    -133.103E+06    -77.1412E+06     680.102E+03    -283.231E-03     562.502E-03    -279.271E-03     54.1436E-03    -284.149E-03     562.788E-03    -279.308E-03     41.7256E-03
            2227     2.04348E-03     20.0202E-03    -114.278E+06    -156.539E+06    -95.7293E+06     682.891E+03    -280.409E-03     558.733E-03    -278.324E-03     40.1776E-03    -280.999E-03     558.637E-03    -278.410E-03     31.0088E-03
            2228     1.36266E-03     19.9521E-03    -118.674E+06    -174.206E+06    -110.762E+06     617.350E+03    -278.556E-03     556.220E-03    -277.665E-03     26.5864E-03    -278.913E-03     555.857E-03    -277.794E-03     20.5044E-03
            2229     682.024E-06     19.9128E-03    -121.362E+06    -189.872E+06    -120.232E+06     8.69842E+03    -277.503E-03     554.783E-03    -277.280E-03     14.2166E-03    -277.716E-03     554.239E-03    -277.430E-03     10.9398E-03
            2230     12.7417E-03     22.0979E-03    -3.10807E+06     60.1199E+06     75.7427E+06     467.103E+03    -296.185E-03     591.003E-03    -294.817E-03     133.293E-03    -300.946E-03     595.746E-03    -294.521E-03     100.226E-03
            2231     12.0681E-03     21.8388E-03    -7.66868E+06     54.4797E+06     71.7338E+06     332.444E+03    -300.602E-03     595.277E-03    -294.675E-03     176.023E-03    -307.584E-03     602.217E-03    -294.384E-03     134.525E-03
            2232     11.4012E-03     21.5766E-03    -13.0593E+06     47.4986E+06     67.9732E+06     243.451E+03    -304.918E-03     599.238E-03    -294.320E-03     183.151E-03    -312.200E-03     606.444E-03    -294.030E-03     140.550E-03
            2233     10.7358E-03     21.2814E-03    -17.7232E+06     46.9895E+06     68.9223E+06     642.880E+03    -308.672E-03     602.378E-03    -293.707E-03     188.837E-03    -316.352E-03     609.963E-03    -293.404E-03     144.728E-03
            2234     10.0747E-03     20.9806E-03    -22.9462E+06     38.5028E+06     65.6803E+06     132.476E+03    -310.992E-03     603.795E-03    -292.804E-03     186.733E-03    -318.504E-03     611.173E-03    -292.498E-03     142.946E-03
            2235     9.41375E-03     20.6741E-03    -28.7523E+06     29.1230E+06     59.2772E+06    -586.651E+03    -312.188E-03     603.807E-03    -291.619E-03     181.421E-03    -319.319E-03     610.768E-03    -291.323E-03     138.763E-03
            2236     8.75407E-03     20.3724E-03    -35.0618E+06     21.8929E+06     50.8185E+06    -1.19403E+06    -312.115E-03     602.285E-03    -290.170E-03     173.058E-03    -318.690E-03     608.668E-03    -289.897E-03     132.240E-03
            2237     8.09415E-03     20.0776E-03    -41.6478E+06     14.0550E+06     41.9051E+06    -1.48273E+06    -310.742E-03     599.248E-03    -288.506E-03     162.737E-03    -316.656E-03     604.943E-03    -288.257E-03     124.320E-03
            2238     7.43237E-03     19.7973E-03    -48.3755E+06      6.1939E+06     34.1052E+06    -1.51791E+06    -308.248E-03     594.926E-03    -286.678E-03     150.232E-03    -313.425E-03     599.856E-03    -286.447E-03     114.674E-03
            2239     6.77013E-03     19.5337E-03    -55.7231E+06    -4.24409E+06     24.7376E+06    -1.53371E+06    -305.075E-03     589.788E-03    -284.712E-03     135.817E-03    -309.466E-03     593.896E-03    -284.502E-03     103.485E-03
            2240     6.10563E-03     19.2916E-03    -63.6403E+06    -16.0157E+06     14.1543E+06    -1.19696E+06    -301.171E-03     583.817E-03    -282.646E-03     120.282E-03    -304.778E-03     587.101E-03    -282.460E-03     91.4761E-03
            2241     5.43881E-03     19.0720E-03    -72.0108E+06    -27.0793E+06     1.66783E+06    -874.990E+03    -296.588E-03     577.125E-03    -280.537E-03     104.104E-03    -299.461E-03     579.642E-03    -280.385E-03     78.9719E-03
            2242     4.76787E-03     18.8795E-03    -80.7251E+06    -53.4703E+06    -15.5753E+06    -338.164E+03    -291.609E-03     570.088E-03    -278.479E-03     88.4390E-03    -293.811E-03     571.859E-03    -278.362E-03     66.9925E-03
            2243     4.09507E-03     18.7128E-03    -89.2196E+06    -83.1382E+06    -34.9743E+06     306.955E+03    -286.595E-03     563.151E-03    -276.557E-03     73.6464E-03    -288.221E-03     564.266E-03    -276.482E-03     55.7820E-03
            2244     3.41865E-03     18.5730E-03    -97.8337E+06    -105.682E+06    -54.9862E+06     574.011E+03    -281.914E-03     556.754E-03    -274.840E-03     59.7140E-03    -283.082E-03     557.358E-03    -274.820E-03     45.2120E-03
            2245     2.73810E-03     18.4604E-03    -106.024E+06    -132.000E+06    -75.3648E+06     620.604E+03    -277.979E-03     551.369E-03    -273.390E-03     46.6053E-03    -278.781E-03     551.542E-03    -273.422E-03     35.2674E-03
            2246     2.05614E-03     18.3729E-03    -112.475E+06    -155.290E+06    -94.3152E+06     493.178E+03    -274.931E-03     547.136E-03    -272.205E-03     34.1643E-03    -275.450E-03     546.974E-03    -272.288E-03     25.8221E-03
            2247     1.37241E-03     18.3102E-03    -117.653E+06    -173.508E+06    -109.568E+06     434.363E+03    -272.550E-03     543.863E-03    -271.313E-03     22.4923E-03    -272.873E-03     543.467E-03    -271.439E-03     16.9782E-03
            2248     686.216E-06     18.2716E-03    -120.965E+06    -187.609E+06    -118.859E+06     846.192E+03    -270.650E-03     541.846E-03    -271.196E-03     12.1330E-03    -270.858E-03     541.300E-03    -271.343E-03     9.16933E-03
            2249     12.7323E-03     20.3718E-03    -3.64774E+06     57.7738E+06     74.0819E+06     136.146E+03    -299.573E-03     594.279E-03    -294.706E-03     136.140E-03    -304.423E-03     599.107E-03    -294.414E-03     102.335E-03
            2250     12.0721E-03     20.1266E-03    -8.70252E+06     54.2574E+06     70.6278E+06    -207.354E+03    -306.430E-03     600.726E-03    -294.297E-03     174.716E-03    -313.415E-03     607.669E-03    -294.010E-03     132.370E-03
            2251     11.4080E-03     19.8503E-03    -12.3414E+06     49.2179E+06     69.7463E+06    -467.112E+03    -310.678E-03     604.247E-03    -293.569E-03     179.187E-03    -317.831E-03     611.329E-03    -293.274E-03     136.006E-03
            2252     10.7501E-03     19.5571E-03    -16.5155E+06     46.3511E+06     70.9288E+06    -495.126E+03    -313.892E-03     606.430E-03    -292.538E-03     182.556E-03    -321.295E-03     613.734E-03    -292.226E-03     138.255E-03
            2253     10.0909E-03     19.2540E-03    -21.5529E+06     39.3740E+06     67.5327E+06    -19.1273E+03    -315.701E-03     606.880E-03    -291.180E-03     178.938E-03    -322.834E-03     613.883E-03    -290.868E-03     135.355E-03
            2254     9.43426E-03     18.9507E-03    -27.2088E+06     30.9679E+06     61.1172E+06    -66.9607E+03    -316.196E-03     605.714E-03    -289.517E-03     172.496E-03    -322.869E-03     612.223E-03    -289.217E-03     130.473E-03
            2255     8.77712E-03     18.6520E-03    -33.5220E+06     23.6496E+06     52.2782E+06    -644.089E+03    -315.475E-03     603.041E-03    -287.566E-03     162.934E-03    -321.548E-03     608.930E-03    -287.291E-03     123.055E-03
            2256     8.11930E-03     18.3645E-03    -40.0993E+06     14.9747E+06     42.7564E+06    -1.09819E+06    -313.489E-03     598.850E-03    -285.361E-03     150.767E-03    -318.860E-03     604.010E-03    -285.111E-03     113.556E-03
            2257     7.46075E-03     18.0917E-03    -46.9913E+06     6.77437E+06     34.4063E+06    -1.61367E+06    -310.308E-03     593.250E-03    -282.943E-03     136.537E-03    -314.924E-03     597.627E-03    -282.712E-03     102.408E-03
            2258     6.79953E-03     17.8366E-03    -54.2054E+06    -4.39251E+06     24.7320E+06    -1.76206E+06    -305.982E-03     586.339E-03    -280.357E-03     121.021E-03    -309.830E-03     589.909E-03    -280.148E-03     90.3260E-03
            2259     6.13593E-03     17.6047E-03    -61.8943E+06    -16.9217E+06     13.7249E+06    -1.65597E+06    -300.592E-03     578.274E-03    -277.683E-03     105.171E-03    -303.702E-03     581.067E-03    -277.500E-03     78.1452E-03
            2260     5.46851E-03     17.3967E-03    -70.0546E+06    -27.9314E+06     1.58610E+06    -1.32518E+06    -294.415E-03     569.440E-03    -275.025E-03     89.5646E-03    -296.863E-03     571.536E-03    -274.875E-03     66.2715E-03
            2261     4.79791E-03     17.2166E-03    -78.5638E+06    -53.9808E+06    -14.1661E+06    -672.438E+03    -288.085E-03     560.583E-03    -272.497E-03     74.9009E-03    -289.945E-03     562.013E-03    -272.376E-03     55.2261E-03
            2262     4.12153E-03     17.0613E-03    -87.3706E+06    -83.5631E+06    -32.7394E+06    -2.04611E+03    -281.970E-03     552.143E-03    -270.173E-03     61.5078E-03    -283.343E-03     553.003E-03    -270.089E-03     45.2209E-03
            2263     3.44090E-03     16.9324E-03    -95.9638E+06    -105.475E+06    -53.5610E+06     813.375E+03    -276.387E-03     544.496E-03    -268.109E-03     48.8752E-03    -277.373E-03     544.920E-03    -268.084E-03     35.7639E-03
            2264     2.75777E-03     16.8277E-03    -103.809E+06    -130.483E+06    -74.5737E+06     1.26778E+06    -271.775E-03     538.139E-03    -266.365E-03     37.6450E-03    -272.452E-03     538.198E-03    -266.398E-03     27.4793E-03
            2265     2.07117E-03     16.7465E-03    -111.106E+06    -153.693E+06    -93.2976E+06     1.26646E+06    -268.156E-03     533.102E-03    -264.947E-03     27.5108E-03    -268.606E-03     532.879E-03    -265.029E-03     20.0582E-03
            2266     1.38199E-03     16.6900E-03    -117.089E+06    -172.437E+06    -108.629E+06     1.16384E+06    -265.428E-03     529.282E-03    -263.854E-03     17.9960E-03    -265.723E-03     528.860E-03    -263.978E-03     13.0590E-03
            2267     691.615E-06     16.6552E-03    -120.694E+06    -184.743E+06    -118.429E+06     557.099E+03    -263.340E-03     526.694E-03    -263.354E-03     9.14687E-03    -263.542E-03     526.151E-03    -263.503E-03     6.52836E-03
            2268     12.7444E-03     18.6627E-03    -3.78510E+06     58.1105E+06     74.8224E+06     321.795E+03    -305.307E-03     599.663E-03    -294.356E-03     133.850E-03    -310.123E-03     604.455E-03    -294.061E-03     99.5274E-03
            2269     12.0781E-03     18.3879E-03    -7.53528E+06     55.7740E+06     71.6191E+06    -357.597E+03    -311.528E-03     605.132E-03    -293.605E-03     170.795E-03    -318.444E-03     612.012E-03    -293.316E-03     127.795E-03
            2270     11.4238E-03     18.1248E-03    -12.6127E+06     50.9191E+06     68.8515E+06    -1.36386E+06    -316.524E-03     609.006E-03    -292.481E-03     175.466E-03    -323.587E-03     616.005E-03    -292.193E-03     131.629E-03
            2271     10.7655E-03     17.8219E-03    -17.7167E+06     45.3754E+06     69.3483E+06    -2.08162E+06    -319.453E-03     610.460E-03    -291.008E-03     178.427E-03    -326.674E-03     617.579E-03    -290.701E-03     133.853E-03
            2272     10.1128E-03     17.5251E-03    -22.9096E+06     37.4768E+06     66.3516E+06    -2.13044E+06    -321.143E-03     610.306E-03    -289.163E-03     172.877E-03    -327.988E-03     617.011E-03    -288.852E-03     129.374E-03
            2273     9.45832E-03     17.2237E-03    -28.3437E+06     30.9779E+06     60.3872E+06    -1.77485E+06    -321.374E-03     608.313E-03    -286.940E-03     163.535E-03    -327.651E-03     614.427E-03    -286.642E-03     121.950E-03
            2274     8.80462E-03     16.9318E-03    -33.7632E+06     23.7725E+06     52.3043E+06    -1.74032E+06    -319.802E-03     604.172E-03    -284.370E-03     150.782E-03    -325.379E-03     609.564E-03    -284.094E-03     111.769E-03
            2275     8.15043E-03     16.6510E-03    -39.6662E+06     15.8686E+06     43.4358E+06    -1.89321E+06    -317.052E-03     598.542E-03    -281.490E-03     136.457E-03    -321.888E-03     603.170E-03    -281.238E-03     100.386E-03
            2276     7.49454E-03     16.3883E-03    -46.0353E+06     7.55874E+06     34.9948E+06    -2.18823E+06    -312.752E-03     591.102E-03    -278.349E-03     120.454E-03    -316.822E-03     594.937E-03    -278.118E-03     87.7423E-03
            2277     6.83624E-03     16.1464E-03    -52.8771E+06    -4.72300E+06     24.7823E+06    -2.23117E+06    -306.631E-03     581.675E-03    -275.044E-03     104.024E-03    -309.946E-03     584.717E-03    -274.837E-03     75.0436E-03
            2278     6.17326E-03     15.9284E-03    -60.3587E+06    -18.0602E+06      13.291E+06    -1.61735E+06    -299.271E-03     570.983E-03    -271.712E-03     88.1162E-03    -301.900E-03     573.297E-03    -271.532E-03     62.9805E-03
            2279     5.50520E-03     15.7364E-03    -69.0104E+06    -29.6045E+06     468.858E+03    -463.162E+03    -291.315E-03     559.797E-03    -268.482E-03     73.1275E-03    -293.357E-03     561.489E-03    -268.337E-03     51.7647E-03
            2280     4.83055E-03     15.5701E-03    -78.4834E+06    -52.5803E+06    -15.9791E+06     115.849E+03    -283.594E-03     549.056E-03    -265.462E-03     59.8188E-03    -285.144E-03     550.187E-03    -265.352E-03     41.9530E-03
            2281     4.15223E-03     15.4293E-03    -87.7288E+06    -83.1778E+06    -34.9396E+06    -107.853E+03    -276.507E-03     539.218E-03    -262.711E-03     47.8767E-03    -277.647E-03     539.851E-03    -262.638E-03     33.2108E-03
            2282     3.46920E-03     15.3124E-03    -96.3391E+06    -107.317E+06    -55.1107E+06     777.723E+03    -270.093E-03     530.358E-03    -260.264E-03     37.2818E-03    -270.911E-03     530.609E-03    -260.245E-03     25.5924E-03
            2283     2.78071E-03     15.2185E-03    -104.464E+06    -129.261E+06    -75.0214E+06     2.22356E+06    -264.499E-03     522.699E-03    -258.200E-03     28.1785E-03    -265.075E-03     522.658E-03    -258.237E-03     19.2123E-03
            2284     2.08863E-03     15.1459E-03    -111.311E+06    -151.260E+06    -92.9466E+06     2.31350E+06    -259.979E-03     516.579E-03    -256.600E-03     20.3787E-03    -260.375E-03     516.307E-03    -256.684E-03     13.8505E-03
            2285     1.39427E-03     15.0941E-03    -116.594E+06    -169.268E+06    -107.833E+06     1.53244E+06    -256.890E-03     512.381E-03    -255.491E-03     13.5227E-03    -257.162E-03     511.944E-03    -255.615E-03     9.19426E-03
            2286     697.955E-06     15.0641E-03    -120.343E+06    -181.691E+06    -118.171E+06     881.785E+03    -255.378E-03     510.017E-03    -254.638E-03     7.58322E-03    -255.576E-03     509.480E-03    -254.791E-03     5.24123E-03
            2287     12.7489E-03     16.9290E-03    -4.21787E+06     58.7295E+06     76.6262E+06    -584.707E+03    -312.310E-03     606.214E-03    -293.904E-03     138.637E-03    -317.386E-03     611.261E-03    -293.600E-03     102.888E-03
            2288     12.0942E-03     16.6641E-03    -7.92015E+06     56.3923E+06     73.5024E+06    -890.963E+03    -317.711E-03     610.500E-03    -292.789E-03     176.846E-03    -324.907E-03     617.655E-03    -292.492E-03     132.647E-03
            2289     11.4347E-03     16.3781E-03    -12.0495E+06     52.4403E+06     70.7664E+06    -1.17851E+06    -323.025E-03     614.291E-03    -291.266E-03     175.955E-03    -330.123E-03     621.327E-03    -290.970E-03     131.416E-03
            2290     10.7861E-03     16.0885E-03    -16.6663E+06     47.5613E+06     70.5845E+06    -1.53982E+06    -326.554E-03     615.841E-03    -289.287E-03     174.833E-03    -333.664E-03     622.857E-03    -288.978E-03     129.748E-03
            2291     10.1337E-03     15.7849E-03    -22.0851E+06     37.8720E+06     66.5216E+06    -2.44535E+06    -328.433E-03     615.257E-03    -286.824E-03     165.576E-03    -335.028E-03     621.717E-03    -286.514E-03     121.868E-03
            2292     9.48695E-03     15.4918E-03    -27.8670E+06     30.3111E+06     60.5150E+06    -3.02221E+06    -328.123E-03     612.011E-03    -283.888E-03     151.769E-03    -334.010E-03     617.735E-03    -283.589E-03     110.360E-03
            2293     8.83900E-03     15.2077E-03    -33.8251E+06     23.6693E+06     52.1008E+06    -3.23989E+06    -325.683E-03     606.209E-03    -280.526E-03     136.595E-03    -330.811E-03     611.154E-03    -280.250E-03     98.1034E-03
            2294     8.18900E-03     14.9397E-03    -39.7568E+06     15.5123E+06     42.4226E+06    -3.62219E+06    -321.363E-03     598.174E-03    -276.811E-03     119.795E-03    -325.699E-03     602.307E-03    -276.564E-03     84.6714E-03
            2295     7.53660E-03     14.6878E-03    -45.8941E+06     6.80375E+06     33.1072E+06    -3.52864E+06    -314.830E-03     587.685E-03    -272.854E-03     102.088E-03    -318.381E-03     591.006E-03    -272.632E-03     70.7824E-03
            2296     6.87930E-03     14.4653E-03    -52.8479E+06    -6.54847E+06     22.2794E+06    -2.60239E+06    -306.612E-03     575.409E-03    -268.797E-03     85.1633E-03    -309.440E-03     577.966E-03    -268.600E-03     57.8545E-03
            2297     6.21626E-03     14.2646E-03    -60.7729E+06    -20.8194E+06     10.7052E+06    -916.066E+03    -297.257E-03     562.050E-03    -264.793E-03     69.5992E-03    -299.464E-03     563.940E-03    -264.621E-03     46.2636E-03
            2298     5.54657E-03     14.0930E-03    -69.1450E+06    -32.2433E+06    -2.36044E+06     934.228E+03    -287.630E-03     548.599E-03    -260.968E-03     55.5138E-03    -289.322E-03     549.939E-03    -260.833E-03     35.9465E-03
            2299     4.87113E-03     13.9443E-03    -77.6968E+06    -49.5795E+06    -19.2894E+06     1.66288E+06    -278.413E-03     535.834E-03    -257.421E-03     43.5707E-03    -279.688E-03     536.714E-03    -257.333E-03     27.4064E-03
            2300     4.18810E-03     13.8193E-03    -86.6655E+06    -80.5847E+06    -37.2346E+06     1.58019E+06    -269.957E-03     524.207E-03    -254.250E-03     33.5946E-03    -270.891E-03     524.653E-03    -254.194E-03     20.5047E-03
            2301     3.49920E-03     13.7167E-03    -95.7068E+06    -109.300E+06    -55.2558E+06     2.09874E+06    -262.574E-03     514.061E-03    -251.487E-03     25.4512E-03    -263.251E-03     514.167E-03    -251.466E-03     15.0933E-03
            2302     2.80623E-03     13.6351E-03    -104.070E+06    -127.872E+06    -74.5876E+06     2.69606E+06    -256.278E-03     505.433E-03    -249.155E-03     18.7321E-03    -256.770E-03     505.313E-03    -249.192E-03     10.8270E-03
            2303     2.10864E-03     13.5729E-03    -111.025E+06    -147.660E+06    -93.0870E+06     2.46091E+06    -251.177E-03     498.520E-03    -247.343E-03     13.2199E-03    -251.530E-03     498.218E-03    -247.433E-03     7.50310E-03
            2304     1.40668E-03     13.5282E-03    -116.255E+06    -165.523E+06    -107.981E+06     2.17758E+06    -247.560E-03     493.687E-03    -246.127E-03     8.43056E-03    -247.813E-03     493.246E-03    -246.258E-03     4.68638E-03
            2305     702.768E-06     13.5003E-03    -119.956E+06    -176.992E+06    -117.631E+06     1.48602E+06    -246.296E-03     491.231E-03    -244.935E-03     4.26225E-03    -246.493E-03     490.707E-03    -245.092E-03     2.25704E-03
            2306     12.7526E-03     15.1930E-03    -3.72351E+06     59.6088E+06     77.0570E+06    -1.14966E+06    -318.346E-03     611.956E-03    -293.610E-03     144.894E-03    -323.731E-03     617.315E-03    -293.305E-03     107.512E-03
            2307     12.0955E-03     14.9130E-03     -7.2978E+06     57.8863E+06     73.8444E+06    -1.95061E+06    -326.570E-03     618.650E-03    -292.080E-03     180.328E-03    -334.069E-03     626.114E-03    -291.784E-03     134.244E-03
            2308     11.4519E-03     14.6307E-03    -11.1974E+06     52.6628E+06     71.8764E+06    -2.61368E+06    -332.017E-03     622.024E-03    -290.008E-03     175.730E-03    -339.239E-03     629.186E-03    -289.708E-03     129.760E-03
            2309     10.8030E-03     14.3363E-03    -15.8460E+06     47.8460E+06     72.3880E+06    -2.11719E+06    -336.309E-03     623.669E-03    -287.360E-03     169.284E-03    -343.352E-03     630.617E-03    -287.044E-03     123.121E-03
            2310     10.1640E-03     14.0368E-03    -21.2501E+06      39.894E+06     68.5011E+06    -1.76652E+06    -337.341E-03     621.454E-03    -284.113E-03     155.887E-03    -343.734E-03     627.719E-03    -283.798E-03     111.566E-03
            2311     9.52126E-03     13.7521E-03    -26.9839E+06     32.0151E+06     61.8926E+06    -2.61166E+06    -336.018E-03     616.350E-03    -280.332E-03     139.810E-03    -341.633E-03     621.808E-03    -280.030E-03     98.1431E-03
            2312     8.87833E-03     13.4792E-03    -33.0471E+06     24.6574E+06     52.4242E+06    -3.53089E+06    -332.938E-03     608.987E-03    -276.049E-03     121.566E-03    -337.718E-03     613.592E-03    -275.775E-03     83.1343E-03
            2313     8.23443E-03     13.2246E-03    -39.5049E+06     15.3407E+06     41.3277E+06    -3.79119E+06    -326.261E-03     597.642E-03    -271.382E-03     101.491E-03    -330.175E-03     601.359E-03    -271.140E-03     67.0161E-03
            2314     7.58473E-03     12.9968E-03    -46.6091E+06     5.07767E+06     30.3315E+06    -3.42891E+06    -316.715E-03     583.258E-03    -266.543E-03     82.4224E-03    -319.832E-03     586.148E-03    -266.331E-03     52.2601E-03
            2315     6.92859E-03     12.7924E-03    -54.0158E+06    -9.76811E+06     18.0859E+06    -2.04068E+06    -305.872E-03     567.592E-03    -261.720E-03     65.0733E-03    -308.298E-03     569.746E-03    -261.537E-03     39.2008E-03
            2316     6.26529E-03     12.6179E-03    -61.5515E+06    -24.4422E+06     5.78478E+06    -77.1209E+03    -294.412E-03     551.471E-03    -257.059E-03     50.1054E-03    -296.270E-03     553.011E-03    -256.905E-03     28.2972E-03
            2317     5.59369E-03     12.4668E-03     -69.474E+06    -34.9046E+06    -6.70519E+06     1.63161E+06    -283.105E-03     535.781E-03    -252.676E-03     38.0656E-03    -284.529E-03     536.856E-03    -252.558E-03     19.9384E-03
            2318     4.91392E-03     12.3398E-03    -78.1102E+06    -49.1847E+06    -22.7371E+06     3.54575E+06    -272.460E-03     521.116E-03    -248.656E-03     28.1609E-03    -273.540E-03     521.810E-03    -248.585E-03     13.3452E-03
            2319     4.22717E-03     12.2349E-03    -87.4691E+06    -77.1132E+06    -40.4524E+06     4.91454E+06    -262.723E-03     507.820E-03    -245.097E-03     20.3631E-03    -263.526E-03     508.154E-03    -245.060E-03     8.47378E-03
            2320     3.53378E-03     12.1479E-03    -96.5380E+06    -106.127E+06    -57.9282E+06     4.27079E+06    -254.247E-03     496.295E-03    -242.048E-03     14.2035E-03    -254.837E-03     496.330E-03    -242.044E-03     4.85235E-03
            2321     2.83360E-03     12.0805E-03    -104.279E+06    -124.961E+06    -76.4544E+06     3.04044E+06    -247.321E-03     486.829E-03    -239.508E-03     9.73326E-03    -247.760E-03     486.670E-03    -239.558E-03     2.59125E-03
            2322     2.12919E-03     12.0281E-03    -110.763E+06    -144.472E+06    -94.0806E+06     2.90061E+06    -242.069E-03     479.547E-03    -237.478E-03     6.35112E-03    -242.393E-03     479.230E-03    -237.578E-03     1.19696E-03
            2323     1.42231E-03     11.9922E-03    -115.745E+06    -161.397E+06    -107.361E+06     2.46967E+06    -238.194E-03     474.120E-03    -235.926E-03     3.77096E-03    -238.436E-03     473.683E-03    -236.061E-03     427.627E-06
            2324     712.921E-06     11.9674E-03    -118.392E+06    -171.068E+06    -116.478E+06     1.48552E+06    -235.915E-03     470.401E-03    -234.486E-03     2.40744E-03    -236.110E-03     469.898E-03    -234.648E-03     642.310E-06
            2325     12.7515E-03     13.4350E-03    -3.45742E+06     62.2830E+06     76.2484E+06    -2.01506E+06    -325.906E-03     619.145E-03    -293.239E-03     145.829E-03    -331.402E-03     624.628E-03    -292.943E-03     107.379E-03
            2326     12.1110E-03     13.1514E-03    -7.67427E+06     58.5801E+06     72.7725E+06    -2.87952E+06    -335.592E-03     626.817E-03    -291.226E-03     178.029E-03    -343.211E-03     634.405E-03    -290.936E-03     130.356E-03
            2327     11.4632E-03     12.8689E-03    -12.6031E+06     52.3159E+06     69.6738E+06    -3.00609E+06    -342.681E-03     631.184E-03    -288.503E-03     170.560E-03    -349.946E-03     638.389E-03    -288.212E-03     123.002E-03
            2328     10.8308E-03     12.5630E-03    -17.9110E+06     46.7935E+06     70.0955E+06    -3.26314E+06    -346.339E-03     631.427E-03    -285.088E-03     161.803E-03    -353.369E-03     638.359E-03    -284.780E-03     114.257E-03
            2329     10.1937E-03     12.2810E-03    -23.0028E+06     40.2590E+06     66.9586E+06    -3.83163E+06    -347.417E-03     628.402E-03    -280.985E-03     145.494E-03    -353.718E-03     634.575E-03    -280.675E-03     99.9199E-03
            2330     9.55851E-03     12.0011E-03    -28.1589E+06     32.8794E+06     60.3875E+06    -4.05479E+06    -345.831E-03     622.051E-03    -276.221E-03     125.049E-03    -351.225E-03     627.295E-03    -275.926E-03     82.5183E-03
            2331     8.92422E-03     11.7425E-03    -33.7536E+06     24.2623E+06     50.2626E+06    -3.82502E+06    -339.923E-03     610.837E-03    -270.914E-03     102.383E-03    -344.359E-03     615.103E-03    -270.649E-03     63.8307E-03
            2332     8.28469E-03     11.5104E-03    -40.0284E+06     14.3675E+06     38.7048E+06    -2.92259E+06    -329.898E-03     595.212E-03    -265.313E-03     81.0285E-03    -333.437E-03     598.557E-03    -265.083E-03     47.0680E-03
            2333     7.63847E-03     11.3099E-03    -47.0371E+06     3.62113E+06     27.4072E+06    -1.51850E+06    -317.598E-03     577.272E-03    -259.674E-03     63.1246E-03    -320.388E-03     579.838E-03    -259.474E-03     33.8126E-03
            2334     6.98329E-03     11.1337E-03    -54.8398E+06    -12.4161E+06     14.6362E+06     126.423E+03    -304.181E-03     558.365E-03    -254.185E-03     47.5683E-03    -306.337E-03     560.249E-03    -254.014E-03     22.7414E-03
            2335     6.31790E-03     10.9870E-03    -62.9481E+06    -27.2310E+06     2.07676E+06     1.73514E+06    -290.661E-03     539.652E-03    -248.991E-03     34.7861E-03    -292.320E-03     540.990E-03    -248.850E-03     14.0036E-03
            2336     5.64335E-03     10.8620E-03    -71.7247E+06    -37.7378E+06    -10.8280E+06     3.74544E+06    -277.739E-03     521.927E-03    -244.188E-03     24.9855E-03    -279.028E-03     522.862E-03    -244.083E-03     7.76700E-03
            2337     4.95970E-03     10.7597E-03    -81.0337E+06    -51.5576E+06    -26.8972E+06     6.25771E+06    -265.825E-03     505.668E-03    -239.843E-03     17.2615E-03    -266.821E-03     506.272E-03    -239.785E-03     3.21383E-03
            2338     4.26757E-03     10.6747E-03    -89.5616E+06    -72.6485E+06    -44.4556E+06     7.20346E+06    -255.232E-03     491.250E-03    -236.018E-03     11.6349E-03    -255.994E-03     491.564E-03    -236.005E-03     315.521E-06
            2339     3.56770E-03     10.6080E-03    -96.8662E+06    -96.7120E+06    -61.5614E+06     5.01194E+06    -246.121E-03     478.870E-03    -232.750E-03     7.67904E-03    -246.694E-03     478.932E-03    -232.777E-03    -1.27806E-03
            2340     2.86215E-03     10.5540E-03    -103.372E+06    -121.589E+06    -76.5885E+06     2.79633E+06    -238.756E-03     468.797E-03    -230.041E-03     4.65325E-03    -239.180E-03     468.640E-03    -230.098E-03    -2.20798E-03
            2341     2.15143E-03     10.5138E-03    -109.012E+06    -141.486E+06    -91.4775E+06     2.49263E+06    -232.951E-03     460.805E-03    -227.853E-03     2.62509E-03    -233.266E-03     460.490E-03    -227.948E-03    -2.34462E-03
            2342     1.43643E-03     10.4843E-03    -113.346E+06    -156.528E+06    -104.860E+06     1.57150E+06    -228.704E-03     454.874E-03    -226.170E-03     1.65329E-03    -228.944E-03     454.453E-03    -226.303E-03    -1.62445E-03
            2343     718.402E-06     10.4690E-03    -116.313E+06    -167.256E+06    -113.408E+06     780.020E+03    -225.649E-03     450.806E-03    -225.157E-03     977.724E-06    -225.842E-03     450.316E-03    -225.313E-03    -789.899E-06
            2344     12.7682E-03     11.6803E-03    -3.82844E+06     66.4062E+06     75.1579E+06    -1.75492E+06    -337.325E-03     630.043E-03    -292.718E-03     150.163E-03    -343.110E-03     635.832E-03    -292.433E-03     109.806E-03
            2345     12.1171E-03     11.3768E-03    -8.98751E+06     59.7189E+06     70.8016E+06    -2.56957E+06    -346.488E-03     636.565E-03    -290.077E-03     178.242E-03    -354.378E-03     644.428E-03    -289.796E-03     128.545E-03
            2346     11.4914E-03     11.0791E-03    -13.3433E+06     52.7669E+06     68.5662E+06    -2.88445E+06    -353.444E-03     640.098E-03    -286.654E-03     166.572E-03    -360.861E-03     647.457E-03    -286.368E-03     117.168E-03
            2347     10.8564E-03     10.7929E-03    -17.9783E+06     47.7101E+06     68.6207E+06    -3.58390E+06    -358.444E-03     640.831E-03    -282.387E-03     153.311E-03    -365.515E-03     647.812E-03    -282.087E-03     103.725E-03
            2348     10.2295E-03     10.4996E-03    -23.2052E+06     40.7473E+06     63.9519E+06    -4.37323E+06    -359.867E-03     637.101E-03    -277.235E-03     128.931E-03    -365.968E-03     643.088E-03    -276.940E-03     81.6462E-03
            2349     9.60667E-03     10.2400E-03    -29.0453E+06     32.0228E+06     56.4494E+06    -4.59151E+06    -354.900E-03     626.270E-03    -271.370E-03     103.341E-03    -359.943E-03     631.170E-03    -271.092E-03     59.9920E-03
            2350     8.97757E-03     10.0007E-03    -35.4301E+06     21.8556E+06     45.5209E+06    -3.63838E+06    -344.010E-03     609.138E-03    -265.128E-03     80.6565E-03    -348.069E-03     613.028E-03    -264.881E-03     42.2932E-03
            2351     8.34053E-03     9.80376E-03    -42.1128E+06     11.0914E+06     33.1580E+06    -1.79928E+06    -330.269E-03     589.100E-03    -258.831E-03     61.4383E-03    -333.477E-03     592.112E-03    -258.620E-03     28.2351E-03
            2352     7.69313E-03     9.63019E-03    -49.1898E+06    -316.110E+03     21.4808E+06     836.141E+03    -315.156E-03     567.860E-03    -252.705E-03     46.7412E-03    -317.703E-03     570.179E-03    -252.526E-03     18.3498E-03
            2353     7.03545E-03     9.49106E-03    -56.9829E+06    -14.4232E+06     10.0866E+06     3.27755E+06    -299.666E-03     546.580E-03    -246.914E-03     35.7254E-03    -301.694E-03     548.332E-03    -246.760E-03     11.6892E-03
            2354     6.36717E-03     9.37265E-03    -65.2763E+06    -28.0343E+06    -1.13415E+06     4.66195E+06    -284.919E-03     526.477E-03    -241.559E-03     27.4959E-03    -286.538E-03     527.773E-03    -241.429E-03     7.29428E-03
            2355     5.68830E-03     9.27919E-03    -73.2207E+06    -39.8697E+06    -12.2487E+06     5.81173E+06    -271.248E-03     507.940E-03    -236.691E-03     21.3751E-03    -272.545E-03     508.873E-03    -236.589E-03     4.53714E-03
            2356     4.99947E-03     9.20095E-03    -80.3311E+06    -52.3409E+06    -25.1785E+06     7.01449E+06    -258.847E-03     491.196E-03    -232.349E-03     16.6516E-03    -259.875E-03     491.828E-03    -232.283E-03     2.79239E-03
            2357     4.30197E-03     9.14056E-03    -86.9482E+06    -66.7650E+06    -40.8272E+06     6.71595E+06    -248.051E-03     476.605E-03    -228.554E-03     12.9294E-03    -248.853E-03     476.981E-03    -228.536E-03     1.68067E-03
            2358     3.59693E-03     9.09152E-03    -93.6090E+06    -87.4988E+06    -58.1812E+06     5.01853E+06    -239.081E-03     464.383E-03    -225.302E-03     10.0816E-03    -239.692E-03     464.520E-03    -225.331E-03     1.12253E-03
            2359     2.88558E-03     9.05343E-03    -100.460E+06    -116.246E+06    -74.1982E+06     3.02203E+06    -231.571E-03     454.172E-03    -222.602E-03     7.62116E-03    -232.020E-03     454.066E-03    -222.659E-03     711.596E-06
            2360     2.16912E-03     9.02557E-03    -106.490E+06    -138.478E+06    -88.3830E+06     962.801E+03    -225.509E-03     445.976E-03    -220.467E-03     5.68065E-03    -225.840E-03     445.691E-03    -220.554E-03     617.439E-06
            2361     1.44833E-03     9.00661E-03    -111.120E+06    -153.884E+06    -101.457E+06     305.024E+03    -221.124E-03     440.054E-03    -218.930E-03     3.86275E-03    -221.369E-03     439.650E-03    -219.053E-03     504.960E-06
            2362     725.650E-06     8.99395E-03    -114.228E+06    -165.391E+06    -111.829E+06     178.333E+03    -218.524E-03     436.545E-03    -218.022E-03     1.83307E-03    -218.713E-03     436.064E-03    -218.176E-03     29.0904E-06
            2363     12.7615E-03     9.88495E-03    -4.20013E+06     69.6282E+06     76.4873E+06    -792.265E+03    -350.040E-03     642.197E-03    -292.158E-03     150.988E-03    -356.086E-03     648.254E-03    -291.870E-03     108.744E-03
            2364     12.1443E-03     9.58072E-03    -8.09320E+06     62.0566E+06     71.4699E+06    -1.60090E+06    -359.472E-03     648.268E-03    -288.796E-03     181.920E-03    -367.899E-03     656.677E-03    -288.517E-03     129.217E-03
            2365     11.5074E-03     9.29039E-03    -12.9599E+06     54.6379E+06     66.9382E+06    -2.69674E+06    -370.124E-03     654.563E-03    -284.440E-03     163.017E-03    -377.819E-03     662.214E-03    -284.165E-03     110.170E-03
            2366     10.8918E-03     8.98125E-03    -17.4354E+06     49.6043E+06     66.5090E+06    -3.46003E+06    -375.310E-03     654.280E-03    -278.971E-03     135.866E-03    -382.178E-03     661.078E-03    -278.685E-03     83.5400E-03
            2367     10.2805E-03     8.70932E-03    -22.3602E+06     41.2939E+06     61.2625E+06    -3.32418E+06    -370.906E-03     643.520E-03    -272.614E-03     106.098E-03    -376.582E-03     649.097E-03    -272.335E-03     57.6979E-03
            2368     9.66152E-03     8.46543E-03    -28.0016E+06     30.4244E+06     52.6533E+06    -2.02217E+06    -359.048E-03     624.888E-03    -265.840E-03     80.2555E-03    -363.583E-03     629.292E-03    -265.581E-03     37.3904E-03
            2369     9.03445E-03     8.27106E-03    -34.6775E+06     18.8566E+06     41.2005E+06    -67.0958E+03    -342.876E-03     601.933E-03    -259.057E-03     60.9991E-03    -346.502E-03     605.395E-03    -258.828E-03     23.8784E-03
            2370     8.39532E-03     8.10144E-03    -42.1364E+06     6.95002E+06     29.0949E+06     2.22806E+06    -325.238E-03     577.789E-03    -252.552E-03     47.7689E-03    -328.177E-03     580.528E-03    -252.355E-03     15.9243E-03
            2371     7.74503E-03     7.97308E-03    -49.9183E+06    -4.75621E+06     18.3518E+06     4.36355E+06    -307.632E-03     554.130E-03    -246.498E-03     39.0995E-03    -310.046E-03     556.303E-03    -246.327E-03     11.9129E-03
            2372     7.08067E-03     7.86458E-03    -57.0664E+06    -15.2964E+06     9.44896E+06     5.71436E+06    -290.995E-03     531.986E-03    -240.991E-03     34.1236E-03    -293.002E-03     533.714E-03    -240.839E-03     11.0151E-03
            2373     6.40496E-03     7.78194E-03    -63.6919E+06    -26.4986E+06     142.462E+03     6.00666E+06    -275.996E-03     512.056E-03    -236.059E-03     30.8365E-03    -277.652E-03     513.394E-03    -235.928E-03     11.3468E-03
            2374     5.71866E-03     7.71451E-03    -70.5024E+06    -38.8358E+06    -9.07852E+06     5.72965E+06    -262.703E-03     494.414E-03    -231.712E-03     28.7350E-03    -264.063E-03     495.416E-03    -231.599E-03     12.4237E-03
            2375     5.02382E-03     7.66383E-03    -77.8004E+06    -50.6953E+06    -19.1507E+06     5.23173E+06    -251.257E-03     479.184E-03    -227.927E-03     26.9835E-03    -252.370E-03     479.899E-03    -227.837E-03     13.4593E-03
            2376     4.32040E-03     7.62419E-03    -85.6103E+06    -62.8337E+06    -33.7495E+06     5.16626E+06    -241.675E-03     466.329E-03    -224.653E-03     24.9743E-03    -242.569E-03     466.795E-03    -224.607E-03     13.9594E-03
            2377     3.61097E-03     7.59284E-03    -93.7127E+06    -82.0716E+06    -51.8527E+06     4.95997E+06    -233.561E-03     455.447E-03    -221.886E-03     22.5348E-03    -234.258E-03     455.672E-03    -221.890E-03     13.7670E-03
            2378     2.89572E-03     7.57091E-03    -101.413E+06    -108.636E+06    -71.0959E+06     2.82308E+06    -226.937E-03     446.583E-03    -219.646E-03     19.4802E-03    -227.458E-03     446.565E-03    -219.696E-03     12.6962E-03
            2379     2.17538E-03     7.55457E-03    -108.162E+06    -134.423E+06    -89.4546E+06     3.92623E+03    -221.953E-03     439.875E-03    -217.922E-03     15.7420E-03    -222.328E-03     439.647E-03    -218.017E-03     10.7616E-03
            2380     1.45233E-03     7.54344E-03    -113.192E+06    -154.758E+06    -103.779E+06    -1.02225E+06    -218.421E-03     435.136E-03    -216.715E-03     11.1592E-03    -218.686E-03     434.750E-03    -216.846E-03     7.87557E-03
            2381     725.502E-06     7.53786E-03    -116.320E+06    -165.770E+06    -113.210E+06    -539.674E+03    -216.263E-03     432.423E-03    -216.160E-03     6.48021E-03    -216.465E-03     431.951E-03    -216.318E-03     4.71705E-03
            2382     12.7878E-03     8.08475E-03    -5.92326E+06     70.6715E+06     73.8269E+06    -1.32114E+06    -365.415E-03     657.163E-03    -291.748E-03     166.121E-03    -372.297E-03     664.055E-03    -291.473E-03     119.833E-03
            2383     12.1438E-03     7.77541E-03    -9.30658E+06     63.7861E+06     69.7410E+06    -1.57242E+06    -385.172E-03     672.487E-03    -287.314E-03     182.725E-03    -394.083E-03     681.385E-03    -287.045E-03     124.626E-03
            2384     11.5438E-03     7.43946E-03    -11.1879E+06     58.3088E+06     66.5257E+06    -2.42655E+06    -394.195E-03     675.639E-03    -281.444E-03     143.917E-03    -401.618E-03     683.045E-03    -281.180E-03     87.0618E-03
            2385     10.9448E-03     7.15581E-03    -15.0289E+06     50.9293E+06     64.1678E+06    -2.45961E+06    -389.905E-03     664.461E-03    -274.556E-03     109.132E-03    -396.062E-03     670.573E-03    -274.287E-03     55.8720E-03
            2386     10.3363E-03     6.90241E-03    -20.3728E+06     38.5866E+06     57.3594E+06    -877.856E+03    -375.430E-03     642.688E-03    -267.258E-03     79.1181E-03    -380.282E-03     647.455E-03    -266.997E-03     32.1219E-03
            2387     9.72018E-03     6.70615E-03    -26.4171E+06     26.1410E+06     48.5063E+06     1.79562E+06    -354.851E-03     614.962E-03    -260.111E-03     58.0275E-03    -358.677E-03     618.660E-03    -259.868E-03     17.7200E-03
            2388     9.08847E-03     6.54778E-03    -32.9067E+06     14.9666E+06     38.7461E+06     4.69695E+06    -333.094E-03     586.574E-03    -253.481E-03     48.0865E-03    -336.258E-03     589.571E-03    -253.261E-03     13.6744E-03
            2389     8.44211E-03     6.42959E-03    -39.2773E+06     4.55306E+06     29.8811E+06     6.67285E+06    -312.467E-03     560.004E-03    -247.536E-03     44.6945E-03    -315.149E-03     562.482E-03    -247.337E-03     15.4195E-03
            2390     7.77920E-03     6.33380E-03    -45.3834E+06    -4.67024E+06     22.6204E+06     7.14330E+06    -294.154E-03     536.474E-03    -242.320E-03     44.2213E-03    -296.446E-03     538.528E-03    -242.134E-03     19.3533E-03
            2391     7.10588E-03     6.26579E-03    -51.6279E+06    -13.2193E+06     16.0346E+06     6.66836E+06    -278.321E-03     516.120E-03    -237.799E-03     45.0895E-03    -280.278E-03     517.805E-03    -237.624E-03     24.0456E-03
            2392     6.42063E-03     6.20998E-03    -58.4937E+06    -24.4854E+06     7.28572E+06     6.27125E+06    -264.677E-03     498.602E-03    -233.926E-03     45.8646E-03    -266.327E-03     499.942E-03    -233.769E-03     28.1850E-03
            2393     5.72658E-03     6.17139E-03    -66.2521E+06    -36.3321E+06    -2.24113E+06     6.07316E+06    -253.401E-03     484.057E-03    -230.657E-03     45.6717E-03    -254.777E-03     485.079E-03    -230.519E-03     30.9155E-03
            2394     5.02360E-03     6.14063E-03    -75.3226E+06    -47.4133E+06    -11.8520E+06     5.53419E+06    -244.259E-03     472.185E-03    -227.926E-03     44.5108E-03    -245.402E-03     472.930E-03    -227.808E-03     32.2921E-03
            2395     4.31622E-03     6.11812E-03    -85.2168E+06    -60.1627E+06    -24.5345E+06     4.47584E+06    -236.833E-03     462.503E-03    -225.670E-03     42.0482E-03    -237.770E-03     462.998E-03    -225.582E-03     32.0801E-03
            2396     3.60290E-03     6.10295E-03    -94.4835E+06    -77.3412E+06    -42.1863E+06     2.70977E+06    -230.934E-03     454.783E-03    -223.849E-03     38.2514E-03    -231.681E-03     455.042E-03    -223.811E-03     30.2780E-03
            2397     2.88563E-03     6.09155E-03    -102.566E+06    -102.596E+06    -64.6574E+06     559.768E+03    -226.682E-03     449.099E-03    -222.417E-03     32.9135E-03    -227.244E-03     449.120E-03    -222.443E-03     26.7288E-03
            2398     2.16662E-03     6.08389E-03    -109.674E+06    -131.971E+06    -86.7245E+06    -912.259E+03    -223.711E-03     445.031E-03    -221.319E-03     25.9244E-03    -224.112E-03     444.822E-03    -221.403E-03     21.3764E-03
            2399     1.44487E-03     6.07905E-03    -115.869E+06    -156.573E+06    -104.645E+06    -1.50875E+06    -221.694E-03     442.183E-03    -220.489E-03     17.8607E-03    -221.975E-03     441.796E-03    -220.617E-03     14.8458E-03
            2400     724.048E-06     6.07529E-03    -120.459E+06    -169.406E+06    -117.002E+06    -1.47772E+06    -220.104E-03     440.179E-03    -220.075E-03     9.57921E-03    -220.318E-03     439.699E-03    -220.240E-03     7.96107E-03
            2401     12.7529E-03     6.23943E-03    -3.37087E+06     75.2291E+06     72.1080E+06     535.371E+03    -394.156E-03     685.018E-03    -290.862E-03     157.734E-03    -400.602E-03     691.501E-03    -290.606E-03     109.656E-03
            2402     12.1825E-03     5.86701E-03    -6.69214E+06     70.7985E+06     66.7495E+06    -3.08335E+06    -417.419E-03     702.095E-03    -284.676E-03     152.733E-03    -425.394E-03     710.102E-03    -284.435E-03     91.2778E-03
            2403     11.5969E-03     5.57400E-03    -9.42464E+06     57.3989E+06     60.4244E+06    -3.63570E+06    -414.189E-03     691.276E-03    -277.087E-03     105.131E-03    -420.360E-03     697.463E-03    -276.854E-03     47.8927E-03
            2404     11.0017E-03     5.30503E-03    -13.4345E+06     44.4896E+06     57.0878E+06    -315.119E+03    -393.829E-03     663.005E-03    -269.176E-03     71.4679E-03    -398.567E-03     667.709E-03    -268.935E-03     21.5702E-03
            2405     10.4007E-03     5.10845E-03    -18.5721E+06     33.0245E+06     52.8219E+06     3.50050E+06    -365.716E-03     627.461E-03    -261.746E-03     51.6680E-03    -369.376E-03     631.033E-03    -261.503E-03     9.79415E-03
            2406     9.77461E-03     4.96694E-03    -24.5969E+06     22.3515E+06     47.3968E+06     5.78021E+06    -337.778E-03     593.008E-03    -255.230E-03     47.9791E-03    -340.842E-03     595.935E-03    -254.990E-03     13.0170E-03
            2407     9.12855E-03     4.86372E-03    -30.4472E+06     13.0115E+06     41.1271E+06     6.74479E+06    -313.869E-03     563.578E-03    -249.709E-03     50.7195E-03    -316.513E-03     566.048E-03    -249.478E-03     21.5499E-03
            2408     8.46459E-03     4.78566E-03    -35.5939E+06     4.83017E+06     34.7463E+06     7.06744E+06    -293.801E-03     538.914E-03    -245.113E-03     54.6289E-03    -296.079E-03     540.989E-03    -244.895E-03     30.3373E-03
            2409     7.78922E-03     4.73013E-03    -40.7742E+06    -2.83899E+06     29.0604E+06     7.28065E+06    -277.418E-03     518.766E-03    -241.348E-03     58.3681E-03    -279.378E-03     520.493E-03    -241.140E-03     38.1020E-03
            2410     7.10119E-03     4.68705E-03    -47.3247E+06    -11.0442E+06     24.0599E+06     7.46842E+06    -264.452E-03     502.754E-03    -238.302E-03     60.8327E-03    -266.136E-03     504.166E-03    -238.097E-03     43.8663E-03
            2411     6.40620E-03     4.65942E-03    -55.2462E+06    -21.9507E+06     16.7559E+06     7.12413E+06    -254.360E-03     490.207E-03    -235.847E-03     61.7740E-03    -255.798E-03     491.327E-03    -235.651E-03     47.5443E-03
            2412     5.70403E-03     4.63686E-03    -63.5229E+06    -32.9294E+06     7.87381E+06     6.00584E+06    -246.642E-03     480.520E-03    -233.878E-03     60.6435E-03    -247.854E-03     481.370E-03    -233.699E-03     48.7409E-03
            2413     4.99929E-03     4.62273E-03    -71.3506E+06    -42.4524E+06    -2.76815E+06     4.01624E+06    -240.716E-03     473.026E-03    -232.310E-03     57.4855E-03    -241.725E-03     473.640E-03    -232.159E-03     47.5649E-03
            2414     4.28852E-03     4.61208E-03    -78.2654E+06    -53.5006E+06    -18.2280E+06     454.259E+03    -236.278E-03     467.352E-03    -231.074E-03     52.3745E-03    -237.098E-03     467.756E-03    -230.974E-03     44.1566E-03
            2415     3.57629E-03     4.60553E-03    -84.9023E+06    -75.4085E+06    -36.4569E+06    -2.27515E+06    -233.323E-03     463.443E-03    -230.120E-03     45.5427E-03    -233.959E-03     463.612E-03    -230.070E-03     38.8589E-03
            2416     2.86285E-03     4.60002E-03    -92.2424E+06    -103.676E+06    -57.3516E+06    -1.65931E+06    -231.230E-03     460.607E-03    -229.377E-03     37.5522E-03    -231.700E-03     460.543E-03    -229.380E-03     32.3195E-03
            2417     2.14775E-03     4.59656E-03    -100.310E+06    -133.126E+06    -78.9654E+06    -513.023E+03    -229.755E-03     458.570E-03    -228.816E-03     28.9650E-03    -230.089E-03     458.300E-03    -228.872E-03     25.0897E-03
            2418     1.43320E-03     4.59449E-03    -107.746E+06    -158.205E+06    -97.2224E+06     147.573E+03    -228.796E-03     457.224E-03    -228.428E-03     20.2521E-03    -229.033E-03     456.793E-03    -228.528E-03     17.6606E-03
            2419     715.965E-06     4.59394E-03    -112.698E+06    -171.299E+06    -110.151E+06     365.158E+03    -228.294E-03     456.457E-03    -228.164E-03     11.3270E-03    -228.474E-03     455.942E-03    -228.303E-03     9.92774E-03
            2420     12.8276E-03     4.33636E-03    -4.61602E+06     77.1767E+06     67.3266E+06    -4.13647E+06    -446.364E-03     734.942E-03    -288.578E-03     144.500E-03    -452.405E-03     741.048E-03    -288.347E-03     92.4100E-03
            2421     12.2367E-03     3.93873E-03    -3.01099E+06     73.0752E+06     63.7601E+06    -2.98711E+06    -446.171E-03     726.377E-03    -280.206E-03     103.479E-03    -452.209E-03     732.509E-03    -279.989E-03     44.7404E-03
            2422     11.6647E-03     3.66488E-03    -7.34649E+06     53.6231E+06     54.5024E+06     74.2988E+03    -414.539E-03     686.090E-03    -271.551E-03     55.8308E-03    -418.510E-03     690.094E-03    -271.346E-03     6.47245E-03
            2423     11.0809E-03     3.47778E-03    -12.8921E+06     35.9370E+06     50.5223E+06     2.94150E+06    -375.506E-03     639.411E-03    -263.905E-03     45.0327E-03    -378.521E-03     642.378E-03    -263.686E-03     5.00867E-03
            2424     10.4523E-03     3.36124E-03    -17.5469E+06     27.5664E+06     50.2912E+06     5.39957E+06    -339.819E-03     597.508E-03    -257.689E-03     48.2159E-03    -342.263E-03     599.850E-03    -257.452E-03     16.9240E-03
            2425     9.80073E-03     3.27814E-03    -21.4971E+06     21.3847E+06     49.6053E+06     6.91315E+06    -312.985E-03     565.777E-03    -252.792E-03     55.3824E-03    -315.096E-03     567.751E-03    -252.544E-03     30.2913E-03
            2426     9.13329E-03     3.21836E-03    -26.1168E+06     14.4895E+06     46.6773E+06     7.14317E+06    -292.458E-03     541.399E-03    -248.941E-03     60.4757E-03    -294.268E-03     543.040E-03    -248.691E-03     40.1691E-03
            2427     8.45495E-03     3.17788E-03    -32.0368E+06     6.41687E+06     41.0025E+06     6.80764E+06    -276.597E-03     522.531E-03    -245.934E-03     63.8891E-03    -278.147E-03     523.878E-03    -245.692E-03     47.2929E-03
            2428     7.76524E-03     3.14801E-03    -38.7091E+06    -1.97107E+06     34.0054E+06     6.75903E+06    -264.569E-03     508.191E-03    -243.623E-03     65.2313E-03    -265.897E-03     509.281E-03    -243.394E-03     51.5145E-03
            2429     7.07034E-03     3.12814E-03    -44.8806E+06    -9.43463E+06     27.4321E+06     6.59642E+06    -255.725E-03     497.600E-03    -241.875E-03     64.3701E-03    -256.861E-03     498.466E-03    -241.659E-03     52.8949E-03
            2430     6.36956E-03     3.11260E-03    -50.4649E+06    -17.4097E+06     18.0424E+06     5.17908E+06    -249.560E-03     490.107E-03    -240.547E-03     61.7476E-03    -250.524E-03     490.779E-03    -240.358E-03     52.0209E-03
            2431     5.66695E-03     3.10307E-03    -55.5131E+06    -26.5096E+06     6.60800E+06     2.12628E+06    -245.185E-03     484.723E-03    -239.538E-03     57.7455E-03    -245.994E-03     485.222E-03    -239.386E-03     49.4489E-03
            2432     4.95981E-03     3.09542E-03    -59.9151E+06    -35.1323E+06    -6.87587E+06    -2.03416E+06    -242.184E-03     480.953E-03    -238.768E-03     52.4524E-03    -242.854E-03     481.303E-03    -238.665E-03     45.3517E-03
            2433     4.25399E-03     3.09172E-03    -64.3787E+06    -49.1826E+06    -25.2570E+06    -4.95081E+06    -240.313E-03     478.472E-03    -238.159E-03     46.2980E-03    -240.846E-03     478.672E-03    -238.120E-03     40.2712E-03
            2434     3.54644E-03     3.08735E-03    -69.5614E+06    -80.2727E+06    -42.8690E+06    -4.41873E+06    -239.019E-03     476.722E-03    -237.703E-03     39.4868E-03    -239.412E-03     476.704E-03    -237.700E-03     34.5073E-03
            2435     2.83819E-03     3.08613E-03    -74.7649E+06    -110.910E+06    -56.7921E+06    -1.73258E+06    -238.027E-03     475.404E-03    -237.377E-03     32.2604E-03    -238.305E-03     475.183E-03    -237.392E-03     28.3112E-03
            2436     2.12919E-03     3.08502E-03    -78.9709E+06    -136.083E+06    -68.0599E+06     673.505E+03    -237.319E-03     474.496E-03    -237.177E-03     24.6985E-03    -237.504E-03     474.111E-03    -237.206E-03     21.7575E-03
            2437     1.41834E-03     3.08447E-03    -82.0802E+06    -158.087E+06    -76.6091E+06     1.39037E+06    -236.974E-03     474.095E-03    -237.121E-03     16.6805E-03    -237.087E-03     473.571E-03    -237.155E-03     14.7075E-03
            2438     709.268E-06     3.08427E-03    -83.9987E+06    -169.043E+06    -82.3255E+06     1.14162E+06    -237.124E-03     474.204E-03    -237.080E-03     9.04478E-03    -237.195E-03     473.610E-03    -237.125E-03     7.98298E-03
            2439     12.8319E-03     2.23933E-03    -4.59371E+06     84.5775E+06     70.3027E+06    -3.79089E+06    -534.202E-03     820.999E-03    -286.798E-03     134.951E-03    -538.886E-03     825.810E-03    -286.562E-03     90.4953E-03
            2440     12.3266E-03     1.96319E-03    -7.23710E+06     67.8368E+06     63.3862E+06    -2.14717E+06    -464.610E-03     740.836E-03    -276.227E-03     72.2841E-03    -467.681E-03     744.016E-03    -275.998E-03     35.3546E-03
            2441     11.7483E-03     1.80818E-03    -10.6030E+06     48.6380E+06     56.8173E+06     975.157E+03    -397.499E-03     665.165E-03    -267.666E-03     52.8702E-03    -399.280E-03     666.948E-03    -267.437E-03     24.7637E-03
            2442     11.1086E-03     1.72532E-03    -14.6187E+06     33.9672E+06     52.6210E+06     2.73864E+06    -349.773E-03     611.054E-03    -261.281E-03     49.2820E-03    -351.192E-03     612.398E-03    -261.046E-03     28.3275E-03
            2443     10.4551E-03     1.67009E-03    -17.9283E+06     26.3502E+06      51.384E+06     3.20546E+06    -317.588E-03     574.173E-03    -256.586E-03     48.3850E-03    -318.737E-03     575.213E-03    -256.341E-03     32.8689E-03
            2444     9.78868E-03     1.63003E-03    -21.0727E+06     20.0339E+06     49.7603E+06     3.82160E+06    -295.269E-03     548.359E-03    -253.091E-03     48.3077E-03    -296.225E-03     549.175E-03    -252.840E-03     36.1921E-03
            2445     9.11057E-03     1.60525E-03    -24.2952E+06     14.1162E+06     45.1011E+06     5.31112E+06    -279.191E-03     529.658E-03    -250.467E-03     47.8238E-03    -279.999E-03     530.304E-03    -250.227E-03     38.1072E-03
            2446     8.42259E-03     1.58742E-03    -28.1695E+06     7.47079E+06     37.0294E+06     6.14656E+06    -267.865E-03     516.366E-03    -248.501E-03     46.7953E-03    -268.556E-03     516.879E-03    -248.286E-03     38.8021E-03
            2447     7.73108E-03     1.57600E-03    -32.0117E+06     1.29272E+06     28.5139E+06     5.07333E+06    -259.914E-03     506.947E-03    -247.033E-03     44.6370E-03    -260.507E-03     507.350E-03    -246.846E-03     37.9424E-03
            2448     7.03393E-03     1.56732E-03    -35.6904E+06    -6.07813E+06     19.3836E+06     2.93794E+06    -254.317E-03     500.258E-03    -245.941E-03     41.7539E-03    -254.825E-03     500.561E-03    -245.783E-03     36.0319E-03
            2449     6.33513E-03     1.56107E-03    -39.0961E+06    -12.7221E+06     8.72680E+06     1.00940E+06    -250.375E-03     495.503E-03    -245.128E-03     38.1963E-03    -250.811E-03     495.729E-03    -245.010E-03     33.2483E-03
            2450     5.63306E-03     1.55637E-03    -42.9277E+06    -18.9438E+06    -3.90465E+06    -1.73001E+06    -247.663E-03     492.191E-03    -244.528E-03     34.2544E-03    -248.038E-03     492.357E-03    -244.458E-03     29.9121E-03
            2451     4.93193E-03     1.55384E-03    -47.5435E+06    -30.0575E+06    -17.8146E+06    -4.39721E+06    -245.897E-03     489.993E-03    -244.096E-03     30.4457E-03    -246.213E-03     490.084E-03    -244.073E-03     26.6491E-03
            2452     4.22756E-03     1.55068E-03    -53.0439E+06    -53.6101E+06    -31.6091E+06    -3.93115E+06    -244.773E-03     488.578E-03    -243.805E-03     26.5896E-03    -245.025E-03     488.541E-03    -243.808E-03     23.3398E-03
            2453     3.52345E-03     1.55048E-03    -58.3903E+06    -86.7413E+06    -43.7007E+06    -1.91634E+06    -244.036E-03     487.665E-03    -243.629E-03     22.5630E-03    -244.218E-03     487.457E-03    -243.637E-03     19.8521E-03
            2454     2.81843E-03     1.54966E-03    -61.9441E+06    -115.420E+06    -53.3157E+06    -1.27829E+06    -243.665E-03     487.192E-03    -243.527E-03     18.3188E-03    -243.783E-03     486.833E-03    -243.537E-03     16.1338E-03
            2455     2.11368E-03     1.54976E-03    -63.2986E+06    -139.439E+06    -57.8530E+06    -785.919E+03    -243.547E-03     487.025E-03    -243.477E-03     13.8305E-03    -243.609E-03     486.532E-03    -243.473E-03     12.1868E-03
            2456     1.41021E-03     1.54951E-03    -63.8348E+06    -157.692E+06    -60.3151E+06     8.60932E+03    -243.517E-03     486.948E-03    -243.431E-03     9.41719E-03    -243.535E-03     486.352E-03    -243.412E-03     8.31466E-03
            2457     705.192E-06     1.54860E-03    -64.7184E+06    -166.798E+06    -63.7616E+06     189.057E+03    -243.488E-03     486.777E-03    -243.288E-03     5.31127E-03    -243.482E-03     486.133E-03    -243.272E-03     4.74295E-03


