********************************************************************************
Field Output Report, written Mon Aug 12 22:15:50 2024

Source 1
---------

   ODB: G:/Abaqus_calc_2019/1740/Vel_40/odb/zeides_2a_40_red_2000_cal_50_vel_40_fric_025.odb
   Step: Step-1
   Frame: Increment   4009581: Step Time =   0.3820

Loc 1 : Nodal values from source 1

Output sorted by column "Nodal Label".

Field Output reported at nodes for region: DIE_2A_40_D0_36-1.Region_1
   Computation algorithm: EXTRAPOLATE_COMPUTE_AVERAGE
   Averaged at nodes
   Averaging regions: ODB_REGIONS

      Node Label     COORD.COOR1     COORD.COOR2
                          @Loc 1          @Loc 1
-------------------------------------------------
               1     19.3251E-03     172.778E-03


Field Output reported at nodes for region: DIE_2A_40_D0_36-1.Region_2
   Computation algorithm: EXTRAPOLATE_COMPUTE_AVERAGE
   Averaged at nodes
   Averaging regions: ODB_REGIONS

      Node Label     COORD.COOR1     COORD.COOR2
                          @Loc 1          @Loc 1
-------------------------------------------------
               1     19.3251E-03     172.778E-03


Field Output reported at nodes for part: WIRE-1
   Computation algorithm: EXTRAPOLATE_COMPUTE_AVERAGE
   Averaged at nodes
   Averaging regions: ODB_REGIONS

      Node Label     COORD.COOR1     COORD.COOR2           S.S11           S.S22           S.S33           S.S12         PE.PE11         PE.PE22         PE.PE33         PE.PE12         LE.LE11         LE.LE22         LE.LE33         LE.LE12
                          @Loc 1          @Loc 1          @Loc 1          @Loc 1          @Loc 1          @Loc 1          @Loc 1          @Loc 1          @Loc 1          @Loc 1          @Loc 1          @Loc 1          @Loc 1          @Loc 1
-------------------------------------------------------------------------------------------------------------------------------------------------------------------------------------------------------------------------------------------------
               1     1.31693E-06     84.8452E-03    -131.226E+06    -315.009E+06    -131.952E+06    -278.567E+03    -230.910E-03     462.645E-03    -231.735E-03     14.9505E-03    -230.946E-03     461.482E-03    -231.747E-03     13.1756E-03
               2     14.2904E-03     89.0703E-03    -1.57038E+06     64.7463E+06     83.7880E+06    -1.15507E+06    -229.225E-03     460.532E-03    -231.307E-03     52.6779E-03    -231.818E-03     463.106E-03    -230.980E-03     33.7484E-03
               3     14.0452E-03     177.236E-03     11.7439E+06    -24.4601E+06     32.1184E+06     8.66512E+06     136.671E-03     107.874E-03    -244.546E-03    -5.77915E-03     136.750E-03     107.716E-03    -244.367E-03    -5.66001E-03
               4    -15.9031E-06     169.522E-03    -18.2643E+06    -17.0739E+06    -30.3878E+06    -5.86305E+06    -213.512E-03     438.137E-03    -224.625E-03    -48.7321E-03    -213.898E-03     437.725E-03    -224.726E-03    -49.2704E-03
               5     450.480E-09    -27.7556E-18    -75.7191E+06    -270.178E+06    -75.5263E+06     182.002E+03    -209.324E-03     418.492E-03    -209.168E-03     2.07348E-03    -209.201E-03     417.361E-03    -209.044E-03     1.91839E-03
               6     13.9762E-03    -27.7556E-18     17.2148E+06     99.5593E+06     105.442E+06     14.9416E+06    -539.910E-03     778.744E-03    -238.834E-03     273.679E-03    -546.634E-03     785.450E-03    -238.476E-03     232.259E-03
               7     713.517E-06     84.8619E-03    -130.896E+06    -313.328E+06    -129.114E+06    -212.865E+03    -231.114E-03     462.604E-03    -231.490E-03     25.0159E-03    -231.218E-03     461.507E-03    -231.491E-03     22.1095E-03
               8     1.42927E-03     84.9094E-03    -127.861E+06    -303.912E+06    -119.449E+06     99.8328E+03    -231.752E-03     463.039E-03    -231.287E-03     45.5285E-03    -232.062E-03     462.163E-03    -231.258E-03     40.1501E-03
               9     2.14238E-03     84.9850E-03    -122.299E+06    -286.377E+06    -104.453E+06     240.916E+03    -232.372E-03     463.761E-03    -231.389E-03     66.8296E-03    -233.033E-03     463.275E-03    -231.319E-03     58.7245E-03
              10     2.85671E-03     85.0908E-03    -115.983E+06    -263.848E+06    -87.8581E+06     295.886E+03    -232.756E-03     464.225E-03    -231.468E-03     88.6128E-03    -233.932E-03     464.306E-03    -231.357E-03     77.6236E-03
              11     3.57062E-03     85.2264E-03    -108.608E+06    -237.133E+06    -70.4054E+06     416.225E+03    -233.241E-03     464.731E-03    -231.489E-03     110.279E-03    -235.104E-03     465.570E-03    -231.340E-03     96.2319E-03
              12     4.28485E-03     85.3896E-03    -100.473E+06    -205.870E+06    -52.4365E+06     550.920E+03    -233.881E-03     465.366E-03    -231.485E-03     131.801E-03    -236.629E-03     467.179E-03    -231.303E-03     114.507E-03
              13     4.99938E-03     85.5825E-03    -92.2347E+06    -170.336E+06    -34.5439E+06     620.974E+03    -234.601E-03     466.075E-03    -231.474E-03     153.185E-03    -238.465E-03     469.107E-03    -231.266E-03     132.419E-03
              14     5.71346E-03     85.8017E-03    -83.8645E+06    -131.299E+06    -16.7232E+06     377.507E+03    -235.336E-03     466.803E-03    -231.466E-03     173.986E-03    -240.566E-03     471.317E-03    -231.238E-03     149.526E-03
              15     6.42803E-03     86.0489E-03    -75.3437E+06    -85.3998E+06     1.41064E+06     332.433E+03    -235.963E-03     467.426E-03    -231.463E-03     194.278E-03    -242.844E-03     473.733E-03    -231.223E-03     165.920E-03
              16     7.14172E-03     86.3213E-03    -66.3146E+06    -29.7296E+06     21.2063E+06     97.9943E+03    -236.228E-03     467.680E-03    -231.452E-03     214.289E-03    -245.067E-03     476.116E-03    -231.206E-03     181.934E-03
              17     7.85639E-03     86.6184E-03    -56.7544E+06     7.65441E+06     36.4214E+06    -605.650E+03    -236.417E-03     467.851E-03    -231.434E-03     233.354E-03    -247.427E-03     478.580E-03    -231.180E-03     197.035E-03
              18     8.57170E-03     86.9390E-03    -48.1058E+06     20.7296E+06     47.1923E+06    -972.885E+03    -236.567E-03     468.005E-03    -231.438E-03     249.590E-03    -249.825E-03     481.028E-03    -231.162E-03     209.569E-03
              19     9.28412E-03     87.2778E-03    -41.4406E+06     30.8050E+06     58.1344E+06    -379.371E+03    -236.058E-03     467.517E-03    -231.459E-03     261.128E-03    -251.382E-03     482.635E-03    -231.153E-03     218.187E-03
              20     10.0006E-03     87.6265E-03    -34.9337E+06     39.3047E+06     68.9554E+06     48.3170E+03    -234.630E-03     466.102E-03    -231.472E-03     263.673E-03    -251.280E-03     482.568E-03    -231.134E-03     219.236E-03
              21     10.7139E-03     87.9649E-03    -27.5962E+06     47.9436E+06     78.5607E+06    -227.558E+03    -232.659E-03     464.125E-03    -231.466E-03     254.519E-03    -249.469E-03     480.779E-03    -231.102E-03     210.257E-03
              22     11.4299E-03     88.2848E-03    -20.5182E+06     55.4231E+06     82.9790E+06     220.837E+03    -230.884E-03     462.326E-03    -231.442E-03     234.878E-03    -246.625E-03     477.950E-03    -231.077E-03     192.305E-03
              23     12.1419E-03     88.5655E-03    -14.8042E+06     60.5437E+06     83.5465E+06     842.353E+03    -229.257E-03     460.668E-03    -231.411E-03     205.077E-03    -242.534E-03     473.866E-03    -231.060E-03     166.148E-03
              24     12.8577E-03     88.8015E-03    -9.28988E+06     67.2634E+06     83.9937E+06     157.669E+03    -227.743E-03     459.104E-03    -231.361E-03     181.820E-03    -239.108E-03     470.431E-03    -231.025E-03     145.703E-03
              25     13.5709E-03     89.0057E-03    -3.76633E+06     68.5582E+06     84.2204E+06    -868.194E+03    -228.163E-03     459.480E-03    -231.317E-03     114.328E-03    -234.997E-03     466.300E-03    -230.990E-03     86.9822E-03
              26     14.2810E-03     90.5720E-03    -4.17692E+06     63.6339E+06     82.8073E+06     820.502E+03    -230.214E-03     461.598E-03    -231.384E-03     52.3779E-03    -232.791E-03     464.146E-03    -231.056E-03     33.5887E-03
              27     14.2919E-03     92.0800E-03    -3.60677E+06     64.0757E+06     83.0820E+06    -122.892E+03    -229.570E-03     460.945E-03    -231.375E-03     53.7153E-03    -232.163E-03     463.512E-03    -231.047E-03     34.9132E-03
              28     14.2809E-03     93.5897E-03    -2.31173E+06     65.5736E+06     84.5833E+06    -311.518E+03    -230.721E-03     462.155E-03    -231.433E-03     52.7598E-03    -233.325E-03     464.739E-03    -231.102E-03     33.7858E-03
              29     14.2872E-03     95.1013E-03    -2.06617E+06     65.4794E+06     82.9589E+06     514.824E+03    -227.383E-03     458.879E-03    -231.497E-03     55.4814E-03    -230.023E-03     461.505E-03    -231.174E-03     36.7772E-03
              30     14.2864E-03     96.5908E-03    -1.62087E+06     66.2596E+06     83.1955E+06     344.604E+03    -227.095E-03     458.484E-03    -231.389E-03     57.0064E-03    -229.749E-03     461.127E-03    -231.067E-03     38.2765E-03
              31     14.2881E-03     98.1097E-03    -716.751E+03     67.6175E+06     85.7273E+06     354.275E+03    -229.412E-03     460.772E-03    -231.360E-03     51.5651E-03    -231.966E-03     463.315E-03    -231.028E-03     32.8084E-03
              32     14.2843E-03     99.6005E-03    -3.41374E+06     65.4226E+06     83.2836E+06    -85.9903E+03    -229.262E-03     460.660E-03    -231.398E-03     52.8369E-03    -231.867E-03     463.243E-03    -231.071E-03     33.9958E-03
              33     14.2881E-03     101.122E-03    -2.05837E+06     66.6556E+06     84.1302E+06     177.629E+03    -228.802E-03     460.191E-03    -231.388E-03     53.5667E-03    -231.409E-03     462.783E-03    -231.062E-03     34.7390E-03
              34     14.2855E-03     102.616E-03    -628.114E+03     67.9358E+06     84.9781E+06     1.06529E+06    -227.467E-03     458.782E-03    -231.315E-03     55.4470E-03    -230.101E-03     461.408E-03    -230.988E-03     36.6601E-03
              35     14.2929E-03     104.121E-03    -1.82339E+06     69.6358E+06     85.7803E+06     488.387E+03    -229.503E-03     460.786E-03    -231.284E-03     52.0323E-03    -232.092E-03     463.367E-03    -230.953E-03     33.1883E-03
              36     14.2796E-03     105.639E-03    -4.04543E+06     67.8156E+06     83.9822E+06    -1.43422E+06    -230.240E-03     461.642E-03    -231.402E-03     51.7956E-03    -232.855E-03     464.239E-03    -231.075E-03     32.7921E-03
              37     14.2909E-03     107.129E-03    -1.57087E+06     68.1687E+06     85.1408E+06     246.197E+03    -228.698E-03     460.093E-03    -231.395E-03     55.6027E-03    -231.336E-03     462.720E-03    -231.066E-03     36.7702E-03
              38     14.2844E-03     108.652E-03    -2.42874E+06     67.6466E+06      84.159E+06    -970.060E+03    -228.815E-03     460.204E-03    -231.389E-03     51.7883E-03    -231.392E-03     462.769E-03    -231.063E-03     32.9730E-03
              39     14.2861E-03     110.145E-03    -2.84985E+06     67.8827E+06     84.2694E+06     319.458E+03    -228.380E-03     459.771E-03    -231.390E-03     56.2722E-03    -231.053E-03     462.431E-03    -231.063E-03     37.3842E-03
              40     14.2899E-03     111.654E-03    -666.780E+03     70.6543E+06     88.8793E+06     589.800E+03    -228.631E-03     459.977E-03    -231.346E-03     53.1706E-03    -231.215E-03     462.552E-03    -231.003E-03     34.4870E-03
              41     14.2836E-03     113.166E-03    -2.89829E+06     68.9948E+06     86.9982E+06    -313.892E+03    -228.910E-03     460.355E-03    -231.444E-03     51.9925E-03    -231.513E-03     462.940E-03    -231.105E-03     33.1603E-03
              42     14.2862E-03     114.656E-03    -3.48090E+06     68.9000E+06     85.1496E+06     1.40308E+06    -228.291E-03     459.733E-03    -231.442E-03     53.6084E-03    -230.894E-03     462.321E-03    -231.111E-03     34.9503E-03
              43     14.2879E-03     116.174E-03    -3.08315E+06     71.7976E+06     86.0631E+06     172.351E+03    -228.660E-03     460.030E-03    -231.370E-03     52.0668E-03    -231.249E-03     462.614E-03    -231.040E-03     33.3063E-03
              44     14.2853E-03     117.672E-03    -218.764E+03     75.0697E+06     88.7375E+06     251.776E+03    -228.296E-03     459.655E-03    -231.359E-03     54.4749E-03    -230.933E-03     462.300E-03    -231.023E-03     35.6395E-03
              45     14.2903E-03     119.183E-03    -2.77928E+06     72.7561E+06     87.5694E+06    -1.06598E+06    -228.159E-03     459.520E-03    -231.362E-03     53.5233E-03    -230.794E-03     462.150E-03    -231.025E-03     34.6609E-03
              46     14.2829E-03     120.682E-03    -2.81838E+06     72.2566E+06     85.9170E+06    -512.550E+03    -228.840E-03     460.198E-03    -231.358E-03     53.5156E-03    -231.475E-03     462.830E-03    -231.029E-03     34.6085E-03
              47     14.2915E-03     122.190E-03    -612.130E+03     74.4858E+06     87.5697E+06     549.846E+03    -227.610E-03     458.938E-03    -231.328E-03     52.6883E-03    -230.192E-03     461.528E-03    -230.998E-03     34.0465E-03
              48     14.2853E-03     123.693E-03    -4.04957E+06     71.8814E+06     87.3987E+06    -348.868E+03    -229.464E-03     460.841E-03    -231.376E-03     51.7706E-03    -232.067E-03     463.430E-03    -231.038E-03     32.9636E-03
              49     14.2841E-03     125.203E-03    -1.66083E+06     73.9978E+06     88.8369E+06     2.55773E+06    -228.296E-03     459.707E-03    -231.411E-03     53.5041E-03    -230.895E-03     462.305E-03    -231.072E-03     34.9067E-03
              50     14.2925E-03     126.700E-03    -2.00438E+06     75.5516E+06     90.0619E+06    -937.806E+03    -227.411E-03     458.771E-03    -231.360E-03     54.4473E-03    -230.058E-03     461.417E-03    -231.016E-03     35.6257E-03
              51     14.2813E-03     128.214E-03    -2.78487E+06     75.4634E+06     90.6563E+06    -303.205E+03    -228.936E-03     460.299E-03    -231.362E-03     52.9283E-03    -231.569E-03     462.927E-03    -231.014E-03     34.0696E-03
              52     14.2933E-03     129.710E-03    -455.571E+03     80.0410E+06     92.4220E+06     1.70940E+06    -226.672E-03     458.033E-03    -231.361E-03     53.9829E-03    -229.306E-03     460.681E-03    -231.014E-03     35.3671E-03
              53     14.2838E-03     131.217E-03    -2.92470E+06     81.9050E+06     91.4705E+06    -118.368E+03    -228.149E-03     459.516E-03    -231.367E-03     52.6943E-03    -230.785E-03     462.168E-03    -231.024E-03     33.9300E-03
              54     14.2881E-03     132.725E-03    -2.97984E+06     81.3406E+06     90.7537E+06     81.8063E+03    -226.963E-03     458.380E-03    -231.417E-03     52.7937E-03    -229.591E-03     461.024E-03    -231.077E-03     34.1494E-03
              55     14.2877E-03     134.214E-03    -3.97191E+06     80.6292E+06     91.2466E+06    -266.232E+03    -226.945E-03     458.349E-03    -231.404E-03     51.2065E-03    -229.559E-03     460.970E-03    -231.059E-03     32.5628E-03
              56     14.2851E-03     135.731E-03    -2.40746E+06     84.6474E+06     93.4074E+06     1.08835E+06    -226.845E-03     458.230E-03    -231.385E-03     51.3625E-03    -229.445E-03     460.851E-03    -231.037E-03     32.8380E-03
              57     14.2921E-03     137.224E-03    -86.7018E+03     86.0199E+06     94.4792E+06    -601.451E+03    -224.364E-03     455.679E-03    -231.315E-03     55.3837E-03    -227.029E-03     458.375E-03    -230.967E-03     36.8433E-03
              58     14.2882E-03     138.728E-03    -839.997E+03     85.8388E+06     96.9222E+06     1.11654E+06    -226.194E-03     457.461E-03    -231.268E-03     53.5105E-03    -228.826E-03     460.115E-03    -230.906E-03     34.9730E-03
              59     14.2897E-03     140.233E-03    -3.73631E+06     88.7231E+06     98.1261E+06     1.01363E+06    -224.418E-03     455.701E-03    -231.283E-03     52.6826E-03    -227.060E-03     458.361E-03    -230.916E-03     34.2778E-03
              60     14.2926E-03     141.716E-03    -4.47270E+06     90.6825E+06     98.2831E+06    -727.700E+03    -222.358E-03     453.475E-03    -231.117E-03     54.3264E-03    -225.020E-03     456.159E-03    -230.751E-03     36.0390E-03
              61     14.2975E-03     143.224E-03     186.287E+03     94.2960E+06     102.055E+06     1.47858E+06    -221.204E-03     452.052E-03    -230.848E-03     53.7244E-03    -223.828E-03     454.715E-03    -230.475E-03     35.5775E-03
              62     14.3018E-03     144.706E-03    -4.12154E+06     95.5831E+06     102.539E+06     1.09605E+06    -220.455E-03     450.971E-03    -230.516E-03     57.1666E-03    -223.191E-03     453.735E-03    -230.135E-03     38.8415E-03
              63     14.3082E-03     146.204E-03    -1.57937E+06     99.1814E+06     106.364E+06     590.480E+03    -220.006E-03     450.000E-03    -229.994E-03     58.7752E-03    -222.750E-03     452.782E-03    -229.604E-03     40.4288E-03
              64     14.3215E-03     147.689E-03    -1.65378E+06     98.3261E+06     106.912E+06    -85.3190E+03    -220.013E-03     449.270E-03    -229.257E-03     62.2838E-03    -222.831E-03     452.122E-03    -228.863E-03     43.6700E-03
              65     14.3299E-03     149.181E-03    -5.53738E+06     100.651E+06     108.861E+06     1.85937E+06    -223.150E-03     451.491E-03    -228.341E-03     65.5787E-03    -226.038E-03     454.402E-03    -227.934E-03     46.6866E-03
              66     14.3471E-03     150.682E-03    -2.76812E+06     108.448E+06     114.584E+06     2.34673E+06    -225.146E-03     452.392E-03    -227.246E-03     70.9610E-03    -228.178E-03     455.468E-03    -226.826E-03     51.4754E-03
              67     14.3633E-03     152.167E-03    -3.54208E+06     110.063E+06     116.806E+06     1.35088E+06    -233.899E-03     459.807E-03    -225.908E-03     77.8648E-03    -237.094E-03     463.045E-03    -225.478E-03     57.2795E-03
              68     14.3768E-03     153.705E-03    -3.42124E+06     113.906E+06     120.975E+06     2.38280E+06    -245.566E-03     470.191E-03    -224.625E-03     79.9060E-03    -248.821E-03     473.489E-03    -224.180E-03     58.1518E-03
              69     14.3901E-03     155.224E-03    -3.09215E+06     115.488E+06     124.828E+06     1.25719E+06    -258.943E-03     482.408E-03    -223.465E-03     87.6754E-03    -262.388E-03     485.894E-03    -223.004E-03     64.3629E-03
              70     14.3976E-03     156.790E-03    -3.24265E+06     119.045E+06     130.717E+06     2.20237E+06    -278.875E-03     501.329E-03    -222.454E-03     90.1564E-03    -282.312E-03     504.805E-03    -221.969E-03     65.4592E-03
              71     14.4004E-03     158.390E-03    -4.54015E+06     117.913E+06     127.218E+06    -643.607E+03    -296.975E-03     518.716E-03    -221.741E-03     95.2577E-03    -300.536E-03     522.313E-03    -221.269E-03     68.7202E-03
              72     14.4026E-03     159.988E-03    -3.49036E+06     111.538E+06     120.973E+06    -3.63174E+06    -314.293E-03     535.493E-03    -221.200E-03     98.8823E-03    -317.923E-03     539.161E-03    -220.752E-03     70.5461E-03
              73     14.4019E-03     161.647E-03    -1.10222E+06     104.011E+06     119.670E+06    -994.758E+03    -329.887E-03     550.705E-03    -220.818E-03     103.830E-03    -333.621E-03     554.462E-03    -220.369E-03     73.6776E-03
              74     14.4027E-03     163.300E-03    -4.98007E+06     88.9934E+06     113.666E+06    -4.01033E+06    -344.271E-03     564.759E-03    -220.488E-03     111.420E-03    -348.136E-03     568.595E-03    -220.042E-03     79.7640E-03
              75     14.4022E-03     164.991E-03     28.5375E+03     80.3822E+06     113.505E+06     920.905E+03    -355.862E-03     576.116E-03    -220.253E-03     110.864E-03    -359.700E-03     579.914E-03    -219.802E-03     77.9835E-03
              76     14.4010E-03     166.689E-03    -6.43796E+06     66.0744E+06     114.178E+06    -4.25067E+06    -360.887E-03     581.083E-03    -220.196E-03     114.262E-03    -364.980E-03     585.056E-03    -219.712E-03     79.4828E-03
              77     14.4025E-03     168.384E-03    -259.081E+03     39.0254E+06     125.182E+06    -9.62013E+06    -364.214E-03     584.355E-03    -220.141E-03     121.553E-03    -368.285E-03     588.208E-03    -219.572E-03     87.1276E-03
              78     14.4053E-03     170.113E-03     3.03243E+06     20.6821E+06     140.498E+06     1.14869E+06    -355.944E-03     576.280E-03    -220.336E-03     121.113E-03    -360.029E-03     580.048E-03    -219.668E-03     87.5372E-03
              79     14.4031E-03     171.771E-03    -5.45681E+06     24.5763E+06     160.919E+06     3.64977E+06    -336.922E-03     557.681E-03    -220.759E-03     137.826E-03    -341.879E-03     562.244E-03    -219.982E-03     103.419E-03
              80     14.4122E-03     173.441E-03    -4.96314E+06     42.0802E+06     192.056E+06     5.64235E+06    -300.237E-03     521.712E-03    -221.475E-03     172.683E-03    -305.891E-03     526.969E-03    -220.568E-03     141.888E-03
              81     14.4156E-03     175.067E-03    -14.6443E+06     30.0898E+06     146.249E+06    -6.50582E+06    -170.196E-03     394.660E-03    -224.464E-03     189.230E-03    -173.899E-03     398.157E-03    -223.755E-03     173.467E-03
              82     14.4128E-03     176.247E-03    -1.33339E+06    -7.58238E+06     60.1103E+06    -6.04988E+06     34.3348E-03     201.396E-03    -235.731E-03     92.8090E-03     33.5310E-03     202.166E-03    -235.417E-03     90.4939E-03
              83     13.0673E-03     176.897E-03     12.2360E+06     3.06557E+06     99.6452E+06     6.66748E+06     107.877E-03     145.061E-03    -252.937E-03    -8.92789E-03     107.888E-03     145.145E-03    -252.461E-03    -8.83297E-03
              84     12.1138E-03     176.420E-03     4.02652E+06     22.3663E+06     160.589E+06    -16.3934E+06     64.9594E-03     201.518E-03    -266.477E-03    -28.6677E-03     64.6758E-03     201.778E-03    -265.712E-03    -29.1709E-03
              85     11.3386E-03     175.788E-03    -4.32918E+06    -15.2117E+06     158.026E+06    -20.5300E+06     67.0523E-03     209.064E-03    -276.117E-03    -40.2955E-03     66.5988E-03     209.145E-03    -275.298E-03    -41.0868E-03
              86     10.5174E-03     175.182E-03    -3.21710E+06    -19.2375E+06     163.087E+06    -11.4457E+06     77.7741E-03     207.263E-03    -285.037E-03    -61.0427E-03     77.3898E-03     207.287E-03    -284.189E-03    -61.9213E-03
              87     9.74112E-03     174.567E-03    -12.5055E+06    -9.28923E+06     151.291E+06    -12.5895E+06     65.8090E-03     226.257E-03    -292.066E-03    -125.771E-03     65.6089E-03     226.110E-03    -291.278E-03    -127.276E-03
              88     9.01681E-03     173.943E-03    -13.0949E+06    -12.4822E+06     137.943E+06    -14.1278E+06     54.2558E-03     241.030E-03    -295.285E-03    -200.990E-03     54.4528E-03     240.418E-03    -294.559E-03    -203.119E-03
              89     8.33974E-03     173.335E-03    -9.81215E+06    -11.2673E+06     123.008E+06    -17.3803E+06     41.9548E-03     252.969E-03    -294.923E-03    -271.067E-03     42.6064E-03     251.768E-03    -294.278E-03    -273.793E-03
              90     7.69206E-03     172.763E-03    -17.2975E+06    -14.7358E+06     100.200E+06    -17.7074E+06     24.4754E-03     267.198E-03    -291.673E-03    -335.784E-03     25.5971E-03     265.398E-03    -291.126E-03    -339.111E-03
              91     7.06289E-03     172.228E-03    -23.6137E+06    -12.6981E+06     79.9438E+06    -22.7791E+06     1.34829E-03     284.710E-03    -286.058E-03    -391.561E-03     2.84995E-03     282.397E-03    -285.606E-03    -395.527E-03
              92     6.44943E-03     171.740E-03    -30.8045E+06    -16.6842E+06     61.4048E+06    -26.3760E+06    -26.5923E-03     305.291E-03    -278.699E-03    -431.509E-03    -24.9123E-03     302.588E-03    -278.323E-03    -436.025E-03
              93     5.84079E-03     171.303E-03    -36.3889E+06    -19.6564E+06     47.6368E+06    -30.6664E+06    -58.8741E-03     329.253E-03    -270.379E-03    -451.453E-03    -57.1920E-03     326.386E-03    -270.059E-03    -456.473E-03
              94     5.22887E-03     170.919E-03    -40.7543E+06    -23.3502E+06     36.7154E+06    -33.0391E+06    -92.8197E-03     354.538E-03    -261.719E-03    -449.350E-03    -91.3346E-03     351.725E-03    -261.442E-03    -454.677E-03
              95     4.61399E-03     170.583E-03    -42.3058E+06    -24.9942E+06     27.9542E+06    -34.4833E+06    -125.238E-03     378.500E-03    -253.261E-03    -425.224E-03    -124.095E-03     375.947E-03    -253.024E-03    -430.586E-03
              96     3.98544E-03     170.302E-03    -42.1189E+06    -26.4068E+06     18.6250E+06    -33.4078E+06    -154.500E-03     399.885E-03    -245.385E-03    -383.601E-03    -153.750E-03     397.719E-03    -245.193E-03    -388.703E-03
              97     3.34861E-03     170.063E-03    -40.1109E+06    -24.1251E+06     9.20273E+06    -31.0152E+06    -177.765E-03     416.070E-03    -238.305E-03    -329.515E-03    -177.389E-03     414.346E-03    -238.166E-03    -334.122E-03
              98     2.69562E-03     169.873E-03    -36.7524E+06    -21.1703E+06    -1.61349E+06    -26.9613E+06    -194.935E-03     427.141E-03    -232.206E-03    -268.184E-03    -194.881E-03     425.829E-03    -232.130E-03    -272.095E-03
              99     2.03405E-03     169.724E-03    -32.9356E+06    -19.6538E+06    -12.7066E+06    -21.6525E+06    -207.132E-03     434.268E-03    -227.135E-03    -202.382E-03    -207.349E-03     433.281E-03    -227.123E-03    -205.469E-03
             100     1.36384E-03     169.617E-03    -28.9342E+06    -18.0721E+06    -20.3277E+06    -15.3110E+06    -214.178E-03     437.453E-03    -223.275E-03    -134.155E-03    -214.565E-03     436.722E-03    -223.308E-03    -136.387E-03
             101     685.358E-06     169.553E-03    -22.4418E+06    -16.7095E+06    -26.5133E+06    -8.93961E+06    -215.012E-03     438.172E-03    -223.161E-03    -74.3415E-03    -215.428E-03     437.660E-03    -223.237E-03    -75.5087E-03
             102     9.40739E-06     168.052E-03    -69.5199E+06    -39.3747E+06    -64.6452E+06    -8.09322E+06    -179.162E-03     360.145E-03    -180.983E-03    -27.2288E-03    -179.601E-03     359.883E-03    -181.148E-03    -27.7677E-03
             103    -2.99806E-06     166.798E-03    -147.506E+06    -89.3858E+06    -144.979E+06    -13.2472E+06    -122.685E-03     242.652E-03    -119.967E-03     1.40592E-03    -123.155E-03     242.559E-03    -120.348E-03     959.676E-06
             104     1.36323E-06     165.637E-03    -224.193E+06    -146.756E+06    -226.868E+06    -13.2910E+06    -94.3065E-03     188.587E-03    -94.2809E-03     14.0703E-03    -94.8984E-03     188.499E-03    -94.8773E-03     13.8099E-03
             105     331.572E-09     164.511E-03    -306.050E+06    -198.544E+06    -303.519E+06    -11.1065E+06    -88.3818E-03     174.594E-03    -86.2126E-03     22.5859E-03    -89.1862E-03     174.485E-03    -86.9986E-03     22.4259E-03
             106     1.33977E-06     163.382E-03    -294.694E+06    -227.783E+06    -295.306E+06    -3.26853E+06    -95.9410E-03     189.408E-03    -93.4670E-03     27.0954E-03    -96.6641E-03     189.115E-03    -94.1860E-03     27.0657E-03
             107     750.399E-09     162.226E-03    -206.508E+06    -224.514E+06    -206.311E+06     4.66290E+06    -112.693E-03     224.910E-03    -112.217E-03     28.3253E-03    -113.119E-03     224.370E-03    -112.623E-03     28.3672E-03
             108    -2.25814E-06     161.011E-03    -146.723E+06    -211.740E+06    -146.814E+06     1.21110E+06    -135.314E-03     271.383E-03    -136.069E-03     27.1387E-03    -135.557E-03     270.728E-03    -136.283E-03     27.0448E-03
             109     2.41111E-06     159.742E-03    -127.182E+06    -215.887E+06    -127.789E+06    -2.60334E+06    -160.514E-03     319.678E-03    -159.164E-03     24.8140E-03    -160.683E-03     318.954E-03    -159.305E-03     24.4502E-03
             110    -635.881E-09     158.399E-03    -120.759E+06    -229.289E+06    -121.015E+06    -2.55680E+06    -180.482E-03     360.359E-03    -179.877E-03     23.5821E-03    -180.606E-03     359.564E-03    -179.974E-03     22.9644E-03
             111    -355.879E-09     157.020E-03    -117.605E+06    -242.076E+06    -118.438E+06    -1.87089E+06    -197.278E-03     393.800E-03    -196.522E-03     21.7670E-03    -197.372E-03     392.940E-03    -196.593E-03     20.9324E-03
             112     2.29161E-06     155.591E-03    -120.887E+06    -254.319E+06    -124.487E+06    -2.21503E+06    -210.709E-03     421.349E-03    -210.641E-03     20.4865E-03    -210.790E-03     420.451E-03    -210.719E-03     19.3732E-03
             113    -4.26930E-06     154.131E-03    -128.960E+06    -266.570E+06    -127.690E+06    -2.09513E+06    -219.476E-03     440.959E-03    -221.484E-03     17.6687E-03    -219.570E-03     440.022E-03    -221.549E-03     16.3945E-03
             114     3.24872E-06     152.645E-03    -136.337E+06    -281.700E+06    -137.345E+06    -2.43460E+06    -227.661E-03     454.513E-03    -226.852E-03     16.8211E-03    -227.758E-03     453.529E-03    -226.933E-03     15.3172E-03
             115    -1.18792E-06     151.143E-03    -142.733E+06    -295.370E+06    -141.448E+06    -1.71809E+06    -232.502E-03     463.313E-03    -230.811E-03     16.8566E-03    -232.610E-03     462.278E-03    -230.883E-03     15.1789E-03
             116     1.46181E-06     149.635E-03    -144.783E+06    -307.514E+06    -146.339E+06    -2.08932E+06    -234.501E-03     468.123E-03    -233.622E-03     15.0633E-03    -234.593E-03     467.035E-03    -233.698E-03     13.3579E-03
             117    -567.326E-09     148.119E-03    -147.964E+06    -315.505E+06    -147.040E+06    -318.095E+03    -235.791E-03     470.538E-03    -234.747E-03     15.5585E-03    -235.888E-03     469.416E-03    -234.810E-03     13.8154E-03
             118     1.09320E-06     146.598E-03    -145.840E+06    -320.110E+06    -146.766E+06    -1.41009E+06    -234.728E-03     470.285E-03    -235.556E-03     15.6921E-03    -234.810E-03     469.139E-03    -235.615E-03     13.8742E-03
             119    -2.88024E-06     145.088E-03    -147.197E+06    -326.461E+06    -147.116E+06    -301.535E+03    -233.871E-03     469.102E-03    -235.231E-03     14.3561E-03    -233.946E-03     467.925E-03    -235.280E-03     12.6202E-03
             120     2.67179E-06     143.573E-03    -143.690E+06    -330.172E+06    -143.435E+06    -658.752E+03    -234.472E-03     469.128E-03    -234.656E-03     14.1876E-03    -234.528E-03     467.922E-03    -234.686E-03     12.4706E-03
             121    -2.78177E-06     142.060E-03    -139.363E+06    -335.157E+06    -139.641E+06    -1.25081E+06    -233.007E-03     468.105E-03    -235.098E-03     14.1812E-03    -233.042E-03     466.864E-03    -235.108E-03     12.3746E-03
             122    -144.341E-09     140.548E-03    -140.080E+06    -340.208E+06    -138.748E+06    -292.203E+03    -233.810E-03     467.515E-03    -233.705E-03     14.1084E-03    -233.842E-03     466.247E-03    -233.703E-03     12.3160E-03
             123     3.17596E-06     139.035E-03    -138.232E+06    -341.843E+06    -140.898E+06     138.675E+03    -235.560E-03     467.310E-03    -231.750E-03     15.1658E-03    -235.578E-03     466.035E-03    -231.759E-03     13.4090E-03
             124    -873.238E-09     137.526E-03    -138.181E+06    -339.709E+06    -135.282E+06     821.280E+03    -233.139E-03     465.219E-03    -232.080E-03     14.4916E-03    -233.168E-03     463.945E-03    -232.064E-03     12.7570E-03
             125     46.8958E-09     136.023E-03    -134.096E+06    -338.495E+06    -134.874E+06    -739.450E+03    -231.908E-03     464.872E-03    -232.964E-03     15.0152E-03    -231.921E-03     463.600E-03    -232.953E-03     13.2030E-03
             126    -797.393E-09     134.508E-03    -135.718E+06    -338.665E+06    -135.232E+06     598.895E+03    -231.749E-03     464.411E-03    -232.663E-03     14.8415E-03    -231.767E-03     463.139E-03    -232.651E-03     13.1543E-03
             127     184.530E-09     133.008E-03    -133.980E+06    -337.432E+06    -134.073E+06     123.526E+03    -231.662E-03     463.576E-03    -231.914E-03     14.7235E-03    -231.676E-03     462.305E-03    -231.901E-03     13.0598E-03
             128     7.31938E-09     131.503E-03    -132.564E+06    -334.093E+06    -132.283E+06     707.121E+03    -233.385E-03     465.152E-03    -231.766E-03     14.2141E-03    -233.402E-03     463.894E-03    -231.751E-03     12.3848E-03
             129     2.06494E-06     129.988E-03    -130.949E+06    -331.960E+06    -132.557E+06    -88.6125E+03    -233.879E-03     464.833E-03    -230.954E-03     14.5692E-03    -233.889E-03     463.584E-03    -230.946E-03     12.7863E-03
             130    -36.7686E-09     128.486E-03    -132.912E+06    -332.561E+06    -133.005E+06     290.841E+03    -231.798E-03     463.017E-03    -231.218E-03     14.9983E-03    -231.815E-03     461.768E-03    -231.209E-03     13.3117E-03
             131    -1.23311E-06     126.985E-03    -133.100E+06    -332.589E+06    -131.738E+06         30.5625    -230.981E-03     463.440E-03    -232.459E-03     14.3136E-03    -230.999E-03     462.188E-03    -232.442E-03     12.6617E-03
             132     346.343E-09     125.472E-03    -130.410E+06    -332.475E+06    -132.455E+06    -190.750E+03    -231.172E-03     463.862E-03    -232.691E-03     14.9959E-03    -231.178E-03     462.610E-03    -232.682E-03     13.2510E-03
             133    -1.71162E-06     123.971E-03    -132.959E+06    -331.234E+06    -131.297E+06     217.834E+03    -231.330E-03     463.849E-03    -232.518E-03     15.0645E-03    -231.353E-03     462.605E-03    -232.502E-03     13.3195E-03
             134     1.33085E-06     122.462E-03    -131.191E+06    -332.005E+06    -131.748E+06    -305.773E+03    -232.171E-03     463.866E-03    -231.694E-03     14.3870E-03    -232.181E-03     462.614E-03    -231.682E-03     12.6872E-03
             135    -332.378E-09     120.957E-03    -132.272E+06    -331.653E+06    -131.697E+06     513.256E+03    -232.180E-03     463.335E-03    -231.155E-03     15.2944E-03    -232.200E-03     462.089E-03    -231.140E-03     13.5043E-03
             136     738.339E-09     119.453E-03    -132.205E+06    -330.510E+06    -131.680E+06    -174.906E+03    -232.146E-03     463.375E-03    -231.229E-03     15.0356E-03    -232.167E-03     462.135E-03    -231.216E-03     13.2597E-03
             137     108.573E-09     117.946E-03    -130.756E+06    -332.188E+06    -132.743E+06    -566.948E+03    -231.629E-03     463.252E-03    -231.623E-03     14.9520E-03    -231.637E-03     462.001E-03    -231.616E-03     13.2178E-03
             138    -1.02895E-06     116.444E-03    -132.256E+06    -332.226E+06    -131.905E+06     422.678E+03    -231.891E-03     463.647E-03    -231.756E-03     14.4429E-03    -231.905E-03     462.395E-03    -231.742E-03     12.7818E-03
             139     2.08453E-06     114.934E-03    -131.466E+06    -331.484E+06    -132.294E+06     469.677E+03    -232.635E-03     463.661E-03    -231.026E-03     14.5205E-03    -232.647E-03     462.415E-03    -231.016E-03     12.7748E-03
             140    -909.512E-09     113.432E-03    -132.452E+06    -330.046E+06    -130.246E+06     786.667E+03    -232.024E-03     462.668E-03    -230.645E-03     14.4686E-03    -232.046E-03     461.429E-03    -230.625E-03     12.7140E-03
             141     1.66632E-06     111.929E-03    -133.260E+06    -323.496E+06    -134.633E+06     1.15768E+06    -231.030E-03     462.888E-03    -231.858E-03     14.9915E-03    -231.057E-03     461.688E-03    -231.869E-03     13.3581E-03
             142    -3.68880E-06     110.421E-03    -132.354E+06    -322.158E+06    -132.355E+06    -828.529E+03    -230.539E-03     462.992E-03    -232.454E-03     14.7618E-03    -230.565E-03     461.795E-03    -232.456E-03     13.0858E-03
             143     2.91462E-06     108.916E-03    -130.422E+06    -329.220E+06    -130.711E+06    -1.30064E+06    -232.068E-03     462.704E-03    -230.636E-03     14.8687E-03    -232.077E-03     461.466E-03    -230.623E-03     13.1706E-03
             144    -161.675E-09     107.415E-03    -129.754E+06    -330.721E+06    -129.962E+06     231.375E+03    -231.984E-03     463.220E-03    -231.236E-03     15.6273E-03    -231.994E-03     461.974E-03    -231.218E-03     13.8378E-03
             145    -1.59684E-06     105.908E-03    -131.011E+06    -331.745E+06    -130.569E+06    -646.782E+03    -231.425E-03     463.052E-03    -231.627E-03     13.4684E-03    -231.437E-03     461.802E-03    -231.609E-03     11.6632E-03
             146     3.03014E-06     104.404E-03    -129.974E+06    -330.051E+06    -131.242E+06     1.03298E+06    -231.662E-03     462.385E-03    -230.723E-03     14.6102E-03    -231.668E-03     461.144E-03    -230.712E-03     12.8882E-03
             147    -3.19662E-06     102.902E-03    -129.277E+06    -322.798E+06    -127.951E+06     1.84571E+06    -231.354E-03     462.998E-03    -231.644E-03     14.5583E-03    -231.372E-03     461.788E-03    -231.628E-03     12.8431E-03
             148     2.89871E-06     101.394E-03    -130.375E+06    -318.280E+06    -131.589E+06    -109.058E+03    -232.771E-03     464.262E-03    -231.491E-03     14.6309E-03    -232.796E-03     463.080E-03    -231.498E-03     12.9218E-03
             149    -849.921E-09     99.8861E-03    -129.087E+06    -319.677E+06    -128.103E+06    -975.380E+03    -232.055E-03     463.808E-03    -231.754E-03     15.3212E-03    -232.077E-03     462.610E-03    -231.743E-03     13.6522E-03
             150    -835.788E-09     98.3839E-03    -129.618E+06    -328.236E+06    -129.858E+06    -266.266E+03    -230.862E-03     462.886E-03    -232.023E-03     14.3256E-03    -230.872E-03     461.647E-03    -232.009E-03     12.6517E-03
             151     802.574E-09     96.8777E-03    -129.958E+06    -331.553E+06    -129.943E+06     114.227E+03    -232.411E-03     462.974E-03    -230.564E-03     14.4729E-03    -232.419E-03     461.722E-03    -230.544E-03     12.7236E-03
             152     1.81081E-06     95.3728E-03    -127.332E+06    -328.954E+06    -127.650E+06    -771.822E+03    -231.671E-03     463.026E-03    -231.356E-03     15.9119E-03    -231.675E-03     461.783E-03    -231.332E-03     14.1198E-03
             153    -4.05295E-06     93.8706E-03    -129.804E+06    -328.371E+06    -129.720E+06     116.147E+03    -230.293E-03     462.744E-03    -232.451E-03     13.8641E-03    -230.301E-03     461.508E-03    -232.435E-03     12.1891E-03
             154     3.16003E-06     92.3641E-03    -128.683E+06    -323.455E+06    -129.594E+06     1.29305E+06    -231.311E-03     462.342E-03    -231.031E-03     14.5733E-03    -231.321E-03     461.129E-03    -231.023E-03     12.9188E-03
             155    -1.94264E-06     90.8599E-03    -129.658E+06    -316.475E+06    -128.999E+06     904.361E+03    -230.802E-03     462.322E-03    -231.520E-03     15.6404E-03    -230.834E-03     461.145E-03    -231.518E-03     13.8716E-03
             156    -368.055E-09     89.3614E-03    -130.536E+06    -314.055E+06    -130.843E+06    -66.0825E+03    -231.943E-03     463.554E-03    -231.611E-03     13.6705E-03    -231.978E-03     462.388E-03    -231.621E-03     11.9729E-03
             157     3.09951E-06     87.8466E-03    -130.110E+06    -314.289E+06    -131.617E+06     215.634E+03    -233.143E-03     463.723E-03    -230.579E-03     15.0897E-03    -233.175E-03     462.559E-03    -230.593E-03     13.3904E-03
             158    -2.25490E-06     86.3466E-03    -133.218E+06    -315.416E+06    -131.274E+06     196.271E+03    -231.093E-03     462.217E-03    -231.124E-03     14.6770E-03    -231.137E-03     461.052E-03    -231.130E-03     12.9839E-03
             159    -1.62859E-06     83.3329E-03    -132.186E+06    -315.092E+06    -131.273E+06    -314.900E+03    -231.950E-03     462.906E-03    -230.956E-03     14.5914E-03    -231.989E-03     461.743E-03    -230.964E-03     12.8513E-03
             160     3.30628E-06     81.8372E-03    -130.707E+06    -314.821E+06    -132.504E+06    -161.824E+03    -231.830E-03     462.692E-03    -230.862E-03     14.5197E-03    -231.858E-03     461.530E-03    -230.879E-03     12.8184E-03
             161    -3.67728E-06     80.3294E-03    -131.820E+06    -314.190E+06    -130.106E+06     340.614E+03    -231.298E-03     463.457E-03    -232.158E-03     14.1175E-03    -231.338E-03     462.298E-03    -232.162E-03     12.3440E-03
             162     2.78696E-06     78.8212E-03    -132.314E+06    -315.482E+06    -132.520E+06    -286.605E+03    -232.011E-03     463.494E-03    -231.483E-03     14.4615E-03    -232.047E-03     462.330E-03    -231.496E-03     12.7845E-03
             163    -1.20668E-06     77.3176E-03    -132.883E+06    -314.873E+06    -132.353E+06     577.631E+03    -231.717E-03     462.729E-03    -231.012E-03     15.0660E-03    -231.758E-03     461.567E-03    -231.025E-03     13.4267E-03
             164     564.483E-09     75.8139E-03    -131.358E+06    -313.296E+06    -130.797E+06    -213.642E+03    -231.140E-03     462.701E-03    -231.561E-03     15.4744E-03    -231.182E-03     461.544E-03    -231.570E-03     13.7096E-03
             165    -589.429E-09     74.3063E-03    -130.342E+06    -314.098E+06    -132.040E+06    -422.187E+03    -231.027E-03     462.467E-03    -231.440E-03     15.7603E-03    -231.063E-03     461.307E-03    -231.456E-03     13.9827E-03
             166    -62.9475E-09     72.8057E-03    -133.119E+06    -315.042E+06    -132.685E+06     1.06129E+06    -231.199E-03     462.033E-03    -230.834E-03     14.5637E-03    -231.242E-03     460.870E-03    -230.848E-03     12.9065E-03
             167     1.18269E-06     71.3048E-03    -130.273E+06    -312.869E+06    -130.804E+06    -351.892E+03    -231.431E-03     463.308E-03    -231.877E-03     15.3351E-03    -231.467E-03     462.153E-03    -231.889E-03     13.5811E-03
             168    -3.01189E-06     69.7926E-03    -130.957E+06    -313.495E+06    -129.834E+06    -790.339E+03    -231.372E-03     463.844E-03    -232.472E-03     14.7951E-03    -231.410E-03     462.687E-03    -232.477E-03     13.0181E-03
             169     3.21835E-06     68.2900E-03    -130.862E+06    -314.272E+06    -132.720E+06     441.583E+03    -232.385E-03     463.148E-03    -230.763E-03     14.7946E-03    -232.415E-03     461.988E-03    -230.782E-03     13.1276E-03
             170    -1.19417E-06     66.7854E-03    -131.436E+06    -312.997E+06    -129.977E+06     323.522E+03    -231.787E-03     462.733E-03    -230.946E-03     15.0327E-03    -231.828E-03     461.576E-03    -230.952E-03     13.3263E-03
             171     315.425E-09     65.2819E-03    -130.858E+06    -313.911E+06    -131.595E+06    -287.931E+03    -230.185E-03     462.486E-03    -232.301E-03     15.2550E-03    -230.222E-03     461.327E-03    -232.315E-03     13.4707E-03
             172    -2.53477E-06     63.7749E-03    -129.069E+06    -311.882E+06    -129.760E+06     503.344E+03    -230.668E-03     462.565E-03    -231.897E-03     14.5514E-03    -230.701E-03     461.413E-03    -231.906E-03     12.7539E-03
             173     2.93429E-06     62.2763E-03    -131.161E+06    -312.609E+06    -130.072E+06    -558.693E+03    -232.932E-03     463.265E-03    -230.333E-03     13.2741E-03    -232.971E-03     462.109E-03    -230.340E-03     11.5058E-03
             174     343.203E-09     60.7675E-03    -130.554E+06    -312.204E+06    -130.588E+06     204.702E+03    -232.355E-03     463.202E-03    -230.847E-03     14.6853E-03    -232.392E-03     462.047E-03    -230.858E-03     12.9945E-03
             175    -1.53511E-06     59.2603E-03    -128.648E+06    -310.843E+06    -129.083E+06     90.4723E+03    -230.125E-03     462.216E-03    -232.091E-03     15.3890E-03    -230.157E-03     461.063E-03    -232.099E-03     13.7099E-03
             176    -159.073E-09     57.7603E-03    -130.082E+06    -311.454E+06    -130.009E+06     761.269E+03    -230.819E-03     462.441E-03    -231.621E-03     14.8899E-03    -230.858E-03     461.289E-03    -231.631E-03     13.1932E-03
             177     644.311E-09     56.2546E-03    -128.653E+06    -309.618E+06    -128.296E+06     47.5093E+03    -232.497E-03     463.257E-03    -230.760E-03     14.8008E-03    -232.535E-03     462.111E-03    -230.766E-03     13.0151E-03
             178     1.29497E-06     54.7479E-03    -127.181E+06    -310.077E+06    -128.040E+06    -549.089E+03    -231.338E-03     462.007E-03    -230.669E-03     14.9175E-03    -231.367E-03     460.855E-03    -230.675E-03     13.1844E-03
             179    -2.35157E-06     53.2491E-03    -128.813E+06    -310.181E+06    -128.154E+06     555.924E+03    -230.044E-03     460.658E-03    -230.613E-03     14.1275E-03    -230.077E-03     459.507E-03    -230.618E-03     12.4716E-03
             180     2.54242E-06     51.7474E-03    -127.067E+06    -308.882E+06    -128.497E+06    -581.522E+03    -231.091E-03     461.521E-03    -230.430E-03     14.3556E-03    -231.119E-03     460.378E-03    -230.440E-03     12.5804E-03
             181    -1.85674E-06     50.2434E-03    -131.013E+06    -311.081E+06    -128.482E+06    -122.118E+03    -230.956E-03     461.319E-03    -230.363E-03     14.5670E-03    -231.001E-03     460.170E-03    -230.364E-03     12.7951E-03
             182     1.98660E-06     48.7393E-03    -128.986E+06    -310.691E+06    -129.300E+06     448.037E+03    -230.922E-03     460.971E-03    -230.049E-03     15.6117E-03    -230.957E-03     459.822E-03    -230.058E-03     13.9125E-03
             183    -944.884E-09     47.2414E-03    -126.794E+06    -308.767E+06    -127.975E+06     430.395E+03    -229.914E-03     460.350E-03    -230.436E-03     14.2575E-03    -229.940E-03     459.201E-03    -230.444E-03     12.6107E-03
             184    -914.362E-09     45.7405E-03    -129.628E+06    -309.701E+06    -129.045E+06    -990.608E+03    -228.861E-03     458.708E-03    -229.847E-03     13.3164E-03    -228.898E-03     457.559E-03    -229.855E-03     11.6439E-03
             185     1.32413E-06     44.2433E-03    -128.117E+06    -309.775E+06    -128.588E+06      199.94E+03    -230.555E-03     459.337E-03    -228.782E-03     14.5661E-03    -230.589E-03     458.188E-03    -228.790E-03     12.8183E-03
             186     740.671E-09     42.7422E-03    -126.996E+06    -309.235E+06    -126.988E+06     245.221E+03    -229.486E-03     459.287E-03    -229.801E-03     14.2449E-03    -229.515E-03     458.137E-03    -229.804E-03     12.5489E-03
             187    -3.31393E-06     41.2457E-03    -129.521E+06    -312.135E+06    -130.034E+06     231.850E+03    -228.304E-03     458.240E-03    -229.937E-03     13.7898E-03    -228.332E-03     457.083E-03    -229.946E-03     12.1998E-03
             188     3.49113E-06     39.7441E-03    -129.608E+06    -314.169E+06    -128.516E+06     103.193E+03    -228.705E-03     456.832E-03    -228.127E-03     14.8145E-03    -228.736E-03     455.667E-03    -228.126E-03     13.1234E-03
             189    -2.89771E-06     38.2521E-03    -127.872E+06    -311.325E+06    -127.835E+06    -912.539E+03    -227.931E-03     454.860E-03    -226.929E-03     15.3077E-03    -227.959E-03     453.706E-03    -226.931E-03     13.6076E-03
             190     3.66609E-06     36.7623E-03    -129.287E+06    -311.034E+06    -130.302E+06    -233.860E+03    -227.603E-03     453.631E-03    -226.028E-03     13.6283E-03    -227.631E-03     452.480E-03    -226.041E-03     12.0386E-03
             191    -2.23862E-06     35.2727E-03    -127.793E+06    -312.786E+06    -127.286E+06     287.851E+03    -226.430E-03     452.358E-03    -225.928E-03     13.7000E-03    -226.456E-03     451.192E-03    -225.925E-03     12.0186E-03
             192     1.48585E-06     33.7851E-03    -127.680E+06    -312.530E+06    -126.894E+06    -22.2564E+03    -226.627E-03     451.980E-03    -225.353E-03     13.0314E-03    -226.653E-03     450.813E-03    -225.350E-03     11.3622E-03
             193     1.06128E-06     32.2955E-03    -128.383E+06    -314.145E+06    -129.931E+06    -829.390E+03    -227.046E-03     451.293E-03    -224.247E-03     13.8039E-03    -227.070E-03     450.123E-03    -224.255E-03     12.1472E-03
             194     346.242E-09     30.8090E-03    -128.201E+06    -316.555E+06    -128.637E+06     230.434E+03    -225.142E-03     449.173E-03    -224.031E-03     13.5981E-03    -225.162E-03     447.987E-03    -224.029E-03     12.0514E-03
             195    -212.308E-09     29.3286E-03    -128.986E+06    -312.350E+06    -128.910E+06     1.39855E+06    -222.979E-03     446.996E-03    -224.017E-03     13.3505E-03    -223.008E-03     445.833E-03    -224.022E-03     11.8425E-03
             196    -1.46524E-06     27.8480E-03    -129.663E+06    -306.528E+06    -128.246E+06     82.8318E+03    -222.365E-03     445.960E-03    -223.596E-03     12.5367E-03    -222.406E-03     444.826E-03    -223.604E-03     10.9555E-03
             197     1.34475E-06     26.3718E-03    -128.737E+06    -306.398E+06    -129.238E+06    -384.100E+03    -223.160E-03     445.713E-03    -222.553E-03     11.9982E-03    -223.194E-03     444.578E-03    -222.568E-03     10.4108E-03
             198    -385.789E-09     24.8902E-03    -127.986E+06    -304.666E+06    -128.133E+06     785.810E+03    -222.318E-03     444.028E-03    -221.710E-03     12.1588E-03    -222.353E-03     442.899E-03    -221.723E-03     10.6101E-03
             199     269.843E-09     23.4161E-03    -125.493E+06    -301.326E+06    -126.401E+06    -38.2746E+03    -221.217E-03     440.803E-03    -219.586E-03     10.7257E-03    -221.243E-03     439.682E-03    -219.599E-03     9.29397E-03
             200     2.17262E-06     21.9511E-03    -125.844E+06    -300.543E+06    -126.811E+06     267.849E+03    -219.515E-03     437.186E-03    -217.671E-03     10.8717E-03    -219.542E-03     436.070E-03    -217.687E-03     9.47779E-03
             201    -1.98648E-06     20.4812E-03    -126.848E+06    -298.891E+06    -125.268E+06     540.376E+03    -214.547E-03     430.412E-03    -215.865E-03     9.44084E-03    -214.582E-03     429.297E-03    -215.874E-03     8.21712E-03
             202    -113.540E-09     19.0382E-03    -124.572E+06    -296.157E+06    -125.447E+06     781.608E+03    -209.655E-03     420.395E-03    -210.740E-03     7.60346E-03    -209.680E-03     419.287E-03    -210.757E-03     6.50066E-03
             203     635.695E-09     17.5991E-03    -121.804E+06    -290.950E+06    -121.711E+06     509.435E+03    -204.444E-03     409.346E-03    -204.902E-03     6.99698E-03    -204.468E-03     408.254E-03    -204.912E-03     5.93014E-03
             204    -1.82604E-06     16.1877E-03    -123.105E+06    -289.482E+06    -121.912E+06    -196.936E+03    -197.739E-03     396.432E-03    -198.693E-03     4.55007E-03    -197.767E-03     395.346E-03    -198.705E-03     3.62667E-03
             205     1.64327E-06     14.7854E-03    -120.354E+06    -286.391E+06    -121.178E+06     1.34095E+06    -191.212E-03     381.959E-03    -190.748E-03     3.34161E-03    -191.229E-03     380.882E-03    -190.764E-03     2.55717E-03
             206    -749.249E-09     13.4129E-03    -118.401E+06    -281.630E+06    -118.374E+06     756.739E+03    -183.267E-03     365.804E-03    -182.537E-03     3.10127E-03    -183.286E-03     364.742E-03    -182.549E-03     2.40161E-03
             207     976.745E-09     12.0528E-03    -115.360E+06    -279.418E+06    -115.815E+06     715.529E+03    -174.105E-03     347.157E-03    -173.053E-03     1.43591E-03    -174.115E-03     346.096E-03    -173.059E-03     858.215E-06
             208     430.240E-09     10.7351E-03    -115.904E+06    -277.551E+06    -116.289E+06     564.676E+03    -164.197E-03     327.542E-03    -163.345E-03     100.981E-06    -164.212E-03     326.491E-03    -163.356E-03    -418.833E-06
             209    -510.389E-09     9.42822E-03    -116.648E+06    -270.851E+06    -116.757E+06     1.81104E+06    -155.994E-03     311.526E-03    -155.532E-03     362.324E-06    -156.020E-03     310.512E-03    -155.554E-03    -127.291E-06
             210     1.32489E-06     8.14816E-03    -113.170E+06    -262.474E+06    -112.539E+06     905.629E+03    -151.613E-03     303.298E-03    -151.685E-03     2.86645E-03    -151.639E-03     302.318E-03    -151.703E-03     2.36088E-03
             211    -2.23802E-06     6.86466E-03    -114.040E+06    -263.087E+06    -113.608E+06    -1.65474E+06    -153.383E-03     308.189E-03    -154.806E-03     6.27230E-03    -153.417E-03     307.208E-03    -154.827E-03     5.70724E-03
             212     977.096E-09     5.57267E-03    -113.522E+06    -269.307E+06    -113.016E+06    -831.495E+03    -164.504E-03     329.405E-03    -164.900E-03     9.09131E-03    -164.533E-03     328.385E-03    -164.910E-03     8.56748E-03
             213    -286.149E-09     4.23181E-03    -101.962E+06    -274.646E+06    -101.169E+06    -935.827E+03    -179.983E-03     359.446E-03    -179.463E-03     10.1318E-03    -179.964E-03     358.363E-03    -179.422E-03     9.64805E-03
             214     436.883E-09     2.85703E-03    -87.2584E+06    -276.167E+06    -87.8555E+06     434.586E+03    -194.419E-03     388.688E-03    -194.268E-03     8.45224E-03    -194.339E-03     387.557E-03    -194.181E-03     8.07196E-03
             215    -334.981E-09     1.43956E-03    -79.8707E+06    -273.199E+06    -80.1554E+06     857.066E+03    -205.274E-03     410.409E-03    -205.135E-03     4.61926E-03    -205.165E-03     409.274E-03    -205.024E-03     4.39077E-03
             216     728.751E-06    -27.7556E-18    -75.7406E+06    -269.509E+06    -74.4962E+06     924.831E+03    -209.130E-03     418.292E-03    -209.162E-03     3.78223E-03    -209.011E-03     417.163E-03    -209.034E-03     3.56301E-03
             217     1.45760E-03    -27.7556E-18    -75.3710E+06    -267.483E+06    -71.5618E+06     1.76855E+06    -208.831E-03     417.936E-03    -209.105E-03     7.52739E-03    -208.720E-03     416.814E-03    -208.966E-03     7.15449E-03
             218     2.18663E-03    -27.7556E-18    -74.4171E+06    -259.539E+06    -67.9126E+06     777.137E+03    -208.533E-03     417.521E-03    -208.988E-03     11.4884E-03    -208.438E-03     416.435E-03    -208.843E-03     10.9294E-03
             219     2.91556E-03    -27.7556E-18    -71.9599E+06    -243.965E+06    -63.1945E+06     -1.3399E+06    -208.064E-03     416.903E-03    -208.839E-03     15.2095E-03    -207.991E-03     415.891E-03    -208.697E-03     14.4188E-03
             220     3.64592E-03    -27.7556E-18    -67.6149E+06    -217.814E+06    -58.6967E+06    -3.35794E+06    -207.551E-03     416.189E-03    -208.639E-03     18.4823E-03    -207.507E-03     415.301E-03    -208.518E-03     17.4627E-03
             221     4.37585E-03    -27.7556E-18    -61.4874E+06    -178.886E+06    -54.7259E+06    -5.65356E+06    -207.022E-03     415.418E-03    -208.396E-03     21.9061E-03    -207.017E-03     414.717E-03    -208.321E-03     20.6492E-03
             222     5.10624E-03    -27.7556E-18    -53.2067E+06    -132.660E+06    -49.2299E+06    -8.63712E+06    -206.461E-03     414.595E-03    -208.135E-03     25.6170E-03    -206.500E-03     414.117E-03    -208.111E-03     24.0992E-03
             223     5.83717E-03    -27.7556E-18    -43.2769E+06     -76.939E+06    -40.2289E+06    -9.79721E+06    -206.179E-03     414.062E-03    -207.883E-03     29.2900E-03    -206.275E-03     413.847E-03    -207.910E-03     27.5177E-03
             224     6.56810E-03    -27.7556E-18    -33.8855E+06    -27.0351E+06    -25.0765E+06    -7.52217E+06    -206.444E-03     414.167E-03    -207.723E-03     32.5875E-03    -206.602E-03     414.180E-03    -207.760E-03     30.5906E-03
             225     7.29885E-03    -27.7556E-18    -26.5053E+06    -2.96790E+06    -8.10487E+06    -4.39012E+06    -207.410E-03     415.119E-03    -207.709E-03     36.1993E-03    -207.609E-03     415.236E-03    -207.707E-03     33.9504E-03
             226     8.02773E-03    -27.7556E-18    -21.7839E+06     7.24789E+06     8.56113E+06    -207.795E+03    -209.318E-03     417.181E-03    -207.863E-03     40.0951E-03    -209.555E-03     417.341E-03    -207.799E-03     37.5695E-03
             227     8.75606E-03    -27.7556E-18    -20.1709E+06     14.9750E+06     24.5134E+06     2.93174E+06    -212.614E-03     420.838E-03    -208.225E-03     44.2067E-03    -212.909E-03     421.044E-03    -208.095E-03     41.2652E-03
             228     9.48013E-03    -27.7556E-18    -18.9477E+06     22.7276E+06     44.7541E+06     2.12992E+06    -217.987E-03     426.884E-03    -208.897E-03     48.0407E-03    -218.356E-03     427.137E-03    -208.678E-03     44.5214E-03
             229     10.2020E-03    -27.7556E-18    -16.3617E+06     28.4577E+06     64.2434E+06     3.27732E+06    -227.274E-03     437.272E-03    -209.998E-03     53.7684E-03    -227.727E-03     437.582E-03    -209.694E-03     49.4796E-03
             230     10.9112E-03    -27.7556E-18    -13.8207E+06     34.4583E+06     71.1576E+06     1.91230E+06    -242.108E-03     453.791E-03    -211.684E-03     60.5578E-03    -242.670E-03     454.224E-03    -211.358E-03     54.8961E-03
             231     11.6134E-03    -27.7556E-18    -12.2978E+06     42.1366E+06     71.9110E+06     1.90721E+06    -265.594E-03     479.871E-03    -214.277E-03     75.7615E-03    -266.351E-03     480.530E-03    -213.961E-03     68.2255E-03
             232     12.2813E-03    -27.7556E-18    -13.0800E+06     46.7713E+06     71.4499E+06     2.19525E+06    -302.307E-03     520.534E-03    -218.228E-03     106.609E-03    -303.619E-03     521.771E-03    -217.919E-03     94.7546E-03
             233     12.9261E-03    -27.7556E-18    -8.71923E+06     59.3162E+06     77.1838E+06     163.906E+03    -365.885E-03     590.132E-03    -224.246E-03     122.902E-03    -367.755E-03     592.028E-03    -223.934E-03     104.524E-03
             234     13.5602E-03    -27.7556E-18     7.09463E+06     84.6857E+06     94.4826E+06     8.21532E+06    -473.651E-03     707.013E-03    -233.362E-03     197.387E-03    -478.015E-03     711.425E-03    -233.023E-03     165.888E-03
             235     14.2068E-03     2.26857E-03    -2.26176E+06     85.7255E+06     83.8897E+06    -384.517E+03    -463.876E-03     699.924E-03    -236.048E-03     257.808E-03    -472.167E-03     708.194E-03    -235.750E-03     213.474E-03
             236     14.2137E-03     3.95804E-03    -9.81076E+06     72.0818E+06     68.7455E+06    -1.09803E+06    -360.624E-03     593.362E-03    -232.737E-03     181.891E-03    -367.523E-03     600.259E-03    -232.484E-03     143.914E-03
             237     14.2653E-03     5.58467E-03    -2.24196E+06     72.8155E+06     73.7929E+06     3.70306E+06    -319.261E-03     550.925E-03    -231.665E-03     132.697E-03    -324.202E-03     555.900E-03    -231.398E-03     101.431E-03
             238     14.2614E-03     7.18996E-03    -3.53641E+06     72.8484E+06     78.8597E+06    -2.13257E+06    -307.573E-03     538.499E-03    -230.926E-03     107.137E-03    -312.084E-03     543.050E-03    -230.632E-03     76.4651E-03
             239     14.2735E-03     8.85547E-03    -229.795E+03     72.0440E+06     83.8426E+06     101.920E+03    -296.663E-03     527.518E-03    -230.855E-03     95.3272E-03    -300.562E-03     531.439E-03    -230.540E-03     66.8968E-03
             240     14.2732E-03     10.4019E-03    -2.09139E+06     68.8519E+06      81.406E+06    -1.25883E+06    -282.690E-03     513.647E-03    -230.957E-03     90.1979E-03    -286.486E-03     517.445E-03    -230.647E-03     63.0885E-03
             241     14.2746E-03     12.0038E-03    -1.56939E+06     66.6524E+06     81.1475E+06    -102.091E+03    -271.591E-03     502.736E-03    -231.145E-03     69.9840E-03    -274.646E-03     505.789E-03    -230.834E-03     45.7344E-03
             242     14.2764E-03     13.5368E-03    -1.54329E+06     65.0065E+06     81.8173E+06    -715.853E+03    -259.172E-03     490.607E-03    -231.435E-03     65.8739E-03    -262.048E-03     493.469E-03    -231.118E-03     43.3728E-03
             243     14.2728E-03     15.0878E-03    -2.55144E+06     63.0815E+06     81.2332E+06    -629.028E+03    -251.697E-03     483.423E-03    -231.725E-03     52.2349E-03    -254.164E-03     485.868E-03    -231.407E-03     31.6574E-03
             244     14.2725E-03     16.6130E-03    -940.300E+03     63.4109E+06     79.5734E+06     1.03825E+06    -240.493E-03     472.492E-03    -231.999E-03     52.0840E-03    -242.899E-03     474.888E-03    -231.691E-03     32.8191E-03
             245     14.2768E-03     18.1264E-03    -1.72052E+06     62.9064E+06     78.6849E+06     25.5522E+03    -236.826E-03     468.795E-03    -231.968E-03     52.5218E-03    -239.236E-03     471.194E-03    -231.663E-03     33.5605E-03
             246     14.2752E-03     19.6426E-03    -1.44331E+06     63.7501E+06     80.0451E+06     484.058E+03    -238.876E-03     470.698E-03    -231.823E-03     49.1076E-03    -241.195E-03     473.007E-03    -231.513E-03     30.2632E-03
             247     14.2796E-03     21.1716E-03    -1.43906E+06     63.9830E+06     80.5733E+06     386.339E+03    -237.589E-03     469.336E-03    -231.747E-03     48.4098E-03    -239.925E-03     471.661E-03    -231.435E-03     29.5179E-03
             248     14.2785E-03     22.6786E-03    -3.56075E+06     62.0455E+06     79.9933E+06    -36.4123E+03    -238.911E-03     470.521E-03    -231.610E-03     50.8748E-03    -241.325E-03     472.911E-03    -231.295E-03     31.6787E-03
             249     14.2821E-03     24.2144E-03    -1.07706E+06     64.3433E+06     81.6879E+06     637.166E+03    -238.564E-03     470.041E-03    -231.477E-03     49.4514E-03    -240.920E-03     472.385E-03    -231.160E-03     30.4389E-03
             250     14.2840E-03     25.7244E-03    -1.24652E+06     64.4355E+06     81.8392E+06    -533.538E+03    -237.731E-03     469.167E-03    -231.437E-03     50.1666E-03    -240.171E-03     471.594E-03    -231.119E-03     30.8503E-03
             251     14.2800E-03     27.2492E-03    -3.92622E+06     62.1571E+06     80.8340E+06    -315.468E+03    -238.904E-03     470.308E-03    -231.404E-03     50.0683E-03    -241.353E-03     472.730E-03    -231.084E-03     30.7240E-03
             252     14.2864E-03     28.7694E-03    -2.35982E+06     63.3396E+06     80.0521E+06     293.999E+03    -235.985E-03     467.325E-03    -231.340E-03     52.9244E-03    -238.471E-03     469.796E-03    -231.028E-03     33.7723E-03
             253     14.2849E-03     30.2847E-03    -181.699E+03     65.9785E+06     82.1818E+06     389.781E+03    -234.603E-03     465.880E-03    -231.277E-03     53.4035E-03    -237.131E-03     468.403E-03    -230.961E-03     34.1698E-03
             254     14.2871E-03     31.7971E-03    -2.31131E+06     65.2387E+06     83.0744E+06    -895.355E+03    -235.340E-03     466.624E-03    -231.284E-03     50.7788E-03    -237.860E-03     469.127E-03    -230.960E-03     31.4474E-03
             255     14.2831E-03     33.3129E-03    -3.97463E+06     63.5343E+06     81.8083E+06    -280.057E+03    -235.558E-03     466.862E-03    -231.304E-03     51.7565E-03    -238.100E-03     469.378E-03    -230.981E-03     32.4555E-03
             256     14.2874E-03     34.8308E-03    -1.61913E+06     64.5883E+06     82.6519E+06     1.33484E+06    -233.745E-03     465.068E-03    -231.323E-03     51.7573E-03    -236.240E-03     467.548E-03    -231.001E-03     32.7903E-03
             257     14.2844E-03     36.3397E-03    -2.11714E+06     63.9143E+06     80.7229E+06     194.088E+03    -231.596E-03     462.923E-03    -231.327E-03     52.3504E-03    -234.129E-03     465.441E-03    -231.013E-03     33.3726E-03
             258     14.2885E-03     37.8465E-03    -2.46572E+06     64.3010E+06     81.2471E+06    -555.943E+03    -232.006E-03     463.253E-03    -231.246E-03     53.0855E-03    -234.581E-03     465.811E-03    -230.930E-03     33.9425E-03
             259     14.2873E-03     39.3595E-03    -1.88304E+06     65.4790E+06     84.3448E+06    -313.372E+03    -233.736E-03     464.970E-03    -231.233E-03     51.6864E-03    -236.292E-03     467.506E-03    -230.904E-03     32.5101E-03
             260     14.2846E-03     40.8807E-03    -1.32813E+06     65.2289E+06     83.5324E+06     613.708E+03    -231.358E-03     462.698E-03    -231.340E-03     53.6704E-03    -233.922E-03     465.246E-03    -231.015E-03     34.7745E-03
             261     14.2885E-03     42.3778E-03    -877.199E+03     64.9371E+06     80.9560E+06     241.236E+03    -228.807E-03     460.134E-03    -231.327E-03     55.5536E-03    -231.405E-03     462.725E-03    -231.015E-03     36.7240E-03
             262     14.2870E-03     43.8835E-03    -1.90542E+06     64.3927E+06     82.0275E+06    -602.805E+03    -231.428E-03     462.721E-03    -231.293E-03     50.6648E-03    -233.969E-03     465.247E-03    -230.974E-03     31.6609E-03
             263     14.2845E-03     45.3992E-03    -3.71681E+06     62.7640E+06     81.3993E+06    -192.290E+03    -231.533E-03     462.894E-03    -231.361E-03     51.1272E-03    -234.079E-03     465.414E-03    -231.040E-03     32.1954E-03
             264     14.2872E-03     46.9031E-03    -2.04128E+06     63.3440E+06     81.2264E+06     317.373E+03    -229.056E-03     460.407E-03    -231.351E-03     53.7841E-03    -231.635E-03     462.968E-03    -231.034E-03     34.9733E-03
             265     14.2882E-03     48.4094E-03    -1.29214E+06     63.5088E+06     81.7362E+06    -1.34445E+06    -229.208E-03     460.523E-03    -231.315E-03     51.4942E-03    -231.776E-03     463.075E-03    -230.996E-03     32.5432E-03
             266     14.2853E-03     49.9154E-03    -2.11006E+06     63.2740E+06     81.5443E+06    -290.092E+03    -230.345E-03     461.669E-03    -231.324E-03     52.5776E-03    -232.934E-03     464.238E-03    -231.005E-03     33.5910E-03
             267     14.2881E-03     51.4272E-03    -3.33334E+06     62.0944E+06     81.0489E+06     175.299E+03    -231.301E-03     462.640E-03    -231.338E-03     53.3634E-03    -233.873E-03     465.184E-03    -231.018E-03     34.4564E-03
             268     14.2834E-03     52.9360E-03    -1.83659E+06     63.3173E+06      80.842E+06     933.223E+03    -229.126E-03     460.495E-03    -231.369E-03     53.6147E-03    -231.682E-03     463.035E-03    -231.054E-03     34.9399E-03
             269     14.2911E-03     54.4386E-03    -902.045E+03     65.1171E+06     82.3897E+06    -322.473E+03    -227.509E-03     458.884E-03    -231.375E-03     53.6464E-03    -230.106E-03     461.470E-03    -231.056E-03     34.8984E-03
             270     14.2825E-03     55.9392E-03    -2.98159E+06     62.7697E+06     81.7800E+06    -407.337E+03    -230.429E-03     461.785E-03    -231.355E-03     52.3191E-03    -233.006E-03     464.336E-03    -231.033E-03     33.4216E-03
             271     14.2892E-03     57.4560E-03    -1.35053E+06     64.2486E+06     82.4233E+06     1.60778E+06    -229.520E-03     460.897E-03    -231.377E-03     53.0457E-03    -232.070E-03     463.431E-03    -231.056E-03     34.3753E-03
             272     14.2845E-03     58.9566E-03    -3.48012E+06     62.9493E+06     80.6060E+06    -689.313E+03    -228.765E-03     460.181E-03    -231.417E-03     53.5071E-03    -231.366E-03     462.760E-03    -231.100E-03     34.6756E-03
             273     14.2857E-03     60.4625E-03    -2.85510E+06     62.4740E+06     80.3644E+06     371.387E+03    -229.089E-03     460.479E-03    -231.390E-03     53.2780E-03    -231.656E-03     463.024E-03    -231.075E-03     34.5547E-03
             274     14.2890E-03     61.9665E-03    -1.78656E+06     64.2711E+06     82.8508E+06     508.184E+03    -228.700E-03     460.056E-03    -231.356E-03     52.4041E-03    -231.249E-03     462.586E-03    -231.032E-03     33.7364E-03
             275     14.2840E-03     63.4773E-03    -2.02498E+06     65.1382E+06     84.4200E+06     869.301E+03    -228.989E-03     460.357E-03    -231.368E-03     52.9853E-03    -231.576E-03     462.923E-03    -231.038E-03     34.2006E-03
             276     14.2899E-03     64.9757E-03    -800.759E+03     66.2622E+06     85.1404E+06    -51.4836E+03    -228.227E-03     459.579E-03    -231.353E-03     52.1306E-03    -230.801E-03     462.139E-03    -231.022E-03     33.3396E-03
             277     14.2851E-03     66.4836E-03    -3.10054E+06     64.3144E+06     82.6109E+06    -1.16516E+06    -229.464E-03     460.798E-03    -231.334E-03     51.6512E-03    -232.047E-03     463.359E-03    -231.009E-03     32.7376E-03
             278     14.2877E-03     67.9933E-03    -3.05968E+06     64.3822E+06     82.4811E+06     758.108E+03    -228.995E-03     460.347E-03    -231.353E-03     52.9005E-03    -231.577E-03     462.908E-03    -231.029E-03     34.1547E-03
             279     14.2870E-03     69.4950E-03    -1.83352E+06     65.5224E+06     82.9668E+06     353.075E+03    -228.323E-03     459.662E-03    -231.339E-03     53.4619E-03    -230.907E-03     462.231E-03    -231.017E-03     34.7441E-03
             280     14.2875E-03     71.0010E-03    -435.478E+03     66.9963E+06     84.0804E+06     233.157E+03    -229.263E-03     460.568E-03    -231.304E-03     53.4209E-03    -231.827E-03     463.124E-03    -230.981E-03     34.6920E-03
             281     14.2878E-03     72.5102E-03    -1.89175E+06     65.0782E+06     83.9411E+06    -1.00599E+06    -228.648E-03     460.008E-03    -231.360E-03     51.7796E-03    -231.220E-03     462.560E-03    -231.032E-03     32.9962E-03
             282     14.2846E-03     74.0110E-03    -2.86306E+06     63.1314E+06     83.1603E+06    -571.905E+03    -228.180E-03     459.545E-03    -231.365E-03     54.9513E-03    -230.831E-03     462.168E-03    -231.036E-03     36.0683E-03
             283     14.2912E-03     75.5164E-03    -1.90105E+06     64.6828E+06     85.1381E+06     104.879E+03    -229.295E-03     460.627E-03    -231.331E-03     52.7520E-03    -231.876E-03     463.184E-03    -230.997E-03     33.9659E-03
             284     14.2819E-03     77.0286E-03    -3.65743E+06     63.9162E+06     83.4722E+06    -675.645E+03    -229.432E-03     460.840E-03    -231.408E-03     52.0643E-03    -232.029E-03     463.409E-03    -231.078E-03     33.1770E-03
             285     14.2891E-03     78.5261E-03     496.113E+03     64.8468E+06     84.4296E+06     518.280E+03    -226.659E-03     458.016E-03    -231.357E-03     55.8163E-03    -229.285E-03     460.629E-03    -231.030E-03     37.1076E-03
             286     14.2907E-03     80.0303E-03    -1.14319E+06     64.1404E+06     85.9111E+06    -396.565E+03    -229.329E-03     460.607E-03    -231.277E-03     52.4757E-03    -231.913E-03     463.164E-03    -230.939E-03     33.5843E-03
             287     14.2815E-03     81.5449E-03    -6.31090E+06     61.9117E+06     82.5335E+06    -278.197E+03    -232.039E-03     463.412E-03    -231.373E-03     50.9360E-03    -234.606E-03     465.937E-03    -231.041E-03     31.9922E-03
             288     14.2888E-03     83.0463E-03    -2.66958E+06     64.2900E+06     82.0315E+06     588.127E+03    -228.326E-03     459.720E-03    -231.394E-03     54.4823E-03    -230.896E-03     462.271E-03    -231.073E-03     35.9276E-03
             289     14.2870E-03     84.5568E-03    -668.305E+03     66.6934E+06     85.5267E+06     450.736E+03    -227.905E-03     459.295E-03    -231.390E-03     53.6738E-03    -230.504E-03     461.880E-03    -231.058E-03     34.9533E-03
             290     14.2846E-03     86.0584E-03    -2.30859E+06     65.4247E+06     84.3604E+06    -46.3196E+03    -228.637E-03     460.060E-03    -231.423E-03     53.3226E-03    -231.269E-03     462.671E-03    -231.092E-03     34.4237E-03
             291     14.2882E-03     87.5585E-03      -60.74E+03     66.0577E+06     83.9235E+06     8.20145E+03    -227.154E-03     458.486E-03    -231.333E-03     54.9984E-03    -229.772E-03     461.095E-03    -231.009E-03     36.2571E-03
             292     715.454E-06     86.3654E-03    -131.035E+06    -312.685E+06    -127.919E+06    -3.10666E+03    -231.494E-03     462.709E-03    -231.215E-03     24.3811E-03    -231.599E-03     461.611E-03    -231.211E-03     21.5178E-03
             293     1.42789E-03     86.4137E-03    -127.176E+06    -303.819E+06    -119.064E+06    -343.279E+03    -231.980E-03     463.362E-03    -231.383E-03     44.7002E-03    -232.282E-03     462.480E-03    -231.353E-03     39.3342E-03
             294     2.14241E-03     86.4904E-03    -122.342E+06    -287.198E+06    -105.088E+06       7.015E+03    -232.252E-03     463.738E-03    -231.487E-03     66.3189E-03    -232.909E-03     463.246E-03    -231.418E-03     58.2152E-03
             295     2.85584E-03     86.5957E-03    -115.582E+06    -264.012E+06    -87.8195E+06     239.063E+03    -232.662E-03     464.179E-03    -231.517E-03     88.5224E-03    -233.835E-03     464.259E-03    -231.405E-03     77.5282E-03
             296     3.57045E-03     86.7305E-03    -108.139E+06    -237.378E+06    -70.1792E+06     166.282E+03    -233.211E-03     464.726E-03    -231.514E-03     110.435E-03    -235.074E-03     465.565E-03    -231.364E-03     96.3818E-03
             297     4.28479E-03     86.8946E-03    -100.264E+06    -206.489E+06    -52.4163E+06     287.148E+03    -233.952E-03     465.458E-03    -231.506E-03     131.960E-03    -236.703E-03     467.272E-03    -231.324E-03     114.647E-03
             298     4.99898E-03     87.0864E-03    -91.8739E+06    -170.661E+06    -34.4026E+06     396.457E+03    -234.758E-03     466.266E-03    -231.507E-03     153.180E-03    -238.622E-03     469.297E-03    -231.299E-03     132.393E-03
             299     5.71355E-03     87.3072E-03    -83.2629E+06    -131.210E+06    -16.2940E+06     243.006E+03    -235.381E-03     466.890E-03    -231.509E-03     173.991E-03    -240.608E-03     471.403E-03    -231.280E-03     149.527E-03
             300     6.42725E-03     87.5539E-03    -74.3327E+06    -84.9030E+06     2.43606E+06    -128.980E+03    -235.759E-03     467.251E-03    -231.492E-03     194.705E-03    -242.642E-03     473.561E-03    -231.249E-03     166.379E-03
             301     7.14238E-03     87.8264E-03    -65.0398E+06    -28.6588E+06     22.3076E+06    -733.179E+03    -236.212E-03     467.670E-03    -231.459E-03     214.736E-03    -245.050E-03     476.111E-03    -231.211E-03     182.392E-03
             302     7.85697E-03     88.1235E-03    -56.5281E+06     8.48586E+06     36.9063E+06    -1.07242E+06    -236.617E-03     468.060E-03    -231.443E-03     233.464E-03    -247.626E-03     478.792E-03    -231.189E-03     197.123E-03
             303     8.57001E-03     88.4451E-03    -49.4287E+06     19.9812E+06     46.2353E+06    -80.6561E+03    -236.436E-03     467.880E-03    -231.443E-03     250.033E-03    -249.711E-03     480.916E-03    -231.170E-03     210.040E-03
             304     9.28617E-03     88.7833E-03    -42.1165E+06     30.1943E+06     56.8791E+06     777.277E+03    -235.693E-03     467.130E-03    -231.438E-03     261.634E-03    -251.036E-03     482.266E-03    -231.136E-03     218.756E-03
             305     9.99956E-03     89.1302E-03    -34.3740E+06     40.1735E+06     68.9348E+06     728.149E+03    -234.425E-03     465.856E-03    -231.431E-03     263.664E-03    -251.079E-03     482.331E-03    -231.095E-03     219.260E-03
             306     10.7154E-03     89.4717E-03    -27.4953E+06     48.3501E+06     79.1126E+06     448.582E+03    -232.657E-03     464.082E-03    -231.425E-03     254.365E-03    -249.455E-03     480.724E-03    -231.059E-03     210.144E-03
             307     11.4286E-03     89.7882E-03    -21.2063E+06     54.7619E+06     82.5218E+06     251.256E+03    -230.530E-03     461.918E-03    -231.387E-03     235.347E-03    -246.251E-03     477.518E-03    -231.024E-03     192.903E-03
             308     12.1453E-03     90.0742E-03    -14.5775E+06     60.8289E+06     83.6373E+06    -195.413E+03    -228.634E-03     459.965E-03    -231.330E-03     204.439E-03    -241.899E-03     473.151E-03    -230.979E-03     165.545E-03
             309     12.8619E-03     90.2988E-03    -8.46570E+06     68.5827E+06     86.1484E+06    -896.333E+03    -228.718E-03     460.029E-03    -231.311E-03     179.807E-03    -240.107E-03     471.381E-03    -230.968E-03     143.332E-03
             310     13.5763E-03     90.5247E-03    -5.05681E+06     68.3843E+06      84.938E+06    -192.125E+03    -229.872E-03     461.223E-03    -231.351E-03     113.366E-03    -236.729E-03     468.058E-03    -231.018E-03     85.7950E-03
             311     712.759E-06     87.8720E-03    -129.407E+06    -312.264E+06    -128.118E+06     156.815E+03    -232.391E-03     463.539E-03    -231.148E-03     24.7192E-03    -232.489E-03     462.441E-03    -231.148E-03     21.8489E-03
             312     1.42766E-03     87.9185E-03    -126.690E+06    -303.604E+06    -118.406E+06     32.3321E+03    -231.689E-03     463.340E-03    -231.651E-03     45.2507E-03    -231.993E-03     462.460E-03    -231.619E-03     39.8868E-03
             313     2.14150E-03     87.9949E-03    -121.755E+06    -286.978E+06    -104.437E+06    -73.7954E+03    -231.955E-03     463.502E-03    -231.547E-03     67.0684E-03    -232.616E-03     463.015E-03    -231.476E-03     58.9622E-03
             314     2.85669E-03     88.1000E-03    -115.468E+06    -264.037E+06    -87.9213E+06    -90.9313E+03    -232.580E-03     464.078E-03    -231.499E-03     88.9933E-03    -233.757E-03     464.163E-03    -231.388E-03     77.9908E-03
             315     3.57058E-03     88.2355E-03    -108.091E+06    -237.484E+06    -70.0214E+06    -187.454E+03    -233.369E-03     464.871E-03    -231.502E-03     110.615E-03    -235.233E-03     465.711E-03    -231.351E-03     96.5528E-03
             316     4.28485E-03     88.3988E-03    -99.9596E+06    -206.652E+06    -52.1530E+06    -254.959E+03    -234.139E-03     465.663E-03    -231.524E-03     131.999E-03    -236.889E-03     467.476E-03    -231.340E-03     114.667E-03
             317     4.99899E-03     88.5923E-03    -91.6562E+06    -170.911E+06    -34.5285E+06    -308.794E+03    -234.786E-03     466.321E-03    -231.536E-03     153.373E-03    -238.651E-03     469.355E-03    -231.328E-03     132.574E-03
             318     5.71261E-03     88.8118E-03    -82.9335E+06    -130.762E+06    -16.0895E+06    -371.190E+03    -235.212E-03     466.735E-03    -231.523E-03     174.343E-03    -240.445E-03     471.256E-03    -231.293E-03     149.890E-03
             319     6.42808E-03     89.0583E-03    -74.1510E+06    -84.1475E+06     2.59497E+06    -901.288E+03    -235.731E-03     467.219E-03    -231.488E-03     194.854E-03    -242.611E-03     473.529E-03    -231.246E-03     166.536E-03
             320     7.14234E-03     89.3311E-03    -65.9764E+06    -28.3262E+06     21.8812E+06    -1.06933E+06    -236.312E-03     467.768E-03    -231.456E-03     214.840E-03    -245.150E-03     476.208E-03    -231.210E-03     182.496E-03
             321     7.85586E-03     89.6303E-03    -58.4082E+06     7.77421E+06     35.6998E+06     107.382E+03    -236.427E-03     467.861E-03    -231.434E-03     233.661E-03    -247.451E-03     478.602E-03    -231.182E-03     197.357E-03
             322     8.57175E-03     89.9491E-03    -50.5443E+06     19.0226E+06     45.3737E+06     706.991E+03    -236.154E-03     467.569E-03    -231.415E-03     250.204E-03    -249.443E-03     480.615E-03    -231.143E-03     210.252E-03
             323     9.28541E-03     90.2882E-03    -42.3923E+06     30.2160E+06     57.3531E+06     386.671E+03    -235.636E-03     467.038E-03    -231.402E-03     261.608E-03    -250.991E-03     482.183E-03    -231.098E-03     218.712E-03
             324     10.0010E-03     90.6361E-03    -34.9027E+06     39.8935E+06     69.4432E+06     394.961E+03    -234.473E-03     465.874E-03    -231.401E-03     263.602E-03    -251.139E-03     482.356E-03    -231.061E-03     219.158E-03
             325     10.7147E-03     90.9755E-03    -27.4922E+06     48.5216E+06     79.3903E+06     686.095E+03    -232.539E-03     463.933E-03    -231.394E-03     254.203E-03    -249.329E-03     480.567E-03    -231.027E-03     209.995E-03
             326     11.4309E-03     91.2950E-03    -20.1629E+06     56.0641E+06     83.8362E+06     341.149E+03    -230.487E-03     461.848E-03    -231.361E-03     234.083E-03    -246.166E-03     477.411E-03    -230.994E-03     191.644E-03
             327     12.1453E-03     91.5740E-03    -14.2958E+06     61.4379E+06     84.5688E+06    -232.202E+03    -229.478E-03     460.817E-03    -231.339E-03     202.778E-03    -242.716E-03     473.978E-03    -230.985E-03     163.729E-03
             328     12.8561E-03     91.8109E-03    -8.62100E+06     68.3167E+06     85.9299E+06     324.755E+03    -228.993E-03     460.344E-03    -231.351E-03     180.463E-03    -240.366E-03     471.679E-03    -231.008E-03     144.056E-03
             329     13.5670E-03     92.0266E-03    -4.46768E+06     68.6442E+06     85.1238E+06     426.724E+03    -229.083E-03     460.451E-03    -231.368E-03     115.300E-03    -235.929E-03     467.277E-03    -231.035E-03     87.9248E-03
             330     714.078E-06     89.3757E-03    -129.507E+06    -312.100E+06    -127.808E+06    -103.276E+03    -231.635E-03     463.218E-03    -231.583E-03     24.3127E-03    -231.736E-03     462.121E-03    -231.582E-03     21.4265E-03
             331     1.42812E-03     89.4237E-03    -126.424E+06    -303.193E+06    -118.071E+06    -45.6237E+03    -231.483E-03     462.965E-03    -231.481E-03     45.7074E-03    -231.791E-03     462.089E-03    -231.449E-03     40.3208E-03
             332     2.14293E-03     89.4986E-03    -121.635E+06    -286.691E+06    -103.814E+06    -64.2687E+03    -232.066E-03     463.473E-03    -231.407E-03     67.3582E-03    -232.729E-03     462.988E-03    -231.334E-03     59.2423E-03
             333     2.85635E-03     89.6049E-03    -115.363E+06    -263.908E+06    -87.5641E+06    -217.353E+03    -232.819E-03     464.255E-03    -231.436E-03     88.9969E-03    -233.995E-03     464.339E-03    -231.324E-03     77.9871E-03
             334     3.57074E-03     89.7400E-03    -107.825E+06    -236.833E+06    -69.6196E+06    -440.893E+03    -233.504E-03     464.995E-03    -231.492E-03     110.592E-03    -235.369E-03     465.839E-03    -231.340E-03     96.5129E-03
             335     4.28445E-03     89.9047E-03    -99.8873E+06    -206.144E+06    -51.8886E+06    -733.025E+03    -234.093E-03     465.616E-03    -231.523E-03     132.247E-03    -236.846E-03     467.433E-03    -231.339E-03     114.917E-03
             336     4.99858E-03     90.0965E-03    -91.7033E+06    -170.454E+06    -34.5436E+06    -843.233E+03    -234.600E-03     466.113E-03    -231.513E-03     153.777E-03    -238.470E-03     469.152E-03    -231.306E-03     132.996E-03
             337     5.71403E-03     90.3167E-03    -83.6584E+06    -130.516E+06    -16.8206E+06    -579.293E+03    -235.319E-03     466.810E-03    -231.491E-03     174.531E-03    -240.558E-03     471.338E-03    -231.265E-03     150.059E-03
             338     6.42759E-03     90.5629E-03    -76.0670E+06    -83.8603E+06     1.47712E+06    -439.926E+03    -236.006E-03     467.486E-03    -231.480E-03     194.884E-03    -242.901E-03     473.808E-03    -231.241E-03     166.526E-03
             339     7.14167E-03     90.8371E-03    -68.2611E+06    -28.8732E+06     20.5247E+06    -81.8986E+03    -236.133E-03     467.587E-03    -231.455E-03     215.008E-03    -244.987E-03     476.038E-03    -231.211E-03     182.690E-03
             340     7.85742E-03     91.1343E-03    -59.5532E+06     6.75656E+06     34.5715E+06     47.2227E+03    -236.100E-03     467.510E-03    -231.410E-03     233.676E-03    -247.125E-03     478.247E-03    -231.160E-03     197.421E-03
             341     8.57107E-03     91.4545E-03    -50.6043E+06     18.9591E+06     44.6512E+06    -254.458E+03    -236.167E-03     467.547E-03    -231.380E-03     250.052E-03    -249.461E-03     480.599E-03    -231.110E-03     210.061E-03
             342     9.28649E-03     91.7932E-03    -42.7196E+06     29.9769E+06     56.7534E+06     144.380E+03    -235.735E-03     467.113E-03    -231.378E-03     261.388E-03    -251.091E-03     482.259E-03    -231.075E-03     218.453E-03
             343     10.0004E-03     92.1404E-03    -35.0801E+06     39.9358E+06     69.3856E+06     255.225E+03    -234.562E-03     465.953E-03    -231.391E-03     263.203E-03    -251.219E-03     482.425E-03    -231.051E-03     218.736E-03
             344     10.7157E-03     92.4817E-03    -27.7388E+06     48.5776E+06     79.1854E+06    -434.291E+03    -232.765E-03     464.167E-03    -231.402E-03     253.141E-03    -249.548E-03     480.795E-03    -231.037E-03     208.831E-03
             345     11.4294E-03     92.7970E-03    -20.7992E+06     55.7037E+06     83.1191E+06    -197.710E+03    -231.122E-03     462.527E-03    -231.405E-03     233.319E-03    -246.825E-03     478.113E-03    -231.040E-03     190.672E-03
             346     12.1425E-03     93.0841E-03    -14.5498E+06     61.2574E+06     83.9508E+06     726.653E+03    -229.645E-03     461.054E-03    -231.409E-03     203.326E-03    -242.905E-03     474.236E-03    -231.057E-03     164.242E-03
             347     12.8593E-03     93.3145E-03    -10.1167E+06     68.1054E+06     84.4330E+06     662.227E+03    -228.417E-03     459.818E-03    -231.401E-03     179.804E-03    -239.711E-03     471.072E-03    -231.063E-03     143.669E-03
             348     13.5798E-03     93.5339E-03    -5.31927E+06     69.1983E+06     84.4874E+06     26.9216E+03    -229.392E-03     460.803E-03    -231.411E-03     113.629E-03    -236.170E-03     467.562E-03    -231.081E-03     86.3412E-03
             349     714.355E-06     90.8823E-03    -129.094E+06    -313.058E+06    -126.799E+06     633.524E+03    -231.194E-03     462.569E-03    -231.375E-03     24.4998E-03    -231.291E-03     461.464E-03    -231.368E-03     21.6195E-03
             350     1.42857E-03     90.9260E-03    -126.488E+06    -302.943E+06    -118.055E+06     299.777E+03    -231.739E-03     463.014E-03    -231.276E-03     44.8025E-03    -232.042E-03     462.135E-03    -231.243E-03     39.4573E-03
             351     2.14243E-03     91.0038E-03    -121.512E+06    -285.960E+06    -103.508E+06     125.245E+03    -232.221E-03     463.579E-03    -231.359E-03     67.0249E-03    -232.882E-03     463.094E-03    -231.285E-03     58.9196E-03
             352     2.85676E-03     91.1098E-03    -115.072E+06    -263.259E+06    -87.1261E+06    -175.630E+03    -232.794E-03     464.217E-03    -231.423E-03     88.8825E-03    -233.968E-03     464.301E-03    -231.310E-03     77.8896E-03
             353     3.57038E-03     91.2452E-03    -108.010E+06    -236.594E+06    -70.0110E+06    -251.006E+03    -233.317E-03     464.773E-03    -231.456E-03     111.010E-03    -235.186E-03     465.622E-03    -231.307E-03     96.9506E-03
             354     4.28499E-03     91.4093E-03    -100.404E+06    -205.195E+06    -52.0774E+06    -244.354E+03    -233.978E-03     465.441E-03    -231.463E-03     132.564E-03    -236.738E-03     467.267E-03    -231.280E-03     115.248E-03
             355     4.99985E-03     91.6010E-03    -92.8695E+06    -170.029E+06    -34.7860E+06    -333.502E+03    -234.772E-03     466.238E-03    -231.466E-03     153.559E-03    -238.645E-03     469.278E-03    -231.258E-03     132.771E-03
             356     5.71323E-03     91.8216E-03    -85.2073E+06    -130.872E+06    -17.5808E+06    -214.981E+03    -235.519E-03     466.995E-03    -231.475E-03     174.434E-03    -240.767E-03     471.526E-03    -231.250E-03     149.934E-03
             357     6.42768E-03     92.0691E-03    -76.8008E+06    -84.0739E+06     927.422E+03     350.182E+03    -235.954E-03     467.430E-03    -231.476E-03     194.916E-03    -242.860E-03     473.763E-03    -231.238E-03     166.549E-03
             358     7.14252E-03     92.3412E-03    -67.8411E+06    -28.6002E+06     20.6215E+06     304.766E+03    -236.030E-03     467.477E-03    -231.447E-03     214.681E-03    -244.882E-03     475.927E-03    -231.204E-03     182.362E-03
             359     7.85642E-03     92.6388E-03    -58.9185E+06     7.52964E+06     35.1278E+06    -304.607E+03    -236.067E-03     467.469E-03    -231.402E-03     233.381E-03    -247.091E-03     478.209E-03    -231.152E-03     197.104E-03
             360     8.57203E-03     92.9595E-03    -51.0851E+06     18.9688E+06     44.3761E+06    -430.118E+03    -236.183E-03     467.557E-03    -231.374E-03     249.943E-03    -249.482E-03     480.613E-03    -231.106E-03     209.933E-03
             361     9.28581E-03     93.2979E-03    -43.2368E+06     29.6196E+06     55.5916E+06    -653.722E+03    -235.981E-03     467.363E-03    -231.382E-03     261.108E-03    -251.344E-03     482.517E-03    -231.084E-03     218.092E-03
             362     10.0007E-03     93.6462E-03    -35.2895E+06     39.8231E+06     68.1250E+06    -857.732E+03    -234.861E-03     466.281E-03    -231.420E-03     262.609E-03    -251.528E-03     482.767E-03    -231.086E-03     218.023E-03
             363     10.7143E-03     93.9860E-03    -27.5915E+06     48.8876E+06     78.9193E+06    -249.558E+03    -233.135E-03     464.597E-03    -231.462E-03     252.906E-03    -249.939E-03     481.248E-03    -231.098E-03     208.489E-03
             364     11.4282E-03     94.3051E-03    -21.3736E+06     55.3620E+06     82.3893E+06    -222.276E+03    -231.260E-03     462.737E-03    -231.478E-03     233.850E-03    -246.998E-03     478.357E-03    -231.115E-03     191.147E-03
             365     12.1435E-03     94.5882E-03    -15.5138E+06     60.3940E+06     82.2598E+06    -582.123E+03    -229.737E-03     461.217E-03    -231.480E-03     203.056E-03    -243.008E-03     474.408E-03    -231.133E-03     163.908E-03
             366     12.8562E-03     94.8194E-03    -9.79487E+06     68.3798E+06     83.3465E+06     419.043E+03    -229.280E-03     460.778E-03    -231.498E-03     178.652E-03    -240.572E-03     472.036E-03    -231.167E-03     142.273E-03
             367     13.5623E-03     95.0387E-03    -4.87055E+06     69.4491E+06     83.2774E+06     853.654E+03    -228.359E-03     459.864E-03    -231.505E-03     114.517E-03    -235.160E-03     466.653E-03    -231.182E-03     87.1890E-03
             368     714.290E-06     92.3856E-03    -128.413E+06    -316.432E+06    -127.078E+06     1.51730E+06    -231.479E-03     462.619E-03    -231.140E-03     24.0933E-03    -231.565E-03     461.497E-03    -231.130E-03     21.2634E-03
             369     1.42818E-03     92.4311E-03    -126.164E+06    -302.330E+06    -118.223E+06     1.02435E+06    -231.867E-03     463.182E-03    -231.314E-03     44.9064E-03    -232.171E-03     462.307E-03    -231.284E-03     39.5519E-03
             370     2.14224E-03     92.5083E-03    -121.203E+06    -285.617E+06    -103.917E+06     364.732E+03    -232.153E-03     463.551E-03    -231.398E-03     67.2367E-03    -232.815E-03     463.070E-03    -231.328E-03     59.1316E-03
             371     2.85629E-03     92.6142E-03    -114.992E+06    -262.728E+06    -87.2456E+06     374.910E+03    -232.539E-03     463.950E-03    -231.412E-03     89.0875E-03    -233.714E-03     464.038E-03    -231.300E-03     78.1081E-03
             372     3.57132E-03     92.7495E-03    -108.170E+06    -236.240E+06    -69.8133E+06      288.91E+03    -233.258E-03     464.674E-03    -231.416E-03     110.689E-03    -235.122E-03     465.517E-03    -231.265E-03     96.6576E-03
             373     4.28558E-03     92.9136E-03    -100.909E+06    -205.239E+06    -52.4269E+06     412.686E+03    -234.132E-03     465.571E-03    -231.439E-03     132.012E-03    -236.887E-03     467.391E-03    -231.258E-03     114.697E-03
             374     4.99886E-03     93.1067E-03    -92.8287E+06    -169.473E+06    -34.4348E+06     523.666E+03    -234.896E-03     466.370E-03    -231.474E-03     153.152E-03    -238.768E-03     469.410E-03    -231.266E-03     132.351E-03
             375     5.71353E-03     93.3265E-03    -84.2257E+06    -130.649E+06    -16.6158E+06     368.236E+03    -235.422E-03     466.912E-03    -231.490E-03     174.446E-03    -240.673E-03     471.449E-03    -231.262E-03     149.943E-03
             376     6.42789E-03     93.5739E-03    -75.5155E+06    -84.5479E+06     1.31785E+06     372.828E+03    -235.863E-03     467.340E-03    -231.478E-03     194.835E-03    -242.766E-03     473.672E-03    -231.239E-03     166.457E-03
             377     7.14184E-03     93.8462E-03    -66.8510E+06    -28.1900E+06     20.9331E+06     549.277E+03    -236.071E-03     467.519E-03    -231.448E-03     214.373E-03    -244.922E-03     475.972E-03    -231.206E-03     182.034E-03
             378     7.85705E-03     94.1437E-03    -58.5903E+06     8.61680E+06     35.5284E+06     396.963E+03    -236.222E-03     467.638E-03    -231.416E-03     233.306E-03    -247.257E-03     478.393E-03    -231.165E-03     196.984E-03
             379     8.57104E-03     94.4633E-03    -50.1864E+06     20.1099E+06     45.7526E+06    -61.9066E+03    -236.471E-03     467.882E-03    -231.411E-03     249.780E-03    -249.774E-03     480.946E-03    -231.138E-03     209.707E-03
             380     9.28605E-03     94.8044E-03    -42.4203E+06     30.6045E+06     57.0946E+06    -524.967E+03    -236.165E-03     467.604E-03    -231.440E-03     260.776E-03    -251.531E-03     482.763E-03    -231.137E-03     217.711E-03
             381     9.99922E-03     95.1515E-03    -35.4180E+06     39.8484E+06     68.6916E+06    -563.287E+03    -234.971E-03     466.456E-03    -231.485E-03     262.589E-03    -251.647E-03     482.949E-03    -231.148E-03     217.980E-03
             382     10.7137E-03     95.4926E-03    -28.6364E+06     47.9569E+06     78.0023E+06    -583.629E+03    -233.157E-03     464.678E-03    -231.520E-03     253.534E-03    -249.981E-03     481.344E-03    -231.158E-03     209.108E-03
             383     11.4281E-03     95.8104E-03    -21.2700E+06     55.4508E+06     82.0534E+06    -126.091E+03    -231.263E-03     462.791E-03    -231.528E-03     234.147E-03    -246.989E-03     478.400E-03    -231.167E-03     191.490E-03
             384     12.1413E-03     96.0941E-03    -15.0848E+06     60.8665E+06     82.6868E+06     56.0693E+03    -229.952E-03     461.480E-03    -231.529E-03     204.533E-03    -243.235E-03     474.686E-03    -231.181E-03     165.427E-03
             385     12.8544E-03     96.3298E-03    -9.41422E+06     67.4240E+06     83.5283E+06     41.9937E+03    -228.262E-03     459.771E-03    -231.509E-03     182.675E-03    -239.673E-03     471.145E-03    -231.175E-03     146.394E-03
             386     13.5757E-03     96.5473E-03    -3.71987E+06     69.3649E+06     83.8618E+06     427.119E+03    -227.056E-03     458.493E-03    -231.437E-03     117.652E-03    -233.945E-03     465.372E-03    -231.113E-03     90.4108E-03
             387     714.138E-06     93.8881E-03    -128.368E+06    -318.972E+06    -127.602E+06     161.601E+03    -230.951E-03     462.853E-03    -231.903E-03     24.2632E-03    -231.034E-03     461.723E-03    -231.892E-03     21.3741E-03
             388     1.42834E-03     93.9372E-03    -125.310E+06    -302.330E+06    -119.048E+06     538.314E+03    -231.732E-03     463.103E-03    -231.371E-03     45.1775E-03    -232.032E-03     462.230E-03    -231.346E-03     39.7821E-03
             389     2.14239E-03     94.0118E-03    -121.261E+06    -286.068E+06    -104.599E+06     617.756E+03    -232.099E-03     463.497E-03    -231.398E-03     67.0349E-03    -232.759E-03     463.014E-03    -231.330E-03     58.9285E-03
             390     2.85711E-03     94.1188E-03    -115.208E+06    -263.365E+06    -87.6820E+06     788.114E+03    -232.726E-03     464.154E-03    -231.429E-03     88.8118E-03    -233.900E-03     464.239E-03    -231.318E-03     77.8207E-03
             391     3.57058E-03     94.2537E-03    -107.971E+06    -235.873E+06    -69.4069E+06     1.04484E+06    -233.462E-03     464.938E-03    -231.476E-03     110.184E-03    -235.323E-03     465.780E-03    -231.325E-03     96.1399E-03
             392     4.28437E-03     94.4190E-03    -100.139E+06    -205.106E+06    -51.5770E+06     744.950E+03    -234.076E-03     465.586E-03    -231.510E-03     131.948E-03    -236.829E-03     467.405E-03    -231.325E-03     114.634E-03
             393     4.99920E-03     94.6114E-03    -91.6419E+06    -169.595E+06    -34.0284E+06     624.645E+03    -234.724E-03     466.240E-03    -231.516E-03     153.348E-03    -238.598E-03     469.285E-03    -231.307E-03     132.539E-03
             394     5.71327E-03     94.8313E-03    -83.2662E+06    -130.589E+06    -16.3764E+06     621.025E+03    -235.408E-03     466.922E-03    -231.514E-03     174.281E-03    -240.654E-03     471.456E-03    -231.285E-03     149.774E-03
             395     6.42757E-03     95.0789E-03    -75.1877E+06    -84.3578E+06     1.56098E+06     645.449E+03    -235.791E-03     467.288E-03    -231.497E-03     194.628E-03    -242.690E-03     473.616E-03    -231.258E-03     166.268E-03
             396     7.14233E-03     95.3515E-03    -66.5588E+06    -28.0959E+06     21.4725E+06     675.520E+03    -236.105E-03     467.572E-03    -231.467E-03     214.266E-03    -244.955E-03     476.024E-03    -231.222E-03     181.915E-03
             397     7.85647E-03     95.6477E-03    -57.3947E+06     9.26217E+06     36.6078E+06     585.673E+03    -236.630E-03     468.085E-03    -231.455E-03     233.062E-03    -247.665E-03     478.843E-03    -231.202E-03     196.665E-03
             398     8.57100E-03     95.9702E-03    -49.3743E+06     21.0868E+06     46.5499E+06     544.675E+03    -236.755E-03     468.234E-03    -231.479E-03     249.610E-03    -250.068E-03     481.311E-03    -231.205E-03     209.466E-03
             399     9.28409E-03     96.3089E-03    -42.1062E+06     31.0739E+06     57.7351E+06     734.460E+03    -236.036E-03     467.545E-03    -231.510E-03     260.949E-03    -251.397E-03     482.700E-03    -231.205E-03     217.942E-03
             400     9.99942E-03     96.6579E-03    -34.6806E+06     40.6122E+06     69.4059E+06     693.661E+03    -234.717E-03     466.247E-03    -231.529E-03     263.242E-03    -251.388E-03     482.737E-03    -231.191E-03     218.743E-03
             401     10.7134E-03     96.9980E-03    -27.5103E+06     48.9427E+06     78.9832E+06     367.362E+03    -232.961E-03     464.498E-03    -231.537E-03     254.300E-03    -249.778E-03     481.162E-03    -231.174E-03     209.984E-03
             402     11.4274E-03     97.3168E-03    -21.3201E+06     55.3811E+06     82.1633E+06    -36.2605E+03    -231.115E-03     462.635E-03    -231.521E-03     235.697E-03    -246.875E-03     478.278E-03    -231.159E-03     193.094E-03
             403     12.1421E-03     97.6012E-03    -15.4442E+06     60.5020E+06     82.4486E+06     293.236E+03    -228.869E-03     460.342E-03    -231.473E-03     206.106E-03    -242.178E-03     473.572E-03    -231.126E-03     167.197E-03
             404     12.8588E-03     97.8340E-03    -10.2031E+06     66.9747E+06     83.8642E+06    -571.449E+03    -227.465E-03     458.869E-03    -231.404E-03     181.489E-03    -238.836E-03     470.198E-03    -231.067E-03     145.366E-03
             405     13.5719E-03     98.0427E-03    -4.43504E+06     69.2775E+06     85.0771E+06    -841.257E+03    -228.430E-03     459.792E-03    -231.362E-03     113.363E-03    -235.248E-03     466.594E-03    -231.031E-03     86.0542E-03
             406     713.935E-06     95.3941E-03    -127.515E+06    -319.403E+06    -126.601E+06    -307.264E+03    -231.633E-03     463.030E-03    -231.397E-03     25.1568E-03    -231.716E-03     461.894E-03    -231.381E-03     22.2263E-03
             407     1.42802E-03     95.4403E-03    -126.200E+06    -303.419E+06    -119.220E+06     405.945E+03    -231.799E-03     463.252E-03    -231.453E-03     45.0000E-03    -232.101E-03     462.374E-03    -231.426E-03     39.6093E-03
             408     2.14250E-03     95.5168E-03    -121.768E+06    -286.521E+06    -104.498E+06     803.106E+03    -232.320E-03     463.822E-03    -231.502E-03     66.5777E-03    -232.978E-03     463.334E-03    -231.432E-03     58.4701E-03
             409     2.85583E-03     95.6233E-03    -115.528E+06    -263.712E+06    -87.6661E+06     638.474E+03    -232.848E-03     464.405E-03    -231.557E-03     88.5322E-03    -234.022E-03     464.487E-03    -231.445E-03     77.5322E-03
             410     3.57016E-03     95.7594E-03    -107.823E+06    -236.449E+06    -69.9436E+06     545.035E+03    -233.337E-03     464.915E-03    -231.578E-03     110.463E-03    -235.203E-03     465.762E-03    -231.428E-03     96.3919E-03
             411     4.28471E-03     95.9232E-03    -99.4820E+06    -205.265E+06    -51.7225E+06     595.718E+03    -233.963E-03     465.535E-03    -231.572E-03     132.128E-03    -236.718E-03     467.358E-03    -231.389E-03     114.805E-03
             412     4.99887E-03     96.1160E-03    -91.5935E+06    -170.035E+06    -34.2164E+06     625.823E+03    -234.745E-03     466.307E-03    -231.561E-03     153.368E-03    -238.620E-03     469.352E-03    -231.353E-03     132.553E-03
             413     5.71306E-03     96.3371E-03    -83.3927E+06    -130.528E+06    -16.3925E+06     654.176E+03    -235.353E-03     466.905E-03    -231.553E-03     174.136E-03    -240.598E-03     471.439E-03    -231.324E-03     149.637E-03
             414     6.42732E-03     96.5834E-03    -74.7706E+06    -84.1518E+06     2.27206E+06     713.216E+03    -235.813E-03     467.346E-03    -231.534E-03     194.530E-03    -242.710E-03     473.673E-03    -231.292E-03     166.166E-03
             415     7.14190E-03     96.8558E-03    -65.8356E+06    -27.7185E+06     22.1095E+06     577.698E+03    -236.382E-03     467.896E-03    -231.514E-03     214.179E-03    -245.228E-03     476.346E-03    -231.268E-03     181.790E-03
             416     7.85603E-03     97.1548E-03    -57.3050E+06     8.60705E+06     36.5311E+06     720.117E+03    -236.751E-03     468.267E-03    -231.515E-03     233.194E-03    -247.788E-03     479.024E-03    -231.262E-03     196.788E-03
             417     8.56937E-03     97.4751E-03    -49.2172E+06     20.5734E+06     46.4926E+06     1.52139E+06    -236.584E-03     468.111E-03    -231.527E-03     250.165E-03    -249.901E-03     481.192E-03    -231.253E-03     210.085E-03
             418     9.28493E-03     97.8151E-03    -41.3485E+06     31.7393E+06     57.9655E+06     1.53128E+06    -235.827E-03     467.356E-03    -231.530E-03     261.618E-03    -251.192E-03     482.520E-03    -231.226E-03     218.683E-03
             419     9.99881E-03     98.1621E-03    -33.9422E+06     41.2342E+06     69.5351E+06     1.14338E+06    -234.463E-03     465.984E-03    -231.522E-03     263.977E-03    -251.133E-03     482.479E-03    -231.184E-03     219.561E-03
             420     10.7139E-03     98.5043E-03    -26.8931E+06     49.5598E+06     79.4515E+06     1.27071E+06    -232.667E-03     464.171E-03    -231.505E-03     255.018E-03    -249.488E-03     480.843E-03    -231.140E-03     210.786E-03
             421     11.4292E-03     98.8218E-03    -20.2406E+06     56.4382E+06     83.7965E+06     1.25034E+06    -230.450E-03     461.909E-03    -231.459E-03     235.849E-03    -246.209E-03     477.554E-03    -231.093E-03     193.382E-03
             422     12.1441E-03     99.1072E-03    -14.3754E+06     61.7270E+06     84.4506E+06     81.9136E+03    -228.795E-03     460.194E-03    -231.399E-03     204.478E-03    -242.077E-03     473.399E-03    -231.046E-03     165.566E-03
             423     12.8596E-03     99.3330E-03    -8.81767E+06     68.7742E+06     85.3392E+06    -173.485E+03    -228.762E-03     460.134E-03    -231.372E-03     180.500E-03    -240.126E-03     471.463E-03    -231.032E-03     144.167E-03
             424     13.5716E-03     99.5629E-03    -4.63728E+06     69.5384E+06     84.6765E+06     200.797E+03    -229.182E-03     460.567E-03    -231.385E-03     114.438E-03    -236.034E-03     467.404E-03    -231.056E-03     86.9945E-03
             425     714.138E-06     96.8987E-03    -129.251E+06    -321.072E+06    -128.118E+06     597.176E+03    -232.091E-03     463.115E-03    -231.024E-03     24.4036E-03    -232.176E-03     461.973E-03    -231.012E-03     21.5142E-03
             426     1.42816E-03     96.9451E-03    -126.870E+06    -303.755E+06    -119.190E+06     946.835E+03    -232.059E-03     463.603E-03    -231.544E-03     45.2680E-03    -232.365E-03     462.726E-03    -231.516E-03     39.8800E-03
             427     2.14135E-03     97.0225E-03    -122.032E+06    -286.596E+06    -104.257E+06     654.793E+03    -232.441E-03     464.072E-03    -231.631E-03     67.0367E-03    -233.105E-03     463.587E-03    -231.559E-03     58.9068E-03
             428     2.85584E-03     97.1283E-03    -115.118E+06    -263.301E+06    -87.4855E+06     307.098E+03    -232.746E-03     464.398E-03    -231.652E-03     88.9771E-03    -233.925E-03     464.488E-03    -231.541E-03     77.9606E-03
             429     3.57017E-03     97.2636E-03    -107.771E+06    -236.761E+06    -70.1228E+06     21.6605E+03    -233.320E-03     464.957E-03    -231.637E-03     110.598E-03    -235.188E-03     465.805E-03    -231.488E-03     96.5093E-03
             430     4.28430E-03     97.4281E-03    -100.047E+06    -205.834E+06    -52.3789E+06     154.853E+03    -234.081E-03     465.710E-03    -231.628E-03     131.962E-03    -236.836E-03     467.531E-03    -231.447E-03     114.618E-03
             431     4.99836E-03     97.6213E-03    -91.8432E+06    -170.329E+06    -34.5419E+06     273.756E+03    -234.700E-03     466.317E-03    -231.617E-03     153.412E-03    -238.574E-03     469.361E-03    -231.410E-03     132.603E-03
             432     5.71269E-03     97.8417E-03    -83.5428E+06    -130.422E+06    -16.5150E+06     551.126E+03    -235.309E-03     466.904E-03    -231.595E-03     174.201E-03    -240.554E-03     471.438E-03    -231.368E-03     149.711E-03
             433     6.42751E-03     98.0880E-03    -74.9473E+06    -84.4263E+06     2.02530E+06     358.054E+03    -236.044E-03     467.624E-03    -231.580E-03     194.542E-03    -242.939E-03     473.948E-03    -231.339E-03     166.152E-03
             434     7.14104E-03     98.3626E-03    -66.4038E+06    -28.6872E+06     21.2548E+06     658.798E+03    -236.371E-03     467.934E-03    -231.563E-03     214.603E-03    -245.223E-03     476.387E-03    -231.319E-03     182.231E-03
             435     7.85525E-03     98.6591E-03    -58.1425E+06     8.25407E+06     35.7919E+06     1.33819E+06    -236.430E-03     467.966E-03    -231.536E-03     233.975E-03    -247.477E-03     478.733E-03    -231.285E-03     197.649E-03
             436     8.57089E-03     98.9816E-03    -50.2074E+06     19.6348E+06     45.4751E+06     1.15200E+06    -236.291E-03     467.802E-03    -231.511E-03     250.668E-03    -249.605E-03     480.875E-03    -231.239E-03     210.673E-03
             437     9.28451E-03     99.3194E-03    -42.5064E+06     32.2511E+06     56.9906E+06     1.08421E+06    -235.621E-03     467.108E-03    -231.487E-03     262.030E-03    -250.991E-03     482.277E-03    -231.187E-03     219.146E-03
             438     9.99996E-03     99.6682E-03    -34.9407E+06     41.7814E+06     68.9908E+06     797.893E+03    -234.507E-03     465.981E-03    -231.473E-03     264.327E-03    -251.198E-03     482.496E-03    -231.138E-03     219.880E-03
             439     10.7148E-03     100.008E-03    -27.2836E+06     48.9936E+06     79.2169E+06     601.500E+03    -232.627E-03     464.090E-03    -231.463E-03     254.658E-03    -249.457E-03     480.767E-03    -231.098E-03     210.386E-03
             440     11.4289E-03     100.328E-03    -19.9658E+06     56.7796E+06     83.8657E+06     490.707E+03    -230.630E-03     462.063E-03    -231.433E-03     234.260E-03    -246.362E-03     477.682E-03    -231.067E-03     191.713E-03
             441     12.1449E-03     100.607E-03    -13.1317E+06     63.4798E+06     85.6065E+06     911.954E+03    -229.657E-03     461.075E-03    -231.419E-03     203.418E-03    -242.933E-03     474.282E-03    -231.064E-03     164.311E-03
             442     12.8555E-03     100.848E-03    -9.01791E+06     69.2206E+06     85.8353E+06     1.24678E+06    -228.587E-03     460.004E-03    -231.417E-03     179.825E-03    -239.923E-03     471.305E-03    -231.076E-03     143.560E-03
             443     13.5734E-03     101.056E-03    -5.21252E+06     69.1739E+06     84.3545E+06     610.731E+03    -228.260E-03     459.659E-03    -231.399E-03     114.037E-03    -235.066E-03     466.448E-03    -231.070E-03     86.7791E-03
             444     713.975E-06     98.4024E-03    -128.528E+06    -321.913E+06    -127.177E+06     101.857E+03    -231.407E-03     463.180E-03    -231.774E-03     24.7505E-03    -231.489E-03     462.032E-03    -231.756E-03     21.8840E-03
             445     1.42774E-03     98.4513E-03    -125.423E+06    -305.520E+06    -118.563E+06      675.53E+03    -232.076E-03     463.642E-03    -231.566E-03     45.7393E-03    -232.374E-03     462.754E-03    -231.534E-03     40.3494E-03
             446     2.14215E-03     98.5275E-03    -120.768E+06    -285.569E+06    -104.589E+06     491.533E+03    -232.383E-03     464.010E-03    -231.627E-03     67.1600E-03    -233.044E-03     463.532E-03    -231.561E-03     59.0196E-03
             447     2.85603E-03     98.6330E-03    -114.974E+06    -263.132E+06    -87.9918E+06     164.964E+03    -232.871E-03     464.525E-03    -231.655E-03     88.9176E-03    -234.049E-03     464.617E-03    -231.546E-03     77.8803E-03
             448     3.56989E-03     98.7691E-03    -107.840E+06    -236.469E+06    -70.0957E+06     246.654E+03    -233.499E-03     465.172E-03    -231.672E-03     110.667E-03    -235.369E-03     466.023E-03    -231.523E-03     96.5706E-03
             449     4.28383E-03     98.9332E-03    -100.092E+06    -205.551E+06    -52.2582E+06     166.581E+03    -234.107E-03     465.781E-03    -231.674E-03     132.298E-03    -236.869E-03     467.609E-03    -231.492E-03     114.947E-03
             450     4.99826E-03     99.1262E-03    -92.2398E+06    -170.384E+06    -34.8734E+06     230.939E+03    -234.737E-03     466.393E-03    -231.657E-03     153.458E-03    -238.610E-03     469.436E-03    -231.450E-03     132.656E-03
             451     5.71300E-03     99.3460E-03    -84.0756E+06    -131.162E+06    -17.3482E+06     309.176E+03    -235.442E-03     467.079E-03    -231.637E-03     174.288E-03    -240.684E-03     471.608E-03    -231.412E-03     149.791E-03
             452     6.42623E-03     99.5949E-03    -75.8264E+06    -84.3890E+06     1.09550E+06     368.405E+03    -235.851E-03     467.461E-03    -231.610E-03     194.959E-03    -242.751E-03     473.790E-03    -231.372E-03     166.610E-03
             453     7.14125E-03     99.8663E-03    -67.3748E+06    -29.2292E+06     20.5778E+06     467.181E+03    -236.055E-03     467.614E-03    -231.559E-03     215.241E-03    -244.917E-03     476.074E-03    -231.316E-03     182.923E-03
             454     7.85653E-03     100.166E-03    -58.3382E+06     6.44248E+06     34.7813E+06     1.01300E+06    -236.248E-03     467.751E-03    -231.503E-03     234.247E-03    -247.290E-03     478.507E-03    -231.253E-03     197.960E-03
             455     8.57009E-03     100.485E-03    -49.6904E+06     19.5616E+06     44.8848E+06     1.67101E+06    -236.064E-03     467.523E-03    -231.459E-03     250.642E-03    -249.366E-03     480.588E-03    -231.191E-03     210.707E-03
             456     9.28602E-03     100.825E-03    -41.8569E+06     33.0495E+06     57.1558E+06     1.38568E+06    -235.741E-03     467.177E-03    -231.437E-03     261.975E-03    -251.119E-03     482.359E-03    -231.138E-03     219.049E-03
             457     10.0005E-03     101.172E-03    -34.4309E+06     42.5706E+06     69.6820E+06     1.16389E+06    -234.747E-03     466.194E-03    -231.448E-03     263.659E-03    -251.447E-03     482.722E-03    -231.111E-03     219.122E-03
             458     10.7141E-03     101.516E-03    -27.8389E+06     50.3642E+06     79.3808E+06     518.543E+03    -232.817E-03     464.279E-03    -231.462E-03     253.733E-03    -249.647E-03     480.959E-03    -231.098E-03     209.392E-03
             459     11.4297E-03     101.830E-03    -21.8485E+06     56.9757E+06     82.5578E+06    -306.920E+03    -231.259E-03     462.719E-03    -231.460E-03     234.659E-03    -247.044E-03     478.389E-03    -231.098E-03     191.926E-03
             460     12.1405E-03     102.120E-03    -16.4175E+06     60.5804E+06     81.8534E+06     422.425E+03    -229.379E-03     460.824E-03    -231.446E-03     204.450E-03    -242.686E-03     474.051E-03    -231.100E-03     165.398E-03
             461     12.8589E-03     102.346E-03    -9.15085E+06     68.8848E+06     84.4808E+06     1.16751E+06    -227.783E-03     459.191E-03    -231.408E-03     181.572E-03    -239.151E-03     470.526E-03    -231.072E-03     145.429E-03
             462     13.5699E-03     102.569E-03    -2.52932E+06     71.5361E+06     86.0513E+06     1.09939E+06    -227.506E-03     458.854E-03    -231.348E-03     116.503E-03    -234.382E-03     465.726E-03    -231.018E-03     89.1921E-03
             463     714.213E-06     99.9080E-03    -127.810E+06    -320.790E+06    -124.860E+06    -470.640E+03    -231.898E-03     463.670E-03    -231.772E-03     24.7477E-03    -231.981E-03     462.522E-03    -231.746E-03     21.8801E-03
             464     1.42812E-03     99.9563E-03    -124.751E+06    -308.349E+06    -117.501E+06     458.785E+03    -231.798E-03     463.514E-03    -231.716E-03     45.0538E-03    -232.087E-03     462.607E-03    -231.676E-03     39.6739E-03
             465     2.14185E-03     100.032E-03    -120.563E+06    -285.057E+06    -105.242E+06     820.096E+03    -232.248E-03     463.886E-03    -231.638E-03     66.9772E-03    -232.906E-03     463.409E-03    -231.576E-03     58.8534E-03
             466     2.85570E-03     100.139E-03    -114.694E+06    -262.591E+06    -88.0214E+06     556.666E+03    -232.904E-03     464.552E-03    -231.648E-03     88.9945E-03    -234.081E-03     464.645E-03    -231.541E-03     77.9686E-03
             467     3.56985E-03     100.274E-03    -107.816E+06    -236.467E+06    -70.3905E+06     327.849E+03    -233.471E-03     465.136E-03    -231.664E-03     110.955E-03    -235.342E-03     465.989E-03    -231.517E-03     96.8717E-03
             468     4.28425E-03     100.439E-03    -100.394E+06    -205.678E+06    -52.8046E+06     628.409E+03    -234.173E-03     465.839E-03    -231.665E-03     132.468E-03    -236.934E-03     467.666E-03    -231.486E-03     115.132E-03
             469     4.99836E-03     100.631E-03    -92.5576E+06    -170.084E+06    -35.0790E+06     741.589E+03    -234.887E-03     466.550E-03    -231.663E-03     153.681E-03    -238.766E-03     469.598E-03    -231.457E-03     132.871E-03
             470     5.71165E-03     100.852E-03    -84.6099E+06    -131.109E+06    -17.5755E+06     511.413E+03    -235.304E-03     466.944E-03    -231.640E-03     174.881E-03    -240.561E-03     471.486E-03    -231.415E-03     150.395E-03
             471     6.42733E-03     101.098E-03    -76.1999E+06    -84.5625E+06     686.856E+03     810.889E+03    -235.628E-03     467.213E-03    -231.585E-03     195.396E-03    -242.538E-03     473.550E-03    -231.349E-03     167.075E-03
             472     7.14201E-03     101.372E-03    -67.7912E+06    -28.8592E+06     20.2247E+06     743.588E+03    -235.996E-03     467.516E-03    -231.519E-03     215.274E-03    -244.862E-03     475.980E-03    -231.278E-03     182.963E-03
             473     7.85579E-03     101.670E-03    -59.8168E+06     5.72872E+06     33.8731E+06     220.503E+03    -236.095E-03     467.553E-03    -231.458E-03     234.088E-03    -247.138E-03     478.306E-03    -231.211E-03     197.816E-03
             474     8.57180E-03     101.991E-03    -51.4030E+06     18.2095E+06     43.9151E+06    -34.3829E+03    -236.259E-03     467.683E-03    -231.424E-03     250.419E-03    -249.577E-03     480.756E-03    -231.156E-03     210.389E-03
             475     9.28582E-03     102.329E-03    -43.0982E+06     32.3539E+06     56.7028E+06     492.319E+03    -236.086E-03     467.519E-03    -231.433E-03     261.566E-03    -251.484E-03     482.715E-03    -231.134E-03     218.516E-03
             476     9.99911E-03     102.681E-03    -35.8336E+06     41.9213E+06     68.7010E+06     1.29567E+06    -234.673E-03     466.131E-03    -231.458E-03     263.261E-03    -251.368E-03     482.649E-03    -231.123E-03     218.746E-03
             477     10.7149E-03     103.017E-03    -28.9845E+06     51.7949E+06     78.9302E+06     1.67239E+06    -232.891E-03     464.361E-03    -231.470E-03     254.405E-03    -249.744E-03     481.066E-03    -231.108E-03     210.079E-03
             478     11.4271E-03     103.341E-03    -22.7619E+06     58.4143E+06     82.7335E+06     1.55539E+06    -230.821E-03     462.270E-03    -231.449E-03     236.013E-03    -246.619E-03     477.955E-03    -231.087E-03     193.462E-03
             479     12.1451E-03     103.621E-03    -17.1219E+06     60.1209E+06     82.0996E+06     650.798E+03    -228.782E-03     460.179E-03    -231.397E-03     205.270E-03    -242.081E-03     473.393E-03    -231.049E-03     166.397E-03
             480     12.8573E-03     103.853E-03    -10.7735E+06     68.1581E+06     83.0029E+06    -1.23965E+06    -227.513E-03     458.841E-03    -231.328E-03     181.533E-03    -238.904E-03     470.194E-03    -230.996E-03     145.325E-03
             481     13.5772E-03     104.071E-03    -4.49903E+06     72.0593E+06     84.7922E+06    -1.03341E+06    -228.234E-03     459.521E-03    -231.286E-03     114.488E-03    -235.097E-03     466.378E-03    -230.960E-03     87.1157E-03
             482     712.577E-06     101.415E-03    -129.297E+06    -321.379E+06    -127.023E+06     129.172E+03    -232.240E-03     463.958E-03    -231.718E-03     24.3557E-03    -232.326E-03     462.814E-03    -231.699E-03     21.4613E-03
             483     1.42701E-03     101.460E-03    -126.123E+06    -309.617E+06    -117.927E+06     286.666E+03    -231.764E-03     463.597E-03    -231.833E-03     45.2516E-03    -232.060E-03     462.688E-03    -231.791E-03     39.8497E-03
             484     2.14184E-03     101.538E-03    -120.918E+06    -285.249E+06    -105.245E+06     328.506E+03    -232.095E-03     463.777E-03    -231.682E-03     67.3157E-03    -232.756E-03     463.301E-03    -231.619E-03     59.1890E-03
             485     2.85616E-03     101.644E-03    -114.616E+06    -263.016E+06    -88.3366E+06     742.097E+03    -232.735E-03     464.370E-03    -231.635E-03     89.0527E-03    -233.909E-03     464.460E-03    -231.529E-03     78.0520E-03
             486     3.57027E-03     101.779E-03    -107.923E+06    -236.526E+06    -70.5220E+06     1.02980E+06    -233.487E-03     465.123E-03    -231.636E-03     110.813E-03    -235.353E-03     465.971E-03    -231.490E-03     96.7575E-03
             487     4.28417E-03     101.943E-03    -100.625E+06    -206.041E+06    -52.9243E+06     964.556E+03    -234.141E-03     465.782E-03    -231.642E-03     132.478E-03    -236.900E-03     467.607E-03    -231.462E-03     115.157E-03
             488     4.99804E-03     102.137E-03    -92.5934E+06    -170.407E+06    -35.2745E+06     1.16817E+06    -234.607E-03     466.224E-03    -231.618E-03     154.017E-03    -238.491E-03     469.277E-03    -231.413E-03     133.234E-03
             489     5.71359E-03     102.356E-03    -84.4184E+06    -130.607E+06    -17.2703E+06     1.39218E+06    -235.195E-03     466.767E-03    -231.573E-03     175.124E-03    -240.456E-03     471.316E-03    -231.347E-03     150.660E-03
             490     6.42731E-03     102.604E-03    -76.3639E+06    -85.0199E+06     653.067E+03     1.16364E+06    -235.864E-03     467.395E-03    -231.531E-03     195.430E-03    -242.782E-03     473.738E-03    -231.293E-03     167.067E-03
             491     7.14140E-03     102.877E-03    -67.8944E+06    -28.7388E+06     20.2808E+06     1.48299E+06    -236.056E-03     467.544E-03    -231.487E-03     215.051E-03    -244.926E-03     476.012E-03    -231.246E-03     182.723E-03
             492     7.85724E-03     103.175E-03    -59.5157E+06     8.57780E+06     35.2878E+06     1.11349E+06    -236.234E-03     467.680E-03    -231.446E-03     233.617E-03    -247.278E-03     478.441E-03    -231.196E-03     197.315E-03
             493     8.57100E-03     103.495E-03    -52.0942E+06     18.9260E+06     44.7883E+06     159.945E+03    -236.544E-03     467.981E-03    -231.437E-03     250.309E-03    -249.874E-03     481.063E-03    -231.165E-03     210.220E-03
             494     9.28446E-03     103.837E-03    -45.3672E+06     29.8937E+06     55.3027E+06     463.514E+03    -235.884E-03     467.327E-03    -231.444E-03     261.858E-03    -251.284E-03     482.512E-03    -231.145E-03     218.883E-03
             495     10.0006E-03     104.182E-03    -38.1420E+06     41.4002E+06     67.1331E+06     727.133E+03    -234.464E-03     465.907E-03    -231.443E-03     264.029E-03    -251.172E-03     482.432E-03    -231.112E-03     219.583E-03
             496     10.7138E-03     104.526E-03    -30.0684E+06     50.8806E+06     77.7808E+06     595.261E+03    -232.556E-03     463.985E-03    -231.429E-03     255.341E-03    -249.415E-03     480.692E-03    -231.070E-03     211.107E-03
             497     11.4309E-03     104.842E-03    -21.6468E+06     58.0134E+06     82.6562E+06     970.114E+03    -230.309E-03     461.688E-03    -231.379E-03     235.963E-03    -246.080E-03     477.348E-03    -231.018E-03     193.523E-03
             498     12.1438E-03     105.127E-03    -13.9024E+06     63.4301E+06     84.8042E+06     477.030E+03    -228.746E-03     460.067E-03    -231.321E-03     204.926E-03    -242.064E-03     473.315E-03    -230.969E-03     165.944E-03
             499     12.8608E-03     105.359E-03    -9.26638E+06     70.3660E+06     86.3004E+06    -509.082E+03    -229.078E-03     460.390E-03    -231.312E-03     180.455E-03    -240.488E-03     471.767E-03    -230.969E-03     143.979E-03
             500     13.5710E-03     105.572E-03    -6.08847E+06     71.2538E+06     85.1331E+06    -1.02362E+06    -230.080E-03     461.443E-03    -231.363E-03     113.253E-03    -236.944E-03     468.292E-03    -231.032E-03     85.6473E-03
             501     714.922E-06     102.920E-03    -128.169E+06    -322.797E+06    -125.023E+06     1.08834E+06    -231.622E-03     463.228E-03    -231.606E-03     24.5673E-03    -231.704E-03     462.074E-03    -231.577E-03     21.6683E-03
             502     1.42823E-03     102.966E-03    -124.988E+06    -308.902E+06    -117.413E+06     105.685E+03    -232.036E-03     463.621E-03    -231.585E-03     45.6507E-03    -232.331E-03     462.716E-03    -231.543E-03     40.2309E-03
             503     2.14166E-03     103.042E-03    -120.686E+06    -286.127E+06    -104.854E+06     233.946E+03    -232.328E-03     463.940E-03    -231.612E-03     67.5629E-03    -232.989E-03     463.461E-03    -231.546E-03     59.4226E-03
             504     2.85589E-03     103.149E-03    -115.195E+06    -264.390E+06    -88.3981E+06     876.241E+03    -232.789E-03     464.411E-03    -231.622E-03     89.1388E-03    -233.964E-03     464.495E-03    -231.514E-03     78.1396E-03
             505     3.56998E-03     103.284E-03    -108.103E+06    -237.224E+06    -70.6492E+06     1.27553E+06    -233.382E-03     465.003E-03    -231.620E-03     110.898E-03    -235.250E-03     465.850E-03    -231.473E-03     96.8475E-03
             506     4.28412E-03     103.449E-03    -100.208E+06    -206.078E+06    -52.4634E+06     1.41865E+06    -233.865E-03     465.463E-03    -231.598E-03     132.584E-03    -236.626E-03     467.289E-03    -231.416E-03     115.283E-03
             507     4.99931E-03     103.640E-03    -92.2737E+06    -171.162E+06    -34.9849E+06     1.47489E+06    -234.528E-03     466.083E-03    -231.555E-03     153.810E-03    -238.406E-03     469.127E-03    -231.348E-03     133.039E-03
             508     5.71305E-03     103.862E-03    -84.1275E+06    -131.724E+06    -17.4514E+06     1.64247E+06    -235.374E-03     466.900E-03    -231.525E-03     174.672E-03    -240.625E-03     471.435E-03    -231.300E-03     150.193E-03
             509     6.42774E-03     104.109E-03    -76.0133E+06    -84.6004E+06     1.39212E+06     2.20581E+06    -235.845E-03     467.351E-03    -231.506E-03     195.028E-03    -242.754E-03     473.686E-03    -231.266E-03     166.690E-03
             510     7.14247E-03     104.382E-03    -67.7507E+06    -28.4698E+06     21.0846E+06     2.09354E+06    -236.162E-03     467.636E-03    -231.474E-03     214.802E-03    -245.028E-03     476.099E-03    -231.229E-03     182.469E-03
             511     7.85600E-03     104.679E-03    -59.2248E+06     8.53688E+06     35.5412E+06     2.28577E+06    -236.526E-03     467.976E-03    -231.449E-03     233.896E-03    -247.583E-03     478.749E-03    -231.198E-03     197.556E-03
             512     8.57025E-03     105.002E-03    -51.6950E+06     20.9760E+06     45.2913E+06     2.85929E+06    -236.283E-03     467.717E-03    -231.434E-03     250.939E-03    -249.623E-03     480.817E-03    -231.163E-03     210.957E-03
             513     9.28649E-03     105.339E-03    -44.0489E+06     31.4669E+06     56.4679E+06     1.75978E+06    -235.547E-03     466.959E-03    -231.412E-03     262.337E-03    -250.940E-03     482.144E-03    -231.112E-03     219.475E-03
             514     9.99988E-03     105.690E-03    -35.4918E+06     42.1394E+06     69.1014E+06     444.294E+03    -234.346E-03     465.740E-03    -231.395E-03     264.351E-03    -251.046E-03     482.264E-03    -231.059E-03     219.939E-03
             515     10.7162E-03     106.029E-03    -27.2232E+06     51.1858E+06     79.6678E+06    -161.451E+03    -232.499E-03     463.877E-03    -231.378E-03     254.805E-03    -249.347E-03     480.579E-03    -231.015E-03     210.542E-03
             516     11.4297E-03     106.348E-03    -20.0551E+06     57.6642E+06     83.6749E+06    -486.238E+03    -230.766E-03     462.118E-03    -231.352E-03     234.697E-03    -246.534E-03     477.777E-03    -230.988E-03     192.070E-03
             517     12.1459E-03     106.632E-03    -13.9729E+06     64.6676E+06     84.6246E+06    -912.639E+03    -229.832E-03     461.182E-03    -231.350E-03     202.748E-03    -243.123E-03     474.407E-03    -231.000E-03     163.541E-03
             518     12.8588E-03     106.863E-03    -9.11933E+06     70.5581E+06     85.2210E+06     215.710E+03    -229.196E-03     460.574E-03    -231.378E-03     179.829E-03    -240.555E-03     471.904E-03    -231.041E-03     143.419E-03
             519     13.5704E-03     107.094E-03    -4.33959E+06     70.5124E+06     85.0597E+06     965.602E+03    -228.734E-03     460.128E-03    -231.394E-03     116.091E-03    -235.592E-03     466.974E-03    -231.065E-03     88.7260E-03
             520     713.712E-06     104.424E-03    -129.358E+06    -323.827E+06    -128.620E+06     376.542E+03    -231.718E-03     462.731E-03    -231.013E-03     24.4441E-03    -231.799E-03     461.578E-03    -230.999E-03     21.5471E-03
             521     1.42827E-03     104.471E-03    -127.068E+06    -307.879E+06    -119.735E+06     89.9338E+03    -232.020E-03     463.404E-03    -231.383E-03     45.2152E-03    -232.320E-03     462.507E-03    -231.351E-03     39.8193E-03
             522     2.14240E-03     104.548E-03    -122.423E+06    -287.831E+06    -105.022E+06     575.601E+03    -232.450E-03     463.964E-03    -231.514E-03     67.2721E-03    -233.114E-03     463.476E-03    -231.444E-03     59.1491E-03
             523     2.85607E-03     104.653E-03    -115.780E+06    -265.080E+06    -88.1116E+06      628.92E+03    -232.810E-03     464.381E-03    -231.571E-03     89.3701E-03    -233.992E-03     464.466E-03    -231.459E-03     78.3532E-03
             524     3.57022E-03     104.790E-03    -108.299E+06    -238.225E+06    -70.8523E+06     880.531E+03    -233.222E-03     464.785E-03    -231.564E-03     111.110E-03    -235.094E-03     465.633E-03    -231.416E-03     97.0433E-03
             525     4.28503E-03     104.953E-03    -100.515E+06    -207.088E+06    -52.9477E+06     1.38641E+06    -233.901E-03     465.439E-03    -231.538E-03     132.406E-03    -236.659E-03     467.259E-03    -231.357E-03     115.103E-03
             526     4.99879E-03     105.146E-03    -92.4590E+06    -172.149E+06    -35.1099E+06     1.57515E+06    -234.805E-03     466.334E-03    -231.529E-03     153.683E-03    -238.682E-03     469.373E-03    -231.320E-03     132.887E-03
             527     5.71327E-03     105.367E-03    -84.3717E+06    -132.495E+06    -17.3691E+06     1.98407E+06    -235.409E-03     466.934E-03    -231.525E-03     174.676E-03    -240.662E-03     471.467E-03    -231.297E-03     150.199E-03
             528     6.42732E-03     105.614E-03    -75.8938E+06    -85.5141E+06     1.39575E+06     2.57981E+06    -235.746E-03     467.248E-03    -231.501E-03     194.976E-03    -242.649E-03     473.573E-03    -231.260E-03     166.668E-03
             529     7.14187E-03     105.886E-03    -67.2493E+06    -29.3175E+06     21.2448E+06     3.06996E+06    -236.140E-03     467.601E-03    -231.461E-03     215.151E-03    -245.002E-03     476.059E-03    -231.215E-03     182.858E-03
             530     7.85665E-03     106.186E-03    -58.8841E+06     7.61608E+06     35.4728E+06     3.56109E+06    -236.295E-03     467.714E-03    -231.419E-03     234.381E-03    -247.352E-03     478.486E-03    -231.167E-03     198.117E-03
             531     8.57203E-03     106.505E-03    -49.9998E+06     21.8287E+06     46.0211E+06     3.09881E+06    -236.159E-03     467.546E-03    -231.387E-03     250.928E-03    -249.491E-03     480.644E-03    -231.116E-03     210.968E-03
             532     9.28554E-03     106.846E-03    -40.9651E+06     34.7552E+06     58.2938E+06     1.78099E+06    -235.653E-03     467.023E-03    -231.370E-03     262.037E-03    -251.046E-03     482.225E-03    -231.069E-03     219.114E-03
             533     10.0018E-03     107.193E-03    -33.3357E+06     44.5579E+06     70.7787E+06     517.255E+03    -234.522E-03     465.897E-03    -231.375E-03     263.424E-03    -251.218E-03     482.428E-03    -231.038E-03     218.913E-03
             534     10.7152E-03     107.535E-03    -26.6293E+06     51.9043E+06     81.0964E+06    -72.6585E+03    -233.050E-03     464.452E-03    -231.402E-03     253.482E-03    -249.894E-03     481.151E-03    -231.033E-03     209.045E-03
             535     11.4301E-03     107.853E-03    -20.0523E+06     57.7551E+06     84.9960E+06    -9.94637E+03    -231.458E-03     462.885E-03    -231.428E-03     233.528E-03    -247.208E-03     478.523E-03    -231.057E-03     190.770E-03
             536     12.1420E-03     108.138E-03    -14.4822E+06     64.1480E+06     85.4162E+06     1.00655E+06    -229.903E-03     461.347E-03    -231.444E-03     204.097E-03    -243.191E-03     474.563E-03    -231.089E-03     165.010E-03
             537     12.8532E-03     108.375E-03    -10.2313E+06     71.2410E+06     84.8686E+06     1.47574E+06    -228.361E-03     459.791E-03    -231.430E-03     181.155E-03    -239.718E-03     471.118E-03    -231.094E-03     144.995E-03
             538     13.5759E-03     108.581E-03    -5.41215E+06     71.4424E+06     84.1333E+06     9.00394E+03    -228.175E-03     459.574E-03    -231.399E-03     113.571E-03    -234.978E-03     466.368E-03    -231.074E-03     86.3275E-03
             539     714.672E-06     105.928E-03    -129.944E+06    -324.466E+06    -127.930E+06    -137.741E+03    -231.521E-03     463.073E-03    -231.552E-03     23.9496E-03    -231.604E-03     461.916E-03    -231.533E-03     21.0230E-03
             540     1.42815E-03     105.976E-03    -126.908E+06    -307.865E+06    -119.271E+06     183.036E+03    -231.816E-03     463.298E-03    -231.482E-03     45.2204E-03    -232.115E-03     462.400E-03    -231.448E-03     39.8365E-03
             541     2.14196E-03     106.052E-03    -122.048E+06    -288.667E+06    -105.182E+06     235.365E+03    -232.190E-03     463.685E-03    -231.496E-03     67.0710E-03    -232.849E-03     463.192E-03    -231.426E-03     58.9513E-03
             542     2.85637E-03     106.159E-03    -115.930E+06    -265.646E+06    -88.3977E+06     624.676E+03    -232.631E-03     464.132E-03    -231.501E-03     89.1120E-03    -233.810E-03     464.213E-03    -231.390E-03     78.1072E-03
             543     3.57082E-03     106.293E-03    -108.831E+06    -239.038E+06    -70.8269E+06     808.573E+03    -233.267E-03     464.765E-03    -231.498E-03     110.800E-03    -235.135E-03     465.603E-03    -231.348E-03     96.7467E-03
             544     4.28462E-03     106.458E-03    -101.099E+06    -208.512E+06    -53.3482E+06     1.09382E+06    -234.111E-03     465.615E-03    -231.504E-03     132.467E-03    -236.871E-03     467.430E-03    -231.322E-03     115.145E-03
             545     4.99906E-03     106.651E-03    -93.0569E+06    -172.926E+06    -35.5637E+06     1.54300E+06    -234.855E-03     466.371E-03    -231.516E-03     153.915E-03    -238.738E-03     469.413E-03    -231.308E-03     133.113E-03
             546     5.71308E-03     106.872E-03    -84.4396E+06    -133.405E+06    -17.4402E+06     1.87944E+06    -235.293E-03     466.803E-03    -231.510E-03     174.663E-03    -240.539E-03     471.327E-03    -231.282E-03     150.216E-03
             547     6.42803E-03     107.118E-03    -75.7118E+06    -87.3692E+06     858.364E+03     2.18592E+06    -235.761E-03     467.239E-03    -231.479E-03     195.285E-03    -242.666E-03     473.563E-03    -231.238E-03     166.964E-03
             548     7.14229E-03     107.392E-03    -66.6757E+06    -31.6859E+06     20.6107E+06     2.99851E+06    -236.032E-03     467.465E-03    -231.433E-03     215.235E-03    -244.890E-03     475.914E-03    -231.187E-03     182.949E-03
             549     7.85738E-03     107.689E-03    -57.0970E+06     7.18473E+06     36.0660E+06     3.20763E+06    -236.181E-03     467.568E-03    -231.387E-03     233.929E-03    -247.220E-03     478.325E-03    -231.134E-03     197.668E-03
             550     8.57131E-03     108.011E-03    -48.5500E+06     22.8718E+06     46.9514E+06     2.72008E+06    -236.375E-03     467.744E-03    -231.369E-03     250.253E-03    -249.698E-03     480.840E-03    -231.097E-03     210.214E-03
             551     9.28694E-03     108.350E-03    -41.8023E+06     37.4422E+06     59.4072E+06     2.03644E+06    -236.035E-03     467.425E-03    -231.389E-03     261.108E-03    -251.434E-03     482.636E-03    -231.086E-03     218.070E-03
             552     9.99976E-03     108.699E-03    -35.0953E+06     46.7864E+06     71.8751E+06     1.14650E+06    -235.016E-03     466.456E-03    -231.440E-03     262.677E-03    -251.732E-03     483.005E-03    -231.097E-03     218.028E-03
             553     10.7143E-03     109.040E-03    -28.3596E+06     52.7312E+06     81.3156E+06     544.077E+03    -233.297E-03     464.788E-03    -231.491E-03     253.407E-03    -250.147E-03     481.489E-03    -231.120E-03     208.940E-03
             554     11.4270E-03     109.360E-03    -22.3446E+06     57.7998E+06     84.2176E+06     329.402E+03    -231.067E-03     462.566E-03    -231.499E-03     234.851E-03    -246.842E-03     478.223E-03    -231.130E-03     192.205E-03
             555     12.1423E-03     109.644E-03    -16.0583E+06     61.9509E+06     84.6333E+06     717.422E+03    -228.909E-03     460.373E-03    -231.464E-03     204.925E-03    -242.216E-03     473.597E-03    -231.107E-03     165.980E-03
             556     12.8635E-03     109.875E-03    -8.82513E+06     71.7406E+06     87.7290E+06     844.320E+03    -228.288E-03     459.714E-03    -231.426E-03     181.589E-03    -239.694E-03     471.089E-03    -231.078E-03     145.298E-03
             557     13.5659E-03     110.100E-03    -3.88745E+06     73.3114E+06     86.9996E+06     515.428E+03    -228.515E-03     459.916E-03    -231.401E-03     116.548E-03    -235.428E-03     466.823E-03    -231.066E-03     89.0671E-03
             558     712.995E-06     107.433E-03    -129.064E+06    -323.931E+06    -127.831E+06    -111.643E+03    -231.860E-03     463.258E-03    -231.398E-03     25.1611E-03    -231.942E-03     462.104E-03    -231.380E-03     22.2253E-03
             559     1.42785E-03     107.481E-03    -126.582E+06    -308.426E+06    -119.915E+06    -102.748E+03    -231.767E-03     463.303E-03    -231.536E-03     45.4664E-03    -232.065E-03     462.405E-03    -231.505E-03     40.0616E-03
             560     2.14230E-03     107.557E-03    -122.165E+06    -289.604E+06    -105.935E+06     488.248E+03    -232.045E-03     463.542E-03    -231.497E-03     67.0860E-03    -232.703E-03     463.045E-03    -231.429E-03     58.9691E-03
             561     2.85653E-03     107.663E-03    -116.160E+06    -266.521E+06    -88.8611E+06     920.055E+03    -232.601E-03     464.080E-03    -231.479E-03     88.8870E-03    -233.774E-03     464.153E-03    -231.369E-03     77.9062E-03
             562     3.57052E-03     107.799E-03    -109.143E+06    -239.389E+06    -70.7817E+06     1.08959E+06    -233.327E-03     464.812E-03    -231.486E-03     110.679E-03    -235.193E-03     465.647E-03    -231.334E-03     96.6364E-03
             563     4.28511E-03     107.962E-03    -101.417E+06    -208.909E+06    -53.2387E+06     859.274E+03    -234.095E-03     465.594E-03    -231.499E-03     132.466E-03    -236.855E-03     467.407E-03    -231.316E-03     115.144E-03
             564     4.99902E-03     108.157E-03    -93.0779E+06    -173.882E+06    -35.9771E+06     1.08239E+06    -234.675E-03     466.173E-03    -231.497E-03     153.798E-03    -238.549E-03     469.203E-03    -231.290E-03     133.022E-03
             565     5.71363E-03     108.376E-03    -84.7792E+06    -134.540E+06    -18.1976E+06     1.44818E+06    -235.276E-03     466.756E-03    -231.480E-03     174.652E-03    -240.523E-03     471.278E-03    -231.253E-03     150.191E-03
             566     6.42771E-03     108.623E-03    -76.3367E+06    -88.8006E+06     101.407E+03     1.61898E+06    -235.831E-03     467.288E-03    -231.457E-03     195.114E-03    -242.738E-03     473.609E-03    -231.217E-03     166.757E-03
             567     7.14260E-03     108.896E-03    -67.4190E+06    -32.9670E+06     19.7982E+06     1.59355E+06    -236.154E-03     467.583E-03    -231.429E-03     214.674E-03    -245.011E-03     476.026E-03    -231.184E-03     182.322E-03
             568     7.85664E-03     109.194E-03    -59.2701E+06     4.59915E+06     34.3393E+06     2.11118E+06    -236.497E-03     467.908E-03    -231.411E-03     233.417E-03    -247.543E-03     478.660E-03    -231.160E-03     197.056E-03
             569     8.57183E-03     109.516E-03    -52.0056E+06     23.0193E+06     45.5243E+06     2.96002E+06    -236.648E-03     468.072E-03    -231.423E-03     249.685E-03    -249.980E-03     481.169E-03    -231.154E-03     209.586E-03
             570     9.28454E-03     109.856E-03    -44.1511E+06     40.5879E+06     59.8633E+06     2.14862E+06    -236.209E-03     467.676E-03    -231.467E-03     260.810E-03    -251.616E-03     482.897E-03    -231.163E-03     217.744E-03
             571     9.99952E-03     110.204E-03    -36.0588E+06     47.5252E+06     72.5334E+06     1.07236E+06    -234.925E-03     466.440E-03    -231.515E-03     263.425E-03    -251.651E-03     482.997E-03    -231.169E-03     218.836E-03
             572     10.7128E-03     110.547E-03    -28.5389E+06     52.5506E+06     81.3624E+06     1.52440E+06    -232.786E-03     464.312E-03    -231.526E-03     254.879E-03    -249.656E-03     481.032E-03    -231.154E-03     210.571E-03
             573     11.4289E-03     110.865E-03    -21.4461E+06     58.9895E+06     84.8822E+06     1.85113E+06    -230.649E-03     462.140E-03    -231.491E-03     235.658E-03    -246.436E-03     477.813E-03    -231.121E-03     193.135E-03
             574     12.1446E-03     111.148E-03    -15.9878E+06     62.7743E+06     84.7447E+06     955.469E+03    -229.415E-03     460.870E-03    -231.455E-03     204.620E-03    -242.749E-03     474.123E-03    -231.099E-03     165.543E-03
             575     12.8510E-03     111.382E-03    -10.1890E+06     70.5609E+06     86.6856E+06    -131.170E+03    -227.798E-03     459.220E-03    -231.422E-03     180.844E-03    -239.195E-03     470.579E-03    -231.076E-03     144.577E-03
             576     13.5797E-03     111.600E-03    -3.53244E+06     73.7919E+06     88.7837E+06    -25.9887E+03    -227.575E-03     458.946E-03    -231.371E-03     114.592E-03    -234.406E-03     465.770E-03    -231.029E-03     87.3973E-03
             577     715.187E-06     108.939E-03    -129.961E+06    -323.797E+06    -128.689E+06    -629.554E+03    -231.867E-03     462.871E-03    -231.004E-03     24.6549E-03    -231.950E-03     461.719E-03    -230.989E-03     21.7748E-03
             578     1.42804E-03     108.985E-03    -127.795E+06    -309.367E+06    -120.391E+06     370.586E+03    -231.809E-03     463.204E-03    -231.394E-03     45.5873E-03    -232.112E-03     462.303E-03    -231.363E-03     40.1954E-03
             579     2.14220E-03     109.061E-03    -123.363E+06    -290.168E+06    -106.202E+06     718.191E+03    -232.212E-03     463.650E-03    -231.438E-03     67.3520E-03    -232.876E-03     463.154E-03    -231.369E-03     59.2289E-03
             580     2.85622E-03     109.168E-03    -117.112E+06    -267.284E+06    -89.5598E+06     693.416E+03    -232.742E-03     464.215E-03    -231.474E-03     88.9408E-03    -233.920E-03     464.288E-03    -231.364E-03     77.9398E-03
             581     3.57077E-03     109.303E-03    -109.595E+06    -240.098E+06    -71.8351E+06     739.927E+03    -233.372E-03     464.871E-03    -231.498E-03     110.804E-03    -235.242E-03     465.707E-03    -231.350E-03     96.7390E-03
             582     4.28447E-03     109.468E-03    -101.748E+06    -208.696E+06    -53.7816E+06     916.471E+03    -234.014E-03     465.523E-03    -231.508E-03     132.392E-03    -236.774E-03     467.336E-03    -231.327E-03     115.078E-03
             583     4.99916E-03     109.660E-03    -93.9096E+06    -174.480E+06    -36.4009E+06     803.618E+03    -234.639E-03     466.140E-03    -231.502E-03     153.512E-03    -238.514E-03     469.168E-03    -231.294E-03     132.725E-03
             584     5.71365E-03     109.881E-03    -85.7467E+06    -135.648E+06    -19.0831E+06     1.09620E+06    -235.341E-03     466.830E-03    -231.489E-03     174.285E-03    -240.589E-03     471.348E-03    -231.264E-03     149.790E-03
             585     6.42805E-03     110.128E-03    -77.3601E+06    -89.0621E+06    -595.242E+03     1.22824E+06    -235.947E-03     467.428E-03    -231.481E-03     194.678E-03    -242.853E-03     473.745E-03    -231.243E-03     166.291E-03
             586     7.14190E-03     110.401E-03    -69.1757E+06    -34.1582E+06     18.7309E+06     1.62347E+06    -236.426E-03     467.901E-03    -231.475E-03     214.451E-03    -245.291E-03     476.344E-03    -231.232E-03     182.044E-03
             587     7.85658E-03     110.700E-03    -60.8122E+06     2.37235E+06     33.0278E+06     2.62957E+06    -236.818E-03     468.300E-03    -231.483E-03     233.273E-03    -247.867E-03     479.046E-03    -231.233E-03     196.866E-03
             588     8.56947E-03     111.021E-03    -51.6519E+06     22.8045E+06     45.2050E+06     2.51256E+06    -236.675E-03     468.177E-03    -231.503E-03     249.952E-03    -250.006E-03     481.275E-03    -231.235E-03     209.856E-03
             589     9.28493E-03     111.362E-03    -42.9269E+06     42.3043E+06     59.4188E+06     2.08734E+06    -235.847E-03     467.361E-03    -231.514E-03     261.761E-03    -251.254E-03     482.593E-03    -231.216E-03     218.803E-03
             590     9.99865E-03     111.710E-03    -35.5475E+06     47.8886E+06     71.3808E+06     2.12546E+06    -234.402E-03     465.915E-03    -231.513E-03     264.295E-03    -251.122E-03     482.472E-03    -231.174E-03     219.869E-03
             591     10.7150E-03     112.051E-03    -28.4254E+06     52.2507E+06     81.1748E+06     1.96700E+06    -232.586E-03     464.086E-03    -231.500E-03     254.775E-03    -249.441E-03     480.790E-03    -231.128E-03     210.532E-03
             592     11.4292E-03     112.369E-03    -21.6112E+06     59.1445E+06     85.1280E+06     1.54050E+06    -231.055E-03     462.531E-03    -231.476E-03     235.184E-03    -246.851E-03     478.213E-03    -231.105E-03     192.544E-03
             593     12.1411E-03     112.656E-03    -14.7489E+06     64.5847E+06     86.0526E+06     1.18570E+06    -229.233E-03     460.684E-03    -231.452E-03     204.803E-03    -242.576E-03     473.955E-03    -231.094E-03     165.725E-03
             594     12.8634E-03     112.889E-03    -9.47349E+06     73.5584E+06     87.5847E+06     779.514E+03    -228.492E-03     459.922E-03    -231.430E-03     180.512E-03    -239.890E-03     471.293E-03    -231.085E-03     144.192E-03
             595     13.5659E-03     113.099E-03    -5.41921E+06     74.2216E+06     87.4058E+06     120.881E+03    -228.923E-03     460.355E-03    -231.432E-03     113.415E-03    -235.776E-03     467.199E-03    -231.095E-03     85.9898E-03
             596     713.194E-06     110.443E-03    -131.120E+06    -323.946E+06    -128.128E+06     232.720E+03    -230.982E-03     462.923E-03    -231.941E-03     24.1620E-03    -231.070E-03     461.770E-03    -231.922E-03     21.3096E-03
             597     1.42884E-03     110.489E-03    -127.898E+06    -312.151E+06    -119.046E+06     1.24641E+06    -231.651E-03     463.053E-03    -231.402E-03     44.9170E-03    -231.949E-03     462.134E-03    -231.360E-03     39.5510E-03
             598     2.14256E-03     110.567E-03    -123.203E+06    -289.518E+06    -106.280E+06     894.528E+03    -232.184E-03     463.584E-03    -231.400E-03     67.1982E-03    -232.847E-03     463.090E-03    -231.333E-03     59.0871E-03
             599     2.85665E-03     110.672E-03    -117.175E+06    -267.323E+06    -89.9348E+06     540.310E+03    -232.872E-03     464.327E-03    -231.455E-03     89.0822E-03    -234.053E-03     464.404E-03    -231.348E-03     78.0609E-03
             600     3.57025E-03     110.808E-03    -110.267E+06    -240.625E+06    -72.6674E+06     601.515E+03    -233.509E-03     465.019E-03    -231.510E-03     110.817E-03    -235.382E-03     465.857E-03    -231.364E-03     96.7312E-03
             601     4.28499E-03     110.972E-03    -102.597E+06    -209.688E+06    -54.7643E+06     962.006E+03    -234.093E-03     465.632E-03    -231.539E-03     132.140E-03    -236.854E-03     467.443E-03    -231.360E-03     114.809E-03
             602     4.99901E-03     111.165E-03    -94.5324E+06    -174.473E+06    -36.7829E+06     1.07459E+06    -234.801E-03     466.351E-03    -231.550E-03     153.244E-03    -238.679E-03     469.380E-03    -231.344E-03     132.430E-03
             603     5.71281E-03     111.386E-03    -86.2623E+06    -136.257E+06    -19.3942E+06     820.814E+03    -235.487E-03     467.042E-03    -231.555E-03     174.129E-03    -240.736E-03     471.558E-03    -231.329E-03     149.606E-03
             604     6.42712E-03     111.633E-03    -77.7908E+06    -90.1971E+06    -1.39742E+06     1.45186E+06    -236.058E-03     467.613E-03    -231.555E-03     194.464E-03    -242.959E-03     473.921E-03    -231.318E-03     166.067E-03
             605     7.14171E-03     111.907E-03    -69.0318E+06    -35.6063E+06     18.0966E+06     1.98693E+06    -236.501E-03     468.053E-03    -231.552E-03     214.452E-03    -245.354E-03     476.482E-03    -231.309E-03     182.064E-03
             606     7.85507E-03     112.205E-03    -59.7134E+06     1.32468E+06     32.8688E+06     1.81480E+06    -236.615E-03     468.157E-03    -231.542E-03     233.808E-03    -247.660E-03     478.900E-03    -231.293E-03     197.441E-03
             607     8.57043E-03     112.527E-03    -51.3014E+06     22.9975E+06     44.5498E+06     1.78051E+06    -236.289E-03     467.808E-03    -231.520E-03     250.776E-03    -249.625E-03     480.915E-03    -231.256E-03     210.761E-03
             608     9.28433E-03     112.866E-03    -43.9230E+06     41.7906E+06     57.9468E+06     1.94784E+06    -235.613E-03     467.108E-03    -231.495E-03     262.279E-03    -251.029E-03     482.349E-03    -231.202E-03     219.370E-03
             609     10.0005E-03     113.215E-03    -35.9963E+06     47.5468E+06     70.5676E+06     2.11712E+06    -234.508E-03     466.000E-03    -231.492E-03     263.858E-03    -251.229E-03     482.557E-03    -231.156E-03     219.382E-03
             610     10.7140E-03     113.556E-03    -28.0578E+06     53.2947E+06     81.3523E+06     1.85602E+06    -233.013E-03     464.519E-03    -231.506E-03     254.215E-03    -249.882E-03     481.242E-03    -231.136E-03     209.823E-03
             611     11.4278E-03     113.877E-03    -21.0029E+06     59.9914E+06     85.7911E+06     1.40402E+06    -230.966E-03     462.468E-03    -231.501E-03     234.959E-03    -246.770E-03     478.161E-03    -231.129E-03     192.283E-03
             612     12.1447E-03     114.161E-03    -15.0139E+06     65.4216E+06     86.3857E+06     699.919E+03    -229.198E-03     460.675E-03    -231.477E-03     203.429E-03    -242.507E-03     473.912E-03    -231.118E-03     164.357E-03
             613     12.8532E-03     114.389E-03    -9.70070E+06     74.8396E+06     87.7260E+06     579.300E+03    -228.677E-03     460.138E-03    -231.461E-03     180.648E-03    -240.108E-03     471.546E-03    -231.117E-03     144.243E-03
             614     13.5745E-03     114.620E-03    -5.26265E+06     74.6496E+06     86.6913E+06     1.15091E+06    -228.486E-03     459.935E-03    -231.449E-03     115.530E-03    -235.394E-03     466.838E-03    -231.116E-03     88.1624E-03
             615     714.526E-06     111.947E-03    -132.132E+06    -325.668E+06    -129.967E+06     965.428E+03    -231.353E-03     463.016E-03    -231.663E-03     24.9009E-03    -231.444E-03     461.860E-03    -231.649E-03     22.0290E-03
             616     1.42724E-03     111.994E-03    -128.794E+06    -313.747E+06    -120.814E+06     694.594E+03    -231.833E-03     463.298E-03    -231.465E-03     45.4237E-03    -232.133E-03     462.377E-03    -231.428E-03     40.0227E-03
             617     2.14229E-03     112.070E-03    -123.648E+06    -289.712E+06    -107.685E+06     648.289E+03    -232.249E-03     463.736E-03    -231.486E-03     66.9199E-03    -232.910E-03     463.241E-03    -231.425E-03     58.8111E-03
             618     2.85642E-03     112.178E-03    -117.442E+06    -267.390E+06    -90.4763E+06     653.690E+03    -232.846E-03     464.379E-03    -231.533E-03     88.5982E-03    -234.023E-03     464.452E-03    -231.427E-03     77.5844E-03
             619     3.57068E-03     112.313E-03    -110.379E+06    -240.902E+06    -72.7599E+06     760.669E+03    -233.526E-03     465.105E-03    -231.578E-03     110.285E-03    -235.394E-03     465.937E-03    -231.433E-03     96.2020E-03
             620     4.28411E-03     112.477E-03    -102.679E+06    -210.388E+06    -55.1015E+06     776.228E+03    -234.189E-03     465.798E-03    -231.609E-03     131.920E-03    -236.947E-03     467.604E-03    -231.431E-03     114.573E-03
             621     4.99821E-03     112.670E-03    -94.4869E+06    -175.251E+06    -37.5440E+06     1.10647E+06    -234.864E-03     466.484E-03    -231.619E-03     153.350E-03    -238.740E-03     469.511E-03    -231.416E-03     132.534E-03
             622     5.71288E-03     112.891E-03    -86.3936E+06    -136.450E+06    -19.8004E+06     1.35610E+06    -235.581E-03     467.204E-03    -231.624E-03     174.404E-03    -240.833E-03     471.723E-03    -231.399E-03     149.886E-03
             623     6.42672E-03     113.139E-03    -78.1998E+06    -91.6667E+06    -2.05211E+06     1.26559E+06    -236.152E-03     467.774E-03    -231.621E-03     194.979E-03    -243.061E-03     474.086E-03    -231.385E-03     166.573E-03
             624     7.14043E-03     113.412E-03    -69.3277E+06    -36.0712E+06     17.5588E+06     1.16902E+06    -236.303E-03     467.901E-03    -231.598E-03     215.123E-03    -245.169E-03     476.342E-03    -231.357E-03     182.752E-03
             625     7.85590E-03     113.711E-03    -60.9828E+06     1.45854E+06     32.2235E+06     803.239E+03    -236.199E-03     467.749E-03    -231.550E-03     234.118E-03    -247.243E-03     478.489E-03    -231.303E-03     197.824E-03
             626     8.57023E-03     114.031E-03    -52.6778E+06     22.0241E+06     43.7781E+06     1.09173E+06    -236.179E-03     467.683E-03    -231.505E-03     250.578E-03    -249.508E-03     480.777E-03    -231.241E-03     210.578E-03
             627     9.28592E-03     114.372E-03    -44.1729E+06     40.5490E+06     57.8483E+06     1.83874E+06    -235.903E-03     467.399E-03    -231.496E-03     261.460E-03    -251.309E-03     482.625E-03    -231.202E-03     218.465E-03
             628     9.99885E-03     114.720E-03    -36.6095E+06     48.2070E+06     70.7253E+06     1.70044E+06    -234.870E-03     466.396E-03    -231.526E-03     263.222E-03    -251.596E-03     482.958E-03    -231.189E-03     218.625E-03
             629     10.7135E-03     115.063E-03    -29.4789E+06     54.1450E+06     80.8709E+06     819.746E+03    -232.993E-03     464.546E-03    -231.553E-03     254.192E-03    -249.887E-03     481.293E-03    -231.185E-03     209.739E-03
             630     11.4284E-03     115.381E-03    -22.1141E+06     59.2199E+06     84.7924E+06     616.952E+03    -230.808E-03     462.350E-03    -231.542E-03     234.474E-03    -246.605E-03     478.033E-03    -231.172E-03     191.811E-03
             631     12.1409E-03     115.665E-03    -15.2516E+06     65.5151E+06     85.9841E+06     1.32514E+06    -229.117E-03     460.625E-03    -231.508E-03     204.467E-03    -242.444E-03     473.881E-03    -231.151E-03     165.455E-03
             632     12.8586E-03     115.902E-03    -9.72770E+06     74.7602E+06     87.5122E+06     1.61025E+06    -227.772E-03     459.227E-03    -231.455E-03     182.434E-03    -239.194E-03     470.625E-03    -231.111E-03     146.326E-03
             633     13.5698E-03     116.111E-03    -5.20452E+06     75.8480E+06     86.9709E+06     800.718E+03    -227.869E-03     459.264E-03    -231.394E-03     115.033E-03    -234.726E-03     466.119E-03    -231.062E-03     87.8589E-03
             634     714.000E-06     113.451E-03    -130.656E+06    -328.276E+06    -127.780E+06     585.504E+03    -232.003E-03     463.065E-03    -231.063E-03     24.4051E-03    -232.085E-03     461.890E-03    -231.036E-03     21.4991E-03
             635     1.42915E-03     113.499E-03    -127.430E+06    -313.360E+06    -120.798E+06     409.431E+03    -232.159E-03     463.702E-03    -231.543E-03     45.0633E-03    -232.450E-03     462.778E-03    -231.508E-03     39.6771E-03
             636     2.14162E-03     113.576E-03    -123.541E+06    -290.455E+06    -108.202E+06     527.203E+03    -232.472E-03     464.110E-03    -231.638E-03     66.9090E-03    -233.132E-03     463.614E-03    -231.579E-03     58.7744E-03
             637     2.85551E-03     113.682E-03    -117.582E+06    -267.811E+06    -90.9688E+06     707.513E+03    -232.837E-03     464.512E-03    -231.675E-03     88.8540E-03    -234.016E-03     464.587E-03    -231.571E-03     77.8307E-03
             638     3.56948E-03     113.818E-03    -110.436E+06    -241.529E+06    -73.2573E+06     756.238E+03    -233.414E-03     465.091E-03    -231.677E-03     110.580E-03    -235.283E-03     465.922E-03    -231.532E-03     96.5069E-03
             639     4.28410E-03     113.983E-03    -102.772E+06    -210.800E+06    -55.5376E+06     1.00399E+06    -234.144E-03     465.816E-03    -231.672E-03     132.220E-03    -236.901E-03     467.621E-03    -231.495E-03     114.897E-03
             640     4.99846E-03     114.175E-03    -94.9543E+06    -176.102E+06    -38.0146E+06     1.10642E+06    -234.937E-03     466.608E-03    -231.671E-03     153.634E-03    -238.817E-03     469.635E-03    -231.468E-03     132.815E-03
             641     5.71205E-03     114.396E-03    -86.6615E+06    -137.189E+06    -20.1779E+06     1.31446E+06    -235.560E-03     467.228E-03    -231.669E-03     174.585E-03    -240.809E-03     471.742E-03    -231.445E-03     150.082E-03
             642     6.42661E-03     114.644E-03    -78.2603E+06    -91.0539E+06    -1.63854E+06     1.21159E+06    -235.911E-03     467.557E-03    -231.646E-03     195.227E-03    -242.822E-03     473.871E-03    -231.408E-03     166.860E-03
             643     7.14150E-03     114.918E-03    -70.1014E+06    -36.1630E+06     17.5354E+06     1.17217E+06    -236.096E-03     467.692E-03    -231.595E-03     215.201E-03    -244.969E-03     476.136E-03    -231.354E-03     182.848E-03
             644     7.85555E-03     115.215E-03    -61.5130E+06     2.83535E+06     32.5974E+06     1.01454E+06    -236.383E-03     467.931E-03    -231.548E-03     233.845E-03    -247.437E-03     478.683E-03    -231.300E-03     197.497E-03
             645     8.57065E-03     115.537E-03    -53.2333E+06     21.1673E+06     43.8345E+06     228.714E+03    -236.607E-03     468.143E-03    -231.536E-03     250.091E-03    -249.950E-03     481.245E-03    -231.271E-03     209.954E-03
             646     9.28360E-03     115.877E-03    -45.1100E+06     37.7508E+06     56.9786E+06     625.263E+03    -236.124E-03     467.681E-03    -231.557E-03     261.114E-03    -251.537E-03     482.903E-03    -231.262E-03     218.025E-03
             647     9.99878E-03     116.226E-03    -36.5564E+06     48.4010E+06     70.5957E+06     1.36386E+06    -234.755E-03     466.342E-03    -231.587E-03     263.363E-03    -251.490E-03     482.915E-03    -231.252E-03     218.767E-03
             648     10.7129E-03     116.567E-03    -28.5532E+06     54.5711E+06     81.4039E+06     1.79668E+06    -232.638E-03     464.232E-03    -231.594E-03     254.357E-03    -249.519E-03     480.970E-03    -231.225E-03     210.025E-03
             649     11.4269E-03     116.887E-03    -22.5515E+06     60.1524E+06     84.8063E+06     1.53061E+06    -230.530E-03     462.083E-03    -231.553E-03     235.561E-03    -246.341E-03     477.782E-03    -231.183E-03     193.025E-03
             650     12.1428E-03     117.172E-03    -17.0205E+06     65.5335E+06     84.8034E+06     324.599E+03    -228.805E-03     460.296E-03    -231.490E-03     204.846E-03    -242.129E-03     473.546E-03    -231.137E-03     165.919E-03
             651     12.8575E-03     117.400E-03    -11.1373E+06     73.3113E+06     85.9373E+06     111.095E+03    -227.658E-03     459.086E-03    -231.428E-03     180.380E-03    -239.006E-03     470.405E-03    -231.088E-03     144.283E-03
             652     13.5752E-03     117.626E-03    -4.31544E+06     76.9448E+06     87.5814E+06     413.028E+03    -227.818E-03     459.194E-03    -231.376E-03     114.874E-03    -234.661E-03     466.041E-03    -231.043E-03     87.6182E-03
             653     714.074E-06     114.957E-03    -130.689E+06    -329.858E+06    -129.127E+06     335.178E+03    -232.273E-03     463.681E-03    -231.407E-03     24.4989E-03    -232.352E-03     462.499E-03    -231.385E-03     21.5969E-03
             654     1.42642E-03     115.004E-03    -127.895E+06    -313.971E+06    -120.810E+06     492.752E+03    -232.024E-03     463.787E-03    -231.762E-03     45.2980E-03    -232.319E-03     462.863E-03    -231.726E-03     39.9042E-03
             655     2.14171E-03     115.081E-03    -123.237E+06    -290.551E+06    -107.590E+06     652.623E+03    -232.348E-03     464.080E-03    -231.732E-03     67.1647E-03    -233.008E-03     463.583E-03    -231.669E-03     59.0389E-03
             656     2.85579E-03     115.187E-03    -117.350E+06    -268.642E+06    -90.9694E+06     721.009E+03    -232.846E-03     464.568E-03    -231.721E-03     89.2204E-03    -234.026E-03     464.640E-03    -231.616E-03     78.2020E-03
             657     3.57007E-03     115.323E-03    -110.391E+06    -241.940E+06    -73.1126E+06     1.02534E+06    -233.451E-03     465.165E-03    -231.713E-03     110.859E-03    -235.320E-03     465.995E-03    -231.568E-03     96.7907E-03
             658     4.28400E-03     115.487E-03    -102.869E+06    -211.702E+06    -55.4767E+06     1.04006E+06    -234.190E-03     465.897E-03    -231.707E-03     132.334E-03    -236.948E-03     467.699E-03    -231.528E-03     115.006E-03
             659     4.99781E-03     115.681E-03    -94.8322E+06    -176.507E+06    -37.7866E+06     1.24405E+06    -234.925E-03     466.627E-03    -231.702E-03     153.782E-03    -238.804E-03     469.652E-03    -231.497E-03     132.966E-03
             660     5.71239E-03     115.902E-03    -86.5839E+06    -137.283E+06    -19.7379E+06     1.33284E+06    -235.447E-03     467.134E-03    -231.687E-03     174.749E-03    -240.702E-03     471.652E-03    -231.461E-03     150.246E-03
             661     6.42655E-03     116.149E-03    -78.1146E+06    -91.4456E+06    -1.43033E+06     1.49562E+06    -235.828E-03     467.478E-03    -231.650E-03     195.182E-03    -242.741E-03     473.793E-03    -231.412E-03     166.813E-03
             662     7.14097E-03     116.422E-03    -69.2429E+06    -36.1609E+06     18.1832E+06     1.48470E+06    -236.293E-03     467.901E-03    -231.609E-03     214.806E-03    -245.157E-03     476.339E-03    -231.365E-03     182.418E-03
             663     7.85594E-03     116.721E-03    -60.4112E+06     3.44491E+06     33.5918E+06     1.37308E+06    -236.765E-03     468.358E-03    -231.592E-03     233.418E-03    -247.820E-03     479.112E-03    -231.342E-03     196.985E-03
             664     8.56894E-03     117.043E-03    -52.1308E+06     22.5116E+06     45.3236E+06     1.34168E+06    -236.726E-03     468.329E-03    -231.603E-03     250.109E-03    -250.074E-03     481.441E-03    -231.334E-03     209.956E-03
             665     9.28409E-03     117.383E-03    -44.2867E+06     37.0769E+06     57.8869E+06     668.156E+03    -235.958E-03     467.574E-03    -231.615E-03     261.684E-03    -251.391E-03     482.813E-03    -231.316E-03     218.617E-03
             666     9.99780E-03     117.731E-03    -36.8594E+06     46.7379E+06     70.4348E+06     821.786E+03    -234.393E-03     466.007E-03    -231.614E-03     263.986E-03    -251.138E-03     482.583E-03    -231.276E-03     219.474E-03
             667     10.7128E-03     118.073E-03    -29.7908E+06     53.3526E+06     80.2394E+06     1.43564E+06    -232.326E-03     463.910E-03    -231.584E-03     255.035E-03    -249.210E-03     480.645E-03    -231.217E-03     210.802E-03
             668     11.4287E-03     118.391E-03    -22.0777E+06     60.8410E+06     84.8492E+06     1.86661E+06    -230.313E-03     461.836E-03    -231.523E-03     235.575E-03    -246.107E-03     477.521E-03    -231.155E-03     193.114E-03
             669     12.1435E-03     118.676E-03    -15.1423E+06     68.7682E+06     86.7435E+06     1.64053E+06    -228.906E-03     460.366E-03    -231.461E-03     204.890E-03    -242.229E-03     473.628E-03    -231.105E-03     165.981E-03
             670     12.8562E-03     118.910E-03    -9.74801E+06     75.9213E+06     87.9994E+06     560.527E+03    -228.103E-03     459.519E-03    -231.416E-03     181.582E-03    -239.534E-03     470.929E-03    -231.072E-03     145.320E-03
             671     13.5694E-03     119.121E-03    -4.98471E+06     76.5493E+06     88.0187E+06    -506.397E+03    -227.952E-03     459.330E-03    -231.378E-03     115.166E-03    -234.852E-03     466.229E-03    -231.042E-03     87.7682E-03
             672     713.036E-06     116.462E-03    -131.190E+06    -330.146E+06    -128.464E+06     375.796E+03    -231.882E-03     463.646E-03    -231.764E-03     24.8826E-03    -231.965E-03     462.464E-03    -231.737E-03     22.0027E-03
             673     1.42875E-03     116.510E-03    -127.930E+06    -314.661E+06    -120.259E+06     332.705E+03    -232.004E-03     463.745E-03    -231.741E-03     45.8784E-03    -232.301E-03     462.820E-03    -231.701E-03     40.4618E-03
             674     2.14157E-03     116.586E-03    -123.316E+06    -291.594E+06    -107.416E+06     577.431E+03    -232.362E-03     464.073E-03    -231.712E-03     67.3213E-03    -233.023E-03     463.573E-03    -231.647E-03     59.1825E-03
             675     2.85570E-03     116.692E-03    -117.467E+06    -269.349E+06    -90.5125E+06     847.179E+03    -232.853E-03     464.564E-03    -231.711E-03     89.1322E-03    -234.030E-03     464.630E-03    -231.602E-03     78.1203E-03
             676     3.56956E-03     116.828E-03    -110.294E+06    -242.754E+06    -72.8166E+06     972.194E+03    -233.556E-03     465.271E-03    -231.715E-03     110.969E-03    -235.427E-03     466.099E-03    -231.567E-03     96.8866E-03
             677     4.28368E-03     116.993E-03    -102.613E+06    -211.868E+06    -54.8937E+06     1.17520E+06    -234.317E-03     466.044E-03    -231.727E-03     132.542E-03    -237.080E-03     467.849E-03    -231.545E-03     115.189E-03
             678     4.99814E-03     117.186E-03    -94.6539E+06    -177.097E+06    -37.3367E+06     1.34455E+06    -234.865E-03     466.590E-03    -231.724E-03     153.743E-03    -238.745E-03     469.613E-03    -231.517E-03     132.927E-03
             679     5.71218E-03     117.407E-03    -86.4713E+06    -137.839E+06    -19.5977E+06     1.65983E+06    -235.404E-03     467.105E-03    -231.701E-03     174.525E-03    -240.658E-03     471.620E-03    -231.474E-03     150.017E-03
             680     6.42678E-03     117.654E-03    -77.9749E+06    -91.9758E+06    -1.04911E+06     1.62155E+06    -236.096E-03     467.776E-03    -231.680E-03     194.822E-03    -243.005E-03     474.085E-03    -231.439E-03     166.411E-03
             681     7.14101E-03     117.928E-03    -69.3216E+06    -36.3280E+06     18.5981E+06     1.20653E+06    -236.633E-03     468.303E-03    -231.669E-03     214.669E-03    -245.500E-03     476.740E-03    -231.423E-03     182.222E-03
             682     7.85408E-03     118.227E-03    -60.9303E+06     2.68497E+06     33.5031E+06     1.40889E+06    -236.713E-03     468.374E-03    -231.661E-03     233.596E-03    -247.773E-03     479.130E-03    -231.409E-03     197.171E-03
             683     8.56938E-03     118.548E-03    -52.8599E+06     23.3968E+06     45.1563E+06     1.51878E+06    -236.367E-03     468.010E-03    -231.644E-03     250.415E-03    -249.718E-03     481.127E-03    -231.375E-03     210.336E-03
             684     9.28333E-03     118.888E-03    -45.4298E+06     38.5203E+06     57.8385E+06     1.09981E+06    -235.501E-03     467.117E-03    -231.616E-03     262.060E-03    -250.928E-03     482.352E-03    -231.317E-03     219.125E-03
             685     9.99871E-03     119.237E-03    -38.2322E+06     45.3620E+06     69.9585E+06     1.25433E+06    -234.166E-03     465.752E-03    -231.587E-03     264.287E-03    -250.908E-03     482.317E-03    -231.247E-03     219.862E-03
             686     10.7141E-03     119.577E-03    -30.8194E+06     53.9541E+06     80.5120E+06     977.523E+03    -232.454E-03     464.009E-03    -231.555E-03     254.741E-03    -249.329E-03     480.733E-03    -231.186E-03     210.494E-03
             687     11.4280E-03     119.897E-03    -23.5613E+06     61.1380E+06     84.5668E+06    -230.782E+03    -230.450E-03     461.955E-03    -231.505E-03     235.135E-03    -246.245E-03     477.639E-03    -231.137E-03     192.597E-03
             688     12.1422E-03     120.180E-03    -16.2223E+06     67.6650E+06     85.7845E+06    -575.435E+03    -228.552E-03     459.993E-03    -231.440E-03     204.648E-03    -241.875E-03     473.249E-03    -231.086E-03     165.725E-03
             689     12.8607E-03     120.413E-03    -8.75546E+06     76.8966E+06     88.6838E+06     474.527E+03    -227.997E-03     459.385E-03    -231.388E-03     181.203E-03    -239.400E-03     470.773E-03    -231.043E-03     144.971E-03
             690     13.5753E-03     120.634E-03    -3.91902E+06     77.5059E+06     88.1519E+06     391.053E+03    -228.573E-03     459.936E-03    -231.363E-03     114.983E-03    -235.461E-03     466.829E-03    -231.029E-03     87.5458E-03
             691     715.059E-06     117.968E-03    -130.263E+06    -329.871E+06    -129.434E+06    -355.279E+03    -231.729E-03     463.351E-03    -231.622E-03     24.6922E-03    -231.805E-03     462.168E-03    -231.602E-03     21.8058E-03
             692     1.42699E-03     118.015E-03    -128.039E+06    -315.378E+06    -120.745E+06     96.7739E+03    -231.989E-03     463.612E-03    -231.623E-03     45.5117E-03    -232.282E-03     462.681E-03    -231.584E-03     40.1182E-03
             693     2.14198E-03     118.092E-03    -123.449E+06    -293.112E+06    -107.265E+06     609.259E+03    -232.442E-03     464.090E-03    -231.648E-03     67.4345E-03    -233.103E-03     463.583E-03    -231.580E-03     59.2902E-03
             694     2.85571E-03     118.198E-03    -117.252E+06    -270.143E+06    -90.1752E+06     1.00163E+06    -233.031E-03     464.726E-03    -231.694E-03     89.1642E-03    -234.209E-03     464.789E-03    -231.583E-03     78.1374E-03
             695     3.57014E-03     118.333E-03    -110.238E+06    -243.518E+06    -72.4009E+06     1.19246E+06    -233.658E-03     465.390E-03    -231.732E-03     110.918E-03    -235.529E-03     466.215E-03    -231.581E-03     96.8227E-03
             696     4.28399E-03     118.499E-03    -102.593E+06    -212.510E+06    -54.6317E+06     1.46093E+06    -234.305E-03     466.056E-03    -231.751E-03     132.338E-03    -237.066E-03     467.857E-03    -231.568E-03     114.984E-03
             697     4.99764E-03     118.691E-03    -94.5267E+06    -177.434E+06    -36.6530E+06     1.55944E+06    -234.937E-03     466.691E-03    -231.755E-03     153.471E-03    -238.816E-03     469.711E-03    -231.544E-03     132.640E-03
             698     5.71214E-03     118.912E-03    -86.2711E+06    -138.883E+06    -19.0258E+06     1.59590E+06    -235.639E-03     467.390E-03    -231.751E-03     174.351E-03    -240.891E-03     471.897E-03    -231.519E-03     149.809E-03
             699     6.42597E-03     119.160E-03    -77.9170E+06    -92.5580E+06    -769.597E+03     1.71029E+06    -236.302E-03     468.049E-03    -231.748E-03     194.855E-03    -243.212E-03     474.357E-03    -231.504E-03     166.413E-03
             700     7.13954E-03     119.434E-03    -69.7640E+06    -36.1875E+06     18.8375E+06     2.11189E+06    -236.463E-03     468.194E-03    -231.731E-03     214.898E-03    -245.333E-03     476.633E-03    -231.483E-03     182.500E-03
             701     7.85492E-03     119.732E-03    -61.5976E+06     3.06512E+06     33.7626E+06     2.05253E+06    -236.369E-03     468.057E-03    -231.688E-03     234.113E-03    -247.437E-03     478.819E-03    -231.435E-03     197.767E-03
             702     8.56873E-03     120.054E-03    -53.3787E+06     23.5816E+06     45.1583E+06     1.63140E+06    -236.051E-03     467.685E-03    -231.634E-03     250.782E-03    -249.406E-03     480.803E-03    -231.365E-03     210.777E-03
             703     9.28424E-03     120.393E-03    -45.2831E+06     38.6556E+06     57.8554E+06     2.03363E+06    -235.380E-03     466.966E-03    -231.586E-03     262.040E-03    -250.794E-03     482.189E-03    -231.288E-03     219.165E-03
             704     9.99948E-03     120.740E-03    -37.2817E+06     46.3976E+06     70.6386E+06     1.67990E+06    -234.341E-03     465.904E-03    -231.563E-03     263.855E-03    -251.065E-03     482.455E-03    -231.223E-03     219.407E-03
             705     10.7131E-03     121.084E-03    -29.1112E+06     55.6589E+06     81.8146E+06     862.100E+03    -232.429E-03     463.972E-03    -231.542E-03     254.427E-03    -249.295E-03     480.695E-03    -231.172E-03     210.168E-03
             706     11.4284E-03     121.400E-03    -21.4048E+06     63.1998E+06     86.6861E+06     341.499E+03    -230.375E-03     461.869E-03    -231.494E-03     235.448E-03    -246.177E-03     477.568E-03    -231.121E-03     192.932E-03
             707     12.1444E-03     121.686E-03    -16.0564E+06     67.9851E+06     86.6620E+06    -59.2497E+03    -229.189E-03     460.634E-03    -231.445E-03     204.458E-03    -242.528E-03     473.906E-03    -231.087E-03     165.421E-03
             708     12.8554E-03     121.916E-03    -11.1968E+06     74.4985E+06     86.5045E+06    -1.23322E+06    -228.049E-03     459.457E-03    -231.408E-03     180.535E-03    -239.464E-03     470.846E-03    -231.067E-03     144.210E-03
             709     13.5702E-03     122.138E-03    -4.42414E+06     76.8535E+06     87.0891E+06    -927.034E+03    -227.428E-03     458.785E-03    -231.357E-03     114.295E-03    -234.291E-03     465.652E-03    -231.027E-03     87.0149E-03
             710     712.621E-06     119.473E-03    -131.287E+06    -329.613E+06    -128.697E+06    -123.922E+03    -231.972E-03     463.417E-03    -231.444E-03     24.6644E-03    -232.055E-03     462.236E-03    -231.420E-03     21.7521E-03
             711     1.42885E-03     119.520E-03    -128.336E+06    -316.104E+06    -120.600E+06     3.47853E+03    -231.989E-03     463.643E-03    -231.654E-03     45.3833E-03    -232.283E-03     462.709E-03    -231.612E-03     39.9902E-03
             712     2.14194E-03     119.597E-03    -123.469E+06    -294.068E+06    -107.114E+06     296.270E+03    -232.495E-03     464.175E-03    -231.679E-03     67.0985E-03    -233.151E-03     463.659E-03    -231.609E-03     58.9665E-03
             713     2.85601E-03     119.703E-03    -117.206E+06    -271.719E+06    -90.0797E+06     839.554E+03    -233.144E-03     464.888E-03    -231.743E-03     88.7520E-03    -234.317E-03     464.940E-03    -231.630E-03     77.7180E-03
             714     3.56911E-03     119.839E-03    -110.028E+06    -244.378E+06    -72.0688E+06     1.37305E+06    -233.733E-03     465.528E-03    -231.796E-03     110.621E-03    -235.599E-03     466.346E-03    -231.642E-03     96.5203E-03
             715     4.28332E-03     120.004E-03    -102.226E+06    -213.505E+06    -54.1089E+06     1.55686E+06    -234.266E-03     466.079E-03    -231.812E-03     132.125E-03    -237.024E-03     467.872E-03    -231.625E-03     114.771E-03
             716     4.99789E-03     120.197E-03    -93.9621E+06    -178.168E+06    -36.1345E+06     1.81773E+06    -234.975E-03     466.783E-03    -231.808E-03     153.410E-03    -238.849E-03     469.796E-03    -231.594E-03     132.577E-03
             717     5.71148E-03     120.417E-03    -85.5882E+06    -139.907E+06    -18.3574E+06     1.80272E+06    -235.762E-03     467.568E-03    -231.805E-03     174.676E-03    -241.015E-03     472.073E-03    -231.570E-03     150.126E-03
             718     6.42548E-03     120.666E-03    -77.2594E+06    -93.6227E+06    -510.636E+03     2.42546E+06    -236.133E-03     467.920E-03    -231.786E-03     195.450E-03    -243.048E-03     474.229E-03    -231.541E-03     167.046E-03
             719     7.14034E-03     120.939E-03     -68.516E+06    -36.5325E+06     19.4938E+06     3.13924E+06    -236.150E-03     467.885E-03    -231.734E-03     215.372E-03    -245.021E-03     476.326E-03    -231.484E-03     183.037E-03
             720     7.85440E-03     121.237E-03    -59.4235E+06     4.03601E+06     35.4687E+06     2.95184E+06    -236.159E-03     467.823E-03    -231.664E-03     234.386E-03    -247.219E-03     478.583E-03    -231.406E-03     198.101E-03
             721     8.56993E-03     121.559E-03    -50.8395E+06     23.8625E+06      47.047E+06     2.92455E+06    -236.069E-03     467.671E-03    -231.603E-03     250.550E-03    -249.400E-03     480.770E-03    -231.328E-03     210.584E-03
             722     9.28465E-03     121.897E-03    -42.8528E+06     38.4263E+06     59.4655E+06     2.89551E+06    -235.739E-03     467.313E-03    -231.574E-03     261.644E-03    -251.143E-03     482.529E-03    -231.270E-03     218.700E-03
             723     9.99817E-03     122.248E-03    -34.8619E+06     48.5439E+06     72.4846E+06     2.32661E+06    -234.303E-03     465.867E-03    -231.564E-03     263.668E-03    -251.012E-03     482.415E-03    -231.222E-03     219.241E-03
             724     10.7140E-03     122.586E-03    -27.4262E+06     57.3142E+06     83.1672E+06     1.35542E+06    -232.255E-03     463.792E-03    -231.537E-03     254.419E-03    -249.114E-03     480.516E-03    -231.165E-03     210.207E-03
             725     11.4293E-03     122.906E-03    -21.2752E+06     63.4252E+06     86.7669E+06     885.061E+03    -230.748E-03     462.242E-03    -231.495E-03     234.948E-03    -246.542E-03     477.935E-03    -231.122E-03     192.362E-03
             726     12.1422E-03     123.191E-03    -14.4491E+06     69.5964E+06     88.0732E+06     965.622E+03    -229.041E-03     460.499E-03    -231.457E-03     204.470E-03    -242.374E-03     473.771E-03    -231.097E-03     165.451E-03
             727     12.8586E-03     123.426E-03    -8.23896E+06     77.5797E+06     89.9417E+06     426.392E+03    -227.810E-03     459.222E-03    -231.412E-03     181.769E-03    -239.248E-03     470.645E-03    -231.062E-03     145.545E-03
             728     13.5745E-03     123.638E-03    -5.05858E+06     76.8069E+06     88.7983E+06    -314.393E+03    -228.544E-03     459.924E-03    -231.379E-03     114.482E-03    -235.426E-03     466.803E-03    -231.039E-03     87.1622E-03
             729     715.289E-06     120.978E-03    -130.761E+06    -330.492E+06    -128.157E+06     528.342E+03    -232.193E-03     463.662E-03    -231.470E-03     24.7123E-03    -232.273E-03     462.476E-03    -231.442E-03     21.7885E-03
             730     1.42678E-03     121.025E-03    -127.564E+06    -316.462E+06    -120.131E+06     266.575E+03    -232.288E-03     464.101E-03    -231.813E-03     45.0257E-03    -232.576E-03     463.162E-03    -231.770E-03     39.6311E-03
             731     2.14139E-03     121.102E-03    -123.052E+06    -294.507E+06    -106.908E+06     239.829E+03    -232.544E-03     464.399E-03    -231.855E-03     66.9128E-03    -233.198E-03     463.881E-03    -231.784E-03     58.7656E-03
             732     2.85491E-03     121.209E-03    -116.979E+06    -272.872E+06    -89.7221E+06     595.717E+03    -233.026E-03     464.896E-03    -231.870E-03     88.8602E-03    -234.197E-03     464.943E-03    -231.753E-03     77.8197E-03
             733     3.56961E-03     121.345E-03    -109.702E+06    -245.915E+06    -72.1141E+06     985.746E+03    -233.630E-03     465.501E-03    -231.871E-03     110.691E-03    -235.493E-03     466.310E-03    -231.716E-03     96.5925E-03
             734     4.28333E-03     121.510E-03    -101.679E+06    -214.450E+06    -53.7927E+06     1.52879E+06    -234.270E-03     466.134E-03    -231.864E-03     132.298E-03    -237.023E-03     467.921E-03    -231.674E-03     114.952E-03
             735     4.99704E-03     121.702E-03    -93.5565E+06    -179.933E+06    -36.2203E+06     1.68566E+06    -234.980E-03     466.827E-03    -231.847E-03     153.801E-03    -238.853E-03     469.835E-03    -231.632E-03     132.969E-03
             736     5.71159E-03     121.924E-03    -85.1216E+06    -140.708E+06    -18.2580E+06     2.16567E+06    -235.527E-03     467.347E-03    -231.820E-03     175.023E-03    -240.777E-03     471.848E-03    -231.584E-03     150.517E-03
             737     6.42597E-03     122.171E-03    -76.4393E+06    -94.3256E+06     192.316E+03     2.45682E+06    -235.844E-03     467.613E-03    -231.769E-03     195.519E-03    -242.749E-03     473.911E-03    -231.521E-03     167.172E-03
             738     7.14038E-03     122.444E-03    -67.3582E+06    -38.0637E+06     19.9952E+06     2.59921E+06    -236.097E-03     467.797E-03    -231.700E-03     215.282E-03    -244.956E-03     476.223E-03    -231.447E-03     182.950E-03
             739     7.85550E-03     122.743E-03    -58.6434E+06     3.31692E+06     35.9491E+06     3.07050E+06    -236.241E-03     467.878E-03    -231.636E-03     233.836E-03    -247.281E-03     478.617E-03    -231.376E-03     197.546E-03
             740     8.56986E-03     123.063E-03    -50.4720E+06     23.3157E+06     47.3443E+06     3.23910E+06    -236.313E-03     467.909E-03    -231.596E-03     250.184E-03    -249.639E-03     481.001E-03    -231.320E-03     210.165E-03
             741     9.28365E-03     123.404E-03    -42.0941E+06     39.0347E+06     60.2351E+06     2.82088E+06    -235.656E-03     467.233E-03    -231.578E-03     261.588E-03    -251.051E-03     482.444E-03    -231.272E-03     218.663E-03
             742     9.99930E-03     123.751E-03    -34.0874E+06     49.1879E+06     73.4980E+06     2.43799E+06    -234.233E-03     465.798E-03    -231.564E-03     263.502E-03    -250.936E-03     482.341E-03    -231.219E-03     219.089E-03
             743     10.7141E-03     124.091E-03    -27.0296E+06     57.5843E+06     84.4038E+06     3.12792E+06    -232.776E-03     464.333E-03    -231.557E-03     254.030E-03    -249.644E-03     481.065E-03    -231.179E-03     209.707E-03
             744     11.4274E-03     124.412E-03    -20.6897E+06     66.8487E+06     89.1616E+06     2.57888E+06    -230.695E-03     462.229E-03    -231.534E-03     234.772E-03    -246.498E-03     477.938E-03    -231.155E-03     192.185E-03
             745     12.1428E-03     124.697E-03    -15.2308E+06     71.7942E+06     89.1803E+06    -223.085E+03    -228.654E-03     460.137E-03    -231.483E-03     203.883E-03    -241.984E-03     473.408E-03    -231.119E-03     164.893E-03
             746     12.8586E-03     124.924E-03    -10.1323E+06     75.8580E+06     89.1932E+06    -834.464E+03    -228.147E-03     459.587E-03    -231.440E-03     179.500E-03    -239.543E-03     470.957E-03    -231.089E-03     143.174E-03
             747     13.5714E-03     125.150E-03    -4.54085E+06     77.2695E+06     89.2972E+06     1.42035E+06    -228.317E-03     459.735E-03    -231.418E-03     113.874E-03    -235.166E-03     466.583E-03    -231.077E-03     86.5923E-03
             748     712.458E-06     122.484E-03    -130.318E+06    -331.058E+06    -128.669E+06    -204.147E+03    -232.190E-03     464.014E-03    -231.824E-03     24.7189E-03    -232.267E-03     462.826E-03    -231.798E-03     21.8104E-03
             749     1.42796E-03     122.532E-03    -127.436E+06    -316.617E+06    -120.409E+06     128.899E+03    -232.323E-03     464.277E-03    -231.954E-03     45.5543E-03    -232.613E-03     463.340E-03    -231.912E-03     40.1334E-03
             750     2.14084E-03     122.608E-03    -123.013E+06    -295.036E+06    -107.030E+06     315.040E+03    -232.535E-03     464.482E-03    -231.947E-03     67.3495E-03    -233.192E-03     463.965E-03    -231.876E-03     59.1943E-03
             751     2.85541E-03     122.715E-03    -116.960E+06    -273.746E+06    -89.7941E+06     513.116E+03    -232.942E-03     464.863E-03    -231.921E-03     89.4073E-03    -234.115E-03     464.910E-03    -231.804E-03     78.3617E-03
             752     3.56867E-03     122.850E-03    -109.528E+06    -246.757E+06    -71.8124E+06     756.500E+03    -233.564E-03     465.456E-03    -231.892E-03     110.964E-03    -235.425E-03     466.261E-03    -231.735E-03     96.8793E-03
             753     4.28322E-03     123.015E-03    -101.525E+06    -216.042E+06    -54.0371E+06     1.03314E+06    -234.260E-03     466.130E-03    -231.869E-03     132.569E-03    -237.014E-03     467.912E-03    -231.679E-03     115.211E-03
             754     4.99763E-03     123.208E-03    -93.2938E+06    -180.889E+06    -36.1757E+06     1.56250E+06    -234.924E-03     466.769E-03    -231.845E-03     154.014E-03    -238.798E-03     469.774E-03    -231.628E-03     133.187E-03
             755     5.71150E-03     123.429E-03    -85.0137E+06    -141.584E+06    -18.2167E+06     1.91938E+06    -235.393E-03     467.199E-03    -231.806E-03     174.911E-03    -240.640E-03     471.694E-03    -231.568E-03     150.416E-03
             756     6.42624E-03     123.676E-03    -76.6301E+06    -95.2667E+06     169.150E+03     1.97835E+06    -235.841E-03     467.592E-03    -231.751E-03     195.206E-03    -242.739E-03     473.880E-03    -231.501E-03     166.848E-03
             757     7.14074E-03     123.950E-03    -68.4951E+06    -39.5802E+06     19.5760E+06     2.43329E+06    -236.197E-03     467.891E-03    -231.694E-03     214.785E-03    -245.044E-03     476.297E-03    -231.439E-03     182.449E-03
             758     7.85486E-03     124.248E-03    -59.9575E+06     1.74947E+06     34.9843E+06     2.91806E+06    -236.400E-03     468.046E-03    -231.646E-03     233.432E-03    -247.433E-03     478.771E-03    -231.387E-03     197.113E-03
             759     8.56915E-03     124.569E-03    -51.4207E+06     22.5380E+06     46.8905E+06     2.88535E+06    -236.219E-03     467.830E-03    -231.611E-03     250.255E-03    -249.548E-03     480.921E-03    -231.335E-03     210.250E-03
             760     9.28456E-03     124.909E-03    -43.7822E+06     40.0197E+06     60.1233E+06     2.54265E+06    -235.555E-03     467.141E-03    -231.586E-03     261.261E-03    -250.946E-03     482.344E-03    -231.280E-03     218.354E-03
             761     9.99915E-03     125.255E-03    -36.8620E+06     49.2270E+06     72.6826E+06     2.10076E+06    -234.716E-03     466.307E-03    -231.591E-03     262.975E-03    -251.432E-03     482.856E-03    -231.245E-03     218.424E-03
             762     10.7126E-03     125.599E-03    -29.4021E+06     55.2064E+06     83.0192E+06     2.03193E+06    -232.826E-03     464.432E-03    -231.606E-03     253.772E-03    -249.706E-03     481.163E-03    -231.229E-03     209.377E-03
             763     11.4277E-03     125.916E-03    -21.4347E+06     68.1384E+06     89.6229E+06     2.48101E+06    -230.330E-03     461.908E-03    -231.577E-03     234.242E-03    -246.134E-03     477.617E-03    -231.197E-03     191.692E-03
             764     12.1434E-03     126.199E-03    -14.8438E+06     76.2845E+06     91.7542E+06     2.88622E+06    -228.998E-03     460.527E-03    -231.529E-03     203.822E-03    -242.334E-03     473.815E-03    -231.160E-03     164.864E-03
             765     12.8546E-03     126.436E-03    -10.6043E+06     77.2697E+06     90.6622E+06     1.93120E+06    -227.803E-03     459.282E-03    -231.479E-03     181.725E-03    -239.229E-03     470.682E-03    -231.122E-03     145.611E-03
             766     13.5695E-03     126.651E-03    -5.58082E+06     77.1243E+06     89.7704E+06     17.2437E+03    -227.142E-03     458.545E-03    -231.403E-03     116.303E-03    -234.049E-03     465.445E-03    -231.057E-03     89.0779E-03
             767     714.694E-06     123.989E-03    -131.061E+06    -330.438E+06    -127.884E+06    -1.38321E+03    -231.658E-03     463.855E-03    -232.197E-03     25.2057E-03    -231.741E-03     462.670E-03    -232.167E-03     22.2961E-03
             768     1.42695E-03     124.038E-03    -127.553E+06    -316.626E+06    -120.072E+06    -21.6972E+03    -232.112E-03     463.958E-03    -231.845E-03     45.9368E-03    -232.405E-03     463.022E-03    -231.802E-03     40.5248E-03
             769     2.14162E-03     124.114E-03    -123.052E+06    -295.690E+06    -106.994E+06     222.413E+03    -232.524E-03     464.349E-03    -231.826E-03     67.6622E-03    -233.180E-03     463.830E-03    -231.754E-03     59.5109E-03
             770     2.85497E-03     124.220E-03    -116.829E+06    -274.553E+06    -89.6949E+06     419.074E+03    -233.048E-03     464.885E-03    -231.838E-03     89.7482E-03    -234.222E-03     464.930E-03    -231.719E-03     78.7073E-03
             771     3.56983E-03     124.356E-03    -109.583E+06    -247.620E+06    -71.8068E+06     797.615E+03    -233.687E-03     465.532E-03    -231.845E-03     111.271E-03    -235.553E-03     466.338E-03    -231.686E-03     97.1634E-03
             772     4.28340E-03     124.521E-03    -101.925E+06    -217.103E+06    -54.1465E+06     972.611E+03    -234.342E-03     466.188E-03    -231.847E-03     132.582E-03    -237.098E-03     467.970E-03    -231.655E-03     115.207E-03
             773     4.99727E-03     124.714E-03    -94.0035E+06    -181.655E+06    -36.6001E+06     1.35862E+06    -234.888E-03     466.718E-03    -231.830E-03     153.822E-03    -238.761E-03     469.719E-03    -231.613E-03     132.994E-03
             774     5.71198E-03     124.934E-03    -85.9786E+06    -142.732E+06    -18.8852E+06     1.71679E+06    -235.526E-03     467.328E-03    -231.801E-03     174.613E-03    -240.769E-03     471.813E-03    -231.564E-03     150.103E-03
             775     6.42587E-03     125.182E-03    -77.9359E+06    -96.7261E+06    -711.573E+03     2.29898E+06    -236.022E-03     467.791E-03    -231.769E-03     194.853E-03    -242.917E-03     474.068E-03    -231.519E-03     166.478E-03
             776     7.14020E-03     125.455E-03    -69.1997E+06    -40.9049E+06     18.9777E+06     2.75347E+06    -236.262E-03     467.989E-03    -231.727E-03     214.563E-03    -245.105E-03     476.386E-03    -231.472E-03     182.219E-03
             777     7.85477E-03     125.754E-03    -60.8314E+06     329.276E+03     34.3382E+06     3.11767E+06    -236.331E-03     468.009E-03    -231.678E-03     233.390E-03    -247.362E-03     478.726E-03    -231.418E-03     197.084E-03
             778     8.56962E-03     126.074E-03    -53.3419E+06     23.5592E+06     46.2914E+06     3.14901E+06    -236.224E-03     467.864E-03    -231.640E-03     249.713E-03    -249.545E-03     480.945E-03    -231.365E-03     209.710E-03
             779     9.28406E-03     126.413E-03    -45.7493E+06     40.9547E+06     59.2899E+06     2.27509E+06    -236.022E-03     467.658E-03    -231.636E-03     260.685E-03    -251.419E-03     482.866E-03    -231.333E-03     217.655E-03
             780     9.99754E-03     126.763E-03    -37.3802E+06     48.5305E+06     72.2091E+06     2.36817E+06    -234.734E-03     466.398E-03    -231.664E-03     262.636E-03    -251.446E-03     482.940E-03    -231.319E-03     218.064E-03
             781     10.7123E-03     127.103E-03    -29.8667E+06     56.3202E+06     83.3611E+06     1.80722E+06    -232.344E-03     464.008E-03    -231.664E-03     253.377E-03    -249.199E-03     480.715E-03    -231.286E-03     209.105E-03
             782     11.4275E-03     127.420E-03    -23.2882E+06     65.7664E+06     88.0786E+06     1.59389E+06    -230.479E-03     462.097E-03    -231.618E-03     234.405E-03    -246.278E-03     477.792E-03    -231.239E-03     191.854E-03
             783     12.1400E-03     127.707E-03    -16.1525E+06     74.7662E+06     89.8585E+06     2.85958E+06    -228.326E-03     459.872E-03    -231.546E-03     204.322E-03    -241.654E-03     473.147E-03    -231.182E-03     165.479E-03
             784     12.8591E-03     127.937E-03    -8.52327E+06     81.8349E+06     92.5221E+06     2.59603E+06    -226.818E-03     458.272E-03    -231.453E-03     180.651E-03    -238.196E-03     469.641E-03    -231.097E-03     144.668E-03
             785     13.5782E-03     128.153E-03    -3.65404E+06     79.6446E+06     92.1082E+06     768.869E+03    -227.878E-03     459.260E-03    -231.382E-03     114.255E-03    -234.740E-03     466.124E-03    -231.032E-03     86.9874E-03
             786     713.074E-06     125.497E-03    -129.838E+06    -330.910E+06    -128.548E+06     99.0137E+03    -231.412E-03     463.644E-03    -232.232E-03     24.5665E-03    -231.484E-03     462.454E-03    -232.207E-03     21.6795E-03
             787     1.42847E-03     125.542E-03    -127.608E+06    -316.571E+06    -120.383E+06     258.077E+03    -231.879E-03     463.597E-03    -231.718E-03     45.5272E-03    -232.170E-03     462.660E-03    -231.676E-03     40.1325E-03
             788     2.14190E-03     125.620E-03    -123.340E+06    -295.789E+06    -107.128E+06     185.835E+03    -232.528E-03     464.226E-03    -231.698E-03     67.5345E-03    -233.183E-03     463.704E-03    -231.626E-03     59.3950E-03
             789     2.85618E-03     125.725E-03    -117.343E+06    -275.358E+06    -89.7950E+06     431.495E+03    -233.214E-03     464.982E-03    -231.768E-03     89.1506E-03    -234.383E-03     465.018E-03    -231.648E-03     78.1219E-03
             790     3.56927E-03     125.862E-03    -110.351E+06    -248.854E+06    -72.4753E+06     780.114E+03    -233.715E-03     465.530E-03    -231.816E-03     110.890E-03    -235.579E-03     466.330E-03    -231.657E-03     96.7751E-03
             791     4.28338E-03     126.027E-03    -102.707E+06    -217.918E+06    -54.5018E+06     1.32374E+06    -234.342E-03     466.171E-03    -231.830E-03     132.412E-03    -237.097E-03     467.946E-03    -231.637E-03     115.052E-03
             792     4.99772E-03     126.219E-03    -94.9907E+06    -182.662E+06    -37.0749E+06     1.63634E+06    -235.098E-03     466.929E-03    -231.831E-03     153.679E-03    -238.974E-03     469.927E-03    -231.614E-03     132.828E-03
             793     5.71141E-03     126.440E-03    -87.0352E+06    -143.829E+06    -19.4537E+06     1.97900E+06    -235.685E-03     467.514E-03    -231.829E-03     174.378E-03    -240.927E-03     471.993E-03    -231.592E-03     149.852E-03
             794     6.42571E-03     126.688E-03    -78.4811E+06    -98.3482E+06    -1.27716E+06     2.40949E+06    -236.112E-03     467.923E-03    -231.810E-03     194.746E-03    -243.006E-03     474.192E-03    -231.560E-03     166.357E-03
             795     7.13993E-03     126.961E-03    -70.2433E+06    -42.3465E+06     18.0744E+06     2.98911E+06    -236.340E-03     468.113E-03    -231.773E-03     214.443E-03    -245.188E-03     476.509E-03    -231.519E-03     182.068E-03
             796     7.85443E-03     127.259E-03    -61.9905E+06    -1.49136E+06     33.4686E+06     3.76177E+06    -236.456E-03     468.191E-03    -231.735E-03     232.808E-03    -247.476E-03     478.889E-03    -231.475E-03     196.485E-03
             797     8.56878E-03     127.579E-03    -53.4929E+06     24.7702E+06     46.3302E+06     3.77211E+06    -236.634E-03     468.354E-03    -231.720E-03     249.135E-03    -249.948E-03     481.432E-03    -231.447E-03     209.047E-03
             798     9.28244E-03     127.920E-03    -45.1721E+06     43.3703E+06     60.2496E+06     2.85453E+06    -235.983E-03     467.714E-03    -231.731E-03     260.641E-03    -251.381E-03     482.931E-03    -231.428E-03     217.617E-03
             799     9.99696E-03     128.268E-03    -37.4414E+06     47.6572E+06     72.1953E+06     1.77018E+06    -234.178E-03     465.909E-03    -231.731E-03     262.726E-03    -250.872E-03     482.430E-03    -231.385E-03     218.289E-03
             800     10.7122E-03     128.607E-03    -29.5798E+06     56.6643E+06     83.6301E+06     2.23748E+06    -232.296E-03     463.997E-03    -231.702E-03     253.794E-03    -249.151E-03     480.706E-03    -231.323E-03     209.563E-03
             801     11.4261E-03     128.927E-03    -21.9852E+06     65.3137E+06     88.9897E+06     2.70471E+06    -230.037E-03     461.672E-03    -231.635E-03     234.956E-03    -245.827E-03     477.358E-03    -231.253E-03     192.532E-03
             802     12.1433E-03     129.210E-03    -15.8485E+06     74.2291E+06     90.2495E+06     1.99967E+06    -228.120E-03     459.660E-03    -231.540E-03     203.815E-03    -241.435E-03     472.920E-03    -231.173E-03     165.002E-03
             803     12.8570E-03     129.437E-03    -9.66429E+06     82.1743E+06     91.6492E+06     1.44815E+06    -227.673E-03     459.136E-03    -231.463E-03     180.545E-03    -239.104E-03     470.559E-03    -231.110E-03     144.283E-03
             804     13.5651E-03     129.664E-03    -3.36192E+06     81.4667E+06     91.9951E+06     1.47167E+06    -227.183E-03     458.581E-03    -231.398E-03     115.290E-03    -234.089E-03     465.497E-03    -231.051E-03     87.9847E-03
             805     714.071E-06     127.000E-03    -131.712E+06    -331.400E+06    -128.982E+06     213.928E+03    -231.451E-03     463.540E-03    -232.089E-03     24.4300E-03    -231.532E-03     462.352E-03    -232.063E-03     21.5599E-03
             806     1.42732E-03     127.047E-03    -128.498E+06    -317.069E+06    -121.034E+06     341.773E+03    -232.147E-03     463.880E-03    -231.733E-03     45.3517E-03    -232.437E-03     462.939E-03    -231.692E-03     39.9668E-03
             807     2.14184E-03     127.125E-03    -123.950E+06    -296.225E+06    -107.332E+06     348.692E+03    -232.612E-03     464.395E-03    -231.783E-03     67.0280E-03    -233.266E-03     463.868E-03    -231.710E-03     58.9071E-03
             808     2.85500E-03     127.232E-03    -117.899E+06    -276.153E+06    -90.0641E+06     576.824E+03    -233.106E-03     464.944E-03    -231.838E-03     88.7574E-03    -234.273E-03     464.973E-03    -231.717E-03     77.7289E-03
             809     3.56939E-03     127.367E-03    -110.832E+06    -249.880E+06    -72.6017E+06     1.07143E+06    -233.624E-03     465.481E-03    -231.856E-03     110.560E-03    -235.482E-03     466.269E-03    -231.696E-03     96.4826E-03
             810     4.28371E-03     127.532E-03    -103.379E+06    -219.172E+06    -54.9904E+06     1.53816E+06    -234.387E-03     466.248E-03    -231.860E-03     132.222E-03    -237.140E-03     468.015E-03    -231.668E-03     114.858E-03
             811     4.99726E-03     127.725E-03    -95.4035E+06    -183.950E+06    -37.3356E+06     2.11876E+06    -235.191E-03     467.062E-03    -231.871E-03     153.372E-03    -239.060E-03     470.048E-03    -231.653E-03     132.525E-03
             812     5.71123E-03     127.946E-03    -87.1747E+06    -144.745E+06    -19.5459E+06     2.66368E+06    -235.775E-03     467.653E-03    -231.878E-03     174.223E-03    -241.016E-03     472.128E-03    -231.640E-03     149.687E-03
             813     6.42541E-03     128.193E-03    -79.3139E+06    -99.3549E+06    -1.60172E+06     2.81917E+06    -236.269E-03     468.139E-03    -231.871E-03     194.508E-03    -243.163E-03     474.404E-03    -231.619E-03     166.089E-03
             814     7.13958E-03     128.467E-03    -70.9135E+06    -44.3346E+06     17.3218E+06     3.45395E+06    -236.512E-03     468.360E-03    -231.848E-03     213.827E-03    -245.343E-03     476.732E-03    -231.595E-03     181.444E-03
             815     7.85361E-03     128.764E-03    -61.9919E+06    -2.86252E+06     32.7505E+06     3.85872E+06    -236.796E-03     468.625E-03    -231.829E-03     232.642E-03    -247.814E-03     479.318E-03    -231.571E-03     196.253E-03
             816     8.56737E-03     129.086E-03    -53.5090E+06     24.5947E+06     46.3817E+06     3.70406E+06    -236.617E-03     468.438E-03    -231.821E-03     249.465E-03    -249.939E-03     481.523E-03    -231.548E-03     209.374E-03
             817     9.28170E-03     129.425E-03    -46.0235E+06     44.9296E+06     60.7597E+06     3.68739E+06    -235.419E-03     467.220E-03    -231.801E-03     260.791E-03    -250.809E-03     482.430E-03    -231.495E-03     217.912E-03
             818     9.99729E-03     129.772E-03    -38.8924E+06     50.9499E+06     73.2079E+06     2.40165E+06    -233.993E-03     465.760E-03    -231.766E-03     262.864E-03    -250.684E-03     482.280E-03    -231.418E-03     218.505E-03
             819     10.7117E-03     130.113E-03    -31.7044E+06     55.2585E+06     83.0686E+06     1.13828E+06    -232.099E-03     463.819E-03    -231.720E-03     253.863E-03    -248.954E-03     480.517E-03    -231.339E-03     209.664E-03
             820     11.4274E-03     130.431E-03    -24.5885E+06     63.9332E+06     87.6484E+06     1.07724E+06    -229.834E-03     461.475E-03    -231.641E-03     233.899E-03    -245.602E-03     477.129E-03    -231.260E-03     191.481E-03
             821     12.1422E-03     130.711E-03    -17.4214E+06     75.4813E+06     90.4116E+06     1.22186E+06    -228.456E-03     460.014E-03    -231.558E-03     203.483E-03    -241.781E-03     473.283E-03    -231.190E-03     164.559E-03
             822     12.8559E-03     130.950E-03    -11.3871E+06     82.3984E+06     91.7234E+06     1.68919E+06    -227.269E-03     458.750E-03    -231.481E-03     180.677E-03    -238.695E-03     470.162E-03    -231.126E-03     144.543E-03
             823     13.5794E-03     131.160E-03    -5.90262E+06     83.0628E+06     91.3774E+06     909.132E+03    -227.288E-03     458.690E-03    -231.402E-03     114.114E-03    -234.162E-03     465.573E-03    -231.057E-03     86.9322E-03
             824     714.284E-06     128.506E-03    -131.677E+06    -331.703E+06    -129.546E+06     204.256E+03    -232.156E-03     463.653E-03    -231.497E-03     24.7586E-03    -232.235E-03     462.463E-03    -231.473E-03     21.8974E-03
             825     1.42793E-03     128.554E-03    -128.355E+06    -317.416E+06    -121.063E+06     203.102E+03    -232.538E-03     464.393E-03    -231.855E-03     45.3079E-03    -232.828E-03     463.451E-03    -231.814E-03     39.9214E-03
             826     2.14068E-03     128.630E-03    -123.784E+06    -297.130E+06    -107.467E+06     538.041E+03    -232.627E-03     464.573E-03    -231.946E-03     67.2076E-03    -233.281E-03     464.045E-03    -231.873E-03     59.0644E-03
             827     2.85538E-03     128.738E-03    -117.924E+06    -277.364E+06    -90.0262E+06     1.13859E+06    -232.970E-03     464.915E-03    -231.945E-03     88.9000E-03    -234.136E-03     464.940E-03    -231.822E-03     77.8826E-03
             828     3.56920E-03     128.873E-03    -110.976E+06    -251.239E+06    -72.3724E+06     1.62579E+06    -233.758E-03     465.699E-03    -231.940E-03     110.400E-03    -235.615E-03     466.479E-03    -231.777E-03     96.3121E-03
             829     4.28272E-03     129.038E-03    -103.449E+06    -220.823E+06    -54.9195E+06     2.19916E+06    -234.524E-03     466.480E-03    -231.956E-03     131.998E-03    -237.273E-03     468.237E-03    -231.760E-03     114.628E-03
             830     4.99686E-03     129.231E-03    -95.6796E+06    -185.482E+06    -37.4554E+06     2.82815E+06    -235.126E-03     467.087E-03    -231.961E-03     153.131E-03    -238.988E-03     470.059E-03    -231.741E-03     132.304E-03
             831     5.71114E-03     129.451E-03    -87.9832E+06    -146.484E+06    -20.1014E+06     3.33003E+06    -235.918E-03     467.881E-03    -231.963E-03     173.910E-03    -241.152E-03     472.341E-03    -231.723E-03     149.370E-03
             832     6.42469E-03     129.700E-03    -79.8513E+06    -100.399E+06    -2.01091E+06     3.77540E+06    -236.404E-03     468.369E-03    -231.965E-03     194.036E-03    -243.283E-03     474.614E-03    -231.714E-03     165.636E-03
             833     7.13842E-03     129.972E-03    -71.4512E+06    -45.4749E+06     17.1660E+06     3.78173E+06    -236.646E-03     468.596E-03    -231.950E-03     213.835E-03    -245.474E-03     476.959E-03    -231.695E-03     181.444E-03
             834     7.85270E-03     130.270E-03    -63.3255E+06    -3.23313E+06     32.6474E+06     3.72417E+06    -236.757E-03     468.681E-03    -231.924E-03     233.019E-03    -247.787E-03     479.380E-03    -231.664E-03     196.629E-03
             835     8.56682E-03     130.592E-03    -55.3316E+06     24.2180E+06     45.6703E+06     3.70111E+06    -236.160E-03     468.043E-03    -231.884E-03     249.453E-03    -249.470E-03     481.110E-03    -231.610E-03     209.473E-03
             836     9.28229E-03     130.929E-03    -47.0890E+06     44.5240E+06     60.0089E+06     3.62300E+06    -235.384E-03     467.221E-03    -231.838E-03     260.502E-03    -250.756E-03     482.410E-03    -231.534E-03     217.645E-03
             837     9.99648E-03     131.278E-03    -39.0023E+06     54.0318E+06     74.1552E+06     3.59941E+06    -234.031E-03     465.838E-03    -231.807E-03     262.233E-03    -250.713E-03     482.359E-03    -231.458E-03     217.859E-03
             838     10.7115E-03     131.617E-03    -31.2572E+06     58.5607E+06     84.6391E+06     2.33967E+06    -231.795E-03     463.555E-03    -231.760E-03     252.808E-03    -248.613E-03     480.225E-03    -231.377E-03     208.685E-03
             839     11.4267E-03     131.934E-03    -23.8391E+06     64.2587E+06     88.6889E+06     824.375E+03    -230.020E-03     461.701E-03    -231.681E-03     233.848E-03    -245.789E-03     477.357E-03    -231.296E-03     191.381E-03
             840     12.1403E-03     132.220E-03    -17.4046E+06     74.3527E+06     90.1044E+06     915.097E+03    -228.372E-03     459.969E-03    -231.596E-03     203.569E-03    -241.720E-03     473.258E-03    -231.228E-03     164.616E-03
             841     12.8583E-03     132.447E-03    -11.4661E+06     83.3471E+06     91.3252E+06     569.827E+03    -227.441E-03     458.963E-03    -231.521E-03     179.119E-03    -238.847E-03     470.359E-03    -231.169E-03     142.909E-03
             842     13.5656E-03     132.667E-03    -5.70283E+06     84.4322E+06     91.2221E+06    -39.9043E+03    -227.249E-03     458.701E-03    -231.452E-03     113.069E-03    -234.109E-03     465.575E-03    -231.110E-03     85.8108E-03
             843     713.470E-06     130.012E-03    -130.656E+06    -331.582E+06    -129.224E+06     3.62540E+03    -232.920E-03     464.498E-03    -231.578E-03     24.2256E-03    -232.994E-03     463.307E-03    -231.554E-03     21.3089E-03
             844     1.42678E-03     130.060E-03    -128.750E+06    -318.072E+06    -121.441E+06     351.716E+03    -232.152E-03     464.271E-03    -232.119E-03     45.1440E-03    -232.444E-03     463.328E-03    -232.078E-03     39.7448E-03
             845     2.14143E-03     130.137E-03    -124.391E+06    -298.419E+06    -107.865E+06     796.358E+03    -232.633E-03     464.670E-03    -232.037E-03     67.1151E-03    -233.286E-03     464.135E-03    -231.963E-03     58.9783E-03
             846     2.85470E-03     130.243E-03    -118.281E+06    -279.583E+06    -90.1254E+06     1.40358E+06    -233.210E-03     465.254E-03    -232.045E-03     88.6782E-03    -234.374E-03     465.267E-03    -231.918E-03     77.6528E-03
             847     3.56865E-03     130.379E-03    -111.158E+06    -253.480E+06    -72.4484E+06     2.38439E+06    -233.890E-03     465.949E-03    -232.059E-03     110.542E-03    -235.749E-03     466.723E-03    -231.893E-03     96.4302E-03
             848     4.28244E-03     130.544E-03    -103.642E+06    -222.902E+06    -54.5886E+06     3.32643E+06    -234.595E-03     466.669E-03    -232.073E-03     131.955E-03    -237.339E-03     468.412E-03    -231.873E-03     114.603E-03
             849     4.99644E-03     130.736E-03    -96.0298E+06    -187.519E+06    -37.1931E+06     4.07207E+06    -235.360E-03     467.444E-03    -232.084E-03     153.048E-03    -239.222E-03     470.407E-03    -231.858E-03     132.210E-03
             850     5.70985E-03     130.959E-03    -88.1711E+06    -148.470E+06    -19.9077E+06     4.54278E+06    -235.971E-03     468.060E-03    -232.089E-03     173.847E-03    -241.197E-03     472.504E-03    -231.845E-03     149.332E-03
             851     6.42376E-03     131.206E-03    -80.1360E+06    -101.649E+06    -1.66962E+06     5.14100E+06    -236.337E-03     468.413E-03    -232.076E-03     194.023E-03    -243.207E-03     474.642E-03    -231.821E-03     165.669E-03
             852     7.13840E-03     131.478E-03    -72.1840E+06    -45.4629E+06     17.9994E+06     5.20962E+06    -236.643E-03     468.689E-03    -232.046E-03     214.051E-03    -245.481E-03     477.057E-03    -231.785E-03     181.666E-03
             853     7.85196E-03     131.778E-03    -64.3451E+06    -2.15792E+06     33.7357E+06     4.49041E+06    -236.480E-03     468.480E-03    -232.000E-03     232.741E-03    -247.501E-03     479.167E-03    -231.735E-03     196.420E-03
             854     8.56713E-03     132.096E-03    -56.0932E+06     25.0144E+06     46.2913E+06     3.64273E+06    -236.181E-03     468.126E-03    -231.946E-03     248.726E-03    -249.467E-03     481.168E-03    -231.669E-03     208.751E-03
             855     9.28117E-03     132.436E-03    -47.3916E+06     44.2058E+06     60.1021E+06     2.88572E+06    -235.520E-03     467.428E-03    -231.908E-03     259.748E-03    -250.873E-03     482.596E-03    -231.603E-03     216.843E-03
             856     9.99560E-03     132.783E-03    -38.3469E+06     53.0512E+06     73.8439E+06     2.71336E+06    -233.866E-03     465.744E-03    -231.878E-03     261.556E-03    -250.526E-03     482.242E-03    -231.530E-03     217.183E-03
             857     10.7108E-03     133.121E-03    -29.2781E+06     61.2174E+06     85.7468E+06     2.41322E+06    -231.913E-03     463.743E-03    -231.830E-03     252.415E-03    -248.726E-03     480.421E-03    -231.448E-03     208.229E-03
             858     11.4255E-03     133.440E-03    -21.3021E+06     65.9345E+06     90.4491E+06     2.10224E+06    -229.773E-03     461.523E-03    -231.751E-03     233.316E-03    -245.513E-03     477.159E-03    -231.363E-03     190.901E-03
             859     12.1425E-03     133.722E-03    -14.7325E+06     73.6431E+06     91.8339E+06     1.91174E+06    -228.034E-03     459.684E-03    -231.650E-03     202.913E-03    -241.311E-03     472.903E-03    -231.276E-03     164.135E-03
             860     12.8538E-03     133.955E-03    -8.79215E+06     86.4420E+06      94.094E+06     1.58540E+06    -227.233E-03     458.783E-03    -231.550E-03     181.363E-03    -238.664E-03     470.216E-03    -231.192E-03     145.292E-03
             861     13.5742E-03     134.175E-03    -4.90479E+06     86.0280E+06     92.9409E+06     601.877E+03    -226.949E-03     458.401E-03    -231.452E-03     114.754E-03    -233.858E-03     465.329E-03    -231.105E-03     87.5762E-03
             862     712.294E-06     131.519E-03    -131.685E+06    -333.312E+06    -129.400E+06     743.844E+03    -232.763E-03     464.831E-03    -232.068E-03     24.2468E-03    -232.843E-03     463.635E-03    -232.041E-03     21.2793E-03
             863     1.42742E-03     131.565E-03    -129.296E+06    -319.003E+06    -121.936E+06     999.672E+03    -232.273E-03     464.548E-03    -232.276E-03     45.2627E-03    -232.564E-03     463.602E-03    -232.235E-03     39.8635E-03
             864     2.14068E-03     131.643E-03    -125.099E+06    -299.523E+06    -108.367E+06     1.25959E+06    -232.677E-03     464.849E-03    -232.171E-03     66.8649E-03    -233.329E-03     464.307E-03    -232.098E-03     58.7463E-03
             865     2.85456E-03     131.749E-03    -118.964E+06    -282.259E+06    -90.2039E+06     1.95595E+06    -233.313E-03     465.481E-03    -232.168E-03     88.7307E-03    -234.478E-03     465.483E-03    -232.037E-03     77.6930E-03
             866     3.56810E-03     131.885E-03    -111.826E+06    -256.977E+06    -72.1552E+06     3.15968E+06    -233.984E-03     466.164E-03    -232.180E-03     110.640E-03    -235.839E-03     466.918E-03    -232.006E-03     96.5528E-03
             867     4.28216E-03     132.050E-03    -104.134E+06    -225.651E+06    -54.2094E+06     4.15425E+06    -234.795E-03     466.991E-03    -232.196E-03     131.931E-03    -237.537E-03     468.720E-03    -231.989E-03     114.578E-03
             868     4.99545E-03     132.244E-03    -95.8585E+06    -190.248E+06    -36.6439E+06     4.70588E+06    -235.560E-03     467.778E-03    -232.218E-03     153.094E-03    -239.418E-03     470.726E-03    -231.986E-03     132.242E-03
             869     5.70933E-03     132.465E-03    -87.3114E+06    -150.278E+06    -18.8232E+06     5.56290E+06    -235.923E-03     468.141E-03    -232.218E-03     173.674E-03    -241.140E-03     472.569E-03    -231.968E-03     149.178E-03
             870     6.42383E-03     132.712E-03    -78.7624E+06    -103.836E+06    -399.175E+03     6.33329E+06    -236.342E-03     468.532E-03    -232.190E-03     194.006E-03    -243.210E-03     474.753E-03    -231.927E-03     165.635E-03
             871     7.13688E-03     132.986E-03    -69.9906E+06    -47.2442E+06     19.4255E+06     7.22097E+06    -236.555E-03     468.701E-03    -232.146E-03     213.659E-03    -245.366E-03     477.039E-03    -231.879E-03     181.322E-03
             872     7.85199E-03     133.282E-03    -61.2265E+06     484.295E+03     36.7723E+06     7.37347E+06    -236.586E-03     468.683E-03    -232.097E-03     231.936E-03    -247.573E-03     479.348E-03    -231.826E-03     195.648E-03
             873     8.56572E-03     133.603E-03    -53.0584E+06     28.5427E+06     49.8737E+06     5.69714E+06    -236.383E-03     468.441E-03    -232.058E-03     248.040E-03    -249.655E-03     481.481E-03    -231.773E-03     208.031E-03
             874     9.27976E-03     133.941E-03    -45.1910E+06     46.0932E+06     62.6756E+06     4.05301E+06    -235.308E-03     467.327E-03    -232.019E-03     259.144E-03    -250.638E-03     482.478E-03    -231.707E-03     216.282E-03
             875     9.99535E-03     134.286E-03    -37.5997E+06     53.6912E+06     74.9890E+06     2.69419E+06    -233.867E-03     465.842E-03    -231.975E-03     261.141E-03    -250.504E-03     482.318E-03    -231.623E-03     216.770E-03
             876     10.7097E-03     134.627E-03    -30.7068E+06     61.6460E+06     86.1418E+06     2.06336E+06    -231.961E-03     463.887E-03    -231.927E-03     251.879E-03    -248.766E-03     480.553E-03    -231.541E-03     207.669E-03
             877     11.4247E-03     134.943E-03    -24.4003E+06     67.3264E+06     90.1380E+06     1.36483E+06    -229.702E-03     461.546E-03    -231.845E-03     232.631E-03    -245.441E-03     477.176E-03    -231.456E-03     190.204E-03
             878     12.1383E-03     135.226E-03    -17.3360E+06     74.3071E+06     91.6002E+06     26.4045E+03    -227.693E-03     459.426E-03    -231.733E-03     202.247E-03    -240.976E-03     472.646E-03    -231.358E-03     163.417E-03
             879     12.8583E-03     135.458E-03    -11.4878E+06     84.9072E+06     93.5318E+06     186.411E+03    -225.984E-03     457.581E-03    -231.597E-03     178.136E-03    -237.306E-03     468.893E-03    -231.236E-03     142.285E-03
             880     13.5718E-03     135.673E-03    -6.03608E+06     86.6762E+06     93.1234E+06     1.01552E+06    -226.035E-03     457.486E-03    -231.451E-03     111.938E-03    -232.822E-03     464.289E-03    -231.102E-03     85.0647E-03
             881     714.994E-06     133.026E-03    -133.036E+06    -336.108E+06    -131.161E+06     665.698E+03    -232.353E-03     464.380E-03    -232.027E-03     24.5199E-03    -232.432E-03     463.173E-03    -232.002E-03     21.6310E-03
             882     1.42633E-03     133.073E-03    -130.566E+06    -321.103E+06    -123.992E+06     1.30575E+06    -232.874E-03     465.085E-03    -232.211E-03     45.1957E-03    -233.167E-03     464.134E-03    -232.176E-03     39.7697E-03
             883     2.14029E-03     133.149E-03    -126.438E+06    -301.135E+06    -110.129E+06     1.87246E+06    -232.818E-03     465.095E-03    -232.277E-03     67.0914E-03    -233.475E-03     464.554E-03    -232.208E-03     58.9529E-03
             884     2.85424E-03     133.256E-03    -120.227E+06    -284.719E+06    -90.6816E+06     2.38141E+06    -233.427E-03     465.710E-03    -232.284E-03     88.9640E-03    -234.594E-03     465.703E-03    -232.150E-03     77.9295E-03
             885     3.56805E-03     133.392E-03    -112.324E+06    -260.387E+06    -71.7974E+06     3.00864E+06    -234.302E-03     466.621E-03    -232.319E-03     110.341E-03    -236.150E-03     467.354E-03    -232.138E-03     96.2415E-03
             886     4.28125E-03     133.557E-03    -103.676E+06    -229.095E+06    -54.0329E+06     3.92164E+06    -234.955E-03     467.310E-03    -232.355E-03     131.757E-03    -237.691E-03     469.022E-03    -232.143E-03     114.372E-03
             887     4.99502E-03     133.752E-03    -95.0474E+06    -192.783E+06    -36.0795E+06     4.94599E+06    -235.442E-03     467.803E-03    -232.361E-03     152.846E-03    -239.288E-03     470.732E-03    -232.124E-03     132.006E-03
             888     5.70882E-03     133.971E-03    -86.3219E+06    -153.659E+06    -18.3394E+06     5.62119E+06    -236.043E-03     468.389E-03    -232.346E-03     173.487E-03    -241.254E-03     472.801E-03    -232.089E-03     148.950E-03
             889     6.42200E-03     134.219E-03    -77.5330E+06    -107.428E+06    -82.1803E+03      6.4706E+06    -236.497E-03     468.818E-03    -232.321E-03     193.751E-03    -243.350E-03     475.015E-03    -232.053E-03     165.348E-03
             890     7.13708E-03     134.492E-03    -68.9655E+06    -50.5130E+06     19.7999E+06     7.75590E+06    -236.746E-03     469.032E-03    -232.286E-03     212.976E-03    -245.530E-03     477.334E-03    -232.014E-03     180.623E-03
             891     7.85038E-03     134.789E-03    -60.3492E+06    -702.785E+03     37.2890E+06     8.86519E+06    -236.739E-03     468.986E-03    -232.247E-03     231.216E-03    -247.706E-03     479.628E-03    -231.972E-03     194.902E-03
             892     8.56425E-03     135.110E-03    -52.4784E+06     32.3665E+06     51.5537E+06     8.76402E+06    -236.134E-03     468.333E-03    -232.199E-03     247.429E-03    -249.391E-03     481.369E-03    -231.912E-03     207.491E-03
             893     9.27965E-03     135.445E-03    -45.7189E+06     50.8134E+06     64.7726E+06     6.46061E+06    -235.330E-03     467.481E-03    -232.150E-03     258.353E-03    -250.648E-03     482.628E-03    -231.834E-03     215.495E-03
             894     9.99348E-03     135.793E-03    -39.0050E+06     57.3796E+06     77.4046E+06     4.23809E+06    -233.899E-03     466.012E-03    -232.113E-03     260.235E-03    -250.521E-03     482.475E-03    -231.753E-03     215.864E-03
             895     10.7083E-03     136.131E-03    -31.7858E+06     62.8413E+06     87.8037E+06     3.08697E+06    -231.709E-03     463.766E-03    -232.057E-03     251.148E-03    -248.485E-03     480.397E-03    -231.663E-03     207.023E-03
             896     11.4235E-03     136.448E-03    -24.2149E+06     70.6341E+06     92.7257E+06     1.82421E+06    -229.458E-03     461.415E-03    -231.956E-03     232.191E-03    -245.197E-03     477.049E-03    -231.560E-03     189.797E-03
             897     12.1399E-03     136.731E-03    -17.9409E+06     76.5846E+06     93.1978E+06     552.272E+03    -227.296E-03     459.117E-03    -231.821E-03     202.159E-03    -240.594E-03     472.353E-03    -231.440E-03     163.421E-03
             898     12.8511E-03     136.959E-03    -12.0893E+06     83.2806E+06     93.3805E+06     123.380E+03    -225.329E-03     456.974E-03    -231.645E-03     179.632E-03    -236.698E-03     468.325E-03    -231.282E-03     143.855E-03
             899     13.5691E-03     137.176E-03    -4.40346E+06     87.1694E+06     94.2079E+06      -231.8E+03    -224.392E-03     455.822E-03    -231.430E-03     115.495E-03    -231.268E-03     462.719E-03    -231.079E-03     88.5811E-03
             900     713.027E-06     134.533E-03    -134.264E+06    -336.864E+06    -131.935E+06     187.517E+03    -232.021E-03     464.436E-03    -232.415E-03     24.5881E-03    -232.103E-03     463.228E-03    -232.392E-03     21.7016E-03
             901     1.42754E-03     134.581E-03    -130.614E+06    -324.508E+06    -122.862E+06     909.313E+03    -232.636E-03     464.833E-03    -232.196E-03     45.1388E-03    -232.925E-03     463.862E-03    -232.151E-03     39.7313E-03
             902     2.14062E-03     134.655E-03    -125.695E+06    -304.365E+06    -109.008E+06     2.24550E+06    -233.343E-03     465.636E-03    -232.293E-03     67.1056E-03    -233.994E-03     465.077E-03    -232.215E-03     58.9519E-03
             903     2.85395E-03     134.763E-03    -119.265E+06    -285.743E+06    -90.7748E+06     2.33018E+06    -233.962E-03     466.386E-03    -232.424E-03     88.8272E-03    -235.122E-03     466.372E-03    -232.291E-03     77.7629E-03
             904     3.56691E-03     134.899E-03    -111.583E+06    -263.407E+06    -71.9989E+06     2.54498E+06    -234.486E-03     466.998E-03    -232.512E-03     110.186E-03    -236.330E-03     467.720E-03    -232.329E-03     96.0292E-03
             905     4.28037E-03     135.065E-03    -103.344E+06    -232.257E+06    -54.4050E+06     3.53580E+06    -234.956E-03     467.491E-03    -232.535E-03     131.595E-03    -237.684E-03     469.185E-03    -232.320E-03     114.190E-03
             906     4.99410E-03     135.257E-03    -94.8588E+06    -196.334E+06    -36.6519E+06     4.65323E+06    -235.508E-03     468.029E-03    -232.521E-03     152.619E-03    -239.345E-03     470.938E-03    -232.282E-03     131.758E-03
             907     5.70795E-03     135.479E-03    -86.7538E+06    -157.155E+06    -19.0376E+06     5.62569E+06    -236.240E-03     468.744E-03    -232.505E-03     173.240E-03    -241.440E-03     473.134E-03    -232.246E-03     148.678E-03
             908     6.42204E-03     135.726E-03    -78.8868E+06    -110.634E+06    -933.132E+03     6.69477E+06    -236.880E-03     469.380E-03    -232.500E-03     192.981E-03    -243.718E-03     475.548E-03    -232.230E-03     164.535E-03
             909     7.13477E-03     135.998E-03    -70.8129E+06    -54.8548E+06     18.3876E+06     8.01301E+06    -236.996E-03     469.485E-03    -232.490E-03     212.163E-03    -245.768E-03     477.758E-03    -232.216E-03     179.749E-03
             910     7.84851E-03     136.298E-03    -63.0585E+06    -4.26603E+06     35.5933E+06     9.32925E+06    -236.528E-03     468.973E-03    -232.444E-03     230.396E-03    -247.477E-03     479.579E-03    -232.169E-03     194.106E-03
             911     8.56373E-03     136.613E-03    -54.9637E+06     33.0480E+06     50.5815E+06     9.50340E+06    -236.120E-03     468.498E-03    -232.378E-03     246.397E-03    -249.348E-03     481.502E-03    -232.093E-03     206.462E-03
             912     9.27716E-03     136.954E-03    -46.1546E+06     55.5818E+06     65.9135E+06     8.06665E+06    -235.332E-03     467.660E-03    -232.328E-03     257.340E-03    -250.613E-03     482.783E-03    -232.012E-03     214.516E-03
             913     9.99173E-03     137.296E-03    -37.3008E+06     61.3592E+06     79.9903E+06     6.34963E+06    -233.653E-03     465.936E-03    -232.284E-03     259.458E-03    -250.239E-03     482.376E-03    -231.919E-03     215.171E-03
             914     10.7071E-03     137.636E-03    -28.9125E+06     65.7969E+06     91.5288E+06     4.49625E+06    -231.344E-03     463.551E-03    -232.206E-03     250.630E-03    -248.080E-03     480.152E-03    -231.802E-03     206.611E-03
             915     11.4219E-03     137.952E-03    -21.1378E+06     73.2258E+06     96.6850E+06     3.44489E+06    -228.609E-03     460.670E-03    -232.061E-03     231.956E-03    -244.291E-03     476.257E-03    -231.653E-03     189.808E-03
             916     12.1368E-03     138.233E-03    -14.1321E+06     78.7307E+06     97.2120E+06     3.18568E+06    -225.976E-03     457.828E-03    -231.852E-03     202.393E-03    -239.210E-03     471.009E-03    -231.459E-03     164.019E-03
             917     12.8584E-03     138.462E-03    -8.06599E+06     85.9416E+06     97.6383E+06     1.26993E+06    -224.061E-03     455.661E-03    -231.600E-03     179.224E-03    -235.403E-03     466.996E-03    -231.225E-03     143.628E-03
             918     13.5772E-03     138.672E-03    -2.99234E+06     88.4051E+06     97.3283E+06     435.729E+03    -224.784E-03     456.149E-03    -231.366E-03     113.937E-03    -231.646E-03     463.033E-03    -231.003E-03     87.0174E-03
             919     713.065E-06     136.039E-03    -133.599E+06    -336.513E+06    -131.859E+06    -288.273E+03    -232.134E-03     464.785E-03    -232.651E-03     24.8373E-03    -232.214E-03     463.579E-03    -232.629E-03     21.8987E-03
             920     1.42715E-03     136.086E-03    -130.598E+06    -327.445E+06    -122.001E+06     562.472E+03    -232.866E-03     465.255E-03    -232.389E-03     44.9761E-03    -233.150E-03     464.267E-03    -232.335E-03     39.5597E-03
             921     2.14053E-03     136.165E-03    -125.161E+06    -307.938E+06    -108.965E+06     1.55325E+06    -233.680E-03     466.198E-03    -232.518E-03     66.2865E-03    -234.317E-03     465.614E-03    -232.435E-03     58.1140E-03
             922     2.85285E-03     136.271E-03    -119.041E+06    -287.130E+06    -92.4436E+06     2.46675E+06    -234.090E-03     466.742E-03    -232.652E-03     88.3509E-03    -235.244E-03     466.723E-03    -232.525E-03     77.2672E-03
             923     3.56634E-03     136.408E-03    -112.081E+06    -265.299E+06    -73.0319E+06     2.83691E+06    -234.471E-03     467.184E-03    -232.713E-03     110.223E-03    -236.315E-03     467.900E-03    -232.530E-03     96.0572E-03
             924     4.27993E-03     136.572E-03    -104.287E+06    -235.158E+06    -55.5324E+06     3.12718E+06    -235.156E-03     467.873E-03    -232.718E-03     131.397E-03    -237.880E-03     469.554E-03    -232.503E-03     113.964E-03
             925     4.99341E-03     136.765E-03    -96.0793E+06    -200.007E+06    -38.3170E+06     3.90964E+06    -235.983E-03     468.711E-03    -232.728E-03     152.142E-03    -239.815E-03     471.603E-03    -232.491E-03     131.205E-03
             926     5.70663E-03     136.986E-03    -87.5767E+06    -160.706E+06    -20.6166E+06     5.28104E+06    -236.700E-03     469.453E-03    -232.753E-03     172.319E-03    -241.882E-03     473.813E-03    -232.496E-03     147.694E-03
             927     6.41959E-03     137.234E-03    -79.1148E+06    -115.507E+06    -2.61826E+06     7.09941E+06    -237.035E-03     469.802E-03    -232.768E-03     192.105E-03    -243.848E-03     475.932E-03    -232.499E-03     163.630E-03
             928     7.13290E-03     137.508E-03    -70.5257E+06    -60.3750E+06     16.7631E+06     9.47601E+06    -236.804E-03     469.543E-03    -232.739E-03     211.427E-03    -245.541E-03     477.766E-03    -232.465E-03     179.060E-03
             929     7.84759E-03     137.801E-03    -61.4204E+06    -7.28397E+06     35.4683E+06     10.9843E+06    -236.705E-03     469.381E-03    -232.677E-03     229.824E-03    -247.623E-03     479.953E-03    -232.400E-03     193.517E-03
             930     8.56048E-03     138.123E-03    -52.1807E+06     33.9210E+06     51.8598E+06     10.2623E+06    -236.308E-03     468.920E-03    -232.612E-03     245.608E-03    -249.493E-03     481.889E-03    -232.326E-03     205.660E-03
             931     9.27520E-03     138.457E-03    -43.2909E+06     58.0765E+06     67.3439E+06     9.15693E+06    -235.026E-03     467.570E-03    -232.544E-03     256.575E-03    -250.245E-03     482.647E-03    -232.229E-03     213.868E-03
             932     9.99052E-03     138.803E-03    -35.3853E+06     65.1084E+06     81.5435E+06     7.60780E+06    -233.186E-03     465.647E-03    -232.461E-03     258.869E-03    -249.721E-03     482.051E-03    -232.097E-03     214.716E-03
             933     10.7047E-03     139.140E-03    -27.8901E+06     69.1259E+06     93.2098E+06     5.71328E+06    -230.402E-03     462.732E-03    -232.330E-03     250.196E-03    -247.088E-03     479.294E-03    -231.923E-03     206.407E-03
             934     11.4216E-03     139.454E-03    -21.0737E+06     73.3853E+06     98.1187E+06     4.97089E+06    -227.327E-03     459.437E-03    -232.110E-03     231.987E-03    -242.956E-03     474.967E-03    -231.695E-03     190.173E-03
             935     12.1403E-03     139.734E-03    -15.1668E+06     81.0556E+06     99.8494E+06     4.30965E+06    -225.000E-03     456.835E-03    -231.835E-03     201.740E-03    -238.228E-03     470.008E-03    -231.432E-03     163.496E-03
             936     12.8545E-03     139.958E-03    -10.1785E+06     89.8228E+06     101.013E+06     3.23363E+06    -224.747E-03     456.334E-03    -231.586E-03     177.939E-03    -236.126E-03     467.702E-03    -231.197E-03     142.165E-03
             937     13.5697E-03     140.173E-03    -5.96026E+06     90.8272E+06     99.2500E+06     1.85007E+06    -224.913E-03     456.292E-03    -231.380E-03     112.793E-03    -231.790E-03     463.183E-03    -231.006E-03     85.8069E-03
             938     714.307E-06     137.547E-03    -136.144E+06    -337.488E+06    -132.559E+06     764.806E+03    -233.291E-03     465.743E-03    -232.452E-03     24.2108E-03    -233.380E-03     464.535E-03    -232.428E-03     21.3043E-03
             939     1.42591E-03     137.595E-03    -132.421E+06    -329.307E+06    -124.357E+06     793.094E+03    -233.438E-03     466.327E-03    -232.889E-03     44.7764E-03    -233.725E-03     465.336E-03    -232.841E-03     39.3345E-03
             940     2.13839E-03     137.673E-03    -127.930E+06    -310.403E+06    -111.493E+06     1.13121E+06    -233.534E-03     466.477E-03    -232.943E-03     66.5164E-03    -234.182E-03     465.892E-03    -232.864E-03     58.3111E-03
             941     2.85244E-03     137.780E-03    -121.462E+06    -289.201E+06    -94.4597E+06     1.49398E+06    -234.004E-03     466.942E-03    -232.937E-03     88.2111E-03    -235.162E-03     466.916E-03    -232.814E-03     77.1125E-03
             942     3.56577E-03     137.915E-03    -113.529E+06    -267.327E+06    -75.4965E+06     1.97964E+06    -234.792E-03     467.752E-03    -232.960E-03     109.553E-03    -236.626E-03     468.453E-03    -232.785E-03     95.3672E-03
             943     4.27889E-03     138.081E-03    -105.277E+06    -236.952E+06    -57.4320E+06     2.46904E+06    -235.632E-03     468.633E-03    -233.001E-03     130.449E-03    -238.345E-03     470.298E-03    -232.792E-03     112.959E-03
             944     4.99163E-03     138.274E-03    -97.0495E+06    -203.048E+06    -40.3834E+06     2.97867E+06    -236.452E-03     469.503E-03    -233.051E-03     151.273E-03    -240.270E-03     472.373E-03    -232.818E-03     130.265E-03
             945     5.70434E-03     138.495E-03    -88.4630E+06    -166.046E+06    -23.4405E+06     4.43043E+06    -236.931E-03     470.019E-03    -233.088E-03     171.873E-03    -242.101E-03     474.353E-03    -232.836E-03     147.188E-03
             946     6.41716E-03     138.743E-03    -79.5719E+06    -121.533E+06    -5.31612E+06     6.45028E+06    -236.859E-03     469.932E-03    -233.073E-03     191.817E-03    -243.649E-03     476.023E-03    -232.808E-03     163.358E-03
             947     7.13173E-03     139.014E-03    -70.3680E+06    -68.2793E+06     13.8399E+06     8.56076E+06    -236.951E-03     469.966E-03    -233.014E-03     210.820E-03    -245.648E-03     478.130E-03    -232.744E-03     178.423E-03
             948     7.84469E-03     139.311E-03    -61.4089E+06    -11.9733E+06     33.1605E+06     10.3846E+06    -236.906E-03     469.853E-03    -232.947E-03     228.986E-03    -247.773E-03     480.364E-03    -232.675E-03     192.667E-03
             949     8.55895E-03     139.630E-03    -53.5254E+06     35.6520E+06     50.7418E+06     10.5112E+06    -235.970E-03     468.831E-03    -232.861E-03     244.772E-03    -249.113E-03     481.764E-03    -232.581E-03     204.921E-03
             950     9.27340E-03     139.963E-03    -46.3057E+06     59.2828E+06     65.5713E+06     9.30059E+06    -234.615E-03     467.366E-03    -232.751E-03     256.068E-03    -249.815E-03     482.422E-03    -232.442E-03     213.434E-03
             951     9.98754E-03     140.308E-03    -39.2714E+06     66.8900E+06     80.4395E+06     8.29026E+06    -232.315E-03     464.929E-03    -232.614E-03     258.562E-03    -248.816E-03     481.295E-03    -232.251E-03     214.627E-03
             952     10.7048E-03     140.642E-03    -33.0221E+06     72.6851E+06     93.4299E+06     7.16028E+06    -229.305E-03     461.719E-03    -232.414E-03     249.579E-03    -245.966E-03     478.250E-03    -232.005E-03     206.055E-03
             953     11.4220E-03     140.955E-03    -26.8187E+06     75.8229E+06     98.4630E+06     5.14400E+06    -226.615E-03     458.759E-03    -232.144E-03     230.433E-03    -242.218E-03     474.251E-03    -231.723E-03     188.733E-03
             954     12.1384E-03     141.232E-03    -19.9306E+06     81.6516E+06     99.8762E+06     3.31855E+06    -224.971E-03     456.828E-03    -231.857E-03     200.116E-03    -238.158E-03     469.944E-03    -231.447E-03     161.877E-03
             955     12.8583E-03     141.462E-03    -12.0524E+06     92.4734E+06     102.188E+06     3.76482E+06    -223.794E-03     455.374E-03    -231.580E-03     179.208E-03    -235.177E-03     466.746E-03    -231.186E-03     143.645E-03
             956     13.5735E-03     141.681E-03    -6.09460E+06     94.6921E+06     100.693E+06     2.03580E+06    -222.675E-03     453.953E-03    -231.278E-03     115.395E-03    -229.584E-03     460.885E-03    -230.903E-03     88.7039E-03
             957     711.270E-06     139.057E-03    -137.341E+06    -339.708E+06    -136.834E+06     536.834E+03    -234.473E-03     467.096E-03    -232.623E-03     24.6639E-03    -234.559E-03     465.887E-03    -232.616E-03     21.7241E-03
             958     1.42512E-03     139.105E-03    -134.362E+06    -330.157E+06    -126.394E+06     737.118E+03    -233.377E-03     466.792E-03    -233.415E-03     44.9559E-03    -233.671E-03     465.804E-03    -233.373E-03     39.5006E-03
             959     2.13893E-03     139.181E-03    -129.513E+06    -311.168E+06    -113.298E+06     517.620E+03    -233.707E-03     466.998E-03    -233.291E-03     66.5615E-03    -234.359E-03     466.415E-03    -233.219E-03     58.3377E-03
             960     2.85152E-03     139.288E-03    -123.259E+06    -290.251E+06    -96.6148E+06     584.430E+03    -234.532E-03     467.813E-03    -233.280E-03     87.9181E-03    -235.692E-03     467.785E-03    -233.164E-03     76.7661E-03
             961     3.56406E-03     139.425E-03    -115.935E+06    -267.815E+06    -78.3840E+06     211.787E+03    -235.389E-03     468.738E-03    -233.350E-03     108.993E-03    -237.225E-03     469.440E-03    -233.185E-03     94.7327E-03
             962     4.27647E-03     139.590E-03    -107.565E+06    -239.320E+06    -61.2654E+06     386.376E+03    -236.057E-03     469.473E-03    -233.416E-03     130.059E-03    -238.769E-03     471.131E-03    -233.219E-03     112.497E-03
             963     4.98928E-03     139.784E-03    -99.1039E+06    -206.981E+06    -43.9915E+06     1.67147E+06    -236.528E-03     469.976E-03    -233.448E-03     151.173E-03    -240.341E-03     472.830E-03    -233.225E-03     130.136E-03
             964     5.70214E-03     140.005E-03    -90.8911E+06    -170.150E+06    -26.7644E+06     2.94072E+06    -236.733E-03     470.164E-03    -233.431E-03     171.641E-03    -241.892E-03     474.473E-03    -233.186E-03     146.966E-03
             965     6.41629E-03     140.251E-03    -82.2104E+06    -127.247E+06    -9.34913E+06     4.09054E+06    -237.102E-03     470.484E-03    -233.382E-03     191.175E-03    -243.865E-03     476.530E-03    -233.125E-03     162.669E-03
             966     7.12876E-03     140.523E-03    -73.7918E+06    -76.9319E+06     8.67858E+06     6.16530E+06    -237.377E-03     470.707E-03    -233.330E-03     210.259E-03    -246.045E-03     478.815E-03    -233.068E-03     177.791E-03
             967     7.84209E-03     140.819E-03    -65.8090E+06    -18.7672E+06     28.1599E+06     9.22138E+06    -236.587E-03     469.834E-03    -233.247E-03     228.037E-03    -247.408E-03     480.272E-03    -232.983E-03     191.795E-03
             968     8.55647E-03     141.135E-03    -57.9689E+06     34.8842E+06     46.6291E+06     11.0014E+06    -235.360E-03     468.458E-03    -233.098E-03     244.207E-03    -248.467E-03     481.348E-03    -232.832E-03     204.503E-03
             969     9.27104E-03     141.471E-03    -50.8634E+06     60.9194E+06     61.8724E+06     10.6403E+06    -233.877E-03     466.795E-03    -232.918E-03     255.658E-03    -249.036E-03     481.811E-03    -232.623E-03     213.232E-03
             970     9.98787E-03     141.810E-03    -43.7503E+06     68.6165E+06     77.8917E+06     9.23321E+06    -231.478E-03     464.200E-03    -232.722E-03     257.466E-03    -247.915E-03     480.499E-03    -232.368E-03     213.771E-03
             971     10.7040E-03     142.145E-03    -34.7263E+06     75.8278E+06     94.1026E+06     7.62587E+06    -228.736E-03     461.221E-03    -232.485E-03     248.393E-03    -245.335E-03     477.694E-03    -232.074E-03     205.034E-03
             972     11.4206E-03     142.455E-03    -25.0671E+06     79.7370E+06     101.679E+06     6.07480E+06    -226.347E-03     458.544E-03    -232.197E-03     229.794E-03    -241.917E-03     474.014E-03    -231.768E-03     188.165E-03
             973     12.1386E-03     142.733E-03    -17.5156E+06     83.4480E+06     102.937E+06     5.31625E+06    -224.003E-03     455.873E-03    -231.870E-03     201.280E-03    -237.176E-03     468.982E-03    -231.451E-03     163.292E-03
             974     12.8528E-03     142.960E-03    -11.6635E+06     93.6434E+06     103.332E+06     2.45579E+06    -221.215E-03     452.697E-03    -231.482E-03     179.296E-03    -232.536E-03     464.010E-03    -231.084E-03     144.215E-03
             975     13.5797E-03     143.166E-03    -4.32414E+06     97.7892E+06     102.535E+06     555.628E+03    -220.458E-03     451.514E-03    -231.056E-03     114.108E-03    -227.302E-03     458.393E-03    -230.679E-03     87.7161E-03
             976     713.114E-06     140.569E-03    -138.925E+06    -338.929E+06    -136.709E+06    -736.287E+03    -233.747E-03     467.430E-03    -233.683E-03     24.2574E-03    -233.843E-03     466.228E-03    -233.674E-03     21.2787E-03
             977     1.42510E-03     140.614E-03    -135.458E+06    -329.856E+06    -128.778E+06    -970.262E+03    -233.922E-03     467.574E-03    -233.652E-03     44.9245E-03    -234.219E-03     466.593E-03    -233.621E-03     39.4249E-03
             978     2.13734E-03     140.692E-03    -130.581E+06    -311.442E+06    -115.834E+06    -688.790E+03    -234.487E-03     468.158E-03    -233.672E-03     66.1853E-03    -235.137E-03     467.576E-03    -233.610E-03     57.9176E-03
             979     2.84994E-03     140.799E-03    -124.209E+06    -290.480E+06    -99.1681E+06    -645.655E+03    -235.114E-03     468.858E-03    -233.744E-03     87.6887E-03    -236.275E-03     468.834E-03    -233.638E-03     76.4757E-03
             980     3.56226E-03     140.936E-03    -116.444E+06    -265.989E+06    -80.5324E+06    -1.00244E+06    -235.679E-03     469.487E-03    -233.809E-03     109.039E-03    -237.517E-03     470.202E-03    -233.657E-03     94.7353E-03
             981     4.27482E-03     141.101E-03    -108.877E+06    -241.483E+06    -63.4766E+06    -858.992E+03    -236.219E-03     470.058E-03    -233.839E-03     130.321E-03    -238.934E-03     471.712E-03    -233.648E-03     112.718E-03
             982     4.98733E-03     141.295E-03    -100.911E+06    -210.792E+06    -47.0130E+06     345.660E+03    -236.619E-03     470.445E-03    -233.826E-03     151.044E-03    -240.423E-03     473.279E-03    -233.609E-03     129.987E-03
             983     5.70084E-03     141.514E-03    -92.4645E+06    -172.670E+06    -30.4524E+06     1.05944E+06    -237.057E-03     470.841E-03    -233.783E-03     170.908E-03    -242.189E-03     475.119E-03    -233.551E-03     146.200E-03
             984     6.41307E-03     141.761E-03    -84.3557E+06    -132.833E+06    -13.7491E+06     2.23744E+06    -237.487E-03     471.228E-03    -233.741E-03     190.539E-03    -244.221E-03     477.231E-03    -233.495E-03     161.977E-03
             985     7.12614E-03     142.033E-03    -76.2578E+06    -84.6728E+06     3.94338E+06     5.09729E+06    -237.048E-03     470.712E-03    -233.664E-03     209.635E-03    -245.665E-03     478.746E-03    -233.410E-03     177.263E-03
             986     7.84005E-03     142.327E-03    -67.7606E+06    -28.0754E+06     23.4237E+06     8.67530E+06    -236.003E-03     469.513E-03    -233.510E-03     227.752E-03    -246.768E-03     479.869E-03    -233.254E-03     191.661E-03
             987     8.55445E-03     142.642E-03    -59.4751E+06     30.1367E+06     43.0684E+06     11.9602E+06    -234.896E-03     468.186E-03    -233.290E-03     244.132E-03    -247.950E-03     481.010E-03    -233.032E-03     204.597E-03
             988     9.27065E-03     142.974E-03    -51.1360E+06     62.8210E+06     59.9856E+06     12.5884E+06    -233.227E-03     466.274E-03    -233.047E-03     254.863E-03    -248.295E-03     481.209E-03    -232.764E-03     212.711E-03
             989     9.98579E-03     143.314E-03    -41.8576E+06     73.0049E+06     77.3455E+06     10.1501E+06    -230.733E-03     463.524E-03    -232.792E-03     256.609E-03    -247.063E-03     479.741E-03    -232.450E-03     213.214E-03
             990     10.7028E-03     143.645E-03    -33.3983E+06     78.6649E+06     93.8315E+06     7.52087E+06    -227.919E-03     460.415E-03    -232.496E-03     249.001E-03    -244.447E-03     476.832E-03    -232.093E-03     205.953E-03
             991     11.4211E-03     143.955E-03    -26.6632E+06     80.3190E+06     101.606E+06     6.29695E+06    -224.945E-03     457.074E-03    -232.128E-03     231.933E-03    -240.491E-03     472.515E-03    -231.698E-03     190.749E-03
             992     12.1385E-03     144.232E-03    -19.4098E+06     86.7824E+06     104.681E+06     5.03673E+06    -221.800E-03     453.483E-03    -231.683E-03     203.604E-03    -234.986E-03     466.604E-03    -231.257E-03     166.110E-03
             993     12.8647E-03     144.453E-03    -11.1304E+06     98.6414E+06     107.917E+06     2.50717E+06    -219.982E-03     451.183E-03    -231.201E-03     182.217E-03    -231.369E-03     462.567E-03    -230.788E-03     147.347E-03
             994     13.5772E-03     144.665E-03    -5.57152E+06     100.420E+06     105.816E+06     1.02117E+06    -220.082E-03     450.818E-03    -230.735E-03     117.722E-03    -227.033E-03     457.799E-03    -230.344E-03     91.2373E-03
             995     712.150E-06     142.078E-03    -138.423E+06    -333.841E+06    -136.195E+06    -1.72319E+06    -233.600E-03     468.172E-03    -234.572E-03     23.6247E-03    -233.698E-03     466.990E-03    -234.568E-03     20.6548E-03
             996     1.42476E-03     142.127E-03    -135.528E+06    -328.303E+06    -127.701E+06    -2.02755E+06    -234.522E-03     468.607E-03    -234.086E-03     44.2693E-03    -234.820E-03     467.630E-03    -234.051E-03     38.7539E-03
             997     2.13653E-03     142.204E-03    -130.456E+06    -311.539E+06    -115.714E+06    -1.80056E+06    -235.084E-03     469.250E-03    -234.166E-03     66.2843E-03    -235.735E-03     468.667E-03    -234.104E-03     57.9687E-03
             998     2.84831E-03     142.312E-03    -124.434E+06    -288.721E+06    -100.709E+06    -2.14435E+06    -235.420E-03     469.640E-03    -234.220E-03     87.8215E-03    -236.580E-03     469.625E-03    -234.124E-03     76.5922E-03
             999     3.56071E-03     142.448E-03    -118.066E+06    -265.715E+06    -83.8997E+06    -2.10077E+06    -235.835E-03     470.062E-03    -234.227E-03     109.191E-03    -237.677E-03     470.785E-03    -234.090E-03     94.8603E-03
            1000     4.27320E-03     142.613E-03    -110.356E+06    -242.113E+06    -66.2765E+06    -1.69765E+06    -236.457E-03     470.678E-03    -234.221E-03     130.057E-03    -239.163E-03     472.325E-03    -234.041E-03     112.442E-03
            1001     4.98593E-03     142.806E-03    -102.107E+06    -212.049E+06    -49.8311E+06    -1.70399E+06    -237.015E-03     471.216E-03    -234.201E-03     150.336E-03    -240.795E-03     474.026E-03    -233.995E-03     129.253E-03
            1002     5.69773E-03     143.025E-03    -93.9002E+06    -175.311E+06    -34.1597E+06    -1.06125E+06    -237.468E-03     471.630E-03    -234.162E-03     170.712E-03    -242.581E-03     475.886E-03    -233.943E-03     145.958E-03
            1003     6.41054E-03     143.272E-03    -85.3611E+06    -137.784E+06    -17.4320E+06     392.291E+03    -237.265E-03     471.354E-03    -234.089E-03     190.609E-03    -243.969E-03     477.316E-03    -233.853E-03     162.107E-03
            1004     7.12393E-03     143.542E-03    -76.4138E+06    -93.0649E+06     220.206E+03     3.12696E+06    -236.337E-03     470.265E-03    -233.928E-03     209.544E-03    -244.891E-03     478.216E-03    -233.681E-03     177.338E-03
            1005     7.83857E-03     143.834E-03    -67.0366E+06    -38.5550E+06     19.7530E+06     6.73099E+06    -235.498E-03     469.185E-03    -233.687E-03     227.840E-03    -246.173E-03     479.428E-03    -233.435E-03     191.946E-03
            1006     8.55403E-03     144.148E-03    -56.8777E+06     19.5647E+06     40.5061E+06     11.1166E+06    -234.421E-03     467.824E-03    -233.403E-03     243.893E-03    -247.346E-03     480.499E-03    -233.147E-03     204.626E-03
            1007     9.26861E-03     144.479E-03    -47.3747E+06     62.1325E+06     59.3861E+06     14.1165E+06    -232.206E-03     465.282E-03    -233.075E-03     255.111E-03    -247.145E-03     480.100E-03    -232.800E-03     213.409E-03
            1008     9.98628E-03     144.816E-03    -40.5479E+06     79.4253E+06     77.0572E+06     12.8073E+06    -229.376E-03     462.079E-03    -232.703E-03     258.488E-03    -245.626E-03     478.243E-03    -232.374E-03     215.661E-03
            1009     10.7050E-03     145.144E-03    -34.7182E+06     81.8339E+06     93.0167E+06     10.7314E+06    -226.340E-03     458.625E-03    -232.285E-03     251.799E-03    -242.815E-03     474.997E-03    -231.888E-03     209.396E-03
            1010     11.4239E-03     145.454E-03    -27.3224E+06     85.4254E+06     103.489E+06     7.89312E+06    -222.886E-03     454.676E-03    -231.790E-03     234.544E-03    -238.361E-03     470.057E-03    -231.357E-03     194.094E-03
            1011     12.1477E-03     145.724E-03    -19.4258E+06     92.1531E+06     107.348E+06     3.76278E+06    -220.349E-03     451.587E-03    -231.238E-03     205.748E-03    -233.509E-03     464.694E-03    -230.807E-03     168.681E-03
            1012     12.8634E-03     145.947E-03    -12.5919E+06     100.048E+06     108.536E+06     1.91071E+06    -219.161E-03     449.861E-03    -230.700E-03     184.000E-03    -230.583E-03     461.279E-03    -230.284E-03     149.261E-03
            1013     13.5938E-03     146.155E-03    -5.47454E+06     102.328E+06     107.893E+06     1.18825E+06    -219.361E-03     449.579E-03    -230.218E-03     119.263E-03    -226.330E-03     456.579E-03    -229.819E-03     92.8519E-03
            1014     711.370E-06     143.594E-03    -142.457E+06    -328.620E+06    -139.799E+06    -1.24795E+06    -234.647E-03     469.271E-03    -234.624E-03     24.0675E-03    -234.769E-03     468.129E-03    -234.640E-03     21.1144E-03
            1015     1.42305E-03     143.639E-03    -139.033E+06    -324.148E+06    -130.786E+06    -2.80414E+06    -234.998E-03     469.616E-03    -234.618E-03     44.8948E-03    -235.319E-03     468.672E-03    -234.601E-03     39.3280E-03
            1016     2.13536E-03     143.718E-03    -134.118E+06    -309.554E+06    -118.639E+06    -3.54540E+06    -235.298E-03     469.941E-03    -234.642E-03     66.3152E-03    -235.963E-03     469.374E-03    -234.592E-03     57.9850E-03
            1017     2.84735E-03     143.824E-03    -128.327E+06    -286.854E+06    -103.804E+06    -3.19867E+06    -235.655E-03     470.287E-03    -234.632E-03     87.5537E-03    -236.825E-03     470.284E-03    -234.549E-03     76.3296E-03
            1018     3.55955E-03     143.960E-03    -121.435E+06    -264.300E+06    -87.3943E+06    -3.76576E+06    -236.163E-03     470.774E-03    -234.611E-03     108.974E-03    -238.007E-03     471.503E-03    -234.489E-03     94.6427E-03
            1019     4.27148E-03     144.126E-03    -113.568E+06    -240.968E+06    -71.1917E+06    -4.70613E+06    -236.727E-03     471.310E-03    -234.583E-03     129.998E-03    -239.428E-03     472.959E-03    -234.425E-03     112.380E-03
            1020     4.98317E-03     144.318E-03    -104.973E+06    -211.658E+06    -54.3035E+06    -5.05763E+06    -237.233E-03     471.775E-03    -234.542E-03     150.727E-03    -241.013E-03     474.588E-03    -234.355E-03     129.626E-03
            1021     5.69608E-03     144.538E-03    -95.8680E+06    -178.046E+06    -37.4108E+06    -4.58275E+06    -237.228E-03     471.687E-03    -234.459E-03     171.263E-03    -242.322E-03     475.918E-03    -234.249E-03     146.577E-03
            1022     6.40896E-03     144.783E-03    -86.7276E+06    -142.010E+06    -20.6382E+06    -3.03575E+06    -236.529E-03     470.817E-03    -234.288E-03     190.997E-03    -243.180E-03     476.716E-03    -234.060E-03     162.698E-03
            1023     7.12333E-03     145.050E-03    -77.3605E+06    -100.691E+06    -3.27281E+06    -1.08170E+06    -235.804E-03     469.833E-03    -234.029E-03     210.163E-03    -244.289E-03     477.695E-03    -233.787E-03     178.160E-03
            1024     7.83814E-03     145.341E-03    -67.7812E+06    -50.5591E+06     15.1817E+06     2.56041E+06    -234.968E-03     468.677E-03    -233.709E-03     228.825E-03    -245.546E-03     478.791E-03    -233.461E-03     193.208E-03
            1025     8.55286E-03     145.654E-03    -59.3641E+06     4.97647E+06     33.9694E+06     7.99302E+06    -233.056E-03     466.366E-03    -233.311E-03     245.488E-03    -245.848E-03     478.867E-03    -233.062E-03     206.771E-03
            1026     9.27102E-03     145.982E-03    -51.9369E+06     54.9955E+06     52.1260E+06     12.4817E+06    -230.386E-03     463.200E-03    -232.814E-03     257.569E-03    -245.197E-03     477.871E-03    -232.558E-03     216.594E-03
            1027     9.99045E-03     146.314E-03    -43.9180E+06     82.0899E+06     72.0194E+06     14.0582E+06    -227.591E-03     459.868E-03    -232.277E-03     261.577E-03    -243.735E-03     475.938E-03    -231.972E-03     219.533E-03
            1028     10.7102E-03     146.644E-03    -34.6180E+06     86.7217E+06     91.8262E+06     11.4962E+06    -224.364E-03     456.088E-03    -231.724E-03     254.709E-03    -240.721E-03     472.364E-03    -231.341E-03     213.125E-03
            1029     11.4332E-03     146.946E-03    -25.1927E+06     92.0695E+06     107.168E+06     7.68770E+06    -221.378E-03     452.513E-03    -231.134E-03     237.495E-03    -236.791E-03     467.852E-03    -230.695E-03     197.654E-03
            1030     12.1526E-03     147.218E-03    -17.3160E+06     96.5844E+06     112.471E+06     6.01888E+06    -219.471E-03     450.000E-03    -230.529E-03     209.443E-03    -232.620E-03     463.104E-03    -230.082E-03     172.851E-03
            1031     12.8798E-03     147.438E-03    -11.3528E+06     104.846E+06     113.685E+06     4.20925E+06    -218.623E-03     448.586E-03    -229.964E-03     189.103E-03    -230.107E-03     460.072E-03    -229.531E-03     154.689E-03
            1032     13.5920E-03     147.646E-03    -5.29273E+06     105.752E+06     111.283E+06     1.29805E+06    -219.244E-03     448.722E-03    -229.478E-03     124.145E-03    -226.328E-03     455.841E-03    -229.068E-03     97.6473E-03
            1033     712.378E-06     145.106E-03    -145.399E+06    -323.923E+06    -143.510E+06     -1.0222E+06    -234.635E-03     469.634E-03    -234.998E-03     24.4646E-03    -234.775E-03     468.525E-03    -235.035E-03     21.4873E-03
            1034     1.42349E-03     145.156E-03    -142.429E+06    -317.111E+06    -134.417E+06    -2.72829E+06    -235.496E-03     470.348E-03    -234.852E-03     45.3506E-03    -235.837E-03     469.448E-03    -234.858E-03     39.7994E-03
            1035     2.13427E-03     145.232E-03    -138.026E+06    -304.635E+06    -120.327E+06    -4.50077E+06    -235.655E-03     470.612E-03    -234.957E-03     66.6863E-03    -236.343E-03     470.078E-03    -234.917E-03     58.3616E-03
            1036     2.84627E-03     145.339E-03    -130.694E+06    -284.490E+06    -104.755E+06    -5.75767E+06    -235.974E-03     470.929E-03    -234.955E-03     87.9484E-03    -237.156E-03     470.940E-03    -234.876E-03     76.7011E-03
            1037     3.55769E-03     145.475E-03    -122.678E+06    -260.996E+06    -89.7215E+06    -6.45882E+06    -236.402E-03     471.312E-03    -234.909E-03     109.345E-03    -238.241E-03     472.049E-03    -234.802E-03     95.0522E-03
            1038     4.26996E-03     145.639E-03    -114.604E+06    -236.605E+06    -72.9342E+06    -7.51925E+06    -236.713E-03     471.553E-03    -234.840E-03     130.638E-03    -239.407E-03     473.212E-03    -234.696E-03     113.089E-03
            1039     4.98284E-03     145.832E-03    -106.207E+06    -209.682E+06    -56.7391E+06    -8.69791E+06    -236.812E-03     471.528E-03    -234.716E-03     151.668E-03    -240.571E-03     474.331E-03    -234.542E-03     130.705E-03
            1040     5.69495E-03     146.050E-03    -97.6742E+06    -179.427E+06    -40.7231E+06    -8.46065E+06    -236.355E-03     470.866E-03    -234.511E-03     172.201E-03    -241.403E-03     475.049E-03    -234.313E-03     147.774E-03
            1041     6.40930E-03     146.292E-03    -89.0255E+06    -145.044E+06    -24.1323E+06    -7.24142E+06    -235.609E-03     469.818E-03    -234.210E-03     192.355E-03    -242.198E-03     475.646E-03    -233.991E-03     164.385E-03
            1042     7.12409E-03     146.559E-03    -80.4490E+06    -106.837E+06    -7.64487E+06    -5.65652E+06    -234.891E-03     468.720E-03    -233.829E-03     212.522E-03    -243.299E-03     476.486E-03    -233.596E-03     180.940E-03
            1043     7.83923E-03     146.848E-03    -72.4944E+06    -63.5076E+06     8.82173E+06    -1.57214E+06    -233.346E-03     466.709E-03    -233.363E-03     232.083E-03    -243.822E-03     476.676E-03    -233.122E-03     197.112E-03
            1044     8.55765E-03     147.157E-03    -63.8269E+06    -8.72950E+06     26.9015E+06     4.24065E+06    -230.973E-03     463.746E-03    -232.773E-03     249.396E-03    -243.637E-03     476.074E-03    -232.533E-03     211.506E-03
            1045     9.27740E-03     147.480E-03    -53.6226E+06     44.0033E+06     46.4766E+06     9.18212E+06    -228.592E-03     460.688E-03    -232.096E-03     261.958E-03    -243.265E-03     475.192E-03    -231.849E-03     221.821E-03
            1046     9.99764E-03     147.814E-03    -43.3067E+06     78.4746E+06     67.3062E+06     12.1734E+06    -225.802E-03     457.202E-03    -231.400E-03     266.109E-03    -241.801E-03     473.131E-03    -231.115E-03     224.968E-03
            1047     10.7211E-03     148.135E-03    -34.7416E+06     94.1059E+06     90.0020E+06     10.9142E+06    -222.702E-03     453.426E-03    -230.724E-03     259.461E-03    -238.954E-03     469.627E-03    -230.360E-03     218.766E-03
            1048     11.4430E-03     148.440E-03    -27.5488E+06     96.2340E+06     107.365E+06     8.19168E+06    -220.354E-03     450.423E-03    -230.069E-03     243.150E-03    -235.727E-03     465.729E-03    -229.632E-03     204.040E-03
            1049     12.1689E-03     148.708E-03    -20.0572E+06     98.8599E+06     113.990E+06     5.89985E+06    -219.074E-03     448.518E-03    -229.444E-03     215.093E-03    -232.220E-03     461.613E-03    -228.988E-03     179.008E-03
            1050     12.8875E-03     148.928E-03    -10.7909E+06     109.706E+06     119.185E+06     4.07669E+06    -218.662E-03     447.568E-03    -228.906E-03     193.671E-03    -230.197E-03     459.109E-03    -228.454E-03     159.406E-03
            1051     13.6205E-03     149.139E-03    -5.43903E+06     109.130E+06     116.295E+06     2.83605E+06    -220.901E-03     449.407E-03    -228.505E-03     127.841E-03    -228.068E-03     456.604E-03    -228.074E-03     101.179E-03
            1052     711.129E-06     146.623E-03    -145.699E+06    -318.117E+06    -144.219E+06    -1.83628E+06    -234.976E-03     470.301E-03    -235.326E-03     24.8752E-03    -235.124E-03     469.222E-03    -235.374E-03     21.8909E-03
            1053     1.42266E-03     146.670E-03    -143.019E+06    -309.915E+06    -134.716E+06    -3.02560E+06    -235.310E-03     470.392E-03    -235.082E-03     44.9516E-03    -235.657E-03     469.522E-03    -235.099E-03     39.4843E-03
            1054     2.13475E-03     146.748E-03    -137.197E+06    -296.345E+06    -120.348E+06    -5.42376E+06    -235.630E-03     470.685E-03    -235.056E-03     66.8799E-03    -236.318E-03     470.183E-03    -235.029E-03     58.6380E-03
            1055     2.84569E-03     146.854E-03    -130.489E+06    -278.706E+06    -104.786E+06    -7.58794E+06    -235.986E-03     471.003E-03    -235.016E-03     88.8519E-03    -237.169E-03     471.036E-03    -234.947E-03     77.6806E-03
            1056     3.55796E-03     146.989E-03    -123.337E+06    -256.145E+06    -89.4781E+06    -8.86485E+06    -236.194E-03     471.119E-03    -234.925E-03     110.617E-03    -238.032E-03     471.870E-03    -234.822E-03     96.4418E-03
            1057     4.26989E-03     147.153E-03    -115.634E+06    -231.173E+06    -74.1676E+06    -10.2154E+06    -236.150E-03     470.907E-03    -234.757E-03     132.358E-03    -238.833E-03     472.574E-03    -234.625E-03     115.024E-03
            1058     4.98218E-03     147.344E-03    -107.750E+06    -205.826E+06    -58.4611E+06    -11.3669E+06    -235.646E-03     470.133E-03    -234.488E-03     153.932E-03    -239.378E-03     472.922E-03    -234.325E-03     133.327E-03
            1059     5.69721E-03     147.560E-03    -99.8259E+06    -178.086E+06    -43.1912E+06    -11.5047E+06    -234.935E-03     469.039E-03    -234.104E-03     174.999E-03    -239.937E-03     473.180E-03    -233.917E-03     151.044E-03
            1060     6.41214E-03     147.800E-03    -91.5799E+06    -146.199E+06    -27.5658E+06    -11.1421E+06    -234.188E-03     467.818E-03    -233.630E-03     196.101E-03    -240.715E-03     473.581E-03    -233.423E-03     168.694E-03
            1061     7.12835E-03     148.065E-03    -83.2247E+06    -112.152E+06    -11.8506E+06    -9.30528E+06    -232.819E-03     465.882E-03    -233.063E-03     217.222E-03    -241.131E-03     473.535E-03    -232.839E-03     186.439E-03
            1062     7.84731E-03     148.351E-03    -73.4503E+06    -73.0479E+06     5.08765E+06    -6.03290E+06    -230.824E-03     463.203E-03    -232.379E-03     237.140E-03    -241.149E-03     472.992E-03    -232.141E-03     203.164E-03
            1063     8.56754E-03     148.655E-03    -62.3085E+06    -22.6476E+06     23.9457E+06    -1.36604E+06    -228.881E-03     460.472E-03    -231.592E-03     255.072E-03    -241.362E-03     472.583E-03    -231.349E-03     218.190E-03
            1064     9.28884E-03     148.979E-03    -52.4957E+06     29.1833E+06     42.8557E+06     5.84370E+06    -226.676E-03     457.428E-03    -230.751E-03     268.350E-03    -241.163E-03     471.707E-03    -230.503E-03     229.307E-03
            1065     10.0132E-03     149.305E-03    -44.7121E+06     74.3488E+06     61.6605E+06     10.3467E+06    -223.930E-03     453.826E-03    -229.896E-03     273.007E-03    -239.767E-03     469.589E-03    -229.631E-03     233.023E-03
            1066     10.7367E-03     149.629E-03    -37.0583E+06     97.9859E+06     83.6429E+06     10.3815E+06    -221.529E-03     450.635E-03    -229.106E-03     267.385E-03    -237.685E-03     466.764E-03    -228.777E-03     227.711E-03
            1067     11.4633E-03     149.927E-03    -28.1931E+06     99.5755E+06     104.689E+06     8.60874E+06    -220.031E-03     448.465E-03    -228.433E-03     251.383E-03    -235.366E-03     463.748E-03    -228.013E-03     213.066E-03
            1068     12.1853E-03     150.199E-03    -19.5214E+06     104.999E+06     117.104E+06     5.93599E+06    -219.911E-03     447.783E-03    -227.871E-03     223.537E-03    -233.140E-03     460.975E-03    -227.410E-03     187.786E-03
            1069     12.9115E-03     150.418E-03    -13.9091E+06     110.945E+06     120.021E+06     3.77889E+06    -221.660E-03     449.141E-03    -227.481E-03     201.739E-03    -233.428E-03     460.905E-03    -227.021E-03     167.104E-03
            1070     13.6218E-03     150.627E-03    -7.53262E+06     109.870E+06     116.896E+06     2.70332E+06    -224.067E-03     451.359E-03    -227.292E-03     134.095E-03    -231.441E-03     458.758E-03    -226.856E-03     106.768E-03
            1071     710.932E-06     148.139E-03    -146.783E+06    -310.928E+06    -143.959E+06    -1.70902E+06    -235.385E-03     470.304E-03    -234.919E-03     25.3461E-03    -235.549E-03     469.261E-03    -234.975E-03     22.4211E-03
            1072     1.42264E-03     148.186E-03    -142.812E+06    -301.086E+06    -135.667E+06    -4.47611E+06    -234.951E-03     469.944E-03    -234.993E-03     45.8478E-03    -235.308E-03     469.118E-03    -235.028E-03     40.4382E-03
            1073     2.13416E-03     148.262E-03    -137.775E+06    -287.258E+06    -123.474E+06    -6.79908E+06    -234.940E-03     469.734E-03    -234.794E-03     67.9068E-03    -235.631E-03     469.274E-03    -234.795E-03     59.8115E-03
            1074     2.84694E-03     148.369E-03    -132.064E+06    -270.355E+06    -107.438E+06    -8.82681E+06    -235.110E-03     469.710E-03    -234.600E-03     90.4619E-03    -236.292E-03     469.774E-03    -234.553E-03     79.5312E-03
            1075     3.55887E-03     148.503E-03    -124.708E+06    -249.121E+06    -90.0793E+06    -10.7322E+06    -235.048E-03     469.413E-03    -234.366E-03     112.869E-03    -236.880E-03     470.180E-03    -234.274E-03     99.0050E-03
            1076     4.27238E-03     148.666E-03    -116.977E+06    -224.548E+06    -74.3989E+06    -12.3207E+06    -234.407E-03     468.416E-03    -234.009E-03     135.448E-03    -237.072E-03     470.084E-03    -233.885E-03     118.570E-03
            1077     4.98772E-03     148.854E-03    -108.984E+06    -200.168E+06    -58.9308E+06    -13.4125E+06    -233.600E-03     467.115E-03    -233.515E-03     157.971E-03    -237.292E-03     469.880E-03    -233.361E-03     137.987E-03
            1078     5.70300E-03     149.067E-03    -100.591E+06    -174.982E+06    -43.7200E+06    -14.3450E+06    -232.790E-03     465.704E-03    -232.914E-03     180.188E-03    -237.729E-03     469.792E-03    -232.733E-03     156.981E-03
            1079     6.42051E-03     149.306E-03    -92.3097E+06    -145.834E+06    -29.0549E+06    -13.8504E+06    -231.615E-03     463.831E-03    -232.216E-03     202.344E-03    -238.053E-03     469.507E-03    -232.016E-03     175.882E-03
            1080     7.13985E-03     149.567E-03    -83.7497E+06    -114.105E+06    -13.3578E+06    -12.7279E+06    -229.907E-03     461.321E-03    -231.414E-03     223.954E-03    -238.088E-03     468.837E-03    -231.194E-03     194.306E-03
            1081     7.86108E-03     149.848E-03    -75.1987E+06    -77.7377E+06     3.11958E+06    -11.6607E+06    -228.181E-03     458.695E-03    -230.514E-03     244.769E-03    -238.350E-03     468.311E-03    -230.277E-03     212.004E-03
            1082     8.58393E-03     150.151E-03    -67.4548E+06    -36.1158E+06     19.5588E+06    -7.60829E+06    -226.467E-03     456.018E-03    -229.551E-03     263.685E-03    -238.773E-03     467.898E-03    -229.303E-03     228.112E-03
            1083     9.30943E-03     150.468E-03    -58.8139E+06     11.4393E+06     36.2235E+06    -684.484E+03    -224.375E-03     452.924E-03    -228.549E-03     277.731E-03    -238.663E-03     466.938E-03    -228.300E-03     240.090E-03
            1084     10.0346E-03     150.796E-03    -48.3099E+06     66.4709E+06     54.0566E+06     5.73105E+06    -222.406E-03     449.961E-03    -227.555E-03     283.235E-03    -238.078E-03     465.541E-03    -227.311E-03     244.552E-03
            1085     10.7634E-03     151.113E-03    -38.4681E+06     97.2756E+06     74.2640E+06     8.34520E+06    -221.230E-03     447.939E-03    -226.709E-03     277.934E-03    -237.284E-03     463.986E-03    -226.423E-03     239.302E-03
            1086     11.4879E-03     151.418E-03    -30.2603E+06     103.806E+06     97.7679E+06     6.46736E+06    -221.179E-03     447.284E-03    -226.106E-03     261.831E-03    -236.525E-03     462.608E-03    -225.724E-03     224.112E-03
            1087     12.2144E-03     151.685E-03    -21.8161E+06     107.405E+06     115.526E+06     4.94716E+06    -222.868E-03     448.613E-03    -225.745E-03     233.522E-03    -236.205E-03     461.920E-03    -225.291E-03     197.875E-03
            1088     12.9317E-03     151.914E-03    -13.1182E+06     113.191E+06     123.747E+06     5.28067E+06    -225.627E-03     451.250E-03    -225.623E-03     212.062E-03    -237.602E-03     463.222E-03    -225.150E-03     177.094E-03
            1089     13.6556E-03     152.133E-03    -6.23459E+06     114.480E+06     121.797E+06     3.24655E+06    -230.448E-03     456.213E-03    -225.765E-03     143.034E-03    -238.050E-03     463.848E-03    -225.313E-03     114.868E-03
            1090     712.183E-06     149.653E-03    -143.535E+06    -301.742E+06    -143.264E+06    -2.98793E+06    -234.259E-03     468.040E-03    -233.781E-03     25.7714E-03    -234.419E-03     467.036E-03    -233.852E-03     22.9259E-03
            1091     1.42385E-03     149.701E-03    -140.979E+06    -290.419E+06    -134.582E+06    -5.04696E+06    -233.908E-03     467.761E-03    -233.854E-03     47.5953E-03    -234.271E-03     466.983E-03    -233.901E-03     42.3281E-03
            1092     2.13662E-03     149.775E-03    -136.929E+06    -277.367E+06    -122.205E+06    -7.64764E+06    -233.679E-03     467.306E-03    -233.627E-03     70.4953E-03    -234.377E-03     466.888E-03    -233.638E-03     62.6272E-03
            1093     2.84960E-03     149.880E-03    -130.960E+06    -260.601E+06    -107.500E+06    -10.2384E+06    -233.226E-03     466.512E-03    -233.286E-03     93.7643E-03    -234.399E-03     466.606E-03    -233.256E-03     83.2234E-03
            1094     3.56421E-03     150.014E-03    -124.048E+06    -240.626E+06    -90.5464E+06    -12.0285E+06    -232.428E-03     465.235E-03    -232.808E-03     116.926E-03    -234.237E-03     466.012E-03    -232.732E-03     103.627E-03
            1095     4.27972E-03     150.172E-03    -116.407E+06    -216.939E+06    -73.0678E+06    -13.4226E+06    -231.485E-03     463.668E-03    -232.183E-03     140.440E-03    -234.106E-03     465.317E-03    -232.065E-03     124.309E-03
            1096     4.99656E-03     150.358E-03    -108.626E+06    -193.182E+06    -57.2884E+06    -14.9925E+06    -230.541E-03     461.975E-03    -231.435E-03     164.082E-03    -234.165E-03     464.694E-03    -231.284E-03     145.028E-03
            1097     5.71599E-03     150.569E-03    -101.047E+06    -169.475E+06    -42.6875E+06    -16.0567E+06    -229.373E-03     459.956E-03    -230.583E-03     187.517E-03    -234.220E-03     463.965E-03    -230.404E-03     165.447E-03
            1098     6.43660E-03     150.804E-03    -93.0552E+06    -143.286E+06    -28.3032E+06    -16.4913E+06    -227.857E-03     457.482E-03    -229.625E-03     210.727E-03    -234.164E-03     463.031E-03    -229.424E-03     185.615E-03
            1099     7.15963E-03     151.060E-03    -84.7542E+06    -113.607E+06    -13.1193E+06    -15.8879E+06    -226.341E-03     454.918E-03    -228.577E-03     233.590E-03    -234.357E-03     462.266E-03    -228.355E-03     205.443E-03
            1100     7.88435E-03     151.340E-03    -76.8038E+06    -79.2817E+06     3.15575E+06    -13.8105E+06    -225.026E-03     452.500E-03    -227.474E-03     256.042E-03    -235.018E-03     461.927E-03    -227.232E-03     224.895E-03
            1101     8.61142E-03     151.639E-03    -67.8853E+06    -44.4662E+06     19.3189E+06    -10.5152E+06    -223.647E-03     449.996E-03    -226.349E-03     276.088E-03    -235.742E-03     461.635E-03    -226.090E-03     242.214E-03
            1102     9.33899E-03     151.955E-03    -57.4364E+06    -535.912E+03     36.6954E+06    -6.25689E+06    -222.521E-03     447.762E-03    -225.242E-03     290.907E-03    -236.595E-03     461.523E-03    -224.974E-03     254.847E-03
            1103     10.0702E-03     152.278E-03    -46.9565E+06     52.6277E+06     53.5986E+06     138.151E+03    -222.230E-03     446.464E-03    -224.234E-03     296.665E-03    -237.738E-03     461.837E-03    -223.975E-03     259.239E-03
            1104     10.7966E-03     152.601E-03    -37.5288E+06     92.3895E+06     70.2989E+06     5.89942E+06    -222.789E-03     446.258E-03    -223.469E-03     290.704E-03    -238.760E-03     462.220E-03    -223.197E-03     252.939E-03
            1105     11.5250E-03     152.902E-03    -29.1459E+06     109.368E+06     90.7957E+06     6.70081E+06    -224.828E-03     447.897E-03    -223.070E-03     274.041E-03    -240.211E-03     463.303E-03    -222.732E-03     236.648E-03
            1106     12.2447E-03     153.181E-03    -21.8293E+06     108.799E+06     110.494E+06     4.68143E+06    -228.616E-03     451.694E-03    -223.077E-03     244.903E-03    -242.109E-03     465.176E-03    -222.651E-03     208.922E-03
            1107     12.9640E-03     153.412E-03    -14.5343E+06     113.553E+06     125.268E+06     3.42698E+06    -233.619E-03     457.074E-03    -223.456E-03     219.164E-03    -245.820E-03     469.267E-03    -222.973E-03     182.992E-03
            1108     13.6745E-03     153.630E-03    -6.98021E+06     118.071E+06     126.306E+06     2.87937E+06    -240.975E-03     465.152E-03    -224.177E-03     145.790E-03    -248.727E-03     472.934E-03    -223.706E-03     116.174E-03
            1109     713.297E-06     151.164E-03    -141.503E+06    -290.193E+06    -139.412E+06    -3.20741E+06    -231.946E-03     463.075E-03    -231.129E-03     27.1799E-03    -232.116E-03     462.117E-03    -231.201E-03     24.4651E-03
            1110     1.42772E-03     151.209E-03    -138.431E+06    -279.621E+06    -131.971E+06    -5.78060E+06    -231.257E-03     462.569E-03    -231.312E-03     49.5914E-03    -231.619E-03     461.829E-03    -231.366E-03     44.6055E-03
            1111     2.14196E-03     151.284E-03    -134.076E+06    -266.111E+06    -119.136E+06    -8.12883E+06    -230.792E-03     461.764E-03    -230.973E-03     73.9297E-03    -231.482E-03     461.378E-03    -230.988E-03     66.4866E-03
            1112     2.85719E-03     151.387E-03    -128.225E+06    -249.488E+06    -103.712E+06    -10.6960E+06    -229.754E-03     460.204E-03    -230.450E-03     98.4732E-03    -230.910E-03     460.319E-03    -230.421E-03     88.5381E-03
            1113     3.57435E-03     151.515E-03    -121.132E+06    -230.979E+06    -87.2465E+06    -12.7883E+06    -228.452E-03     458.168E-03    -229.716E-03     122.943E-03    -230.218E-03     458.936E-03    -229.642E-03     110.469E-03
            1114     4.29369E-03     151.672E-03    -113.393E+06    -209.269E+06    -70.4992E+06    -14.3494E+06    -227.395E-03     456.227E-03    -228.832E-03     147.673E-03    -229.940E-03     457.830E-03    -228.717E-03     132.594E-03
            1115     5.01474E-03     151.854E-03    -105.454E+06    -186.540E+06    -53.8674E+06    -15.2429E+06    -226.108E-03     453.947E-03    -227.840E-03     172.558E-03    -229.624E-03     456.582E-03    -227.686E-03     154.793E-03
            1116     5.73706E-03     152.061E-03    -97.4554E+06    -162.781E+06    -38.0491E+06    -15.8538E+06    -224.464E-03     451.185E-03    -226.721E-03     197.534E-03    -229.164E-03     455.069E-03    -226.534E-03     177.031E-03
            1117     6.46265E-03     152.291E-03    -89.6929E+06    -137.570E+06    -23.1572E+06    -16.5543E+06    -223.010E-03     448.503E-03    -225.492E-03     222.516E-03    -229.128E-03     453.878E-03    -225.279E-03     199.201E-03
            1118     7.19010E-03     152.545E-03    -82.1413E+06    -110.593E+06    -8.91995E+06    -16.2349E+06    -222.000E-03     446.212E-03    -224.212E-03     247.173E-03    -229.803E-03     453.353E-03    -223.977E-03     220.955E-03
            1119     7.92005E-03     152.821E-03    -73.8066E+06    -79.8041E+06     6.18191E+06    -14.8094E+06    -221.345E-03     444.282E-03    -222.937E-03     270.835E-03    -231.086E-03     453.457E-03    -222.683E-03     241.698E-03
            1120     8.65084E-03     153.120E-03    -64.8542E+06    -47.1503E+06     22.5153E+06    -13.4534E+06    -221.197E-03     442.922E-03    -221.725E-03     291.426E-03    -233.028E-03     454.288E-03    -221.450E-03     259.465E-03
            1121     9.38441E-03     153.432E-03    -55.9939E+06    -7.18867E+06     39.3319E+06    -10.4810E+06    -222.163E-03     442.820E-03    -220.658E-03     306.495E-03    -236.021E-03     456.339E-03    -220.369E-03     271.986E-03
            1122     10.1132E-03     153.761E-03    -47.2334E+06     37.1624E+06     55.5566E+06    -3.71412E+06    -224.015E-03     443.855E-03    -219.840E-03     311.818E-03    -239.365E-03     459.008E-03    -219.548E-03     275.510E-03
            1123     10.8439E-03     154.082E-03    -38.8102E+06     84.5985E+06     71.7231E+06     2.89383E+06    -227.052E-03     446.431E-03    -219.379E-03     305.311E-03    -242.992E-03     462.327E-03    -219.086E-03     268.065E-03
            1124     11.5657E-03     154.395E-03    -30.9995E+06     112.060E+06     88.6146E+06     4.57520E+06    -231.896E-03     451.301E-03    -219.405E-03     287.791E-03    -247.413E-03     466.851E-03    -219.079E-03     250.150E-03
            1125     12.2856E-03     154.679E-03    -22.7000E+06     110.400E+06     107.835E+06     3.63164E+06    -238.347E-03     458.348E-03    -220.001E-03     256.226E-03    -252.080E-03     472.084E-03    -219.589E-03     219.207E-03
            1126     12.9942E-03     154.922E-03    -15.1060E+06     116.308E+06     126.741E+06     3.35728E+06    -246.746E-03     467.861E-03    -221.115E-03     230.603E-03    -259.410E-03     480.521E-03    -220.628E-03     192.269E-03
            1127     13.6919E-03     155.164E-03    -7.58347E+06     120.073E+06     129.714E+06     2.30656E+06    -255.232E-03     477.859E-03    -222.627E-03     156.353E-03    -263.404E-03     486.057E-03    -222.141E-03     124.518E-03
            1128     716.690E-06     152.665E-03    -135.550E+06    -277.431E+06    -134.403E+06    -3.55842E+06    -227.350E-03     454.300E-03    -226.950E-03     28.4595E-03    -227.512E-03     453.386E-03    -227.023E-03     25.9759E-03
            1129     1.43321E-03     152.708E-03    -132.726E+06    -268.206E+06    -125.849E+06     -6.2181E+06    -226.643E-03     453.493E-03    -226.850E-03     52.8538E-03    -226.993E-03     452.782E-03    -226.898E-03     48.2753E-03
            1130     2.15124E-03     152.781E-03    -127.710E+06    -254.849E+06    -112.694E+06    -8.49337E+06    -225.583E-03     451.902E-03    -226.320E-03     78.5484E-03    -226.243E-03     451.528E-03    -226.328E-03     71.7490E-03
            1131     2.87125E-03     152.880E-03    -121.453E+06    -239.128E+06    -96.5624E+06    -10.4355E+06    -224.299E-03     449.857E-03    -225.558E-03     104.392E-03    -225.399E-03     449.953E-03    -225.518E-03     95.3565E-03
            1132     3.59274E-03     153.006E-03    -114.443E+06    -221.046E+06    -79.8323E+06    -12.5666E+06    -223.012E-03     447.630E-03    -224.618E-03     130.487E-03    -224.694E-03     448.349E-03    -224.531E-03     119.158E-03
            1133     4.31589E-03     153.158E-03    -106.994E+06    -200.915E+06    -64.0034E+06    -14.1457E+06    -221.466E-03     444.984E-03    -223.518E-03     157.105E-03    -223.892E-03     446.498E-03    -223.392E-03     143.439E-03
            1134     5.04114E-03     153.337E-03    -99.3084E+06    -179.768E+06    -47.9793E+06    -14.5954E+06    -219.665E-03     441.922E-03    -222.257E-03     183.946E-03    -223.016E-03     444.417E-03    -222.092E-03     167.901E-03
            1135     5.77042E-03     153.538E-03    -91.6969E+06    -156.249E+06    -32.1199E+06    -14.9191E+06    -218.134E-03     438.999E-03    -220.864E-03     211.158E-03    -222.627E-03     442.699E-03    -220.665E-03     192.635E-03
            1136     6.50169E-03     153.766E-03    -84.1804E+06    -132.187E+06    -17.2720E+06    -14.9134E+06    -217.320E-03     436.736E-03    -219.416E-03     237.986E-03    -223.189E-03     441.883E-03    -219.189E-03     216.838E-03
            1137     7.23540E-03     154.016E-03    -76.5770E+06    -105.424E+06    -2.35868E+06    -14.4725E+06    -217.302E-03     435.304E-03    -218.001E-03     263.963E-03    -224.820E-03     442.178E-03    -217.749E-03     240.005E-03
            1138     7.96967E-03     154.292E-03    -69.5126E+06    -76.7493E+06     12.5147E+06    -14.2657E+06    -218.194E-03     434.891E-03    -216.697E-03     288.236E-03    -227.631E-03     443.770E-03    -216.423E-03     261.288E-03
            1139     8.70596E-03     154.587E-03    -62.7538E+06    -45.4121E+06     27.7362E+06    -13.1226E+06    -220.398E-03     435.993E-03    -215.595E-03     309.002E-03    -231.953E-03     447.083E-03    -215.300E-03     278.938E-03
            1140     9.43816E-03     154.908E-03    -56.5336E+06    -10.9347E+06     42.9343E+06    -10.2807E+06    -223.872E-03     438.667E-03    -214.794E-03     324.060E-03    -237.526E-03     451.956E-03    -214.482E-03     291.000E-03
            1141     10.1717E-03     155.237E-03    -49.9775E+06     26.0898E+06     57.8031E+06    -5.55919E+06    -228.638E-03     443.034E-03    -214.396E-03     328.784E-03    -243.896E-03     458.042E-03    -214.073E-03     293.252E-03
            1142     10.8962E-03     155.571E-03    -41.9424E+06     77.7312E+06     75.3046E+06    -431.573E+03    -234.979E-03     449.486E-03    -214.508E-03     321.179E-03    -250.987E-03     465.407E-03    -214.183E-03     283.857E-03
            1143     11.6177E-03     155.891E-03    -32.9432E+06     113.183E+06     93.8626E+06     1.78974E+06    -243.020E-03     458.270E-03    -215.250E-03     301.830E-03    -258.737E-03     474.005E-03    -214.897E-03     263.274E-03
            1144     12.3257E-03     156.192E-03    -23.8956E+06     109.860E+06     108.156E+06     698.173E+03    -252.753E-03     469.424E-03    -216.671E-03     268.975E-03    -266.840E-03     483.510E-03    -216.255E-03     230.034E-03
            1145     13.0255E-03     156.452E-03    -14.1635E+06     114.419E+06     125.237E+06     968.489E+03    -262.413E-03     481.096E-03    -218.683E-03     240.842E-03    -275.519E-03     494.201E-03    -218.202E-03     199.803E-03
            1146     13.7227E-03     156.709E-03    -5.99787E+06     122.405E+06     133.702E+06     2.17634E+06    -272.855E-03     493.991E-03    -221.137E-03     161.543E-03    -281.234E-03     502.402E-03    -220.637E-03     127.564E-03
            1147     721.394E-06     154.148E-03    -127.909E+06    -264.419E+06    -125.708E+06    -3.65252E+06    -219.670E-03     440.470E-03    -220.800E-03     30.4744E-03    -219.821E-03     439.591E-03    -220.859E-03     28.3080E-03
            1148     1.44361E-03     154.193E-03    -124.989E+06    -256.340E+06    -117.890E+06    -6.06808E+06    -219.330E-03     439.151E-03    -219.821E-03     56.6758E-03    -219.653E-03     438.456E-03    -219.857E-03     52.6688E-03
            1149     2.16702E-03     154.260E-03    -120.620E+06    -243.800E+06    -105.220E+06    -8.53648E+06    -218.155E-03     437.272E-03    -219.117E-03     84.0209E-03    -218.767E-03     436.889E-03    -219.115E-03     78.0886E-03
            1150     2.89195E-03     154.357E-03    -114.706E+06    -229.804E+06    -90.1666E+06    -10.5339E+06    -216.734E-03     434.933E-03    -218.199E-03     111.717E-03    -217.751E-03     434.982E-03    -218.151E-03     103.838E-03
            1151     3.61900E-03     154.477E-03    -107.934E+06    -212.018E+06    -73.8367E+06    -11.8697E+06    -214.968E-03     432.034E-03    -217.066E-03     140.114E-03    -216.530E-03     432.667E-03    -216.972E-03     130.262E-03
            1152     4.34869E-03     154.627E-03    -100.867E+06    -192.566E+06    -57.4222E+06    -12.9833E+06    -212.994E-03     428.710E-03    -215.716E-03     169.393E-03    -215.255E-03     430.088E-03    -215.578E-03     157.532E-03
            1153     5.08258E-03     154.798E-03    -93.2563E+06    -172.857E+06    -41.7153E+06    -13.7300E+06    -211.505E-03     425.714E-03    -214.209E-03     198.652E-03    -214.640E-03     428.017E-03    -214.032E-03     184.678E-03
            1154     5.81800E-03     154.998E-03    -85.3901E+06    -150.604E+06    -26.2378E+06    -13.6218E+06    -210.954E-03     423.611E-03    -212.657E-03     227.486E-03    -215.167E-03     427.055E-03    -212.446E-03     211.240E-03
            1155     6.55608E-03     155.221E-03    -77.6851E+06    -127.768E+06    -11.0159E+06    -13.1522E+06    -211.430E-03     422.597E-03    -211.166E-03     255.799E-03    -216.973E-03     427.436E-03    -210.924E-03     237.041E-03
            1156     7.29477E-03     155.473E-03    -70.5253E+06    -101.841E+06     3.98100E+06    -11.8553E+06    -213.186E-03     423.010E-03    -209.823E-03     282.744E-03    -220.343E-03     429.538E-03    -209.554E-03     261.177E-03
            1157     8.03508E-03     155.747E-03    -64.6225E+06    -73.2844E+06     19.3766E+06    -8.95781E+06    -216.625E-03     425.360E-03    -208.735E-03     307.609E-03    -225.713E-03     433.900E-03    -208.438E-03     282.874E-03
            1158     8.77160E-03     156.052E-03    -60.7873E+06    -41.4016E+06     34.6560E+06    -6.34564E+06    -221.826E-03     429.833E-03    -208.007E-03     328.859E-03    -233.117E-03     440.660E-03    -207.686E-03     300.591E-03
            1159     9.50839E-03     156.374E-03    -57.1112E+06    -9.11942E+06     49.7725E+06    -4.83946E+06    -228.714E-03     436.465E-03    -207.750E-03     343.132E-03    -242.210E-03     449.583E-03    -207.405E-03     311.204E-03
            1160     10.2362E-03     156.718E-03    -51.3150E+06     26.0401E+06     64.5239E+06    -4.94946E+06    -237.248E-03     445.315E-03    -208.067E-03     346.527E-03    -252.509E-03     460.304E-03    -207.708E-03     311.162E-03
            1161     10.9596E-03     157.062E-03    -42.1407E+06     74.5988E+06     81.6390E+06    -4.41146E+06    -247.269E-03     456.321E-03    -209.051E-03     337.094E-03    -263.439E-03     472.376E-03    -208.690E-03     298.889E-03
            1162     11.6690E-03     157.402E-03    -31.9371E+06     109.539E+06     98.2943E+06    -1.73154E+06    -258.743E-03     469.527E-03    -210.784E-03     315.869E-03    -274.772E-03     485.556E-03    -210.405E-03     275.400E-03
            1163     12.3707E-03     157.723E-03    -23.4332E+06     111.243E+06     110.323E+06    -482.202E+03    -270.619E-03     483.879E-03    -213.260E-03     280.765E-03    -285.133E-03     498.394E-03    -212.835E-03     239.137E-03
            1164     13.0583E-03     158.005E-03    -17.0721E+06     114.079E+06     123.056E+06    -1.68037E+06    -282.960E-03     499.330E-03    -216.370E-03     249.743E-03    -296.531E-03     512.898E-03    -215.895E-03     205.135E-03
            1165     13.7290E-03     158.277E-03    -9.62647E+06     120.196E+06     128.943E+06    -1.50691E+06    -293.244E-03     513.146E-03    -219.903E-03     167.816E-03    -301.925E-03     521.852E-03    -219.418E-03     130.820E-03
            1166     728.136E-06     155.609E-03    -120.997E+06    -251.923E+06    -120.497E+06    -3.16078E+06    -210.221E-03     420.637E-03    -210.416E-03     33.3174E-03    -210.359E-03     419.791E-03    -210.478E-03     31.5096E-03
            1167     1.45777E-03     155.648E-03    -119.267E+06    -244.830E+06    -111.947E+06    -5.87824E+06    -209.206E-03     419.039E-03    -209.832E-03     60.8457E-03    -209.501E-03     418.354E-03    -209.864E-03     57.5471E-03
            1168     2.18860E-03     155.716E-03    -114.483E+06    -233.384E+06    -99.8382E+06    -8.43273E+06    -207.873E-03     416.874E-03    -209.001E-03     90.5117E-03    -208.421E-03     416.464E-03    -208.995E-03     85.6291E-03
            1169     2.92125E-03     155.807E-03    -108.693E+06    -220.276E+06    -84.8062E+06    -10.3662E+06    -206.038E-03     413.949E-03    -207.911E-03     121.165E-03    -206.954E-03     413.930E-03    -207.858E-03     114.671E-03
            1170     3.65675E-03     155.925E-03    -102.087E+06    -204.035E+06    -68.8052E+06    -11.5542E+06    -204.115E-03     410.679E-03    -206.564E-03     152.354E-03    -205.521E-03     411.185E-03    -206.464E-03     144.231E-03
            1171     4.39627E-03     156.066E-03    -94.5115E+06    -185.383E+06    -51.9959E+06    -12.2721E+06    -202.737E-03     407.791E-03    -205.054E-03     183.448E-03    -204.773E-03     408.973E-03    -204.908E-03     173.626E-03
            1172     5.13716E-03     156.236E-03    -87.2382E+06    -166.833E+06    -36.1954E+06    -12.4146E+06    -202.377E-03     405.878E-03    -203.501E-03     214.656E-03    -205.216E-03     407.909E-03    -203.314E-03     202.970E-03
            1173     5.88083E-03     156.432E-03    -80.7850E+06    -147.147E+06    -21.5686E+06    -11.1821E+06    -203.433E-03     405.458E-03    -202.025E-03     245.621E-03    -207.300E-03     408.569E-03    -201.802E-03     231.810E-03
            1174     6.62499E-03     156.657E-03    -76.1093E+06    -124.297E+06    -7.29027E+06    -8.94727E+06    -206.108E-03     406.849E-03    -200.741E-03     275.444E-03    -211.274E-03     411.318E-03    -200.487E-03     259.170E-03
            1175     7.37033E-03     156.909E-03    -73.3074E+06    -99.7906E+06     6.51201E+06    -6.56030E+06    -210.744E-03     410.506E-03    -199.762E-03     303.368E-03    -217.534E-03     416.659E-03    -199.479E-03     284.151E-03
            1176     8.11201E-03     157.193E-03    -70.4053E+06    -73.2850E+06     20.7423E+06    -3.98486E+06    -217.504E-03     416.705E-03    -199.202E-03     328.448E-03    -226.270E-03     424.901E-03    -198.890E-03     305.704E-03
            1177     8.85322E-03     157.503E-03    -65.2925E+06    -38.6369E+06     37.3829E+06    -1.44112E+06    -226.500E-03     425.668E-03    -199.168E-03     348.969E-03    -237.543E-03     436.237E-03    -198.831E-03     322.111E-03
            1178     9.58474E-03     157.843E-03    -57.7663E+06    -2.81744E+06     54.7725E+06    -1.43401E+06    -237.709E-03     437.492E-03    -199.783E-03     361.870E-03    -251.099E-03     450.514E-03    -199.421E-03     330.417E-03
            1179     10.3108E-03     158.200E-03    -49.0813E+06     35.9902E+06     71.4283E+06    -3.82939E+06    -250.346E-03     451.484E-03    -201.139E-03     363.434E-03    -265.686E-03     466.581E-03    -200.762E-03     327.431E-03
            1180     11.0229E-03     158.568E-03    -40.8661E+06     77.6829E+06     86.3157E+06    -5.88705E+06    -264.288E-03     467.584E-03    -203.296E-03     352.097E-03    -280.742E-03     483.931E-03    -202.918E-03     312.006E-03
            1181     11.7253E-03     158.930E-03    -32.9101E+06     103.739E+06     97.6844E+06    -4.84898E+06    -278.680E-03     484.958E-03    -206.278E-03     328.034E-03    -295.119E-03     501.379E-03    -205.892E-03     284.619E-03
            1182     12.4101E-03     159.277E-03    -24.6990E+06     110.311E+06     109.307E+06    -3.69389E+06    -292.250E-03     502.274E-03    -210.024E-03     289.716E-03    -307.183E-03     517.208E-03    -209.602E-03     244.501E-03
            1183     13.0841E-03     159.581E-03    -14.7245E+06     115.194E+06     120.646E+06    -3.55391E+06    -304.455E-03     518.783E-03    -214.328E-03     258.354E-03    -318.456E-03     532.801E-03    -213.870E-03     209.833E-03
            1184     13.7490E-03     159.897E-03    -6.11072E+06     116.050E+06     123.067E+06    -3.34626E+06    -312.195E-03     531.085E-03    -218.890E-03     174.510E-03    -321.138E-03     540.067E-03    -218.434E-03     134.621E-03
            1185     738.456E-06     157.035E-03    -117.082E+06    -239.881E+06    -115.974E+06    -3.41397E+06    -197.031E-03     393.624E-03    -196.593E-03     36.1831E-03    -197.168E-03     392.809E-03    -196.655E-03     34.7993E-03
            1186     1.47712E-03     157.074E-03    -114.677E+06    -233.191E+06    -108.258E+06    -6.34464E+06    -196.034E-03     392.390E-03    -196.356E-03     66.6666E-03    -196.299E-03     391.715E-03    -196.393E-03     64.1309E-03
            1187     2.21770E-03     157.137E-03    -110.605E+06    -223.399E+06    -96.6705E+06    -8.49832E+06    -194.230E-03     389.741E-03    -195.511E-03     98.8088E-03    -194.711E-03     389.297E-03    -195.510E-03     95.0642E-03
            1188     2.96139E-03     157.224E-03    -105.510E+06    -211.493E+06    -82.3202E+06    -9.83829E+06    -192.386E-03     386.685E-03    -194.300E-03     131.817E-03    -193.179E-03     386.572E-03    -194.252E-03     126.846E-03
            1189     3.70825E-03     157.336E-03    -99.9256E+06    -196.850E+06    -67.2137E+06    -10.9282E+06    -191.389E-03     384.301E-03    -192.912E-03     165.444E-03    -192.607E-03     384.643E-03    -192.818E-03     159.168E-03
            1190     4.45573E-03     157.477E-03    -95.1492E+06    -180.483E+06    -52.8337E+06    -10.4567E+06    -191.518E-03     383.033E-03    -191.515E-03     198.944E-03    -193.300E-03     383.974E-03    -191.380E-03     191.238E-03
            1191     5.20646E-03     157.643E-03    -91.8499E+06    -163.627E+06    -38.3986E+06    -8.51667E+06    -193.044E-03     383.268E-03    -190.224E-03     232.389E-03    -195.576E-03     384.991E-03    -190.046E-03     223.030E-03
            1192     5.95787E-03     157.842E-03    -89.6921E+06    -145.362E+06    -24.3368E+06    -6.26550E+06    -196.551E-03     385.697E-03    -189.146E-03     264.878E-03    -200.067E-03     388.440E-03    -188.927E-03     253.498E-03
            1193     6.70940E-03     158.070E-03    -86.8861E+06    -122.831E+06    -9.91750E+06    -3.76946E+06    -202.489E-03     390.906E-03    -188.417E-03     295.477E-03    -207.279E-03     394.975E-03    -188.162E-03     281.563E-03
            1194     7.45724E-03     158.331E-03    -82.0332E+06    -98.1620E+06     5.27547E+06    -1.65939E+06    -210.961E-03     399.128E-03    -188.168E-03     323.611E-03    -217.375E-03     404.886E-03    -187.880E-03     306.477E-03
            1195     8.20302E-03     158.625E-03    -74.7246E+06    -70.7702E+06     21.1060E+06    -1.00645E+06    -221.968E-03     410.476E-03    -188.508E-03     348.015E-03    -230.391E-03     418.325E-03    -188.191E-03     326.831E-03
            1196     8.93885E-03     158.952E-03    -65.5193E+06    -35.6681E+06     37.9667E+06    -1.32975E+06    -235.516E-03     425.051E-03    -189.536E-03     367.566E-03    -246.319E-03     435.394E-03    -189.199E-03     341.443E-03
            1197     9.66930E-03     159.311E-03    -55.7844E+06     3.42766E+06     55.4505E+06    -1.58577E+06    -250.992E-03     442.342E-03    -191.350E-03     378.979E-03    -264.310E-03     455.326E-03    -190.997E-03     347.247E-03
            1198     10.3846E-03     159.694E-03    -47.8902E+06     47.1310E+06     72.5517E+06    -2.66505E+06    -267.928E-03     461.957E-03    -194.029E-03     378.563E-03    -283.431E-03     477.263E-03    -193.665E-03     341.000E-03
            1199     11.0889E-03     160.089E-03    -41.0181E+06     87.2020E+06     86.8094E+06    -5.09019E+06    -285.359E-03     482.962E-03    -197.603E-03     365.226E-03    -302.187E-03     499.721E-03    -197.236E-03     322.302E-03
            1200     11.7734E-03     160.484E-03    -31.7579E+06     104.328E+06     95.7461E+06    -8.38481E+06    -301.701E-03     503.715E-03    -202.015E-03     338.939E-03    -318.595E-03     520.608E-03    -201.641E-03     291.748E-03
            1201     12.4471E-03     160.857E-03    -20.4295E+06     107.130E+06     105.999E+06    -9.51590E+06    -315.511E-03     522.625E-03    -207.114E-03     300.165E-03    -331.000E-03     538.129E-03    -206.709E-03     250.507E-03
            1202     13.1035E-03     161.197E-03    -11.4303E+06     110.155E+06     115.196E+06    -7.81862E+06    -324.724E-03     537.309E-03    -212.586E-03     266.442E-03    -339.208E-03     551.820E-03    -212.153E-03     213.751E-03
            1203     13.7546E-03     161.512E-03    -4.70855E+06     107.822E+06     118.412E+06    -3.87069E+06    -328.887E-03     546.976E-03    -218.089E-03     179.539E-03    -338.040E-03     556.158E-03    -217.646E-03     136.926E-03
            1204     751.567E-06     158.420E-03    -119.811E+06    -227.153E+06    -118.599E+06    -4.09359E+06    -179.910E-03     359.690E-03    -179.779E-03     39.2030E-03    -180.067E-03     358.930E-03    -179.869E-03     38.2231E-03
            1205     1.50301E-03     158.456E-03    -117.799E+06    -221.601E+06    -112.090E+06    -6.58872E+06    -178.738E-03     358.033E-03    -179.295E-03     72.2139E-03    -178.994E-03     357.378E-03    -179.363E-03     70.4632E-03
            1206     2.25661E-03     158.516E-03    -115.054E+06    -215.221E+06    -101.939E+06    -7.85827E+06    -177.616E-03     356.034E-03    -178.418E-03     107.435E-03    -178.041E-03     355.553E-03    -178.448E-03     104.849E-03
            1207     3.01241E-03     158.598E-03    -112.128E+06    -205.178E+06    -89.7427E+06    -7.95741E+06    -177.101E-03     354.494E-03    -177.394E-03     143.348E-03    -177.779E-03     354.281E-03    -177.382E-03     139.879E-03
            1208     3.76955E-03     158.710E-03    -110.303E+06    -192.314E+06    -76.4529E+06    -6.98361E+06    -177.739E-03     354.099E-03    -176.359E-03     179.450E-03    -178.781E-03     354.266E-03    -176.303E-03     174.991E-03
            1209     4.52982E-03     158.849E-03    -108.935E+06    -178.663E+06    -61.5123E+06    -4.85940E+06    -180.079E-03     355.536E-03    -175.457E-03     214.968E-03    -181.623E-03     356.219E-03    -175.347E-03     209.317E-03
            1210     5.28902E-03     159.019E-03    -106.274E+06    -162.719E+06    -45.5812E+06    -2.72456E+06    -184.773E-03     359.595E-03    -174.822E-03     249.831E-03    -187.002E-03     360.988E-03    -174.660E-03     242.636E-03
            1211     6.04736E-03     159.223E-03    -101.114E+06    -143.486E+06    -28.8844E+06    -1.39874E+06    -191.967E-03     366.547E-03    -174.580E-03     283.004E-03    -195.115E-03     368.904E-03    -174.369E-03     273.777E-03
            1212     6.80246E-03     159.461E-03    -93.4184E+06    -120.667E+06    -12.2682E+06    -989.355E+03    -201.928E-03     376.767E-03    -174.840E-03     313.821E-03    -206.314E-03     380.428E-03    -174.591E-03     301.869E-03
            1213     7.55382E-03     159.736E-03    -84.0544E+06    -95.4926E+06     3.42536E+06    -1.42025E+06    -214.831E-03     390.547E-03    -175.716E-03     341.415E-03    -220.835E-03     395.909E-03    -175.439E-03     325.869E-03
            1214     8.29558E-03     160.048E-03    -74.0216E+06    -65.3342E+06     19.0894E+06    -2.84232E+06    -230.556E-03     407.873E-03    -177.318E-03     364.967E-03    -238.628E-03     415.407E-03    -177.020E-03     344.756E-03
            1215     9.03083E-03     160.400E-03    -64.3657E+06    -32.0014E+06     35.0366E+06    -3.57622E+06    -248.588E-03     428.319E-03    -179.731E-03     383.155E-03    -259.157E-03     438.460E-03    -179.416E-03     357.152E-03
            1216     9.75023E-03     160.786E-03    -56.2918E+06     7.40845E+06     51.6037E+06    -2.88971E+06    -268.315E-03     451.334E-03    -183.018E-03     392.930E-03    -281.578E-03     464.293E-03    -182.689E-03     360.204E-03
            1217     10.4585E-03     161.201E-03    -47.2016E+06     57.6163E+06     70.0651E+06    -4.44956E+06    -288.993E-03     476.216E-03    -187.224E-03     391.431E-03    -304.673E-03     491.753E-03    -186.888E-03     351.539E-03
            1218     11.1457E-03     161.633E-03    -34.8441E+06     96.9782E+06     86.1765E+06    -8.18300E+06    -308.420E-03     500.745E-03    -192.325E-03     376.477E-03    -325.580E-03     517.899E-03    -191.984E-03     330.079E-03
            1219     11.8211E-03     162.060E-03    -24.3694E+06     108.589E+06     95.3372E+06    -10.0046E+06    -325.115E-03     523.293E-03    -198.178E-03     349.890E-03    -342.463E-03     540.684E-03    -197.823E-03     298.579E-03
            1220     12.4761E-03     162.472E-03    -18.7722E+06     107.540E+06     104.218E+06    -9.85147E+06    -336.835E-03     541.372E-03    -204.537E-03     310.380E-03    -352.789E-03     557.354E-03    -204.145E-03     256.739E-03
            1221     13.1254E-03     162.830E-03    -13.3510E+06     104.874E+06     113.129E+06     -9.3578E+06    -343.262E-03     554.314E-03    -211.052E-03     275.409E-03    -358.151E-03     569.211E-03    -210.619E-03     219.139E-03
            1222     13.7650E-03     163.174E-03    -7.39658E+06     95.9911E+06     114.843E+06    -6.48033E+06    -344.959E-03     562.350E-03    -217.391E-03     187.843E-03    -354.381E-03     571.760E-03    -216.946E-03     142.732E-03
            1223     764.817E-06     159.751E-03    -127.489E+06    -215.269E+06    -126.884E+06    -3.56637E+06    -159.623E-03     318.828E-03    -159.205E-03     42.3727E-03    -159.815E-03     318.129E-03    -159.342E-03     41.7968E-03
            1224     1.53387E-03     159.787E-03    -128.052E+06    -213.979E+06    -123.085E+06    -4.30534E+06    -158.647E-03     317.557E-03    -158.910E-03     78.4304E-03    -158.908E-03     316.923E-03    -159.029E-03     77.4126E-03
            1225     2.30321E-03     159.844E-03    -128.859E+06    -210.939E+06    -115.719E+06    -3.75432E+06    -159.218E-03     317.536E-03    -158.318E-03     116.134E-03    -159.605E-03     317.018E-03    -158.404E-03     114.619E-03
            1226     3.07288E-03     159.928E-03    -129.480E+06    -203.140E+06    -104.590E+06    -2.30051E+06    -161.116E-03     319.018E-03    -157.902E-03     154.434E-03    -161.705E-03     318.701E-03    -157.943E-03     152.328E-03
            1227     3.84338E-03     160.040E-03    -128.327E+06    -191.205E+06    -88.5649E+06    -249.458E+03    -164.545E-03     322.243E-03    -157.699E-03     192.242E-03    -165.429E-03     322.229E-03    -157.678E-03     189.379E-03
            1228     4.61189E-03     160.185E-03    -124.168E+06    -177.213E+06    -69.8317E+06     367.791E+03    -170.341E-03     328.126E-03    -157.785E-03     229.135E-03    -171.648E-03     328.551E-03    -157.697E-03     225.205E-03
            1229     5.37944E-03     160.362E-03    -116.846E+06    -160.303E+06    -51.2858E+06    -534.231E+03    -178.960E-03     337.239E-03    -158.279E-03     264.652E-03    -180.871E-03     338.308E-03    -158.134E-03     259.207E-03
            1230     6.14275E-03     160.579E-03    -107.259E+06    -139.386E+06    -33.9869E+06    -2.30399E+06    -190.491E-03     349.785E-03    -159.294E-03     298.020E-03    -193.268E-03     351.784E-03    -159.106E-03     290.446E-03
            1231     6.90053E-03     160.833E-03    -96.5817E+06    -116.427E+06    -18.1915E+06    -4.47992E+06    -205.030E-03     365.958E-03    -160.928E-03     328.626E-03    -209.010E-03     369.241E-03    -160.710E-03     318.117E-03
            1232     7.64943E-03     161.129E-03    -85.5660E+06    -91.3422E+06    -3.08849E+06    -6.49324E+06    -222.555E-03     385.835E-03    -163.280E-03     355.464E-03    -228.159E-03     390.832E-03    -163.039E-03     340.988E-03
            1233     8.39000E-03     161.467E-03    -75.1435E+06    -60.1135E+06     12.6424E+06    -7.57916E+06    -242.794E-03     409.229E-03    -166.434E-03     377.803E-03    -250.514E-03     416.449E-03    -166.175E-03     358.094E-03
            1234     9.11463E-03     161.849E-03    -65.4946E+06    -29.2571E+06     28.3450E+06    -8.22971E+06    -265.078E-03     435.536E-03    -170.458E-03     394.301E-03    -275.366E-03     445.428E-03    -170.179E-03     367.971E-03
            1235     9.82811E-03     162.269E-03    -52.9060E+06     11.2363E+06     47.2472E+06    -9.66063E+06    -288.580E-03     463.963E-03    -175.383E-03     402.892E-03    -301.684E-03     476.808E-03    -175.087E-03     368.688E-03
            1236     10.5205E-03     162.725E-03    -38.4002E+06     64.2743E+06     67.3175E+06    -10.4500E+06    -311.205E-03     492.382E-03    -181.177E-03     400.574E-03    -326.840E-03     507.941E-03    -180.878E-03     358.182E-03
            1237     11.1994E-03     163.196E-03    -28.5741E+06     102.392E+06     83.8776E+06    -10.6665E+06    -330.936E-03     518.691E-03    -187.755E-03     385.302E-03    -348.228E-03     536.028E-03    -187.443E-03     335.568E-03
            1238     11.8567E-03     163.663E-03    -22.7185E+06     107.717E+06     94.9883E+06    -10.2401E+06    -346.385E-03     541.314E-03    -194.928E-03     358.514E-03    -364.060E-03     559.036E-03    -194.577E-03     303.312E-03
            1239     12.5061E-03     164.108E-03    -14.4692E+06     105.977E+06     108.512E+06    -7.86977E+06    -355.473E-03     557.874E-03    -202.401E-03     316.215E-03    -371.649E-03     574.076E-03    -201.991E-03     259.118E-03
            1240     13.1411E-03     164.489E-03    -5.53165E+06     102.653E+06     119.130E+06    -5.50364E+06    -358.927E-03     568.741E-03    -209.814E-03     277.820E-03    -373.986E-03     583.809E-03    -209.359E-03     218.274E-03
            1241     13.7750E-03     164.848E-03    -1.05088E+06     87.2229E+06     116.422E+06    -1.93951E+06    -357.775E-03     574.629E-03    -216.854E-03     188.294E-03    -367.326E-03     584.154E-03    -216.397E-03     140.748E-03
            1242     786.904E-06     161.028E-03    -149.782E+06    -212.569E+06    -147.007E+06     2.20924E+06    -136.173E-03     272.156E-03    -135.984E-03     45.5647E-03    -136.438E-03     271.514E-03    -136.193E-03     45.3870E-03
            1243     1.57057E-03     161.060E-03    -154.606E+06    -213.575E+06    -144.872E+06     3.44507E+06    -138.065E-03     274.151E-03    -136.087E-03     84.0409E-03    -138.384E-03     273.544E-03    -136.277E-03     83.6642E-03
            1244     2.35539E-03     161.121E-03    -156.672E+06    -209.988E+06    -136.872E+06     3.56185E+06    -141.093E-03     277.651E-03    -136.559E-03     124.004E-03    -141.500E-03     277.122E-03    -136.712E-03     123.346E-03
            1245     3.13884E-03     161.209E-03    -154.619E+06    -202.363E+06    -121.630E+06     2.84618E+06    -146.092E-03     283.387E-03    -137.295E-03     163.458E-03    -146.635E-03     282.992E-03    -137.386E-03     162.379E-03
            1246     3.91953E-03     161.329E-03    -147.317E+06    -189.006E+06    -101.076E+06     857.884E+03    -153.380E-03     291.766E-03    -138.385E-03     202.230E-03    -154.136E-03     291.605E-03    -138.403E-03     200.497E-03
            1247     4.69805E-03     161.483E-03    -136.109E+06    -172.508E+06    -80.2491E+06    -2.39213E+06    -163.402E-03     303.295E-03    -139.893E-03     239.974E-03    -164.495E-03     303.517E-03    -139.846E-03     237.231E-03
            1248     5.47037E-03     161.678E-03    -123.413E+06    -155.100E+06    -61.4241E+06    -5.71547E+06    -176.321E-03     318.222E-03    -141.902E-03     275.618E-03    -177.940E-03     319.031E-03    -141.805E-03     271.381E-03
            1249     6.23645E-03     161.910E-03    -110.543E+06    -132.869E+06    -43.8224E+06    -8.92314E+06    -192.354E-03     336.855E-03    -144.501E-03     308.708E-03    -194.780E-03     338.552E-03    -144.368E-03     302.301E-03
            1250     6.99339E-03     162.190E-03    -97.8201E+06    -110.125E+06    -27.0606E+06    -12.3065E+06    -211.544E-03     359.337E-03    -147.792E-03     338.340E-03    -215.128E-03     362.274E-03    -147.626E-03     328.848E-03
            1251     7.74031E-03     162.512E-03    -85.1374E+06    -86.7650E+06    -10.6927E+06    -14.7428E+06    -233.565E-03     385.421E-03    -151.855E-03     363.803E-03    -238.742E-03     390.038E-03    -151.659E-03     350.037E-03
            1252     8.47196E-03     162.884E-03    -71.7622E+06    -57.1547E+06     6.58952E+06    -15.8551E+06    -257.868E-03     414.609E-03    -156.741E-03     384.187E-03    -265.110E-03     421.399E-03    -156.521E-03     364.743E-03
            1253     9.19167E-03     163.301E-03    -55.8881E+06    -25.6248E+06     25.2483E+06    -17.3893E+06    -283.654E-03     446.139E-03    -162.486E-03     398.611E-03    -293.405E-03     455.556E-03    -162.241E-03     371.898E-03
            1254     9.88992E-03     163.764E-03    -40.8480E+06     11.6130E+06     44.8423E+06    -17.2502E+06    -309.255E-03     478.321E-03    -169.066E-03     406.029E-03    -321.803E-03     490.664E-03    -168.799E-03     370.709E-03
            1255     10.5741E-03     164.262E-03    -32.5106E+06     60.8039E+06     62.5963E+06    -12.3754E+06    -332.132E-03     508.502E-03    -176.371E-03     402.724E-03    -347.272E-03     523.590E-03    -176.099E-03     358.535E-03
            1256     11.2374E-03     164.776E-03    -27.9995E+06     104.955E+06     82.4424E+06    -7.84016E+06    -350.620E-03     534.898E-03    -184.278E-03     387.461E-03    -367.648E-03     551.986E-03    -183.978E-03     335.127E-03
            1257     11.8894E-03     165.287E-03    -22.5395E+06     111.074E+06     98.2094E+06    -7.72098E+06    -363.798E-03     556.377E-03    -192.579E-03     360.101E-03    -381.474E-03     574.105E-03    -192.217E-03     301.510E-03
            1258     12.5230E-03     165.761E-03    -18.4935E+06     103.328E+06     111.935E+06    -9.46703E+06    -369.969E-03     570.940E-03    -200.972E-03     316.423E-03    -386.351E-03     587.314E-03    -200.535E-03     255.764E-03
            1259     13.1519E-03     166.170E-03    -15.9989E+06     96.9001E+06     121.718E+06    -8.94864E+06    -370.413E-03     579.509E-03    -209.096E-03     278.074E-03    -385.722E-03     594.761E-03    -208.605E-03     215.471E-03
            1260     13.7728E-03     166.539E-03    -10.4246E+06     76.2875E+06     117.818E+06    -5.91548E+06    -365.353E-03     581.970E-03    -216.617E-03     190.338E-03    -375.125E-03     591.637E-03    -216.123E-03     140.488E-03
            1261     804.300E-06     162.240E-03    -203.827E+06    -223.374E+06    -199.512E+06     6.42963E+06    -114.106E-03     226.815E-03    -112.710E-03     46.7055E-03    -114.531E-03     226.268E-03    -113.088E-03     46.7612E-03
            1262     1.60846E-03     162.281E-03    -197.445E+06    -215.953E+06    -184.011E+06     6.59931E+06    -118.258E-03     232.184E-03    -113.926E-03     86.0474E-03    -118.694E-03     231.653E-03    -114.246E-03     86.0397E-03
            1263     2.40763E-03     162.347E-03    -187.730E+06    -208.347E+06    -163.708E+06     3.33636E+06    -124.681E-03     240.296E-03    -115.614E-03     127.626E-03    -125.136E-03     239.795E-03    -115.859E-03     127.428E-03
            1264     3.20334E-03     162.447E-03    -174.746E+06    -197.485E+06    -139.945E+06    -1.11394E+06    -133.396E-03     251.151E-03    -117.755E-03     168.330E-03    -133.909E-03     250.733E-03    -117.915E-03     167.792E-03
            1265     3.99434E-03     162.579E-03    -160.144E+06    -180.085E+06    -116.885E+06    -7.51918E+06    -144.960E-03     265.321E-03    -120.361E-03     207.873E-03    -145.615E-03     265.100E-03    -120.452E-03     206.734E-03
            1266     4.77748E-03     162.752E-03    -144.622E+06    -164.051E+06    -95.8881E+06    -13.8757E+06    -159.331E-03     282.828E-03    -123.497E-03     245.611E-03    -160.250E-03     282.930E-03    -123.529E-03     243.529E-03
            1267     5.55382E-03     162.965E-03    -128.134E+06    -147.472E+06    -75.7985E+06    -19.2809E+06    -176.658E-03     303.866E-03    -127.208E-03     280.879E-03    -178.029E-03     304.486E-03    -127.187E-03     277.362E-03
            1268     6.31995E-03     163.225E-03    -111.007E+06    -127.886E+06    -55.0916E+06    -22.5878E+06    -197.223E-03     328.792E-03    -131.569E-03     312.992E-03    -199.318E-03     330.213E-03    -131.498E-03     307.328E-03
            1269     7.07469E-03     163.532E-03    -94.6750E+06    -104.495E+06    -34.1246E+06    -24.2491E+06    -220.779E-03     357.440E-03    -136.661E-03     340.704E-03    -223.944E-03     360.018E-03    -136.543E-03     331.923E-03
            1270     7.81425E-03     163.890E-03    -79.0540E+06    -81.9624E+06    -15.0695E+06    -26.9425E+06    -246.841E-03     389.382E-03    -142.541E-03     363.367E-03    -251.470E-03     393.509E-03    -142.383E-03     350.187E-03
            1271     8.54022E-03     164.299E-03    -62.7585E+06    -55.0173E+06     3.67469E+06    -29.7517E+06    -274.356E-03     423.585E-03    -149.228E-03     380.345E-03    -280.869E-03     429.698E-03    -149.039E-03     361.273E-03
            1272     9.24492E-03     164.759E-03    -49.4802E+06    -27.6974E+06     20.8713E+06    -29.8757E+06    -301.991E-03     458.684E-03    -156.693E-03     391.709E-03    -310.805E-03     467.194E-03    -156.477E-03     365.173E-03
            1273     9.93571E-03     165.265E-03    -42.9708E+06    -1.68216E+06     36.7398E+06    -23.9645E+06    -327.683E-03     492.533E-03    -164.850E-03     396.155E-03    -339.068E-03     503.683E-03    -164.602E-03     360.926E-03
            1274     10.6054E-03     165.809E-03    -38.6635E+06     43.9833E+06     55.9321E+06    -14.3864E+06    -348.987E-03     522.512E-03    -173.526E-03     391.038E-03    -362.837E-03     536.247E-03    -173.254E-03     346.765E-03
            1275     11.2614E-03     166.367E-03    -34.7243E+06     97.5826E+06     80.7619E+06    -6.48562E+06    -364.613E-03     547.146E-03    -182.533E-03     376.550E-03    -380.486E-03     563.032E-03    -182.221E-03     323.706E-03
            1276     11.8989E-03     166.916E-03    -33.4080E+06     122.299E+06     101.250E+06    -6.16450E+06    -373.610E-03     565.226E-03    -191.616E-03     352.834E-03    -390.549E-03     582.206E-03    -191.239E-03     293.316E-03
            1277     12.5298E-03     167.429E-03    -29.9228E+06     114.903E+06     117.664E+06    -12.4456E+06    -376.038E-03     576.535E-03    -200.497E-03     315.753E-03    -392.357E-03     592.828E-03    -200.032E-03     253.337E-03
            1278     13.1520E-03     167.855E-03    -19.1104E+06     89.7292E+06     129.253E+06    -15.8666E+06    -373.381E-03     582.257E-03    -208.876E-03     280.336E-03    -388.607E-03     597.365E-03    -208.333E-03     217.124E-03
            1279     13.7788E-03     168.243E-03    -6.03353E+06     56.2199E+06     127.925E+06    -12.7618E+06    -367.596E-03     584.112E-03    -216.515E-03     194.612E-03    -377.106E-03     593.433E-03    -215.949E-03     145.550E-03
            1280     820.683E-06     163.404E-03    -286.994E+06    -225.018E+06    -285.178E+06    -5.54241E+06    -97.3849E-03     191.995E-03    -94.6103E-03     44.7572E-03    -98.0868E-03     191.691E-03    -95.2937E-03     44.7016E-03
            1281     1.63754E-03     163.450E-03    -267.295E+06    -208.647E+06    -255.893E+06    -11.4110E+06    -102.286E-03     199.038E-03    -96.7525E-03     82.6403E-03    -102.955E-03     198.746E-03    -97.3418E-03     82.5011E-03
            1282     2.45069E-03     163.532E-03    -241.737E+06    -197.641E+06    -217.999E+06    -19.7319E+06    -111.020E-03     210.169E-03    -99.1495E-03     123.312E-03    -111.645E-03     209.857E-03    -99.6024E-03     122.992E-03
            1283     3.25671E-03     163.644E-03    -213.322E+06    -186.308E+06    -182.763E+06    -27.7901E+06    -123.191E-03     225.483E-03    -102.292E-03     164.185E-03    -123.791E-03     225.190E-03    -102.627E-03     163.561E-03
            1284     4.05415E-03     163.799E-03    -184.815E+06    -167.942E+06    -150.966E+06    -34.3331E+06    -138.551E-03     244.705E-03    -106.154E-03     204.043E-03    -139.201E-03     244.542E-03    -106.397E-03     202.928E-03
            1285     4.84282E-03     163.993E-03    -158.245E+06    -155.364E+06    -119.797E+06    -39.4455E+06    -157.084E-03     267.831E-03    -110.747E-03     241.563E-03    -157.902E-03     267.891E-03    -110.891E-03     239.640E-03
            1286     5.61955E-03     164.234E-03    -134.469E+06    -139.900E+06    -90.7584E+06    -43.0514E+06    -178.876E-03     294.943E-03    -116.067E-03     275.831E-03    -180.056E-03     295.427E-03    -116.123E-03     272.595E-03
            1287     6.38363E-03     164.523E-03    -114.210E+06    -127.043E+06    -66.4685E+06    -44.5022E+06    -203.719E-03     325.866E-03    -122.147E-03     305.566E-03    -205.502E-03     327.005E-03    -122.129E-03     300.313E-03
            1288     7.13216E-03     164.867E-03    -96.7372E+06    -104.356E+06    -43.8091E+06    -43.6976E+06    -231.173E-03     360.193E-03    -129.020E-03     329.703E-03    -233.866E-03     362.325E-03    -128.947E-03     321.476E-03
            1289     7.86506E-03     165.263E-03    -81.8620E+06    -76.1862E+06    -22.3393E+06    -46.3288E+06    -260.168E-03     396.873E-03    -136.705E-03     347.548E-03    -264.097E-03     400.334E-03    -136.588E-03     335.095E-03
            1290     8.57663E-03     165.714E-03    -72.0667E+06    -58.9567E+06    -5.47410E+06    -48.4645E+06    -289.318E-03     434.482E-03    -145.164E-03     359.415E-03    -294.808E-03     439.552E-03    -145.001E-03     341.343E-03
            1291     9.27338E-03     166.217E-03    -67.4467E+06    -40.4940E+06     10.8680E+06    -44.8114E+06    -317.004E-03     471.298E-03    -154.293E-03     365.393E-03    -324.385E-03     478.292E-03    -154.083E-03     340.311E-03
            1292     9.94743E-03     166.769E-03    -62.5706E+06    -25.8799E+06     27.9147E+06    -38.8241E+06    -340.633E-03     504.554E-03    -163.921E-03     364.864E-03    -350.059E-03     513.611E-03    -163.653E-03     331.746E-03
            1293     10.6075E-03     167.353E-03    -53.5628E+06     10.2817E+06     48.7436E+06    -31.4279E+06    -357.885E-03     531.635E-03    -173.750E-03     357.957E-03    -369.293E-03     542.770E-03    -173.444E-03     316.621E-03
            1294     11.2516E-03     167.951E-03    -38.6862E+06     58.6464E+06     73.5334E+06    -18.5465E+06    -367.508E-03     550.965E-03    -183.458E-03     346.486E-03    -380.692E-03     564.025E-03    -183.119E-03     297.538E-03
            1295     11.8898E-03     168.540E-03    -18.2522E+06     111.645E+06     105.924E+06    -2.06871E+06    -369.518E-03     562.254E-03    -192.736E-03     330.658E-03    -384.085E-03     576.859E-03    -192.342E-03     275.422E-03
            1296     12.5222E-03     169.079E-03    -1.32991E+06     142.427E+06     138.244E+06     4.67415E+06    -368.024E-03     569.445E-03    -201.421E-03     305.378E-03    -383.076E-03     584.611E-03    -200.934E-03     245.597E-03
            1297     13.1525E-03     169.546E-03     4.87565E+06     108.240E+06     153.233E+06     605.712E+03    -365.090E-03     574.592E-03    -209.502E-03     271.967E-03    -379.977E-03     589.446E-03    -208.900E-03     209.116E-03
            1298     13.7802E-03     169.920E-03     4.25256E+06     51.1944E+06     148.596E+06    -722.435E+03    -359.400E-03     576.263E-03    -216.863E-03     187.791E-03    -368.842E-03     585.476E-03    -216.200E-03     138.965E-03
            1299     827.058E-06     164.534E-03    -300.298E+06    -194.291E+06    -295.778E+06    -19.5754E+06    -89.7496E-03     177.013E-03    -87.2630E-03     37.6276E-03    -90.5441E-03     176.906E-03    -88.0247E-03     37.3475E-03
            1300     1.65143E-03     164.591E-03    -284.293E+06    -179.706E+06    -271.651E+06    -34.5245E+06    -94.5950E-03     183.925E-03    -89.3303E-03     69.9679E-03    -95.3714E-03     183.839E-03    -90.0158E-03     69.4586E-03
            1301     2.47146E-03     164.681E-03    -261.154E+06    -168.904E+06    -237.526E+06    -48.3172E+06    -103.552E-03     195.390E-03    -91.8372E-03     105.498E-03    -104.296E-03     195.294E-03    -92.4013E-03     104.725E-03
            1302     3.28413E-03     164.816E-03    -234.754E+06    -161.556E+06    -206.090E+06    -61.6584E+06    -116.482E-03     211.750E-03    -95.2686E-03     142.392E-03    -117.194E-03     211.655E-03    -95.7244E-03     141.269E-03
            1303     4.08704E-03     164.990E-03    -208.129E+06    -151.168E+06    -178.815E+06    -70.8475E+06    -133.375E-03     233.014E-03    -99.6385E-03     179.421E-03    -134.103E-03     232.990E-03    -100.012E-03     177.846E-03
            1304     4.87729E-03     165.213E-03    -183.817E+06    -145.252E+06    -152.978E+06    -76.0357E+06    -154.442E-03     259.439E-03    -104.997E-03     214.829E-03    -155.278E-03     259.562E-03    -105.285E-03     212.559E-03
            1305     5.65330E-03     165.484E-03    -162.771E+06    -134.307E+06    -128.179E+06    -79.2167E+06    -179.463E-03     290.834E-03    -111.371E-03     246.666E-03    -180.558E-03     291.262E-03    -111.581E-03     243.284E-03
            1306     6.41205E-03     165.811E-03    -143.882E+06    -128.511E+06    -104.475E+06    -81.5620E+06    -207.724E-03     326.512E-03    -118.788E-03     272.748E-03    -209.249E-03     327.393E-03    -118.915E-03     267.610E-03
            1307     7.15295E-03     166.191E-03    -124.682E+06    -114.277E+06    -78.6165E+06    -82.8234E+06    -237.791E-03     364.996E-03    -127.204E-03     291.733E-03    -239.953E-03     366.561E-03    -127.251E-03     283.989E-03
            1308     7.87176E-03     166.631E-03    -107.056E+06    -86.4689E+06    -46.3489E+06    -79.2584E+06    -267.981E-03     404.517E-03    -136.536E-03     303.237E-03    -271.010E-03     407.018E-03    -136.487E-03     291.940E-03
            1309     8.57378E-03     167.123E-03    -93.1271E+06    -77.2550E+06    -14.3895E+06    -70.2575E+06    -296.959E-03     443.619E-03    -146.661E-03     307.594E-03    -301.035E-03     447.155E-03    -146.485E-03     291.661E-03
            1310     9.25111E-03     167.671E-03    -79.7755E+06    -62.5275E+06     12.1897E+06    -59.4097E+06    -322.128E-03     479.426E-03    -157.298E-03     306.418E-03    -327.414E-03     484.192E-03    -157.031E-03     284.814E-03
            1311     9.91365E-03     168.260E-03    -66.4613E+06    -45.2069E+06     33.2488E+06    -49.7175E+06    -341.018E-03     509.138E-03    -168.119E-03     301.408E-03    -347.604E-03     515.247E-03    -167.791E-03     273.455E-03
            1312     10.5600E-03     168.881E-03    -53.7181E+06    -16.0594E+06     51.9427E+06    -42.5775E+06    -351.107E-03     529.796E-03    -178.688E-03     294.084E-03    -358.988E-03     537.291E-03    -178.327E-03     259.865E-03
            1313     11.2008E-03     169.509E-03    -40.5467E+06     22.4696E+06     70.1480E+06    -42.8660E+06    -351.619E-03     540.138E-03    -188.518E-03     287.256E-03    -360.786E-03     549.048E-03    -188.142E-03     247.403E-03
            1314     11.8403E-03     170.117E-03    -27.9083E+06     43.3263E+06     89.5744E+06    -39.3120E+06    -346.385E-03     543.697E-03    -197.312E-03     280.064E-03    -356.884E-03     554.004E-03    -196.886E-03     234.950E-03
            1315     12.4840E-03     170.688E-03    -18.0598E+06     82.3013E+06     121.599E+06    -16.6126E+06    -339.190E-03     544.191E-03    -205.002E-03     269.220E-03    -350.898E-03     555.793E-03    -204.487E-03     219.792E-03
            1316     13.1235E-03     171.190E-03    -13.0119E+06     108.569E+06     155.640E+06     4.99707E+06    -335.344E-03     547.092E-03    -211.748E-03     260.750E-03    -348.680E-03     560.335E-03    -211.108E-03     205.789E-03
            1317     13.7556E-03     171.598E-03    -8.74111E+06     65.4688E+06     164.813E+06     7.16415E+06    -336.123E-03     553.961E-03    -217.838E-03     198.272E-03    -345.824E-03     563.397E-03    -217.096E-03     151.676E-03
            1318     821.879E-06     165.663E-03    -221.809E+06    -141.844E+06    -218.297E+06    -22.3087E+06    -95.7152E-03     190.502E-03    -94.7870E-03     23.9236E-03    -96.3205E-03     190.425E-03    -95.3512E-03     23.4942E-03
            1319     1.64275E-03     165.724E-03    -214.740E+06    -132.901E+06    -200.380E+06    -39.8077E+06    -100.046E-03     196.326E-03    -96.2801E-03     44.6165E-03    -100.671E-03     196.272E-03    -96.7779E-03     43.8157E-03
            1320     2.45789E-03     165.827E-03    -203.792E+06    -125.429E+06    -181.391E+06    -55.5946E+06    -107.215E-03     205.923E-03    -98.7079E-03     67.6517E-03    -107.853E-03     205.895E-03    -99.1375E-03     66.4444E-03
            1321     3.26678E-03     165.972E-03    -192.282E+06    -120.420E+06    -164.537E+06    -69.9552E+06    -117.609E-03     219.675E-03    -102.066E-03     92.7884E-03    -118.273E-03     219.684E-03    -102.435E-03     91.1172E-03
            1322     4.06642E-03     166.168E-03    -181.774E+06    -118.977E+06    -151.864E+06    -81.9691E+06    -132.097E-03     238.562E-03    -106.465E-03     118.508E-03    -132.815E-03     238.633E-03    -106.788E-03     116.267E-03
            1323     4.85375E-03     166.414E-03    -170.457E+06    -120.174E+06    -140.764E+06    -90.2320E+06    -150.789E-03     262.834E-03    -112.045E-03     143.435E-03    -151.596E-03     263.001E-03    -112.327E-03     140.475E-03
            1324     5.62438E-03     166.718E-03    -157.207E+06    -115.847E+06    -127.555E+06    -95.8186E+06    -173.547E-03     292.429E-03    -118.881E-03     165.790E-03    -174.500E-03     292.771E-03    -119.123E-03     161.863E-03
            1325     6.37605E-03     167.079E-03    -141.683E+06    -112.197E+06    -110.366E+06    -100.860E+06    -199.604E-03     326.610E-03    -127.005E-03     183.562E-03    -200.768E-03     327.189E-03    -127.189E-03     178.267E-03
            1326     7.10367E-03     167.502E-03    -126.918E+06    -107.696E+06    -90.3230E+06    -104.357E+06    -227.211E-03     363.544E-03    -136.333E-03     194.973E-03    -228.676E-03     364.438E-03    -136.444E-03     187.786E-03
            1327     7.81183E-03     167.979E-03    -114.373E+06    -100.165E+06    -66.2778E+06    -100.478E+06    -254.518E-03     401.229E-03    -146.711E-03     198.992E-03    -256.382E-03     402.526E-03    -146.731E-03     189.336E-03
            1328     8.49270E-03     168.516E-03    -102.580E+06    -99.9342E+06    -40.0278E+06    -91.3730E+06    -278.999E-03     436.874E-03    -157.875E-03     197.514E-03    -281.324E-03     438.601E-03    -157.782E-03     184.812E-03
            1329     9.15648E-03     169.098E-03    -90.9297E+06    -93.3728E+06    -17.3836E+06    -84.2973E+06    -298.147E-03     467.505E-03    -169.358E-03     193.663E-03    -300.993E-03     469.752E-03    -169.177E-03     177.436E-03
            1330     9.80231E-03     169.721E-03    -79.5374E+06    -82.6082E+06     2.85671E+06    -76.8752E+06    -309.686E-03     490.300E-03    -180.614E-03     190.962E-03    -313.109E-03     493.150E-03    -180.365E-03     171.060E-03
            1331     10.4400E-03     170.365E-03    -67.2063E+06    -56.2738E+06     27.1545E+06    -71.2096E+06    -312.204E-03     503.221E-03    -191.017E-03     191.708E-03    -316.277E-03     506.796E-03    -190.702E-03     168.423E-03
            1332     11.0793E-03     171.003E-03    -57.4860E+06    -2.49617E+06     69.9662E+06    -67.3031E+06    -307.426E-03     507.524E-03    -200.099E-03     194.778E-03    -312.312E-03     512.019E-03    -199.662E-03     168.465E-03
            1333     11.7279E-03     171.626E-03    -55.1506E+06     10.2869E+06     101.618E+06    -59.2277E+06    -297.499E-03     505.025E-03    -207.526E-03     201.055E-03    -303.353E-03     510.458E-03    -206.953E-03     171.802E-03
            1334     12.3833E-03     172.212E-03    -51.9664E+06     3.88299E+06     109.052E+06    -48.4501E+06    -281.523E-03     494.496E-03    -212.973E-03     212.514E-03    -288.612E-03     501.139E-03    -212.358E-03     180.390E-03
            1335     13.0649E-03     172.733E-03    -34.5539E+06     38.6712E+06     131.320E+06    -26.4105E+06    -271.372E-03     488.028E-03    -216.655E-03     239.483E-03    -280.814E-03     497.139E-03    -216.005E-03     202.564E-03
            1336     13.7606E-03     173.209E-03    -12.8839E+06     52.0646E+06     170.560E+06    -2.25296E+06    -285.643E-03     505.448E-03    -219.806E-03     216.064E-03    -294.001E-03     513.480E-03    -219.010E-03     180.501E-03
            1337     803.381E-06     166.825E-03    -145.256E+06    -87.0764E+06    -140.735E+06    -20.2795E+06    -122.693E-03     243.954E-03    -121.262E-03    -195.200E-06    -123.159E-03     243.862E-03    -121.629E-03    -876.725E-06
            1338     1.60227E-03     166.891E-03    -139.397E+06    -82.5740E+06    -129.051E+06    -34.7286E+06    -123.960E-03     247.495E-03    -123.534E-03    -1.34692E-03    -124.422E-03     247.398E-03    -123.858E-03    -2.56897E-03
            1339     2.39810E-03     166.998E-03    -132.392E+06    -79.2395E+06    -115.420E+06    -48.0515E+06    -127.585E-03     253.578E-03    -125.993E-03    -194.708E-06    -128.041E-03     253.470E-03    -126.263E-03    -2.05004E-03
            1340     3.18712E-03     167.152E-03    -125.206E+06    -76.9052E+06    -103.138E+06    -58.5847E+06    -133.151E-03     262.693E-03    -129.542E-03     1.46421E-03    -133.603E-03     262.572E-03    -129.765E-03    -1.06558E-03
            1341     3.96630E-03     167.358E-03    -117.803E+06    -77.5056E+06    -90.6313E+06    -67.2929E+06    -140.245E-03     274.514E-03    -134.269E-03     3.59570E-03    -140.693E-03     274.376E-03    -134.439E-03     316.169E-06
            1342     4.73167E-03     167.620E-03    -110.350E+06    -81.4521E+06    -77.7522E+06    -74.6295E+06    -149.324E-03     289.541E-03    -140.217E-03     6.34944E-03    -149.771E-03     289.380E-03    -140.328E-03     2.22222E-03
            1343     5.48175E-03     167.940E-03    -102.285E+06    -81.8934E+06    -65.3254E+06    -80.5351E+06    -160.438E-03     307.883E-03    -147.445E-03     8.96655E-03    -160.897E-03     307.729E-03    -147.505E-03     3.90164E-03
            1344     6.21127E-03     168.326E-03    -95.5985E+06    -77.3603E+06    -54.9011E+06    -85.2159E+06    -172.634E-03     328.567E-03    -155.933E-03     10.0206E-03    -173.117E-03     328.451E-03    -155.957E-03     3.89729E-03
            1345     6.92302E-03     168.772E-03    -92.7977E+06    -75.8755E+06    -47.4003E+06    -86.7957E+06    -185.421E-03     351.018E-03    -165.597E-03     8.68741E-03    -185.938E-03     350.942E-03    -165.590E-03     1.34966E-03
            1346     7.60701E-03     169.282E-03    -92.1233E+06    -79.5715E+06    -41.4646E+06    -86.8999E+06    -197.270E-03     373.483E-03    -176.213E-03     5.95646E-03    -197.835E-03     373.452E-03    -176.171E-03    -2.74466E-03
            1347     8.27324E-03     169.842E-03    -90.2335E+06    -86.4232E+06    -34.7932E+06    -86.2383E+06    -206.147E-03     393.465E-03    -187.318E-03     4.62360E-03    -206.782E-03     393.494E-03    -187.236E-03    -5.44870E-03
            1348     8.92058E-03     170.450E-03    -85.1490E+06    -87.1758E+06    -20.1050E+06    -85.1848E+06    -211.179E-03     409.466E-03    -198.287E-03     8.68615E-03    -211.941E-03     409.636E-03    -198.138E-03    -2.59493E-03
            1349     9.55881E-03     171.090E-03    -76.8899E+06    -88.5051E+06     159.143E+03    -83.0793E+06    -211.244E-03     419.593E-03    -208.350E-03     20.4550E-03    -212.201E-03     419.968E-03    -208.109E-03     8.29063E-03
            1350     10.2023E-03     171.743E-03    -64.7619E+06    -71.8794E+06     29.1835E+06    -81.3409E+06    -206.939E-03     423.720E-03    -216.780E-03     38.8156E-03    -208.177E-03     424.429E-03    -216.436E-03     26.0738E-03
            1351     10.8557E-03     172.400E-03    -52.4740E+06    -36.1207E+06     76.0271E+06    -67.9540E+06    -200.548E-03     423.693E-03    -223.145E-03     63.6073E-03    -202.197E-03     424.900E-03    -222.636E-03     50.4793E-03
            1352     11.5198E-03     173.030E-03    -41.4790E+06    -7.05809E+06     122.016E+06    -41.3363E+06    -190.943E-03     417.937E-03    -226.994E-03     97.4394E-03    -193.085E-03     419.688E-03    -226.313E-03     84.3191E-03
            1353     12.2176E-03     173.617E-03    -27.4633E+06     13.1344E+06     147.142E+06    -32.3001E+06    -180.134E-03     408.304E-03    -228.170E-03     130.878E-03    -183.058E-03     410.867E-03    -227.414E-03     116.785E-03
            1354     12.9487E-03     174.130E-03    -20.4806E+06    -647.367E+03     144.859E+06    -31.1964E+06    -177.543E-03     405.040E-03    -227.497E-03     160.104E-03    -181.909E-03     408.977E-03    -226.742E-03     143.050E-03
            1355     13.6898E-03     174.643E-03    -18.0259E+06     5.23331E+06     141.259E+06    -16.4670E+06    -174.929E-03     400.594E-03    -225.665E-03     182.383E-03    -179.421E-03     404.736E-03    -224.940E-03     165.055E-03
            1356     758.861E-06     168.083E-03    -67.6313E+06    -38.5867E+06    -63.3119E+06    -13.5278E+06    -178.944E-03     360.435E-03    -181.491E-03    -44.8375E-03    -179.373E-03     360.118E-03    -181.654E-03    -45.8474E-03
            1357     1.51797E-03     168.147E-03    -65.4921E+06    -38.0410E+06    -58.0627E+06    -23.5096E+06    -177.692E-03     360.942E-03    -183.251E-03    -82.5265E-03    -178.075E-03     360.503E-03    -183.391E-03    -84.4008E-03
            1358     2.27172E-03     168.255E-03    -64.8820E+06    -38.3507E+06    -48.9301E+06    -32.1987E+06    -174.955E-03     361.371E-03    -186.416E-03    -122.873E-03    -175.236E-03     360.776E-03    -186.511E-03    -125.562E-03
            1359     3.01597E-03     168.412E-03    -63.6859E+06    -38.9903E+06    -37.6987E+06    -39.2962E+06    -170.149E-03     360.988E-03    -190.839E-03    -162.660E-03    -170.270E-03     360.194E-03    -190.879E-03    -166.174E-03
            1360     3.74853E-03     168.618E-03    -61.9195E+06    -40.7271E+06    -25.2130E+06    -44.3081E+06    -162.571E-03     358.981E-03    -196.410E-03    -199.833E-03    -162.498E-03     357.938E-03    -196.388E-03    -204.121E-03
            1361     4.47013E-03     168.877E-03    -60.2385E+06    -43.7547E+06    -13.1536E+06    -48.3464E+06    -152.139E-03     355.207E-03    -203.069E-03    -232.184E-03    -151.844E-03     353.890E-03    -202.984E-03    -237.182E-03
            1362     5.17374E-03     169.197E-03    -59.4469E+06    -44.4358E+06    -2.76420E+06    -52.2413E+06    -138.847E-03     349.588E-03    -210.741E-03    -257.627E-03    -138.326E-03     348.031E-03    -210.604E-03    -263.227E-03
            1363     5.86204E-03     169.574E-03    -59.7578E+06    -41.5946E+06     5.52715E+06    -53.9408E+06    -123.593E-03     342.895E-03    -219.302E-03    -274.521E-03    -122.879E-03     341.177E-03    -219.128E-03    -280.596E-03
            1364     6.52662E-03     170.015E-03    -59.0295E+06    -39.3128E+06     13.0498E+06    -52.9692E+06    -107.239E-03     335.755E-03    -228.516E-03    -280.173E-03    -106.393E-03     333.977E-03    -228.308E-03    -286.594E-03
            1365     7.17756E-03     170.512E-03    -55.6804E+06    -37.6864E+06     23.2473E+06    -49.8575E+06    -90.8045E-03     328.764E-03    -237.960E-03    -272.933E-03    -89.9210E-03     327.045E-03    -237.708E-03    -279.525E-03
            1366     7.81305E-03     171.063E-03    -48.7421E+06    -37.9086E+06     37.8914E+06    -46.5705E+06    -75.4667E-03     322.510E-03    -247.043E-03    -252.930E-03    -74.6438E-03     320.968E-03    -246.728E-03    -259.534E-03
            1367     8.44392E-03     171.654E-03    -41.3373E+06    -39.0492E+06     56.8665E+06    -42.3197E+06    -61.3072E-03     316.309E-03    -255.002E-03    -219.350E-03    -60.6948E-03     315.072E-03    -254.601E-03    -225.704E-03
            1368     9.08376E-03     172.281E-03    -32.2389E+06    -37.4287E+06     79.0909E+06    -40.3496E+06    -49.0151E-03     310.102E-03    -261.087E-03    -175.921E-03    -48.7059E-03     309.257E-03    -260.591E-03    -181.798E-03
            1369     9.73624E-03     172.927E-03    -26.1924E+06    -32.4987E+06     100.481E+06    -37.4313E+06    -38.8054E-03     303.504E-03    -264.699E-03    -127.009E-03    -38.8174E-03     303.079E-03    -264.111E-03    -132.294E-03
            1370     10.4130E-03     173.576E-03    -24.4353E+06    -29.6846E+06     117.497E+06    -34.8257E+06    -29.1935E-03     294.429E-03    -265.236E-03    -69.7260E-03    -29.5287E-03     294.391E-03    -264.570E-03    -74.3192E-03
            1371     11.1380E-03     174.220E-03    -21.4762E+06    -31.6001E+06     135.521E+06    -29.4788E+06    -19.4054E-03     281.740E-03    -262.334E-03    -10.9688E-03    -19.9782E-03     281.938E-03    -261.580E-03    -14.6108E-03
            1372     11.9118E-03     174.819E-03    -9.26603E+06     4.51664E+06     162.630E+06    -22.3547E+06    -24.4161E-03     281.512E-03    -257.096E-03     20.2578E-03    -25.1951E-03     281.965E-03    -256.276E-03     17.0424E-03
            1373     12.6870E-03     175.391E-03    -3.56718E+06     16.1639E+06     165.889E+06    -16.2515E+06    -30.1120E-03     280.873E-03    -250.761E-03     35.8330E-03    -31.1208E-03     281.663E-03    -249.950E-03     32.0147E-03
            1374     13.4555E-03     175.901E-03    -5.26295E+06    -8.61128E+06     106.410E+06    -8.15784E+06     4.22725E-03     237.311E-03    -241.538E-03     70.1332E-03     3.26511E-03     238.165E-03    -240.986E-03     66.8508E-03
            1375     13.5753E-03     87.5144E-03    -3.89859E+06     68.2047E+06     83.2894E+06     189.098E+03    -227.232E-03     458.602E-03    -231.369E-03     115.603E-03    -234.061E-03     465.417E-03    -231.046E-03     88.3709E-03
            1376     12.8554E-03     87.2912E-03    -9.90180E+06     66.5221E+06     82.8087E+06    -256.641E+03    -228.146E-03     459.572E-03    -231.426E-03     180.226E-03    -239.482E-03     470.869E-03    -231.095E-03     143.971E-03
            1377     12.1443E-03     87.0605E-03    -15.0045E+06     60.1981E+06     82.0566E+06    -1.04281E+06    -229.311E-03     460.765E-03    -231.455E-03     203.672E-03    -242.584E-03     473.961E-03    -231.110E-03     164.608E-03
            1378     11.4278E-03     86.7781E-03    -20.8641E+06     54.9975E+06     81.9175E+06    -409.790E+03    -230.845E-03     462.332E-03    -231.486E-03     235.111E-03    -246.582E-03     477.952E-03    -231.126E-03     192.542E-03
            1379     10.7144E-03     86.4611E-03    -27.3705E+06     48.1844E+06     78.9689E+06     302.391E+03    -233.126E-03     464.630E-03    -231.504E-03     254.138E-03    -249.914E-03     481.263E-03    -231.139E-03     209.831E-03
            1380     9.99824E-03     86.1197E-03    -33.9795E+06     40.2406E+06     69.9037E+06    -691.184E+03    -235.065E-03     466.540E-03    -231.475E-03     262.739E-03    -251.691E-03     482.985E-03    -231.134E-03     218.210E-03
            1381     9.28670E-03     85.7720E-03    -41.2307E+06     31.1694E+06     58.0584E+06    -1.58803E+06    -236.078E-03     467.509E-03    -231.431E-03     260.510E-03    -251.395E-03     482.621E-03    -231.126E-03     217.523E-03
            1382     8.57077E-03     85.4339E-03    -49.8384E+06     19.0880E+06     45.4379E+06    -833.126E+03    -236.347E-03     467.755E-03    -231.408E-03     249.529E-03    -249.617E-03     480.783E-03    -231.136E-03     209.515E-03
            1383     7.85679E-03     85.1137E-03    -58.7731E+06     6.32241E+06     34.8976E+06     132.635E+03    -236.453E-03     467.859E-03    -231.407E-03     233.093E-03    -247.467E-03     478.586E-03    -231.156E-03     196.761E-03
            1384     7.14268E-03     84.8160E-03    -67.7237E+06    -29.9339E+06     20.0819E+06     168.363E+03    -236.276E-03     467.690E-03    -231.414E-03     214.063E-03    -245.109E-03     476.118E-03    -231.172E-03     181.713E-03
            1385     6.42814E-03     84.5435E-03    -76.4804E+06    -85.4727E+06     498.841E+03     58.9131E+03    -235.827E-03     467.253E-03    -231.426E-03     194.315E-03    -242.707E-03     473.556E-03    -231.189E-03     165.985E-03
            1386     5.71388E-03     84.2979E-03    -84.9059E+06    -131.582E+06    -17.6758E+06     109.697E+03    -235.257E-03     466.696E-03    -231.439E-03     174.095E-03    -240.491E-03     471.213E-03    -231.214E-03     149.639E-03
            1387     4.99919E-03     84.0771E-03    -93.2201E+06    -170.654E+06    -35.4194E+06     129.657E+03    -234.590E-03     466.040E-03    -231.450E-03     153.158E-03    -238.454E-03     469.070E-03    -231.245E-03     132.396E-03
            1388     4.28507E-03     83.8858E-03    -101.325E+06    -205.845E+06    -52.9415E+06     418.356E+03    -233.869E-03     465.330E-03    -231.461E-03     131.848E-03    -236.616E-03     467.140E-03    -231.281E-03     114.579E-03
            1389     3.57068E-03     83.7213E-03    -108.941E+06    -236.872E+06    -70.7988E+06     488.165E+03    -233.182E-03     464.653E-03    -231.471E-03     110.508E-03    -235.045E-03     465.494E-03    -231.324E-03     96.4849E-03
            1390     2.85635E-03     83.5865E-03    -116.019E+06    -263.617E+06    -88.3437E+06     139.657E+03    -232.505E-03     464.000E-03    -231.495E-03     89.2082E-03    -233.683E-03     464.087E-03    -231.386E-03     78.2275E-03
            1391     2.14233E-03     83.4803E-03    -122.265E+06    -285.842E+06    -104.406E+06     192.011E+03    -232.072E-03     463.610E-03    -231.538E-03     67.6639E-03    -232.741E-03     463.133E-03    -231.468E-03     59.5525E-03
            1392     1.42737E-03     83.4046E-03    -127.283E+06    -303.214E+06    -118.682E+06     341.971E+03    -231.915E-03     463.457E-03    -231.542E-03     45.4189E-03    -232.225E-03     462.583E-03    -231.511E-03     40.0303E-03
            1393     714.089E-06     83.3595E-03    -130.780E+06    -313.098E+06    -128.314E+06    -28.0866E+03    -231.907E-03     463.146E-03    -231.240E-03     24.3721E-03    -232.010E-03     462.048E-03    -231.238E-03     21.4702E-03
            1394     13.5673E-03     86.0052E-03    -4.87824E+06     68.4491E+06     84.7780E+06    -235.454E+03    -228.608E-03     460.033E-03    -231.425E-03     114.605E-03    -235.457E-03     466.861E-03    -231.093E-03     87.2104E-03
            1395     12.8600E-03     85.7845E-03    -9.24569E+06     67.6927E+06     84.7661E+06    -440.482E+03    -228.125E-03     459.571E-03    -231.446E-03     180.831E-03    -239.479E-03     470.887E-03    -231.107E-03     144.611E-03
            1396     12.1417E-03     85.5580E-03    -14.8704E+06     60.5706E+06     82.6311E+06     12.5748E+03    -229.059E-03     460.543E-03    -231.484E-03     204.675E-03    -242.340E-03     473.746E-03    -231.137E-03     165.678E-03
            1397     11.4278E-03     85.2714E-03    -22.0659E+06     53.8292E+06     81.0239E+06    -2.39692E+03    -231.499E-03     463.000E-03    -231.501E-03     234.190E-03    -247.202E-03     478.581E-03    -231.141E-03     191.531E-03
            1398     10.7132E-03     84.9544E-03    -28.4341E+06     48.8289E+06     78.6326E+06    -1.06128E+06    -233.492E-03     464.964E-03    -231.472E-03     252.501E-03    -250.256E-03     481.572E-03    -231.109E-03     208.071E-03
            1399     10.0019E-03     84.6135E-03    -35.8534E+06     41.8638E+06     68.9940E+06    -1.89736E+06    -234.838E-03     466.256E-03    -231.419E-03     262.110E-03    -251.469E-03     482.709E-03    -231.083E-03     217.567E-03
            1400     9.28521E-03     84.2672E-03    -44.2673E+06     29.7777E+06     55.5456E+06    -1.79652E+06    -235.671E-03     467.060E-03    -231.389E-03     260.572E-03    -250.996E-03     482.172E-03    -231.090E-03     217.645E-03
            1401     8.57169E-03     83.9290E-03    -52.3457E+06     16.7513E+06     43.3715E+06    -961.403E+03    -236.406E-03     467.786E-03    -231.380E-03     249.699E-03    -249.688E-03     480.816E-03    -231.112E-03     209.663E-03
            1402     7.85708E-03     83.6081E-03    -60.5983E+06     5.15611E+06     33.3671E+06    -503.884E+03    -236.481E-03     467.855E-03    -231.375E-03     233.147E-03    -247.490E-03     478.571E-03    -231.127E-03     196.826E-03
            1403     7.14265E-03     83.3109E-03    -68.8312E+06    -30.1241E+06     19.2619E+06    -477.842E+03    -236.032E-03     467.427E-03    -231.395E-03     214.403E-03    -244.865E-03     475.853E-03    -231.155E-03     182.107E-03
            1404     6.42808E-03     83.0394E-03    -77.1976E+06    -85.9239E+06    -207.911E+03    -421.111E+03    -235.762E-03     467.190E-03    -231.428E-03     194.772E-03    -242.651E-03     473.501E-03    -231.193E-03     166.449E-03
            1405     5.71355E-03     82.7923E-03    -85.5647E+06    -132.115E+06    -18.4957E+06    -268.743E+03    -235.363E-03     466.806E-03    -231.443E-03     174.205E-03    -240.598E-03     471.322E-03    -231.220E-03     149.743E-03
            1406     4.99961E-03     82.5732E-03    -93.5608E+06    -170.949E+06    -36.0268E+06    -62.5273E+03    -234.586E-03     466.035E-03    -231.449E-03     153.189E-03    -238.447E-03     469.062E-03    -231.246E-03     132.443E-03
            1407     4.28494E-03     82.3809E-03    -101.487E+06    -206.245E+06    -53.4686E+06    -30.7472E+03    -233.828E-03     465.296E-03    -231.467E-03     132.109E-03    -236.579E-03     467.109E-03    -231.289E-03     114.832E-03
            1408     3.57072E-03     82.2172E-03    -109.049E+06    -236.592E+06    -71.0743E+06     118.655E+03    -233.131E-03     464.622E-03    -231.491E-03     110.554E-03    -234.995E-03     465.465E-03    -231.345E-03     96.5401E-03
            1409     2.85612E-03     82.0823E-03    -116.217E+06    -263.182E+06    -88.9130E+06     119.405E+03    -232.473E-03     463.999E-03    -231.526E-03     88.7631E-03    -233.650E-03     464.087E-03    -231.421E-03     77.7771E-03
            1410     2.14117E-03     81.9760E-03    -122.709E+06    -286.250E+06    -105.772E+06    -165.269E+03    -232.063E-03     463.637E-03    -231.574E-03     66.8208E-03    -232.726E-03     463.155E-03    -231.510E-03     58.7126E-03
            1411     1.42780E-03     81.8989E-03    -127.228E+06    -303.200E+06    -118.998E+06    -220.166E+03    -232.005E-03     463.568E-03    -231.563E-03     44.7452E-03    -232.310E-03     462.690E-03    -231.534E-03     39.3638E-03
            1412     714.505E-06     81.8520E-03    -129.782E+06    -312.494E+06    -128.403E+06    -168.992E+03    -231.950E-03     463.145E-03    -231.195E-03     24.1400E-03    -232.048E-03     462.049E-03    -231.196E-03     21.2412E-03
            1413     13.5764E-03     84.4944E-03    -3.86649E+06     68.7989E+06     84.4866E+06    -329.034E+03    -227.355E-03     458.775E-03    -231.420E-03     114.835E-03    -234.186E-03     465.592E-03    -231.092E-03     87.5964E-03
            1414     12.8544E-03     84.2862E-03    -10.4577E+06     66.0793E+06     83.1507E+06     21.7181E+03    -228.277E-03     459.750E-03    -231.473E-03     181.173E-03    -239.639E-03     471.068E-03    -231.138E-03     144.914E-03
            1415     12.1416E-03     84.0477E-03    -16.4430E+06     59.6616E+06     83.2389E+06     534.897E+03    -230.473E-03     461.943E-03    -231.470E-03     203.024E-03    -243.707E-03     475.089E-03    -231.117E-03     163.864E-03
            1416     11.4292E-03     83.7657E-03    -21.6432E+06     56.4698E+06     84.1870E+06    -310.289E+03    -231.607E-03     463.035E-03    -231.428E-03     232.121E-03    -247.265E-03     478.572E-03    -231.058E-03     189.424E-03
            1417     10.7167E-03     83.4475E-03    -28.8892E+06     50.2391E+06     79.2734E+06    -888.107E+03    -232.766E-03     464.163E-03    -231.397E-03     252.531E-03    -249.532E-03     480.775E-03    -231.032E-03     208.216E-03
            1418     9.99978E-03     83.1089E-03    -37.0768E+06     42.4925E+06     67.8931E+06    -1.19669E+06    -234.294E-03     465.675E-03    -231.380E-03     262.542E-03    -250.926E-03     482.128E-03    -231.049E-03     218.123E-03
            1419     9.28661E-03     82.7630E-03    -44.6907E+06     29.2907E+06     54.9199E+06    -1.30879E+06    -235.747E-03     467.121E-03    -231.374E-03     260.960E-03    -251.070E-03     482.231E-03    -231.077E-03     218.051E-03
            1420     8.57130E-03     82.4232E-03    -52.3075E+06     14.8288E+06     42.8412E+06    -1.27327E+06    -236.464E-03     467.830E-03    -231.366E-03     249.920E-03    -249.732E-03     480.841E-03    -231.098E-03     209.909E-03
            1421     7.85734E-03     82.1030E-03    -59.8217E+06     4.87051E+06     33.7359E+06    -1.08468E+06    -236.223E-03     467.597E-03    -231.374E-03     233.243E-03    -247.220E-03     478.301E-03    -231.126E-03     196.984E-03
            1422     7.14235E-03     81.8070E-03    -68.1894E+06    -30.7569E+06     19.2838E+06    -687.727E+03    -235.969E-03     467.380E-03    -231.411E-03     214.472E-03    -244.794E-03     475.798E-03    -231.172E-03     182.199E-03
            1423     6.42763E-03     81.5341E-03    -76.7839E+06    -86.4884E+06    -618.411E+03    -465.270E+03    -235.818E-03     467.265E-03    -231.446E-03     194.745E-03    -242.700E-03     473.569E-03    -231.213E-03     166.423E-03
            1424     5.71371E-03     81.2873E-03    -85.1391E+06    -132.838E+06    -18.7648E+06    -479.468E+03    -235.280E-03     466.746E-03    -231.467E-03     174.104E-03    -240.506E-03     471.254E-03    -231.244E-03     149.659E-03
            1425     4.99903E-03     81.0686E-03    -93.4161E+06    -171.342E+06    -36.0889E+06    -240.074E+03    -234.608E-03     466.089E-03    -231.482E-03     153.260E-03    -238.472E-03     469.118E-03    -231.278E-03     132.493E-03
            1426     4.28483E-03     80.8765E-03    -101.510E+06    -206.396E+06    -53.5358E+06    -127.095E+03    -233.936E-03     465.429E-03    -231.493E-03     132.059E-03    -236.690E-03     467.245E-03    -231.314E-03     114.753E-03
            1427     3.57030E-03     80.7127E-03    -109.387E+06    -236.934E+06    -71.3305E+06    -49.0961E+03    -233.351E-03     464.834E-03    -231.484E-03     110.303E-03    -235.214E-03     465.675E-03    -231.338E-03     96.2567E-03
            1428     2.85646E-03     80.5776E-03    -116.571E+06    -263.050E+06    -89.1262E+06         201.078    -232.807E-03     464.244E-03    -231.438E-03     88.3399E-03    -233.982E-03     464.331E-03    -231.333E-03     77.3423E-03
            1429     2.14322E-03     80.4716E-03    -122.654E+06    -285.864E+06    -105.905E+06    -198.331E+03    -232.119E-03     463.508E-03    -231.389E-03     66.7790E-03    -232.779E-03     463.025E-03    -231.326E-03     58.6843E-03
            1430     1.42851E-03     80.3940E-03    -127.777E+06    -303.796E+06    -120.228E+06    -143.493E+03    -231.494E-03     462.929E-03    -231.435E-03     45.2058E-03    -231.800E-03     462.052E-03    -231.410E-03     39.8505E-03
            1431     713.403E-06     80.3482E-03    -130.964E+06    -312.947E+06    -128.300E+06     228.046E+03    -231.270E-03     463.098E-03    -231.828E-03     24.1514E-03    -231.373E-03     462.001E-03    -231.826E-03     21.2522E-03
            1432     13.5670E-03     83.0008E-03    -4.00453E+06     68.6881E+06     84.5427E+06     1.45325E+06    -228.756E-03     460.154E-03    -231.398E-03     114.501E-03    -235.552E-03     466.934E-03    -231.069E-03     87.2126E-03
            1433     12.8567E-03     82.7730E-03    -9.06967E+06     67.1806E+06     85.5559E+06     1.38646E+06    -229.559E-03     460.930E-03    -231.371E-03     177.887E-03    -240.844E-03     472.173E-03    -231.027E-03     141.438E-03
            1434     12.1459E-03     82.5410E-03    -15.2136E+06     61.4346E+06     84.1729E+06    -136.690E+03    -229.618E-03     460.945E-03    -231.326E-03     200.700E-03    -242.780E-03     474.026E-03    -230.973E-03     161.660E-03
            1435     11.4314E-03     82.2600E-03    -21.6150E+06     57.3301E+06     83.3704E+06    -1.04650E+06    -230.255E-03     461.595E-03    -231.340E-03     233.403E-03    -245.913E-03     477.138E-03    -230.975E-03     190.974E-03
            1436     10.7146E-03     81.9438E-03    -28.0822E+06     49.2603E+06     79.1460E+06    -697.011E+03    -232.289E-03     463.674E-03    -231.385E-03     253.855E-03    -249.048E-03     480.278E-03    -231.020E-03     209.717E-03
            1437     10.0012E-03     81.6046E-03    -34.2932E+06     42.2322E+06     69.6089E+06     232.508E+03    -234.406E-03     465.804E-03    -231.398E-03     262.997E-03    -251.015E-03     482.240E-03    -231.061E-03     218.639E-03
            1438     9.28540E-03     81.2569E-03    -41.7891E+06     30.7381E+06     56.8510E+06     435.018E+03    -235.991E-03     467.375E-03    -231.384E-03     261.264E-03    -251.313E-03     482.493E-03    -231.084E-03     218.347E-03
            1439     8.57201E-03     80.9184E-03    -49.7889E+06     16.2155E+06     44.4002E+06    -345.498E+03    -236.336E-03     467.710E-03    -231.374E-03     249.809E-03    -249.585E-03     480.711E-03    -231.103E-03     209.855E-03
            1440     7.85664E-03     80.5985E-03    -58.4138E+06     4.41108E+06     34.1630E+06    -590.529E+03    -236.106E-03     467.499E-03    -231.393E-03     233.154E-03    -247.091E-03     478.193E-03    -231.144E-03     196.928E-03
            1441     7.14217E-03     80.3021E-03    -67.4098E+06    -31.4849E+06     19.4352E+06    -267.150E+03    -236.180E-03     467.606E-03    -231.426E-03     214.564E-03    -245.010E-03     476.029E-03    -231.186E-03     182.243E-03
            1442     6.42823E-03     80.0289E-03    -76.2073E+06    -86.4211E+06    -19.5795E+03     84.0784E+03    -235.836E-03     467.287E-03    -231.451E-03     194.389E-03    -242.708E-03     473.581E-03    -231.215E-03     166.080E-03
            1443     5.71319E-03     79.7833E-03    -84.8931E+06    -132.594E+06    -18.4130E+06     38.8627E+03    -235.120E-03     466.595E-03    -231.475E-03     173.781E-03    -240.339E-03     471.096E-03    -231.252E-03     149.363E-03
            1444     4.99896E-03     79.5633E-03    -93.6181E+06    -171.836E+06    -36.3320E+06    -317.737E+03    -234.616E-03     466.111E-03    -231.495E-03     152.961E-03    -238.478E-03     469.136E-03    -231.292E-03     132.189E-03
            1445     4.28477E-03     79.3719E-03    -101.917E+06    -206.732E+06    -53.7774E+06    -117.396E+03    -234.085E-03     465.575E-03    -231.490E-03     131.760E-03    -236.835E-03     467.386E-03    -231.312E-03     114.447E-03
            1446     3.57095E-03     79.2078E-03    -109.596E+06    -237.361E+06    -71.5389E+06    -214.627E+03    -233.450E-03     464.904E-03    -231.454E-03     110.461E-03    -235.317E-03     465.747E-03    -231.309E-03     96.3948E-03
            1447     2.85697E-03     79.0724E-03    -116.607E+06    -263.368E+06    -88.9772E+06    -140.177E+03    -232.771E-03     464.172E-03    -231.401E-03     88.8135E-03    -233.949E-03     464.259E-03    -231.295E-03     77.8274E-03
            1448     2.14218E-03     78.9674E-03    -123.057E+06    -285.967E+06    -105.390E+06     97.0565E+03    -232.003E-03     463.380E-03    -231.377E-03     67.2939E-03    -232.671E-03     462.901E-03    -231.311E-03     59.1839E-03
            1449     1.42796E-03     78.8909E-03    -127.849E+06    -303.370E+06    -119.713E+06     272.910E+03    -231.460E-03     462.918E-03    -231.458E-03     45.7472E-03    -231.772E-03     462.046E-03    -231.432E-03     40.3765E-03
            1450     714.092E-06     78.8435E-03    -130.952E+06    -313.134E+06    -129.349E+06     51.9727E+03    -231.675E-03     463.184E-03    -231.509E-03     24.6546E-03    -231.777E-03     462.087E-03    -231.512E-03     21.8055E-03
            1451     13.5764E-03     81.4868E-03    -7.28945E+06     66.5821E+06     84.3600E+06     89.9890E+03    -231.011E-03     462.319E-03    -231.307E-03     112.644E-03    -237.846E-03     469.120E-03    -230.972E-03     85.0631E-03
            1452     12.8647E-03     81.2673E-03    -8.68811E+06     68.4874E+06     86.9411E+06     499.599E+03    -228.546E-03     459.789E-03    -231.244E-03     180.015E-03    -239.884E-03     471.088E-03    -230.896E-03     143.758E-03
            1453     12.1463E-03     81.0395E-03    -12.7534E+06     63.4465E+06     85.8543E+06     1.23140E+06    -228.043E-03     459.331E-03    -231.288E-03     204.868E-03    -241.269E-03     472.488E-03    -230.932E-03     166.191E-03
            1454     11.4288E-03     80.7568E-03    -19.7293E+06     58.2211E+06     83.8809E+06     1.42434E+06    -230.201E-03     461.571E-03    -231.370E-03     235.233E-03    -245.886E-03     477.149E-03    -231.006E-03     192.914E-03
            1455     10.7152E-03     80.4385E-03    -27.5121E+06     50.9520E+06     79.1803E+06    -46.9647E+03    -232.528E-03     463.945E-03    -231.417E-03     253.755E-03    -249.270E-03     480.541E-03    -231.055E-03     209.612E-03
            1456     9.99952E-03     80.0990E-03    -35.6093E+06     40.5834E+06     68.5542E+06    -1.03951E+06    -234.686E-03     466.103E-03    -231.417E-03     263.152E-03    -251.313E-03     482.549E-03    -231.081E-03     218.705E-03
            1457     9.28633E-03     79.7518E-03    -42.7641E+06     29.7992E+06     56.8493E+06    -690.720E+03    -235.929E-03     467.329E-03    -231.399E-03     261.101E-03    -251.255E-03     482.444E-03    -231.096E-03     218.164E-03
            1458     8.57107E-03     79.4125E-03    -50.1783E+06     17.1803E+06     44.7656E+06    -136.150E+03    -236.193E-03     467.586E-03    -231.393E-03     249.555E-03    -249.443E-03     480.589E-03    -231.122E-03     209.615E-03
            1459     7.85692E-03     79.0952E-03    -58.7010E+06     3.97971E+06     34.0340E+06     137.788E+03    -236.425E-03     467.826E-03    -231.401E-03     233.137E-03    -247.420E-03     478.528E-03    -231.151E-03     196.845E-03
            1460     7.14227E-03     78.7958E-03    -67.7098E+06    -31.1986E+06     19.7992E+06     342.250E+03    -236.238E-03     467.653E-03    -231.415E-03     214.109E-03    -245.061E-03     476.068E-03    -231.172E-03     181.786E-03
            1461     6.42778E-03     78.5244E-03    -76.7774E+06    -86.4663E+06     253.069E+03     460.954E+03    -235.666E-03     467.105E-03    -231.439E-03     194.045E-03    -242.532E-03     473.391E-03    -231.201E-03     165.767E-03
            1462     5.71381E-03     78.2788E-03    -85.4140E+06    -132.316E+06    -18.3043E+06     480.772E+03    -235.172E-03     466.636E-03    -231.464E-03     173.782E-03    -240.394E-03     471.139E-03    -231.240E-03     149.368E-03
            1463     4.99927E-03     78.0590E-03    -93.4895E+06    -171.452E+06    -36.3160E+06     197.351E+03    -234.601E-03     466.082E-03    -231.481E-03     153.095E-03    -238.461E-03     469.106E-03    -231.278E-03     132.344E-03
            1464     4.28497E-03     77.8668E-03    -101.482E+06    -206.813E+06    -53.8815E+06    -203.874E+03    -234.017E-03     465.501E-03    -231.484E-03     132.015E-03    -236.767E-03     467.312E-03    -231.306E-03     114.712E-03
            1465     3.57064E-03     77.7029E-03    -109.197E+06    -237.267E+06    -71.4282E+06    -286.264E+03    -233.307E-03     464.781E-03    -231.474E-03     110.617E-03    -235.171E-03     465.622E-03    -231.329E-03     96.5749E-03
            1466     2.85610E-03     77.5682E-03    -116.603E+06    -263.891E+06    -89.0949E+06    -165.921E+03    -232.565E-03     464.040E-03    -231.474E-03     88.8754E-03    -233.742E-03     464.124E-03    -231.368E-03     77.8938E-03
            1467     2.14242E-03     77.4627E-03    -122.900E+06    -286.375E+06    -105.432E+06     5.75886E+03    -232.108E-03     463.593E-03    -231.485E-03     67.0072E-03    -232.774E-03     463.111E-03    -231.418E-03     58.8905E-03
            1468     1.42808E-03     77.3871E-03    -127.954E+06    -303.264E+06    -119.134E+06    -6.91383E+03    -231.875E-03     463.337E-03    -231.461E-03     45.6025E-03    -232.187E-03     462.463E-03    -231.432E-03     40.2249E-03
            1469     713.768E-06     77.3375E-03    -131.581E+06    -312.689E+06    -128.738E+06     245.013E+03    -231.754E-03     462.977E-03    -231.224E-03     25.0721E-03    -231.861E-03     461.882E-03    -231.223E-03     22.2341E-03
            1470     13.5742E-03     79.9757E-03    -3.66017E+06     66.6649E+06     85.0587E+06    -241.574E+03    -227.943E-03     459.234E-03    -231.291E-03     115.652E-03    -234.820E-03     466.088E-03    -230.957E-03     88.3326E-03
            1471     12.8563E-03     79.7666E-03    -9.62757E+06     65.8045E+06     83.3684E+06    -235.086E+03    -227.493E-03     458.839E-03    -231.345E-03     183.399E-03    -238.919E-03     470.222E-03    -231.010E-03     147.247E-03
            1472     12.1414E-03     79.5346E-03    -15.0717E+06     60.7370E+06     83.3214E+06     255.865E+03    -229.324E-03     460.728E-03    -231.404E-03     205.432E-03    -242.604E-03     473.928E-03    -231.054E-03     166.502E-03
            1473     11.4297E-03     79.2499E-03    -20.3456E+06     58.8788E+06     84.8431E+06     1.05130E+06    -231.001E-03     462.436E-03    -231.434E-03     234.484E-03    -246.698E-03     478.023E-03    -231.066E-03     191.991E-03
            1474     10.7145E-03     78.9344E-03    -26.7744E+06     53.8308E+06     81.3200E+06     1.17312E+06    -232.923E-03     464.364E-03    -231.441E-03     253.558E-03    -249.688E-03     480.989E-03    -231.073E-03     209.312E-03
            1475     10.0007E-03     78.5937E-03    -34.1888E+06     43.3129E+06     69.9413E+06     322.259E+03    -234.743E-03     466.161E-03    -231.417E-03     262.875E-03    -251.366E-03     482.613E-03    -231.081E-03     218.416E-03
            1476     9.28567E-03     78.2452E-03    -42.6014E+06     28.9233E+06     55.9307E+06    -584.168E+03    -235.694E-03     467.092E-03    -231.398E-03     260.644E-03    -250.996E-03     482.184E-03    -231.099E-03     217.758E-03
            1477     8.57129E-03     77.9101E-03    -50.9714E+06     15.0436E+06     43.5571E+06     7.39579E+03    -236.355E-03     467.748E-03    -231.393E-03     249.346E-03    -249.604E-03     480.742E-03    -231.123E-03     209.364E-03
            1478     7.85651E-03     77.5871E-03    -59.3711E+06     4.46035E+06     34.1088E+06     772.808E+03    -236.569E-03     467.955E-03    -231.386E-03     232.899E-03    -247.564E-03     478.656E-03    -231.135E-03     196.587E-03
            1479     7.14321E-03     77.2919E-03    -68.1498E+06    -31.1512E+06     19.6826E+06     746.963E+03    -236.076E-03     467.472E-03    -231.396E-03     213.938E-03    -244.891E-03     475.877E-03    -231.154E-03     181.662E-03
            1480     6.42820E-03     77.0203E-03    -76.5885E+06    -86.4389E+06     191.822E+03     478.901E+03    -235.562E-03     466.996E-03    -231.433E-03     194.276E-03    -242.428E-03     473.282E-03    -231.196E-03     166.017E-03
            1481     5.71334E-03     76.7734E-03    -84.7244E+06    -131.619E+06    -17.6736E+06     575.093E+03    -235.160E-03     466.631E-03    -231.471E-03     174.059E-03    -240.382E-03     471.137E-03    -231.246E-03     149.658E-03
            1482     4.99914E-03     76.5548E-03    -93.0852E+06    -170.728E+06    -35.8628E+06     354.414E+03    -234.658E-03     466.146E-03    -231.488E-03     153.317E-03    -238.518E-03     469.174E-03    -231.285E-03     132.570E-03
            1483     4.28469E-03     76.3618E-03    -101.081E+06    -206.599E+06    -53.7744E+06    -98.2285E+03    -233.939E-03     465.436E-03    -231.497E-03     131.996E-03    -236.684E-03     467.244E-03    -231.320E-03     114.714E-03
            1484     3.57050E-03     76.1986E-03    -108.949E+06    -237.352E+06    -71.2144E+06     5.69636E+03    -233.187E-03     464.698E-03    -231.510E-03     110.358E-03    -235.047E-03     465.534E-03    -231.364E-03     96.3289E-03
            1485     2.85648E-03     76.0636E-03    -116.256E+06    -263.920E+06    -88.9476E+06     35.4599E+03    -232.661E-03     464.177E-03    -231.515E-03     88.6386E-03    -233.835E-03     464.259E-03    -231.409E-03     77.6560E-03
            1486     2.14166E-03     75.9583E-03    -122.575E+06    -286.295E+06    -105.666E+06    -89.9399E+03    -232.337E-03     463.812E-03    -231.475E-03     66.7001E-03    -232.997E-03     463.326E-03    -231.410E-03     58.5988E-03
            1487     1.42820E-03     75.8811E-03    -127.764E+06    -303.657E+06    -119.720E+06    -46.8718E+03    -231.883E-03     463.272E-03    -231.389E-03     45.3431E-03    -232.190E-03     462.395E-03    -231.362E-03     39.9773E-03
            1488     714.825E-06     75.8340E-03    -130.683E+06    -312.287E+06    -128.354E+06     -71.949E+03    -231.348E-03     462.800E-03    -231.452E-03     25.2197E-03    -231.454E-03     461.705E-03    -231.451E-03     22.3259E-03
            1489     13.5709E-03     78.4811E-03    -3.28539E+06     66.5552E+06     84.3266E+06     233.017E+03    -227.309E-03     458.703E-03    -231.395E-03     115.483E-03    -234.130E-03     465.504E-03    -231.065E-03     88.2153E-03
            1490     12.8556E-03     78.2577E-03    -9.62628E+06     65.7207E+06     84.1211E+06     14.5955E+03    -228.552E-03     459.988E-03    -231.436E-03     179.198E-03    -239.863E-03     471.254E-03    -231.096E-03     142.885E-03
            1491     12.1447E-03     78.0266E-03    -15.3060E+06     60.2236E+06     83.1166E+06    -617.763E+03    -229.550E-03     460.987E-03    -231.437E-03     202.475E-03    -242.775E-03     474.130E-03    -231.086E-03     163.402E-03
            1492     11.4284E-03     77.7459E-03    -21.3171E+06     57.8469E+06     83.4752E+06    -854.099E+03    -231.034E-03     462.478E-03    -231.444E-03     233.975E-03    -246.733E-03     478.064E-03    -231.079E-03     191.382E-03
            1493     10.7145E-03     77.4273E-03    -27.9336E+06     52.8557E+06     80.3326E+06    -547.408E+03    -233.126E-03     464.566E-03    -231.440E-03     253.474E-03    -249.916E-03     481.212E-03    -231.074E-03     209.115E-03
            1494     10.0006E-03     77.0875E-03    -35.0246E+06     43.2570E+06     69.7819E+06     286.688E+03    -234.659E-03     466.071E-03    -231.411E-03     262.559E-03    -251.278E-03     482.516E-03    -231.074E-03     218.122E-03
            1495     9.28585E-03     76.7427E-03    -42.5336E+06     29.6973E+06     56.4161E+06     1.35982E+06    -235.789E-03     467.179E-03    -231.390E-03     260.503E-03    -251.082E-03     482.263E-03    -231.089E-03     217.648E-03
            1496     8.57131E-03     76.4023E-03    -50.9557E+06     15.1141E+06     43.7041E+06     1.11999E+06    -236.479E-03     467.852E-03    -231.373E-03     249.363E-03    -249.725E-03     480.845E-03    -231.103E-03     209.382E-03
            1497     7.85800E-03     76.0837E-03    -59.3383E+06     4.53616E+06     33.9566E+06     976.008E+03    -236.254E-03     467.629E-03    -231.375E-03     233.030E-03    -247.238E-03     478.319E-03    -231.126E-03     196.805E-03
            1498     7.14179E-03     75.7865E-03    -67.6103E+06    -30.9497E+06     19.5832E+06     702.356E+03    -235.886E-03     467.299E-03    -231.413E-03     214.189E-03    -244.695E-03     475.702E-03    -231.172E-03     181.961E-03
            1499     6.42793E-03     75.5154E-03    -76.1391E+06    -85.9238E+06     356.482E+03     304.161E+03    -235.681E-03     467.142E-03    -231.461E-03     194.529E-03    -242.552E-03     473.436E-03    -231.224E-03     166.254E-03
            1500     5.71345E-03     75.2698E-03    -84.5741E+06    -131.643E+06    -17.6097E+06     157.751E+03    -235.307E-03     466.795E-03    -231.488E-03     174.127E-03    -240.530E-03     471.302E-03    -231.263E-03     149.702E-03
            1501     4.99892E-03     75.0489E-03    -92.6793E+06    -170.232E+06    -35.0844E+06     395.502E+03    -234.690E-03     466.186E-03    -231.496E-03     152.993E-03    -238.542E-03     469.207E-03    -231.291E-03     132.257E-03
            1502     4.28500E-03     74.8578E-03    -100.827E+06    -205.873E+06    -53.1316E+06     497.312E+03    -233.902E-03     465.404E-03    -231.502E-03     131.748E-03    -236.644E-03     467.211E-03    -231.323E-03     114.482E-03
            1503     3.57046E-03     74.6938E-03    -108.780E+06    -237.584E+06    -71.1626E+06     200.699E+03    -233.263E-03     464.770E-03    -231.507E-03     110.275E-03    -235.121E-03     465.606E-03    -231.361E-03     96.2449E-03
            1504     2.85596E-03     74.5592E-03    -115.958E+06    -263.656E+06    -88.1724E+06     219.400E+03    -232.804E-03     464.289E-03    -231.484E-03     88.5254E-03    -233.975E-03     464.368E-03    -231.375E-03     77.5528E-03
            1505     2.14292E-03     74.4525E-03    -122.366E+06       -286.E+06    -104.949E+06     377.071E+03    -232.318E-03     463.731E-03    -231.414E-03     66.7594E-03    -232.978E-03     463.247E-03    -231.346E-03     58.6605E-03
            1506     1.42856E-03     74.3774E-03    -127.268E+06    -303.540E+06    -119.671E+06     133.539E+03    -231.807E-03     463.124E-03    -231.317E-03     45.0096E-03    -232.112E-03     462.247E-03    -231.291E-03     39.6406E-03
            1507     713.083E-06     74.3301E-03    -129.724E+06    -312.477E+06    -129.033E+06    -355.530E+03    -231.295E-03     462.649E-03    -231.354E-03     24.9623E-03    -231.394E-03     461.552E-03    -231.358E-03     22.0529E-03
            1508     13.5708E-03     76.9676E-03    -6.04958E+06     67.3379E+06     84.3472E+06    -468.936E+03    -229.161E-03     460.555E-03    -231.394E-03     113.023E-03    -235.968E-03     467.335E-03    -231.061E-03     85.6104E-03
            1509     12.8612E-03     76.7534E-03    -10.2391E+06     66.5628E+06     85.3176E+06    -348.085E+03    -228.461E-03     459.849E-03    -231.388E-03     179.373E-03    -239.763E-03     471.103E-03    -231.043E-03     143.162E-03
            1510     12.1424E-03     76.5228E-03    -14.8000E+06     60.3321E+06     84.5680E+06     17.3200E+03    -229.026E-03     460.436E-03    -231.410E-03     203.479E-03    -242.262E-03     473.589E-03    -231.053E-03     164.535E-03
            1511     11.4291E-03     76.2395E-03    -21.3454E+06     57.8866E+06     83.7951E+06     184.110E+03    -231.069E-03     462.497E-03    -231.428E-03     233.901E-03    -246.778E-03     478.093E-03    -231.062E-03     191.276E-03
            1512     10.7152E-03     75.9212E-03    -29.0360E+06     53.1645E+06     79.2679E+06    -269.335E+03    -232.856E-03     464.279E-03    -231.422E-03     253.014E-03    -249.627E-03     480.905E-03    -231.061E-03     208.715E-03
            1513     10.0001E-03     75.5834E-03    -37.0103E+06     40.7163E+06     67.5173E+06    -327.108E+03    -234.562E-03     465.964E-03    -231.401E-03     262.266E-03    -251.172E-03     482.390E-03    -231.069E-03     217.838E-03
            1514     9.28604E-03     75.2357E-03    -44.5411E+06     27.9810E+06     54.9037E+06     378.950E+03    -235.899E-03     467.279E-03    -231.380E-03     260.685E-03    -251.205E-03     482.367E-03    -231.081E-03     217.789E-03
            1515     8.57218E-03     74.8983E-03    -51.5211E+06     16.4312E+06     43.6540E+06     778.039E+03    -236.252E-03     467.625E-03    -231.373E-03     249.723E-03    -249.499E-03     480.621E-03    -231.104E-03     209.807E-03
            1516     7.85599E-03     74.5782E-03    -59.0076E+06     4.16387E+06     33.8521E+06     327.269E+03    -236.086E-03     467.483E-03    -231.397E-03     233.055E-03    -247.059E-03     478.163E-03    -231.148E-03     196.866E-03
            1517     7.14280E-03     74.2824E-03    -67.3800E+06    -30.2596E+06     20.1521E+06     493.530E+03    -235.926E-03     467.372E-03    -231.446E-03     214.144E-03    -244.734E-03     475.774E-03    -231.204E-03     181.917E-03
            1518     6.42725E-03     74.0107E-03    -76.0452E+06    -85.6542E+06     398.286E+03     295.542E+03    -235.841E-03     467.322E-03    -231.482E-03     194.245E-03    -242.705E-03     473.611E-03    -231.245E-03     165.953E-03
            1519     5.71330E-03     73.7637E-03    -84.4573E+06    -132.161E+06    -18.0802E+06    -99.0376E+03    -235.390E-03     466.882E-03    -231.492E-03     173.915E-03    -240.609E-03     471.384E-03    -231.268E-03     149.470E-03
            1520     4.99948E-03     73.5450E-03    -92.6068E+06    -170.453E+06    -34.9431E+06     258.384E+03    -234.670E-03     466.169E-03    -231.498E-03     153.118E-03    -238.528E-03     469.194E-03    -231.292E-03     132.368E-03
            1521     4.28460E-03     73.3528E-03    -100.637E+06    -205.539E+06    -52.3892E+06     650.065E+03    -234.063E-03     465.556E-03    -231.493E-03     131.672E-03    -236.806E-03     467.364E-03    -231.311E-03     114.393E-03
            1522     3.57058E-03     73.1895E-03    -108.494E+06    -236.677E+06    -70.4050E+06     659.565E+03    -233.405E-03     464.867E-03    -231.462E-03     110.011E-03    -235.258E-03     465.699E-03    -231.313E-03     95.9975E-03
            1523     2.85701E-03     73.0537E-03    -115.870E+06    -263.474E+06    -87.9385E+06     351.378E+03    -232.640E-03     464.071E-03    -231.431E-03     88.5211E-03    -233.811E-03     464.150E-03    -231.320E-03     77.5513E-03
            1524     2.14190E-03     72.9487E-03    -122.280E+06    -285.728E+06    -104.343E+06     206.549E+03    -232.110E-03     463.520E-03    -231.410E-03     66.9655E-03    -232.773E-03     463.037E-03    -231.340E-03     58.8684E-03
            1525     1.42800E-03     72.8720E-03    -127.495E+06    -302.740E+06    -118.542E+06     246.612E+03    -231.919E-03     463.241E-03    -231.322E-03     45.1991E-03    -232.230E-03     462.369E-03    -231.291E-03     39.8099E-03
            1526     715.846E-06     72.8262E-03    -131.483E+06    -312.607E+06    -128.766E+06     717.017E+03    -231.543E-03     462.583E-03    -231.040E-03     24.4311E-03    -231.651E-03     461.488E-03    -231.040E-03     21.5629E-03
            1527     13.5757E-03     75.4649E-03    -3.83671E+06     68.1717E+06     85.5950E+06     212.301E+03    -228.182E-03     459.523E-03    -231.341E-03     114.034E-03    -234.994E-03     466.315E-03    -231.006E-03     86.7849E-03
            1528     12.8551E-03     75.2475E-03    -9.24130E+06     66.5106E+06     84.8309E+06    -70.2756E+03    -227.898E-03     459.270E-03    -231.372E-03     180.108E-03    -239.229E-03     470.559E-03    -231.031E-03     143.914E-03
            1529     12.1444E-03     75.0180E-03    -15.7674E+06     59.1110E+06     83.2546E+06    -455.123E+03    -229.539E-03     460.935E-03    -231.396E-03     203.612E-03    -242.796E-03     474.104E-03    -231.043E-03     164.545E-03
            1530     11.4297E-03     74.7322E-03    -21.6331E+06     57.5043E+06     83.6790E+06    -156.581E+03    -230.966E-03     462.371E-03    -231.405E-03     233.857E-03    -246.661E-03     477.951E-03    -231.039E-03     191.285E-03
            1531     10.7147E-03     74.4177E-03    -27.6185E+06     52.9078E+06     80.2529E+06     772.994E+03    -232.637E-03     464.050E-03    -231.413E-03     253.014E-03    -249.381E-03     480.651E-03    -231.048E-03     208.816E-03
            1532     10.0007E-03     74.0767E-03    -34.4570E+06     40.8922E+06     68.8526E+06     1.51165E+06    -234.520E-03     465.924E-03    -231.404E-03     262.593E-03    -251.116E-03     482.343E-03    -231.069E-03     218.219E-03
            1533     9.28622E-03     73.7317E-03    -41.9446E+06     28.2120E+06     55.3987E+06     1.12470E+06    -235.770E-03     467.160E-03    -231.390E-03     260.844E-03    -251.061E-03     482.242E-03    -231.093E-03     217.990E-03
            1534     8.57052E-03     73.3927E-03    -49.5749E+06     16.7619E+06     44.1464E+06     715.238E+03    -236.187E-03     467.580E-03    -231.393E-03     249.462E-03    -249.418E-03     480.567E-03    -231.125E-03     209.553E-03
            1535     7.85756E-03     73.0740E-03    -58.0160E+06     5.17248E+06     34.7994E+06     675.485E+03    -236.156E-03     467.574E-03    -231.418E-03     232.726E-03    -247.122E-03     478.251E-03    -231.167E-03     196.529E-03
            1536     7.14124E-03     72.7776E-03    -66.9097E+06    -30.6794E+06     20.3297E+06     400.843E+03    -236.144E-03     467.593E-03    -231.449E-03     213.929E-03    -244.947E-03     475.991E-03    -231.206E-03     181.658E-03
            1537     6.42817E-03     72.5048E-03    -75.3803E+06    -85.1621E+06     959.445E+03     583.070E+03    -235.836E-03     467.307E-03    -231.472E-03     194.073E-03    -242.694E-03     473.593E-03    -231.234E-03     165.787E-03
            1538     5.71361E-03     72.2598E-03    -83.8972E+06    -131.082E+06    -17.4801E+06     617.735E+03    -235.261E-03     466.748E-03    -231.487E-03     173.780E-03    -240.476E-03     471.250E-03    -231.263E-03     149.366E-03
            1539     4.99850E-03     72.0396E-03    -92.5118E+06    -170.844E+06    -35.4016E+06     216.612E+03    -234.736E-03     466.228E-03    -231.492E-03     152.911E-03    -238.589E-03     469.249E-03    -231.287E-03     132.155E-03
            1540     4.28508E-03     71.8479E-03    -100.713E+06    -206.020E+06    -52.4219E+06     389.904E+03    -234.074E-03     465.555E-03    -231.481E-03     131.670E-03    -236.816E-03     467.360E-03    -231.298E-03     114.388E-03
            1541     3.57125E-03     71.6840E-03    -108.330E+06    -236.022E+06    -69.7826E+06     758.344E+03    -233.306E-03     464.767E-03    -231.461E-03     110.464E-03    -235.167E-03     465.608E-03    -231.311E-03     96.4444E-03
            1542     2.85630E-03     71.5504E-03    -115.593E+06    -262.490E+06    -87.8653E+06     619.366E+03    -232.596E-03     464.046E-03    -231.450E-03     88.8996E-03    -233.773E-03     464.135E-03    -231.341E-03     77.9245E-03
            1543     2.14264E-03     71.4438E-03    -122.159E+06    -285.493E+06    -104.621E+06     204.893E+03    -232.038E-03     463.500E-03    -231.461E-03     67.2149E-03    -232.703E-03     463.021E-03    -231.393E-03     59.1105E-03
            1544     1.42841E-03     71.3677E-03    -127.191E+06    -302.541E+06    -118.541E+06     174.617E+03    -231.675E-03     463.184E-03    -231.509E-03     45.5333E-03    -231.985E-03     462.312E-03    -231.478E-03     40.1551E-03
            1545     712.654E-06     71.3208E-03    -129.734E+06    -311.291E+06    -127.757E+06    -14.2848E+03    -231.483E-03     463.194E-03    -231.710E-03     24.9819E-03    -231.586E-03     462.103E-03    -231.710E-03     22.0759E-03
            1546     13.5703E-03     73.9605E-03    -4.21561E+06     67.6556E+06     84.8861E+06    -211.273E+03    -228.407E-03     459.780E-03    -231.373E-03     115.410E-03    -235.273E-03     466.625E-03    -231.041E-03     87.9719E-03
            1547     12.8604E-03     73.7442E-03    -7.86322E+06     67.1621E+06     85.7441E+06     385.584E+03    -228.846E-03     460.224E-03    -231.378E-03     180.262E-03    -240.194E-03     471.533E-03    -231.035E-03     143.882E-03
            1548     12.1435E-03     73.5093E-03    -13.1805E+06     60.4702E+06     83.9314E+06     447.170E+03    -229.411E-03     460.785E-03    -231.374E-03     203.321E-03    -242.631E-03     473.930E-03    -231.023E-03     164.314E-03
            1549     11.4295E-03     73.2293E-03    -19.4598E+06     57.1824E+06     83.5074E+06     120.328E+03    -230.644E-03     462.041E-03    -231.397E-03     233.946E-03    -246.300E-03     477.588E-03    -231.034E-03     191.507E-03
            1550     10.7151E-03     72.9108E-03    -26.4439E+06     50.1570E+06     79.5891E+06     700.535E+03    -232.618E-03     464.042E-03    -231.424E-03     253.446E-03    -249.353E-03     480.631E-03    -231.060E-03     209.280E-03
            1551     10.0002E-03     72.5731E-03    -33.5217E+06     40.5419E+06     69.4306E+06     1.52600E+06    -234.593E-03     466.014E-03    -231.421E-03     262.714E-03    -251.182E-03     482.427E-03    -231.084E-03     218.343E-03
            1552     9.28510E-03     72.2253E-03    -40.7350E+06     29.7635E+06     57.4554E+06     1.68381E+06    -235.802E-03     467.209E-03    -231.407E-03     260.387E-03    -251.069E-03     482.271E-03    -231.104E-03     217.559E-03
            1553     8.57218E-03     71.8883E-03    -49.0510E+06     17.4473E+06     45.4045E+06     1.65225E+06    -236.206E-03     467.608E-03    -231.403E-03     248.994E-03    -249.421E-03     480.580E-03    -231.130E-03     209.106E-03
            1554     7.85564E-03     71.5692E-03    -57.5914E+06     6.07384E+06     35.3246E+06     1.37528E+06    -236.322E-03     467.733E-03    -231.411E-03     232.617E-03    -247.289E-03     478.415E-03    -231.160E-03     196.394E-03
            1555     7.14323E-03     71.2718E-03    -66.2632E+06    -29.6470E+06     20.7587E+06     1.05345E+06    -236.127E-03     467.560E-03    -231.433E-03     213.857E-03    -244.925E-03     475.957E-03    -231.190E-03     181.602E-03
            1556     6.42766E-03     71.0008E-03    -75.2916E+06    -84.6679E+06     1.27446E+06     876.666E+03    -235.722E-03     467.184E-03    -231.462E-03     194.143E-03    -242.579E-03     473.470E-03    -231.224E-03     165.885E-03
            1557     5.71309E-03     70.7544E-03    -84.0404E+06    -130.566E+06    -17.1792E+06     936.648E+03    -235.331E-03     466.811E-03    -231.480E-03     173.815E-03    -240.548E-03     471.316E-03    -231.255E-03     149.399E-03
            1558     4.99987E-03     70.5350E-03    -92.2735E+06    -169.914E+06    -35.1112E+06     954.484E+03    -234.610E-03     466.098E-03    -231.489E-03     153.011E-03    -238.461E-03     469.121E-03    -231.284E-03     132.287E-03
            1559     4.28494E-03     70.3431E-03    -100.439E+06    -205.824E+06    -52.8625E+06     564.721E+03    -233.755E-03     465.273E-03    -231.518E-03     132.133E-03    -236.501E-03     467.084E-03    -231.338E-03     114.872E-03
            1560     3.56983E-03     70.1802E-03    -108.434E+06    -236.153E+06    -70.6457E+06     303.697E+03    -233.219E-03     464.769E-03    -231.550E-03     110.844E-03    -235.086E-03     465.618E-03    -231.404E-03     96.8011E-03
            1561     2.85638E-03     70.0446E-03    -115.736E+06    -261.973E+06    -88.0323E+06     516.338E+03    -232.769E-03     464.323E-03    -231.554E-03     88.9298E-03    -233.946E-03     464.414E-03    -231.446E-03     77.9514E-03
            1562     2.14185E-03     69.9402E-03    -121.886E+06    -284.605E+06    -104.647E+06     465.525E+03    -232.151E-03     463.705E-03    -231.554E-03     67.1996E-03    -232.816E-03     463.230E-03    -231.487E-03     59.0883E-03
            1563     1.42739E-03     69.8627E-03    -126.293E+06    -301.987E+06    -118.809E+06    -152.615E+03    -231.649E-03     463.284E-03    -231.634E-03     45.3632E-03    -231.956E-03     462.415E-03    -231.607E-03     39.9629E-03
            1564     714.482E-06     69.8169E-03    -129.527E+06    -311.624E+06    -127.431E+06    -674.315E+03    -231.435E-03     463.525E-03    -232.090E-03     24.5068E-03    -231.535E-03     462.432E-03    -232.087E-03     21.5889E-03
            1565     13.5725E-03     72.4523E-03    -4.71264E+06     67.5100E+06     83.8212E+06    -1.20131E+06    -228.534E-03     459.894E-03    -231.360E-03     113.316E-03    -235.349E-03     466.688E-03    -231.032E-03     85.9132E-03
            1566     12.8566E-03     72.2342E-03    -9.59858E+06     65.3327E+06     83.6955E+06    -1.06111E+06    -228.572E-03     459.937E-03    -231.365E-03     179.917E-03    -239.904E-03     471.224E-03    -231.027E-03     143.597E-03
            1567     12.1449E-03     72.0072E-03    -14.3896E+06     59.9827E+06     83.5199E+06    -128.133E+03    -229.195E-03     460.577E-03    -231.382E-03     203.634E-03    -242.416E-03     473.718E-03    -231.030E-03     164.718E-03
            1568     11.4292E-03     71.7225E-03    -20.7040E+06     56.6420E+06     82.9204E+06     493.001E+03    -230.630E-03     462.044E-03    -231.414E-03     234.144E-03    -246.296E-03     477.597E-03    -231.051E-03     191.708E-03
            1569     10.7143E-03     71.4071E-03    -27.9150E+06     49.1111E+06     78.4252E+06     612.328E+03    -232.785E-03     464.219E-03    -231.434E-03     253.286E-03    -249.521E-03     480.803E-03    -231.073E-03     209.075E-03
            1570     9.99985E-03     71.0662E-03    -35.5510E+06     40.5912E+06     68.5308E+06     493.624E+03    -234.679E-03     466.098E-03    -231.419E-03     262.187E-03    -251.259E-03     482.497E-03    -231.084E-03     217.786E-03
            1571     9.28683E-03     70.7207E-03    -43.6617E+06     29.3433E+06     56.3297E+06     229.523E+03    -235.726E-03     467.127E-03    -231.401E-03     260.125E-03    -250.997E-03     482.184E-03    -231.098E-03     217.294E-03
            1572     8.57028E-03     70.3836E-03    -50.8233E+06     16.7707E+06     44.6196E+06     386.504E+03    -236.294E-03     467.687E-03    -231.393E-03     249.025E-03    -249.514E-03     480.657E-03    -231.120E-03     209.112E-03
            1573     7.85805E-03     70.0635E-03    -58.4361E+06     5.70525E+06     34.7763E+06     723.616E+03    -236.303E-03     467.700E-03    -231.398E-03     232.664E-03    -247.269E-03     478.379E-03    -231.147E-03     196.444E-03
            1574     7.14163E-03     69.7675E-03    -67.0213E+06    -29.0057E+06     20.6779E+06     1.31104E+06    -236.003E-03     467.430E-03    -231.427E-03     213.931E-03    -244.805E-03     475.831E-03    -231.184E-03     181.708E-03
            1575     6.42783E-03     69.4958E-03    -75.4771E+06    -83.9256E+06     1.08994E+06     1.34926E+06    -235.752E-03     467.211E-03    -231.460E-03     194.149E-03    -242.608E-03     473.499E-03    -231.223E-03     165.897E-03
            1576     5.71393E-03     69.2494E-03    -84.0332E+06    -130.208E+06    -17.3698E+06     1.23429E+06    -235.122E-03     466.613E-03    -231.491E-03     173.983E-03    -240.339E-03     471.120E-03    -231.267E-03     149.597E-03
            1577     4.99855E-03     69.0302E-03    -92.4469E+06    -169.180E+06    -35.1813E+06     1.25441E+06    -234.349E-03     465.889E-03    -231.540E-03     153.348E-03    -238.207E-03     468.920E-03    -231.337E-03     132.651E-03
            1578     4.28405E-03     68.8395E-03    -100.581E+06    -205.016E+06    -53.2283E+06     968.607E+03    -233.848E-03     465.439E-03    -231.591E-03     132.175E-03    -236.595E-03     467.256E-03    -231.414E-03     114.914E-03
            1579     3.57041E-03     68.6746E-03    -108.405E+06    -235.555E+06    -71.0129E+06     663.774E+03    -233.288E-03     464.910E-03    -231.622E-03     110.529E-03    -235.149E-03     465.756E-03    -231.478E-03     96.5030E-03
            1580     2.85562E-03     68.5402E-03    -115.769E+06    -261.836E+06    -88.6023E+06     391.182E+03    -232.727E-03     464.366E-03    -231.639E-03     88.7848E-03    -233.901E-03     464.457E-03    -231.534E-03     77.8097E-03
            1581     2.14206E-03     68.4343E-03    -122.122E+06    -283.686E+06    -105.091E+06     172.570E+03    -232.336E-03     463.971E-03    -231.636E-03     66.9569E-03    -233.001E-03     463.501E-03    -231.573E-03     58.8368E-03
            1582     1.42835E-03     68.3589E-03    -127.277E+06    -301.535E+06    -118.808E+06     46.2098E+03    -231.987E-03     463.596E-03    -231.609E-03     45.4184E-03    -232.300E-03     462.731E-03    -231.581E-03     40.0030E-03
            1583     713.251E-06     68.3101E-03    -130.168E+06    -312.166E+06    -128.631E+06     305.100E+03    -232.111E-03     463.289E-03    -231.178E-03     24.8435E-03    -232.213E-03     462.196E-03    -231.180E-03     21.9647E-03
            1584     13.5744E-03     70.9498E-03    -3.55629E+06     68.6414E+06     83.9511E+06     15.8290E+03    -228.236E-03     459.550E-03    -231.314E-03     114.688E-03    -235.072E-03     466.374E-03    -230.989E-03     87.3743E-03
            1585     12.8595E-03     70.7313E-03    -10.2961E+06     65.3792E+06     82.7534E+06    -797.741E+03    -227.692E-03     459.044E-03    -231.352E-03     180.249E-03    -239.028E-03     470.335E-03    -231.018E-03     144.052E-03
            1586     12.1424E-03     70.4991E-03    -16.7085E+06     58.3090E+06     81.3928E+06    -1.46729E+06    -229.024E-03     460.422E-03    -231.397E-03     203.195E-03    -242.228E-03     473.537E-03    -231.051E-03     164.288E-03
            1587     11.4291E-03     70.2190E-03    -22.3594E+06     54.8136E+06     81.8692E+06    -860.058E+03    -230.974E-03     462.400E-03    -231.426E-03     233.921E-03    -246.659E-03     477.963E-03    -231.064E-03     191.363E-03
            1588     10.7148E-03     69.9005E-03    -28.8057E+06     48.4703E+06     78.4163E+06     26.1378E+03    -232.982E-03     464.410E-03    -231.428E-03     253.102E-03    -249.723E-03     480.993E-03    -231.064E-03     208.840E-03
            1589     10.0013E-03     69.5613E-03    -35.6638E+06     40.5205E+06     68.4614E+06     324.589E+03    -234.521E-03     465.929E-03    -231.408E-03     262.142E-03    -251.095E-03     482.321E-03    -231.073E-03     217.783E-03
            1590     9.28476E-03     69.2162E-03    -42.3361E+06     30.0578E+06     56.1977E+06     381.462E+03    -235.711E-03     467.103E-03    -231.392E-03     260.256E-03    -250.983E-03     482.168E-03    -231.094E-03     217.425E-03
            1591     8.57253E-03     68.8775E-03    -50.1986E+06     16.1999E+06     43.8200E+06     310.871E+03    -236.282E-03     467.669E-03    -231.387E-03     249.165E-03    -249.503E-03     480.642E-03    -231.119E-03     209.247E-03
            1592     7.85594E-03     68.5592E-03    -58.6039E+06     4.83749E+06     33.9215E+06     748.664E+03    -236.228E-03     467.627E-03    -231.399E-03     232.772E-03    -247.192E-03     478.302E-03    -231.151E-03     196.574E-03
            1593     7.14279E-03     68.2627E-03    -67.2359E+06    -29.7950E+06     19.7118E+06     1.03263E+06    -236.024E-03     467.456E-03    -231.432E-03     213.968E-03    -244.821E-03     475.851E-03    -231.193E-03     181.744E-03
            1594     6.42801E-03     67.9907E-03    -76.0466E+06    -83.5846E+06     594.034E+03     1.50973E+06    -235.551E-03     467.032E-03    -231.480E-03     194.413E-03    -242.415E-03     473.326E-03    -231.246E-03     166.187E-03
            1595     5.71288E-03     67.7452E-03    -84.5341E+06    -129.363E+06    -17.8628E+06     1.59163E+06    -234.950E-03     466.489E-03    -231.540E-03     174.146E-03    -240.172E-03     471.004E-03    -231.319E-03     149.786E-03
            1596     4.99852E-03     67.5266E-03    -92.9887E+06    -168.667E+06    -35.8145E+06     1.13180E+06    -234.570E-03     466.160E-03    -231.590E-03     153.143E-03    -238.427E-03     469.192E-03    -231.390E-03     132.428E-03
            1597     4.28441E-03     67.3335E-03    -101.131E+06    -204.140E+06    -53.3767E+06     985.162E+03    -234.099E-03     465.706E-03    -231.607E-03     131.710E-03    -236.844E-03     467.522E-03    -231.431E-03     114.434E-03
            1598     3.56987E-03     67.1702E-03    -108.860E+06    -234.832E+06    -71.1421E+06     833.762E+03    -233.306E-03     464.914E-03    -231.608E-03     110.018E-03    -235.162E-03     465.757E-03    -231.466E-03     96.0111E-03
            1599     2.85599E-03     67.0353E-03    -116.058E+06    -260.673E+06    -88.7520E+06     550.968E+03    -232.637E-03     464.263E-03    -231.625E-03     88.5153E-03    -233.811E-03     464.357E-03    -231.523E-03     77.5517E-03
            1600     2.14144E-03     66.9288E-03    -122.562E+06    -283.085E+06    -105.603E+06     461.213E+03    -232.322E-03     463.951E-03    -231.629E-03     66.7171E-03    -232.986E-03     463.481E-03    -231.569E-03     58.6258E-03
            1601     1.42749E-03     66.8533E-03    -127.551E+06    -301.609E+06    -119.602E+06     261.521E+03    -232.110E-03     463.668E-03    -231.558E-03     45.2450E-03    -232.420E-03     462.802E-03    -231.534E-03     39.8501E-03
            1602     714.872E-06     66.8054E-03    -130.496E+06    -311.815E+06    -127.839E+06     36.5951E+03    -231.886E-03     463.108E-03    -231.222E-03     24.9822E-03    -231.993E-03     462.016E-03    -231.220E-03     22.0649E-03
            1603     13.5720E-03     69.4431E-03    -4.30307E+06     68.5839E+06     83.7508E+06     148.667E+03    -228.310E-03     459.661E-03    -231.351E-03     115.289E-03    -235.173E-03     466.508E-03    -231.025E-03     87.9312E-03
            1604     12.8575E-03     69.2268E-03    -9.01775E+06     67.4219E+06     84.1374E+06     277.364E+03    -228.396E-03     459.769E-03    -231.373E-03     181.019E-03    -239.761E-03     471.098E-03    -231.037E-03     144.733E-03
            1605     12.1444E-03     68.9953E-03    -14.3179E+06     60.2443E+06      82.823E+06    -16.8665E+03    -229.211E-03     460.605E-03    -231.394E-03     203.198E-03    -242.418E-03     473.735E-03    -231.047E-03     164.249E-03
            1606     11.4289E-03     68.7124E-03    -20.9028E+06     54.1287E+06     81.7200E+06    -382.124E+03    -230.995E-03     462.408E-03    -231.413E-03     233.769E-03    -246.662E-03     477.956E-03    -231.053E-03     191.221E-03
            1607     10.7153E-03     68.3942E-03    -27.8611E+06     47.1554E+06     77.7832E+06    -451.139E+03    -232.825E-03     464.243E-03    -231.418E-03     253.053E-03    -249.554E-03     480.815E-03    -231.057E-03     208.823E-03
            1608     9.99939E-03     68.0574E-03    -34.7338E+06     39.1958E+06     68.0452E+06    -269.456E+03    -234.459E-03     465.866E-03    -231.407E-03     262.097E-03    -251.024E-03     482.249E-03    -231.073E-03     217.747E-03
            1609     9.28701E-03     67.7096E-03    -42.1868E+06     29.3216E+06     55.9064E+06     687.569E+03    -235.661E-03     467.058E-03    -231.398E-03     260.367E-03    -250.926E-03     482.116E-03    -231.099E-03     217.563E-03
            1610     8.57032E-03     67.3737E-03    -50.4555E+06     16.6607E+06     43.6087E+06     1.30169E+06    -236.183E-03     467.583E-03    -231.401E-03     249.294E-03    -249.400E-03     480.554E-03    -231.134E-03     209.425E-03
            1611     7.85739E-03     67.0536E-03    -59.0372E+06     4.37544E+06     33.1987E+06     1.34981E+06    -236.235E-03     467.655E-03    -231.419E-03     232.856E-03    -247.199E-03     478.328E-03    -231.174E-03     196.668E-03
            1612     7.14191E-03     66.7576E-03    -67.8576E+06    -29.3963E+06     19.0764E+06     1.48614E+06    -235.859E-03     467.323E-03    -231.465E-03     214.189E-03    -244.664E-03     475.728E-03    -231.228E-03     181.990E-03
            1613     6.42718E-03     66.4866E-03    -76.9433E+06    -83.6658E+06    -306.259E+03     1.28322E+06    -235.523E-03     467.052E-03    -231.529E-03     194.514E-03    -242.393E-03     473.353E-03    -231.298E-03     166.284E-03
            1614     5.71267E-03     66.2408E-03    -85.4261E+06    -129.030E+06    -18.5110E+06     1.03125E+06    -235.326E-03     466.896E-03    -231.570E-03     173.777E-03    -240.547E-03     471.409E-03    -231.351E-03     149.371E-03
            1615     4.99853E-03     66.0207E-03    -93.3553E+06    -167.596E+06    -35.8438E+06     952.971E+03    -234.854E-03     466.427E-03    -231.573E-03     152.766E-03    -238.708E-03     469.459E-03    -231.374E-03     132.022E-03
            1616     4.28448E-03     65.8287E-03    -101.349E+06    -203.566E+06    -53.2768E+06     838.129E+03    -234.028E-03     465.596E-03    -231.568E-03     131.515E-03    -236.772E-03     467.412E-03    -231.392E-03     114.247E-03
            1617     3.57065E-03     65.6654E-03    -109.108E+06    -233.899E+06    -71.1882E+06     676.508E+03    -233.369E-03     464.926E-03    -231.558E-03     110.071E-03    -235.230E-03     465.776E-03    -231.416E-03     96.0479E-03
            1618     2.85622E-03     65.5306E-03    -116.200E+06    -260.074E+06    -88.6310E+06     433.588E+03    -232.806E-03     464.337E-03    -231.530E-03     88.3719E-03    -233.982E-03     464.433E-03    -231.428E-03     77.4036E-03
            1619     2.14235E-03     65.4243E-03    -122.057E+06    -282.342E+06    -104.994E+06     240.757E+03    -232.282E-03     463.764E-03    -231.482E-03     66.5659E-03    -232.944E-03     463.294E-03    -231.420E-03     58.4774E-03
            1620     1.42843E-03     65.3474E-03    -126.672E+06    -300.678E+06    -118.894E+06     255.833E+03    -231.920E-03     463.315E-03    -231.396E-03     44.6620E-03    -232.226E-03     462.450E-03    -231.370E-03     39.2851E-03
            1621     713.460E-06     65.3009E-03    -129.791E+06    -311.708E+06    -128.169E+06     133.493E+03    -230.956E-03     462.777E-03    -231.821E-03     24.3736E-03    -231.057E-03     461.683E-03    -231.822E-03     21.4635E-03
            1622     13.5716E-03     67.9384E-03    -4.43112E+06     68.5241E+06     83.6317E+06    -8.21343E+03    -228.481E-03     459.836E-03    -231.355E-03     113.566E-03    -235.287E-03     466.627E-03    -231.030E-03     86.2458E-03
            1623     12.8581E-03     67.7186E-03    -8.97099E+06     67.8537E+06     83.9836E+06    -474.507E+03    -228.278E-03     459.647E-03    -231.369E-03     179.314E-03    -239.586E-03     470.920E-03    -231.034E-03     143.059E-03
            1624     12.1432E-03     67.4904E-03    -14.8311E+06     60.3322E+06     82.7356E+06     234.553E+03    -229.417E-03     460.802E-03    -231.385E-03     203.411E-03    -242.641E-03     473.947E-03    -231.037E-03     164.420E-03
            1625     11.4300E-03     67.2061E-03    -21.0911E+06     54.4178E+06     81.7863E+06     526.999E+03    -230.949E-03     462.348E-03    -231.399E-03     233.874E-03    -246.612E-03     477.892E-03    -231.039E-03     191.363E-03
            1626     10.7143E-03     66.8906E-03    -28.2303E+06     48.7586E+06     77.5794E+06     25.6310E+03    -232.575E-03     463.985E-03    -231.410E-03     252.647E-03    -249.279E-03     480.537E-03    -231.052E-03     208.493E-03
            1627     10.0014E-03     66.5506E-03    -36.3391E+06     38.3727E+06     66.5305E+06    -464.773E+03    -234.308E-03     465.719E-03    -231.410E-03     262.168E-03    -250.868E-03     482.093E-03    -231.081E-03     217.857E-03
            1628     9.28470E-03     66.2063E-03    -44.4559E+06     26.4105E+06     53.7444E+06     38.3219E+03    -235.592E-03     467.005E-03    -231.413E-03     260.518E-03    -250.856E-03     482.049E-03    -231.118E-03     217.735E-03
            1629     8.57171E-03     65.8677E-03    -51.8967E+06     16.1727E+06     42.5825E+06     915.770E+03    -236.183E-03     467.606E-03    -231.423E-03     249.327E-03    -249.402E-03     480.574E-03    -231.158E-03     209.457E-03
            1630     7.85596E-03     65.5488E-03    -60.1507E+06     4.52036E+06     32.6171E+06     1.39829E+06    -236.067E-03     467.520E-03    -231.452E-03     232.792E-03    -247.028E-03     478.188E-03    -231.209E-03     196.642E-03
            1631     7.14169E-03     65.2533E-03    -68.7538E+06    -29.3273E+06     18.7668E+06     1.37846E+06    -235.890E-03     467.396E-03    -231.506E-03     213.926E-03    -244.693E-03     475.797E-03    -231.270E-03     181.721E-03
            1632     6.42694E-03     64.9817E-03    -76.9709E+06    -82.8002E+06    -64.9129E+03     1.02460E+06    -235.914E-03     467.459E-03    -231.545E-03     194.031E-03    -242.781E-03     473.759E-03    -231.314E-03     165.743E-03
            1633     5.71311E-03     64.7349E-03    -85.0679E+06    -128.411E+06    -18.0862E+06     670.495E+03    -235.573E-03     467.117E-03    -231.544E-03     173.527E-03    -240.791E-03     471.629E-03    -231.325E-03     149.084E-03
            1634     4.99922E-03     64.5158E-03    -93.1192E+06    -167.358E+06    -35.6533E+06     625.932E+03    -234.795E-03     466.322E-03    -231.527E-03     152.608E-03    -238.647E-03     469.353E-03    -231.328E-03     131.866E-03
            1635     4.28479E-03     64.3241E-03    -100.872E+06    -202.919E+06    -52.9315E+06     608.425E+03    -233.963E-03     465.486E-03    -231.523E-03     131.416E-03    -236.703E-03     467.301E-03    -231.347E-03     114.158E-03
            1636     3.57001E-03     64.1606E-03    -108.377E+06    -233.125E+06    -70.4540E+06     429.375E+03    -233.359E-03     464.871E-03    -231.512E-03     110.221E-03    -235.221E-03     465.726E-03    -231.369E-03     96.1887E-03
            1637     2.85658E-03     64.0247E-03    -115.504E+06    -259.615E+06    -88.1652E+06     276.210E+03    -232.907E-03     464.368E-03    -231.462E-03     88.6037E-03    -234.083E-03     464.469E-03    -231.359E-03     77.6192E-03
            1638     2.14253E-03     63.9204E-03    -121.833E+06    -282.062E+06    -104.889E+06     5.08545E+03    -232.332E-03     463.700E-03    -231.368E-03     66.9912E-03    -232.997E-03     463.236E-03    -231.307E-03     58.8833E-03
            1639     1.42842E-03     63.8420E-03    -126.861E+06    -300.327E+06    -118.934E+06     203.186E+03    -231.699E-03     462.988E-03    -231.289E-03     45.0171E-03    -232.008E-03     462.125E-03    -231.264E-03     39.6581E-03
            1640     715.015E-06     63.7986E-03    -129.022E+06    -310.733E+06    -127.353E+06     497.423E+03    -231.050E-03     462.631E-03    -231.581E-03     24.1134E-03    -231.148E-03     461.539E-03    -231.580E-03     21.2136E-03
            1641     13.5751E-03     66.4315E-03    -4.71403E+06     68.2711E+06     83.9536E+06    -500.276E+03    -228.538E-03     459.876E-03    -231.338E-03     114.018E-03    -235.375E-03     466.695E-03    -231.010E-03     86.6502E-03
            1642     12.8588E-03     66.2177E-03    -8.72819E+06     67.9183E+06     84.6025E+06     748.355E+03    -228.228E-03     459.586E-03    -231.357E-03     180.830E-03    -239.560E-03     470.882E-03    -231.020E-03     144.653E-03
            1643     12.1440E-03     65.9827E-03    -14.7907E+06     59.4481E+06     82.4453E+06     1.14186E+06    -229.443E-03     460.819E-03    -231.376E-03     203.371E-03    -242.639E-03     473.935E-03    -231.028E-03     164.450E-03
            1644     11.4291E-03     65.7016E-03    -21.6295E+06     54.8132E+06     81.6235E+06     769.339E+03    -230.741E-03     462.136E-03    -231.395E-03     233.473E-03    -246.383E-03     477.658E-03    -231.035E-03     191.025E-03
            1645     10.7160E-03     65.3844E-03    -28.5961E+06     50.3914E+06     78.0701E+06     711.416E+03    -232.430E-03     463.850E-03    -231.420E-03     253.095E-03    -249.135E-03     480.406E-03    -231.061E-03     209.010E-03
            1646     9.99907E-03     65.0474E-03    -35.8714E+06     39.1625E+06     66.9210E+06     931.335E+03    -234.320E-03     465.750E-03    -231.430E-03     262.375E-03    -250.872E-03     482.120E-03    -231.100E-03     218.110E-03
            1647     9.28615E-03     64.7001E-03    -43.4960E+06     25.7382E+06     53.7572E+06     1.03578E+06    -235.669E-03     467.100E-03    -231.431E-03     260.351E-03    -250.919E-03     482.132E-03    -231.137E-03     217.575E-03
            1648     8.57039E-03     64.3632E-03    -51.6409E+06     15.4385E+06     42.5431E+06     1.23397E+06    -236.078E-03     467.522E-03    -231.444E-03     249.133E-03    -249.288E-03     480.480E-03    -231.179E-03     209.286E-03
            1649     7.85644E-03     64.0441E-03    -59.6542E+06     5.39439E+06     33.3139E+06     1.27951E+06    -236.134E-03     467.609E-03    -231.474E-03     232.487E-03    -247.092E-03     478.277E-03    -231.229E-03     196.317E-03
            1650     7.14133E-03     63.7485E-03    -67.9889E+06    -29.2194E+06     19.2588E+06     752.387E+03    -236.320E-03     467.820E-03    -231.499E-03     213.531E-03    -245.115E-03     476.214E-03    -231.262E-03     181.255E-03
            1651     6.42771E-03     63.4756E-03    -76.1735E+06    -82.2780E+06     669.704E+03     524.125E+03    -236.077E-03     467.577E-03    -231.500E-03     193.612E-03    -242.932E-03     473.867E-03    -231.267E-03     165.301E-03
            1652     5.71336E-03     63.2302E-03    -84.0627E+06    -127.807E+06    -17.1478E+06     616.422E+03    -235.344E-03     466.838E-03    -231.494E-03     173.350E-03    -240.555E-03     471.347E-03    -231.273E-03     148.933E-03
            1653     4.99887E-03     63.0103E-03    -92.1643E+06    -167.065E+06    -35.0097E+06     416.694E+03    -234.660E-03     466.154E-03    -231.494E-03     152.608E-03    -238.509E-03     469.184E-03    -231.293E-03     131.879E-03
            1654     4.28477E-03     62.8199E-03    -100.172E+06    -202.417E+06    -52.4693E+06     209.706E+03    -234.099E-03     465.580E-03    -231.481E-03     131.437E-03    -236.838E-03     467.397E-03    -231.305E-03     114.160E-03
            1655     3.57123E-03     62.6554E-03    -107.959E+06    -233.018E+06    -69.9493E+06     185.943E+03    -233.348E-03     464.800E-03    -231.452E-03     110.012E-03    -235.206E-03     465.650E-03    -231.307E-03     95.9896E-03
            1656     2.85618E-03     62.5210E-03    -115.156E+06    -259.092E+06    -87.4957E+06     317.456E+03    -232.603E-03     464.031E-03    -231.429E-03     88.6013E-03    -233.777E-03     464.131E-03    -231.323E-03     77.6358E-03
            1657     2.14247E-03     62.4137E-03    -121.625E+06    -281.779E+06    -104.631E+06     616.898E+03    -231.997E-03     463.431E-03    -231.435E-03     66.9789E-03    -232.662E-03     462.967E-03    -231.373E-03     58.8994E-03
            1658     1.42825E-03     62.3404E-03    -126.213E+06    -300.154E+06    -118.699E+06     335.287E+03    -231.626E-03     463.121E-03    -231.495E-03     45.6730E-03    -231.934E-03     462.260E-03    -231.470E-03     40.2920E-03
            1659     713.205E-06     62.2913E-03    -129.420E+06    -310.608E+06    -127.214E+06    -359.625E+03    -232.260E-03     463.199E-03    -230.939E-03     24.3346E-03    -232.364E-03     462.111E-03    -230.937E-03     21.3991E-03
            1660     13.5704E-03     64.9301E-03    -4.45470E+06     68.2485E+06     84.3970E+06    -49.5922E+03    -228.392E-03     459.748E-03    -231.356E-03     114.026E-03    -235.224E-03     466.561E-03    -231.027E-03     86.6389E-03
            1661     12.8570E-03     64.7075E-03    -10.9280E+06     65.6137E+06     82.8930E+06    -84.2044E+03    -228.673E-03     460.034E-03    -231.361E-03     180.370E-03    -240.010E-03     471.325E-03    -231.026E-03     144.084E-03
            1662     12.1442E-03     64.4787E-03    -15.9623E+06     58.2301E+06     81.7383E+06     372.150E+03    -229.169E-03     460.545E-03    -231.376E-03     203.439E-03    -242.359E-03     473.648E-03    -231.029E-03     164.578E-03
            1663     11.4301E-03     64.1957E-03    -21.4636E+06     55.0278E+06     81.6252E+06     1.13271E+06    -230.501E-03     461.916E-03    -231.415E-03     233.959E-03    -246.132E-03     477.429E-03    -231.055E-03     191.611E-03
            1664     10.7132E-03     63.8811E-03    -28.2130E+06     50.8551E+06     78.1549E+06     1.33937E+06    -232.574E-03     464.021E-03    -231.447E-03     253.049E-03    -249.277E-03     480.578E-03    -231.089E-03     208.949E-03
            1665     10.0007E-03     63.5405E-03    -35.7125E+06     39.1024E+06     67.2715E+06     1.43493E+06    -234.537E-03     465.984E-03    -231.447E-03     262.077E-03    -251.081E-03     482.344E-03    -231.115E-03     217.777E-03
            1666     9.28491E-03     63.1962E-03    -43.3115E+06     26.1036E+06     54.7852E+06     1.64314E+06    -235.673E-03     467.113E-03    -231.440E-03     260.040E-03    -250.913E-03     482.133E-03    -231.141E-03     217.276E-03
            1667     8.57113E-03     62.8577E-03    -50.5554E+06     16.2938E+06     43.8919E+06     1.21278E+06    -236.161E-03     467.604E-03    -231.444E-03     248.652E-03    -249.358E-03     480.553E-03    -231.175E-03     208.792E-03
            1668     7.85580E-03     62.5400E-03    -58.1123E+06     5.45623E+06     34.4513E+06     793.595E+03    -236.483E-03     467.931E-03    -231.448E-03     232.130E-03    -247.430E-03     478.591E-03    -231.199E-03     195.895E-03
            1669     7.14241E-03     62.2415E-03    -66.0987E+06    -28.0896E+06     20.7932E+06     909.154E+03    -236.393E-03     467.839E-03    -231.445E-03     213.288E-03    -245.175E-03     476.225E-03    -231.205E-03     181.013E-03
            1670     6.42805E-03     61.9712E-03    -74.6358E+06    -81.7564E+06     1.53476E+06     621.510E+03    -235.858E-03     467.304E-03    -231.446E-03     193.600E-03    -242.704E-03     473.590E-03    -231.211E-03     165.325E-03
            1671     5.71377E-03     61.7249E-03    -83.2004E+06    -127.804E+06    -16.4960E+06     471.240E+03    -235.229E-03     466.684E-03    -231.456E-03     173.406E-03    -240.437E-03     471.192E-03    -231.232E-03     149.005E-03
            1672     4.99931E-03     61.5068E-03    -91.4742E+06    -166.452E+06    -34.0752E+06     560.639E+03    -234.665E-03     466.123E-03    -231.459E-03     152.580E-03    -238.510E-03     469.152E-03    -231.255E-03     131.858E-03
            1673     4.28508E-03     61.3136E-03    -99.7204E+06    -202.050E+06    -51.8912E+06     468.731E+03    -234.058E-03     465.500E-03    -231.442E-03     131.376E-03    -236.794E-03     467.315E-03    -231.264E-03     114.114E-03
            1674     3.57063E-03     61.1514E-03    -107.632E+06    -232.729E+06    -69.6657E+06     373.909E+03    -233.288E-03     464.701E-03    -231.413E-03     110.055E-03    -235.143E-03     465.550E-03    -231.268E-03     96.0433E-03
            1675     2.85718E-03     61.0162E-03    -114.937E+06    -259.145E+06    -87.2189E+06     357.034E+03    -232.412E-03     463.828E-03    -231.417E-03     88.7219E-03    -233.587E-03     463.928E-03    -231.310E-03     77.7641E-03
            1676     2.14188E-03     60.9109E-03    -120.960E+06    -281.360E+06    -103.681E+06     381.504E+03    -231.887E-03     463.357E-03    -231.470E-03     66.7397E-03    -232.548E-03     462.891E-03    -231.405E-03     58.6604E-03
            1677     1.42723E-03     60.8346E-03    -125.849E+06    -299.486E+06    -117.657E+06     273.162E+03    -231.737E-03     463.265E-03    -231.528E-03     44.8300E-03    -232.042E-03     462.401E-03    -231.500E-03     39.4685E-03
            1678     714.247E-06     60.7866E-03    -129.387E+06    -310.104E+06    -127.152E+06     215.919E+03    -232.002E-03     463.201E-03    -231.199E-03     24.4293E-03    -232.104E-03     462.112E-03    -231.197E-03     21.5719E-03
            1679     13.5738E-03     63.4189E-03    -4.17892E+06     68.2850E+06     84.8240E+06     787.574E+03    -228.690E-03     460.055E-03    -231.365E-03     114.206E-03    -235.526E-03     466.873E-03    -231.034E-03     86.8151E-03
            1680     12.8603E-03     63.2055E-03    -9.36763E+06     66.0493E+06     83.8850E+06     813.889E+03    -228.337E-03     459.710E-03    -231.373E-03     180.538E-03    -239.670E-03     471.001E-03    -231.036E-03     144.300E-03
            1681     12.1435E-03     62.9723E-03    -15.8723E+06     58.2895E+06     81.6152E+06     362.452E+03    -228.972E-03     460.375E-03    -231.403E-03     203.736E-03    -242.165E-03     473.482E-03    -231.056E-03     164.906E-03
            1682     11.4275E-03     62.6922E-03    -21.8312E+06     53.7172E+06     81.2077E+06     8.49248E+03    -230.762E-03     462.203E-03    -231.441E-03     233.612E-03    -246.396E-03     477.715E-03    -231.081E-03     191.178E-03
            1683     10.7155E-03     62.3736E-03    -27.6324E+06     49.4118E+06     78.2204E+06     1.13615E+06    -232.800E-03     464.255E-03    -231.455E-03     252.543E-03    -249.489E-03     480.794E-03    -231.095E-03     208.383E-03
            1684     9.99929E-03     62.0371E-03    -34.4400E+06     39.0594E+06     67.9980E+06     2.11363E+06    -234.532E-03     465.975E-03    -231.443E-03     261.807E-03    -251.063E-03     482.326E-03    -231.110E-03     217.511E-03
            1685     9.28595E-03     61.6893E-03    -41.5596E+06     27.4679E+06     56.2288E+06     1.65874E+06    -235.816E-03     467.244E-03    -231.428E-03     259.737E-03    -251.051E-03     482.267E-03    -231.127E-03     216.934E-03
            1686     8.57077E-03     61.3545E-03    -48.8221E+06     17.4383E+06     45.2045E+06     1.00905E+06    -236.547E-03     467.950E-03    -231.404E-03     248.301E-03    -249.734E-03     480.895E-03    -231.132E-03     208.368E-03
            1687     7.85749E-03     61.0327E-03    -56.7934E+06     5.42276E+06     35.1772E+06     971.716E+03    -236.557E-03     467.936E-03    -231.380E-03     231.941E-03    -247.486E-03     478.581E-03    -231.129E-03     195.719E-03
            1688     7.14269E-03     60.7379E-03    -65.3632E+06    -27.6654E+06     21.6081E+06     1.10024E+06    -236.064E-03     467.448E-03    -231.384E-03     213.206E-03    -244.832E-03     475.824E-03    -231.141E-03     181.000E-03
            1689     6.42803E-03     60.4655E-03    -73.9107E+06    -80.6509E+06     2.48808E+06     1.18524E+06    -235.626E-03     467.035E-03    -231.409E-03     193.533E-03    -242.462E-03     473.315E-03    -231.172E-03     165.320E-03
            1690     5.71350E-03     60.2210E-03    -82.7427E+06    -127.466E+06    -16.3180E+06     792.097E+03    -235.250E-03     466.674E-03    -231.424E-03     173.326E-03    -240.449E-03     471.174E-03    -231.201E-03     148.945E-03
            1691     4.99949E-03     60.0008E-03    -91.3138E+06    -166.588E+06    -33.8524E+06      598.13E+03    -234.652E-03     466.076E-03    -231.424E-03     152.705E-03    -238.499E-03     469.105E-03    -231.219E-03     131.984E-03
            1692     4.28531E-03     59.8102E-03    -99.3007E+06    -201.403E+06    -51.1894E+06     755.719E+03    -233.881E-03     465.302E-03    -231.422E-03     131.568E-03    -236.619E-03     467.121E-03    -231.242E-03     114.322E-03
            1693     3.57109E-03     59.6462E-03    -107.030E+06    -232.185E+06    -69.1583E+06     601.456E+03    -233.209E-03     464.623E-03    -231.414E-03     110.015E-03    -235.063E-03     465.474E-03    -231.268E-03     96.0119E-03
            1694     2.85603E-03     59.5125E-03    -114.283E+06    -258.727E+06    -86.7498E+06     326.841E+03    -232.666E-03     464.053E-03    -231.387E-03     88.2338E-03    -233.835E-03     464.149E-03    -231.280E-03     77.2728E-03
            1695     2.14247E-03     59.4066E-03    -120.701E+06    -281.347E+06    -103.382E+06     31.7347E+03    -232.217E-03     463.537E-03    -231.320E-03     66.4770E-03    -232.876E-03     463.068E-03    -231.254E-03     58.3917E-03
            1696     1.42930E-03     59.3290E-03    -125.542E+06    -299.037E+06    -117.242E+06     183.394E+03    -231.738E-03     462.954E-03    -231.216E-03     44.5380E-03    -232.040E-03     462.089E-03    -231.187E-03     39.2078E-03
            1697     714.085E-06     59.2839E-03    -128.038E+06    -308.993E+06    -126.088E+06     250.047E+03    -230.793E-03     462.418E-03    -231.625E-03     24.4244E-03    -230.889E-03     461.329E-03    -231.622E-03     21.5953E-03
            1698     13.5718E-03     61.9162E-03    -4.37959E+06     66.4600E+06     83.1921E+06     424.390E+03    -228.171E-03     459.542E-03    -231.371E-03     114.583E-03    -234.992E-03     466.342E-03    -231.045E-03     87.3255E-03
            1699     12.8554E-03     61.6972E-03    -8.84624E+06     65.4964E+06     83.7508E+06     1.07128E+06    -228.216E-03     459.620E-03    -231.404E-03     180.539E-03    -239.542E-03     470.904E-03    -231.067E-03     144.348E-03
            1700     12.1429E-03     61.4688E-03    -13.3445E+06     60.6074E+06     83.3683E+06     1.55360E+06    -229.393E-03     460.820E-03    -231.426E-03     203.035E-03    -242.588E-03     473.940E-03    -231.078E-03     164.117E-03
            1701     11.4302E-03     61.1849E-03    -19.6564E+06     55.0596E+06     82.3138E+06     713.432E+03    -230.971E-03     462.412E-03    -231.441E-03     233.560E-03    -246.607E-03     477.936E-03    -231.081E-03     191.066E-03
            1702     10.7137E-03     60.8698E-03    -26.7812E+06     46.1860E+06     78.0436E+06     404.396E+03    -232.890E-03     464.338E-03    -231.447E-03     252.505E-03    -249.564E-03     480.854E-03    -231.085E-03     208.327E-03
            1703     10.0008E-03     60.5304E-03    -33.2876E+06     37.6771E+06     68.6592E+06     1.48516E+06    -234.718E-03     466.143E-03    -231.425E-03     261.517E-03    -251.246E-03     482.487E-03    -231.088E-03     217.162E-03
            1704     9.28528E-03     60.1858E-03    -40.1497E+06     29.6876E+06     57.1357E+06     1.91184E+06    -236.065E-03     467.448E-03    -231.382E-03     259.366E-03    -251.288E-03     482.468E-03    -231.082E-03     216.524E-03
            1705     8.57219E-03     59.8465E-03    -48.0484E+06     18.3847E+06     45.4670E+06     1.54139E+06    -236.533E-03     467.875E-03    -231.342E-03     248.182E-03    -249.703E-03     480.808E-03    -231.071E-03     208.281E-03
            1706     7.85745E-03     59.5293E-03    -56.3882E+06     5.92289E+06     35.6275E+06     1.37553E+06    -236.341E-03     467.668E-03    -231.327E-03     232.168E-03    -247.271E-03     478.315E-03    -231.075E-03     195.991E-03
            1707     7.14297E-03     59.2322E-03    -65.0946E+06    -27.4704E+06     21.8811E+06     1.35364E+06    -236.013E-03     467.355E-03    -231.342E-03     213.278E-03    -244.777E-03     475.727E-03    -231.098E-03     181.100E-03
            1708     6.42854E-03     58.9622E-03    -74.0091E+06    -80.2406E+06     2.81909E+06     1.46170E+06    -235.666E-03     467.028E-03    -231.362E-03     193.327E-03    -242.492E-03     473.298E-03    -231.124E-03     165.139E-03
            1709     5.71420E-03     58.7154E-03    -82.4458E+06    -126.095E+06    -15.5397E+06     1.36692E+06    -235.150E-03     466.524E-03    -231.374E-03     173.130E-03    -240.343E-03     471.022E-03    -231.150E-03     148.789E-03
            1710     4.99961E-03     58.4971E-03    -90.6822E+06    -165.727E+06    -33.6022E+06     858.172E+03    -234.476E-03     465.858E-03    -231.382E-03     152.352E-03    -238.311E-03     468.880E-03    -231.178E-03     131.671E-03
            1711     4.28496E-03     58.3050E-03    -98.8163E+06    -201.306E+06    -51.0282E+06     472.125E+03    -233.816E-03     465.205E-03    -231.389E-03     131.248E-03    -236.548E-03     467.019E-03    -231.209E-03     114.008E-03
            1712     3.57058E-03     58.1421E-03    -106.472E+06    -231.659E+06    -68.4344E+06     519.905E+03    -233.296E-03     464.664E-03    -231.368E-03     109.661E-03    -235.145E-03     465.511E-03    -231.220E-03     95.6647E-03
            1713     2.85731E-03     58.0074E-03    -113.739E+06    -258.105E+06    -86.2096E+06     392.742E+03    -232.812E-03     464.105E-03    -231.293E-03     88.0380E-03    -233.977E-03     464.200E-03    -231.185E-03     77.0827E-03
            1714     2.14328E-03     57.9017E-03    -120.038E+06    -280.775E+06    -102.684E+06     165.960E+03    -232.087E-03     463.284E-03    -231.198E-03     66.6891E-03    -232.746E-03     462.818E-03    -231.130E-03     58.5974E-03
            1715     1.42811E-03     57.8261E-03    -124.822E+06    -298.742E+06    -116.599E+06     179.558E+03    -231.440E-03     462.602E-03    -231.161E-03     45.3599E-03    -231.747E-03     461.742E-03    -231.130E-03     39.9852E-03
            1716     714.793E-06     57.7794E-03    -128.447E+06    -309.155E+06    -126.349E+06     535.465E+03    -231.045E-03     462.440E-03    -231.395E-03     24.8104E-03    -231.147E-03     461.355E-03    -231.392E-03     21.9302E-03
            1717     13.5723E-03     60.4126E-03    -4.53742E+06     66.0891E+06     81.8040E+06     598.276E+03    -228.754E-03     460.145E-03    -231.391E-03     114.502E-03    -235.573E-03     466.946E-03    -231.072E-03     87.1760E-03
            1718     12.8592E-03     60.1922E-03    -9.01022E+06     65.5819E+06     82.8039E+06     79.2503E+03    -228.471E-03     459.872E-03    -231.401E-03     179.682E-03    -239.766E-03     471.127E-03    -231.069E-03     143.457E-03
            1719     12.1439E-03     59.9621E-03    -14.3003E+06     59.7858E+06     82.2399E+06    -141.242E+03    -229.405E-03     460.820E-03    -231.415E-03     202.842E-03    -242.571E-03     473.909E-03    -231.070E-03     163.926E-03
            1720     11.4277E-03     59.6800E-03    -19.5822E+06     55.2400E+06     82.2498E+06     683.200E+03    -231.091E-03     462.519E-03    -231.428E-03     233.264E-03    -246.701E-03     478.017E-03    -231.068E-03     190.787E-03
            1721     10.7154E-03     59.3631E-03    -25.9319E+06     46.0110E+06     78.0757E+06     1.06596E+06    -232.986E-03     464.409E-03    -231.422E-03     252.008E-03    -249.646E-03     480.914E-03    -231.061E-03     207.813E-03
            1722     9.99987E-03     59.0257E-03    -33.2537E+06     36.3119E+06     68.1249E+06     838.037E+03    -234.935E-03     466.318E-03    -231.383E-03     261.306E-03    -251.453E-03     482.649E-03    -231.047E-03     216.901E-03
            1723     9.28735E-03     58.6787E-03    -40.4662E+06     29.3167E+06     57.1439E+06     1.10828E+06    -235.990E-03     467.324E-03    -231.335E-03     259.486E-03    -251.203E-03     482.332E-03    -231.033E-03     216.670E-03
            1724     8.57213E-03     58.3430E-03    -47.8948E+06     18.8704E+06     45.9362E+06     1.81805E+06    -236.301E-03     467.609E-03    -231.308E-03     248.593E-03    -249.473E-03     480.544E-03    -231.036E-03     208.755E-03
            1725     7.85754E-03     58.0236E-03    -56.1631E+06     6.25822E+06     35.8738E+06     1.82009E+06    -236.369E-03     467.670E-03    -231.301E-03     232.096E-03    -247.289E-03     478.308E-03    -231.049E-03     195.941E-03
            1726     7.14311E-03     57.7279E-03    -65.1083E+06    -26.8007E+06     22.0901E+06     1.93065E+06    -236.149E-03     467.451E-03    -231.303E-03     212.980E-03    -244.903E-03     475.815E-03    -231.059E-03     180.814E-03
            1727     6.42883E-03     57.4568E-03    -73.8419E+06    -79.2556E+06     3.11765E+06     1.61039E+06    -235.743E-03     467.047E-03    -231.304E-03     193.181E-03    -242.567E-03     473.318E-03    -231.066E-03     164.990E-03
            1728     5.71437E-03     57.2117E-03    -82.0571E+06    -125.097E+06    -14.8938E+06     1.15906E+06    -235.124E-03     466.429E-03    -231.305E-03     172.953E-03    -240.315E-03     470.928E-03    -231.079E-03     148.612E-03
            1729     4.99999E-03     56.9924E-03    -90.2709E+06    -164.235E+06    -32.7552E+06     1.12311E+06    -234.464E-03     465.766E-03    -231.302E-03     152.090E-03    -238.294E-03     468.788E-03    -231.097E-03     131.428E-03
            1730     4.28586E-03     56.8014E-03    -98.5513E+06    -200.468E+06    -50.8536E+06     710.868E+03    -233.850E-03     465.137E-03    -231.287E-03     130.881E-03    -236.574E-03     466.947E-03    -231.108E-03     113.663E-03
            1731     3.57172E-03     56.6373E-03    -106.404E+06    -231.436E+06    -68.4840E+06     422.009E+03    -233.129E-03     464.388E-03    -231.258E-03     109.558E-03    -234.974E-03     465.232E-03    -231.111E-03     95.5855E-03
            1732     2.85697E-03     56.5029E-03    -113.498E+06    -257.655E+06    -86.0877E+06     370.817E+03    -232.371E-03     463.610E-03    -231.239E-03     88.3278E-03    -233.538E-03     463.709E-03    -231.131E-03     77.3887E-03
            1733     2.14253E-03     56.3980E-03    -119.902E+06    -280.317E+06    -102.625E+06     444.420E+03    -231.705E-03     462.976E-03    -231.271E-03     66.8767E-03    -232.366E-03     462.513E-03    -231.204E-03     58.8045E-03
            1734     1.42869E-03     56.3229E-03    -124.981E+06    -298.604E+06    -116.707E+06     227.656E+03    -231.385E-03     462.768E-03    -231.383E-03     45.7001E-03    -231.693E-03     461.911E-03    -231.353E-03     40.3177E-03
            1735     713.197E-06     56.2749E-03    -127.874E+06    -308.409E+06    -125.693E+06    -24.2663E+03    -231.925E-03     463.035E-03    -231.111E-03     25.0871E-03    -232.028E-03     461.954E-03    -231.106E-03     22.1451E-03
            1736     13.5715E-03     58.9019E-03    -5.70418E+06     65.9468E+06     81.1825E+06    -186.041E+03    -228.876E-03     460.289E-03    -231.413E-03     114.793E-03    -235.707E-03     467.099E-03    -231.095E-03     87.3936E-03
            1737     12.8572E-03     58.6878E-03    -9.52353E+06     65.6609E+06     82.1664E+06     301.776E+03    -229.105E-03     460.509E-03    -231.404E-03     180.340E-03    -240.414E-03     471.779E-03    -231.074E-03     144.044E-03
            1738     12.1425E-03     58.4567E-03    -14.3201E+06     59.8958E+06     81.9060E+06    -22.5862E+03    -229.711E-03     461.104E-03    -231.392E-03     202.672E-03    -242.883E-03     474.200E-03    -231.049E-03     163.698E-03
            1739     11.4308E-03     58.1733E-03    -20.8388E+06     53.5073E+06     80.9955E+06    -69.0614E+03    -231.087E-03     462.477E-03    -231.389E-03     232.655E-03    -246.693E-03     477.964E-03    -231.032E-03     190.139E-03
            1740     10.7146E-03     57.8591E-03    -27.5039E+06     45.5763E+06     76.8730E+06     318.263E+03    -233.034E-03     464.410E-03    -231.376E-03     252.008E-03    -249.696E-03     480.913E-03    -231.018E-03     207.791E-03
            1741     10.0019E-03     57.5184E-03    -34.4350E+06     37.1870E+06     67.0939E+06     121.501E+03    -234.678E-03     466.019E-03    -231.341E-03     261.431E-03    -251.179E-03     482.335E-03    -231.010E-03     217.109E-03
            1742     9.28617E-03     57.1748E-03    -41.7819E+06     27.1703E+06     55.6108E+06     35.8042E+03    -235.759E-03     467.073E-03    -231.314E-03     259.722E-03    -250.963E-03     482.064E-03    -231.015E-03     216.965E-03
            1743     8.57188E-03     56.8374E-03    -49.2001E+06     17.0702E+06     44.9735E+06     737.894E+03    -236.548E-03     467.836E-03    -231.288E-03     248.514E-03    -249.722E-03     480.766E-03    -231.017E-03     208.623E-03
            1744     7.85793E-03     56.5185E-03    -57.0188E+06     6.11155E+06     35.5070E+06     1.56603E+06    -236.570E-03     467.824E-03    -231.254E-03     231.434E-03    -247.474E-03     478.444E-03    -231.003E-03     195.266E-03
            1745     7.14373E-03     56.2231E-03    -65.2013E+06    -26.4868E+06     22.0511E+06     1.63135E+06    -236.097E-03     467.334E-03    -231.237E-03     212.466E-03    -244.835E-03     475.682E-03    -230.994E-03     180.321E-03
            1746     6.42923E-03     55.9523E-03    -73.5294E+06    -77.8127E+06     3.55717E+06     1.32767E+06    -235.698E-03     466.930E-03    -231.232E-03     192.904E-03    -242.516E-03     473.200E-03    -230.994E-03     164.725E-03
            1747     5.71505E-03     55.7072E-03    -82.1077E+06    -124.365E+06    -14.9428E+06     1.08582E+06    -235.172E-03     466.390E-03    -231.218E-03     172.559E-03    -240.353E-03     470.881E-03    -230.993E-03     148.236E-03
            1748     5.00058E-03     55.4887E-03    -90.3738E+06    -163.756E+06    -32.5210E+06     850.422E+03    -234.449E-03     465.649E-03    -231.199E-03     152.008E-03    -238.277E-03     468.669E-03    -230.993E-03     131.356E-03
            1749     4.28620E-03     55.2965E-03    -98.2604E+06    -199.292E+06    -50.1338E+06     909.567E+03    -233.632E-03     464.821E-03    -231.190E-03     131.155E-03    -236.359E-03     466.637E-03    -231.009E-03     113.965E-03
            1750     3.57176E-03     55.1341E-03    -106.072E+06    -230.771E+06    -68.2498E+06     736.953E+03    -232.827E-03     464.026E-03    -231.199E-03     110.030E-03    -234.674E-03     464.876E-03    -231.052E-03     96.0849E-03
            1751     2.85724E-03     54.9995E-03    -113.398E+06    -257.364E+06    -86.1183E+06     490.715E+03    -232.159E-03     463.393E-03    -231.233E-03     88.3060E-03    -233.326E-03     463.493E-03    -231.126E-03     77.3802E-03
            1752     2.14242E-03     54.8946E-03    -119.543E+06    -279.909E+06    -102.998E+06     318.717E+03    -231.843E-03     463.104E-03    -231.262E-03     66.2767E-03    -232.497E-03     462.639E-03    -231.197E-03     58.2080E-03
            1753     1.42736E-03     54.8184E-03    -124.073E+06    -298.070E+06    -116.514E+06    -42.6152E+03    -231.736E-03     462.947E-03    -231.211E-03     44.5628E-03    -232.035E-03     462.085E-03    -231.182E-03     39.2037E-03
            1754     714.519E-06     54.7700E-03    -126.521E+06    -308.168E+06    -125.013E+06    -397.479E+03    -231.500E-03     462.412E-03    -230.912E-03     24.3543E-03    -231.594E-03     461.326E-03    -230.907E-03     21.4644E-03
            1755     13.5707E-03     57.3970E-03    -4.46017E+06     66.6803E+06     82.2437E+06     521.333E+03    -228.788E-03     460.157E-03    -231.369E-03     112.704E-03    -235.527E-03     466.879E-03    -231.048E-03     85.4678E-03
            1756     12.8570E-03     57.1793E-03    -10.2691E+06     64.6487E+06     81.6370E+06    -1.00965E+06    -228.516E-03     459.879E-03    -231.363E-03     177.922E-03    -239.769E-03     471.089E-03    -231.034E-03     141.648E-03
            1757     12.1457E-03     56.9492E-03    -15.4831E+06     58.4642E+06     80.8563E+06    -789.643E+03    -229.573E-03     460.934E-03    -231.361E-03     202.367E-03    -242.766E-03     474.044E-03    -231.019E-03     163.314E-03
            1758     11.4287E-03     56.6699E-03    -20.8633E+06     53.4116E+06     80.6033E+06     447.204E+03    -231.130E-03     462.489E-03    -231.359E-03     233.252E-03    -246.743E-03     477.984E-03    -231.003E-03     190.739E-03
            1759     10.7164E-03     56.3508E-03    -27.3842E+06     46.3295E+06     76.7909E+06     84.1327E+03    -232.918E-03     464.271E-03    -231.353E-03     252.495E-03    -249.571E-03     480.768E-03    -230.996E-03     208.349E-03
            1760     10.0007E-03     56.0155E-03    -34.4073E+06     37.0794E+06     66.8913E+06    -469.537E+03    -234.619E-03     465.948E-03    -231.328E-03     261.551E-03    -251.115E-03     482.258E-03    -230.998E-03     217.256E-03
            1761     9.28665E-03     55.6690E-03    -41.5011E+06     26.1618E+06     54.9691E+06     187.876E+03    -236.155E-03     467.439E-03    -231.284E-03     259.274E-03    -251.346E-03     482.416E-03    -230.987E-03     216.450E-03
            1762     8.57277E-03     55.3321E-03    -49.3081E+06     16.1607E+06     44.0017E+06     476.002E+03    -236.737E-03     467.959E-03    -231.222E-03     247.618E-03    -249.877E-03     480.855E-03    -230.954E-03     207.711E-03
            1763     7.85875E-03     55.0127E-03    -57.2536E+06     5.17582E+06     34.9368E+06     796.869E+03    -236.384E-03     467.561E-03    -231.177E-03     230.944E-03    -247.264E-03     478.155E-03    -230.927E-03     194.822E-03
            1764     7.14433E-03     54.7193E-03    -65.4393E+06    -26.6330E+06     21.6585E+06     829.726E+03    -236.067E-03     467.226E-03    -231.160E-03     212.468E-03    -244.802E-03     475.572E-03    -230.918E-03     180.323E-03
            1765     6.42991E-03     54.4476E-03    -73.9347E+06    -77.1585E+06     3.43205E+06     830.023E+03    -235.708E-03     466.855E-03    -231.147E-03     192.804E-03    -242.520E-03     473.120E-03    -230.911E-03     164.641E-03
            1766     5.71541E-03     54.2031E-03    -82.1804E+06    -123.623E+06    -14.8954E+06     794.291E+03    -235.085E-03     466.213E-03    -231.128E-03     172.518E-03    -240.258E-03     470.699E-03    -230.904E-03     148.226E-03
            1767     5.00128E-03     53.9844E-03    -90.2181E+06    -163.619E+06    -32.7552E+06     471.448E+03    -234.318E-03     465.431E-03    -231.113E-03     152.057E-03    -238.144E-03     468.451E-03    -230.908E-03     131.420E-03
            1768     4.28648E-03     53.7939E-03    -98.1299E+06    -199.401E+06    -49.8795E+06     572.545E+03    -233.451E-03     464.568E-03    -231.118E-03     130.928E-03    -236.172E-03     466.378E-03    -230.936E-03     113.758E-03
            1769     3.57141E-03     53.6303E-03    -105.824E+06    -229.957E+06    -67.6785E+06     738.957E+03    -232.804E-03     463.929E-03    -231.125E-03     109.426E-03    -234.646E-03     464.775E-03    -230.977E-03     95.4905E-03
            1770     2.85695E-03     53.4958E-03    -113.065E+06    -256.596E+06    -85.6952E+06     523.933E+03    -232.380E-03     463.480E-03    -231.100E-03     87.5350E-03    -233.537E-03     463.573E-03    -230.992E-03     76.6314E-03
            1771     2.14305E-03     53.3907E-03    -119.186E+06    -279.239E+06    -102.325E+06     65.3935E+03    -232.087E-03     463.079E-03    -230.992E-03     65.9326E-03    -232.737E-03     462.612E-03    -230.926E-03     57.8695E-03
            1772     1.43027E-03     53.3135E-03    -124.193E+06    -297.711E+06    -116.291E+06     86.8086E+03    -231.660E-03     462.416E-03    -230.756E-03     44.4346E-03    -231.959E-03     461.555E-03    -230.726E-03     39.0880E-03
            1773     715.274E-06     53.2677E-03    -127.692E+06    -308.469E+06    -125.304E+06     426.782E+03    -230.691E-03     461.299E-03    -230.608E-03     23.8103E-03    -230.787E-03     460.211E-03    -230.602E-03     20.9796E-03
            1774     13.5766E-03     55.8934E-03    -4.06616E+06     67.5605E+06     83.4451E+06     273.529E+03    -229.257E-03     460.597E-03    -231.340E-03     114.208E-03    -236.078E-03     467.402E-03    -231.015E-03     86.8322E-03
            1775     12.8611E-03     55.6758E-03    -8.05285E+06     66.5267E+06     83.7545E+06     884.150E+03    -228.303E-03     459.641E-03    -231.338E-03     180.920E-03    -239.628E-03     470.931E-03    -231.004E-03     144.703E-03
            1776     12.1422E-03     55.4450E-03    -14.1543E+06     57.6926E+06     81.4216E+06     485.278E+03    -229.462E-03     460.815E-03    -231.353E-03     203.312E-03    -242.623E-03     473.895E-03    -231.009E-03     164.377E-03
            1777     11.4310E-03     55.1615E-03    -20.4367E+06     52.4181E+06     80.4022E+06    -139.565E+03    -231.164E-03     462.520E-03    -231.356E-03     232.948E-03    -246.729E-03     477.965E-03    -231.001E-03     190.496E-03
            1778     10.7148E-03     54.8480E-03    -26.6159E+06     47.2873E+06     76.9527E+06    -89.9971E+03    -232.995E-03     464.338E-03    -231.343E-03     252.099E-03    -249.625E-03     480.818E-03    -230.988E-03     207.950E-03
            1779     10.0011E-03     54.5084E-03    -33.6123E+06     36.8655E+06     66.8504E+06     245.333E+03    -235.115E-03     466.406E-03    -231.291E-03     260.746E-03    -251.592E-03     482.700E-03    -230.961E-03     216.349E-03
            1780     9.28758E-03     54.1637E-03    -41.3298E+06     25.2092E+06     54.8086E+06     495.660E+03    -236.384E-03     467.594E-03    -231.209E-03     258.663E-03    -251.559E-03     482.552E-03    -230.912E-03     215.802E-03
            1781     8.57391E-03     53.8257E-03    -48.9729E+06     16.3800E+06     44.3038E+06     799.424E+03    -236.411E-03     467.554E-03    -231.143E-03     247.559E-03    -249.537E-03     480.436E-03    -230.874E-03     207.743E-03
            1782     7.85921E-03     53.5099E-03    -57.0858E+06     5.19700E+06     34.9489E+06     533.416E+03    -236.254E-03     467.367E-03    -231.113E-03     231.242E-03    -247.131E-03     477.959E-03    -230.863E-03     195.155E-03
            1783     7.14446E-03     53.2135E-03    -65.6131E+06    -26.1628E+06     21.7244E+06     300.161E+03    -236.150E-03     467.244E-03    -231.094E-03     212.472E-03    -244.881E-03     475.586E-03    -230.852E-03     180.329E-03
            1784     6.43047E-03     52.9437E-03    -73.8653E+06    -77.2040E+06     3.29019E+06     233.654E+03    -235.672E-03     466.742E-03    -231.070E-03     192.586E-03    -242.472E-03     472.997E-03    -230.835E-03     164.442E-03
            1785     5.71603E-03     52.6992E-03    -81.9732E+06    -123.797E+06    -14.7979E+06     318.223E+03    -234.995E-03     466.044E-03    -231.049E-03     172.405E-03    -240.165E-03     470.526E-03    -230.825E-03     148.123E-03
            1786     5.00108E-03     52.4809E-03    -90.3616E+06    -163.161E+06    -32.8244E+06     441.319E+03    -234.320E-03     465.343E-03    -231.023E-03     151.582E-03    -238.138E-03     468.356E-03    -230.820E-03     130.962E-03
            1787     4.28681E-03     52.2902E-03    -98.5708E+06    -199.687E+06    -50.5879E+06     236.155E+03    -233.672E-03     464.655E-03    -230.983E-03     130.329E-03    -236.384E-03     466.455E-03    -230.804E-03     113.157E-03
            1788     3.57290E-03     52.1272E-03    -106.139E+06    -229.933E+06    -67.9443E+06     176.264E+03    -232.981E-03     463.898E-03    -230.918E-03     108.931E-03    -234.817E-03     464.739E-03    -230.770E-03     94.9974E-03
            1789     2.85859E-03     51.9923E-03    -113.136E+06    -255.764E+06    -85.3470E+06     293.185E+03    -232.384E-03     463.198E-03    -230.815E-03     87.3798E-03    -233.539E-03     463.292E-03    -230.706E-03     76.4975E-03
            1790     2.14422E-03     51.8869E-03    -119.781E+06    -279.003E+06    -102.321E+06     375.838E+03    -231.707E-03     462.388E-03    -230.681E-03     65.8906E-03    -232.357E-03     461.919E-03    -230.614E-03     57.8868E-03
            1791     1.42860E-03     51.8107E-03    -124.891E+06    -297.413E+06    -116.627E+06     230.298E+03    -230.888E-03     461.501E-03    -230.613E-03     44.6129E-03    -231.190E-03     460.642E-03    -230.584E-03     39.2957E-03
            1792     714.354E-06     51.7663E-03    -126.884E+06    -307.334E+06    -125.460E+06    -252.028E+03    -230.810E-03     461.333E-03    -230.524E-03     24.1972E-03    -230.906E-03     460.254E-03    -230.522E-03     21.2894E-03
            1793     13.5683E-03     54.3827E-03    -4.30061E+06     66.6533E+06     81.8846E+06    -399.108E+03    -228.291E-03     459.675E-03    -231.384E-03     114.830E-03    -235.118E-03     466.486E-03    -231.065E-03     87.4040E-03
            1794     12.8550E-03     54.1708E-03    -9.92334E+06     64.4054E+06     81.4522E+06    -20.4168E+03    -229.380E-03     460.758E-03    -231.378E-03     180.248E-03    -240.691E-03     472.026E-03    -231.050E-03     143.823E-03
            1795     12.1458E-03     53.9366E-03    -14.2477E+06     58.6675E+06     81.4509E+06     344.904E+03    -229.922E-03     461.273E-03    -231.351E-03     202.600E-03    -243.061E-03     474.334E-03    -231.009E-03     163.633E-03
            1796     11.4289E-03     53.6580E-03    -19.7831E+06     53.4947E+06     81.0456E+06    -72.8794E+03    -231.271E-03     462.606E-03    -231.334E-03     232.332E-03    -246.822E-03     478.041E-03    -230.978E-03     189.855E-03
            1797     10.7161E-03     53.3406E-03    -27.0858E+06     46.0536E+06     76.6666E+06     11.4288E+03    -233.483E-03     464.774E-03    -231.291E-03     251.211E-03    -250.104E-03     481.240E-03    -230.936E-03     206.934E-03
            1798     10.0027E-03     53.0032E-03    -34.7026E+06     36.4420E+06     66.2668E+06     681.531E+03    -235.165E-03     466.373E-03    -231.208E-03     260.394E-03    -251.625E-03     482.647E-03    -230.879E-03     216.010E-03
            1799     9.28877E-03     52.6572E-03    -42.1312E+06     25.7357E+06     54.4265E+06     436.042E+03    -235.884E-03     467.021E-03    -231.137E-03     258.751E-03    -251.042E-03     481.962E-03    -230.841E-03     216.020E-03
            1800     8.57369E-03     52.3227E-03    -49.3728E+06     15.9293E+06     44.1027E+06    -175.403E+03    -236.271E-03     467.367E-03    -231.096E-03     247.764E-03    -249.393E-03     480.242E-03    -230.827E-03     207.980E-03
            1801     7.85909E-03     52.0041E-03    -56.6660E+06     5.51758E+06     35.4276E+06    -232.994E+03    -236.485E-03     467.544E-03    -231.059E-03     231.053E-03    -247.353E-03     478.127E-03    -230.807E-03     194.934E-03
            1802     7.14552E-03     51.7092E-03    -64.7107E+06    -25.9907E+06     22.2132E+06     147.833E+03    -236.113E-03     467.134E-03    -231.021E-03     211.970E-03    -244.817E-03     475.452E-03    -230.779E-03     179.867E-03
            1803     6.43071E-03     51.4397E-03    -73.5687E+06    -77.5915E+06     3.11411E+06     353.348E+03    -235.604E-03     466.594E-03    -230.989E-03     192.247E-03    -242.390E-03     472.834E-03    -230.755E-03     164.134E-03
            1804     5.71626E-03     51.1952E-03    -82.3386E+06    -123.980E+06    -15.0728E+06     354.328E+03    -235.127E-03     466.076E-03    -230.948E-03     171.938E-03    -240.289E-03     470.549E-03    -230.725E-03     147.656E-03
            1805     5.00236E-03     50.9776E-03    -90.4690E+06    -162.678E+06    -32.6846E+06     430.872E+03    -234.506E-03     465.384E-03    -230.879E-03     151.077E-03    -238.315E-03     468.390E-03    -230.675E-03     130.458E-03
            1806     4.28794E-03     50.7865E-03    -98.3830E+06    -199.038E+06    -50.7530E+06     171.205E+03    -233.768E-03     464.551E-03    -230.783E-03     129.917E-03    -236.472E-03     466.346E-03    -230.605E-03     112.763E-03
            1807     3.57339E-03     50.6238E-03    -106.273E+06    -230.114E+06    -68.4111E+06    -118.694E+03    -232.886E-03     463.561E-03    -230.675E-03     108.801E-03    -234.716E-03     464.395E-03    -230.529E-03     94.8991E-03
            1808     2.85888E-03     50.4897E-03    -113.513E+06    -255.966E+06    -85.7178E+06     31.0767E+03    -231.960E-03     462.546E-03    -230.585E-03     87.8269E-03    -233.120E-03     462.642E-03    -230.478E-03     76.9644E-03
            1809     2.14444E-03     50.3840E-03    -119.588E+06    -278.461E+06    -102.332E+06     277.816E+03    -231.217E-03     461.757E-03    -230.540E-03     66.2215E-03    -231.870E-03     461.293E-03    -230.474E-03     58.2302E-03
            1810     1.43014E-03     50.3110E-03    -123.932E+06    -296.673E+06    -116.219E+06    -173.223E+03    -230.753E-03     461.303E-03    -230.550E-03     44.3089E-03    -231.052E-03     460.446E-03    -230.521E-03     38.9779E-03
            1811     714.204E-06     50.2626E-03    -128.286E+06    -308.143E+06    -125.270E+06    -381.860E+03    -230.765E-03     461.232E-03    -230.467E-03     24.0132E-03    -230.867E-03     460.150E-03    -230.461E-03     21.0966E-03
            1812     13.5735E-03     52.8820E-03    -3.67664E+06     66.7963E+06     82.1117E+06     746.293E+03    -229.025E-03     460.385E-03    -231.360E-03     113.460E-03    -235.773E-03     467.119E-03    -231.041E-03     86.1426E-03
            1813     12.8604E-03     52.6580E-03    -8.74468E+06     65.7679E+06     82.3472E+06    -135.471E+03    -229.080E-03     460.415E-03    -231.335E-03     177.701E-03    -240.284E-03     471.583E-03    -231.006E-03     141.407E-03
            1814     12.1432E-03     52.4345E-03    -15.0422E+06     58.9801E+06     80.5600E+06    -1.03942E+06    -229.931E-03     461.230E-03    -231.300E-03     201.206E-03    -243.039E-03     474.261E-03    -230.961E-03     162.184E-03
            1815     11.4312E-03     52.1493E-03    -21.1493E+06     52.4026E+06     79.5664E+06    -627.513E+03    -231.537E-03     462.800E-03    -231.263E-03     231.805E-03    -247.089E-03     478.231E-03    -230.910E-03     189.221E-03
            1816     10.7174E-03     51.8356E-03    -27.4217E+06     44.9261E+06     75.9327E+06     444.442E+03    -233.294E-03     464.508E-03    -231.214E-03     251.253E-03    -249.889E-03     480.945E-03    -230.860E-03     207.064E-03
            1817     10.0032E-03     51.4965E-03    -33.9126E+06     36.5841E+06     66.9229E+06     373.883E+03    -234.740E-03     465.897E-03    -231.157E-03     260.993E-03    -251.185E-03     482.158E-03    -230.826E-03     216.746E-03
            1818     9.28825E-03     51.1540E-03    -40.3508E+06     26.5629E+06     55.9906E+06     12.5838E+03    -235.911E-03     467.016E-03    -231.105E-03     258.792E-03    -251.051E-03     481.944E-03    -230.805E-03     216.083E-03
            1819     8.57396E-03     50.8173E-03    -47.3135E+06     16.3309E+06     45.2388E+06     67.4403E+03    -236.657E-03     467.698E-03    -231.040E-03     247.249E-03    -249.748E-03     480.548E-03    -230.769E-03     207.429E-03
            1820     7.86064E-03     50.4989E-03    -55.7121E+06     5.05162E+06     35.5037E+06     229.278E+03    -236.531E-03     467.501E-03    -230.970E-03     230.358E-03    -247.363E-03     478.051E-03    -230.719E-03     194.278E-03
            1821     7.14566E-03     50.2054E-03    -65.0212E+06    -26.2156E+06     21.9672E+06     719.695E+03    -236.041E-03     466.959E-03    -230.918E-03     211.313E-03    -244.724E-03     475.254E-03    -230.676E-03     179.258E-03
            1822     6.43148E-03     49.9356E-03    -74.0093E+06    -76.8712E+06     3.02115E+06     740.766E+03    -235.653E-03     466.521E-03    -230.868E-03     191.639E-03    -242.423E-03     472.746E-03    -230.634E-03     163.558E-03
            1823     5.71738E-03     49.6915E-03    -82.3254E+06    -123.697E+06    -15.5179E+06     101.779E+03    -235.195E-03     465.990E-03    -230.796E-03     171.414E-03    -240.340E-03     470.449E-03    -230.574E-03     147.154E-03
            1824     5.00285E-03     49.4736E-03    -90.4094E+06    -163.048E+06    -32.7756E+06    -143.037E+03    -234.508E-03     465.205E-03    -230.697E-03     150.760E-03    -238.304E-03     468.197E-03    -230.494E-03     130.165E-03
            1825     4.28887E-03     49.2833E-03    -98.4098E+06    -198.550E+06    -50.2826E+06     113.899E+03    -233.574E-03     464.162E-03    -230.588E-03     129.814E-03    -236.273E-03     465.953E-03    -230.409E-03     112.698E-03
            1826     3.57450E-03     49.1217E-03    -106.142E+06    -229.634E+06    -68.3688E+06     139.265E+03    -232.568E-03     463.059E-03    -230.491E-03     108.739E-03    -234.396E-03     463.893E-03    -230.346E-03     94.8699E-03
            1827     2.85967E-03     48.9877E-03    -113.475E+06    -256.173E+06    -86.1539E+06    -108.939E+03    -231.578E-03     462.018E-03    -230.440E-03     87.4795E-03    -232.732E-03     462.110E-03    -230.335E-03     76.6482E-03
            1828     2.14385E-03     48.8837E-03    -119.555E+06    -278.521E+06    -102.555E+06    -298.798E+03    -230.911E-03     461.371E-03    -230.460E-03     66.0436E-03    -231.562E-03     460.906E-03    -230.395E-03     58.0508E-03
            1829     1.42885E-03     48.8065E-03    -124.137E+06    -296.823E+06    -115.973E+06     36.0576E+03    -230.748E-03     461.247E-03    -230.499E-03     44.6833E-03    -231.049E-03     460.390E-03    -230.469E-03     39.3698E-03
            1830     715.701E-06     48.7636E-03    -127.580E+06    -308.303E+06    -125.535E+06     400.087E+03    -230.845E-03     461.126E-03    -230.281E-03     24.8137E-03    -230.942E-03     460.041E-03    -230.277E-03     21.9637E-03
            1831     13.5737E-03     51.3704E-03    -4.81869E+06     66.4970E+06     82.1509E+06    -153.208E+03    -229.990E-03     461.291E-03    -231.301E-03     114.071E-03    -236.777E-03     468.059E-03    -230.980E-03     86.6383E-03
            1832     12.8581E-03     51.1577E-03    -8.26519E+06     67.0909E+06     82.9852E+06     169.250E+03    -228.840E-03     460.096E-03    -231.256E-03     178.849E-03    -240.077E-03     471.301E-03    -230.926E-03     142.592E-03
            1833     12.1465E-03     50.9243E-03    -13.5043E+06     60.0350E+06     81.6534E+06     534.349E+03    -229.796E-03     461.029E-03    -231.233E-03     201.565E-03    -242.891E-03     474.052E-03    -230.892E-03     162.617E-03
            1834     11.4321E-03     50.6456E-03    -20.2584E+06     51.4719E+06     79.8419E+06     303.778E+03    -231.312E-03     462.521E-03    -231.209E-03     232.493E-03    -246.836E-03     477.924E-03    -230.855E-03     190.048E-03
            1835     10.7174E-03     50.3290E-03    -27.0202E+06     44.6821E+06     76.0372E+06    -67.0632E+03    -232.989E-03     464.173E-03    -231.184E-03     251.960E-03    -249.563E-03     480.589E-03    -230.829E-03     207.893E-03
            1836     10.0027E-03     49.9930E-03    -33.5607E+06     37.5942E+06     67.1578E+06    -733.502E+03    -234.914E-03     466.046E-03    -231.132E-03     260.622E-03    -251.334E-03     482.286E-03    -230.802E-03     216.351E-03
            1837     9.28869E-03     49.6477E-03    -40.8090E+06     25.7073E+06     55.4474E+06    -893.947E+03    -236.428E-03     467.473E-03    -231.045E-03     258.051E-03    -251.542E-03     482.372E-03    -230.746E-03     215.253E-03
            1838     8.57569E-03     49.3117E-03    -49.0731E+06     14.7332E+06     43.9311E+06     89.9822E+03    -236.825E-03     467.762E-03    -230.937E-03     246.478E-03    -249.892E-03     480.579E-03    -230.667E-03     206.657E-03
            1839     7.86078E-03     48.9950E-03    -57.6711E+06     5.03534E+06     34.3621E+06     887.536E+03    -236.429E-03     467.274E-03    -230.846E-03     229.712E-03    -247.239E-03     477.799E-03    -230.597E-03     193.695E-03
            1840     7.14704E-03     48.7008E-03    -66.1901E+06    -25.6599E+06     21.3832E+06     303.051E+03    -236.070E-03     466.849E-03    -230.778E-03     210.812E-03    -244.736E-03     475.127E-03    -230.538E-03     178.785E-03
            1841     6.43282E-03     48.4321E-03    -74.1785E+06    -76.6641E+06     3.14736E+06    -240.240E+03    -235.748E-03     466.451E-03    -230.703E-03     191.249E-03    -242.501E-03     472.659E-03    -230.469E-03     163.182E-03
            1842     5.71828E-03     48.1878E-03    -82.0321E+06    -123.014E+06    -15.1634E+06    -205.423E+03    -235.086E-03     465.694E-03    -230.608E-03     171.024E-03    -240.211E-03     470.135E-03    -230.386E-03     146.821E-03
            1843     5.00437E-03     47.9705E-03    -90.4323E+06    -163.077E+06    -33.2174E+06    -280.048E+03    -234.138E-03     464.651E-03    -230.513E-03     150.441E-03    -237.919E-03     467.628E-03    -230.311E-03     129.925E-03
            1844     4.28938E-03     47.7812E-03    -98.5718E+06    -199.260E+06    -50.5163E+06    -205.847E+03    -233.204E-03     463.640E-03    -230.436E-03     129.722E-03    -235.897E-03     465.422E-03    -230.256E-03     112.652E-03
            1845     3.57449E-03     47.6193E-03    -106.169E+06    -229.415E+06    -68.1217E+06     171.798E+03    -232.360E-03     462.724E-03    -230.364E-03     108.601E-03    -234.186E-03     463.556E-03    -230.218E-03     94.7613E-03
            1846     2.85950E-03     47.4871E-03    -113.247E+06    -255.719E+06    -85.9339E+06     140.115E+03    -231.645E-03     461.937E-03    -230.292E-03     87.1980E-03    -232.796E-03     462.027E-03    -230.187E-03     76.3783E-03
            1847     2.14541E-03     47.3820E-03    -119.552E+06    -278.739E+06    -102.824E+06    -119.966E+03    -230.977E-03     461.207E-03    -230.229E-03     65.5236E-03    -231.623E-03     460.737E-03    -230.166E-03     57.5506E-03
            1848     1.42989E-03     47.3073E-03    -124.846E+06    -297.430E+06    -116.731E+06    -64.9230E+03    -230.505E-03     460.700E-03    -230.195E-03     43.7791E-03    -230.801E-03     459.836E-03    -230.166E-03     38.5127E-03
            1849     713.377E-06     47.2584E-03    -126.952E+06    -307.590E+06    -125.144E+06     260.117E+03    -230.152E-03     460.464E-03    -230.312E-03     23.6158E-03    -230.245E-03     459.378E-03    -230.308E-03     20.8138E-03
            1850     13.5732E-03     49.8660E-03    -4.56979E+06     66.7700E+06     81.7477E+06    -633.447E+03    -229.650E-03     460.942E-03    -231.292E-03     113.416E-03    -236.446E-03     467.722E-03    -230.973E-03     85.8972E-03
            1851     12.8614E-03     49.6490E-03    -9.72029E+06     65.4926E+06     81.4831E+06    -749.859E+03    -229.047E-03     460.296E-03    -231.249E-03     179.689E-03    -240.333E-03     471.544E-03    -230.923E-03     143.322E-03
            1852     12.1456E-03     49.4203E-03    -14.8468E+06     58.4653E+06     80.8261E+06     458.612E+03    -229.743E-03     460.975E-03    -231.232E-03     203.324E-03    -242.878E-03     474.031E-03    -230.891E-03     164.408E-03
            1853     11.4310E-03     49.1389E-03    -20.1203E+06     53.4966E+06     81.0599E+06     749.773E+03    -231.454E-03     462.672E-03    -231.218E-03     232.949E-03    -246.969E-03     478.070E-03    -230.861E-03     190.549E-03
            1854     10.7170E-03     48.8243E-03    -26.3823E+06     46.0801E+06     77.5191E+06    -434.106E+03    -233.595E-03     464.762E-03    -231.167E-03     251.115E-03    -250.149E-03     481.161E-03    -230.808E-03     206.930E-03
            1855     10.0036E-03     48.4866E-03    -33.7526E+06     37.1916E+06     67.1876E+06    -363.437E+03    -235.447E-03     466.506E-03    -231.059E-03     259.588E-03    -251.835E-03     482.711E-03    -230.728E-03     215.231E-03
            1856     9.29052E-03     48.1418E-03    -41.9715E+06     25.4924E+06     54.3500E+06     398.148E+03    -236.499E-03     467.429E-03    -230.930E-03     257.431E-03    -251.579E-03     482.293E-03    -230.634E-03     214.676E-03
            1857     8.57592E-03     47.8069E-03    -50.2491E+06     13.5390E+06     42.9338E+06     453.613E+03    -236.707E-03     467.519E-03    -230.812E-03     245.967E-03    -249.745E-03     480.302E-03    -230.544E-03     206.212E-03
            1858     7.86271E-03     47.4905E-03    -58.0533E+06     5.92283E+06     34.5330E+06    -6.37105E+03    -236.454E-03     467.165E-03    -230.710E-03     229.298E-03    -247.244E-03     477.669E-03    -230.462E-03     193.309E-03
            1859     7.14798E-03     47.1975E-03    -65.6172E+06    -24.7414E+06     21.5966E+06    -692.057E+03    -236.129E-03     466.751E-03    -230.622E-03     210.669E-03    -244.775E-03     475.014E-03    -230.383E-03     178.672E-03
            1860     6.43363E-03     46.9279E-03    -73.6510E+06    -77.4533E+06     2.81203E+06    -1.01816E+06    -235.729E-03     466.256E-03    -230.527E-03     191.058E-03    -242.463E-03     472.445E-03    -230.294E-03     163.023E-03
            1861     5.71994E-03     46.6847E-03    -82.0882E+06    -123.423E+06    -15.1986E+06    -580.260E+03    -234.886E-03     465.310E-03    -230.424E-03     170.702E-03    -239.994E-03     469.733E-03    -230.202E-03     146.562E-03
            1862     5.00462E-03     46.4687E-03    -90.2241E+06    -162.853E+06    -33.0438E+06    -68.6488E+03    -233.856E-03     464.190E-03    -230.335E-03     150.058E-03    -237.623E-03     467.155E-03    -230.133E-03     129.606E-03
            1863     4.28999E-03     46.2792E-03    -98.3765E+06    -199.572E+06    -51.0078E+06    -117.117E+03    -232.967E-03     463.230E-03    -230.263E-03     129.109E-03    -235.645E-03     464.998E-03    -230.086E-03     112.089E-03
            1864     3.57507E-03     46.1184E-03    -106.182E+06    -229.984E+06    -68.5448E+06    -231.172E+03    -232.257E-03     462.439E-03    -230.182E-03     107.821E-03    -234.068E-03     463.256E-03    -230.038E-03     94.0201E-03
            1865     2.86047E-03     45.9850E-03    -113.318E+06    -255.596E+06    -85.6278E+06     32.5544E+03    -231.610E-03     461.683E-03    -230.073E-03     86.5029E-03    -232.754E-03     461.766E-03    -229.966E-03     75.7005E-03
            1866     2.14502E-03     45.8814E-03    -119.726E+06    -278.140E+06    -102.088E+06     388.768E+03    -231.070E-03     460.982E-03    -229.913E-03     65.2570E-03    -231.715E-03     460.512E-03    -229.846E-03     57.3122E-03
            1867     1.43099E-03     45.8059E-03    -124.765E+06    -297.274E+06    -116.594E+06     197.524E+03    -230.487E-03     460.169E-03    -229.682E-03     43.9424E-03    -230.783E-03     459.306E-03    -229.653E-03     38.6921E-03
            1868     717.415E-06     45.7604E-03    -128.270E+06    -308.399E+06    -126.029E+06    -563.237E+03    -229.485E-03     459.184E-03    -229.699E-03     23.2856E-03    -229.583E-03     458.097E-03    -229.696E-03     20.4653E-03
            1869     13.5735E-03     48.3570E-03    -3.70764E+06     67.3110E+06     82.5553E+06    -202.462E+03    -228.864E-03     460.173E-03    -231.309E-03     113.294E-03    -235.626E-03     466.921E-03    -230.988E-03     85.9155E-03
            1870     12.8576E-03     48.1436E-03    -9.31883E+06     65.3699E+06     82.2246E+06     731.321E+03    -229.098E-03     460.391E-03    -231.293E-03     179.711E-03    -240.310E-03     471.563E-03    -230.963E-03     143.527E-03
            1871     12.1444E-03     47.9138E-03    -15.1534E+06     58.1514E+06     80.9298E+06    -68.1705E+03    -230.434E-03     461.687E-03    -231.253E-03     202.082E-03    -243.509E-03     474.680E-03    -230.911E-03     163.103E-03
            1872     11.4313E-03     47.6323E-03    -20.6490E+06     53.9987E+06     80.8547E+06    -824.773E+03    -232.072E-03     463.257E-03    -231.185E-03     231.267E-03    -247.561E-03     478.629E-03    -230.829E-03     188.674E-03
            1873     10.7184E-03     47.3172E-03    -27.1275E+06     46.2220E+06     76.7359E+06    -535.590E+03    -233.952E-03     465.035E-03    -231.084E-03     250.116E-03    -250.482E-03     481.411E-03    -230.728E-03     205.842E-03
            1874     10.0054E-03     46.9803E-03    -34.8288E+06     35.7233E+06     66.2123E+06     320.731E+03    -235.554E-03     466.503E-03    -230.949E-03     259.291E-03    -251.913E-03     482.673E-03    -230.620E-03     214.961E-03
            1875     9.29104E-03     46.6372E-03    -42.1443E+06     24.7711E+06     54.6771E+06     932.138E+03    -236.467E-03     467.281E-03    -230.813E-03     257.190E-03    -251.510E-03     482.103E-03    -230.515E-03     214.517E-03
            1876     8.57775E-03     46.3018E-03    -48.6996E+06     15.3781E+06     44.4403E+06     355.204E+03    -236.680E-03     467.367E-03    -230.687E-03     245.520E-03    -249.670E-03     480.109E-03    -230.416E-03     205.849E-03
            1877     7.86296E-03     45.9864E-03    -55.8059E+06     6.87475E+06     35.5313E+06    -724.717E+03    -236.491E-03     467.060E-03    -230.569E-03     228.855E-03    -247.239E-03     477.531E-03    -230.320E-03     192.914E-03
            1878     7.14914E-03     45.6935E-03    -64.0727E+06    -24.9605E+06     22.1765E+06    -762.978E+03    -236.218E-03     466.675E-03    -230.458E-03     210.227E-03    -244.834E-03     474.911E-03    -230.218E-03     178.260E-03
            1879     6.43526E-03     45.4246E-03    -72.9891E+06    -77.1801E+06     3.18579E+06    -263.144E+03    -235.531E-03     465.876E-03    -230.345E-03     190.349E-03    -242.232E-03     472.035E-03    -230.112E-03     162.407E-03
            1880     5.72005E-03     45.1825E-03    -81.9254E+06    -124.118E+06    -15.6844E+06    -161.485E+03    -234.679E-03     464.915E-03    -230.236E-03     170.044E-03    -239.763E-03     469.313E-03    -230.016E-03     145.974E-03
            1881     5.00615E-03     44.9667E-03    -90.4039E+06    -163.473E+06    -33.3652E+06    -133.408E+03    -233.874E-03     463.998E-03    -230.125E-03     149.250E-03    -237.621E-03     466.942E-03    -229.923E-03     128.837E-03
            1882     4.29112E-03     44.7786E-03    -98.3892E+06    -199.071E+06    -50.7882E+06     25.2083E+03    -232.944E-03     462.953E-03    -230.009E-03     128.283E-03    -235.603E-03     464.704E-03    -229.832E-03     111.322E-03
            1883     3.57634E-03     44.6169E-03    -106.350E+06    -230.132E+06    -68.9559E+06    -56.8549E+03    -232.046E-03     461.938E-03    -229.892E-03     107.321E-03    -233.846E-03     462.744E-03    -229.749E-03     93.5725E-03
            1884     2.86123E-03     44.4849E-03    -113.728E+06    -255.935E+06    -86.5517E+06    -33.9679E+03    -231.241E-03     461.020E-03    -229.778E-03     86.2199E-03    -232.378E-03     461.095E-03    -229.675E-03     75.4785E-03
            1885     2.14669E-03     44.3810E-03    -119.974E+06    -278.198E+06    -102.783E+06    -75.1472E+03    -230.514E-03     460.197E-03    -229.683E-03     65.4359E-03    -231.158E-03     459.726E-03    -229.620E-03     57.5143E-03
            1886     1.43089E-03     44.3059E-03    -124.346E+06    -296.854E+06    -116.096E+06    -75.7337E+03    -229.957E-03     459.594E-03    -229.638E-03     44.4619E-03    -230.256E-03     458.735E-03    -229.607E-03     39.1971E-03
            1887     713.979E-06     44.2623E-03    -127.006E+06    -307.948E+06    -125.149E+06     128.624E+03    -230.152E-03     459.359E-03    -229.207E-03     24.1596E-03    -230.247E-03     458.274E-03    -229.202E-03     21.3005E-03
            1888     13.5723E-03     46.8540E-03    -4.35012E+06     66.7640E+06     82.3066E+06     412.536E+03    -229.328E-03     460.663E-03    -231.335E-03     114.053E-03    -236.090E-03     467.408E-03    -231.014E-03     86.6312E-03
            1889     12.8591E-03     46.6362E-03    -9.18141E+06     65.8931E+06     82.8318E+06     68.8020E+03    -230.075E-03     461.351E-03    -231.276E-03     178.005E-03    -241.253E-03     472.490E-03    -230.944E-03     141.609E-03
            1890     12.1463E-03     46.4054E-03    -14.2478E+06     59.7558E+06     81.5992E+06    -766.614E+03    -230.885E-03     462.064E-03    -231.179E-03     200.104E-03    -243.910E-03     475.014E-03    -230.837E-03     161.009E-03
            1891     11.4335E-03     46.1258E-03    -20.3782E+06     53.6963E+06     80.2880E+06    -737.900E+03    -232.041E-03     463.124E-03    -231.083E-03     230.773E-03    -247.494E-03     478.463E-03    -230.730E-03     188.201E-03
            1892     10.7197E-03     45.8109E-03    -27.5482E+06     44.5908E+06     75.5234E+06     189.369E+03    -233.794E-03     464.777E-03    -230.983E-03     250.295E-03    -250.286E-03     481.110E-03    -230.630E-03     206.128E-03
            1893     10.0054E-03     45.4745E-03    -34.1058E+06     34.9643E+06     66.1266E+06     641.593E+03    -235.584E-03     466.437E-03    -230.853E-03     259.175E-03    -251.901E-03     482.565E-03    -230.523E-03     214.908E-03
            1894     9.29251E-03     45.1316E-03    -40.5021E+06     25.3778E+06     55.4676E+06    -72.5816E+03    -236.673E-03     467.374E-03    -230.700E-03     256.641E-03    -251.670E-03     482.155E-03    -230.401E-03     213.975E-03
            1895     8.57831E-03     44.7971E-03    -47.4614E+06     16.5295E+06     45.0519E+06    -752.952E+03    -236.785E-03     467.330E-03    -230.545E-03     244.747E-03    -249.721E-03     480.026E-03    -230.275E-03     205.119E-03
            1896     7.86482E-03     44.4830E-03     -55.469E+06      6.8148E+06     35.7181E+06    -543.611E+03    -236.609E-03     467.008E-03    -230.399E-03     228.191E-03    -247.317E-03     477.440E-03    -230.150E-03     192.294E-03
            1897     7.15068E-03     44.1890E-03    -64.7360E+06    -25.3353E+06     21.7713E+06    -90.6748E+03    -236.139E-03     466.400E-03    -230.261E-03     209.350E-03    -244.720E-03     474.598E-03    -230.021E-03     177.459E-03
            1898     6.43616E-03     43.9225E-03    -73.9678E+06    -77.3344E+06     2.60542E+06     190.350E+03    -235.351E-03     465.482E-03    -230.131E-03     189.429E-03    -242.018E-03     471.604E-03    -229.898E-03     161.583E-03
            1899     5.72216E-03     43.6806E-03    -82.4968E+06    -123.836E+06    -15.8817E+06     234.520E+03    -234.571E-03     464.575E-03    -230.004E-03     169.300E-03    -239.630E-03     468.948E-03    -229.784E-03     145.308E-03
            1900     5.00693E-03     43.4650E-03    -90.8107E+06    -163.138E+06    -33.8090E+06        -939.625    -233.763E-03     463.629E-03    -229.866E-03     148.685E-03    -237.491E-03     466.554E-03    -229.667E-03     128.346E-03
            1901     4.29272E-03     43.2775E-03    -99.0422E+06    -199.386E+06    -51.2357E+06    -91.9749E+03    -232.864E-03     462.584E-03    -229.720E-03     127.916E-03    -235.514E-03     464.323E-03    -229.543E-03     111.005E-03
            1902     3.57752E-03     43.1174E-03    -106.757E+06    -229.919E+06    -69.0039E+06     92.1149E+03    -231.756E-03     461.337E-03    -229.581E-03     106.962E-03    -233.549E-03     462.134E-03    -229.437E-03     93.2769E-03
            1903     2.86215E-03     42.9852E-03    -113.574E+06    -255.674E+06    -86.9202E+06     19.8331E+03    -230.713E-03     460.203E-03    -229.490E-03     85.9518E-03    -231.840E-03     460.271E-03    -229.389E-03     75.2916E-03
            1904     2.14598E-03     42.8821E-03    -119.309E+06    -278.273E+06    -103.503E+06    -553.301E+03    -229.969E-03     459.448E-03    -229.479E-03     65.0157E-03    -230.604E-03     458.972E-03    -229.420E-03     57.1340E-03
            1905     1.43019E-03     42.8080E-03    -124.117E+06    -297.388E+06    -116.799E+06    -712.728E+03    -229.650E-03     459.189E-03    -229.538E-03     43.6496E-03    -229.942E-03     458.323E-03    -229.511E-03     38.3957E-03
            1906     715.936E-06     42.7616E-03    -126.649E+06    -308.121E+06    -124.552E+06    -87.5066E+03    -229.564E-03     459.257E-03    -229.693E-03     23.5057E-03    -229.656E-03     458.167E-03    -229.685E-03     20.6798E-03
            1907     13.5720E-03     45.3435E-03    -5.54302E+06     66.5609E+06     82.1423E+06    -48.6473E+03    -230.905E-03     462.202E-03    -231.297E-03     111.841E-03    -237.634E-03     468.909E-03    -230.974E-03     84.3223E-03
            1908     12.8608E-03     45.1265E-03    -8.77853E+06     67.0949E+06     82.8854E+06    -333.373E+03    -230.034E-03     461.219E-03    -231.186E-03     177.536E-03    -241.220E-03     472.372E-03    -230.856E-03     141.098E-03
            1909     12.1480E-03     44.8992E-03    -13.6387E+06     60.4028E+06     81.4966E+06    -189.736E+03    -230.475E-03     461.575E-03    -231.100E-03     201.365E-03    -243.529E-03     474.559E-03    -230.760E-03     162.310E-03
            1910     11.4336E-03     44.6193E-03    -20.2331E+06     52.5743E+06     79.7643E+06     331.162E+03    -232.220E-03     463.237E-03    -231.017E-03     231.695E-03    -247.661E-03     478.561E-03    -230.665E-03     189.166E-03
            1911     10.7201E-03     44.3049E-03    -26.3404E+06     43.7122E+06     76.1860E+06     480.765E+03    -234.178E-03     465.080E-03    -230.902E-03     249.871E-03    -250.613E-03     481.357E-03    -230.547E-03     205.711E-03
            1912     10.0070E-03     43.9688E-03    -32.9928E+06     35.7888E+06     67.0766E+06     159.320E+03    -235.777E-03     466.518E-03    -230.741E-03     258.273E-03    -252.025E-03     482.581E-03    -230.410E-03     214.044E-03
            1913     9.29331E-03     43.6251E-03    -40.4096E+06     27.0736E+06     55.5416E+06    -605.122E+03    -236.688E-03     467.249E-03    -230.560E-03     255.638E-03    -251.626E-03     481.977E-03    -230.263E-03     213.028E-03
            1914     8.58023E-03     43.2936E-03    -48.6647E+06     16.0897E+06     44.0606E+06    -611.752E+03    -236.993E-03     467.368E-03    -230.375E-03     243.949E-03    -249.890E-03     480.021E-03    -230.107E-03     204.341E-03
            1915     7.86614E-03     42.9779E-03    -57.8511E+06     5.98312E+06     34.2620E+06    -275.950E+03    -236.684E-03     466.877E-03    -230.193E-03     227.424E-03    -247.356E-03     477.266E-03    -229.946E-03     191.589E-03
            1916     7.15234E-03     42.6866E-03    -66.6930E+06    -25.1827E+06     20.7459E+06    -81.2207E+03    -235.907E-03     465.942E-03    -230.035E-03     208.562E-03    -244.448E-03     474.098E-03    -229.798E-03     176.794E-03
            1917     6.43807E-03     42.4202E-03    -75.0237E+06    -77.4014E+06     1.82097E+06    -140.838E+03    -235.291E-03     465.182E-03    -229.891E-03     188.943E-03    -241.935E-03     471.280E-03    -229.661E-03     161.165E-03
            1918     5.72320E-03     42.1789E-03    -83.3218E+06    -123.770E+06    -16.1671E+06    -217.096E+03    -234.537E-03     464.274E-03    -229.737E-03     168.652E-03    -239.572E-03     468.621E-03    -229.517E-03     144.733E-03
            1919     5.00890E-03     41.9649E-03    -91.4705E+06    -162.741E+06    -33.9910E+06    -119.813E+03    -233.542E-03     463.115E-03    -229.573E-03     148.026E-03    -237.248E-03     466.017E-03    -229.374E-03     127.777E-03
            1920     4.29334E-03     41.7768E-03    -99.2866E+06    -199.478E+06    -51.8087E+06    -283.298E+03    -232.545E-03     461.959E-03    -229.413E-03     127.132E-03    -235.175E-03     463.678E-03    -229.239E-03     110.301E-03
            1921     3.57863E-03     41.6182E-03    -106.684E+06    -230.175E+06    -69.1957E+06    -367.126E+03    -231.519E-03     460.779E-03    -229.260E-03     106.182E-03    -233.296E-03     461.561E-03    -229.117E-03     92.5521E-03
            1922     2.86295E-03     41.4873E-03    -113.759E+06    -255.439E+06    -86.5610E+06    -300.850E+03    -230.573E-03     459.697E-03    -229.125E-03     85.0452E-03    -231.693E-03     459.758E-03    -229.022E-03     74.4069E-03
            1923     2.14746E-03     41.3845E-03    -120.159E+06    -278.219E+06    -103.354E+06    -74.6022E+03    -229.796E-03     458.819E-03    -229.023E-03     63.7542E-03    -230.424E-03     458.333E-03    -228.962E-03     55.9399E-03
            1924     1.43202E-03     41.3091E-03    -125.176E+06    -297.442E+06    -117.536E+06    -178.910E+03    -229.209E-03     458.203E-03    -228.993E-03     43.2194E-03    -229.500E-03     457.333E-03    -228.968E-03     38.0377E-03
            1925     715.541E-06     41.2633E-03    -128.405E+06    -309.646E+06    -126.767E+06    -155.166E+03    -228.634E-03     458.106E-03    -229.472E-03     23.4794E-03    -228.727E-03     457.014E-03    -229.470E-03     20.7228E-03
            1926     13.5771E-03     43.8354E-03    -4.74756E+06     66.9435E+06     81.6531E+06    -885.273E+03    -230.315E-03     461.558E-03    -231.243E-03     112.851E-03    -237.077E-03     468.305E-03    -230.925E-03     85.3160E-03
            1927     12.8616E-03     43.6212E-03    -9.63566E+06     65.5923E+06     81.2396E+06    -463.792E+03    -229.601E-03     460.767E-03    -231.166E-03     179.605E-03    -240.822E-03     471.951E-03    -230.841E-03     143.228E-03
            1928     12.1462E-03     43.3925E-03    -14.3822E+06     59.8683E+06     81.0982E+06     335.097E+03    -231.029E-03     462.117E-03    -231.088E-03     201.860E-03    -244.054E-03     475.069E-03    -230.748E-03     162.806E-03
            1929     11.4338E-03     43.1112E-03    -19.9595E+06     52.5226E+06     80.9189E+06     338.298E+03    -232.931E-03     463.900E-03    -230.969E-03     230.687E-03    -248.313E-03     479.163E-03    -230.612E-03     188.085E-03
            1930     10.7215E-03     42.7977E-03    -26.7087E+06     43.6114E+06     77.1529E+06     44.3169E+03    -234.653E-03     465.457E-03    -230.805E-03     248.881E-03    -251.051E-03     481.692E-03    -230.443E-03     204.640E-03
            1931     10.0086E-03     42.4626E-03    -34.2148E+06     37.0830E+06     68.0315E+06    -164.988E+03    -235.956E-03     466.560E-03    -230.604E-03     257.523E-03    -252.173E-03     482.590E-03    -230.268E-03     213.284E-03
            1932     9.29534E-03     42.1210E-03    -42.4147E+06     27.6800E+06     55.7241E+06    -74.4456E+03    -236.737E-03     467.133E-03    -230.395E-03     255.010E-03    -251.629E-03     481.811E-03    -230.095E-03     212.475E-03
            1933     8.58132E-03     41.7879E-03    -50.8988E+06     15.9870E+06     43.0381E+06    -150.716E+03    -237.031E-03     467.215E-03    -230.183E-03     243.378E-03    -249.885E-03     479.820E-03    -229.918E-03     203.852E-03
            1934     7.86846E-03     41.4743E-03    -58.6052E+06     5.97985E+06     33.3269E+06    -438.492E+03    -236.592E-03     466.573E-03    -229.980E-03     226.712E-03    -247.218E-03     476.915E-03    -229.737E-03     190.976E-03
            1935     7.15385E-03     41.1848E-03    -66.5631E+06    -25.6815E+06     20.2984E+06    -717.546E+03    -235.984E-03     465.783E-03    -229.798E-03     207.868E-03    -244.483E-03     473.895E-03    -229.563E-03     176.166E-03
            1936     6.43925E-03     40.9179E-03    -74.8547E+06    -77.5232E+06     2.05369E+06    -607.990E+03    -235.330E-03     464.946E-03    -229.616E-03     187.894E-03    -241.929E-03     470.998E-03    -229.385E-03     160.198E-03
            1937     5.72525E-03     40.6781E-03    -82.9498E+06    -123.542E+06    -15.9791E+06    -380.747E+03    -234.407E-03     463.828E-03    -229.421E-03     167.437E-03    -239.399E-03     468.133E-03    -229.202E-03     143.617E-03
            1938     5.01016E-03     40.4644E-03    -90.9165E+06    -162.807E+06    -33.7466E+06    -552.147E+03    -233.358E-03     462.580E-03    -229.222E-03     146.977E-03    -237.035E-03     465.454E-03    -229.023E-03     126.801E-03
            1939     4.29573E-03     40.2782E-03    -98.8534E+06    -199.462E+06    -51.4275E+06    -471.455E+03    -232.258E-03     461.291E-03    -229.032E-03     126.108E-03    -234.865E-03     462.987E-03    -228.857E-03     109.354E-03
            1940     3.57966E-03     40.1199E-03    -106.693E+06    -230.480E+06    -69.1780E+06    -201.725E+03    -231.295E-03     460.133E-03    -228.837E-03     104.993E-03    -233.055E-03     460.896E-03    -228.694E-03     91.4265E-03
            1941     2.86457E-03     39.9892E-03    -114.226E+06    -255.730E+06    -87.0595E+06    -54.2852E+03    -230.427E-03     459.050E-03    -228.623E-03     84.2022E-03    -231.539E-03     459.101E-03    -228.522E-03     73.6088E-03
            1942     2.14912E-03     39.8873E-03    -120.461E+06    -278.277E+06    -103.787E+06     19.8821E+03    -229.520E-03     457.934E-03    -228.414E-03     63.4888E-03    -230.147E-03     457.446E-03    -228.355E-03     55.6995E-03
            1943     1.43250E-03     39.8140E-03    -124.858E+06    -297.051E+06    -117.124E+06     217.041E+03    -228.628E-03     456.928E-03    -228.300E-03     42.8780E-03    -228.915E-03     456.057E-03    -228.274E-03     37.7589E-03
            1944     715.853E-06     39.7677E-03    -128.131E+06    -310.164E+06    -125.605E+06     262.779E+03    -228.461E-03     456.666E-03    -228.206E-03     23.7602E-03    -228.552E-03     455.569E-03    -228.198E-03     21.0075E-03
            1945     13.5707E-03     42.3276E-03    -3.40657E+06     67.6870E+06     82.0272E+06     262.124E+03    -229.780E-03     461.079E-03    -231.299E-03     115.115E-03    -236.572E-03     467.862E-03    -230.982E-03     87.4971E-03
            1946     12.8583E-03     42.1136E-03    -9.66730E+06     65.6113E+06     81.9909E+06    -231.540E+03    -231.179E-03     462.375E-03    -231.196E-03     178.446E-03    -242.379E-03     473.536E-03    -230.867E-03     141.770E-03
            1947     12.1480E-03     41.8827E-03    -15.4466E+06     59.3376E+06     81.2514E+06    -959.871E+03    -232.032E-03     463.065E-03    -231.033E-03     199.964E-03    -245.010E-03     475.963E-03    -230.691E-03     160.717E-03
            1948     11.4359E-03     41.6036E-03    -20.9950E+06     52.2139E+06     80.7096E+06    -688.839E+03    -233.106E-03     463.968E-03    -230.861E-03     229.344E-03    -248.430E-03     479.168E-03    -230.503E-03     186.713E-03
            1949     10.7227E-03     41.2904E-03    -27.8532E+06     43.1108E+06     76.3581E+06    -183.887E+03    -234.569E-03     465.247E-03    -230.678E-03     248.290E-03    -250.909E-03     481.419E-03    -230.318E-03     204.127E-03
            1950     10.0098E-03     40.9560E-03    -35.1524E+06     36.4172E+06     67.1092E+06     375.958E+03    -236.105E-03     466.567E-03    -230.462E-03     257.012E-03    -252.271E-03     482.543E-03    -230.128E-03     212.822E-03
            1951     9.29661E-03     40.6162E-03    -42.3769E+06     28.5231E+06     55.7398E+06     621.351E+03    -237.008E-03     467.233E-03    -230.226E-03     254.524E-03    -251.849E-03     481.864E-03    -229.927E-03     212.034E-03
            1952     8.58385E-03     40.2832E-03    -49.2809E+06     17.1964E+06     44.1895E+06    -73.4197E+03    -237.002E-03     466.994E-03    -229.991E-03     242.800E-03    -249.791E-03     479.541E-03    -229.724E-03     203.394E-03
            1953     7.86908E-03     39.9718E-03    -56.8972E+06     6.23649E+06     34.5055E+06    -331.668E+03    -236.718E-03     466.481E-03    -229.763E-03     225.790E-03    -247.282E-03     476.765E-03    -229.517E-03     190.134E-03
            1954     7.15561E-03     39.6812E-03    -65.3969E+06    -25.2936E+06     20.9530E+06    -429.745E+03    -236.298E-03     465.822E-03    -229.525E-03     206.616E-03    -244.744E-03     473.886E-03    -229.288E-03     174.953E-03
            1955     6.44231E-03     39.4171E-03    -73.9774E+06    -77.8462E+06     2.16911E+06    -754.660E+03    -235.412E-03     464.686E-03    -229.275E-03     186.510E-03    -241.959E-03     470.689E-03    -229.044E-03     158.883E-03
            1956     5.72726E-03     39.1779E-03    -82.0684E+06    -123.858E+06    -15.7122E+06    -732.675E+03    -234.274E-03     463.301E-03    -229.027E-03     166.204E-03    -239.228E-03     467.569E-03    -228.807E-03     142.456E-03
            1957     5.01283E-03     38.9654E-03    -90.2897E+06    -162.765E+06    -33.3609E+06    -379.540E+03    -233.123E-03     461.906E-03    -228.783E-03     145.618E-03    -236.764E-03     464.746E-03    -228.583E-03     125.539E-03
            1958     4.29690E-03     38.7802E-03    -98.7228E+06    -199.890E+06    -51.0246E+06    -78.6347E+03    -231.977E-03     460.526E-03    -228.549E-03     124.919E-03    -234.557E-03     462.194E-03    -228.371E-03     108.258E-03
            1959     3.58239E-03     38.6222E-03    -106.673E+06    -230.763E+06    -69.0239E+06     125.275E+03    -230.860E-03     459.176E-03    -228.317E-03     104.290E-03    -232.603E-03     459.921E-03    -228.172E-03     90.8176E-03
            1960     2.86623E-03     38.4935E-03    -113.640E+06    -255.331E+06    -86.6127E+06     120.098E+03    -229.838E-03     457.934E-03    -228.096E-03     83.7979E-03    -230.938E-03     457.975E-03    -227.994E-03     73.2874E-03
            1961     2.14966E-03     38.3915E-03    -119.645E+06    -277.917E+06    -103.197E+06     36.5581E+03    -228.960E-03     456.859E-03    -227.899E-03     63.1011E-03    -229.579E-03     456.366E-03    -227.839E-03     55.3642E-03
            1962     1.43389E-03     38.3197E-03    -124.290E+06    -297.753E+06    -117.055E+06     239.447E+03    -228.369E-03     456.076E-03    -227.708E-03     42.9301E-03    -228.651E-03     455.200E-03    -227.681E-03     37.8250E-03
            1963     717.669E-06     38.2736E-03    -127.022E+06    -309.484E+06    -125.361E+06    -270.682E+03    -228.057E-03     455.326E-03    -227.269E-03     24.2967E-03    -228.145E-03     454.232E-03    -227.263E-03     21.5306E-03
            1964     13.5722E-03     40.8160E-03    -4.22199E+06     67.9055E+06     83.7194E+06     462.467E+03    -231.270E-03     462.532E-03    -231.263E-03     111.533E-03    -237.944E-03     469.190E-03    -230.936E-03     83.9378E-03
            1965     12.8626E-03     40.6015E-03    -9.00842E+06     67.0498E+06     83.8853E+06     13.4285E+03    -231.316E-03     462.413E-03    -231.097E-03     174.941E-03    -242.378E-03     473.437E-03    -230.761E-03     138.329E-03
            1966     12.1498E-03     40.3744E-03    -14.5457E+06     59.7517E+06     82.1128E+06    -321.269E+03    -231.804E-03     462.721E-03    -230.918E-03     199.259E-03    -244.741E-03     475.581E-03    -230.573E-03     160.049E-03
            1967     11.4369E-03     40.0956E-03    -21.3837E+06     50.9999E+06     79.6244E+06    -310.364E+03    -232.978E-03     463.722E-03    -230.744E-03     229.469E-03    -248.274E-03     478.892E-03    -230.389E-03     186.892E-03
            1968     10.7243E-03     39.7842E-03    -28.2044E+06     42.4371E+06     74.9719E+06     139.839E+03    -234.696E-03     465.249E-03    -230.553E-03     247.993E-03    -250.963E-03     481.350E-03    -230.199E-03     203.918E-03
            1969     10.0109E-03     39.4500E-03    -35.1436E+06     36.0556E+06     65.7135E+06     141.843E+03    -236.335E-03     466.652E-03    -230.317E-03     256.454E-03    -252.411E-03     482.541E-03    -229.990E-03     212.358E-03
            1970     9.29853E-03     39.1095E-03    -41.7477E+06     29.0612E+06     55.5072E+06    -553.899E+03    -237.203E-03     467.256E-03    -230.054E-03     253.506E-03    -251.966E-03     481.813E-03    -229.758E-03     211.069E-03
            1971     8.58452E-03     38.7803E-03    -48.7707E+06     17.9050E+06     44.7622E+06    -865.377E+03    -237.375E-03     467.150E-03    -229.775E-03     241.564E-03    -250.100E-03     479.636E-03    -229.507E-03     202.168E-03
            1972     7.87195E-03     38.4674E-03    -56.5970E+06     5.71406E+06     34.9206E+06    -849.073E+03    -237.120E-03     466.600E-03    -229.479E-03     224.281E-03    -247.615E-03     476.813E-03    -229.231E-03     188.652E-03
            1973     7.15854E-03     38.1791E-03    -64.8322E+06    -25.1205E+06     21.7030E+06    -274.119E+03    -236.296E-03     465.472E-03    -229.176E-03     204.914E-03    -244.676E-03     473.470E-03    -228.937E-03     173.346E-03
            1974     6.44394E-03     37.9155E-03    -73.4247E+06    -77.2287E+06     2.48212E+06    -123.963E+03    -235.251E-03     464.129E-03    -228.877E-03     185.181E-03    -241.754E-03     470.089E-03    -228.647E-03     157.654E-03
            1975     5.73036E-03     37.6786E-03    -82.4302E+06    -124.268E+06    -16.2619E+06    -274.089E+03    -234.146E-03     462.729E-03    -228.583E-03     165.164E-03    -239.067E-03     466.963E-03    -228.364E-03     141.510E-03
            1976     5.01501E-03     37.4674E-03    -91.1993E+06    -163.137E+06    -34.0539E+06    -58.1974E+03    -232.919E-03     461.209E-03    -228.289E-03     144.794E-03    -236.537E-03     464.022E-03    -228.091E-03     124.814E-03
            1977     4.30059E-03     37.2832E-03    -98.9455E+06    -200.174E+06    -51.2549E+06     55.8776E+03    -231.560E-03     459.578E-03    -228.018E-03     124.136E-03    -234.116E-03     461.221E-03    -227.841E-03     107.598E-03
            1978     3.58354E-03     37.1274E-03    -106.419E+06    -230.532E+06    -68.8399E+06     87.9284E+03    -230.283E-03     458.058E-03    -227.775E-03     103.638E-03    -232.007E-03     458.786E-03    -227.631E-03     90.2759E-03
            1979     2.86742E-03     36.9982E-03    -113.755E+06    -255.061E+06    -86.5142E+06    -13.4332E+03    -229.235E-03     456.794E-03    -227.559E-03     83.0356E-03    -230.325E-03     456.825E-03    -227.457E-03     72.6088E-03
            1980     2.15126E-03     36.8985E-03    -120.304E+06    -278.073E+06    -102.766E+06     208.329E+03    -228.412E-03     455.779E-03    -227.367E-03     62.3548E-03    -229.026E-03     455.276E-03    -227.303E-03     54.6938E-03
            1981     1.43360E-03     36.8261E-03    -125.321E+06    -297.450E+06    -116.788E+06     174.517E+03    -227.856E-03     455.011E-03    -227.155E-03     42.1919E-03    -228.141E-03     454.134E-03    -227.126E-03     37.1047E-03
            1982     716.560E-06     36.7808E-03    -128.233E+06    -308.865E+06    -126.569E+06    -153.952E+03    -227.620E-03     454.153E-03    -226.533E-03     22.9791E-03    -227.711E-03     453.063E-03    -226.532E-03     20.2571E-03
            1983     13.5793E-03     39.3093E-03    -3.92559E+06     68.1531E+06     84.5405E+06    -351.202E+03    -231.915E-03     463.055E-03    -231.140E-03     112.476E-03    -238.599E-03     469.722E-03    -230.810E-03     84.8920E-03
            1984     12.8633E-03     39.0936E-03    -8.52021E+06     66.1755E+06     83.7120E+06     131.938E+03    -230.471E-03     461.455E-03    -230.984E-03     177.713E-03    -241.544E-03     472.489E-03    -230.649E-03     141.345E-03
            1985     12.1504E-03     38.8665E-03    -13.9869E+06     59.3932E+06     81.8748E+06     1.19564E+06    -231.650E-03     462.491E-03    -230.841E-03     200.181E-03    -244.540E-03     475.305E-03    -230.498E-03     161.139E-03
            1986     11.4377E-03     38.5880E-03    -20.3316E+06     51.5392E+06     80.2085E+06     1.35400E+06    -233.353E-03     464.018E-03    -230.666E-03     229.281E-03    -248.564E-03     479.108E-03    -230.310E-03     186.803E-03
            1987     10.7248E-03     38.2767E-03    -26.8590E+06     43.3908E+06     76.1918E+06     751.928E+03    -235.249E-03     465.691E-03    -230.442E-03     247.340E-03    -251.444E-03     481.723E-03    -230.085E-03     203.263E-03
            1988     10.0130E-03     37.9435E-03    -33.3603E+06     38.0081E+06     67.4987E+06    -106.846E+03    -236.776E-03     466.933E-03    -230.158E-03     255.396E-03    -252.777E-03     482.756E-03    -229.827E-03     211.292E-03
            1989     9.29964E-03     37.6044E-03    -40.6922E+06     29.9405E+06     56.1599E+06    -919.629E+03    -237.629E-03     467.464E-03    -229.834E-03     251.869E-03    -252.305E-03     481.938E-03    -229.538E-03     209.433E-03
            1990     8.58777E-03     37.2753E-03    -48.6326E+06     17.7914E+06     44.3870E+06    -962.036E+03    -237.846E-03     467.325E-03    -229.479E-03     239.705E-03    -250.494E-03     479.735E-03    -229.213E-03     200.297E-03
            1991     7.87476E-03     36.9635E-03    -56.9147E+06     5.29703E+06     34.2344E+06    -713.380E+03    -237.152E-03     466.268E-03    -229.116E-03     222.766E-03    -247.581E-03     476.414E-03    -228.870E-03     187.223E-03
            1992     7.16127E-03     36.6777E-03    -65.7688E+06    -26.4781E+06     20.6035E+06    -582.154E+03    -236.066E-03     464.839E-03    -228.774E-03     203.700E-03    -244.388E-03     472.774E-03    -228.537E-03     172.264E-03
            1993     6.44780E-03     36.4157E-03    -74.6038E+06    -77.0259E+06     1.98662E+06     235.463E+03    -235.013E-03     463.459E-03    -228.446E-03     184.045E-03    -241.469E-03     469.371E-03    -228.216E-03     156.665E-03
            1994     5.73231E-03     36.1801E-03    -83.2004E+06    -123.387E+06    -16.5963E+06     510.930E+03    -233.882E-03     461.999E-03    -228.117E-03     164.028E-03    -238.761E-03     466.193E-03    -227.900E-03     140.528E-03
            1995     5.01792E-03     35.9699E-03    -91.3620E+06    -163.039E+06    -34.5588E+06    -102.471E+03    -232.521E-03     460.315E-03    -227.794E-03     143.715E-03    -236.105E-03     463.096E-03    -227.598E-03     123.869E-03
            1996     4.30135E-03     35.7882E-03    -99.3254E+06    -200.338E+06    -51.7714E+06    -188.705E+03    -231.163E-03     458.660E-03    -227.497E-03     123.260E-03    -233.697E-03     460.280E-03    -227.321E-03     106.826E-03
            1997     3.58630E-03     35.6330E-03    -107.117E+06    -230.787E+06    -69.5847E+06     42.3324E+03    -229.923E-03     457.136E-03    -227.213E-03     102.716E-03    -231.633E-03     457.849E-03    -227.071E-03     89.4357E-03
            1998     2.86955E-03     35.5057E-03    -114.069E+06    -254.888E+06    -87.4341E+06     214.476E+03    -228.704E-03     455.661E-03    -226.957E-03     82.1263E-03    -229.779E-03     455.680E-03    -226.859E-03     71.7974E-03
            1999     2.15204E-03     35.4062E-03    -119.923E+06    -278.173E+06    -103.669E+06    -123.647E+03    -227.884E-03     454.616E-03    -226.731E-03     61.8196E-03    -228.487E-03     454.106E-03    -226.673E-03     54.2201E-03
            2000     1.43598E-03     35.3344E-03    -124.167E+06    -296.688E+06    -116.446E+06    -152.616E+03    -227.245E-03     453.733E-03    -226.488E-03     41.6066E-03    -227.522E-03     452.854E-03    -226.460E-03     36.5649E-03
            2001     718.683E-06     35.2909E-03    -126.830E+06    -309.068E+06    -124.484E+06     191.191E+03    -226.651E-03     452.793E-03    -226.143E-03     22.5819E-03    -226.737E-03     451.695E-03    -226.133E-03     19.8427E-03
            2002     13.5732E-03     37.7996E-03    -4.13609E+06     67.6304E+06     82.4977E+06    -547.474E+03    -231.595E-03     462.763E-03    -231.168E-03     114.150E-03    -238.331E-03     469.485E-03    -230.847E-03     86.4350E-03
            2003     12.8629E-03     37.5860E-03    -9.00520E+06     65.6030E+06     82.5823E+06     63.3174E+03    -231.541E-03     462.544E-03    -231.003E-03     179.056E-03    -242.657E-03     473.621E-03    -230.672E-03     142.485E-03
            2004     12.1503E-03     37.3572E-03    -14.8147E+06     58.0346E+06     81.0300E+06     769.380E+03    -232.564E-03     463.374E-03    -230.810E-03     199.969E-03    -245.402E-03     476.130E-03    -230.467E-03     160.873E-03
            2005     11.4384E-03     37.0796E-03    -20.0388E+06     52.6261E+06     80.9964E+06     892.111E+03    -234.143E-03     464.724E-03    -230.581E-03     228.315E-03    -249.275E-03     479.737E-03    -230.223E-03     185.791E-03
            2006     10.7269E-03     36.7687E-03    -26.0924E+06     45.5305E+06     77.7781E+06     120.728E+03    -235.933E-03     466.229E-03    -230.297E-03     246.060E-03    -252.063E-03     482.203E-03    -229.936E-03     201.891E-03
            2007     10.0145E-03     36.4361E-03    -33.0965E+06     38.7796E+06     68.5466E+06    -452.873E+03    -237.370E-03     467.312E-03    -229.942E-03     253.576E-03    -253.292E-03     483.056E-03    -229.608E-03     209.404E-03
            2008     9.30329E-03     36.0990E-03    -40.5999E+06     30.5739E+06     56.6740E+06    -28.3751E+03    -238.104E-03     467.646E-03    -229.542E-03     250.404E-03    -252.701E-03     482.044E-03    -229.245E-03     207.982E-03
            2009     8.59088E-03     35.7693E-03    -48.8657E+06     17.8523E+06     44.1025E+06     276.030E+03    -237.827E-03     466.958E-03    -229.131E-03     238.470E-03    -250.394E-03     479.287E-03    -228.865E-03     199.207E-03
            2010     7.87810E-03     35.4623E-03    -57.6694E+06     5.45231E+06     33.4639E+06     148.778E+03    -236.889E-03     465.628E-03    -228.739E-03     221.828E-03    -247.255E-03     475.711E-03    -228.496E-03     186.460E-03
            2011     7.16430E-03     35.1758E-03    -66.5268E+06    -26.1436E+06     19.7106E+06     97.3474E+03    -235.945E-03     464.316E-03    -228.371E-03     202.786E-03    -244.213E-03     472.198E-03    -228.138E-03     171.506E-03
            2012     6.44959E-03     34.9172E-03    -75.1826E+06    -77.6468E+06     996.724E+03    -9.01756E+03    -234.937E-03     462.939E-03    -228.002E-03     182.908E-03    -241.341E-03     468.798E-03    -227.775E-03     155.654E-03
            2013     5.73590E-03     34.6817E-03    -83.1321E+06    -123.108E+06    -16.6400E+06     39.0945E+03    -233.581E-03     461.214E-03    -227.633E-03     162.756E-03    -238.416E-03     465.365E-03    -227.417E-03     139.390E-03
            2014     5.02002E-03     34.4750E-03    -91.0395E+06    -161.994E+06    -34.2271E+06     172.159E+03    -232.072E-03     459.354E-03    -227.282E-03     142.356E-03    -235.618E-03     462.100E-03    -227.086E-03     122.652E-03
            2015     4.30486E-03     34.2939E-03    -99.3051E+06    -200.404E+06    -52.0526E+06     32.7397E+03    -230.751E-03     457.707E-03    -226.956E-03     122.172E-03    -233.262E-03     459.304E-03    -226.781E-03     105.839E-03
            2016     3.58776E-03     34.1400E-03    -106.947E+06    -230.915E+06    -69.8706E+06    -4.79177E+03    -229.437E-03     456.079E-03    -226.642E-03     101.746E-03    -231.127E-03     456.772E-03    -226.502E-03     88.5681E-03
            2017     2.87106E-03     34.0148E-03    -113.695E+06    -254.459E+06    -87.6787E+06    -119.481E+03    -228.189E-03     454.548E-03    -226.359E-03     81.6051E-03    -229.255E-03     454.561E-03    -226.263E-03     71.3345E-03
            2018     2.15418E-03     33.9159E-03    -119.453E+06    -277.688E+06    -104.117E+06    -256.618E+03    -227.170E-03     453.310E-03    -226.140E-03     61.7306E-03    -227.769E-03     452.801E-03    -226.085E-03     54.1725E-03
            2019     1.43552E-03     33.8447E-03    -123.736E+06    -297.208E+06    -117.300E+06    -274.381E+03    -226.407E-03     452.417E-03    -226.010E-03     41.6630E-03    -226.679E-03     451.535E-03    -225.987E-03     36.6560E-03
            2020     717.399E-06     33.8027E-03    -126.539E+06    -309.553E+06    -124.782E+06    -99.9630E+03    -226.369E-03     452.033E-03    -225.664E-03     22.3052E-03    -226.454E-03     450.932E-03    -225.655E-03     19.5778E-03
            2021     13.5744E-03     36.2879E-03    -4.75623E+06     67.2532E+06     81.3364E+06    -59.0932E+03    -232.078E-03     463.310E-03    -231.233E-03     112.702E-03    -238.775E-03     469.994E-03    -230.917E-03     84.9254E-03
            2022     12.8618E-03     36.0746E-03    -10.0957E+06     66.0717E+06     81.6200E+06    -76.6544E+03    -232.844E-03     463.858E-03    -231.014E-03     177.036E-03    -243.901E-03     474.877E-03    -230.687E-03     140.272E-03
            2023     12.1514E-03     35.8465E-03    -15.2149E+06     57.8412E+06     80.9330E+06    -232.747E+03    -233.634E-03     464.380E-03    -230.747E-03     198.498E-03    -246.428E-03     477.091E-03    -230.404E-03     159.214E-03
            2024     11.4401E-03     35.5706E-03    -20.7994E+06     52.4647E+06     80.8391E+06    -722.735E+03    -234.996E-03     465.439E-03    -230.443E-03     226.973E-03    -250.098E-03     480.419E-03    -230.085E-03     184.223E-03
            2025     10.7287E-03     35.2588E-03    -27.0535E+06     46.7230E+06     77.5891E+06    -876.038E+03    -236.507E-03     466.595E-03    -230.087E-03     244.489E-03    -252.564E-03     482.496E-03    -229.728E-03     200.239E-03
            2026     10.0182E-03     34.9295E-03    -34.1261E+06     37.9862E+06     67.7652E+06    -724.403E+03    -237.648E-03     467.326E-03    -229.678E-03     252.503E-03    -253.486E-03     482.981E-03    -229.345E-03     208.384E-03
            2027     9.30606E-03     34.5917E-03    -41.8247E+06     28.5016E+06     55.7743E+06     310.904E+03    -238.067E-03     467.314E-03    -229.248E-03     249.947E-03    -252.593E-03     481.631E-03    -228.949E-03     207.675E-03
            2028     8.59379E-03     34.2666E-03    -49.2502E+06     18.3035E+06     44.1462E+06     1.04769E+06    -237.744E-03     466.561E-03    -228.817E-03     237.975E-03    -250.244E-03     478.823E-03    -228.552E-03     198.886E-03
            2029     7.88031E-03     33.9593E-03    -56.9018E+06     6.25008E+06     33.7833E+06     831.796E+03    -237.020E-03     465.410E-03    -228.391E-03     220.777E-03    -247.312E-03     475.425E-03    -228.148E-03     185.543E-03
            2030     7.16679E-03     33.6763E-03    -65.1384E+06    -25.7434E+06     20.4918E+06     859.005E+03    -235.997E-03     463.968E-03    -227.971E-03     201.413E-03    -244.197E-03     471.786E-03    -227.737E-03     170.262E-03
            2031     6.45348E-03     33.4177E-03    -73.7432E+06    -76.3264E+06     1.88151E+06     771.597E+03    -234.723E-03     462.277E-03    -227.554E-03     181.457E-03    -241.068E-03     468.084E-03    -227.327E-03     154.353E-03
            2032     5.73813E-03     33.1859E-03    -82.5074E+06    -122.778E+06    -16.5261E+06     365.685E+03    -233.246E-03     460.395E-03    -227.149E-03     161.510E-03    -238.040E-03     464.507E-03    -226.934E-03     138.277E-03
            2033     5.02308E-03     32.9804E-03    -90.8278E+06    -161.438E+06    -34.0234E+06     292.054E+03    -231.805E-03     458.564E-03    -226.759E-03     141.317E-03    -235.323E-03     461.285E-03    -226.563E-03     121.715E-03
            2034     4.30643E-03     32.8009E-03    -98.7040E+06    -199.751E+06    -51.4400E+06     277.672E+03    -230.279E-03     456.678E-03    -226.399E-03     121.051E-03    -232.763E-03     458.251E-03    -226.223E-03     104.833E-03
            2035     3.59029E-03     32.6494E-03    -106.572E+06    -230.581E+06    -69.2949E+06     171.208E+03    -228.801E-03     454.875E-03    -226.074E-03     100.781E-03    -230.473E-03     455.551E-03    -225.932E-03     87.7048E-03
            2036     2.87275E-03     32.5248E-03    -114.048E+06    -253.876E+06    -87.4518E+06     61.2419E+03    -227.610E-03     453.397E-03    -225.787E-03     80.7008E-03    -228.667E-03     453.401E-03    -225.691E-03     70.5032E-03
            2037     2.15451E-03     32.4276E-03    -120.257E+06    -277.652E+06    -104.104E+06     161.315E+03    -226.488E-03     452.065E-03    -225.577E-03     60.7354E-03    -227.083E-03     451.550E-03    -225.521E-03     53.2373E-03
            2038     1.43681E-03     32.3577E-03    -125.530E+06    -297.118E+06    -118.229E+06     108.985E+03    -225.672E-03     451.180E-03    -225.508E-03     40.7893E-03    -225.947E-03     450.298E-03    -225.486E-03     35.8381E-03
            2039     718.379E-06     32.3146E-03    -128.299E+06    -310.127E+06    -127.264E+06    -492.162E+03    -226.236E-03     451.119E-03    -224.883E-03     22.3226E-03    -226.323E-03     450.018E-03    -224.883E-03     19.6315E-03
            2040     13.5730E-03     34.7767E-03    -4.32260E+06     67.6447E+06     82.8634E+06     972.549E+03    -233.346E-03     464.538E-03    -231.192E-03     111.337E-03    -239.956E-03     471.133E-03    -230.870E-03     83.6306E-03
            2041     12.8637E-03     34.5606E-03    -9.28110E+06     66.6577E+06     82.7627E+06     69.0177E+03    -233.229E-03     464.146E-03    -230.918E-03     174.625E-03    -244.162E-03     475.043E-03    -230.587E-03     137.891E-03
            2042     12.1526E-03     34.3367E-03    -14.6931E+06     58.8670E+06     81.3288E+06    -964.560E+03    -234.100E-03     464.705E-03    -230.606E-03     196.657E-03    -246.821E-03     477.348E-03    -230.263E-03     157.263E-03
            2043     11.4424E-03     34.0579E-03    -20.6472E+06     52.2463E+06     80.3625E+06    -1.25548E+06    -235.367E-03     465.624E-03    -230.257E-03     225.987E-03    -250.411E-03     480.546E-03    -229.901E-03     183.171E-03
            2044     10.7322E-03     33.7515E-03    -27.3212E+06     45.9765E+06     76.4044E+06    -595.258E+03    -236.594E-03     466.463E-03    -229.869E-03     243.939E-03    -252.565E-03     482.279E-03    -229.514E-03     199.793E-03
            2045     10.0200E-03     33.4206E-03    -34.8780E+06     37.2547E+06     66.1121E+06     95.3749E+03    -237.624E-03     467.068E-03    -229.444E-03     252.448E-03    -253.383E-03     482.644E-03    -229.117E-03     208.506E-03
            2046     9.30822E-03     33.0877E-03    -42.2459E+06     27.1820E+06     54.3379E+06      62.764E+03    -238.165E-03     467.163E-03    -228.998E-03     249.254E-03    -252.608E-03     481.395E-03    -228.705E-03     207.111E-03
            2047     8.59530E-03     32.7616E-03    -49.4660E+06     17.6930E+06     43.2956E+06     56.7682E+03    -238.010E-03     466.538E-03    -228.528E-03     236.656E-03    -250.428E-03     478.717E-03    -228.265E-03     197.644E-03
            2048     7.88338E-03     32.4574E-03    -57.1772E+06     6.08859E+06     33.2720E+06     502.150E+03    -237.290E-03     465.328E-03    -228.038E-03     219.171E-03    -247.511E-03     475.272E-03    -227.798E-03     184.007E-03
            2049     7.17037E-03     32.1758E-03    -65.5237E+06    -26.0532E+06     20.0838E+06     630.481E+03    -235.941E-03     463.500E-03    -227.559E-03     199.804E-03    -244.078E-03     471.253E-03    -227.325E-03     168.764E-03
            2050     6.45569E-03     31.9202E-03    -73.9533E+06    -75.3589E+06     2.32597E+06     967.452E+03    -234.389E-03     461.494E-03    -227.105E-03     180.109E-03    -240.687E-03     467.255E-03    -226.877E-03     153.153E-03
            2051     5.74113E-03     31.6908E-03    -82.3546E+06    -121.054E+06    -15.9444E+06     982.298E+03    -232.988E-03     459.653E-03    -226.665E-03     160.074E-03    -237.741E-03     463.730E-03    -226.449E-03     136.966E-03
            2052     5.02530E-03     31.4863E-03    -90.6734E+06    -160.703E+06    -33.8297E+06     365.606E+03    -231.384E-03     457.623E-03    -226.239E-03     139.878E-03    -234.866E-03     460.310E-03    -226.043E-03     120.402E-03
            2053     4.30971E-03     31.3101E-03    -98.8447E+06    -199.593E+06    -51.0780E+06     401.451E+03    -229.718E-03     455.579E-03    -225.862E-03     119.900E-03    -232.177E-03     457.127E-03    -225.684E-03     103.804E-03
            2054     3.59188E-03     31.1600E-03    -106.876E+06    -230.359E+06    -69.0784E+06     672.884E+03    -228.332E-03     453.851E-03    -225.520E-03     100.023E-03    -229.993E-03     454.516E-03    -225.376E-03     87.0254E-03
            2055     2.87443E-03     31.0368E-03    -114.140E+06    -253.304E+06    -87.4117E+06     715.982E+03    -227.178E-03     452.370E-03    -225.193E-03     79.8006E-03    -228.223E-03     452.365E-03    -225.097E-03     69.7005E-03
            2056     2.15675E-03     30.9411E-03     -120.26E+06    -277.550E+06    -104.023E+06     607.776E+03    -226.099E-03     451.005E-03    -224.906E-03     59.5321E-03    -226.683E-03     450.478E-03    -224.849E-03     52.1137E-03
            2057     1.43758E-03     30.8721E-03    -124.775E+06    -295.848E+06    -117.578E+06     651.359E+03    -225.196E-03     449.889E-03    -224.694E-03     40.1097E-03    -225.466E-03     449.007E-03    -224.672E-03     35.1968E-03
            2058     718.688E-06     30.8289E-03    -127.298E+06    -309.771E+06    -125.990E+06     538.522E+03    -224.995E-03     449.317E-03    -224.322E-03     22.1821E-03    -225.078E-03     448.214E-03    -224.319E-03     19.5675E-03
            2059     13.5783E-03     33.2636E-03    -5.14774E+06     67.8936E+06     83.4849E+06     499.087E+03    -234.785E-03     465.924E-03    -231.138E-03     112.026E-03    -241.429E-03     472.548E-03    -230.812E-03     84.1055E-03
            2060     12.8660E-03     33.0505E-03    -8.39665E+06     67.5437E+06     84.4806E+06     391.803E+03    -233.928E-03     464.735E-03    -230.807E-03     175.573E-03    -244.884E-03     475.656E-03    -230.471E-03     138.709E-03
            2061     12.1559E-03     32.8235E-03    -13.4962E+06     60.1349E+06     82.4463E+06    -29.3653E+03    -234.270E-03     464.735E-03    -230.465E-03     197.212E-03    -246.966E-03     477.358E-03    -230.120E-03     157.827E-03
            2062     11.4448E-03     32.5496E-03    -20.4172E+06     52.6414E+06     80.1102E+06     367.920E+03    -235.320E-03     465.429E-03    -230.109E-03     226.504E-03    -250.279E-03     480.270E-03    -229.755E-03     183.901E-03
            2063     10.7328E-03     32.2404E-03    -27.9927E+06     45.2514E+06     75.4806E+06     426.611E+03    -236.779E-03     466.495E-03    -229.716E-03     243.984E-03    -252.674E-03     482.232E-03    -229.364E-03     199.974E-03
            2064     10.0217E-03     31.9158E-03    -35.1699E+06     37.4937E+06     65.7752E+06     270.519E+03    -238.132E-03     467.388E-03    -229.257E-03     251.379E-03    -253.811E-03     482.885E-03    -228.931E-03     207.460E-03
            2065     9.30988E-03     31.5792E-03    -42.1932E+06     28.1791E+06     54.3809E+06    -290.096E+03    -238.632E-03     467.380E-03    -228.747E-03     247.435E-03    -252.981E-03     481.521E-03    -228.455E-03     205.317E-03
            2066     8.59913E-03     31.2594E-03    -49.7480E+06     16.9078E+06     42.8988E+06    -529.788E+03    -238.263E-03     466.473E-03    -228.210E-03     234.873E-03    -250.597E-03     478.567E-03    -227.948E-03     195.916E-03
            2067     7.88601E-03     30.9538E-03    -57.7822E+06     5.08837E+06     32.6883E+06     12.3593E+03    -237.111E-03     464.784E-03    -227.673E-03     217.647E-03    -247.260E-03     474.652E-03    -227.434E-03     182.612E-03
            2068     7.17297E-03     30.6768E-03    -66.2021E+06    -25.7286E+06     19.3733E+06     597.672E+03    -235.721E-03     462.882E-03    -227.161E-03     198.408E-03    -243.801E-03     470.579E-03    -226.931E-03     167.504E-03
            2069     6.45895E-03     30.4240E-03    -74.6024E+06    -76.0141E+06     1.25748E+06     374.712E+03    -234.368E-03     461.029E-03    -226.661E-03     178.600E-03    -240.616E-03     466.738E-03    -226.436E-03     151.731E-03
            2070     5.74390E-03     30.1953E-03    -82.5350E+06    -120.452E+06    -15.9162E+06     410.512E+03    -232.639E-03     458.815E-03    -226.177E-03     158.538E-03    -237.343E-03     462.846E-03    -225.962E-03     135.566E-03
            2071     5.02857E-03     29.9950E-03    -90.6928E+06    -159.552E+06    -33.3720E+06     727.315E+03    -230.842E-03     456.574E-03    -225.732E-03     138.574E-03    -234.290E-03     459.230E-03    -225.536E-03     119.244E-03
            2072     4.31077E-03     29.8203E-03    -98.9373E+06    -199.973E+06    -51.1376E+06     723.741E+03    -229.369E-03     454.697E-03    -225.329E-03     118.604E-03    -231.802E-03     456.218E-03    -225.151E-03     102.605E-03
            2073     3.59414E-03     29.6719E-03    -106.570E+06    -230.283E+06    -68.9852E+06     964.586E+03    -227.939E-03     452.876E-03    -224.937E-03     98.4627E-03    -229.573E-03     453.514E-03    -224.794E-03     85.5750E-03
            2074     2.87612E-03     29.5502E-03    -113.842E+06    -252.448E+06    -87.2531E+06     1.09093E+06    -226.521E-03     451.104E-03    -224.583E-03     78.7478E-03    -227.551E-03     451.086E-03    -224.488E-03     68.7458E-03
            2075     2.15763E-03     29.4554E-03    -120.134E+06    -276.846E+06    -103.794E+06     856.155E+03    -225.580E-03     449.857E-03    -224.277E-03     59.2369E-03    -226.160E-03     449.328E-03    -224.220E-03     51.8830E-03
            2076     1.43948E-03     29.3891E-03    -124.593E+06    -294.828E+06    -116.566E+06     806.085E+03    -224.853E-03     448.799E-03    -223.946E-03     39.9172E-03    -225.122E-03     447.917E-03    -223.920E-03     35.0469E-03
            2077     720.153E-06     29.3457E-03    -127.710E+06    -307.104E+06    -125.373E+06     1.14727E+06    -223.707E-03     447.599E-03    -223.891E-03     21.9198E-03    -223.796E-03     446.508E-03    -223.888E-03     19.3363E-03
            2078     13.5728E-03     31.7479E-03    -4.91557E+06     67.5991E+06     82.8589E+06    -927.257E+03    -234.795E-03     465.907E-03    -231.112E-03     110.947E-03    -241.402E-03     472.496E-03    -230.788E-03     82.9445E-03
            2079     12.8659E-03     31.5341E-03    -9.63672E+06     65.8355E+06     82.1542E+06    -260.758E+03    -234.156E-03     464.925E-03    -230.769E-03     175.732E-03    -245.070E-03     475.800E-03    -230.440E-03     138.861E-03
            2080     12.1554E-03     31.3138E-03    -14.7072E+06     59.2745E+06     81.0562E+06     1.10971E+06    -234.677E-03     465.094E-03    -230.417E-03     198.073E-03    -247.324E-03     477.664E-03    -230.076E-03     158.789E-03
            2081     11.4445E-03     31.0370E-03    -20.5941E+06     53.2926E+06     80.3668E+06     1.79322E+06    -236.038E-03     466.072E-03    -230.034E-03     226.117E-03    -250.920E-03     480.836E-03    -229.679E-03     183.552E-03
            2082     10.7341E-03     30.7336E-03    -26.7467E+06     46.9390E+06     76.9883E+06     950.311E+03    -237.611E-03     467.194E-03    -229.583E-03     242.489E-03    -253.418E-03     482.850E-03    -229.227E-03     198.422E-03
            2083     10.0237E-03     30.4035E-03    -33.3989E+06     38.2499E+06     67.4944E+06     192.715E+03    -238.716E-03     467.767E-03    -229.051E-03     249.403E-03    -254.299E-03     483.171E-03    -228.721E-03     205.450E-03
            2084     9.31373E-03     30.0763E-03    -40.6092E+06     28.9634E+06     55.7090E+06     482.342E+03    -238.897E-03     467.374E-03    -228.477E-03     246.053E-03    -253.164E-03     481.438E-03    -228.182E-03     203.994E-03
            2085     8.60104E-03     29.7521E-03    -48.2089E+06     17.3295E+06     43.6415E+06     618.559E+03    -238.188E-03     466.085E-03    -227.897E-03     233.749E-03    -250.448E-03     478.110E-03    -227.634E-03     194.922E-03
            2086     7.88962E-03     29.4549E-03    -56.3288E+06     4.37702E+06     33.1431E+06     980.837E+03    -236.933E-03     464.268E-03    -227.335E-03     216.406E-03    -247.007E-03     474.062E-03    -227.094E-03     181.527E-03
            2087     7.17512E-03     29.1774E-03    -64.7307E+06    -25.1157E+06     20.0614E+06     1.30144E+06    -235.698E-03     462.485E-03    -226.787E-03     196.980E-03    -243.706E-03     470.116E-03    -226.556E-03     166.211E-03
            2088     6.46164E-03     28.9266E-03    -73.2228E+06    -74.7213E+06     1.48559E+06     952.615E+03    -234.151E-03     460.394E-03    -226.243E-03     177.021E-03    -240.335E-03     466.049E-03    -226.021E-03     150.298E-03
            2089     5.74694E-03     28.7029E-03    -81.9082E+06    -120.551E+06    -16.5313E+06     834.459E+03    -232.354E-03     458.078E-03    -225.724E-03     157.245E-03    -237.015E-03     462.068E-03    -225.513E-03     134.401E-03
            2090     5.02991E-03     28.5041E-03    -90.3287E+06    -159.437E+06    -33.5952E+06     970.797E+03    -230.771E-03     455.997E-03    -225.227E-03     136.945E-03    -234.177E-03     458.615E-03    -225.032E-03     117.720E-03
            2091     4.31437E-03     28.3314E-03    -98.4153E+06    -199.705E+06    -50.5521E+06     1.06176E+06    -229.099E-03     453.853E-03    -224.753E-03     116.742E-03    -231.495E-03     455.336E-03    -224.574E-03     100.859E-03
            2092     3.59659E-03     28.1850E-03    -106.358E+06    -230.036E+06    -68.1705E+06     1.41013E+06    -227.329E-03     451.649E-03    -224.320E-03     97.0902E-03    -228.940E-03     452.263E-03    -224.173E-03     84.3288E-03
            2093     2.87827E-03     28.0663E-03    -113.534E+06    -250.993E+06    -86.0463E+06     1.22281E+06    -225.841E-03     449.798E-03    -223.958E-03     77.6309E-03    -226.858E-03     449.771E-03    -223.859E-03     67.7214E-03
            2094     2.15869E-03     27.9727E-03    -120.036E+06    -275.517E+06    -102.771E+06     882.585E+03    -224.807E-03     448.481E-03    -223.674E-03     58.2985E-03    -225.381E-03     447.948E-03    -223.614E-03     51.0203E-03
            2095     1.43918E-03     27.9048E-03    -125.254E+06    -294.611E+06    -116.727E+06     571.479E+03    -224.149E-03     447.543E-03    -223.395E-03     39.0752E-03    -224.417E-03     446.659E-03    -223.369E-03     34.2499E-03
            2096     720.021E-06     27.8667E-03    -128.416E+06    -304.354E+06    -125.428E+06     117.338E+03    -223.119E-03     446.539E-03    -223.420E-03     21.0097E-03    -223.214E-03     445.462E-03    -223.420E-03     18.3859E-03
            2097     13.5793E-03     30.2308E-03    -3.03127E+06     68.0489E+06     82.0523E+06    -31.2450E+03    -234.357E-03     465.476E-03    -231.119E-03     112.336E-03    -240.946E-03     472.058E-03    -230.803E-03     84.3627E-03
            2098     12.8657E-03     30.0259E-03    -9.81866E+06     64.5358E+06     80.3909E+06     278.128E+03    -234.610E-03     465.389E-03    -230.780E-03     175.361E-03    -245.440E-03     476.181E-03    -230.457E-03     138.516E-03
            2099     12.1549E-03     29.7971E-03    -15.7920E+06     57.7761E+06     79.1993E+06     412.208E+03    -235.733E-03     466.114E-03    -230.382E-03     196.250E-03    -248.273E-03     478.574E-03    -230.047E-03     156.890E-03
            2100     11.4458E-03     29.5278E-03    -20.3027E+06     53.5445E+06     80.0551E+06    -148.601E+03    -237.014E-03     466.937E-03    -229.923E-03     223.726E-03    -251.815E-03     481.624E-03    -229.571E-03     180.947E-03
            2101     10.7366E-03     29.2188E-03    -26.1354E+06     47.5146E+06     77.1613E+06     109.945E+03    -238.011E-03     467.416E-03    -229.406E-03     240.928E-03    -253.733E-03     482.991E-03    -229.051E-03     196.839E-03
            2102     10.0268E-03     28.8985E-03    -33.1133E+06     38.1887E+06     67.4481E+06     504.719E+03    -238.761E-03     467.601E-03    -228.839E-03     248.696E-03    -254.271E-03     482.933E-03    -228.509E-03     204.843E-03
            2103     9.31477E-03     28.5664E-03    -40.4656E+06     28.5688E+06     55.5643E+06     804.215E+03    -238.908E-03     467.152E-03    -228.244E-03     245.319E-03    -253.109E-03     481.149E-03    -227.949E-03     203.360E-03
            2104     8.60448E-03     28.2512E-03    -48.1650E+06     17.2002E+06     43.4150E+06     1.31233E+06    -238.215E-03     465.852E-03    -227.637E-03     232.624E-03    -250.399E-03     477.801E-03    -227.375E-03     193.924E-03
            2105     7.89027E-03     27.9521E-03    -56.0803E+06     4.39686E+06     32.8680E+06     1.54997E+06    -237.177E-03     464.204E-03    -227.027E-03     214.844E-03    -247.173E-03     473.922E-03    -226.788E-03     180.058E-03
            2106     7.17887E-03     27.6789E-03    -64.3110E+06    -24.3800E+06     20.1248E+06     1.54724E+06    -235.610E-03     462.037E-03    -226.427E-03     195.258E-03    -243.544E-03     469.598E-03    -226.198E-03     164.623E-03
            2107     6.46402E-03     27.4315E-03    -72.8639E+06    -73.2080E+06     1.85922E+06     1.81476E+06    -233.884E-03     459.731E-03    -225.847E-03     175.080E-03    -239.998E-03     465.321E-03    -225.626E-03     148.535E-03
            2108     5.74822E-03     27.2100E-03    -81.3787E+06    -119.905E+06    -16.7713E+06     1.64307E+06    -232.375E-03     457.644E-03    -225.270E-03     154.972E-03    -236.970E-03     461.574E-03    -225.062E-03     132.252E-03
            2109     5.03387E-03     27.0132E-03    -89.5033E+06    -159.087E+06    -34.0603E+06     1.44007E+06    -230.620E-03     455.314E-03    -224.695E-03     135.012E-03    -233.975E-03     457.886E-03    -224.504E-03     115.911E-03
            2110     4.31645E-03     26.8439E-03    -97.5356E+06    -199.013E+06    -49.8434E+06     1.60972E+06    -228.554E-03     452.735E-03    -224.181E-03     115.171E-03    -230.911E-03     454.183E-03    -224.000E-03     99.4470E-03
            2111     3.59845E-03     26.7011E-03    -105.342E+06    -229.125E+06    -66.2288E+06     1.39932E+06    -226.774E-03     450.509E-03    -223.734E-03     95.9538E-03    -228.364E-03     451.103E-03    -223.581E-03     83.2920E-03
            2112     2.87954E-03     26.5827E-03    -112.551E+06    -249.591E+06    -84.1369E+06     1.16864E+06    -225.508E-03     448.826E-03    -223.318E-03     76.4934E-03    -226.511E-03     448.787E-03    -223.213E-03     66.6635E-03
            2113     2.16109E-03     26.4916E-03    -118.963E+06    -274.057E+06    -101.231E+06     1.01931E+06    -224.189E-03     447.154E-03    -222.965E-03     57.0613E-03    -224.748E-03     446.612E-03    -222.901E-03     49.8725E-03
            2114     1.44090E-03     26.4255E-03    -123.980E+06    -293.100E+06    -115.609E+06     706.846E+03    -223.027E-03     445.813E-03    -222.785E-03     38.2338E-03    -223.287E-03     444.927E-03    -222.758E-03     33.4870E-03
            2115     720.276E-06     26.3858E-03    -127.438E+06    -303.558E+06    -125.639E+06     106.378E+03    -222.904E-03     445.559E-03    -222.655E-03     20.4521E-03    -222.992E-03     444.482E-03    -222.658E-03     17.8725E-03
            2116     13.5705E-03     28.7191E-03    -4.09176E+06     67.1398E+06     81.4441E+06     1.02855E+06    -235.617E-03     466.770E-03    -231.154E-03     111.203E-03    -242.119E-03     473.260E-03    -230.838E-03     83.3280E-03
            2117     12.8645E-03     28.5050E-03    -8.27894E+06     66.5294E+06     82.5101E+06     1.22329E+06    -235.788E-03     466.537E-03    -230.749E-03     173.134E-03    -246.527E-03     477.244E-03    -230.421E-03     136.194E-03
            2118     12.1574E-03     28.2865E-03    -13.5670E+06     59.8053E+06     81.3214E+06     49.5722E+03    -236.579E-03     466.858E-03    -230.279E-03     194.399E-03    -249.056E-03     479.263E-03    -229.940E-03     154.857E-03
            2119     11.4485E-03     28.0104E-03    -20.2595E+06     53.6597E+06     79.6289E+06    -747.456E+03    -237.035E-03     466.809E-03    -229.773E-03     222.786E-03    -251.747E-03     481.408E-03    -229.424E-03     180.072E-03
            2120     10.7386E-03     27.7123E-03    -27.5803E+06     45.9375E+06     75.1642E+06    -280.004E+03    -237.810E-03     467.059E-03    -229.249E-03     240.548E-03    -253.455E-03     482.551E-03    -228.900E-03     196.605E-03
            2121     10.0270E-03     27.3866E-03    -34.5144E+06     37.8324E+06     65.7402E+06     181.729E+03    -238.753E-03     467.433E-03    -228.680E-03     248.340E-03    -254.197E-03     482.699E-03    -228.357E-03     204.592E-03
            2122     9.31766E-03     27.0621E-03    -41.7025E+06     27.5674E+06     54.0310E+06     279.720E+03    -239.099E-03     467.163E-03    -228.064E-03     244.189E-03    -253.222E-03     481.080E-03    -227.774E-03     202.292E-03
            2123     8.60433E-03     26.7458E-03    -48.8938E+06     16.0495E+06     42.5507E+06     877.805E+03    -238.667E-03     466.074E-03    -227.407E-03     230.931E-03    -250.767E-03     477.934E-03    -227.147E-03     192.257E-03
            2124     7.89485E-03     26.4506E-03    -56.5075E+06     4.59317E+06     32.5124E+06     1.32042E+06    -237.349E-03     464.082E-03    -226.732E-03     212.911E-03    -247.256E-03     473.709E-03    -226.495E-03     178.221E-03
            2125     7.18006E-03     26.1813E-03    -64.9407E+06    -24.4194E+06     19.5530E+06     1.72859E+06    -235.709E-03     461.778E-03    -226.069E-03     192.963E-03    -243.555E-03     469.251E-03    -225.842E-03     162.455E-03
            2126     6.46644E-03     25.9362E-03    -73.5228E+06    -72.4558E+06     1.78858E+06     2.03907E+06    -234.158E-03     459.563E-03    -225.405E-03     172.388E-03    -240.181E-03     465.063E-03    -225.184E-03     145.977E-03
            2127     5.75282E-03     25.7175E-03    -81.8362E+06    -118.506E+06    -16.3050E+06     1.81331E+06    -232.214E-03     456.956E-03    -224.742E-03     152.211E-03    -236.724E-03     460.802E-03    -224.533E-03     129.691E-03
            2128     5.03562E-03     25.5241E-03    -90.1361E+06    -158.475E+06    -33.9918E+06     1.73664E+06    -229.992E-03     454.114E-03    -224.123E-03     132.457E-03    -233.279E-03     456.618E-03    -223.932E-03     113.582E-03
            2129     4.31877E-03     25.3582E-03    -98.1097E+06    -197.199E+06    -50.7141E+06     1.34361E+06    -228.122E-03     451.690E-03    -223.568E-03     112.601E-03    -230.425E-03     453.092E-03    -223.393E-03     97.0589E-03
            2130     3.60064E-03     25.2176E-03    -105.589E+06    -227.673E+06    -67.0603E+06     252.194E+03    -226.469E-03     449.513E-03    -223.044E-03     93.3479E-03    -228.016E-03     450.072E-03    -222.896E-03     80.8170E-03
            2131     2.88206E-03     25.1012E-03    -112.463E+06    -250.272E+06    -84.2187E+06     492.024E+03    -224.717E-03     447.296E-03    -222.579E-03     74.4690E-03    -225.689E-03     447.225E-03    -222.474E-03     64.7808E-03
            2132     2.16194E-03     25.0116E-03    -118.172E+06    -272.853E+06    -100.487E+06     1.01001E+06    -223.301E-03     445.547E-03    -222.246E-03     55.8554E-03    -223.845E-03     444.994E-03    -222.181E-03     48.7741E-03
            2133     1.44162E-03     24.9491E-03    -122.970E+06    -291.053E+06    -114.226E+06     890.321E+03    -222.410E-03     444.470E-03    -222.061E-03     37.7522E-03    -222.663E-03     443.586E-03    -222.032E-03     33.0868E-03
            2134     720.246E-06     24.9084E-03    -126.569E+06    -301.628E+06    -124.244E+06     906.952E+03    -222.193E-03     444.050E-03    -221.857E-03     20.4309E-03    -222.280E-03     442.977E-03    -221.858E-03     17.9243E-03
            2135     13.5797E-03     27.2013E-03    -5.81183E+06     65.8651E+06     81.9308E+06    -112.115E+03    -237.729E-03     468.890E-03    -231.161E-03     109.743E-03    -244.199E-03     475.335E-03    -230.838E-03     81.7095E-03
            2136     12.8686E-03     26.9924E-03    -8.63385E+06     66.9446E+06     83.4598E+06     78.0002E+03    -236.444E-03     467.124E-03    -230.681E-03     173.340E-03    -247.149E-03     477.795E-03    -230.348E-03     136.357E-03
            2137     12.1587E-03     26.7673E-03    -12.9701E+06     61.1191E+06     82.2323E+06     950.592E+03    -236.399E-03     466.595E-03    -230.196E-03     194.706E-03    -248.796E-03     478.924E-03    -229.855E-03     155.361E-03
            2138     11.4492E-03     26.5016E-03    -19.6606E+06     54.6339E+06     80.3495E+06     1.39633E+06    -236.932E-03     466.634E-03    -229.702E-03     222.956E-03    -251.554E-03     481.148E-03    -229.351E-03     180.476E-03
            2139     10.7384E-03     26.1991E-03    -26.3380E+06     46.0616E+06     76.0827E+06     878.182E+03    -238.108E-03     467.282E-03    -229.174E-03     240.268E-03    -253.686E-03     482.709E-03    -228.822E-03     196.376E-03
            2140     10.0296E-03     25.8798E-03    -33.6331E+06     38.1649E+06     66.1697E+06     927.695E+03    -239.223E-03     467.791E-03    -228.567E-03     247.227E-03    -254.585E-03     482.976E-03    -228.243E-03     203.480E-03
            2141     9.31692E-03     25.5539E-03    -41.1381E+06     27.8083E+06     53.9117E+06     819.562E+03    -239.643E-03     467.534E-03    -227.891E-03     242.409E-03    -253.655E-03     481.342E-03    -227.602E-03     200.537E-03
            2142     8.60894E-03     25.2405E-03    -48.7372E+06     15.4627E+06     41.8493E+06     659.621E+03    -239.053E-03     466.216E-03    -227.163E-03     228.694E-03    -251.027E-03     477.951E-03    -226.906E-03     190.089E-03
            2143     7.89472E-03     24.9500E-03    -56.8267E+06     3.66837E+06     31.8768E+06     1.34351E+06    -237.855E-03     464.261E-03    -226.406E-03     210.054E-03    -247.622E-03     473.747E-03    -226.169E-03     175.472E-03
            2144     7.18373E-03     24.6820E-03    -65.3217E+06    -24.9151E+06     19.2554E+06     2.07787E+06    -236.310E-03     461.936E-03    -225.626E-03     189.186E-03    -243.995E-03     469.245E-03    -225.399E-03     158.846E-03
            2145     6.47066E-03     24.4414E-03    -73.8843E+06    -71.0300E+06     2.07042E+06     2.07002E+06    -234.257E-03     459.098E-03    -224.841E-03     168.621E-03    -240.138E-03     464.459E-03    -224.621E-03     142.451E-03
            2146     5.75500E-03     24.2256E-03    -82.2248E+06    -116.867E+06    -15.3694E+06     1.86044E+06    -231.993E-03     456.077E-03    -224.084E-03     148.325E-03    -236.382E-03     459.804E-03    -223.872E-03     126.085E-03
            2147     5.03985E-03     24.0380E-03    -90.1953E+06    -157.670E+06    -32.8099E+06     1.59050E+06    -229.759E-03     453.124E-03    -223.365E-03     128.098E-03    -232.931E-03     455.512E-03    -223.170E-03     109.503E-03
            2148     4.32207E-03     23.8731E-03    -97.7832E+06    -193.984E+06    -50.7485E+06     688.319E+03    -227.735E-03     450.418E-03    -222.683E-03     108.527E-03    -229.947E-03     451.741E-03    -222.514E-03     93.2574E-03
            2149     3.60445E-03     23.7355E-03    -105.023E+06    -226.205E+06    -68.0504E+06    -234.733E+03    -225.720E-03     447.778E-03    -222.057E-03     89.6089E-03    -227.194E-03     448.273E-03    -221.917E-03     77.3568E-03
            2150     2.88477E-03     23.6230E-03    -111.892E+06    -252.155E+06    -84.8197E+06    -173.966E+03    -223.649E-03     445.199E-03    -221.550E-03     71.2595E-03    -224.568E-03     445.073E-03    -221.447E-03     61.7887E-03
            2151     2.16378E-03     23.5361E-03    -117.983E+06    -272.501E+06    -100.811E+06     479.663E+03    -222.238E-03     443.435E-03    -221.196E-03     53.1746E-03    -222.753E-03     442.856E-03    -221.134E-03     46.2770E-03
            2152     1.44256E-03     23.4718E-03    -122.490E+06    -289.979E+06    -114.246E+06     628.990E+03    -221.635E-03     442.527E-03    -220.892E-03     35.6063E-03    -221.873E-03     441.632E-03    -220.865E-03     31.0524E-03
            2153     722.483E-06     23.4339E-03    -124.915E+06    -299.394E+06    -123.317E+06     181.260E+03    -221.327E-03     441.483E-03    -220.157E-03     18.8362E-03    -221.405E-03     440.414E-03    -220.158E-03     16.3982E-03
            2154     13.5712E-03     25.6810E-03    -4.33955E+06     66.7603E+06     81.3270E+06    -467.277E+03    -237.574E-03     468.771E-03    -231.196E-03     110.522E-03    -244.053E-03     475.235E-03    -230.880E-03     82.3723E-03
            2155     12.8663E-03     25.4725E-03    -10.3094E+06     64.6533E+06     80.1875E+06    -249.421E+03    -236.950E-03     467.660E-03    -230.710E-03     174.540E-03    -247.655E-03     478.325E-03    -230.388E-03     137.493E-03
            2156     12.1581E-03     25.2554E-03    -15.4395E+06     58.5576E+06     79.4750E+06     149.302E+03    -236.620E-03     466.837E-03    -230.217E-03     194.905E-03    -248.974E-03     479.114E-03    -229.882E-03     155.628E-03
            2157     11.4481E-03     24.9867E-03    -19.9750E+06     54.9292E+06     80.2245E+06     802.003E+03    -237.437E-03     467.147E-03    -229.710E-03     222.426E-03    -252.005E-03     481.606E-03    -229.359E-03     179.905E-03
            2158     10.7399E-03     24.6883E-03    -25.8205E+06     46.3336E+06     76.8221E+06     1.16792E+06    -238.980E-03     468.115E-03    -229.135E-03     239.370E-03    -254.491E-03     483.476E-03    -228.781E-03     195.360E-03
            2159     10.0285E-03     24.3691E-03    -32.8309E+06     37.9086E+06     67.2304E+06     1.53431E+06    -240.247E-03     468.698E-03    -228.451E-03     245.507E-03    -255.496E-03     483.770E-03    -228.122E-03     201.662E-03
            2160     9.32177E-03     24.0454E-03    -40.2865E+06     29.2676E+06     55.3259E+06     1.87156E+06    -240.488E-03     468.166E-03    -227.678E-03     239.988E-03    -254.335E-03     481.814E-03    -227.385E-03     198.151E-03
            2161     8.60838E-03     23.7365E-03    -48.2190E+06     15.6915E+06     42.3940E+06     1.95699E+06    -240.098E-03     466.927E-03    -226.829E-03     224.942E-03    -251.843E-03     478.434E-03    -226.569E-03     186.462E-03
            2162     7.90011E-03     23.4463E-03    -56.4213E+06     2.51135E+06     31.7348E+06     2.36369E+06    -238.913E-03     464.821E-03    -225.908E-03     204.778E-03    -248.403E-03     474.028E-03    -225.672E-03     170.418E-03
            2163     7.18810E-03     23.1835E-03    -64.7849E+06    -23.6047E+06     19.8935E+06     2.48266E+06    -236.816E-03     461.774E-03    -224.958E-03     183.536E-03    -244.237E-03     468.824E-03    -224.730E-03     153.543E-03
            2164     6.47478E-03     22.9471E-03    -72.8487E+06    -68.7160E+06     3.19812E+06     1.80268E+06    -234.467E-03     458.477E-03    -224.010E-03     162.475E-03    -240.107E-03     463.606E-03    -223.789E-03     136.691E-03
            2165     5.76119E-03     22.7363E-03    -80.4707E+06    -115.854E+06    -14.2007E+06     1.34496E+06    -232.053E-03     455.130E-03    -223.077E-03     141.700E-03    -236.218E-03     458.640E-03    -222.864E-03     119.878E-03
            2166     5.04492E-03     22.5508E-03    -87.9736E+06    -156.277E+06    -31.1448E+06     1.21583E+06    -229.645E-03     451.805E-03    -222.160E-03     121.653E-03    -232.632E-03     454.016E-03    -221.962E-03     103.480E-03
            2167     4.32857E-03     22.3918E-03    -95.4524E+06    -191.168E+06    -48.7847E+06     674.760E+03    -227.114E-03     448.395E-03    -221.281E-03     102.463E-03    -229.182E-03     449.587E-03    -221.110E-03     87.6192E-03
            2168     3.60900E-03     22.2566E-03    -102.857E+06    -225.478E+06    -66.3806E+06     338.250E+03    -224.625E-03     445.118E-03    -220.493E-03     83.4928E-03    -225.981E-03     445.501E-03    -220.349E-03     71.6742E-03
            2169     2.88889E-03     22.1484E-03    -110.192E+06    -252.735E+06    -83.9690E+06     556.581E+03    -222.501E-03     442.312E-03    -219.811E-03     65.4836E-03    -223.334E-03     442.100E-03    -219.705E-03     56.3895E-03
            2170     2.16812E-03     22.0624E-03    -116.612E+06    -272.075E+06    -100.684E+06     757.016E+03    -220.817E-03     440.062E-03    -219.245E-03     48.9392E-03    -221.280E-03     439.437E-03    -219.185E-03     42.3555E-03
            2171     1.44635E-03     22.0008E-03    -121.862E+06    -289.117E+06    -114.163E+06     496.442E+03    -219.501E-03     438.344E-03    -218.842E-03     32.8993E-03    -219.716E-03     437.429E-03    -218.817E-03     28.5809E-03
            2172     722.693E-06     21.9623E-03    -125.043E+06    -298.234E+06    -123.347E+06     267.461E+03    -219.211E-03     437.390E-03    -218.179E-03     17.8934E-03    -219.285E-03     436.320E-03    -218.182E-03     15.5679E-03
            2173     13.5755E-03     24.1596E-03    -3.20645E+06     67.3465E+06     81.7407E+06     909.361E+03    -237.332E-03     468.575E-03    -231.243E-03     108.065E-03    -243.646E-03     474.880E-03    -230.927E-03     80.3099E-03
            2174     12.8653E-03     23.9557E-03    -9.08241E+06     65.0789E+06     80.0438E+06     638.875E+03    -236.366E-03     467.139E-03    -230.773E-03     171.345E-03    -246.891E-03     477.631E-03    -230.454E-03     134.550E-03
            2175     12.1564E-03     23.7379E-03    -15.2154E+06     58.3486E+06     78.3064E+06    -568.304E+03    -237.006E-03     467.285E-03    -230.278E-03     193.405E-03    -249.283E-03     479.487E-03    -229.949E-03     154.042E-03
            2176     11.4489E-03     23.4731E-03    -20.9334E+06     53.6533E+06     78.4528E+06    -684.784E+03    -238.415E-03     468.141E-03    -229.726E-03     221.699E-03    -252.941E-03     482.556E-03    -229.382E-03     178.929E-03
            2177     10.7385E-03     23.1751E-03    -27.5604E+06     45.1075E+06     74.9421E+06     159.246E+03    -240.377E-03     469.444E-03    -229.067E-03     237.872E-03    -255.779E-03     484.691E-03    -228.718E-03     193.636E-03
            2178     10.0328E-03     22.8557E-03    -34.2845E+06     36.4764E+06     65.6985E+06     705.151E+03    -241.755E-03     470.018E-03    -228.263E-03     242.643E-03    -256.787E-03     484.867E-03    -227.938E-03     198.702E-03
            2179     9.32105E-03     22.5381E-03    -41.0981E+06     28.4513E+06     54.4247E+06     1.50580E+06    -242.526E-03     469.842E-03    -227.315E-03     235.455E-03    -256.068E-03     483.181E-03    -227.025E-03     193.579E-03
            2180     8.61569E-03     22.2276E-03    -48.2038E+06     15.4970E+06     42.1621E+06     2.24865E+06    -242.083E-03     468.313E-03    -226.229E-03     218.402E-03    -253.434E-03     479.426E-03    -225.971E-03     180.083E-03
            2181     7.90552E-03     21.9439E-03    -55.2585E+06     2.37578E+06     32.4459E+06     2.46745E+06    -240.159E-03     465.218E-03    -225.059E-03     197.061E-03    -249.224E-03     474.002E-03    -224.820E-03     163.114E-03
            2182     7.19513E-03     21.6857E-03    -62.4342E+06    -21.2465E+06     21.7015E+06     2.21563E+06    -237.764E-03     461.614E-03    -223.850E-03     174.719E-03    -244.773E-03     468.264E-03    -223.621E-03     145.244E-03
            2183     6.48384E-03     21.4535E-03    -70.0160E+06    -66.4562E+06     4.77841E+06     1.67937E+06    -235.125E-03     457.738E-03    -222.614E-03     152.616E-03    -240.372E-03     462.488E-03    -222.392E-03     127.453E-03
            2184     5.76986E-03     21.2483E-03    -77.9529E+06    -114.709E+06    -13.5260E+06     1.41766E+06    -232.255E-03     453.622E-03    -221.368E-03     131.708E-03    -236.077E-03     456.801E-03    -221.156E-03     110.565E-03
            2185     5.05498E-03     21.0678E-03    -86.0372E+06    -154.871E+06    -30.6456E+06     1.41953E+06    -229.160E-03     449.302E-03    -220.142E-03     111.516E-03    -231.862E-03     451.238E-03    -219.946E-03     94.0688E-03
            2186     4.33704E-03     20.9130E-03    -94.1397E+06    -189.042E+06    -47.5147E+06     1.20964E+06    -225.971E-03     444.950E-03    -218.979E-03     92.7004E-03    -227.820E-03     445.932E-03    -218.806E-03     78.5638E-03
            2187     3.61877E-03     20.7833E-03    -102.145E+06    -224.745E+06    -64.8838E+06     1.09247E+06    -223.063E-03     440.983E-03    -217.920E-03     75.0887E-03    -224.267E-03     441.215E-03    -217.770E-03     63.9104E-03
            2188     2.89794E-03     20.6782E-03    -109.429E+06    -252.611E+06    -82.6134E+06     1.33536E+06    -220.550E-03     437.508E-03    -216.958E-03     58.5638E-03    -221.281E-03     437.193E-03    -216.846E-03     50.0321E-03
            2189     2.17487E-03     20.5966E-03    -115.778E+06    -270.623E+06    -98.7629E+06     1.32529E+06    -218.241E-03     434.377E-03    -216.136E-03     43.4590E-03    -218.648E-03     433.699E-03    -216.070E-03     37.2944E-03
            2190     1.45029E-03     20.5366E-03    -120.918E+06    -287.359E+06    -112.307E+06     1.04537E+06    -216.355E-03     431.920E-03    -215.566E-03     28.8581E-03    -216.543E-03     430.984E-03    -215.535E-03     24.8444E-03
            2191     725.261E-06     20.5017E-03    -125.024E+06    -296.470E+06    -122.039E+06     730.095E+03    -215.079E-03     430.688E-03    -215.609E-03     15.5460E-03    -215.149E-03     429.614E-03    -215.608E-03     13.4349E-03
            2192     13.5742E-03     22.6456E-03    -5.14871E+06     65.9114E+06     81.6171E+06     228.514E+03    -238.055E-03     469.425E-03    -231.370E-03     110.570E-03    -244.435E-03     475.784E-03    -231.050E-03     82.6894E-03
            2193     12.8652E-03     22.4388E-03    -7.91274E+06     66.9071E+06     83.2456E+06     764.674E+03    -237.171E-03     468.053E-03    -230.883E-03     173.467E-03    -247.723E-03     478.574E-03    -230.552E-03     136.623E-03
            2194     12.1568E-03     22.2217E-03    -12.7649E+06     60.6933E+06     80.9994E+06     1.13142E+06    -237.939E-03     468.282E-03    -230.344E-03     193.051E-03    -250.148E-03     480.427E-03    -230.008E-03     153.588E-03
            2195     11.4467E-03     21.9578E-03    -19.8535E+06     53.4009E+06     78.3152E+06     1.08411E+06    -240.093E-03     469.796E-03    -229.703E-03     220.272E-03    -254.486E-03     484.080E-03    -229.360E-03     177.260E-03
            2196     10.7422E-03     21.6566E-03    -26.9764E+06     45.0177E+06     73.9881E+06     935.788E+03    -242.632E-03     471.530E-03    -228.898E-03     234.985E-03    -257.785E-03     486.532E-03    -228.554E-03     190.495E-03
            2197     10.0326E-03     21.3448E-03    -34.1896E+06     36.3299E+06     64.4505E+06     853.588E+03    -244.925E-03     472.788E-03    -227.863E-03     237.142E-03    -259.540E-03     487.224E-03    -227.544E-03     192.991E-03
            2198     9.33008E-03     21.0225E-03    -41.1752E+06     27.2133E+06     52.9920E+06     697.403E+03    -245.721E-03     472.319E-03    -226.598E-03     227.330E-03    -258.704E-03     485.099E-03    -226.313E-03     185.490E-03
            2199     8.62276E-03     20.7202E-03    -47.5601E+06     14.7390E+06     41.9774E+06     686.902E+03    -244.470E-03     469.635E-03    -225.164E-03     208.500E-03    -255.199E-03     480.126E-03    -224.907E-03     170.574E-03
            2200     7.91634E-03     20.4408E-03    -53.9760E+06     2.41799E+06     33.2615E+06     910.678E+03    -242.323E-03     465.940E-03    -223.617E-03     185.510E-03    -250.768E-03     474.107E-03    -223.376E-03     152.134E-03
            2201     7.20851E-03     20.1875E-03    -61.3377E+06    -20.3862E+06     22.1080E+06     1.16475E+06    -239.355E-03     461.337E-03    -221.982E-03     161.572E-03    -245.768E-03     467.397E-03    -221.753E-03     132.873E-03
            2202     6.49791E-03     19.9629E-03    -69.3937E+06    -65.1261E+06     4.81149E+06     1.60558E+06    -235.948E-03     456.248E-03    -220.300E-03     139.156E-03    -240.675E-03     460.485E-03    -220.081E-03     114.909E-03
            2203     5.78593E-03     19.7631E-03    -77.4341E+06    -112.982E+06    -13.5595E+06     1.81210E+06    -232.218E-03     450.826E-03    -218.608E-03     117.987E-03    -235.605E-03     453.577E-03    -218.399E-03     97.8277E-03
            2204     5.07094E-03     19.5895E-03    -85.2688E+06    -153.141E+06    -30.7245E+06     1.72802E+06    -227.973E-03     444.941E-03    -216.968E-03     98.5925E-03    -230.331E-03     446.542E-03    -216.776E-03     82.1473E-03
            2205     4.35377E-03     19.4420E-03    -92.9339E+06    -187.273E+06    -47.0035E+06     1.80289E+06    -223.850E-03     439.305E-03    -215.455E-03     81.3757E-03    -225.450E-03     440.046E-03    -215.284E-03     68.1754E-03
            2206     3.63216E-03     19.3173E-03    -100.461E+06    -223.601E+06    -62.6946E+06     1.73392E+06    -220.224E-03     434.333E-03    -214.108E-03     65.5848E-03    -221.257E-03     434.396E-03    -213.952E-03     55.2225E-03
            2207     2.90899E-03     19.2175E-03    -107.567E+06    -251.482E+06    -79.0531E+06     1.64428E+06    -217.148E-03     430.054E-03    -212.905E-03     51.0269E-03    -217.775E-03     429.633E-03    -212.780E-03     43.1511E-03
            2208     2.18459E-03     19.1396E-03    -114.179E+06    -269.026E+06    -96.0978E+06     1.58348E+06    -214.495E-03     426.347E-03    -211.852E-03     37.5276E-03    -214.843E-03     425.612E-03    -211.777E-03     31.8556E-03
            2209     1.45783E-03     19.0855E-03    -119.609E+06    -285.062E+06    -110.421E+06     1.59847E+06    -212.342E-03     423.350E-03    -211.008E-03     25.0069E-03    -212.504E-03     422.394E-03    -210.973E-03     21.3310E-03
            2210     729.717E-06     19.0489E-03    -123.120E+06    -293.224E+06    -120.819E+06     1.22955E+06    -210.546E-03     421.238E-03    -210.692E-03     13.2805E-03    -210.605E-03     420.166E-03    -210.692E-03     11.3655E-03
            2211     13.5655E-03     21.1176E-03    -4.49877E+06     66.3274E+06     80.1211E+06    -342.847E+03    -237.603E-03     469.115E-03    -231.512E-03     107.330E-03    -243.885E-03     475.385E-03    -231.201E-03     79.5306E-03
            2212     12.8616E-03     20.9188E-03    -9.80224E+06     64.5704E+06     79.6855E+06    -764.679E+03    -238.108E-03     469.114E-03    -231.006E-03     171.144E-03    -248.603E-03     479.572E-03    -230.687E-03     134.040E-03
            2213     12.1541E-03     20.7032E-03    -14.1641E+06     58.3996E+06     79.4277E+06     517.714E+03    -240.182E-03     470.565E-03    -230.383E-03     192.746E-03    -252.352E-03     482.662E-03    -230.050E-03     152.826E-03
            2214     11.4507E-03     20.4370E-03    -19.2461E+06     53.2237E+06     78.8711E+06     2.05929E+06    -243.601E-03     473.167E-03    -229.566E-03     218.005E-03    -257.760E-03     487.218E-03    -229.221E-03     174.513E-03
            2215     10.7426E-03     20.1404E-03    -25.3757E+06     46.3591E+06     75.2672E+06     2.37365E+06    -247.200E-03     475.665E-03    -228.465E-03     228.920E-03    -261.855E-03     490.176E-03    -228.119E-03     184.019E-03
            2216     10.0432E-03     19.8221E-03    -31.9760E+06     37.9700E+06     66.1689E+06     1.78928E+06    -249.648E-03     476.675E-03    -227.027E-03     227.772E-03    -263.548E-03     490.405E-03    -226.705E-03     183.485E-03
            2217     9.33981E-03     19.5083E-03    -38.6776E+06     28.3412E+06     54.6843E+06     1.23081E+06    -249.612E-03     474.915E-03    -225.303E-03     214.979E-03    -261.740E-03     486.849E-03    -225.015E-03     173.474E-03
            2218     8.63799E-03     19.2107E-03    -46.1239E+06     15.8285E+06     43.0304E+06     840.576E+03    -247.971E-03     471.336E-03    -223.365E-03     194.028E-03    -257.825E-03     480.960E-03    -223.106E-03     156.737E-03
            2219     7.93466E-03     18.9358E-03    -54.3240E+06     2.97238E+06     32.8476E+06     320.182E+03    -244.992E-03     466.258E-03    -221.265E-03     169.295E-03    -252.608E-03     473.598E-03    -221.027E-03     136.831E-03
            2220     7.22899E-03     18.6924E-03    -62.4952E+06    -20.0428E+06     21.0817E+06     169.493E+03    -240.865E-03     459.935E-03    -219.070E-03     145.025E-03    -246.558E-03     465.276E-03    -218.845E-03     117.441E-03
            2221     6.52083E-03     18.4750E-03    -70.2731E+06    -64.5073E+06     4.31043E+06     616.372E+03    -236.343E-03     453.187E-03    -216.843E-03     123.100E-03    -240.487E-03     456.841E-03    -216.626E-03     100.046E-03
            2222     5.80947E-03     18.2833E-03    -77.6934E+06    -111.760E+06    -13.4913E+06     1.23180E+06    -231.048E-03     445.706E-03    -214.658E-03     102.933E-03    -233.974E-03     447.999E-03    -214.451E-03     84.0299E-03
            2223     5.09386E-03     18.1210E-03    -85.0790E+06    -151.150E+06    -30.5241E+06     1.43533E+06    -225.664E-03     438.264E-03    -212.600E-03     85.4226E-03    -227.688E-03     439.539E-03    -212.410E-03     70.1460E-03
            2224     4.37355E-03     17.9796E-03    -92.4525E+06    -186.749E+06    -47.2326E+06     1.69906E+06    -220.697E-03     431.421E-03    -210.724E-03     69.7988E-03    -222.058E-03     431.928E-03    -210.555E-03     57.6384E-03
            2225     3.65142E-03     17.8645E-03    -99.9243E+06    -221.066E+06    -62.7359E+06     1.91567E+06    -216.161E-03     425.234E-03    -209.073E-03     55.7554E-03    -217.035E-03     425.149E-03    -208.921E-03     46.2879E-03
            2226     2.92534E-03     17.7688E-03    -107.276E+06    -249.746E+06    -78.6006E+06     1.27803E+06    -212.301E-03     419.965E-03    -207.665E-03     43.1212E-03    -212.830E-03     419.454E-03    -207.540E-03     35.9637E-03
            2227     2.19590E-03     17.6978E-03    -113.247E+06    -268.461E+06    -94.8960E+06     1.60561E+06    -209.289E-03     415.780E-03    -206.491E-03     31.6127E-03    -209.582E-03     414.990E-03    -206.412E-03     26.4855E-03
            2228     1.46542E-03     17.6451E-03    -118.212E+06    -282.198E+06    -109.577E+06     1.74592E+06    -207.004E-03     412.556E-03    -205.552E-03     21.1263E-03    -207.141E-03     411.587E-03    -205.519E-03     17.7999E-03
            2229     732.795E-06     17.6163E-03    -121.336E+06    -289.601E+06    -119.135E+06     824.169E+03    -205.212E-03     410.233E-03    -205.021E-03     11.4962E-03    -205.263E-03     409.167E-03    -205.021E-03     9.72598E-03
            2230     13.5745E-03     19.6046E-03    -3.20019E+06     67.1031E+06     80.3352E+06     379.272E+03    -237.939E-03     469.522E-03    -231.583E-03     107.458E-03    -244.163E-03     475.740E-03    -231.274E-03     79.7640E-03
            2231     12.8613E-03     19.3983E-03    -8.22416E+06     64.9092E+06     78.8090E+06     366.114E+03    -239.137E-03     470.177E-03    -231.041E-03     171.232E-03    -249.552E-03     480.565E-03    -230.729E-03     133.975E-03
            2232     12.1560E-03     19.1810E-03    -14.7822E+06     56.6055E+06     75.9896E+06     407.438E+03    -244.250E-03     474.513E-03    -230.263E-03     190.932E-03    -256.233E-03     486.424E-03    -229.944E-03     150.331E-03
            2233     11.4502E-03     18.9110E-03    -20.4471E+06     51.5163E+06     76.2761E+06     247.088E+03    -249.795E-03     478.901E-03    -229.107E-03     211.677E-03    -263.478E-03     492.474E-03    -228.770E-03     167.319E-03
            2234     10.7555E-03     18.6125E-03    -25.4398E+06     45.9248E+06     75.1737E+06     457.449E+03    -253.900E-03     481.417E-03    -227.517E-03     218.780E-03    -267.775E-03     495.147E-03    -227.170E-03     173.333E-03
            2235     10.0558E-03     18.2989E-03    -31.0296E+06     38.3465E+06     67.5897E+06     903.947E+03    -255.354E-03     480.868E-03    -225.513E-03     213.855E-03    -268.223E-03     493.568E-03    -225.186E-03     169.700E-03
            2236     9.35991E-03     17.9900E-03    -37.6227E+06     28.2901E+06     55.9493E+06     1.54759E+06    -254.601E-03     477.775E-03    -223.174E-03     198.142E-03    -265.609E-03     488.590E-03    -222.881E-03     157.265E-03
            2237     8.66215E-03     17.6985E-03    -44.8250E+06     17.4045E+06     44.4838E+06     2.23439E+06    -251.934E-03     472.513E-03    -220.579E-03     175.801E-03    -260.732E-03     481.087E-03    -220.316E-03     139.507E-03
            2238     7.96251E-03     17.4337E-03    -52.2985E+06     6.31507E+06     34.4099E+06     1.56300E+06    -247.299E-03     465.123E-03    -217.824E-03     150.548E-03    -253.979E-03     471.543E-03    -217.585E-03     119.427E-03
            2239     7.25882E-03     17.2009E-03    -59.8182E+06    -17.8968E+06     22.1522E+06     286.655E+03    -241.770E-03     456.777E-03    -215.008E-03     126.712E-03    -246.689E-03     461.359E-03    -214.784E-03     100.578E-03
            2240     6.55177E-03     16.9921E-03    -67.4535E+06    -63.7664E+06     5.66267E+06     555.427E+03    -235.335E-03     447.565E-03    -212.231E-03     105.632E-03    -238.857E-03     450.607E-03    -212.012E-03     84.1254E-03
            2241     5.83888E-03     16.8162E-03    -75.3649E+06    -110.708E+06    -12.4463E+06     1.33693E+06    -228.574E-03     438.158E-03    -209.584E-03     87.0470E-03    -231.030E-03     439.991E-03    -209.377E-03     69.6377E-03
            2242     5.12125E-03     16.6609E-03    -83.1955E+06    -149.376E+06    -29.8171E+06     1.78215E+06    -222.244E-03     429.372E-03    -207.128E-03     71.1572E-03    -223.929E-03     430.317E-03    -206.940E-03     57.2211E-03
            2243     4.40038E-03     16.5330E-03    -91.1023E+06    -186.136E+06    -47.1773E+06     2.50141E+06    -216.267E-03     421.179E-03    -204.912E-03     57.4865E-03    -217.386E-03     421.450E-03    -204.746E-03     46.5160E-03
            2244     3.67337E-03     16.4238E-03    -98.6116E+06    -217.464E+06    -64.0112E+06     2.48452E+06    -210.968E-03     413.951E-03    -202.983E-03     45.8012E-03    -211.688E-03     413.733E-03    -202.845E-03     37.3179E-03
            2245     2.94324E-03     16.3388E-03    -105.412E+06    -247.025E+06    -79.0212E+06     1.63251E+06    -206.539E-03     407.916E-03    -201.377E-03     35.1359E-03    -206.969E-03     407.321E-03    -201.261E-03     28.7641E-03
            2246     2.21061E-03     16.2707E-03    -112.098E+06    -268.587E+06    -93.7743E+06     1.13989E+06    -203.028E-03     403.114E-03    -200.086E-03     25.3417E-03    -203.265E-03     402.268E-03    -200.003E-03     20.7787E-03
            2247     1.47475E-03     16.2253E-03    -117.171E+06    -279.322E+06    -108.010E+06     1.07005E+06    -200.491E-03     399.590E-03    -199.100E-03     16.3303E-03    -200.605E-03     398.607E-03    -199.065E-03     13.3707E-03
            2248     738.359E-06     16.1950E-03    -120.966E+06    -286.822E+06    -118.195E+06     405.921E+03    -198.603E-03     397.293E-03    -198.690E-03     8.31227E-03    -198.649E-03     396.230E-03    -198.690E-03     6.74992E-03
            2249     13.5626E-03     18.0776E-03    -3.85643E+06     66.0885E+06     79.4501E+06     117.417E+03    -239.295E-03     470.997E-03    -231.702E-03     110.881E-03    -245.630E-03     477.322E-03    -231.395E-03     82.6114E-03
            2250     12.8610E-03     17.8809E-03    -8.69660E+06     64.5220E+06     79.2364E+06     933.298E+03    -245.314E-03     476.279E-03    -230.965E-03     172.055E-03    -255.733E-03     486.666E-03    -230.650E-03     133.658E-03
            2251     12.1577E-03     17.6464E-03    -13.0943E+06     58.2899E+06     78.1151E+06     1.13970E+06    -251.924E-03     481.694E-03    -229.770E-03     185.270E-03    -263.512E-03     493.217E-03    -229.445E-03     143.580E-03
            2252     11.4663E-03     17.3787E-03    -18.1587E+06     53.1839E+06     77.7355E+06     223.190E+03    -257.629E-03     485.694E-03    -228.065E-03     201.319E-03    -270.532E-03     498.496E-03    -227.727E-03     156.182E-03
            2253     10.7698E-03     17.0763E-03    -24.8803E+06     45.5683E+06     74.6752E+06    -474.890E+03    -261.361E-03     487.202E-03    -225.841E-03     204.845E-03    -274.177E-03     499.878E-03    -225.498E-03     159.145E-03
            2254     10.0814E-03     16.7709E-03    -31.6659E+06     36.8972E+06     66.4123E+06    -369.042E+03    -262.090E-03     485.229E-03    -223.139E-03     196.296E-03    -273.726E-03     496.694E-03    -222.815E-03     152.502E-03
            2255     9.38918E-03     16.4683E-03    -38.0456E+06     26.9399E+06     55.1993E+06     326.272E+03    -260.063E-03     480.123E-03    -220.060E-03     179.303E-03    -269.850E-03     489.714E-03    -219.768E-03     139.342E-03
            2256     8.69625E-03     16.1870E-03    -43.6729E+06     17.2811E+06     45.2386E+06     592.038E+03    -255.582E-03     472.312E-03    -216.729E-03     155.525E-03    -263.247E-03     479.756E-03    -216.465E-03     120.615E-03
            2257     7.99842E-03     15.9359E-03    -49.3002E+06     7.82470E+06     36.1205E+06     866.792E+03    -249.151E-03     462.418E-03    -213.267E-03     129.685E-03    -254.854E-03     467.873E-03    -213.026E-03     100.214E-03
            2258     7.29726E-03     15.7131E-03    -56.5541E+06    -15.6655E+06     23.2846E+06     1.72448E+06    -241.347E-03     451.160E-03    -209.812E-03     106.255E-03    -245.464E-03     454.956E-03    -209.591E-03     81.9820E-03
            2259     6.58902E-03     15.5236E-03    -65.3912E+06    -61.1122E+06     6.02847E+06     2.31425E+06    -233.063E-03     439.566E-03    -206.503E-03     86.2029E-03    -235.963E-03     442.002E-03    -206.289E-03     66.5321E-03
            2260     5.87515E-03     15.3577E-03    -74.0733E+06    -108.445E+06    -12.5001E+06     2.46877E+06    -225.022E-03     428.430E-03    -203.408E-03     69.3870E-03    -227.019E-03     429.816E-03    -203.206E-03     53.6558E-03
            2261     5.15602E-03     15.2185E-03    -82.4783E+06    -148.355E+06    -30.6883E+06     3.23585E+06    -217.428E-03     418.009E-03    -200.581E-03     55.6801E-03    -218.781E-03     418.631E-03    -200.400E-03     43.2488E-03
            2262     4.42948E-03     15.0999E-03    -90.1570E+06    -183.675E+06    -47.7941E+06     3.71264E+06    -210.629E-03     408.701E-03    -198.072E-03     44.2572E-03    -211.525E-03     408.762E-03    -197.914E-03     34.5530E-03
            2263     3.69965E-03     15.0036E-03    -97.0569E+06    -214.078E+06    -64.4648E+06     3.35646E+06    -204.647E-03     400.554E-03    -195.907E-03     34.4805E-03    -205.215E-03     400.202E-03    -195.779E-03     27.0437E-03
            2264     2.96514E-03     14.9240E-03    -104.055E+06    -243.501E+06    -80.0057E+06     2.91480E+06    -199.648E-03     393.780E-03    -194.132E-03     26.3531E-03    -199.987E-03     393.113E-03    -194.028E-03     20.8059E-03
            2265     2.22673E-03     14.8656E-03    -110.755E+06    -265.935E+06    -94.4824E+06     1.74694E+06    -195.826E-03     388.569E-03    -192.743E-03     19.2089E-03    -196.013E-03     387.688E-03    -192.669E-03     15.2425E-03
            2266     1.48651E-03     14.8218E-03    -116.568E+06    -277.857E+06    -108.247E+06     963.595E+03    -193.039E-03     384.782E-03    -191.744E-03     12.5831E-03    -193.132E-03     383.785E-03    -191.713E-03     10.0067E-03
            2267     743.133E-06     14.7989E-03    -119.781E+06    -284.233E+06    -117.840E+06     1.21822E+06    -191.564E-03     382.612E-03    -191.048E-03     6.40618E-03    -191.603E-03     381.555E-03    -191.052E-03     5.05823E-03
            2268     13.5661E-03     16.5600E-03    -4.23065E+06     65.5274E+06     79.1193E+06     462.590E+03    -244.997E-03     476.568E-03    -231.571E-03     107.649E-03    -251.219E-03     482.777E-03    -231.264E-03     78.5876E-03
            2269     12.8635E-03     16.3357E-03    -8.84429E+06     64.2348E+06     79.2198E+06    -749.885E+03    -253.333E-03     483.756E-03    -230.424E-03     164.189E-03    -263.399E-03     493.789E-03    -230.108E-03     124.533E-03
            2270     12.1758E-03     16.1092E-03    -12.8632E+06     58.2433E+06     78.9679E+06    -900.396E+03    -260.652E-03     489.334E-03    -228.682E-03     177.101E-03    -271.680E-03     500.294E-03    -228.353E-03     134.297E-03
            2271     11.4818E-03     15.8324E-03    -18.0037E+06     53.0137E+06     78.8634E+06    -92.3370E+03    -266.617E-03     492.949E-03    -226.332E-03     190.671E-03    -278.655E-03     504.884E-03    -225.989E-03     144.891E-03
            2272     10.8001E-03     15.5371E-03    -23.5668E+06     46.4207E+06     76.3834E+06     528.469E+03    -269.584E-03     492.964E-03    -223.380E-03     189.395E-03    -281.256E-03     504.499E-03    -223.032E-03     143.734E-03
            2273     10.1130E-03     15.2349E-03    -29.8022E+06     37.8750E+06     67.6081E+06     277.090E+03    -269.192E-03     489.084E-03    -219.891E-03     178.201E-03    -279.583E-03     499.311E-03    -219.565E-03     135.058E-03
            2274     9.42825E-03     14.9459E-03    -36.1271E+06     27.9944E+06     55.6819E+06    -704.994E+03    -265.774E-03     481.764E-03    -215.990E-03     158.631E-03    -274.336E-03     490.141E-03    -215.699E-03     119.787E-03
            2275     8.73823E-03     14.6773E-03    -42.5732E+06     17.1695E+06     44.2126E+06    -1.29989E+06    -259.183E-03     471.019E-03    -211.836E-03     133.029E-03    -265.738E-03     477.361E-03    -211.578E-03     99.6489E-03
            2276     8.04542E-03     14.4412E-03    -49.8812E+06     5.25590E+06     33.2385E+06    -227.861E+03    -250.065E-03     457.688E-03    -207.623E-03     106.584E-03    -254.813E-03     462.187E-03    -207.392E-03     79.0045E-03
            2277     7.34333E-03     14.2394E-03    -58.1420E+06    -16.4990E+06     20.0557E+06     2.38113E+06    -239.895E-03     443.429E-03    -203.534E-03     83.9756E-03    -243.262E-03     446.477E-03    -203.325E-03     61.7107E-03
            2278     6.63464E-03     14.0646E-03    -66.1475E+06    -56.8824E+06     3.86708E+06     3.78557E+06    -229.834E-03     429.528E-03    -199.694E-03     65.3967E-03    -232.172E-03     431.421E-03    -199.496E-03     47.6352E-03
            2279     5.91872E-03     13.9172E-03    -74.2903E+06    -105.782E+06    -13.6654E+06     4.24000E+06    -220.206E-03     416.384E-03    -196.178E-03     50.7829E-03    -221.794E-03     417.373E-03    -195.985E-03     36.7785E-03
            2280     5.19427E-03     13.7923E-03    -82.2365E+06    -146.341E+06    -31.2605E+06     4.74939E+06    -211.518E-03     404.536E-03    -193.018E-03     39.3980E-03    -212.584E-03     404.881E-03    -192.843E-03     28.4547E-03
            2281     4.46546E-03     13.6875E-03    -89.8511E+06    -179.959E+06    -48.9636E+06     4.66694E+06    -203.844E-03     394.083E-03    -190.240E-03     30.2245E-03    -204.545E-03     393.966E-03    -190.093E-03     21.7684E-03
            2282     3.72993E-03     13.6011E-03    -97.5205E+06    -211.235E+06    -66.0965E+06     4.83561E+06    -197.181E-03     385.066E-03    -187.886E-03     23.1305E-03    -197.627E-03     384.605E-03    -187.768E-03     16.7121E-03
            2283     2.98918E-03     13.5339E-03    -104.450E+06    -238.625E+06    -82.4388E+06     4.43627E+06    -191.746E-03     377.727E-03    -185.981E-03     17.5223E-03    -192.016E-03     377.014E-03    -185.896E-03     12.7682E-03
            2284     2.24511E-03     13.4789E-03    -110.360E+06    -261.464E+06    -96.6609E+06     3.09256E+06    -187.546E-03     372.098E-03    -184.552E-03     12.4724E-03    -187.693E-03     371.199E-03    -184.496E-03     9.10768E-03
            2285     1.49741E-03     13.4439E-03    -114.628E+06    -275.660E+06    -107.506E+06     1.89018E+06    -184.750E-03     368.351E-03    -183.601E-03     8.07345E-03    -184.820E-03     367.342E-03    -183.573E-03     5.89418E-03
            2286     749.469E-06     13.4188E-03    -117.322E+06    -280.861E+06    -115.254E+06     1.02606E+06    -183.494E-03     366.384E-03    -182.890E-03     4.50343E-03    -183.525E-03     365.329E-03    -182.888E-03     3.34228E-03
            2287     13.5746E-03     15.0207E-03    -3.66413E+06     66.8174E+06     82.2144E+06    -188.032E+03    -254.415E-03     485.458E-03    -231.043E-03     109.106E-03    -260.692E-03     491.721E-03    -230.724E-03     78.6644E-03
            2288     12.8858E-03     14.7947E-03    -7.52400E+06     65.6048E+06     81.4633E+06    -361.311E+03    -261.817E-03     491.197E-03    -229.380E-03     164.980E-03    -271.774E-03     501.123E-03    -229.057E-03     124.000E-03
            2289     12.1903E-03     14.5588E-03    -13.1346E+06     57.8364E+06     78.4495E+06    -865.196E+03    -270.388E-03     497.431E-03    -227.043E-03     172.000E-03    -280.956E-03     507.931E-03    -226.716E-03     128.072E-03
            2290     11.5137E-03     14.2769E-03    -18.8235E+06     52.0091E+06     77.6261E+06    -1.20412E+06    -276.399E-03     500.373E-03    -223.974E-03     180.501E-03    -287.690E-03     511.558E-03    -223.634E-03     133.951E-03
            2291     10.8318E-03     13.9889E-03    -23.9251E+06     45.7104E+06     76.1473E+06    -1.62405E+06    -278.609E-03     498.828E-03    -220.219E-03     174.638E-03    -289.276E-03     509.356E-03    -219.870E-03     128.892E-03
            2292     10.1556E-03     13.6956E-03    -28.5912E+06     38.4228E+06     69.0241E+06    -1.51488E+06    -276.991E-03     492.857E-03    -215.866E-03     159.681E-03    -286.272E-03     501.980E-03    -215.535E-03     117.044E-03
            2293     9.47455E-03     13.4204E-03    -34.2730E+06     28.8782E+06     56.4130E+06    -1.12055E+06    -271.831E-03     482.888E-03    -211.057E-03     137.175E-03    -279.314E-03     490.196E-03    -210.767E-03     99.3256E-03
            2294     8.79186E-03     13.1690E-03    -41.5474E+06     16.6939E+06     42.4438E+06    -9.03925E+03    -262.234E-03     468.270E-03    -206.036E-03     109.351E-03    -267.782E-03     473.616E-03    -205.788E-03     77.5639E-03
            2295     8.09810E-03     12.9572E-03    -49.5549E+06     2.29602E+06     29.4258E+06     2.03672E+06    -250.036E-03     451.126E-03    -201.090E-03     83.7408E-03    -253.975E-03     454.819E-03    -200.874E-03     58.0501E-03
            2296     7.39734E-03     12.7748E-03    -57.4126E+06    -17.4628E+06     16.2969E+06     3.85525E+06    -237.773E-03     434.171E-03    -196.398E-03     62.6849E-03    -240.528E-03     436.618E-03    -196.208E-03     42.2436E-03
            2297     6.68693E-03     12.6228E-03    -65.6054E+06    -54.2060E+06     548.054E+03     5.60369E+06    -225.779E-03     417.843E-03    -192.064E-03     46.1836E-03    -227.677E-03     419.317E-03    -191.887E-03     30.1146E-03
            2298     5.96664E-03     12.4941E-03    -74.2586E+06    -101.392E+06    -16.1907E+06     6.76340E+06    -214.920E-03     403.064E-03    -188.144E-03     33.5670E-03    -216.202E-03     403.771E-03    -187.970E-03     21.0444E-03
            2299     5.23990E-03     12.3864E-03    -82.8517E+06    -141.992E+06    -31.9876E+06     6.35441E+06    -205.025E-03     389.681E-03    -184.656E-03     23.9906E-03    -205.883E-03     389.833E-03    -184.490E-03     14.3129E-03
            2300     4.50428E-03     12.2955E-03    -91.1632E+06    -176.674E+06    -49.6156E+06     6.28678E+06    -196.165E-03     377.806E-03    -181.641E-03     17.1712E-03    -196.731E-03     377.563E-03    -181.501E-03     9.78926E-03
            2301     3.76236E-03     12.2241E-03    -98.3443E+06    -207.198E+06    -66.9774E+06     5.99104E+06    -189.021E-03     368.143E-03    -179.122E-03     12.3505E-03    -189.385E-03     367.612E-03    -179.014E-03     6.78302E-03
            2302     3.01646E-03     12.1626E-03    -104.032E+06    -233.401E+06    -82.1791E+06     5.00043E+06    -183.297E-03     360.377E-03    -177.080E-03     8.55590E-03    -183.517E-03     359.632E-03    -177.001E-03     4.46309E-03
            2303     2.26555E-03     12.1205E-03    -108.464E+06    -256.037E+06    -95.9024E+06     3.86475E+06    -178.837E-03     354.359E-03    -175.522E-03     5.75089E-03    -178.952E-03     353.452E-03    -175.473E-03     2.87932E-03
            2304     1.51239E-03     12.0848E-03    -111.989E+06    -271.425E+06    -106.136E+06     2.07940E+06    -175.841E-03     350.286E-03    -174.445E-03     3.52464E-03    -175.892E-03     349.277E-03    -174.419E-03     1.67269E-03
            2305     756.151E-06     12.0682E-03    -114.480E+06    -277.899E+06    -112.889E+06     886.383E+03    -174.398E-03     347.935E-03    -173.537E-03     1.91551E-03    -174.418E-03     346.883E-03    -173.533E-03     935.878E-06
            2306     13.5858E-03     13.4746E-03    -4.23965E+06     67.0799E+06     81.6733E+06    -1.24001E+06    -264.601E-03     495.081E-03    -230.479E-03     118.740E-03    -271.299E-03     501.764E-03    -230.162E-03     85.7973E-03
            2307     12.8913E-03     13.2406E-03    -8.99460E+06     64.9930E+06     81.0754E+06    -1.40457E+06    -274.225E-03     502.410E-03    -228.185E-03     169.061E-03    -284.472E-03     512.621E-03    -227.861E-03     125.429E-03
            2308     12.2215E-03     12.9865E-03    -13.2540E+06     58.4413E+06     79.6228E+06    -1.67303E+06    -282.345E-03     507.439E-03    -225.094E-03     170.726E-03    -292.848E-03     517.872E-03    -224.761E-03     124.774E-03
            2309     11.5426E-03     12.7212E-03    -17.4604E+06     53.9114E+06     79.4418E+06    -2.12887E+06    -287.817E-03     509.006E-03    -221.189E-03     172.488E-03    -298.621E-03     519.713E-03    -220.845E-03     124.658E-03
            2310     10.8746E-03     12.4225E-03    -22.8435E+06     47.0131E+06     76.6869E+06    -2.85846E+06    -288.649E-03     505.179E-03    -216.530E-03     160.992E-03    -298.562E-03     514.961E-03    -216.182E-03     114.725E-03
            2311     10.2026E-03     12.1568E-03    -29.7715E+06     36.8767E+06     66.7036E+06    -3.19758E+06    -285.583E-03     496.808E-03    -211.225E-03     142.274E-03    -294.051E-03     505.116E-03    -210.902E-03     99.6023E-03
            2312     9.52997E-03     11.8864E-03    -36.3656E+06     25.7758E+06     52.7357E+06    -1.63344E+06    -277.104E-03     482.605E-03    -205.501E-03     116.893E-03    -283.743E-03     489.065E-03    -205.222E-03     79.8838E-03
            2313     8.84824E-03     11.6690E-03    -42.9800E+06     13.6233E+06     38.3533E+06     880.385E+03    -263.878E-03     463.589E-03    -199.711E-03     88.2404E-03    -268.669E-03     468.175E-03    -199.476E-03     57.9161E-03
            2314     8.15734E-03     11.4797E-03    -49.9161E+06    -770.861E+03     24.9003E+06     3.78050E+06    -249.260E-03     443.404E-03    -194.145E-03     64.7449E-03    -252.648E-03     446.550E-03    -193.947E-03     40.5179E-03
            2315     7.45447E-03     11.3254E-03    -57.5834E+06    -18.3597E+06     11.8540E+06     6.66233E+06    -234.798E-03     423.754E-03    -188.956E-03     46.0254E-03    -237.171E-03     425.829E-03    -188.787E-03     26.9742E-03
            2316     6.74051E-03     11.1964E-03    -66.4305E+06    -51.8895E+06    -3.41516E+06     8.79769E+06    -221.605E-03     405.818E-03    -184.213E-03     31.6328E-03    -223.249E-03     407.057E-03    -184.059E-03     16.7705E-03
            2317     6.01815E-03     11.0896E-03    -74.6916E+06    -94.9641E+06    -19.5919E+06     8.80183E+06    -209.479E-03     389.419E-03    -179.940E-03     21.1971E-03    -210.600E-03     389.996E-03    -179.792E-03     9.68536E-03
            2318     5.28578E-03     10.9996E-03    -82.0611E+06     -136.71E+06    -32.9996E+06     8.12096E+06    -198.480E-03     374.664E-03    -176.183E-03     13.6578E-03    -199.233E-03     374.735E-03    -176.031E-03     4.82023E-03
            2319     4.54530E-03     10.9295E-03    -89.3834E+06    -172.655E+06    -46.3361E+06     7.77556E+06    -189.081E-03     362.026E-03    -172.945E-03     8.44504E-03    -189.582E-03     361.729E-03    -172.797E-03     1.72085E-03
            2320     3.79852E-03     10.8659E-03    -96.5678E+06    -200.845E+06    -62.8982E+06     6.49630E+06    -181.176E-03     351.379E-03    -170.203E-03     4.94730E-03    -181.503E-03     350.829E-03    -170.086E-03    -96.9025E-06
            2321     3.04492E-03     10.8208E-03    -102.997E+06    -228.507E+06    -79.9612E+06     4.77005E+06    -174.844E-03     342.823E-03    -167.979E-03     2.73242E-03    -175.043E-03     342.072E-03    -167.898E-03    -965.533E-06
            2322     2.28778E-03     10.7806E-03    -108.131E+06    -251.056E+06    -93.8564E+06     3.82258E+06    -170.156E-03     336.406E-03    -166.250E-03     1.56403E-03    -170.267E-03     335.509E-03    -166.198E-03    -1.02542E-03
            2323     1.52676E-03     10.7571E-03    -112.415E+06    -266.053E+06    -106.238E+06     3.06536E+06    -166.830E-03     331.781E-03    -164.951E-03     926.512E-06    -166.886E-03     330.794E-03    -164.933E-03    -717.831E-06
            2324     764.553E-06     10.7363E-03    -115.191E+06    -274.444E+06    -114.385E+06     1.53581E+06    -164.845E-03     328.718E-03    -163.872E-03     480.140E-06    -164.870E-03     327.685E-03    -163.879E-03    -386.769E-06
            2325     13.5814E-03     11.8974E-03    -3.42508E+06     68.9623E+06     81.7576E+06    -700.299E+03    -276.386E-03     506.258E-03    -229.872E-03     120.853E-03    -283.281E-03     513.148E-03    -229.558E-03     85.7889E-03
            2326     12.9197E-03     11.6607E-03    -8.26211E+06     66.5985E+06     81.0779E+06    -2.08325E+06    -286.628E-03     513.518E-03    -226.890E-03     170.568E-03    -297.126E-03     523.986E-03    -226.569E-03     124.295E-03
            2327     12.2392E-03     11.4144E-03    -13.2689E+06     60.0267E+06     79.3378E+06    -3.24337E+06    -295.820E-03     518.814E-03    -222.994E-03     170.669E-03    -306.453E-03     529.384E-03    -222.665E-03     122.179E-03
            2328     11.5815E-03     11.1273E-03    -18.4313E+06     54.1062E+06     78.3470E+06    -3.97216E+06    -300.170E-03     518.357E-03    -218.187E-03     165.671E-03    -310.781E-03     528.872E-03    -217.847E-03     115.945E-03
            2329     10.9176E-03     10.8663E-03    -24.2867E+06     45.8987E+06     74.4929E+06     -3.3161E+06    -299.767E-03     512.337E-03    -212.571E-03     151.012E-03    -309.357E-03     521.796E-03    -212.230E-03     103.377E-03
            2330     10.2549E-03     10.5907E-03    -30.6573E+06     35.6848E+06     63.8403E+06    -1.81957E+06    -293.649E-03     499.973E-03    -206.324E-03     127.706E-03    -301.610E-03     507.779E-03    -206.012E-03     84.6962E-03
            2331     9.58685E-03     10.3659E-03    -38.0966E+06     22.7713E+06     48.1923E+06    -448.201E+03    -280.121E-03     479.948E-03    -199.827E-03     99.3460E-03    -286.148E-03     485.794E-03    -199.564E-03     63.1904E-03
            2332     8.90565E-03     10.1676E-03    -45.2602E+06     9.49466E+06     33.1640E+06     1.62600E+06    -263.361E-03     456.866E-03    -193.505E-03     73.5822E-03    -267.724E-03     461.016E-03    -193.287E-03     44.4171E-03
            2333     8.21321E-03     10.0157E-03    -52.6041E+06    -5.74030E+06     19.3977E+06     4.96127E+06    -246.799E-03     434.375E-03    -187.575E-03     52.9806E-03    -249.919E-03     437.239E-03    -187.394E-03     29.8165E-03
            2334     7.50746E-03     9.88825E-03    -60.5341E+06    -21.9240E+06     7.28781E+06     9.07986E+06    -231.145E-03     413.265E-03    -182.120E-03     38.0198E-03    -233.391E-03     415.205E-03    -181.964E-03     19.8300E-03
            2335     6.79167E-03     9.78562E-03    -68.2156E+06    -47.5182E+06    -4.92145E+06     10.9870E+06    -216.907E-03     394.083E-03    -177.176E-03     26.5750E-03    -218.513E-03     395.296E-03    -177.032E-03     12.3909E-03
            2336     6.06420E-03     9.70173E-03    -75.1838E+06    -87.0421E+06    -19.8952E+06     9.66648E+06    -203.967E-03     376.723E-03    -172.756E-03     18.4970E-03    -205.095E-03     377.335E-03    -172.620E-03     7.47298E-03
            2337     5.32667E-03     9.63543E-03    -81.4773E+06    -131.435E+06    -34.0588E+06     8.01953E+06    -192.755E-03     361.625E-03    -168.870E-03     12.7869E-03    -193.529E-03     361.744E-03    -168.731E-03     4.25054E-03
            2338     4.58206E-03     9.57735E-03    -87.2002E+06    -167.430E+06    -46.2445E+06     7.02487E+06    -183.143E-03     348.624E-03    -165.481E-03     8.72596E-03    -183.665E-03     348.376E-03    -165.343E-03     2.18299E-03
            2339     3.82937E-03     9.53494E-03    -92.9412E+06    -195.706E+06    -58.8260E+06     6.36287E+06    -174.777E-03     337.363E-03    -162.587E-03     5.95485E-03    -175.121E-03     336.852E-03    -162.462E-03     1.03204E-03
            2340     3.07106E-03     9.49592E-03    -99.5555E+06    -223.601E+06    -74.3082E+06     6.15462E+06    -167.994E-03     328.193E-03    -160.199E-03     3.93201E-03    -168.206E-03     327.472E-03    -160.102E-03     331.941E-06
            2341     2.30739E-03     9.46999E-03    -106.801E+06    -246.265E+06    -91.0493E+06     5.16728E+06    -162.770E-03     321.069E-03    -158.299E-03     2.43777E-03    -162.893E-03     320.201E-03    -158.243E-03    -80.3481E-06
            2342     1.54079E-03     9.44671E-03    -112.242E+06    -260.635E+06    -104.336E+06     3.90109E+06    -158.915E-03     315.821E-03    -156.906E-03     1.68845E-03    -158.983E-03     314.864E-03    -156.887E-03     83.9117E-06
            2343     770.884E-06     9.43715E-03    -115.319E+06    -267.841E+06    -113.194E+06     2.64243E+06    -156.663E-03     312.599E-03    -155.936E-03     949.297E-06    -156.700E-03     311.601E-03    -155.946E-03     112.752E-06
            2344     13.6122E-03     10.3277E-03    -4.58887E+06     70.8657E+06     81.2753E+06    -1.41006E+06    -289.707E-03     519.055E-03    -229.349E-03     137.382E-03    -297.430E-03     526.776E-03    -229.038E-03     98.8769E-03
            2345     12.9222E-03     10.0697E-03    -8.67529E+06     69.6664E+06     80.7491E+06    -1.88281E+06    -301.507E-03     527.125E-03    -225.618E-03     178.268E-03    -312.680E-03     538.278E-03    -225.302E-03     128.522E-03
            2346     12.2746E-03     9.80324E-03    -13.4141E+06     62.2482E+06     77.6887E+06    -2.69310E+06    -308.993E-03     529.870E-03    -220.877E-03     171.622E-03    -320.012E-03     540.838E-03    -220.559E-03     120.332E-03
            2347     11.6139E-03     9.54196E-03    -19.5577E+06     53.9421E+06     74.5113E+06    -2.86818E+06    -312.842E-03     528.017E-03    -215.175E-03     162.608E-03    -323.685E-03     538.770E-03    -214.853E-03     110.184E-03
            2348     10.9610E-03     9.27219E-03    -26.3023E+06     44.1511E+06     69.4563E+06    -2.47109E+06    -310.289E-03     518.927E-03    -208.637E-03     141.531E-03    -319.759E-03     528.269E-03    -208.316E-03     92.2203E-03
            2349     10.3064E-03     9.03403E-03    -33.1033E+06     32.3446E+06     58.7140E+06    -1.25919E+06    -297.524E-03     499.184E-03    -201.660E-03     114.379E-03    -305.056E-03     506.558E-03    -201.366E-03     71.6847E-03
            2350     9.63706E-03     8.83664E-03    -39.5516E+06     19.5703E+06     44.3860E+06     1.38806E+06    -278.819E-03     473.604E-03    -194.785E-03     88.7791E-03    -284.478E-03     479.076E-03    -194.534E-03     53.8577E-03
            2351     8.95580E-03     8.68283E-03    -46.9145E+06     5.79954E+06     29.0690E+06     4.35874E+06    -259.508E-03     447.857E-03    -188.349E-03     68.6515E-03    -263.715E-03     451.845E-03    -188.144E-03     40.6681E-03
            2352     8.25760E-03     8.55958E-03    -54.6875E+06    -10.5832E+06     16.0389E+06     7.29642E+06    -241.684E-03     424.157E-03    -182.473E-03     53.1818E-03    -244.797E-03     427.000E-03    -182.298E-03     30.9737E-03
            2353     7.54892E-03     8.46497E-03    -61.7562E+06    -25.6441E+06     6.52399E+06     10.0968E+06    -225.720E-03     402.879E-03    -177.159E-03     42.3740E-03    -228.048E-03     404.884E-03    -177.000E-03     24.7926E-03
            2354     6.82647E-03     8.38846E-03    -68.0848E+06    -42.2769E+06    -2.33690E+06     10.8284E+06    -211.078E-03     383.484E-03    -172.406E-03     34.5179E-03    -212.824E-03     384.850E-03    -172.258E-03     20.6751E-03
            2355     6.09396E-03     8.33066E-03    -74.1995E+06    -78.5440E+06    -16.1977E+06     8.95027E+06    -198.625E-03     366.822E-03    -168.197E-03     28.7668E-03    -199.903E-03     367.609E-03    -168.057E-03     17.8710E-03
            2356     5.35354E-03     8.28183E-03    -80.4724E+06    -126.328E+06    -32.8234E+06     7.02038E+06    -187.906E-03     352.389E-03    -164.483E-03     24.5366E-03    -188.809E-03     352.656E-03    -164.347E-03     15.9959E-03
            2357     4.60364E-03     8.24556E-03    -86.8701E+06    -163.167E+06    -47.5224E+06     5.89968E+06    -178.578E-03     339.813E-03    -161.235E-03     20.8985E-03    -179.203E-03     339.690E-03    -161.110E-03     14.2918E-03
            2358     3.84775E-03     8.21377E-03    -93.2054E+06    -192.862E+06    -59.5682E+06     5.40053E+06    -170.774E-03     329.215E-03    -158.441E-03     17.5113E-03    -171.196E-03     328.796E-03    -158.324E-03     12.4883E-03
            2359     3.08573E-03     8.19156E-03    -99.1319E+06    -220.798E+06    -71.4183E+06     5.66438E+06    -164.163E-03     320.255E-03    -156.092E-03     14.3676E-03    -164.432E-03     319.596E-03    -155.985E-03     10.6711E-03
            2360     2.31922E-03     8.17089E-03    -104.122E+06    -240.977E+06    -85.6372E+06     5.76219E+06    -158.800E-03     312.997E-03    -154.196E-03     11.0403E-03    -158.954E-03     312.174E-03    -154.124E-03     8.46151E-03
            2361     1.54796E-03     8.16011E-03    -109.012E+06    -253.973E+06    -99.5407E+06     3.96573E+06    -154.875E-03     307.674E-03    -152.799E-03     7.52537E-03    -154.956E-03     306.754E-03    -152.770E-03     5.86752E-03
            2362     774.350E-06     8.14907E-03    -112.421E+06    -260.994E+06    -109.158E+06     1.62715E+06    -152.441E-03     304.400E-03    -151.958E-03     4.26880E-03    -152.482E-03     303.431E-03    -151.963E-03     3.39654E-03
            2363     13.5801E-03     8.69219E-03    -3.44503E+06     73.9396E+06     82.3460E+06    -811.544E+03    -301.987E-03     530.903E-03    -228.916E-03     140.284E-03    -310.102E-03     539.029E-03    -228.606E-03     99.6687E-03
            2364     12.9542E-03     8.44862E-03    -9.63952E+06     70.7063E+06     78.3307E+06    -1.94265E+06    -313.809E-03     538.305E-03    -224.497E-03     184.934E-03    -325.916E-03     550.395E-03    -224.193E-03     131.573E-03
            2365     12.2902E-03     8.19151E-03    -15.0487E+06     62.0196E+06     73.7231E+06    -1.54251E+06    -324.200E-03     543.139E-03    -218.939E-03     177.162E-03    -336.016E-03     554.907E-03    -218.638E-03     121.792E-03
            2366     11.6477E-03     7.91966E-03    -20.2419E+06     54.0510E+06     70.9306E+06    -1.02279E+06    -325.807E-03     538.123E-03    -212.317E-03     157.106E-03    -336.759E-03     549.000E-03    -212.011E-03     102.137E-03
            2367     11.0055E-03     7.67308E-03    -25.9576E+06     43.6572E+06     65.4898E+06    -216.407E+03    -314.213E-03     519.309E-03    -205.096E-03     130.367E-03    -323.254E-03     528.238E-03    -204.794E-03     81.4578E-03
            2368     10.3476E-03     7.47590E-03    -32.7606E+06     28.9404E+06     53.4862E+06     1.74749E+06    -293.489E-03     491.431E-03    -197.942E-03     106.264E-03    -300.513E-03     498.301E-03    -197.669E-03     65.7809E-03
            2369     9.67492E-03     7.32247E-03    -40.7557E+06     14.3940E+06     39.8434E+06     4.38540E+06    -271.148E-03     462.470E-03    -191.322E-03     88.2863E-03    -276.564E-03     467.690E-03    -191.084E-03     55.6170E-03
            2370     8.98363E-03     7.20589E-03    -48.2434E+06     2.46455E+06     28.1716E+06     7.04988E+06    -250.730E-03     436.116E-03    -185.387E-03     75.2723E-03    -254.907E-03     440.060E-03    -185.179E-03     49.1012E-03
            2371     8.28061E-03     7.11937E-03    -54.9231E+06    -12.3802E+06     17.4296E+06     8.67191E+06    -232.908E-03     413.036E-03    -180.128E-03     66.6186E-03    -236.142E-03     415.990E-03    -179.943E-03     45.6781E-03
            2372     7.56294E-03     7.05185E-03    -60.8795E+06    -25.7234E+06     9.70800E+06     8.94339E+06    -217.425E-03     392.932E-03    -175.508E-03     60.2048E-03    -219.930E-03     395.110E-03    -175.333E-03     43.4716E-03
            2373     6.83565E-03     7.00579E-03    -66.1710E+06    -38.0452E+06     3.26962E+06     8.20757E+06    -204.246E-03     375.712E-03    -171.466E-03     55.6537E-03    -206.191E-03     377.284E-03    -171.298E-03     42.2920E-03
            2374     6.09844E-03     6.96620E-03    -72.1886E+06    -73.6628E+06    -9.69611E+06     7.33432E+06    -193.178E-03     361.121E-03    -167.943E-03     51.8612E-03    -194.646E-03     362.104E-03    -167.780E-03     41.2382E-03
            2375     5.35241E-03     6.94010E-03    -79.0532E+06    -122.897E+06    -26.0139E+06     6.66284E+06    -183.968E-03     348.853E-03    -164.885E-03     47.9887E-03    -185.031E-03     349.278E-03    -164.722E-03     39.6116E-03
            2376     4.60087E-03     6.91679E-03    -86.3595E+06    -160.321E+06    -40.9530E+06     5.93045E+06    -176.253E-03     338.483E-03    -162.230E-03     43.7500E-03    -177.010E-03     338.485E-03    -162.077E-03     37.2118E-03
            2377     3.84305E-03     6.90158E-03    -93.6690E+06    -189.185E+06    -55.1065E+06     4.47768E+06    -169.773E-03     329.722E-03    -159.950E-03     38.7014E-03    -170.297E-03     329.403E-03    -159.815E-03     33.6918E-03
            2378     3.08086E-03     6.88755E-03    -100.275E+06    -218.663E+06    -67.7604E+06     2.54347E+06    -164.458E-03     322.506E-03    -158.048E-03     32.8272E-03    -164.799E-03     321.910E-03    -157.924E-03     29.0917E-03
            2379     2.31396E-03     6.88019E-03    -105.874E+06    -238.601E+06    -80.9608E+06     1.80783E+06    -160.227E-03     316.722E-03    -156.494E-03     25.8540E-03    -160.435E-03     315.939E-03    -156.399E-03     23.2156E-03
            2380     1.54492E-03     6.87146E-03    -110.042E+06    -247.945E+06    -95.8680E+06     1.07342E+06    -157.116E-03     312.382E-03    -155.267E-03     17.9360E-03    -157.233E-03     311.503E-03    -155.227E-03     16.2467E-03
            2381     773.792E-06     6.86991E-03    -112.868E+06    -258.577E+06    -108.553E+06    -762.195E+03    -154.616E-03     309.388E-03    -154.772E-03     10.0394E-03    -154.671E-03     308.434E-03    -154.776E-03     9.12911E-03
            2382     13.6382E-03     7.10107E-03    -4.72301E+06     74.9425E+06     79.0004E+06     36.9407E+03    -314.227E-03     542.950E-03    -228.722E-03     161.651E-03    -323.544E-03     552.281E-03    -228.429E-03     117.897E-03
            2383     12.9434E-03     6.81653E-03    -8.34853E+06     72.4790E+06     76.9135E+06     1.50209E+06    -331.054E-03     554.665E-03    -223.612E-03     200.371E-03    -344.277E-03     567.877E-03    -223.320E-03     142.739E-03
            2384     12.3152E-03     6.53275E-03    -13.1486E+06     63.6639E+06     72.4088E+06     601.254E+03    -340.609E-03     557.741E-03    -217.131E-03     171.669E-03    -352.395E-03     569.502E-03    -216.843E-03     113.652E-03
            2385     11.6838E-03     6.28209E-03    -18.7065E+06     53.1069E+06     67.7380E+06     1.00284E+06    -330.071E-03     539.899E-03    -209.828E-03     145.176E-03    -340.246E-03     550.015E-03    -209.539E-03     91.6060E-03
            2386     11.0355E-03     6.08018E-03    -25.2530E+06     40.1591E+06     61.1943E+06     3.04564E+06    -306.316E-03     508.945E-03    -202.630E-03     121.718E-03    -314.392E-03     516.916E-03    -202.345E-03     77.0350E-03
            2387     10.3701E-03     5.93330E-03    -32.5648E+06     24.9807E+06     50.8960E+06     6.22811E+06    -279.840E-03     475.974E-03    -196.134E-03     106.964E-03    -286.184E-03     482.159E-03    -195.868E-03     71.0245E-03
            2388     9.68423E-03     5.82432E-03    -39.7099E+06     12.0690E+06     40.6435E+06     8.21671E+06    -256.369E-03     446.890E-03    -190.521E-03     98.6687E-03    -261.413E-03     451.732E-03    -190.278E-03     69.8354E-03
            2389     8.98420E-03     5.74792E-03    -46.2043E+06     2.08297E+06     32.6817E+06     8.34337E+06    -236.653E-03     422.407E-03    -185.754E-03     93.6400E-03    -240.653E-03     426.168E-03    -185.526E-03     70.5408E-03
            2390     8.26854E-03     5.69062E-03    -52.1077E+06    -10.8559E+06     24.1576E+06     7.41959E+06    -220.442E-03     402.174E-03    -181.732E-03     90.4536E-03    -223.619E-03     405.068E-03    -181.520E-03     71.8863E-03
            2391     7.54313E-03     5.65432E-03    -57.2779E+06    -22.2420E+06     18.2847E+06     5.64925E+06    -207.394E-03     385.755E-03    -178.361E-03     87.7497E-03    -209.912E-03     387.946E-03    -178.154E-03     72.7908E-03
            2392     6.80781E-03     5.62509E-03    -63.1668E+06    -37.3286E+06     12.6281E+06     4.83993E+06    -197.149E-03     372.678E-03    -175.529E-03     84.9005E-03    -199.139E-03     374.280E-03    -175.320E-03     72.8396E-03
            2393     6.06599E-03     5.60895E-03    -70.3270E+06    -74.5496E+06     1.05821E+06     5.51011E+06    -188.999E-03     362.139E-03    -173.140E-03     81.0054E-03    -190.526E-03     363.152E-03    -172.925E-03     71.3364E-03
            2394     5.31879E-03     5.59376E-03    -78.1106E+06    -121.305E+06    -12.7562E+06     5.14654E+06    -182.528E-03     353.656E-03    -171.128E-03     75.7019E-03    -183.658E-03     354.116E-03    -170.903E-03     68.0081E-03
            2395     4.56641E-03     5.58612E-03    -85.2298E+06     -156.48E+06    -26.3869E+06     2.62792E+06    -177.351E-03     346.776E-03    -169.425E-03     68.8838E-03    -178.169E-03     346.809E-03    -169.206E-03     62.8102E-03
            2396     3.81059E-03     5.57842E-03    -90.8950E+06    -185.668E+06    -40.6898E+06    -401.966E+03    -173.198E-03     341.203E-03    -168.005E-03     60.6270E-03    -173.765E-03     340.900E-03    -167.808E-03     55.9093E-03
            2397     3.05141E-03     5.57554E-03    -96.4304E+06    -217.223E+06    -56.6495E+06    -2.42481E+06    -170.065E-03     336.916E-03    -166.851E-03     50.9286E-03    -170.428E-03     336.320E-03    -166.680E-03     47.3577E-03
            2398     2.29112E-03     5.57113E-03    -102.374E+06    -238.428E+06    -74.3276E+06    -3.98156E+06    -167.694E-03     333.612E-03    -165.918E-03     40.0061E-03    -167.910E-03     332.822E-03    -165.795E-03     37.4293E-03
            2399     1.52826E-03     5.57122E-03    -107.645E+06    -249.504E+06    -92.4786E+06    -4.15876E+06    -165.915E-03     331.141E-03    -165.226E-03     28.0422E-03    -166.035E-03     330.247E-03    -165.171E-03     26.3569E-03
            2400     763.887E-06     5.56881E-03    -111.774E+06    -262.827E+06    -107.280E+06    -2.12499E+06    -164.849E-03     329.776E-03    -164.926E-03     15.4797E-03    -164.902E-03     328.793E-03    -164.920E-03     14.5861E-03
            2401     13.5638E-03     5.44697E-03    -4.16093E+06     76.3589E+06     74.8396E+06     1.47769E+06    -336.567E-03     565.524E-03    -228.957E-03     177.451E-03    -346.277E-03     575.257E-03    -228.688E-03     130.379E-03
            2402     12.9707E-03     5.12327E-03    -7.55883E+06     73.5930E+06     72.8641E+06    -230.242E+03    -355.261E-03     577.965E-03    -222.703E-03     195.087E-03    -368.197E-03     590.915E-03    -222.435E-03     134.233E-03
            2403     12.3432E-03     4.86226E-03    -11.6638E+06     60.4978E+06     66.2623E+06     1.51104E+06    -344.807E-03     560.239E-03    -215.432E-03     155.115E-03    -355.246E-03     570.677E-03    -215.172E-03     100.021E-03
            2404     11.7038E-03     4.64884E-03    -16.6300E+06     48.0992E+06     62.1493E+06     4.83054E+06    -316.468E-03     524.841E-03    -208.373E-03     132.888E-03    -324.826E-03     533.154E-03    -208.108E-03     86.8583E-03
            2405     11.0457E-03     4.51404E-03    -22.9615E+06     35.7357E+06     59.0587E+06     8.40615E+06    -285.094E-03     487.372E-03    -202.277E-03     121.516E-03    -291.601E-03     493.774E-03    -202.001E-03     85.1177E-03
            2406     10.3608E-03     4.41742E-03    -30.2248E+06     23.6280E+06     54.2986E+06     9.55819E+06    -258.242E-03     455.545E-03    -197.304E-03     118.950E-03    -263.445E-03     460.586E-03    -197.022E-03     90.2299E-03
            2407     9.65948E-03     4.35184E-03    -36.2315E+06     13.6674E+06     48.5102E+06     8.67531E+06    -237.082E-03     430.419E-03    -193.337E-03     117.952E-03    -241.238E-03     434.369E-03    -193.062E-03     95.1933E-03
            2408     8.94260E-03     4.30609E-03    -41.4035E+06     4.96618E+06      42.008E+06     7.21238E+06    -220.834E-03     411.043E-03    -190.209E-03     116.870E-03    -224.156E-03     414.126E-03    -189.946E-03     98.6788E-03
            2409     8.21686E-03     4.27806E-03    -46.8887E+06    -6.69628E+06     35.6758E+06     4.81094E+06    -208.647E-03     396.415E-03    -187.768E-03     114.847E-03    -211.304E-03     398.787E-03    -187.512E-03     100.167E-03
            2410     7.48239E-03     4.25795E-03    -53.6058E+06    -18.3902E+06     32.8377E+06     2.36765E+06    -199.795E-03     385.676E-03    -185.881E-03     111.504E-03    -201.928E-03     387.463E-03    -185.612E-03     99.5556E-03
            2411     6.74343E-03     4.24753E-03    -60.8146E+06    -38.6394E+06     28.1275E+06     684.716E+03    -193.480E-03     377.886E-03    -184.406E-03     106.572E-03    -195.183E-03     379.155E-03    -184.121E-03     96.8057E-03
            2412     6.00029E-03     4.23906E-03    -66.6356E+06    -77.2891E+06     15.9899E+06    -784.735E+03    -189.114E-03     372.337E-03    -183.223E-03     99.9802E-03    -190.422E-03     373.084E-03    -182.934E-03     91.9967E-03
            2413     5.25443E-03     4.23652E-03    -70.4002E+06    -119.594E+06     1.82814E+06    -3.26562E+06    -185.948E-03     368.214E-03    -182.267E-03     91.8476E-03    -186.911E-03     368.491E-03    -181.982E-03     85.3301E-03
            2414     4.50672E-03     4.23339E-03    -73.3876E+06    -153.096E+06    -13.1948E+06    -6.60827E+06    -183.601E-03     365.093E-03    -181.492E-03     81.9577E-03    -184.280E-03     364.996E-03    -181.229E-03     76.6832E-03
            2415     3.75730E-03     4.23394E-03    -77.6548E+06    -187.735E+06    -30.5523E+06    -8.29799E+06    -181.975E-03     362.857E-03    -180.881E-03     70.6912E-03    -182.422E-03     362.436E-03    -180.649E-03     66.4961E-03
            2416     3.00716E-03     4.23279E-03    -83.0663E+06    -220.643E+06    -50.6882E+06    -7.72862E+06    -180.849E-03     361.258E-03    -180.409E-03     58.3175E-03    -181.110E-03     360.572E-03    -180.222E-03     55.0866E-03
            2417     2.25514E-03     4.23415E-03    -89.0393E+06    -241.915E+06    -70.2490E+06    -6.76548E+06    -180.124E-03     360.191E-03    -180.067E-03     44.8069E-03    -180.255E-03     359.333E-03    -179.939E-03     42.4431E-03
            2418     1.50336E-03     4.23375E-03    -95.0406E+06    -258.534E+06    -86.5634E+06    -4.74240E+06    -179.777E-03     359.638E-03    -179.861E-03     30.5427E-03    -179.822E-03     358.658E-03    -179.781E-03     28.9790E-03
            2419     751.761E-06     4.23519E-03    -99.8397E+06    -270.260E+06    -97.4882E+06    -1.97866E+06    -179.838E-03     359.463E-03    -179.626E-03     16.7123E-03    -179.833E-03     358.407E-03    -179.576E-03     15.8883E-03
            2420     13.6251E-03     3.73764E-03    -6.43388E+06     75.9540E+06     71.4939E+06    -1.53185E+06    -372.734E-03     601.985E-03    -229.251E-03     195.385E-03    -382.865E-03     612.145E-03    -228.994E-03     144.159E-03
            2421     12.9828E-03     3.40731E-03    -5.73293E+06     69.6646E+06     68.2632E+06    -35.1744E+03    -367.200E-03     589.121E-03    -221.921E-03     178.457E-03    -378.208E-03     600.174E-03    -221.672E-03     121.564E-03
            2422     12.3602E-03     3.19265E-03    -9.97913E+06     54.0656E+06     61.7280E+06     4.25747E+06    -328.014E-03     542.868E-03    -214.854E-03     140.818E-03    -335.582E-03     550.445E-03    -214.610E-03     97.2229E-03
            2423     11.7046E-03     3.06864E-03    -15.1314E+06     42.2922E+06     60.2817E+06     8.18973E+06    -288.925E-03     498.102E-03    -209.177E-03     130.372E-03    -294.527E-03     503.650E-03    -208.915E-03     97.5297E-03
            2424     11.0130E-03     2.98509E-03    -20.1333E+06     32.9178E+06     60.8047E+06      9.7324E+06    -258.940E-03     463.855E-03    -204.915E-03     126.943E-03    -263.164E-03     467.965E-03    -204.629E-03     102.316E-03
            2425     10.3091E-03     2.93433E-03    -23.9072E+06     26.1438E+06     61.3236E+06     9.35541E+06    -237.574E-03     439.354E-03    -201.779E-03     125.985E-03    -240.900E-03     442.523E-03    -201.476E-03     106.899E-03
            2426     9.59082E-03     2.89898E-03    -29.2435E+06     18.1762E+06     57.6202E+06     7.58204E+06    -222.084E-03     421.575E-03    -199.491E-03     123.520E-03    -224.707E-03     424.001E-03    -199.187E-03     108.512E-03
            2427     8.86547E-03     2.87810E-03    -35.7216E+06     9.34285E+06     50.6966E+06     4.81705E+06    -211.148E-03     409.008E-03    -197.860E-03     119.524E-03    -213.242E-03     410.867E-03    -197.568E-03     107.457E-03
            2428     8.13301E-03     2.86410E-03    -42.0917E+06    -2.36346E+06     41.4105E+06     2.19538E+06    -203.934E-03     400.655E-03    -196.721E-03     114.394E-03    -205.619E-03     402.064E-03    -196.450E-03     104.499E-03
            2429     7.39812E-03     2.85706E-03    -47.9732E+06    -13.2588E+06     33.1248E+06    -1.27086E+06    -199.307E-03     395.250E-03    -195.943E-03     108.035E-03    -200.671E-03     396.300E-03    -195.689E-03     99.8031E-03
            2430     6.66017E-03     2.85211E-03    -52.8586E+06    -36.1332E+06     21.4738E+06    -6.30854E+06    -196.513E-03     391.931E-03    -195.418E-03     100.599E-03    -197.596E-03     392.631E-03    -195.181E-03     93.6629E-03
            2431     5.92123E-03     2.85090E-03    -55.9049E+06    -77.4240E+06     5.01737E+06    -11.5248E+06    -194.976E-03     390.042E-03    -195.065E-03     92.0983E-03    -195.787E-03     390.357E-03    -194.847E-03     86.2129E-03
            2432     5.18165E-03     2.84994E-03    -57.8493E+06    -120.557E+06    -10.1314E+06    -14.8294E+06    -194.176E-03     389.015E-03    -194.839E-03     82.6302E-03    -194.748E-03     388.974E-03    -194.631E-03     77.6490E-03
            2433     4.44150E-03     2.85137E-03    -60.6445E+06    -158.747E+06    -24.9044E+06    -14.4668E+06    -193.812E-03     388.507E-03    -194.696E-03     72.4789E-03    -194.188E-03     388.166E-03    -194.502E-03     68.3445E-03
            2434     3.70124E-03     2.85199E-03    -65.4846E+06    -198.377E+06    -39.3337E+06    -11.0624E+06    -193.808E-03     388.427E-03    -194.618E-03     61.5486E-03    -194.025E-03     387.808E-03    -194.433E-03     58.2180E-03
            2435     2.96053E-03     2.85394E-03    -71.9009E+06    -229.653E+06    -55.3020E+06    -7.11552E+06    -193.941E-03     388.499E-03    -194.559E-03     49.8718E-03    -194.038E-03     387.672E-03    -194.398E-03     47.2899E-03
            2436     2.22080E-03     2.85435E-03    -78.2952E+06    -249.880E+06    -69.8488E+06    -3.69408E+06    -194.118E-03     388.632E-03    -194.513E-03     37.7798E-03    -194.135E-03     387.670E-03    -194.387E-03     35.8905E-03
            2437     1.48068E-03     2.85557E-03    -83.4731E+06    -266.413E+06    -79.4499E+06    -1.08833E+06    -194.368E-03     388.842E-03    -194.474E-03     25.5943E-03    -194.329E-03     387.776E-03    -194.364E-03     24.3535E-03
            2438     740.553E-06     2.85517E-03    -86.5551E+06    -273.899E+06    -85.7211E+06     187.962E+03    -194.452E-03     388.807E-03    -194.355E-03     13.9717E-03    -194.383E-03     387.692E-03    -194.261E-03     13.3172E-03
            2439     13.5622E-03     1.89724E-03    -4.18046E+06     77.6108E+06     79.3492E+06     564.975E+03    -433.734E-03     665.112E-03    -231.378E-03     217.157E-03    -441.841E-03     673.246E-03    -231.087E-03     173.423E-03
            2440     12.9962E-03     1.68635E-03    -6.21865E+06     63.2070E+06     72.6749E+06     2.45478E+06    -367.789E-03     590.761E-03    -222.973E-03     152.015E-03    -373.766E-03     596.780E-03    -222.692E-03     116.422E-03
            2441     12.3400E-03     1.59347E-03    -9.58643E+06     50.3967E+06     68.3847E+06     4.74886E+06    -308.162E-03     524.808E-03    -216.646E-03     119.921E-03    -311.596E-03     528.213E-03    -216.363E-03     96.4197E-03
            2442     11.6480E-03     1.52534E-03    -13.4274E+06     41.0377E+06     66.9073E+06     5.70538E+06    -269.367E-03     481.669E-03    -212.302E-03     104.969E-03    -271.762E-03     483.982E-03    -212.007E-03     88.7398E-03
            2443     10.9504E-03     1.49252E-03    -15.9333E+06     33.7277E+06     67.2251E+06     5.37179E+06    -244.493E-03     453.862E-03    -209.369E-03     94.8015E-03    -246.212E-03     455.458E-03    -209.059E-03     82.9628E-03
            2444     10.2348E-03     1.46585E-03    -19.0351E+06     27.7918E+06     64.1143E+06     5.23700E+06    -228.184E-03     435.577E-03    -207.393E-03     88.5720E-03    -229.504E-03     436.747E-03    -207.085E-03     79.5055E-03
            2445     9.51475E-03     1.45307E-03    -22.1223E+06     21.9078E+06     53.1537E+06     4.72694E+06    -217.586E-03     423.651E-03    -206.066E-03     82.8140E-03    -218.624E-03     424.537E-03    -205.800E-03     75.5900E-03
            2446     8.78733E-03     1.44399E-03    -26.2983E+06     13.4066E+06     39.0825E+06     3.48391E+06    -210.809E-03     416.025E-03    -205.216E-03     77.6350E-03    -211.644E-03     416.701E-03    -205.002E-03     71.7116E-03
            2447     8.05805E-03     1.43944E-03    -30.9807E+06     3.39712E+06     24.3659E+06     278.907E+03    -206.700E-03     411.410E-03    -204.710E-03     72.0204E-03    -207.379E-03     411.919E-03    -204.548E-03     67.0423E-03
            2448     7.32568E-03     1.43604E-03    -35.2354E+06    -6.34495E+06     8.24255E+06    -4.12788E+06    -204.327E-03     408.760E-03    -204.433E-03     66.2871E-03    -204.880E-03     409.139E-03    -204.332E-03     62.0081E-03
            2449     6.59309E-03     1.43507E-03    -39.7540E+06    -30.1322E+06    -9.89578E+06    -9.04909E+06    -203.125E-03     407.456E-03    -204.331E-03     60.4445E-03    -203.556E-03     407.664E-03    -204.279E-03     56.7142E-03
            2450     5.85976E-03     1.43416E-03    -45.2273E+06    -76.7985E+06    -26.9547E+06    -13.3515E+06    -202.734E-03     407.110E-03    -204.375E-03     54.4918E-03    -203.032E-03     407.048E-03    -204.333E-03     51.2214E-03
            2451     5.12633E-03     1.43490E-03    -51.8825E+06    -127.594E+06    -38.3324E+06    -13.9852E+06    -202.833E-03     407.353E-03    -204.520E-03     48.1895E-03    -203.019E-03     407.008E-03    -204.451E-03     45.3712E-03
            2452     4.39306E-03     1.43575E-03    -59.3216E+06    -172.027E+06    -47.1493E+06    -10.9647E+06    -203.220E-03     407.918E-03    -204.697E-03     41.7392E-03    -203.321E-03     407.328E-03    -204.597E-03     39.3870E-03
            2453     3.66007E-03     1.43662E-03    -65.9966E+06    -211.802E+06    -53.8624E+06    -6.75077E+06    -203.752E-03     408.630E-03    -204.878E-03     35.1137E-03    -203.781E-03     407.824E-03    -204.744E-03     33.2162E-03
            2454     2.92813E-03     1.43726E-03    -71.0237E+06    -239.570E+06    -61.1122E+06    -2.98761E+06    -204.281E-03     409.296E-03    -205.015E-03     28.3353E-03    -204.254E-03     408.338E-03    -204.870E-03     26.8664E-03
            2455     2.19551E-03     1.43843E-03    -74.6103E+06    -257.030E+06    -67.8984E+06     3.20922E+03    -204.696E-03     409.801E-03    -205.106E-03     21.6159E-03    -204.630E-03     408.749E-03    -204.964E-03     20.5550E-03
            2456     1.46349E-03     1.43847E-03    -77.3026E+06    -268.178E+06    -73.3849E+06     1.49671E+06    -204.961E-03     410.126E-03    -205.165E-03     14.7592E-03    -204.869E-03     409.015E-03    -205.031E-03     14.0653E-03
            2457     731.581E-06     1.43938E-03    -79.1098E+06    -271.693E+06    -78.2020E+06     1.27277E+06    -205.164E-03     410.324E-03    -205.160E-03     7.93949E-03    -205.060E-03     409.195E-03    -205.042E-03     7.56410E-03


