********************************************************************************
Field Output Report, written Mon Aug 12 20:45:54 2024

Source 1
---------

   ODB: G:/Abaqus_calc_2019/1740/Vel_40/odb/zeides_2a_16_red_2000_cal_75_vel_40_fric_050.odb
   Step: Step-1
   Frame: Increment   3757447: Step Time =   0.3927

Loc 1 : Nodal values from source 1

Output sorted by column "Nodal Label".

Field Output reported at nodes for region: DIE_2A_16_D0_36-1.Region_1
   Computation algorithm: EXTRAPOLATE_COMPUTE_AVERAGE
   Averaged at nodes
   Averaging regions: ODB_REGIONS

      Node Label     COORD.COOR1     COORD.COOR2
                          @Loc 1          @Loc 1
-------------------------------------------------
               1     16.4041E-03     178.252E-03


Field Output reported at nodes for region: DIE_2A_16_D0_36-1.Region_2
   Computation algorithm: EXTRAPOLATE_COMPUTE_AVERAGE
   Averaged at nodes
   Averaging regions: ODB_REGIONS

      Node Label     COORD.COOR1     COORD.COOR2
                          @Loc 1          @Loc 1
-------------------------------------------------
               1     16.4041E-03     178.252E-03


Field Output reported at nodes for part: WIRE-1
   Computation algorithm: EXTRAPOLATE_COMPUTE_AVERAGE
   Averaged at nodes
   Averaging regions: ODB_REGIONS

      Node Label     COORD.COOR1     COORD.COOR2           S.S11           S.S22           S.S33           S.S12         PE.PE11         PE.PE22         PE.PE33         PE.PE12         LE.LE11         LE.LE22         LE.LE33         LE.LE12
                          @Loc 1          @Loc 1          @Loc 1          @Loc 1          @Loc 1          @Loc 1          @Loc 1          @Loc 1          @Loc 1          @Loc 1          @Loc 1          @Loc 1          @Loc 1          @Loc 1
-------------------------------------------------------------------------------------------------------------------------------------------------------------------------------------------------------------------------------------------------
               1    -29.0228E-09     85.1965E-03    -138.586E+06    -262.109E+06    -138.568E+06    -206.323E+03    -225.054E-03     450.198E-03    -225.144E-03     6.48839E-03    -225.168E-03     449.292E-03    -225.256E-03     6.06329E-03
               2     14.3799E-03     86.9139E-03    -2.01480E+06     91.1437E+06     97.3974E+06     192.997E+03    -224.532E-03     449.426E-03    -224.894E-03     49.1110E-03    -225.289E-03     450.217E-03    -224.536E-03     41.1958E-03
               3     14.4059E-03     173.272E-03    -19.3288E+06     16.5141E+06     52.3903E+06    -8.42596E+06    -161.528E-03     385.729E-03    -224.202E-03    -5.17831E-03    -161.699E-03     385.792E-03    -223.936E-03    -5.38274E-03
               4    -1.87940E-06     170.931E-03     56.9702E+06    -7.46737E+06     53.9278E+06    -2.78699E+06    -239.963E-03     480.335E-03    -240.371E-03    -16.4754E-03    -239.804E-03     480.072E-03    -240.173E-03    -16.8249E-03
               5     1.27667E-06    -902.056E-18    -73.1304E+06    -231.664E+06    -73.0958E+06    -994.431E+03    -198.417E-03     396.863E-03    -198.447E-03    -947.804E-06    -198.339E-03     395.918E-03    -198.370E-03    -1.00433E-03
               6     14.2613E-03    -902.056E-18     8.04793E+06     115.614E+06     110.551E+06    -4.31721E+06    -385.316E-03     612.276E-03    -226.960E-03     101.276E-03    -386.481E-03     613.578E-03    -226.587E-03     89.0704E-03
               7     718.421E-06     85.2081E-03    -137.461E+06    -257.464E+06    -134.749E+06    -31.9910E+03    -225.055E-03     450.170E-03    -225.116E-03     10.3113E-03    -225.181E-03     449.286E-03    -225.217E-03     9.60877E-03
               8     1.43699E-03     85.2265E-03    -134.183E+06    -246.466E+06    -124.187E+06    -77.4259E+03    -225.039E-03     450.125E-03    -225.085E-03     18.7401E-03    -225.197E-03     449.291E-03    -225.154E-03     17.4693E-03
               9     2.15581E-03     85.2603E-03    -128.486E+06    -232.235E+06    -108.336E+06    -57.1898E+03    -225.076E-03     450.169E-03    -225.094E-03     27.5010E-03    -225.274E-03     449.401E-03    -225.112E-03     25.6534E-03
              10     2.87442E-03     85.3048E-03    -121.251E+06    -211.853E+06    -89.3366E+06     172.764E+03    -225.174E-03     450.288E-03    -225.114E-03     35.8412E-03    -225.427E-03     449.618E-03    -225.078E-03     33.4255E-03
              11     3.59317E-03     85.3616E-03    -112.737E+06    -187.917E+06    -69.1732E+06     123.407E+03    -225.227E-03     450.360E-03    -225.134E-03     43.8480E-03    -225.543E-03     449.810E-03    -225.043E-03     40.8789E-03
              12     4.31203E-03     85.4287E-03    -103.840E+06    -165.307E+06    -49.6869E+06     200.878E+03    -225.273E-03     450.414E-03    -225.141E-03     51.1943E-03    -225.652E-03     449.982E-03    -224.999E-03     47.6904E-03
              13     5.03090E-03     85.5061E-03    -94.8862E+06    -141.932E+06    -31.7224E+06     83.0627E+03    -225.417E-03     450.556E-03    -225.139E-03     58.0189E-03    -225.864E-03     450.254E-03    -224.954E-03     53.9845E-03
              14     5.74990E-03     85.5926E-03    -85.6617E+06    -118.758E+06    -15.2751E+06     50.2746E+03    -225.607E-03     450.742E-03    -225.135E-03     64.3327E-03    -226.122E-03     450.576E-03    -224.915E-03     59.7642E-03
              15     6.46875E-03     85.6884E-03    -77.2371E+06    -93.3515E+06    -169.350E+03     332.446E+03    -225.734E-03     450.862E-03    -225.128E-03     70.1197E-03    -226.330E-03     450.853E-03    -224.882E-03     64.9990E-03
              16     7.18776E-03     85.7906E-03    -68.8723E+06    -64.0628E+06     14.2557E+06     383.325E+03    -225.840E-03     450.952E-03    -225.112E-03     75.5321E-03    -226.530E-03     451.129E-03    -224.848E-03     69.8226E-03
              17     7.90667E-03     85.9010E-03    -60.5123E+06    -32.4888E+06     28.1556E+06     199.664E+03    -225.894E-03     450.982E-03    -225.088E-03     80.5158E-03    -226.690E-03     451.367E-03    -224.813E-03     74.1762E-03
              18     8.62602E-03     86.0160E-03    -52.7361E+06     7.38142E+06     42.2386E+06     129.850E+03    -225.873E-03     450.925E-03    -225.052E-03     84.7272E-03    -226.797E-03     451.565E-03    -224.775E-03     77.7247E-03
              19     9.34509E-03     86.1371E-03    -45.3250E+06     34.2924E+06     52.0180E+06     232.018E+03    -225.918E-03     450.930E-03    -225.013E-03     88.2905E-03    -226.956E-03     451.778E-03    -224.737E-03     80.5751E-03
              20     10.0642E-03     86.2615E-03    -37.9211E+06     49.6398E+06     60.2420E+06     77.1427E+03    -225.836E-03     450.819E-03    -224.983E-03     90.9527E-03    -226.973E-03     451.824E-03    -224.699E-03     82.4977E-03
              21     10.7839E-03     86.3876E-03    -30.8139E+06     65.0445E+06     70.7147E+06    -326.868E+03    -225.744E-03     450.711E-03    -224.966E-03     91.9651E-03    -226.981E-03     451.864E-03    -224.662E-03     82.7684E-03
              22     11.5028E-03     86.5129E-03    -24.0766E+06     72.5074E+06     82.3322E+06    -196.549E+03    -225.709E-03     450.685E-03    -224.976E-03     90.7804E-03    -227.014E-03     451.924E-03    -224.635E-03     80.9119E-03
              23     12.2215E-03     86.6338E-03    -17.0928E+06     79.9545E+06     93.9723E+06     265.512E+03    -225.126E-03     450.113E-03    -224.987E-03     86.2267E-03    -226.436E-03     451.373E-03    -224.608E-03     76.0059E-03
              24     12.9415E-03     86.7449E-03    -10.5917E+06     87.4913E+06     99.7374E+06     119.895E+03    -224.566E-03     449.525E-03    -224.958E-03     82.0832E-03    -225.933E-03     450.874E-03    -224.571E-03     71.0942E-03
              25     13.6617E-03     86.8488E-03    -4.88372E+06     91.1884E+06     99.0250E+06     33.4295E+03    -224.518E-03     449.432E-03    -224.913E-03     65.1867E-03    -225.619E-03     450.552E-03    -224.543E-03     55.3798E-03
              26     14.3801E-03     88.3977E-03    -3.04213E+06     91.1893E+06     97.1832E+06     277.135E+03    -224.298E-03     449.214E-03    -224.916E-03     48.2624E-03    -225.054E-03     450.000E-03    -224.557E-03     40.3766E-03
              27     14.3787E-03     89.8856E-03    -1.81255E+06     91.7231E+06     96.9503E+06     689.282E+03    -223.649E-03     448.577E-03    -224.928E-03     49.1850E-03    -224.404E-03     449.370E-03    -224.573E-03     41.3245E-03
              28     14.3814E-03     91.3688E-03    -2.34723E+06     91.1836E+06     96.6464E+06    -178.185E+03    -224.198E-03     449.101E-03    -224.903E-03     50.2174E-03    -224.964E-03     449.902E-03    -224.548E-03     42.2861E-03
              29     14.3781E-03     92.8585E-03    -2.10200E+06     91.4560E+06     97.3309E+06    -202.107E+03    -224.524E-03     449.425E-03    -224.900E-03     48.9033E-03    -225.282E-03     450.217E-03    -224.543E-03     40.9698E-03
              30     14.3818E-03     94.3403E-03    -2.43800E+06     90.9615E+06     96.8756E+06    -317.019E+03    -223.828E-03     448.736E-03    -224.909E-03     48.6823E-03    -224.588E-03     449.530E-03    -224.553E-03     40.7147E-03
              31     14.3782E-03     95.8280E-03    -2.25261E+06       92.43E+06     98.1794E+06    -21.2553E+03    -224.537E-03     449.444E-03    -224.906E-03     49.0316E-03    -225.303E-03     450.244E-03    -224.546E-03     41.0595E-03
              32     14.3811E-03     97.3163E-03    -2.49039E+06     91.9936E+06     97.1199E+06     862.530E+03    -224.333E-03     449.245E-03    -224.911E-03     49.3800E-03    -225.088E-03     450.035E-03    -224.555E-03     41.5666E-03
              33     14.3787E-03     98.8002E-03    -3.30134E+06     91.3082E+06     97.3415E+06    -99.2639E+03    -224.062E-03     448.986E-03    -224.924E-03     49.4175E-03    -224.823E-03     449.777E-03    -224.565E-03     41.5634E-03
              34     14.3804E-03     100.287E-03    -3.10352E+06      91.518E+06     97.2408E+06    -37.3608E+03    -224.053E-03     448.963E-03    -224.910E-03     48.8876E-03    -224.819E-03     449.761E-03    -224.552E-03     40.9228E-03
              35     14.3800E-03     101.770E-03    -2.45153E+06     92.2667E+06     98.5691E+06    -322.666E+03    -224.173E-03     449.067E-03    -224.894E-03     49.0020E-03    -224.940E-03     449.866E-03    -224.531E-03     41.0301E-03
              36     14.3800E-03     103.261E-03    -1.14810E+06     93.4969E+06     99.6088E+06     432.935E+03    -224.380E-03     449.277E-03    -224.897E-03     49.2512E-03    -225.140E-03     450.076E-03    -224.533E-03     41.3377E-03
              37     14.3801E-03     104.743E-03    -2.71569E+06     91.6949E+06     97.4973E+06     241.130E+03    -224.022E-03     448.929E-03    -224.907E-03     49.1701E-03    -224.784E-03     449.724E-03    -224.549E-03     41.2589E-03
              38     14.3796E-03     106.231E-03    -3.14451E+06     91.2171E+06     97.8179E+06    -723.385E+03    -223.879E-03     448.790E-03    -224.910E-03     49.0994E-03    -224.645E-03     449.585E-03    -224.549E-03     41.1556E-03
              39     14.3807E-03     107.714E-03    -3.17274E+06     91.3486E+06     98.0445E+06    -68.8676E+03    -224.124E-03     449.016E-03    -224.892E-03     49.0688E-03    -224.892E-03     449.813E-03    -224.530E-03     41.1026E-03
              40     14.3797E-03     109.203E-03    -2.55711E+06     93.5178E+06     100.090E+06     432.727E+03    -224.507E-03     449.398E-03    -224.891E-03     48.7209E-03    -225.275E-03     450.198E-03    -224.522E-03     40.7680E-03
              41     14.3805E-03     110.688E-03    -2.27333E+06     93.4032E+06     99.7434E+06    -125.680E+03    -224.130E-03     449.022E-03    -224.892E-03     49.0633E-03    -224.893E-03     449.819E-03    -224.525E-03     41.1717E-03
              42     14.3803E-03     112.173E-03    -2.87779E+06     92.6088E+06     99.4757E+06     358.760E+03    -223.987E-03     448.874E-03    -224.888E-03     49.2551E-03    -224.754E-03     449.672E-03    -224.520E-03     41.3556E-03
              43     14.3804E-03     113.661E-03    -1.44279E+06     93.8154E+06     100.592E+06     467.844E+03    -224.023E-03     448.908E-03    -224.885E-03     49.6603E-03    -224.788E-03     449.709E-03    -224.516E-03     41.7680E-03
              44     14.3806E-03     115.144E-03    -2.06350E+06     93.2257E+06     99.6994E+06    -13.4997E+03    -224.178E-03     449.055E-03    -224.877E-03     49.0408E-03    -224.945E-03     449.857E-03    -224.511E-03     41.0753E-03
              45     14.3800E-03     116.631E-03    -3.82563E+06     93.4305E+06     99.8577E+06    -659.182E+03    -224.434E-03     449.314E-03    -224.880E-03     48.6786E-03    -225.212E-03     450.121E-03    -224.511E-03     40.6487E-03
              46     14.3806E-03     118.118E-03    -2.98405E+06     93.5842E+06     100.014E+06    -212.711E+03    -224.155E-03     449.028E-03    -224.874E-03     49.5791E-03    -224.928E-03     449.834E-03    -224.505E-03     41.6397E-03
              47     14.3809E-03     119.604E-03    -2.33297E+06     95.2516E+06     102.041E+06     920.160E+03    -224.099E-03     448.977E-03    -224.877E-03     49.3567E-03    -224.868E-03     449.779E-03    -224.502E-03     41.5138E-03
              48     14.3799E-03     121.090E-03    -2.51517E+06     96.3573E+06     101.960E+06     634.625E+03    -223.548E-03     448.438E-03    -224.889E-03     48.6424E-03    -224.317E-03     449.243E-03    -224.515E-03     40.7910E-03
              49     14.3815E-03     122.571E-03    -3.11116E+06     97.0455E+06     102.091E+06     371.124E+03    -223.604E-03     448.482E-03    -224.878E-03     49.4034E-03    -224.387E-03     449.302E-03    -224.504E-03     41.4782E-03
              50     14.3799E-03     124.063E-03    -1.49382E+06     99.5654E+06     103.960E+06     856.169E+03    -224.031E-03     448.893E-03    -224.862E-03     49.4748E-03    -224.809E-03     449.718E-03    -224.485E-03     41.5702E-03
              51     14.3820E-03     125.543E-03    -2.28488E+06     99.8797E+06     103.706E+06    -24.9648E+03    -223.823E-03     448.685E-03    -224.862E-03     48.8661E-03    -224.604E-03     449.512E-03    -224.485E-03     40.9323E-03
              52     14.3797E-03     127.031E-03    -3.73312E+06     98.9482E+06     103.840E+06    -751.314E+03    -223.752E-03     448.627E-03    -224.875E-03     48.2661E-03    -224.539E-03     449.451E-03    -224.494E-03     40.2841E-03
              53     14.3818E-03     128.515E-03    -3.04937E+06     99.7837E+06     104.513E+06    -34.9498E+03    -223.445E-03     448.314E-03    -224.869E-03     49.3625E-03    -224.239E-03     449.148E-03    -224.487E-03     41.3883E-03
              54     14.3808E-03     130.001E-03    -1.73718E+06     103.932E+06     107.667E+06     915.816E+03    -223.580E-03     448.446E-03    -224.866E-03     49.0031E-03    -224.368E-03     449.284E-03    -224.476E-03     41.1346E-03
              55     14.3811E-03     131.487E-03    -2.59492E+06     106.079E+06     108.149E+06     1.49117E+06    -223.069E-03     447.966E-03    -224.897E-03     48.7396E-03    -223.857E-03     448.808E-03    -224.506E-03     40.9747E-03
              56     14.3806E-03     132.968E-03    -3.47903E+06     106.895E+06     108.426E+06     320.715E+03    -222.722E-03     447.624E-03    -224.902E-03     49.8116E-03    -223.529E-03     448.483E-03    -224.510E-03     41.9588E-03
              57     14.3816E-03     134.454E-03    -1.16828E+06     110.425E+06     110.974E+06     1.07983E+06    -222.399E-03     447.273E-03    -224.874E-03     48.9399E-03    -223.201E-03     448.141E-03    -224.477E-03     41.0623E-03
              58     14.3822E-03     135.934E-03    -3.38383E+06     113.220E+06     111.992E+06     559.560E+03    -221.820E-03     446.689E-03    -224.869E-03     48.4730E-03    -222.633E-03     447.568E-03    -224.469E-03     40.6279E-03
              59     14.3812E-03     137.420E-03    -2.80560E+06     116.380E+06     113.185E+06     1.35062E+06    -220.523E-03     445.364E-03    -224.841E-03     49.5068E-03    -221.346E-03     446.261E-03    -224.440E-03     41.7142E-03
              60     14.3862E-03     138.894E-03    -2.86353E+06     120.154E+06     114.770E+06     791.345E+03    -220.020E-03     444.776E-03    -224.756E-03     49.9258E-03    -220.851E-03     445.691E-03    -224.352E-03     42.1566E-03
              61     14.3830E-03     140.381E-03    -3.72284E+06     122.757E+06     116.001E+06     671.405E+03    -219.823E-03     444.509E-03    -224.686E-03     49.1450E-03    -220.659E-03     445.431E-03    -224.279E-03     41.3888E-03
              62     14.3888E-03     141.853E-03    -2.93980E+06     126.584E+06     118.274E+06     1.28794E+06    -218.375E-03     442.979E-03    -224.604E-03     50.2206E-03    -219.219E-03     443.919E-03    -224.192E-03     42.5457E-03
              63     14.3873E-03     143.333E-03    -3.45942E+06     129.760E+06     120.617E+06     168.590E+03    -218.193E-03     442.695E-03    -224.502E-03     49.2327E-03    -219.046E-03     443.647E-03    -224.082E-03     41.4965E-03
              64     14.3908E-03     144.809E-03    -2.33876E+06     132.522E+06     122.488E+06     1.16340E+06    -217.651E-03     442.062E-03    -224.412E-03     49.9347E-03    -218.512E-03     443.030E-03    -223.988E-03     42.1848E-03
              65     14.3914E-03     146.283E-03    -3.55067E+06     132.379E+06     122.588E+06    -93.2252E+03    -217.656E-03     441.952E-03    -224.295E-03     49.8744E-03    -218.520E-03     442.918E-03    -223.869E-03     42.1350E-03
              66     14.3934E-03     147.761E-03    -2.82770E+06     135.205E+06     125.814E+06     788.789E+03    -217.420E-03     441.615E-03    -224.195E-03     49.4880E-03    -218.287E-03     442.588E-03    -223.758E-03     41.7577E-03
              67     14.3954E-03     149.234E-03    -2.83339E+06     136.275E+06     127.982E+06     255.835E+03    -217.205E-03     441.280E-03    -224.075E-03     51.1425E-03    -218.084E-03     442.262E-03    -223.628E-03     43.4324E-03
              68     14.3970E-03     150.711E-03    -4.35124E+06     133.772E+06     128.509E+06    -774.910E+03    -218.223E-03     442.143E-03    -223.920E-03     51.2093E-03    -219.103E-03     443.110E-03    -223.465E-03     43.5055E-03
              69     14.3994E-03     152.186E-03    -2.30577E+06     132.409E+06     132.408E+06     587.227E+03    -218.796E-03     442.561E-03    -223.764E-03     51.6406E-03    -219.666E-03     443.508E-03    -223.291E-03     44.0014E-03
              70     14.4020E-03     153.664E-03    -4.40654E+06     129.093E+06     131.939E+06    -684.645E+03    -220.676E-03     444.242E-03    -223.566E-03     52.9654E-03    -221.558E-03     445.184E-03    -223.087E-03     45.2487E-03
              71     14.4032E-03     155.147E-03    -2.89660E+06     125.861E+06     128.448E+06    -1.02217E+06    -224.385E-03     447.740E-03    -223.355E-03     53.6636E-03    -225.249E-03     448.668E-03    -222.891E-03     45.9061E-03
              72     14.4039E-03     156.635E-03    -3.31488E+06     119.779E+06     123.314E+06    -1.19285E+06    -229.189E-03     452.351E-03    -223.162E-03     54.8726E-03    -230.030E-03     453.248E-03    -222.714E-03     47.1629E-03
              73     14.4044E-03     158.131E-03    -2.64159E+06     112.809E+06     120.230E+06    -1.64842E+06    -234.634E-03     457.618E-03    -222.984E-03     56.5593E-03    -235.455E-03     458.481E-03    -222.542E-03     48.8391E-03
              74     14.4048E-03     159.636E-03    -2.92962E+06     104.167E+06     117.275E+06    -1.98686E+06    -240.663E-03     463.469E-03    -222.806E-03     58.1011E-03    -241.470E-03     464.295E-03    -222.366E-03     50.2947E-03
              75     14.4050E-03     161.147E-03    -2.29080E+06     95.2138E+06     115.675E+06    -1.28339E+06    -246.845E-03     469.477E-03    -222.632E-03     58.9660E-03    -247.627E-03     470.253E-03    -222.188E-03     51.1386E-03
              76     14.4056E-03     162.672E-03    -4.70412E+06     80.3363E+06     112.468E+06    -4.60024E+06    -252.077E-03     474.556E-03    -222.478E-03     59.6035E-03    -252.835E-03     475.256E-03    -222.026E-03     51.7495E-03
              77     14.4061E-03     164.195E-03    -1.06237E+06     62.8205E+06     113.421E+06    -3.87814E+06    -257.097E-03     479.425E-03    -222.328E-03     61.0307E-03    -257.808E-03     480.027E-03    -221.850E-03     53.2135E-03
              78     14.4076E-03     165.736E-03    -4.75436E+06     41.6147E+06     114.149E+06    -5.10941E+06    -261.738E-03     483.917E-03    -222.178E-03     61.9043E-03    -262.425E-03     484.404E-03    -221.661E-03     54.1844E-03
              79     14.4084E-03     167.272E-03     185.111E+03     26.9291E+06     121.918E+06    -2.40311E+06    -265.536E-03     487.571E-03    -222.036E-03     63.8667E-03    -266.166E-03     487.944E-03    -221.465E-03     56.5384E-03
              80     14.4112E-03     168.826E-03    -2.11851E+06     27.1761E+06     125.088E+06     975.071E+03    -264.476E-03     486.429E-03    -221.953E-03     61.8346E-03    -265.041E-03     486.721E-03    -221.364E-03     55.6688E-03
              81     14.4119E-03     170.359E-03    -1.22068E+06     26.2201E+06     117.781E+06    -557.677E+03    -254.672E-03     476.700E-03    -222.028E-03     57.5590E-03    -255.088E-03     476.862E-03    -221.475E-03     53.4823E-03
              82     14.4151E-03     171.874E-03     2.40406E+06     20.7061E+06     86.1420E+06    -1.94812E+06    -204.647E-03     427.803E-03    -223.156E-03     25.5189E-03    -204.843E-03     427.857E-03    -222.758E-03     24.0447E-03
              83     13.5884E-03     173.169E-03    -14.5764E+06    -4.38896E+06     67.9023E+06    -5.18018E+06    -158.872E-03     384.700E-03    -225.828E-03    -35.3454E-03    -158.969E-03     384.611E-03    -225.461E-03    -36.0712E-03
              84     12.7926E-03     173.003E-03    -9.13481E+06    -2.14243E+06     98.9553E+06    -5.08065E+06    -155.222E-03     384.113E-03    -228.890E-03    -94.8814E-03    -155.282E-03     383.939E-03    -228.379E-03    -96.0580E-03
              85     12.0227E-03     172.824E-03    -6.77697E+06     4.71135E+06     111.118E+06    -9.39864E+06    -154.301E-03     385.882E-03    -231.581E-03    -140.691E-03    -154.365E-03     385.677E-03    -231.022E-03    -141.763E-03
              86     11.2728E-03     172.635E-03    -2.32122E+06    -6.34686E+06     113.870E+06    -10.2072E+06    -155.240E-03     389.289E-03    -234.048E-03    -165.928E-03    -155.274E-03     388.991E-03    -233.466E-03    -166.937E-03
              87     10.5295E-03     172.453E-03     3.38441E+06    -2.46028E+06     123.055E+06    -9.74228E+06    -159.668E-03     396.053E-03    -236.386E-03    -182.136E-03    -159.693E-03     395.739E-03    -235.772E-03    -183.114E-03
              88     9.79595E-03     172.277E-03     8.08860E+06    -2.86938E+06     126.869E+06    -10.0887E+06    -167.870E-03     406.306E-03    -238.436E-03    -194.567E-03    -167.874E-03     405.959E-03    -237.809E-03    -195.579E-03
              89     9.07132E-03     172.106E-03     11.4419E+06    -3.86293E+06     126.186E+06    -10.0480E+06    -177.129E-03     417.211E-03    -240.082E-03    -202.011E-03    -177.108E-03     416.829E-03    -239.462E-03    -203.112E-03
              90     8.35616E-03     171.943E-03     14.2849E+06    -4.13477E+06     123.877E+06    -9.32917E+06    -186.421E-03     427.759E-03    -241.338E-03    -204.324E-03    -186.376E-03     427.352E-03    -240.733E-03    -205.517E-03
              91     7.64617E-03     171.790E-03     16.7510E+06    -2.60484E+06     120.936E+06    -9.26426E+06    -195.522E-03     437.764E-03    -242.242E-03    -202.215E-03    -195.461E-03     437.349E-03    -241.658E-03    -203.503E-03
              92     6.94284E-03     171.647E-03     19.1539E+06    -1.84781E+06     116.925E+06    -10.0123E+06    -204.109E-03     446.935E-03    -242.826E-03    -196.046E-03    -204.034E-03     446.515E-03    -242.267E-03    -197.437E-03
              93     6.24224E-03     171.517E-03     22.0527E+06    -2.11469E+06     112.778E+06    -10.9678E+06    -211.954E-03     455.082E-03    -243.128E-03    -186.451E-03    -211.866E-03     454.660E-03    -242.593E-03    -187.922E-03
              94     5.54559E-03     171.398E-03     25.6367E+06    -2.84429E+06     107.957E+06    -11.6899E+06    -218.788E-03     461.975E-03    -243.186E-03    -173.947E-03    -218.690E-03     461.554E-03    -242.679E-03    -175.469E-03
              95     4.85031E-03     171.293E-03     29.8461E+06    -3.07509E+06     101.788E+06    -12.2539E+06    -224.682E-03     467.723E-03    -243.042E-03    -158.341E-03    -224.572E-03     467.314E-03    -242.571E-03    -159.895E-03
              96     4.15716E-03     171.200E-03     34.3102E+06    -3.93978E+06     93.6675E+06    -12.2833E+06    -229.390E-03     472.141E-03    -242.751E-03    -140.315E-03    -229.271E-03     471.751E-03    -242.326E-03    -141.838E-03
              97     3.46375E-03     171.120E-03     38.8309E+06    -4.52084E+06     84.4857E+06    -11.7525E+06    -233.234E-03     475.607E-03    -242.372E-03    -120.380E-03    -233.110E-03     475.243E-03    -242.000E-03    -121.804E-03
              98     2.77156E-03     171.055E-03     43.4808E+06    -5.26790E+06     75.6476E+06    -10.7409E+06    -236.351E-03     478.281E-03    -241.930E-03    -98.4862E-03    -236.221E-03     477.944E-03    -241.607E-03    -99.7717E-03
              99     2.07904E-03     171.002E-03     47.6810E+06    -6.19385E+06     67.3557E+06    -9.07819E+06    -238.539E-03     479.979E-03    -241.440E-03    -75.0917E-03    -238.404E-03     479.667E-03    -241.163E-03    -76.1864E-03
             100     1.38678E-03     170.966E-03     51.1117E+06    -7.37720E+06     60.4157E+06    -6.81059E+06    -239.847E-03     480.774E-03    -240.927E-03    -50.5481E-03    -239.709E-03     480.482E-03    -240.688E-03    -51.3833E-03
             101     694.208E-06     170.940E-03     54.7969E+06    -7.73691E+06     55.7374E+06    -4.16351E+06    -240.085E-03     480.604E-03    -240.519E-03    -27.2067E-03    -239.935E-03     480.331E-03    -240.308E-03    -27.7235E-03
             102     1.77258E-06     169.395E-03     14.3747E+06    -22.5719E+06     14.2210E+06    -4.87547E+06    -224.317E-03     448.661E-03    -224.344E-03    -11.1214E-03    -224.274E-03     448.463E-03    -224.261E-03    -11.3799E-03
             103    -1.42108E-06     167.961E-03    -71.2649E+06    -61.1249E+06    -70.2540E+06    -8.25230E+06    -200.508E-03     400.472E-03    -199.964E-03    -2.69462E-03    -200.687E-03     400.359E-03    -200.123E-03    -2.81685E-03
             104     1.98162E-06     166.566E-03    -160.124E+06    -108.254E+06    -159.373E+06    -8.55718E+06    -190.015E-03     379.206E-03    -189.191E-03     3.60542E-03    -190.428E-03     379.128E-03    -189.599E-03     3.60150E-03
             105    -1.30402E-06     165.191E-03    -246.458E+06    -154.468E+06    -245.985E+06    -7.34885E+06    -188.818E-03     377.008E-03    -188.190E-03     7.39609E-03    -189.469E-03     376.949E-03    -188.838E-03     7.51657E-03
             106     1.53775E-06     163.803E-03    -267.694E+06    -190.581E+06    -268.038E+06    -4.90503E+06    -192.955E-03     385.786E-03    -192.831E-03     8.70415E-03    -193.628E-03     385.608E-03    -193.507E-03     8.86318E-03
             107    -1.62416E-06     162.403E-03    -212.659E+06    -207.098E+06    -212.995E+06    -1.32671E+06    -199.543E-03     399.056E-03    -199.513E-03     9.04062E-03    -199.998E-03     398.636E-03    -199.970E-03     9.15330E-03
             108     1.71667E-06     160.976E-03    -160.308E+06    -208.390E+06    -161.774E+06     135.310E+03    -206.315E-03     411.971E-03    -205.656E-03     9.14662E-03    -206.581E-03     411.396E-03    -205.930E-03     9.19986E-03
             109    -899.388E-09     159.539E-03    -144.507E+06    -211.564E+06    -142.205E+06    -1.27863E+06    -210.884E-03     421.552E-03    -210.668E-03     8.27037E-03    -211.093E-03     420.910E-03    -210.863E-03     8.25086E-03
             110     385.297E-09     158.090E-03    -139.724E+06    -220.882E+06    -140.025E+06    -1.84976E+06    -214.629E-03     428.943E-03    -214.314E-03     7.01472E-03    -214.805E-03     428.244E-03    -214.491E-03     6.92196E-03
             111     556.045E-09     156.628E-03    -139.369E+06    -231.479E+06    -141.194E+06    -1.95229E+06    -217.837E-03     435.350E-03    -217.513E-03     7.26823E-03    -217.995E-03     434.600E-03    -217.681E-03     7.06401E-03
             112    -1.06717E-06     155.160E-03    -146.061E+06    -243.759E+06    -144.404E+06    -2.01100E+06    -220.246E-03     440.475E-03    -220.229E-03     6.55488E-03    -220.414E-03     439.679E-03    -220.386E-03     6.32566E-03
             113     1.59595E-06     153.685E-03    -149.632E+06    -254.752E+06    -151.609E+06    -1.71643E+06    -223.399E-03     445.605E-03    -222.206E-03     6.59034E-03    -223.559E-03     444.770E-03    -222.378E-03     6.34581E-03
             114    -446.787E-09     152.202E-03    -155.952E+06    -263.321E+06    -154.011E+06    -998.580E+03    -225.785E-03     450.713E-03    -224.927E-03     6.47778E-03    -225.961E-03     449.847E-03    -225.089E-03     6.17864E-03
             115     530.790E-09     150.712E-03    -157.154E+06    -270.465E+06    -158.813E+06    -826.316E+03    -227.883E-03     455.630E-03    -227.747E-03     6.26940E-03    -228.048E-03     454.737E-03    -227.921E-03     5.98538E-03
             116    -452.479E-09     149.213E-03    -158.654E+06    -275.412E+06    -159.618E+06    -816.818E+03    -229.766E-03     459.635E-03    -229.869E-03     6.27660E-03    -229.930E-03     458.721E-03    -230.038E-03     5.93676E-03
             117     200.488E-09     147.710E-03    -161.000E+06    -279.803E+06    -158.209E+06    -830.979E+03    -230.847E-03     461.454E-03    -230.607E-03     5.46150E-03    -231.018E-03     460.519E-03    -230.759E-03     5.10070E-03
             118     406.035E-09     146.208E-03    -158.064E+06    -284.859E+06    -161.144E+06    -837.260E+03    -231.430E-03     462.322E-03    -230.892E-03     5.56765E-03    -231.575E-03     461.362E-03    -231.055E-03     5.18230E-03
             119    -286.457E-09     144.701E-03    -156.436E+06    -288.581E+06    -156.380E+06    -306.021E+03    -231.279E-03     462.388E-03    -231.109E-03     5.46045E-03    -231.418E-03     461.401E-03    -231.246E-03     5.05615E-03
             120     397.193E-09     143.198E-03    -154.412E+06    -290.383E+06    -154.370E+06    -695.741E+03    -230.562E-03     461.031E-03    -230.469E-03     5.35525E-03    -230.691E-03     460.029E-03    -230.596E-03     4.91968E-03
             121    -385.456E-09     141.698E-03    -152.505E+06    -291.568E+06    -152.766E+06    -15.1863E+03    -229.387E-03     459.285E-03    -229.897E-03     5.52434E-03    -229.508E-03     458.272E-03    -230.017E-03     5.03658E-03
             122    -370.316E-09     140.197E-03    -150.418E+06    -292.305E+06    -149.530E+06     11.9818E+03    -228.430E-03     457.475E-03    -229.045E-03     5.69097E-03    -228.544E-03     456.451E-03    -229.151E-03     5.29584E-03
             123     240.116E-09     138.704E-03    -147.790E+06    -292.414E+06    -148.356E+06    -167.048E+03    -227.855E-03     455.397E-03    -227.543E-03     5.44586E-03    -227.957E-03     454.367E-03    -227.646E-03     5.01927E-03
             124     320.769E-09     137.212E-03    -147.629E+06    -293.598E+06    -146.745E+06    -126.000E+03    -227.265E-03     453.954E-03    -226.689E-03     5.65111E-03    -227.367E-03     452.916E-03    -226.783E-03     5.19247E-03
             125    -58.8270E-09     135.721E-03    -145.538E+06    -291.245E+06    -146.326E+06     631.033E+03    -226.859E-03     453.173E-03    -226.314E-03     6.01989E-03    -226.955E-03     452.143E-03    -226.412E-03     5.57780E-03
             126     558.526E-09     134.229E-03    -143.989E+06    -289.193E+06    -144.519E+06     93.2952E+03    -226.186E-03     451.972E-03    -225.786E-03     6.54695E-03    -226.280E-03     450.947E-03    -225.880E-03     6.07862E-03
             127    -505.654E-09     132.744E-03    -146.033E+06    -289.929E+06    -145.402E+06     -54.329E+03    -225.469E-03     451.150E-03    -225.681E-03     6.26362E-03    -225.571E-03     450.126E-03    -225.776E-03     5.87101E-03
             128     137.168E-09     131.257E-03    -143.320E+06    -286.794E+06    -143.807E+06     905.082E+03    -225.509E-03     450.957E-03    -225.448E-03     5.75954E-03    -225.603E-03     449.941E-03    -225.543E-03     5.34415E-03
             129     301.145E-09     129.768E-03    -142.717E+06    -285.714E+06    -142.608E+06    -238.061E+03    -225.577E-03     450.675E-03    -225.098E-03     6.19231E-03    -225.672E-03     449.663E-03    -225.190E-03     5.74852E-03
             130    -66.3109E-09     128.284E-03    -141.521E+06    -284.351E+06    -141.775E+06     265.037E+03    -225.220E-03     450.524E-03    -225.304E-03     6.20175E-03    -225.312E-03     449.516E-03    -225.395E-03     5.76625E-03
             131    -307.595E-09     126.795E-03    -139.782E+06    -282.036E+06    -139.234E+06     150.614E+03    -224.982E-03     450.387E-03    -225.405E-03     6.02216E-03    -225.072E-03     449.384E-03    -225.490E-03     5.60436E-03
             132     62.7444E-09     125.312E-03    -139.466E+06    -280.550E+06    -139.782E+06     208.980E+03    -224.925E-03     450.154E-03    -225.229E-03     6.03250E-03    -225.015E-03     449.159E-03    -225.319E-03     5.63268E-03
             133    -273.796E-09     123.823E-03    -139.381E+06    -278.596E+06    -139.021E+06     483.065E+03    -225.077E-03     450.018E-03    -224.941E-03     6.13169E-03    -225.170E-03     449.031E-03    -225.030E-03     5.70303E-03
             134     667.597E-09     122.340E-03    -140.447E+06    -277.567E+06    -138.821E+06     233.665E+03    -225.381E-03     450.013E-03    -224.633E-03     6.17636E-03    -225.481E-03     449.033E-03    -224.721E-03     5.78459E-03
             135     12.0664E-09     120.852E-03    -136.879E+06    -274.197E+06    -138.606E+06     417.314E+03    -225.350E-03     450.011E-03    -224.660E-03     6.41327E-03    -225.439E-03     449.042E-03    -224.757E-03     6.00003E-03
             136     266.448E-09     119.367E-03    -138.837E+06    -274.827E+06    -138.737E+06    -296.041E+03    -224.789E-03     449.740E-03    -224.951E-03     6.22044E-03    -224.886E-03     448.770E-03    -225.044E-03     5.82147E-03
             137    -793.355E-09     117.883E-03    -139.652E+06    -273.802E+06    -139.928E+06     693.664E+03    -224.487E-03     449.603E-03    -225.115E-03     5.90052E-03    -224.588E-03     448.642E-03    -225.215E-03     5.46110E-03
             138     401.076E-09     116.396E-03    -138.980E+06    -270.571E+06    -138.410E+06     349.983E+03    -224.814E-03     449.938E-03    -225.124E-03     6.05121E-03    -224.919E-03     448.991E-03    -225.222E-03     5.56952E-03
             139    -463.709E-09     114.912E-03    -138.615E+06    -269.289E+06    -138.703E+06    -53.1653E+03    -225.099E-03     450.001E-03    -224.902E-03     5.84390E-03    -225.202E-03     449.059E-03    -225.004E-03     5.45231E-03
             140     793.973E-09     113.424E-03    -138.570E+06    -269.498E+06    -139.713E+06     278.782E+03    -225.128E-03     449.644E-03    -224.516E-03     6.14274E-03    -225.230E-03     448.703E-03    -224.623E-03     5.75315E-03
             141    -271.214E-09     111.941E-03    -140.184E+06    -268.626E+06    -139.145E+06     483.682E+03    -225.142E-03     449.880E-03    -224.738E-03     6.85519E-03    -225.254E-03     448.945E-03    -224.841E-03     6.45093E-03
             142     317.500E-09     110.453E-03    -138.245E+06    -266.102E+06    -139.048E+06    -350.376E+03    -225.343E-03     450.277E-03    -224.934E-03     6.50017E-03    -225.449E-03     449.351E-03    -225.043E-03     6.06777E-03
             143     197.333E-09     108.969E-03    -139.230E+06    -268.291E+06    -139.499E+06    -427.969E+03    -224.996E-03     449.775E-03    -224.779E-03     6.08954E-03    -225.103E-03     448.840E-03    -224.886E-03     5.68795E-03
             144    -418.967E-09     107.483E-03    -140.125E+06    -266.644E+06    -139.973E+06     661.635E+03    -224.393E-03     449.243E-03    -224.849E-03     5.83815E-03    -224.507E-03     448.318E-03    -224.959E-03     5.41623E-03
             145    -27.4931E-09     106.000E-03    -139.619E+06    -266.753E+06    -138.367E+06    -663.688E+03    -224.712E-03     449.762E-03    -225.049E-03     6.24390E-03    -224.826E-03     448.834E-03    -225.152E-03     5.81732E-03
             146    -15.2214E-09     104.511E-03    -138.233E+06    -267.365E+06    -139.539E+06     482.577E+03    -225.255E-03     450.296E-03    -225.041E-03     6.41963E-03    -225.358E-03     449.365E-03    -225.151E-03     6.00307E-03
             147     335.331E-09     103.026E-03    -138.705E+06    -265.467E+06    -138.547E+06     382.097E+03    -225.107E-03     449.918E-03    -224.810E-03     6.35002E-03    -225.218E-03     448.995E-03    -224.917E-03     5.90727E-03
             148    -244.011E-09     101.541E-03    -138.696E+06    -264.497E+06    -138.547E+06    -470.092E+03    -224.863E-03     449.753E-03    -224.890E-03     6.63049E-03    -224.975E-03     448.835E-03    -224.998E-03     6.20779E-03
             149     96.6349E-09     100.054E-03    -138.741E+06    -264.643E+06    -139.226E+06     64.6373E+03    -224.937E-03     449.789E-03    -224.853E-03     6.58219E-03    -225.047E-03     448.872E-03    -224.964E-03     6.11987E-03
             150     148.753E-09     98.5698E-03    -139.220E+06    -264.956E+06    -138.451E+06     296.765E+03    -224.955E-03     449.749E-03    -224.794E-03     6.55996E-03    -225.069E-03     448.830E-03    -224.900E-03     6.15656E-03
             151    -174.682E-09     97.0846E-03    -138.513E+06    -263.969E+06    -138.646E+06     -31.135E+03    -224.860E-03     449.946E-03    -225.086E-03     6.14485E-03    -224.971E-03     449.030E-03    -225.196E-03     5.72153E-03
             152    -142.207E-09     95.5991E-03    -139.268E+06    -264.332E+06    -137.865E+06     35.5806E+03    -224.924E-03     449.888E-03    -224.964E-03     5.95051E-03    -225.039E-03     448.970E-03    -225.068E-03     5.53448E-03
             153     399.035E-09     94.1120E-03    -137.544E+06    -263.078E+06    -139.454E+06     401.921E+03    -225.219E-03     449.859E-03    -224.640E-03     6.49004E-03    -225.325E-03     448.948E-03    -224.756E-03     6.03865E-03
             154     140.415E-09     92.6280E-03    -137.284E+06    -262.314E+06    -137.716E+06    -114.446E+03    -225.386E-03     450.143E-03    -224.757E-03     6.30329E-03    -225.496E-03     449.233E-03    -224.866E-03     5.83102E-03
             155     204.836E-09     91.1411E-03    -138.415E+06    -262.499E+06    -137.740E+06    -251.457E+03    -225.141E-03     450.128E-03    -224.987E-03     6.07860E-03    -225.254E-03     449.218E-03    -225.095E-03     5.69753E-03
             156    -339.802E-09     89.6548E-03    -138.754E+06    -263.116E+06    -139.397E+06    -11.0322E+03    -224.690E-03     449.801E-03    -225.111E-03     6.46541E-03    -224.803E-03     448.892E-03    -225.225E-03     6.03829E-03
             157    -153.474E-09     88.1698E-03    -140.588E+06    -263.097E+06    -138.277E+06     371.157E+03    -224.649E-03     449.737E-03    -225.088E-03     6.02848E-03    -224.773E-03     448.829E-03    -225.194E-03     5.63026E-03
             158     22.1609E-09     86.6858E-03    -137.572E+06    -261.786E+06    -139.679E+06    -115.272E+03    -224.956E-03     449.984E-03    -225.028E-03     6.10063E-03    -225.064E-03     449.079E-03    -225.147E-03     5.67454E-03
             159    -112.332E-09     83.7137E-03    -140.033E+06    -261.974E+06    -139.681E+06     245.058E+03    -225.304E-03     450.279E-03    -224.975E-03     6.03495E-03    -225.424E-03     449.377E-03    -225.090E-03     5.60451E-03
             160     714.470E-09     82.2248E-03    -139.848E+06    -262.195E+06    -138.525E+06    -185.151E+03    -225.437E-03     450.273E-03    -224.836E-03     6.36916E-03    -225.557E-03     449.368E-03    -224.946E-03     5.94968E-03
             161    -459.634E-09     80.7397E-03    -138.062E+06    -262.447E+06    -139.490E+06     77.0612E+03    -225.185E-03     450.092E-03    -224.907E-03     6.33216E-03    -225.295E-03     449.185E-03    -225.024E-03     5.92062E-03
             162     573.727E-09     79.2542E-03    -139.289E+06    -260.641E+06    -137.863E+06     411.710E+03    -225.137E-03     449.932E-03    -224.795E-03     6.26765E-03    -225.258E-03     449.033E-03    -224.904E-03     5.86966E-03
             163    -200.064E-09     77.7671E-03    -138.360E+06    -261.651E+06    -139.659E+06    -607.024E+03    -225.240E-03     449.967E-03    -224.727E-03     6.67421E-03    -225.352E-03     449.065E-03    -224.845E-03     6.22981E-03
             164     532.063E-09     76.2827E-03    -138.650E+06    -260.545E+06    -138.412E+06     840.901E+03    -225.103E-03     450.120E-03    -225.017E-03     6.49008E-03    -225.220E-03     449.222E-03    -225.130E-03     6.04771E-03
             165    -756.320E-09     74.7963E-03    -138.543E+06    -259.566E+06    -138.035E+06    -740.275E+03    -224.684E-03     450.099E-03    -225.416E-03     6.14152E-03    -224.802E-03     449.205E-03    -225.529E-03     5.71417E-03
             166    -82.6547E-09     73.3104E-03    -139.179E+06    -261.838E+06    -139.912E+06    -35.6856E+03    -224.690E-03     449.970E-03    -225.280E-03     6.03786E-03    -224.805E-03     449.068E-03    -225.398E-03     5.61952E-03
             167     50.9537E-09     71.8246E-03    -138.568E+06    -260.288E+06    -138.307E+06     655.097E+03    -225.186E-03     450.032E-03    -224.846E-03     6.19036E-03    -225.304E-03     449.135E-03    -224.959E-03     5.76674E-03
             168     455.577E-09     70.3385E-03    -137.372E+06    -258.975E+06    -138.445E+06    -380.364E+03    -225.195E-03     450.227E-03    -225.032E-03     6.56820E-03    -225.308E-03     449.335E-03    -225.150E-03     6.13021E-03
             169    -756.122E-09     68.8521E-03    -139.284E+06    -260.179E+06    -138.446E+06    -106.565E+03    -225.055E-03     450.441E-03    -225.385E-03     6.42277E-03    -225.176E-03     449.545E-03    -225.498E-03     5.98680E-03
             170     571.855E-09     67.3654E-03    -137.719E+06    -259.740E+06    -138.962E+06     174.732E+03    -225.226E-03     450.424E-03    -225.198E-03     5.99959E-03    -225.339E-03     449.530E-03    -225.316E-03     5.53830E-03
             171    -372.719E-09     65.8805E-03    -139.131E+06    -259.103E+06    -137.911E+06    -67.0924E+03    -225.320E-03     450.182E-03    -224.863E-03     5.83316E-03    -225.441E-03     449.291E-03    -224.975E-03     5.44156E-03
             172     827.038E-09     64.3923E-03    -138.251E+06    -260.198E+06    -139.593E+06    -329.886E+03    -225.277E-03     450.154E-03    -224.877E-03     6.50409E-03    -225.391E-03     449.259E-03    -224.997E-03     6.08308E-03
             173    -737.968E-09     62.9077E-03    -139.013E+06    -259.797E+06    -138.272E+06     546.386E+03    -225.074E-03     450.288E-03    -225.214E-03     6.34229E-03    -225.194E-03     449.394E-03    -225.327E-03     5.91032E-03
             174     436.861E-09     61.4209E-03    -138.381E+06    -259.170E+06    -138.392E+06    -279.833E+03    -224.924E-03     450.466E-03    -225.542E-03     6.50969E-03    -225.042E-03     449.574E-03    -225.657E-03     6.06188E-03
             175    -1.04170E-06     59.9330E-03    -139.495E+06    -260.104E+06    -138.491E+06     66.8083E+03    -225.152E-03     450.808E-03    -225.656E-03     6.51965E-03    -225.274E-03     449.914E-03    -225.769E-03     6.06942E-03
             176     912.744E-09     58.4479E-03    -137.501E+06    -258.443E+06    -138.388E+06     367.493E+03    -225.821E-03     450.794E-03    -224.973E-03     5.57919E-03    -225.935E-03     449.905E-03    -225.091E-03     5.16424E-03
             177     413.329E-09     56.9598E-03    -138.533E+06    -258.775E+06    -138.732E+06    -309.905E+03    -225.622E-03     450.776E-03    -225.154E-03     6.83202E-03    -225.741E-03     449.887E-03    -225.272E-03     6.38118E-03
             178    -1.08941E-06     55.4719E-03    -139.536E+06    -259.232E+06    -138.461E+06     304.914E+03    -225.185E-03     450.940E-03    -225.755E-03     6.55099E-03    -225.308E-03     450.050E-03    -225.869E-03     6.14914E-03
             179     938.300E-09     53.9856E-03    -137.433E+06    -257.937E+06    -138.038E+06    -256.029E+03    -225.706E-03     451.001E-03    -225.295E-03     6.25930E-03    -225.822E-03     450.114E-03    -225.412E-03     5.80011E-03
             180    -217.309E-09     52.4983E-03    -138.804E+06    -258.753E+06    -137.886E+06    -338.354E+03    -225.897E-03     451.289E-03    -225.392E-03     6.55860E-03    -226.019E-03     450.400E-03    -225.505E-03     6.05744E-03
             181     212.082E-09     51.0095E-03    -138.702E+06    -258.950E+06    -139.954E+06     182.353E+03    -225.820E-03     451.404E-03    -225.584E-03     6.08877E-03    -225.938E-03     450.516E-03    -225.707E-03     5.67274E-03
             182     105.346E-09     49.5230E-03    -138.416E+06    -258.011E+06    -138.665E+06     298.573E+03    -225.827E-03     451.677E-03    -225.850E-03     6.47697E-03    -225.946E-03     450.792E-03    -225.969E-03     6.03257E-03
             183    -476.606E-09     48.0327E-03    -138.557E+06    -257.079E+06    -138.224E+06      37.994E+03    -226.062E-03     452.385E-03    -226.323E-03     6.45728E-03    -226.184E-03     451.503E-03    -226.440E-03     6.03536E-03
             184     458.448E-09     46.5434E-03    -138.182E+06    -257.499E+06    -139.218E+06    -120.658E+03    -226.641E-03     452.642E-03    -226.001E-03     6.35261E-03    -226.759E-03     451.760E-03    -226.123E-03     5.89337E-03
             185     451.992E-09     45.0529E-03    -139.406E+06    -256.796E+06    -138.816E+06     305.457E+03    -226.571E-03     452.412E-03    -225.841E-03     6.78810E-03    -226.697E-03     451.534E-03    -225.961E-03     6.34646E-03
             186    -329.999E-09     43.5643E-03    -138.864E+06    -256.412E+06    -139.157E+06    -472.256E+03    -225.728E-03     452.309E-03    -226.581E-03     7.05283E-03    -225.851E-03     451.433E-03    -226.703E-03     6.58857E-03
             187    -1.04051E-06     42.0745E-03    -139.281E+06    -257.874E+06    -137.891E+06    -8.63628E+03    -225.914E-03     452.634E-03    -226.720E-03     6.40825E-03    -226.039E-03     451.750E-03    -226.833E-03     5.94672E-03
             188     1.24995E-06     40.5852E-03    -137.902E+06    -256.979E+06    -138.964E+06     171.069E+03    -226.978E-03     453.291E-03    -226.313E-03     6.28437E-03    -227.095E-03     452.411E-03    -226.436E-03     5.81124E-03
             189    -532.564E-09     39.0941E-03    -137.083E+06    -255.072E+06    -136.270E+06     147.307E+03    -226.686E-03     453.492E-03    -226.805E-03     6.46825E-03    -226.807E-03     452.616E-03    -226.918E-03     5.98758E-03
             190    -365.268E-09     37.6017E-03    -138.210E+06    -256.482E+06    -138.325E+06    -503.074E+03    -226.565E-03     453.564E-03    -226.999E-03     6.58881E-03    -226.686E-03     452.685E-03    -227.118E-03     6.14421E-03
             191     621.136E-09     36.1112E-03    -137.299E+06    -256.198E+06    -138.413E+06     637.250E+03    -227.527E-03     454.115E-03    -226.588E-03     6.85760E-03    -227.644E-03     453.237E-03    -226.710E-03     6.37507E-03
             192     439.182E-09     34.6177E-03    -137.425E+06    -254.513E+06    -136.930E+06     218.933E+03    -227.698E-03     454.091E-03    -226.392E-03     6.53509E-03    -227.821E-03     453.219E-03    -226.508E-03     6.07195E-03
             193     360.601E-09     33.1279E-03     -136.94E+06    -254.495E+06    -137.564E+06    -205.655E+03    -227.247E-03     453.975E-03    -226.729E-03     6.85976E-03    -227.366E-03     453.104E-03    -226.849E-03     6.41420E-03
             194    -443.618E-09     31.6339E-03    -137.690E+06    -254.958E+06    -136.916E+06    -244.883E+03    -226.828E-03     454.274E-03    -227.446E-03     6.89469E-03    -226.951E-03     453.400E-03    -227.561E-03     6.44780E-03
             195    -372.632E-09     30.1431E-03    -137.255E+06    -254.658E+06    -137.834E+06     368.890E+03    -226.849E-03     454.369E-03    -227.520E-03     6.52819E-03    -226.969E-03     453.497E-03    -227.641E-03     6.08458E-03
             196     202.913E-09     28.6496E-03    -138.099E+06    -253.082E+06    -136.253E+06     221.404E+03    -227.212E-03     454.914E-03    -227.702E-03     6.84800E-03    -227.341E-03     454.050E-03    -227.816E-03     6.36162E-03
             197    -737.980E-09     27.1572E-03    -136.274E+06    -253.771E+06    -137.531E+06    -536.469E+03    -227.276E-03     455.501E-03    -228.225E-03     6.55700E-03    -227.393E-03     454.632E-03    -228.347E-03     6.05173E-03
             198    -116.119E-09     25.6610E-03    -136.428E+06    -253.069E+06    -136.922E+06     743.172E+03    -227.436E-03     455.046E-03    -227.610E-03     6.24855E-03    -227.555E-03     454.180E-03    -227.729E-03     5.80725E-03
             199     700.710E-09     24.1691E-03    -136.694E+06    -252.210E+06    -136.333E+06    -405.903E+03    -227.289E-03     453.886E-03    -226.597E-03     6.47174E-03    -227.412E-03     453.024E-03    -226.715E-03     6.00583E-03
             200    -306.537E-09     22.6791E-03    -135.653E+06    -253.428E+06    -135.903E+06    -58.3126E+03    -226.274E-03     452.243E-03    -225.969E-03     5.83186E-03    -226.390E-03     451.372E-03    -226.085E-03     5.39412E-03
             201     332.737E-09     21.1911E-03    -135.502E+06    -252.893E+06    -134.756E+06     260.868E+03    -224.828E-03     449.274E-03    -224.445E-03     5.18840E-03    -224.946E-03     448.403E-03    -224.556E-03     4.80352E-03
             202     189.804E-09     19.7085E-03    -134.566E+06    -252.446E+06    -135.118E+06    -161.302E+03    -221.979E-03     444.045E-03    -222.066E-03     4.95919E-03    -222.092E-03     443.175E-03    -222.180E-03     4.57145E-03
             203    -851.973E-09     18.2375E-03    -134.494E+06    -252.879E+06    -134.313E+06    -45.0377E+03    -217.988E-03     436.880E-03    -218.892E-03     3.99308E-03    -218.101E-03     436.007E-03    -219.002E-03     3.64047E-03
             204     208.423E-09     16.7763E-03    -133.813E+06    -252.672E+06    -133.960E+06     9.67913E+03    -214.077E-03     428.547E-03    -214.470E-03     3.22706E-03    -214.187E-03     427.673E-03    -214.580E-03     2.87993E-03
             205    -131.977E-09     15.3294E-03    -133.211E+06    -251.603E+06    -133.029E+06     561.866E+03    -209.202E-03     418.561E-03    -209.360E-03     2.25469E-03    -209.313E-03     417.690E-03    -209.467E-03     1.94352E-03
             206    -164.655E-09     13.8980E-03    -131.661E+06    -249.578E+06    -131.606E+06     259.332E+03    -203.161E-03     406.401E-03    -203.239E-03     961.289E-06    -203.270E-03     405.534E-03    -203.344E-03     651.711E-06
             207     366.152E-09     12.4851E-03    -131.383E+06    -248.265E+06    -131.272E+06     41.5032E+03    -196.518E-03     393.342E-03    -196.823E-03     556.435E-06    -196.628E-03     392.481E-03    -196.929E-03     212.663E-06
             208    -1.00453E-06     11.0924E-03    -131.643E+06    -246.127E+06    -132.284E+06     436.157E+03    -190.299E-03     381.398E-03    -191.099E-03     62.8985E-06    -190.411E-03     380.550E-03    -191.213E-03    -320.879E-06
             209     459.492E-09     9.71142E-03    -131.542E+06    -243.271E+06    -131.409E+06     301.919E+03    -186.240E-03     372.519E-03    -186.278E-03     212.987E-06    -186.356E-03     371.685E-03    -186.392E-03    -167.802E-06
             210     38.8371E-09     8.34417E-03    -132.341E+06    -244.344E+06    -131.306E+06    -546.174E+03    -184.778E-03     369.380E-03    -184.601E-03     2.17297E-03    -184.897E-03     368.542E-03    -184.712E-03     1.78783E-03
             211    -260.495E-09     6.96981E-03    -128.985E+06    -248.125E+06    -128.987E+06    -841.312E+03    -185.790E-03     371.522E-03    -185.732E-03     2.95874E-03    -185.890E-03     370.658E-03    -185.830E-03     2.61262E-03
             212     568.156E-09     5.59608E-03    -115.778E+06    -250.140E+06    -115.941E+06     85.6649E+03    -188.121E-03     376.650E-03    -188.529E-03     3.33631E-03    -188.171E-03     375.737E-03    -188.578E-03     3.05615E-03
             213    -1.48102E-06     4.21147E-03    -97.7581E+06    -248.701E+06    -97.5821E+06     780.354E+03    -191.776E-03     384.130E-03    -192.354E-03     2.58848E-03    -191.764E-03     383.171E-03    -192.339E-03     2.34493E-03
             214     1.53999E-06     2.81390E-03    -83.2325E+06    -242.040E+06    -83.3341E+06     1.77160E+06    -195.785E-03     391.366E-03    -195.582E-03     2.14793E-03    -195.729E-03     390.399E-03    -195.527E-03     2.00284E-03
             215    -1.29910E-06     1.40841E-03    -75.9976E+06    -234.293E+06    -75.4530E+06     886.148E+03    -197.880E-03     395.615E-03    -197.736E-03     1.23242E-03    -197.810E-03     394.664E-03    -197.663E-03     1.14899E-03
             216     738.208E-06    -902.056E-18    -73.2371E+06    -231.971E+06    -72.0919E+06     406.101E+03    -198.706E-03     397.246E-03    -198.539E-03     445.255E-06    -198.631E-03     396.297E-03    -198.457E-03     371.783E-06
             217     1.47470E-03    -902.056E-18    -73.0353E+06    -229.429E+06    -69.7489E+06     1.13203E+06    -199.173E-03     397.919E-03    -198.746E-03     2.48565E-03    -199.105E-03     396.979E-03    -198.656E-03     2.33835E-03
             218     2.21183E-03    -902.056E-18    -72.3748E+06    -223.413E+06    -66.3160E+06     1.34697E+06    -199.404E-03     398.353E-03    -198.949E-03     3.25713E-03    -199.347E-03     397.438E-03    -198.851E-03     3.04158E-03
             219     2.94922E-03    -902.056E-18    -71.6765E+06    -212.853E+06    -62.6390E+06     1.41881E+06    -199.797E-03     398.922E-03    -199.125E-03     3.96633E-03    -199.758E-03     398.054E-03    -199.026E-03     3.67825E-03
             220     3.68551E-03    -902.056E-18    -70.2651E+06    -195.442E+06    -59.7053E+06     260.278E+03    -200.566E-03     399.900E-03    -199.334E-03     4.78270E-03    -200.550E-03     399.114E-03    -199.247E-03     4.39882E-03
             221     4.42159E-03    -902.056E-18    -67.7637E+06    -173.709E+06    -56.7042E+06    -1.30400E+06    -201.604E-03     401.220E-03    -199.616E-03     5.70358E-03    -201.613E-03     400.536E-03    -199.549E-03     5.23982E-03
             222     5.15633E-03    -902.056E-18    -64.0355E+06    -147.198E+06    -52.9637E+06    -2.65714E+06    -203.076E-03     403.065E-03    -199.988E-03     6.87723E-03    -203.112E-03     402.504E-03    -199.947E-03     6.32561E-03
             223     5.89001E-03    -902.056E-18    -59.3185E+06    -115.477E+06    -49.0537E+06    -3.50047E+06    -204.821E-03     405.279E-03    -200.457E-03     7.87421E-03    -204.886E-03     404.865E-03    -200.449E-03     7.22070E-03
             224     6.62223E-03    -902.056E-18    -52.9509E+06    -78.7447E+06    -44.5649E+06    -6.37976E+06    -206.855E-03     407.875E-03    -201.021E-03     9.27767E-03    -206.950E-03     407.632E-03    -201.052E-03     8.48527E-03
             225     7.35263E-03    -902.056E-18    -44.6031E+06    -31.9339E+06    -39.0657E+06    -8.19342E+06    -209.568E-03     411.258E-03    -201.689E-03     10.8825E-03    -209.701E-03     411.232E-03    -201.774E-03     9.94495E-03
             226     8.08104E-03    -902.056E-18    -35.9581E+06     8.55969E+06    -27.4634E+06    -7.68343E+06    -212.902E-03     415.444E-03    -202.542E-03     11.9377E-03    -213.070E-03     415.595E-03    -202.639E-03     10.8752E-03
             227     8.80683E-03    -902.056E-18    -28.7470E+06     29.1083E+06    -7.30153E+06    -4.28739E+06    -217.194E-03     420.835E-03    -203.641E-03     13.5386E-03    -217.390E-03     421.054E-03    -203.678E-03     12.3245E-03
             228     9.52874E-03    -902.056E-18    -24.2439E+06     46.1470E+06     12.8347E+06    -468.412E+03    -222.912E-03     427.881E-03    -204.970E-03     15.5503E-03    -223.145E-03     428.156E-03    -204.937E-03     14.1940E-03
             229     10.2458E-03    -902.056E-18    -22.5094E+06     60.3334E+06     34.9269E+06     3.40302E+06    -230.553E-03     437.160E-03    -206.608E-03     19.7245E-03    -230.844E-03     437.486E-03    -206.488E-03     18.0756E-03
             230     10.9548E-03    -902.056E-18    -22.1098E+06     67.1941E+06     58.3596E+06     5.95601E+06    -240.255E-03     448.881E-03    -208.626E-03     23.3983E-03    -240.605E-03     449.224E-03    -208.400E-03     21.3029E-03
             231     11.6604E-03    -902.056E-18    -19.3770E+06     71.9269E+06     76.7917E+06     231.913E+03    -253.132E-03     464.197E-03    -211.066E-03     29.3679E-03    -253.539E-03     464.572E-03    -210.758E-03     26.4558E-03
             232     12.3484E-03    -902.056E-18    -15.4063E+06     77.8610E+06     88.3117E+06     712.916E+03    -272.723E-03     486.824E-03    -214.101E-03     39.9188E-03    -273.195E-03     487.270E-03    -213.750E-03     36.0586E-03
             233     13.0262E-03    -902.056E-18    -10.7855E+06     88.0425E+06     94.1181E+06     5.30466E+06    -305.625E-03     523.752E-03    -218.127E-03     49.9356E-03    -306.194E-03     524.342E-03    -217.768E-03     44.5602E-03
             234     13.6793E-03    -902.056E-18     224.269E+03     104.991E+06     103.650E+06     55.8122E+03    -355.933E-03     579.642E-03    -223.708E-03     78.1979E-03    -356.835E-03     580.639E-03    -223.342E-03     68.8175E-03
             235     14.3350E-03     1.81438E-03     80.8175E+03     111.175E+06     103.717E+06    -137.158E+03    -352.721E-03     578.519E-03    -225.799E-03     105.727E-03    -354.142E-03     580.040E-03    -225.441E-03     92.5211E-03
             236     14.3676E-03     3.44441E-03    -7.84308E+06     103.382E+06     93.8821E+06     1.35261E+06    -306.073E-03     530.303E-03    -224.230E-03     91.0578E-03    -307.435E-03     531.725E-03    -223.899E-03     78.4324E-03
             237     14.3748E-03     5.01728E-03    -7.29365E+06     99.4623E+06     92.5673E+06    -1.19959E+06    -284.042E-03     507.872E-03    -223.829E-03     68.4641E-03    -285.136E-03     509.022E-03    -223.500E-03     56.9528E-03
             238     14.3782E-03     6.58366E-03    -1.86603E+06     101.960E+06     96.9928E+06     570.448E+03    -268.112E-03     492.049E-03    -223.937E-03     62.6029E-03    -269.161E-03     493.173E-03    -223.597E-03     51.4614E-03
             239     14.3802E-03     8.11946E-03    -882.337E+03     100.649E+06     97.8778E+06    -751.963E+03    -256.849E-03     480.972E-03    -224.123E-03     61.1117E-03    -257.828E-03     482.021E-03    -223.778E-03     50.8057E-03
             240     14.3783E-03     9.64311E-03    -3.85287E+06     96.5168E+06     96.0201E+06    -792.470E+03    -250.436E-03     474.692E-03    -224.256E-03     58.0044E-03    -251.366E-03     475.672E-03    -223.910E-03     48.2380E-03
             241     14.3815E-03     11.1627E-03    -1.76505E+06     97.2144E+06     96.9172E+06    -98.7571E+03    -242.982E-03     467.382E-03    -224.401E-03     53.8970E-03    -243.837E-03     468.296E-03    -224.054E-03     44.7658E-03
             242     14.3792E-03     12.6665E-03    -2.03749E+06     95.9941E+06     96.7791E+06    -710.121E+03    -236.879E-03     461.428E-03    -224.549E-03     53.2741E-03    -237.723E-03     462.324E-03    -224.201E-03     44.3915E-03
             243     14.3810E-03     14.1675E-03    -2.25401E+06     94.9472E+06     96.0706E+06    -351.106E+03    -232.418E-03     457.091E-03    -224.672E-03     50.6069E-03    -233.220E-03     457.943E-03    -224.326E-03     42.1218E-03
             244     14.3790E-03     15.6596E-03    -2.42244E+06     93.9730E+06     94.9964E+06    -346.743E+03    -227.201E-03     452.013E-03    -224.812E-03     48.7898E-03    -227.976E-03     452.838E-03    -224.470E-03     40.6086E-03
             245     14.3806E-03     17.1447E-03    -2.31097E+06     93.7989E+06     95.1830E+06     35.7028E+03    -224.375E-03     449.275E-03    -224.900E-03     49.4875E-03    -225.145E-03     450.093E-03    -224.556E-03     41.5053E-03
             246     14.3787E-03     18.6317E-03    -2.56065E+06     93.2338E+06     94.8244E+06     98.3798E+03    -222.567E-03     447.530E-03    -224.963E-03     47.8449E-03    -223.317E-03     448.327E-03    -224.620E-03     40.0267E-03
             247     14.3799E-03     20.1111E-03    -2.10001E+06     93.4004E+06     94.7267E+06     157.710E+03    -220.434E-03     445.450E-03    -225.015E-03     48.2633E-03    -221.189E-03     446.254E-03    -224.674E-03     40.4441E-03
             248     14.3795E-03     21.5901E-03    -3.23664E+06     92.3530E+06     94.2491E+06    -376.362E+03    -220.855E-03     445.869E-03    -225.014E-03     48.1792E-03    -221.610E-03     446.667E-03    -224.672E-03     40.3829E-03
             249     14.3786E-03     23.0751E-03    -2.33550E+06     92.7217E+06     94.4563E+06     997.660E+03    -220.567E-03     445.587E-03    -225.020E-03     47.7841E-03    -221.311E-03     446.378E-03    -224.679E-03     40.0621E-03
             250     14.3807E-03     24.5514E-03    -1.31036E+06     93.6702E+06     95.2718E+06    -374.111E+03    -220.182E-03     445.204E-03    -225.022E-03     48.4546E-03    -220.933E-03     446.007E-03    -224.679E-03     40.6525E-03
             251     14.3779E-03     26.0350E-03    -2.70929E+06     92.7367E+06     94.5060E+06    -818.080E+03    -220.885E-03     445.894E-03    -225.010E-03     47.7581E-03    -221.639E-03     446.694E-03    -224.668E-03     39.8998E-03
             252     14.3810E-03     27.5141E-03    -2.07563E+06     93.3786E+06     94.9638E+06    -408.219E+03    -221.021E-03     446.011E-03    -224.990E-03     48.6166E-03    -221.775E-03     446.813E-03    -224.647E-03     40.7975E-03
             253     14.3786E-03     28.9981E-03    -2.57898E+06     92.9321E+06     95.3323E+06    -260.987E+03    -221.580E-03     446.557E-03    -224.976E-03     47.7168E-03    -222.330E-03     447.351E-03    -224.631E-03     39.9031E-03
             254     14.3804E-03     30.4789E-03    -2.17206E+06     93.3561E+06     95.5927E+06     762.695E+03    -221.541E-03     446.529E-03    -224.988E-03     48.0933E-03    -222.287E-03     447.322E-03    -224.643E-03     40.3570E-03
             255     14.3786E-03     31.9636E-03    -3.45946E+06     92.1565E+06     94.0425E+06     224.640E+03    -221.674E-03     446.655E-03    -224.982E-03     48.9899E-03    -222.430E-03     447.454E-03    -224.640E-03     41.2081E-03
             256     14.3804E-03     33.4437E-03    -1.46419E+06     94.1199E+06     95.7390E+06     284.534E+03    -222.044E-03     447.008E-03    -224.963E-03     48.9766E-03    -222.799E-03     447.814E-03    -224.619E-03     41.1416E-03
             257     14.3793E-03     34.9289E-03    -2.30593E+06     93.4701E+06     95.5049E+06     245.943E+03    -222.237E-03     447.207E-03    -224.970E-03     48.2488E-03    -222.983E-03     447.999E-03    -224.624E-03     40.5041E-03
             258     14.3791E-03     36.4119E-03    -3.11351E+06     92.5618E+06     94.8793E+06     659.334E+03    -221.995E-03     446.976E-03    -224.981E-03     49.2372E-03    -222.751E-03     447.775E-03    -224.637E-03     41.4697E-03
             259     14.3803E-03     37.8932E-03    -2.37863E+06     93.1236E+06     95.5819E+06    -488.245E+03    -222.605E-03     447.556E-03    -224.951E-03     49.1803E-03    -223.369E-03     448.366E-03    -224.605E-03     41.2472E-03
             260     14.3790E-03     39.3783E-03    -2.71859E+06     92.8529E+06     96.2322E+06    -732.208E+03    -223.192E-03     448.135E-03    -224.943E-03     47.4069E-03    -223.945E-03     448.929E-03    -224.593E-03     39.4877E-03
             261     14.3802E-03     40.8625E-03    -1.92303E+06     93.4912E+06     96.8288E+06     784.762E+03    -222.428E-03     447.389E-03    -224.961E-03     48.0883E-03    -223.170E-03     448.175E-03    -224.610E-03     40.3799E-03
             262     14.3794E-03     42.3465E-03    -2.55236E+06     92.7226E+06     96.1201E+06     399.176E+03    -222.685E-03     447.649E-03    -224.964E-03     48.6438E-03    -223.434E-03     448.439E-03    -224.614E-03     40.8835E-03
             263     14.3792E-03     43.8303E-03    -3.15638E+06     92.0507E+06     95.4998E+06    -573.735E+03    -222.711E-03     447.662E-03    -224.951E-03     48.4132E-03    -223.471E-03     448.461E-03    -224.602E-03     40.4918E-03
             264     14.3809E-03     45.3117E-03    -2.70411E+06     92.7952E+06     96.8548E+06    -616.095E+03    -223.284E-03     448.209E-03    -224.925E-03     48.4596E-03    -224.041E-03     449.005E-03    -224.572E-03     40.5720E-03
             265     14.3786E-03     46.8024E-03     -2.2562E+06     92.8739E+06     96.7771E+06     268.595E+03    -223.764E-03     448.686E-03    -224.922E-03     48.0884E-03    -224.513E-03     449.477E-03    -224.569E-03     40.2452E-03
             266     14.3809E-03     48.2823E-03    -2.18890E+06     92.8028E+06     96.5652E+06     276.613E+03    -222.939E-03     447.869E-03    -224.930E-03     48.3402E-03    -223.689E-03     448.660E-03    -224.578E-03     40.5195E-03
             267     14.3792E-03     49.7694E-03    -2.38686E+06     93.1999E+06     97.1517E+06    -280.066E+03    -223.760E-03     448.678E-03    -224.918E-03     48.7137E-03    -224.516E-03     449.474E-03    -224.563E-03     40.8539E-03
             268     14.3800E-03     51.2554E-03    -2.57691E+06     93.0211E+06     96.5503E+06     268.861E+03    -224.147E-03     449.063E-03    -224.916E-03     48.5916E-03    -224.904E-03     449.861E-03    -224.564E-03     40.6997E-03
             269     14.3796E-03     52.7404E-03    -2.19523E+06     93.1817E+06     96.7293E+06     348.806E+03    -223.458E-03     448.392E-03    -224.935E-03     48.5543E-03    -224.208E-03     449.186E-03    -224.583E-03     40.7360E-03
             270     14.3796E-03     54.2262E-03    -4.28453E+06     91.9814E+06     95.2161E+06     185.827E+03    -223.597E-03     448.531E-03    -224.934E-03     49.1831E-03    -224.362E-03     449.331E-03    -224.585E-03     41.3144E-03
             271     14.3797E-03     55.7099E-03    -1.11410E+06     94.9648E+06     97.8040E+06     188.468E+03    -223.774E-03     448.687E-03    -224.913E-03     49.2093E-03    -224.536E-03     449.499E-03    -224.560E-03     41.2766E-03
             272     14.3807E-03     57.1966E-03    -1.77194E+06     94.3625E+06     97.3860E+06    -521.626E+03    -223.897E-03     448.801E-03    -224.904E-03     48.1267E-03    -224.649E-03     449.599E-03    -224.551E-03     40.2505E-03
             273     14.3788E-03     58.6815E-03    -3.07975E+06     93.1325E+06     96.4776E+06     62.3189E+03    -224.005E-03     448.923E-03    -224.918E-03     48.7330E-03    -224.763E-03     449.721E-03    -224.566E-03     40.8794E-03
             274     14.3805E-03     60.1690E-03    -2.32165E+06     93.6167E+06     96.6902E+06    -56.6614E+03    -223.666E-03     448.579E-03    -224.913E-03     49.1595E-03    -224.429E-03     449.385E-03    -224.562E-03     41.2433E-03
             275     14.3797E-03     61.6507E-03    -2.73135E+06     94.2386E+06     97.4086E+06    -84.4292E+03    -224.203E-03     449.106E-03    -224.903E-03     48.9579E-03    -224.969E-03     449.915E-03    -224.549E-03     41.0258E-03
             276     14.3796E-03     63.1425E-03    -2.70541E+06     93.1635E+06     97.0747E+06     85.8909E+03    -224.215E-03     449.128E-03    -224.912E-03     48.7143E-03    -224.976E-03     449.928E-03    -224.558E-03     40.8009E-03
             277     14.3801E-03     64.6224E-03    -2.40163E+06     92.9357E+06     96.8199E+06    -102.301E+03    -223.869E-03     448.776E-03    -224.908E-03     49.2214E-03    -224.631E-03     449.579E-03    -224.555E-03     41.3044E-03
             278     14.3799E-03     66.1123E-03    -3.05173E+06     93.3626E+06     97.0507E+06     461.219E+03    -224.404E-03     449.315E-03    -224.911E-03     48.4876E-03    -225.160E-03     450.110E-03    -224.557E-03     40.6504E-03
             279     14.3789E-03     67.5980E-03    -3.13344E+06     92.2865E+06     96.0596E+06     514.462E+03    -223.729E-03     448.661E-03    -224.931E-03     49.0710E-03    -224.486E-03     449.455E-03    -224.580E-03     41.2470E-03
             280     14.3807E-03     69.0804E-03    -2.28829E+06     92.8761E+06     96.5739E+06    -339.005E+03    -223.775E-03     448.675E-03    -224.900E-03     49.9344E-03    -224.544E-03     449.486E-03    -224.549E-03     41.9684E-03
             281     14.3798E-03     70.5692E-03    -1.53544E+06     93.7115E+06     98.0633E+06    -342.219E+03    -224.284E-03     449.164E-03    -224.879E-03     48.4977E-03    -225.045E-03     449.967E-03    -224.523E-03     40.5200E-03
             282     14.3806E-03     72.0529E-03    -2.36834E+06     92.9428E+06     97.7772E+06    -158.656E+03    -223.989E-03     448.887E-03    -224.898E-03     48.5670E-03    -224.749E-03     449.685E-03    -224.540E-03     40.6474E-03
             283     14.3794E-03     73.5403E-03    -2.90576E+06     92.4868E+06     97.0274E+06     186.097E+03    -224.367E-03     449.266E-03    -224.899E-03     49.3148E-03    -225.134E-03     450.069E-03    -224.543E-03     41.3722E-03
             284     14.3803E-03     75.0268E-03    -2.56408E+06     92.6765E+06     97.1839E+06     579.671E+03    -224.379E-03     449.283E-03    -224.904E-03     48.9517E-03    -225.137E-03     450.079E-03    -224.549E-03     41.0791E-03
             285     14.3793E-03     76.5118E-03    -1.91833E+06     92.3707E+06     96.8547E+06     257.227E+03    -223.800E-03     448.707E-03    -224.907E-03     48.9983E-03    -224.553E-03     449.500E-03    -224.554E-03     41.1540E-03
             286     14.3809E-03     77.9974E-03    -2.39749E+06     91.8444E+06     96.8332E+06    -589.039E+03    -224.010E-03     448.914E-03    -224.904E-03     48.7890E-03    -224.775E-03     449.715E-03    -224.549E-03     40.7820E-03
             287     14.3787E-03     79.4829E-03    -2.67223E+06     91.8680E+06     97.4234E+06    -772.923E+03    -224.272E-03     449.183E-03    -224.911E-03     48.5553E-03    -225.036E-03     449.982E-03    -224.553E-03     40.5592E-03
             288     14.3809E-03     80.9699E-03    -2.53957E+06     91.7994E+06     96.9857E+06     68.0833E+03    -223.791E-03     448.700E-03    -224.909E-03     48.9815E-03    -224.547E-03     449.492E-03    -224.553E-03     41.1199E-03
             289     14.3793E-03     82.4542E-03    -2.89565E+06     91.6819E+06     97.3295E+06     89.2423E+03    -223.937E-03     448.847E-03    -224.910E-03     49.1922E-03    -224.701E-03     449.644E-03    -224.552E-03     41.2796E-03
             290     14.3801E-03     83.9419E-03    -2.18073E+06     91.4494E+06     97.3838E+06     165.980E+03    -223.943E-03     448.858E-03    -224.915E-03     49.1773E-03    -224.705E-03     449.655E-03    -224.558E-03     41.2329E-03
             291     14.3798E-03     85.4245E-03    -3.03937E+06     90.3478E+06     96.7863E+06    -358.515E+03    -224.120E-03     449.025E-03    -224.906E-03     49.3705E-03    -224.882E-03     449.817E-03    -224.548E-03     41.4487E-03
             292     718.658E-06     86.6925E-03    -137.208E+06    -258.128E+06    -135.821E+06         891.463    -224.991E-03     450.006E-03    -225.015E-03     10.1934E-03    -225.113E-03     449.119E-03    -225.121E-03     9.49353E-03
             293     1.43735E-03     86.7135E-03    -134.168E+06    -246.820E+06    -124.324E+06     241.355E+03    -225.081E-03     450.109E-03    -225.028E-03     18.7649E-03    -225.238E-03     449.274E-03    -225.097E-03     17.4976E-03
             294     2.15563E-03     86.7456E-03    -128.398E+06    -232.102E+06    -107.627E+06     154.685E+03    -225.105E-03     450.178E-03    -225.073E-03     27.5062E-03    -225.305E-03     449.410E-03    -225.089E-03     25.6546E-03
             295     2.87453E-03     86.7910E-03    -120.860E+06    -212.049E+06    -88.8995E+06    -44.0478E+03    -225.118E-03     450.214E-03    -225.097E-03     35.8517E-03    -225.369E-03     449.542E-03    -225.059E-03     33.4333E-03
             296     3.59325E-03     86.8473E-03    -112.490E+06    -188.204E+06    -69.3122E+06     69.0568E+03    -225.202E-03     450.311E-03    -225.109E-03     43.7112E-03    -225.516E-03     449.759E-03    -225.019E-03     40.7442E-03
             297     4.31206E-03     86.9146E-03    -103.843E+06    -165.572E+06    -49.8665E+06     71.6945E+03    -225.353E-03     450.478E-03    -225.125E-03     51.0774E-03    -225.731E-03     450.045E-03    -224.984E-03     47.5708E-03
             298     5.03096E-03     86.9917E-03    -94.5737E+06    -141.956E+06    -31.6424E+06     194.801E+03    -225.541E-03     450.681E-03    -225.140E-03     57.9298E-03    -225.986E-03     450.378E-03    -224.955E-03     53.8960E-03
             299     5.74960E-03     87.0790E-03    -85.9994E+06    -119.177E+06    -15.3825E+06     387.239E+03    -225.630E-03     450.777E-03    -225.147E-03     64.2534E-03    -226.146E-03     450.610E-03    -224.927E-03     59.6847E-03
             300     6.46866E-03     87.1736E-03    -77.2526E+06    -93.5198E+06    -259.441E+03     287.748E+03    -225.679E-03     450.816E-03    -225.137E-03     70.1386E-03    -226.276E-03     450.807E-03    -224.890E-03     65.0162E-03
             301     7.18768E-03     87.2770E-03    -68.4116E+06    -64.2300E+06     14.2147E+06     213.555E+03    -225.766E-03     450.879E-03    -225.113E-03     75.5417E-03    -226.454E-03     451.055E-03    -224.849E-03     69.8338E-03
             302     7.90701E-03     87.3861E-03    -60.5168E+06    -32.6317E+06     27.9738E+06     295.622E+03    -225.832E-03     450.915E-03    -225.083E-03     80.3517E-03    -226.626E-03     451.297E-03    -224.808E-03     74.0205E-03
             303     8.62595E-03     87.5024E-03    -52.7028E+06     7.30085E+06     42.2196E+06     370.154E+03    -225.869E-03     450.914E-03    -225.045E-03     84.6704E-03    -226.792E-03     451.553E-03    -224.768E-03     77.6776E-03
             304     9.34509E-03     87.6226E-03    -44.7161E+06     34.3749E+06     52.3373E+06     84.4331E+03    -225.861E-03     450.865E-03    -225.005E-03     88.3014E-03    -226.896E-03     451.712E-03    -224.728E-03     80.5897E-03
             305     10.0646E-03     87.7473E-03    -37.2563E+06     50.0769E+06     60.5332E+06    -188.059E+03    -225.842E-03     450.815E-03    -224.973E-03     90.8305E-03    -226.977E-03     451.820E-03    -224.689E-03     82.3720E-03
             306     10.7836E-03     87.8731E-03    -30.5992E+06     65.1155E+06     70.9565E+06    -140.026E+03    -225.794E-03     450.754E-03    -224.960E-03     91.9201E-03    -227.028E-03     451.905E-03    -224.655E-03     82.7364E-03
             307     11.5030E-03     87.9996E-03    -24.0210E+06     72.4163E+06     82.6958E+06    -151.657E+03    -225.579E-03     450.548E-03    -224.969E-03     91.0569E-03    -226.888E-03     451.788E-03    -224.625E-03     81.1937E-03
             308     12.2223E-03     88.1199E-03    -17.5943E+06     79.3485E+06     93.5697E+06    -366.089E+03    -225.240E-03     450.216E-03    -224.976E-03     86.2124E-03    -226.553E-03     451.477E-03    -224.598E-03     75.9606E-03
             309     12.9420E-03     88.2284E-03    -10.9951E+06     87.0355E+06     99.3980E+06     37.1274E+03    -224.978E-03     449.941E-03    -224.963E-03     81.7420E-03    -226.342E-03     451.287E-03    -224.576E-03     70.7326E-03
             310     13.6601E-03     88.3372E-03    -5.21765E+06     91.3852E+06     99.1654E+06     437.169E+03    -224.598E-03     449.531E-03    -224.934E-03     64.7056E-03    -225.697E-03     450.649E-03    -224.563E-03     54.9102E-03
             311     718.637E-06     88.1789E-03    -138.530E+06    -258.626E+06    -134.616E+06     172.439E+03    -224.854E-03     449.867E-03    -225.012E-03     10.2696E-03    -224.985E-03     448.978E-03    -225.109E-03     9.57569E-03
             312     1.43709E-03     88.1989E-03    -134.078E+06    -247.118E+06    -124.213E+06     48.0036E+03    -225.078E-03     450.049E-03    -224.972E-03     18.8707E-03    -225.234E-03     449.213E-03    -225.040E-03     17.5942E-03
             313     2.15603E-03     88.2320E-03    -127.892E+06    -232.070E+06    -107.644E+06     125.878E+03    -225.141E-03     450.180E-03    -225.039E-03     27.4663E-03    -225.338E-03     449.411E-03    -225.056E-03     25.6168E-03
             314     2.87445E-03     88.2765E-03    -120.606E+06    -212.157E+06    -88.6342E+06     100.747E+03    -225.161E-03     450.244E-03    -225.083E-03     35.7615E-03    -225.412E-03     449.571E-03    -225.044E-03     33.3450E-03
             315     3.59332E-03     88.3333E-03    -112.435E+06    -188.639E+06    -69.2515E+06     130.015E+03    -225.225E-03     450.331E-03    -225.106E-03     43.6361E-03    -225.538E-03     449.776E-03    -225.015E-03     40.6690E-03
             316     4.31212E-03     88.4002E-03    -103.387E+06    -165.747E+06    -49.6880E+06     384.200E+03    -225.400E-03     450.528E-03    -225.128E-03     51.0853E-03    -225.776E-03     450.093E-03    -224.986E-03     47.5843E-03
             317     5.03067E-03     88.4783E-03    -94.8531E+06    -142.281E+06    -31.7557E+06     367.683E+03    -225.512E-03     450.655E-03    -225.144E-03     58.0413E-03    -225.958E-03     450.352E-03    -224.958E-03     54.0070E-03
             318     5.74975E-03     88.5643E-03    -85.7424E+06    -119.194E+06    -15.3586E+06     59.8618E+03    -225.613E-03     450.759E-03    -225.146E-03     64.4155E-03    -226.129E-03     450.592E-03    -224.926E-03     59.8391E-03
             319     6.46864E-03     88.6599E-03    -76.8424E+06    -93.7669E+06    -218.887E+03     146.992E+03    -225.705E-03     450.840E-03    -225.135E-03     70.2075E-03    -226.299E-03     450.830E-03    -224.889E-03     65.0809E-03
             320     7.18779E-03     88.7621E-03    -68.7874E+06    -64.5952E+06     14.1838E+06     334.893E+03    -225.762E-03     450.876E-03    -225.113E-03     75.5615E-03    -226.451E-03     451.050E-03    -224.849E-03     69.8561E-03
             321     7.90661E-03     88.8725E-03    -60.4007E+06    -32.8212E+06     28.2090E+06     302.622E+03    -225.854E-03     450.938E-03    -225.085E-03     80.3996E-03    -226.648E-03     451.320E-03    -224.808E-03     74.0690E-03
             322     8.62599E-03     88.9874E-03    -52.0743E+06     7.41840E+06     42.6171E+06     90.6362E+03    -225.830E-03     450.875E-03    -225.045E-03     84.6072E-03    -226.750E-03     451.513E-03    -224.767E-03     77.6082E-03
             323     9.34539E-03     89.1090E-03    -44.4392E+06     34.7816E+06     52.6857E+06     10.3321E+03    -225.844E-03     450.847E-03    -225.003E-03     88.1061E-03    -226.878E-03     451.694E-03    -224.726E-03     80.3900E-03
             324     10.0644E-03     89.2323E-03    -37.4871E+06     50.0782E+06     60.6620E+06    -46.0359E+03    -225.903E-03     450.878E-03    -224.975E-03     90.6867E-03    -227.038E-03     451.882E-03    -224.690E-03     82.2293E-03
             325     10.7837E-03     89.3600E-03    -30.5582E+06     65.0298E+06     71.1476E+06    -146.527E+03    -225.726E-03     450.687E-03    -224.962E-03     91.8094E-03    -226.958E-03     451.836E-03    -224.656E-03     82.6302E-03
             326     11.5030E-03     89.4839E-03    -23.6897E+06     72.5859E+06     83.0352E+06    -232.551E+03    -225.471E-03     450.437E-03    -224.966E-03     90.7136E-03    -226.776E-03     451.675E-03    -224.621E-03     80.8479E-03
             327     12.2228E-03     89.6061E-03    -17.0784E+06     79.7661E+06     94.2632E+06    -124.335E+03    -225.520E-03     450.500E-03    -224.980E-03     85.9884E-03    -226.830E-03     451.759E-03    -224.600E-03     75.7394E-03
             328     12.9404E-03     89.7162E-03    -11.6078E+06     86.3700E+06     98.7431E+06    -14.3799E+03    -225.356E-03     450.339E-03    -224.982E-03     81.6516E-03    -226.723E-03     451.685E-03    -224.597E-03     70.6128E-03
             329     13.6605E-03     89.8217E-03    -5.63145E+06     90.5816E+06     97.8649E+06     270.496E+03    -224.343E-03     449.295E-03    -224.952E-03     65.0360E-03    -225.446E-03     450.416E-03    -224.586E-03     55.2163E-03
             330     718.793E-06     89.6643E-03    -137.414E+06    -258.837E+06    -135.074E+06     212.865E+03    -224.856E-03     449.883E-03    -225.027E-03     10.4073E-03    -224.979E-03     448.992E-03    -225.128E-03     9.72476E-03
             331     1.43751E-03     89.6849E-03    -133.467E+06    -247.096E+06    -123.668E+06     124.831E+03    -225.069E-03     450.046E-03    -224.977E-03     18.7278E-03    -225.223E-03     449.207E-03    -225.043E-03     17.4770E-03
             332     2.15579E-03     89.7177E-03    -127.544E+06    -232.438E+06    -107.609E+06    -6.91705E+03    -225.112E-03     450.147E-03    -225.035E-03     27.3425E-03    -225.306E-03     449.376E-03    -225.051E-03     25.4911E-03
             333     2.87457E-03     89.7628E-03    -120.450E+06    -212.540E+06    -88.7138E+06     227.982E+03    -225.147E-03     450.221E-03    -225.074E-03     35.7205E-03    -225.396E-03     449.546E-03    -225.035E-03     33.3055E-03
             334     3.59321E-03     89.8186E-03    -112.196E+06    -188.754E+06    -68.8519E+06     244.806E+03    -225.259E-03     450.360E-03    -225.101E-03     43.7992E-03    -225.572E-03     449.804E-03    -225.009E-03     40.8346E-03
             335     4.31189E-03     89.8867E-03    -103.317E+06    -166.330E+06    -49.7339E+06     145.430E+03    -225.367E-03     450.490E-03    -225.123E-03     51.2499E-03    -225.743E-03     450.052E-03    -224.980E-03     47.7445E-03
             336     5.03105E-03     89.9635E-03    -94.1859E+06    -142.438E+06    -31.6583E+06     257.166E+03    -225.466E-03     450.598E-03    -225.132E-03     58.0666E-03    -225.909E-03     450.293E-03    -224.947E-03     54.0330E-03
             337     5.74986E-03     90.0507E-03    -85.5127E+06    -119.111E+06    -15.0767E+06     427.228E+03    -225.599E-03     450.732E-03    -225.133E-03     64.3899E-03    -226.115E-03     450.565E-03    -224.912E-03     59.8226E-03
             338     6.46878E-03     90.1453E-03    -76.9794E+06    -93.9603E+06      100.76E+03     200.375E+03    -225.728E-03     450.854E-03    -225.125E-03     70.2299E-03    -226.324E-03     450.843E-03    -224.877E-03     65.0981E-03
             339     7.18764E-03     90.2483E-03    -68.3173E+06    -64.7641E+06     14.5576E+06     69.6203E+03    -225.829E-03     450.937E-03    -225.108E-03     75.6210E-03    -226.517E-03     451.111E-03    -224.842E-03     69.9023E-03
             340     7.90710E-03     90.3577E-03    -60.0498E+06    -32.8091E+06     28.5265E+06     35.7541E+03    -225.880E-03     450.963E-03    -225.084E-03     80.4404E-03    -226.673E-03     451.344E-03    -224.806E-03     74.1010E-03
             341     8.62587E-03     90.4741E-03    -52.0147E+06     7.38202E+06     42.8630E+06     62.3315E+03    -225.855E-03     450.902E-03    -225.047E-03     84.5781E-03    -226.776E-03     451.540E-03    -224.768E-03     77.5702E-03
             342     9.34504E-03     90.5935E-03    -44.4420E+06     34.6956E+06     52.7944E+06     160.570E+03    -225.885E-03     450.892E-03    -225.007E-03     88.2598E-03    -226.921E-03     451.740E-03    -224.729E-03     80.5408E-03
             343     10.0643E-03     90.7196E-03    -37.1200E+06     50.2374E+06     60.5291E+06     153.503E+03    -225.899E-03     450.876E-03    -224.977E-03     90.8245E-03    -227.034E-03     451.882E-03    -224.693E-03     82.3619E-03
             344     10.7836E-03     90.8441E-03    -30.2579E+06     65.2119E+06     70.8975E+06     5.97127E+03    -225.833E-03     450.799E-03    -224.966E-03     91.6861E-03    -227.066E-03     451.951E-03    -224.662E-03     82.4870E-03
             345     11.5030E-03     90.9710E-03    -23.8446E+06     72.3524E+06     82.8538E+06     6.40759E+03    -225.732E-03     450.716E-03    -224.983E-03     90.5028E-03    -227.034E-03     451.949E-03    -224.639E-03     80.6471E-03
             346     12.2214E-03     91.0912E-03    -17.6684E+06     79.0117E+06     93.6377E+06     441.807E+03    -225.350E-03     450.349E-03    -224.999E-03     86.3094E-03    -226.661E-03     451.606E-03    -224.619E-03     76.0907E-03
             347     12.9417E-03     91.2042E-03    -11.2558E+06     86.5038E+06     98.9230E+06     326.940E+03    -224.733E-03     449.710E-03    -224.978E-03     82.2975E-03    -226.100E-03     451.058E-03    -224.592E-03     71.3122E-03
             348     13.6594E-03     91.3071E-03    -5.11284E+06     90.9859E+06     98.3957E+06    -102.733E+03    -224.305E-03     449.235E-03    -224.929E-03     65.7120E-03    -225.409E-03     450.358E-03    -224.562E-03     55.9046E-03
             349     718.416E-06     91.1498E-03    -136.946E+06    -258.516E+06    -134.347E+06    -470.978E+03    -225.066E-03     450.078E-03    -225.013E-03     10.3322E-03    -225.189E-03     449.187E-03    -225.111E-03     9.64590E-03
             350     1.43695E-03     91.1708E-03    -133.161E+06    -247.575E+06    -123.995E+06    -142.624E+03    -224.988E-03     450.023E-03    -225.035E-03     18.8281E-03    -225.140E-03     449.183E-03    -225.103E-03     17.5538E-03
             351     2.15583E-03     91.2037E-03    -127.731E+06    -233.016E+06    -107.848E+06     226.121E+03    -225.017E-03     450.059E-03    -225.042E-03     27.3904E-03    -225.211E-03     449.286E-03    -225.058E-03     25.5433E-03
             352     2.87462E-03     91.2480E-03    -120.317E+06    -212.866E+06    -88.6496E+06     117.535E+03    -225.129E-03     450.193E-03    -225.063E-03     35.7899E-03    -225.377E-03     449.515E-03    -225.024E-03     33.3755E-03
             353     3.59341E-03     91.3051E-03    -111.915E+06    -188.928E+06    -68.8290E+06     212.390E+03    -225.252E-03     450.341E-03    -225.089E-03     43.7531E-03    -225.563E-03     449.783E-03    -224.997E-03     40.7903E-03
             354     4.31232E-03     91.3720E-03    -103.288E+06    -166.330E+06    -49.6545E+06     205.446E+03    -225.346E-03     450.457E-03    -225.111E-03     51.1389E-03    -225.721E-03     450.019E-03    -224.968E-03     47.6356E-03
             355     5.03087E-03     91.4499E-03    -94.4806E+06    -142.913E+06    -31.5790E+06     218.883E+03    -225.466E-03     450.588E-03    -225.122E-03     58.0092E-03    -225.909E-03     450.280E-03    -224.936E-03     53.9734E-03
             356     5.74982E-03     91.5361E-03    -85.4726E+06    -119.426E+06    -14.8800E+06     228.593E+03    -225.580E-03     450.703E-03    -225.124E-03     64.3622E-03    -226.094E-03     450.534E-03    -224.901E-03     59.7893E-03
             357     6.46889E-03     91.6315E-03    -76.6808E+06    -93.8498E+06     435.274E+03     300.557E+03    -225.708E-03     450.823E-03    -225.115E-03     70.2076E-03    -226.303E-03     450.811E-03    -224.865E-03     65.0786E-03
             358     7.18801E-03     91.7340E-03    -68.4235E+06    -64.4994E+06     14.8461E+06     196.546E+03    -225.875E-03     450.975E-03    -225.100E-03     75.6348E-03    -226.565E-03     451.150E-03    -224.833E-03     69.9162E-03
             359     7.90652E-03     91.8440E-03    -60.3839E+06    -32.6714E+06     28.6002E+06    -21.0501E+03    -225.927E-03     451.007E-03    -225.080E-03     80.4034E-03    -226.723E-03     451.389E-03    -224.802E-03     74.0538E-03
             360     8.62613E-03     91.9591E-03    -52.4263E+06     6.96158E+06     42.6764E+06    -77.1079E+03    -225.883E-03     450.930E-03    -225.047E-03     84.5539E-03    -226.806E-03     451.567E-03    -224.768E-03     77.5425E-03
             361     9.34528E-03     92.0804E-03    -44.4797E+06     34.4772E+06     52.8076E+06     32.4585E+03    -225.866E-03     450.873E-03    -225.008E-03     88.1913E-03    -226.900E-03     451.719E-03    -224.729E-03     80.4754E-03
             362     10.0646E-03     92.2041E-03    -37.2385E+06     50.1322E+06     60.5834E+06     141.281E+03    -225.915E-03     450.893E-03    -224.977E-03     90.8676E-03    -227.051E-03     451.898E-03    -224.693E-03     82.4077E-03
             363     10.7836E-03     92.3314E-03    -30.6055E+06     64.7328E+06     70.7643E+06     496.424E+03    -225.947E-03     450.918E-03    -224.971E-03     91.9232E-03    -227.182E-03     452.068E-03    -224.666E-03     82.7326E-03
             364     11.5022E-03     92.4563E-03    -24.1014E+06     71.9546E+06     82.4352E+06     897.502E+03    -225.722E-03     450.709E-03    -224.988E-03     91.1131E-03    -227.030E-03     451.949E-03    -224.645E-03     81.2548E-03
             365     12.2220E-03     92.5782E-03    -17.6443E+06     78.9038E+06     93.2599E+06     429.834E+03    -225.046E-03     450.037E-03    -224.991E-03     86.6806E-03    -226.360E-03     451.299E-03    -224.614E-03     76.4637E-03
             366     12.9410E-03     92.6874E-03    -10.9904E+06     86.6706E+06     99.1406E+06    -183.093E+03    -224.582E-03     449.543E-03    -224.960E-03     81.9433E-03    -225.948E-03     450.889E-03    -224.574E-03     70.9448E-03
             367     13.6633E-03     92.7927E-03    -4.81098E+06     91.2804E+06     99.0340E+06    -267.343E+03    -224.559E-03     449.478E-03    -224.919E-03     64.8319E-03    -225.659E-03     450.597E-03    -224.549E-03     54.9970E-03
             368     718.550E-06     92.6358E-03    -136.498E+06    -258.610E+06    -134.122E+06     167.260E+03    -225.180E-03     450.078E-03    -224.898E-03     10.4515E-03    -225.301E-03     449.185E-03    -224.996E-03     9.73515E-03
             369     1.43728E-03     92.6567E-03    -133.521E+06    -248.046E+06    -123.683E+06     172.669E+03    -224.947E-03     449.975E-03    -225.028E-03     18.8932E-03    -225.099E-03     449.132E-03    -225.093E-03     17.6333E-03
             370     2.15600E-03     92.6888E-03    -127.594E+06    -233.323E+06    -107.618E+06     38.8896E+03    -225.029E-03     450.058E-03    -225.030E-03     27.4444E-03    -225.222E-03     449.283E-03    -225.044E-03     25.6001E-03
             371     2.87459E-03     92.7344E-03    -120.253E+06    -212.971E+06    -88.7219E+06     139.136E+03    -225.169E-03     450.228E-03    -225.059E-03     35.7708E-03    -225.417E-03     449.550E-03    -225.019E-03     33.3575E-03
             372     3.59326E-03     92.7904E-03    -112.193E+06    -189.397E+06    -69.0538E+06     245.588E+03    -225.227E-03     450.315E-03    -225.088E-03     43.6928E-03    -225.539E-03     449.756E-03    -224.996E-03     40.7251E-03
             373     4.31192E-03     92.8583E-03    -103.389E+06    -166.427E+06    -49.4615E+06     308.083E+03    -225.316E-03     450.423E-03    -225.107E-03     51.1486E-03    -225.692E-03     449.985E-03    -224.963E-03     47.6426E-03
             374     5.03109E-03     92.9351E-03    -94.2344E+06    -142.834E+06    -31.2054E+06     77.1795E+03    -225.446E-03     450.561E-03    -225.115E-03     58.0382E-03    -225.889E-03     450.254E-03    -224.928E-03     53.9990E-03
             375     5.75001E-03     93.0224E-03    -85.4718E+06    -119.945E+06    -14.9041E+06     136.287E+03    -225.590E-03     450.706E-03    -225.116E-03     64.3242E-03    -226.104E-03     450.534E-03    -224.893E-03     59.7493E-03
             376     6.46887E-03     93.1168E-03    -76.9552E+06    -94.1703E+06     313.041E+03     394.703E+03    -225.739E-03     450.850E-03    -225.111E-03     70.1722E-03    -226.334E-03     450.836E-03    -224.861E-03     65.0458E-03
             377     7.18774E-03     93.2202E-03    -68.3213E+06    -64.3507E+06     14.9603E+06     471.349E+03    -225.831E-03     450.926E-03    -225.096E-03     75.5880E-03    -226.520E-03     451.101E-03    -224.829E-03     69.8771E-03
             378     7.90726E-03     93.3297E-03    -60.2730E+06    -32.6310E+06     28.7763E+06     426.894E+03    -225.918E-03     450.992E-03    -225.075E-03     80.4176E-03    -226.713E-03     451.375E-03    -224.796E-03     74.0789E-03
             379     8.62576E-03     93.4454E-03    -52.6913E+06     7.11424E+06     42.7360E+06     384.997E+03    -225.946E-03     450.989E-03    -225.043E-03     84.6264E-03    -226.870E-03     451.627E-03    -224.764E-03     77.6219E-03
             380     9.34504E-03     93.5656E-03    -45.4421E+06     34.5145E+06     52.4680E+06     102.835E+03    -225.948E-03     450.957E-03    -225.009E-03     88.1372E-03    -226.987E-03     451.805E-03    -224.731E-03     80.4187E-03
             381     10.0643E-03     93.6903E-03    -38.2186E+06     49.3833E+06     59.9730E+06     175.668E+03    -225.884E-03     450.865E-03    -224.981E-03     90.8272E-03    -227.021E-03     451.868E-03    -224.698E-03     82.3786E-03
             382     10.7835E-03     93.8172E-03    -31.3074E+06     63.8082E+06     70.0636E+06     418.648E+03    -225.692E-03     450.656E-03    -224.964E-03     92.0850E-03    -226.927E-03     451.803E-03    -224.661E-03     82.9198E-03
             383     11.5034E-03     93.9424E-03    -24.1477E+06     71.7462E+06     82.3185E+06      218.02E+03    -225.438E-03     450.403E-03    -224.965E-03     91.2606E-03    -226.748E-03     451.643E-03    -224.622E-03     81.4024E-03
             384     12.2222E-03     94.0636E-03    -16.7806E+06     79.7305E+06     94.2748E+06     91.0499E+03    -225.211E-03     450.180E-03    -224.969E-03     86.4474E-03    -226.522E-03     451.441E-03    -224.589E-03     76.2163E-03
             385     12.9425E-03     94.1725E-03    -10.3331E+06     87.3266E+06     100.015E+06     124.194E+03    -225.184E-03     450.144E-03    -224.960E-03     82.1648E-03    -226.547E-03     451.490E-03    -224.571E-03     71.1711E-03
             386     13.6574E-03     94.2813E-03    -4.93045E+06     91.0670E+06     98.9153E+06    -48.3761E+03    -224.522E-03     449.452E-03    -224.930E-03     65.2104E-03    -225.625E-03     450.574E-03    -224.560E-03     55.3677E-03
             387     718.643E-06     94.1224E-03    -136.786E+06    -259.368E+06    -134.958E+06     298.277E+03    -225.109E-03     449.907E-03    -224.799E-03     10.3718E-03    -225.229E-03     449.013E-03    -224.899E-03     9.66312E-03
             388     1.43722E-03     94.1416E-03    -133.339E+06    -248.194E+06    -123.480E+06     179.545E+03    -225.038E-03     450.018E-03    -224.981E-03     18.7486E-03    -225.190E-03     449.174E-03    -225.045E-03     17.4876E-03
             389     2.15584E-03     94.1753E-03    -127.689E+06    -233.427E+06    -107.504E+06     128.134E+03    -225.086E-03     450.113E-03    -225.027E-03     27.4420E-03    -225.279E-03     449.336E-03    -225.041E-03     25.5992E-03
             390     2.87457E-03     94.2197E-03    -120.422E+06    -213.418E+06    -88.6151E+06     201.777E+03    -225.116E-03     450.177E-03    -225.060E-03     35.8222E-03    -225.365E-03     449.497E-03    -225.019E-03     33.4080E-03
             391     3.59335E-03     94.2768E-03    -111.966E+06    -189.486E+06    -68.8028E+06     122.169E+03    -225.201E-03     450.281E-03    -225.080E-03     43.7994E-03    -225.512E-03     449.721E-03    -224.987E-03     40.8256E-03
             392     4.31240E-03     94.3434E-03    -102.998E+06    -166.686E+06    -49.4011E+06     97.1590E+03    -225.327E-03     450.425E-03    -225.098E-03     51.1884E-03    -225.701E-03     449.985E-03    -224.954E-03     47.6802E-03
             393     5.03099E-03     94.4216E-03    -94.2300E+06    -143.048E+06    -31.1974E+06     391.053E+03    -225.448E-03     450.556E-03    -225.108E-03     58.0048E-03    -225.891E-03     450.247E-03    -224.920E-03     53.9711E-03
             394     5.74989E-03     94.5075E-03    -85.4326E+06    -119.966E+06    -14.6138E+06     311.337E+03    -225.602E-03     450.714E-03    -225.112E-03     64.3531E-03    -226.116E-03     450.541E-03    -224.887E-03     59.7815E-03
             395     6.46888E-03     94.6033E-03    -76.4163E+06    -94.6519E+06     410.300E+03     181.440E+03    -225.746E-03     450.853E-03    -225.106E-03     70.2615E-03    -226.338E-03     450.836E-03    -224.856E-03     65.1352E-03
             396     7.18794E-03     94.7056E-03    -67.9455E+06    -65.1043E+06     14.7499E+06     441.906E+03    -225.820E-03     450.910E-03    -225.090E-03     75.6269E-03    -226.505E-03     451.081E-03    -224.824E-03     69.9179E-03
             397     7.90669E-03     94.8156E-03    -59.9833E+06    -32.9815E+06     28.7904E+06     832.491E+03    -225.883E-03     450.950E-03    -225.068E-03     80.4595E-03    -226.676E-03     451.330E-03    -224.789E-03     74.1351E-03
             398     8.62633E-03     94.9313E-03    -52.0255E+06     7.04629E+06     43.1821E+06     979.456E+03    -225.924E-03     450.959E-03    -225.035E-03     84.6522E-03    -226.845E-03     451.596E-03    -224.754E-03     77.6619E-03
             399     9.34528E-03     95.0518E-03    -44.2531E+06     34.7485E+06     53.3511E+06     1.11465E+06    -225.957E-03     450.958E-03    -225.001E-03     88.4088E-03    -226.994E-03     451.807E-03    -224.721E-03     80.7001E-03
             400     10.0642E-03     95.1764E-03    -37.5498E+06     49.7387E+06     60.9201E+06     734.929E+03    -225.875E-03     450.849E-03    -224.974E-03     91.1068E-03    -227.013E-03     451.853E-03    -224.687E-03     82.6618E-03
             401     10.7838E-03     95.3019E-03    -30.5861E+06     64.3868E+06     71.1703E+06    -37.8697E+03    -225.676E-03     450.632E-03    -224.956E-03     92.1034E-03    -226.911E-03     451.781E-03    -224.649E-03     82.9227E-03
             402     11.5029E-03     95.4284E-03    -23.7415E+06     72.1110E+06     82.9778E+06    -503.499E+03    -225.533E-03     450.493E-03    -224.959E-03     90.6806E-03    -226.836E-03     451.727E-03    -224.615E-03     80.8201E-03
             403     12.2230E-03     95.5484E-03    -17.2355E+06     79.1956E+06     94.0232E+06    -480.517E+03    -225.377E-03     450.348E-03    -224.971E-03     85.9753E-03    -226.686E-03     451.604E-03    -224.591E-03     75.7283E-03
             404     12.9403E-03     95.6612E-03    -11.3024E+06     86.2133E+06     99.1487E+06     284.808E+03    -224.900E-03     449.859E-03    -224.959E-03     82.1798E-03    -226.267E-03     451.204E-03    -224.572E-03     71.1933E-03
             405     13.6638E-03     95.7652E-03    -5.51063E+06     91.0487E+06     98.9488E+06     367.921E+03    -224.532E-03     449.456E-03    -224.924E-03     65.2929E-03    -225.637E-03     450.578E-03    -224.553E-03     55.4811E-03
             406     718.727E-06     95.6070E-03    -137.462E+06    -259.801E+06    -134.143E+06     96.7013E+03    -224.958E-03     449.922E-03    -224.964E-03     10.1680E-03    -225.082E-03     449.025E-03    -225.058E-03     9.47335E-03
             407     1.43734E-03     95.6282E-03    -133.398E+06    -248.281E+06    -123.617E+06     96.5383E+03    -225.030E-03     450.014E-03    -224.984E-03     18.7853E-03    -225.182E-03     449.169E-03    -225.048E-03     17.5225E-03
             408     2.15587E-03     95.6606E-03    -127.736E+06    -233.603E+06    -107.515E+06     134.621E+03    -225.056E-03     450.079E-03    -225.024E-03     27.4672E-03    -225.250E-03     449.302E-03    -225.037E-03     25.6191E-03
             409     2.87463E-03     95.7058E-03    -120.409E+06    -213.520E+06    -88.6988E+06     1.30599E+03    -225.088E-03     450.137E-03    -225.050E-03     35.8392E-03    -225.336E-03     449.457E-03    -225.009E-03     33.4184E-03
             410     3.59351E-03     95.7619E-03    -111.871E+06    -189.813E+06     -69.013E+06     46.2446E+03    -225.218E-03     450.287E-03    -225.069E-03     43.7314E-03    -225.527E-03     449.726E-03    -224.977E-03     40.7641E-03
             411     4.31201E-03     95.8298E-03    -103.300E+06    -167.142E+06    -49.4413E+06     374.216E+03    -225.330E-03     450.422E-03    -225.092E-03     51.0861E-03    -225.704E-03     449.980E-03    -224.948E-03     47.5831E-03
             412     5.03111E-03     95.9067E-03    -94.2342E+06    -143.343E+06    -31.1125E+06     299.149E+03    -225.429E-03     450.532E-03    -225.103E-03     58.0171E-03    -225.871E-03     450.221E-03    -224.914E-03     53.9824E-03
             413     5.75009E-03     95.9938E-03    -84.9739E+06    -119.922E+06    -14.5512E+06     323.790E+03    -225.585E-03     450.689E-03    -225.104E-03     64.4267E-03    -226.097E-03     450.516E-03    -224.879E-03     59.8581E-03
             414     6.46896E-03     96.0886E-03    -76.6393E+06    -94.8210E+06     393.098E+03     318.908E+03    -225.705E-03     450.801E-03    -225.096E-03     70.2640E-03    -226.298E-03     450.784E-03    -224.846E-03     65.1400E-03
             415     7.18797E-03     96.1917E-03    -68.2091E+06    -65.6341E+06     14.7156E+06     219.556E+03    -225.807E-03     450.886E-03    -225.079E-03     75.6862E-03    -226.493E-03     451.055E-03    -224.811E-03     69.9772E-03
             416     7.90726E-03     96.3013E-03    -59.6424E+06    -33.9016E+06     28.7567E+06     442.405E+03    -225.870E-03     450.925E-03    -225.055E-03     80.5816E-03    -226.661E-03     451.301E-03    -224.776E-03     74.2512E-03
             417     8.62594E-03     96.4170E-03    -51.6040E+06     6.08051E+06     43.1450E+06     900.157E+03    -225.854E-03     450.874E-03    -225.020E-03     84.8340E-03    -226.773E-03     451.506E-03    -224.738E-03     77.8403E-03
             418     9.34538E-03     96.5376E-03    -43.8742E+06     34.0541E+06     53.3655E+06     1.25366E+06    -225.873E-03     450.854E-03    -224.981E-03     88.3755E-03    -226.906E-03     451.697E-03    -224.700E-03     80.6752E-03
             419     10.0651E-03     96.6618E-03    -36.3498E+06     51.0810E+06     61.9499E+06     1.17079E+06    -225.933E-03     450.888E-03    -224.954E-03     90.9263E-03    -227.068E-03     451.895E-03    -224.666E-03     82.4765E-03
             420     10.7838E-03     96.7884E-03    -29.7179E+06     66.1435E+06     72.2516E+06     487.477E+03    -225.935E-03     450.885E-03    -224.949E-03     91.9481E-03    -227.170E-03     452.040E-03    -224.641E-03     82.7520E-03
             421     11.5032E-03     96.9135E-03    -23.6001E+06     72.1444E+06     83.3310E+06    -33.1429E+03    -225.784E-03     450.753E-03    -224.969E-03     90.9574E-03    -227.091E-03     451.990E-03    -224.623E-03     81.0818E-03
             422     12.2210E-03     97.0359E-03    -17.4790E+06     78.7970E+06     93.9654E+06     94.8324E+03    -225.350E-03     450.336E-03    -224.986E-03     86.3752E-03    -226.665E-03     451.596E-03    -224.605E-03     76.1223E-03
             423     12.9427E-03     97.1448E-03    -11.3380E+06     86.0833E+06     99.0988E+06    -105.654E+03    -224.856E-03     449.826E-03    -224.970E-03     81.6928E-03    -226.224E-03     451.172E-03    -224.583E-03     70.6521E-03
             424     13.6583E-03     97.2514E-03    -5.40447E+06     91.0105E+06     98.6103E+06     222.613E+03    -224.502E-03     449.434E-03    -224.932E-03     64.9712E-03    -225.602E-03     450.552E-03    -224.563E-03     55.1808E-03
             425     718.426E-06     97.0931E-03    -137.225E+06    -260.019E+06    -135.011E+06    -55.2276E+03    -224.911E-03     449.938E-03    -225.027E-03     10.3800E-03    -225.032E-03     449.040E-03    -225.126E-03     9.68329E-03
             426     1.43714E-03     97.1136E-03    -133.362E+06    -248.911E+06    -124.041E+06     115.697E+03    -224.972E-03     449.948E-03    -224.977E-03     18.9117E-03    -225.122E-03     449.101E-03    -225.042E-03     17.6510E-03
             427     2.15598E-03     97.1465E-03    -127.575E+06    -233.871E+06    -107.532E+06     284.521E+03    -225.048E-03     450.054E-03    -225.006E-03     27.4530E-03    -225.241E-03     449.275E-03    -225.019E-03     25.6100E-03
             428     2.87469E-03     97.1912E-03    -120.250E+06    -213.367E+06    -88.4700E+06     358.942E+03    -225.144E-03     450.185E-03    -225.042E-03     35.7935E-03    -225.391E-03     449.505E-03    -225.000E-03     33.3825E-03
             429     3.59327E-03     97.2481E-03    -112.429E+06    -189.908E+06    -68.8496E+06     224.064E+03    -225.178E-03     450.246E-03    -225.067E-03     43.7801E-03    -225.490E-03     449.684E-03    -224.973E-03     40.8166E-03
             430     4.31236E-03     97.3153E-03    -103.391E+06    -167.457E+06    -49.4062E+06    -100.906E+03    -225.272E-03     450.353E-03    -225.082E-03     51.2287E-03    -225.647E-03     449.910E-03    -224.936E-03     47.7197E-03
             431     5.03110E-03     97.3926E-03    -94.1327E+06    -143.800E+06    -31.3243E+06     183.169E+03    -225.442E-03     450.530E-03    -225.088E-03     58.1261E-03    -225.883E-03     450.217E-03    -224.900E-03     54.0911E-03
             432     5.74998E-03     97.4794E-03    -85.6827E+06    -120.295E+06    -14.9770E+06     453.188E+03    -225.573E-03     450.663E-03    -225.090E-03     64.4615E-03    -226.088E-03     450.490E-03    -224.867E-03     59.8954E-03
             433     6.46906E-03     97.5745E-03    -76.8162E+06    -94.5764E+06     483.782E+03     272.608E+03    -225.691E-03     450.775E-03    -225.084E-03     70.2751E-03    -226.286E-03     450.760E-03    -224.833E-03     65.1483E-03
             434     7.18812E-03     97.6773E-03    -68.3784E+06    -65.8017E+06     14.7884E+06     184.081E+03    -225.777E-03     450.844E-03    -225.067E-03     75.6549E-03    -226.464E-03     451.012E-03    -224.798E-03     69.9386E-03
             435     7.90704E-03     97.7871E-03    -60.4325E+06    -34.3844E+06     28.4627E+06     152.274E+03    -225.820E-03     450.861E-03    -225.041E-03     80.4972E-03    -226.614E-03     451.235E-03    -224.761E-03     74.1572E-03
             436     8.62668E-03     97.9027E-03    -52.1565E+06     5.10908E+06     42.5774E+06     264.574E+03    -225.874E-03     450.878E-03    -225.005E-03     84.7276E-03    -226.793E-03     451.507E-03    -224.724E-03     77.7257E-03
             437     9.34577E-03     98.0234E-03    -44.0978E+06     32.5849E+06     52.5595E+06     757.815E+03    -225.958E-03     450.929E-03    -224.970E-03     88.1386E-03    -226.989E-03     451.766E-03    -224.691E-03     80.4239E-03
             438     10.0644E-03     98.1477E-03    -36.9935E+06     51.0269E+06     60.8737E+06     1.27415E+06    -225.998E-03     450.946E-03    -224.948E-03     90.7328E-03    -227.134E-03     451.955E-03    -224.664E-03     82.2802E-03
             439     10.7840E-03     98.2744E-03    -30.3122E+06     67.2881E+06     71.6916E+06     1.19206E+06    -225.951E-03     450.899E-03    -224.948E-03     91.9091E-03    -227.189E-03     452.060E-03    -224.643E-03     82.7304E-03
             440     11.5026E-03     98.4002E-03    -23.6970E+06     72.8623E+06     83.6642E+06     952.734E+03    -225.734E-03     450.705E-03    -224.971E-03     90.9534E-03    -227.044E-03     451.946E-03    -224.624E-03     81.0857E-03
             441     12.2234E-03     98.5211E-03    -17.3058E+06     78.8559E+06     94.3711E+06     588.806E+03    -225.347E-03     450.333E-03    -224.987E-03     86.3280E-03    -226.660E-03     451.591E-03    -224.604E-03     76.0916E-03
             442     12.9398E-03     98.6320E-03    -10.8830E+06     86.5079E+06     99.7385E+06     236.632E+03    -225.083E-03     450.060E-03    -224.976E-03     82.3036E-03    -226.456E-03     451.411E-03    -224.587E-03     71.2645E-03
             443     13.6621E-03     98.7377E-03    -5.37442E+06     91.1722E+06     99.2445E+06     73.7971E+03    -224.540E-03     449.485E-03    -224.945E-03     65.6617E-03    -225.651E-03     450.613E-03    -224.573E-03     55.8333E-03
             444     718.859E-06     98.5789E-03    -137.708E+06    -260.330E+06    -134.613E+06     186.188E+03    -224.967E-03     449.820E-03    -224.853E-03     10.5066E-03    -225.091E-03     448.921E-03    -224.949E-03     9.81946E-03
             445     1.43743E-03     98.5992E-03    -133.966E+06    -249.066E+06    -124.042E+06     39.2083E+03    -224.984E-03     449.917E-03    -224.933E-03     18.8997E-03    -225.137E-03     449.070E-03    -224.998E-03     17.6332E-03
             446     2.15600E-03     98.6322E-03    -128.178E+06    -234.318E+06    -108.006E+06     31.1592E+03    -225.046E-03     450.025E-03    -224.979E-03     27.5793E-03    -225.241E-03     449.246E-03    -224.993E-03     25.7319E-03
             447     2.87457E-03     98.6772E-03    -120.702E+06    -214.019E+06    -88.9830E+06     116.299E+03    -225.113E-03     450.131E-03    -225.018E-03     35.9387E-03    -225.362E-03     449.449E-03    -224.977E-03     33.5232E-03
             448     3.59353E-03     98.7335E-03    -112.103E+06    -189.834E+06    -68.8287E+06     298.009E+03    -225.158E-03     450.200E-03    -225.043E-03     43.8436E-03    -225.469E-03     449.639E-03    -224.949E-03     40.8769E-03
             449     4.31233E-03     98.8008E-03    -103.711E+06    -167.312E+06    -49.3038E+06     435.585E+03    -225.275E-03     450.335E-03    -225.060E-03     51.2231E-03    -225.652E-03     449.893E-03    -224.914E-03     47.7233E-03
             450     5.03131E-03     98.8785E-03    -94.9590E+06    -144.087E+06    -31.4876E+06     143.363E+03    -225.427E-03     450.497E-03    -225.070E-03     58.1253E-03    -225.872E-03     450.184E-03    -224.881E-03     54.0919E-03
             451     5.75023E-03     98.9650E-03    -85.6360E+06    -120.515E+06    -15.1160E+06    -27.7282E+03    -225.567E-03     450.639E-03    -225.072E-03     64.4936E-03    -226.081E-03     450.465E-03    -224.849E-03     59.9196E-03
             452     6.46916E-03     99.0603E-03    -77.0576E+06    -95.0346E+06     44.8516E+03     418.292E+03    -225.701E-03     450.767E-03    -225.067E-03     70.3423E-03    -226.295E-03     450.751E-03    -224.817E-03     65.2183E-03
             453     7.18810E-03     99.1630E-03    -68.9653E+06    -65.8098E+06     14.4906E+06     594.806E+03    -225.825E-03     450.879E-03    -225.054E-03     75.6412E-03    -226.515E-03     451.049E-03    -224.786E-03     69.9272E-03
             454     7.90745E-03     99.2726E-03    -60.6697E+06    -34.1808E+06     28.2821E+06     305.502E+03    -225.934E-03     450.971E-03    -225.037E-03     80.3515E-03    -226.729E-03     451.347E-03    -224.758E-03     74.0003E-03
             455     8.62615E-03     99.3884E-03    -52.6917E+06     4.51803E+06     41.9692E+06     206.983E+03    -225.920E-03     450.928E-03    -225.009E-03     84.4693E-03    -226.839E-03     451.554E-03    -224.729E-03     77.4589E-03
             456     9.34526E-03     99.5094E-03    -45.2951E+06     31.3492E+06     51.7516E+06     447.613E+03    -225.969E-03     450.947E-03    -224.978E-03     88.1367E-03    -227.003E-03     451.781E-03    -224.699E-03     80.4196E-03
             457     10.0649E-03     99.6336E-03    -38.0155E+06     49.9416E+06     60.2155E+06     899.537E+03    -226.052E-03     451.010E-03    -224.958E-03     90.7854E-03    -227.190E-03     452.016E-03    -224.674E-03     82.3304E-03
             458     10.7835E-03     99.7605E-03    -30.9875E+06     67.4193E+06     71.5134E+06     1.17608E+06    -225.860E-03     450.816E-03    -224.956E-03     91.8284E-03    -227.101E-03     451.979E-03    -224.651E-03     82.6451E-03
             459     11.5034E-03     99.8859E-03    -24.1227E+06     73.1913E+06     83.3672E+06     1.03627E+06    -225.608E-03     450.579E-03    -224.971E-03     90.9172E-03    -226.919E-03     451.822E-03    -224.625E-03     81.0614E-03
             460     12.2208E-03     100.007E-03    -17.4190E+06     79.4480E+06     94.5193E+06     848.910E+03    -225.265E-03     450.246E-03    -224.982E-03     86.3877E-03    -226.579E-03     451.507E-03    -224.599E-03     76.1642E-03
             461     12.9430E-03     100.117E-03    -10.9458E+06     87.2705E+06     100.508E+06     325.796E+03    -224.985E-03     449.954E-03    -224.969E-03     82.4363E-03    -226.357E-03     451.305E-03    -224.577E-03     71.4366E-03
             462     13.6592E-03     100.224E-03    -5.54087E+06     91.0484E+06     99.3240E+06    -98.6626E+03    -224.507E-03     449.439E-03    -224.933E-03     65.4270E-03    -225.616E-03     450.564E-03    -224.560E-03     55.5859E-03
             463     718.580E-06     100.064E-03    -137.449E+06    -260.662E+06    -135.283E+06     111.664E+03    -224.934E-03     449.814E-03    -224.880E-03     10.4149E-03    -225.055E-03     448.914E-03    -224.979E-03     9.71047E-03
             464     1.43728E-03     100.085E-03    -133.567E+06    -249.129E+06    -123.969E+06     173.329E+03    -224.958E-03     449.884E-03    -224.926E-03     18.7816E-03    -225.109E-03     449.036E-03    -224.991E-03     17.5308E-03
             465     2.15605E-03     100.118E-03    -127.828E+06    -234.297E+06    -107.452E+06     87.1088E+03    -224.985E-03     449.947E-03    -224.962E-03     27.5245E-03    -225.179E-03     449.167E-03    -224.974E-03     25.6749E-03
             466     2.87499E-03     100.163E-03    -120.612E+06    -214.313E+06    -88.7760E+06     116.504E+03    -225.041E-03     450.029E-03    -224.988E-03     35.8505E-03    -225.289E-03     449.345E-03    -224.946E-03     33.4330E-03
             467     3.59364E-03     100.219E-03    -112.533E+06    -190.656E+06    -69.2708E+06     331.486E+03    -225.188E-03     450.201E-03    -225.012E-03     43.7949E-03    -225.499E-03     449.636E-03    -224.919E-03     40.8283E-03
             468     4.31242E-03     100.287E-03    -103.554E+06    -167.681E+06    -49.5793E+06     395.592E+03    -225.324E-03     450.365E-03    -225.041E-03     51.2227E-03    -225.699E-03     449.922E-03    -224.896E-03     47.7153E-03
             469     5.03126E-03     100.364E-03    -94.5850E+06    -143.849E+06    -31.5589E+06     510.194E+03    -225.414E-03     450.470E-03    -225.056E-03     58.0621E-03    -225.857E-03     450.159E-03    -224.868E-03     54.0287E-03
             470     5.75027E-03     100.451E-03    -86.3249E+06    -120.928E+06    -15.3697E+06     674.990E+03    -225.552E-03     450.613E-03    -225.060E-03     64.3910E-03    -226.069E-03     450.438E-03    -224.837E-03     59.8241E-03
             471     6.46926E-03     100.546E-03    -77.6767E+06    -95.4586E+06    -237.171E+03     568.972E+03    -225.702E-03     450.758E-03    -225.056E-03     70.2320E-03    -226.298E-03     450.740E-03    -224.806E-03     65.1076E-03
             472     7.18840E-03     100.649E-03    -68.7957E+06    -66.0613E+06     14.2129E+06     569.029E+03    -225.849E-03     450.894E-03    -225.045E-03     75.6315E-03    -226.537E-03     451.062E-03    -224.778E-03     69.9268E-03
             473     7.90696E-03     100.759E-03    -60.8337E+06    -34.2993E+06     28.0893E+06     847.879E+03    -225.985E-03     451.017E-03    -225.032E-03     80.5959E-03    -226.781E-03     451.393E-03    -224.753E-03     74.2655E-03
             474     8.62617E-03     100.874E-03    -53.6016E+06     4.83883E+06     41.8862E+06     786.863E+03    -226.060E-03     451.072E-03    -225.011E-03     84.7935E-03    -226.987E-03     451.704E-03    -224.731E-03     77.7772E-03
             475     9.34564E-03     100.994E-03    -46.3071E+06     31.1249E+06     51.4234E+06     426.474E+03    -226.100E-03     451.090E-03    -224.990E-03     88.1903E-03    -227.138E-03     451.925E-03    -224.711E-03     80.4584E-03
             476     10.0642E-03     101.120E-03    -38.8388E+06     49.0110E+06     59.7667E+06      310.31E+03    -225.964E-03     450.935E-03    -224.972E-03     90.6719E-03    -227.104E-03     451.938E-03    -224.688E-03     82.2062E-03
             477     10.7837E-03     101.246E-03    -31.6303E+06     66.6709E+06     70.7530E+06     592.109E+03    -225.745E-03     450.705E-03    -224.960E-03     91.8652E-03    -226.987E-03     451.867E-03    -224.657E-03     82.6811E-03
             478     11.5025E-03     101.372E-03    -24.6916E+06     73.3557E+06     82.9899E+06     737.683E+03    -225.511E-03     450.480E-03    -224.968E-03     91.0498E-03    -226.824E-03     451.725E-03    -224.624E-03     81.2053E-03
             479     12.2237E-03     101.493E-03    -17.6614E+06     80.0006E+06     94.6458E+06     229.477E+03    -225.260E-03     450.238E-03    -224.978E-03     86.3822E-03    -226.576E-03     451.501E-03    -224.595E-03     76.1475E-03
             480     12.9401E-03     101.603E-03    -10.9644E+06     87.0963E+06     100.260E+06     388.240E+03    -224.832E-03     449.792E-03    -224.960E-03     82.4099E-03    -226.201E-03     451.141E-03    -224.569E-03     71.4291E-03
             481     13.6620E-03     101.711E-03    -5.04117E+06     91.4260E+06     99.9848E+06     318.162E+03    -224.335E-03     449.253E-03    -224.918E-03     65.5326E-03    -225.442E-03     450.377E-03    -224.543E-03     55.7204E-03
             482     718.644E-06     101.550E-03    -137.448E+06    -260.508E+06    -134.721E+06    -290.922E+03    -224.918E-03     449.817E-03    -224.900E-03     10.6630E-03    -225.040E-03     448.918E-03    -224.996E-03     9.95825E-03
             483     1.43737E-03     101.570E-03    -133.881E+06    -249.729E+06    -124.281E+06    -76.0187E+03    -224.973E-03     449.901E-03    -224.929E-03     18.9105E-03    -225.124E-03     449.052E-03    -224.994E-03     17.6330E-03
             484     2.15603E-03     101.603E-03    -128.047E+06    -234.796E+06    -108.012E+06     289.526E+03    -224.984E-03     449.949E-03    -224.966E-03     27.3946E-03    -225.177E-03     449.167E-03    -224.979E-03     25.5472E-03
             485     2.87470E-03     101.648E-03    -120.815E+06    -214.595E+06    -88.8425E+06     514.962E+03    -225.037E-03     450.029E-03    -224.992E-03     35.7172E-03    -225.285E-03     449.344E-03    -224.950E-03     33.3078E-03
             486     3.59366E-03     101.705E-03    -112.487E+06    -190.937E+06    -69.2425E+06     338.849E+03    -225.140E-03     450.152E-03    -225.012E-03     43.6827E-03    -225.451E-03     449.586E-03    -224.918E-03     40.7182E-03
             487     4.31252E-03     101.772E-03    -103.640E+06    -168.343E+06    -50.0493E+06     538.994E+03    -225.273E-03     450.304E-03    -225.031E-03     51.1557E-03    -225.647E-03     449.858E-03    -224.887E-03     47.6529E-03
             488     5.03137E-03     101.850E-03    -94.9317E+06    -144.565E+06    -31.8545E+06     876.016E+03    -225.442E-03     450.489E-03    -225.046E-03     58.0930E-03    -225.886E-03     450.175E-03    -224.858E-03     54.0606E-03
             489     5.75025E-03     101.936E-03    -85.8649E+06    -120.877E+06    -15.0549E+06     788.722E+03    -225.612E-03     450.670E-03    -225.058E-03     64.4185E-03    -226.128E-03     450.495E-03    -224.833E-03     59.8482E-03
             490     6.46923E-03     102.032E-03    -77.1085E+06    -95.8251E+06    -113.924E+03     851.294E+03    -225.746E-03     450.805E-03    -225.059E-03     70.1528E-03    -226.339E-03     450.785E-03    -224.809E-03     65.0264E-03
             491     7.18809E-03     102.134E-03    -69.4554E+06    -66.6305E+06     13.9811E+06     1.16392E+06    -225.830E-03     450.880E-03    -225.050E-03     75.5094E-03    -226.520E-03     451.047E-03    -224.783E-03     69.8044E-03
             492     7.90766E-03     102.245E-03    -61.4976E+06    -34.4406E+06     28.0269E+06     1.07407E+06    -225.917E-03     450.951E-03    -225.034E-03     80.3337E-03    -226.714E-03     451.326E-03    -224.755E-03     74.0128E-03
             493     8.62672E-03     102.360E-03    -53.4518E+06     4.81243E+06     42.0249E+06     1.00296E+06    -226.020E-03     451.029E-03    -225.009E-03     84.6792E-03    -226.944E-03     451.658E-03    -224.729E-03     77.6854E-03
             494     9.34480E-03     102.482E-03    -45.8460E+06     31.5143E+06     51.7731E+06     1.10677E+06    -226.033E-03     451.016E-03    -224.984E-03     88.5494E-03    -227.073E-03     451.855E-03    -224.704E-03     80.8302E-03
             495     10.0644E-03     102.605E-03    -38.5787E+06     49.2998E+06     59.9093E+06     683.589E+03    -225.935E-03     450.895E-03    -224.959E-03     91.2894E-03    -227.079E-03     451.902E-03    -224.675E-03     82.8310E-03
             496     10.7837E-03     102.732E-03    -31.9124E+06     66.3148E+06     70.7231E+06     306.066E+03    -225.824E-03     450.774E-03    -224.949E-03     92.2231E-03    -227.069E-03     451.935E-03    -224.645E-03     83.0417E-03
             497     11.5035E-03     102.857E-03    -24.7389E+06     74.1998E+06     83.3010E+06    -150.889E+03    -225.624E-03     450.587E-03    -224.963E-03     91.0289E-03    -226.940E-03     451.837E-03    -224.618E-03     81.1617E-03
             498     12.2210E-03     102.979E-03    -17.4548E+06     80.2876E+06     94.5120E+06    -492.341E+03    -225.175E-03     450.147E-03    -224.972E-03     86.5377E-03    -226.491E-03     451.412E-03    -224.590E-03     76.2999E-03
             499     12.9427E-03     103.090E-03    -11.4779E+06     85.7737E+06     99.3533E+06    -76.2285E+03    -224.775E-03     449.725E-03    -224.950E-03     82.2991E-03    -226.145E-03     451.071E-03    -224.561E-03     71.2954E-03
             500     13.6605E-03     103.194E-03    -5.09293E+06     91.3669E+06     99.7820E+06     312.098E+03    -224.524E-03     449.437E-03    -224.913E-03     65.3188E-03    -225.630E-03     450.560E-03    -224.540E-03     55.4971E-03
             501     718.852E-06     103.035E-03    -137.472E+06    -261.292E+06    -134.602E+06     511.252E+03    -225.039E-03     449.928E-03    -224.888E-03     10.3930E-03    -225.160E-03     449.024E-03    -224.983E-03     9.69836E-03
             502     1.43728E-03     103.057E-03    -133.917E+06    -249.749E+06    -123.770E+06     501.170E+03    -224.933E-03     449.900E-03    -224.968E-03     18.6679E-03    -225.084E-03     449.049E-03    -225.030E-03     17.4149E-03
             503     2.15599E-03     103.088E-03    -128.321E+06    -235.340E+06    -108.070E+06     281.924E+03    -224.943E-03     449.919E-03    -224.976E-03     27.4267E-03    -225.136E-03     449.135E-03    -224.989E-03     25.5748E-03
             504     2.87480E-03     103.134E-03    -120.775E+06    -215.257E+06    -89.1910E+06     341.365E+03    -225.045E-03     450.037E-03    -224.992E-03     35.9350E-03    -225.292E-03     449.350E-03    -224.951E-03     33.5178E-03
             505     3.59348E-03     103.190E-03    -112.410E+06    -191.337E+06    -69.1946E+06     721.682E+03    -225.139E-03     450.152E-03    -225.013E-03     43.8162E-03    -225.449E-03     449.584E-03    -224.918E-03     40.8562E-03
             506     4.31243E-03     103.258E-03    -103.993E+06    -168.823E+06    -49.9361E+06     731.115E+03    -225.283E-03     450.316E-03    -225.033E-03     51.1793E-03    -225.658E-03     449.867E-03    -224.887E-03     47.6802E-03
             507     5.03146E-03     103.335E-03    -94.6640E+06    -145.007E+06    -31.8512E+06     581.437E+03    -225.482E-03     450.532E-03    -225.051E-03     57.9681E-03    -225.923E-03     450.215E-03    -224.862E-03     53.9368E-03
             508     5.75031E-03     103.423E-03    -85.5100E+06    -121.567E+06    -15.1893E+06     1.01391E+06    -225.628E-03     450.693E-03    -225.065E-03     64.2724E-03    -226.139E-03     450.513E-03    -224.841E-03     59.7084E-03
             509     6.46912E-03     103.517E-03    -77.4864E+06    -96.5023E+06    -70.2844E+03     1.34108E+06    -225.744E-03     450.813E-03    -225.069E-03     70.1800E-03    -226.339E-03     450.790E-03    -224.817E-03     65.0596E-03
             510     7.18820E-03     103.621E-03    -68.8259E+06    -67.0963E+06     14.4630E+06     1.34140E+06    -225.885E-03     450.946E-03    -225.061E-03     75.5998E-03    -226.572E-03     451.109E-03    -224.792E-03     69.8960E-03
             511     7.90673E-03     103.730E-03    -60.5792E+06    -35.1051E+06     28.2975E+06     1.65416E+06    -225.916E-03     450.961E-03    -225.045E-03     80.4708E-03    -226.709E-03     451.331E-03    -224.764E-03     74.1555E-03
             512     8.62568E-03     103.847E-03    -53.1435E+06     4.98065E+06     42.5315E+06     1.65792E+06    -225.741E-03     450.749E-03    -225.008E-03     84.9013E-03    -226.664E-03     451.378E-03    -224.725E-03     77.9353E-03
             513     9.34629E-03     103.966E-03    -45.4947E+06     32.1770E+06     52.4223E+06     1.01333E+06    -225.756E-03     450.716E-03    -224.960E-03     88.6012E-03    -226.794E-03     451.554E-03    -224.678E-03     80.9122E-03
             514     10.0653E-03     104.092E-03    -38.0713E+06     49.5787E+06     60.5540E+06     789.230E+03    -225.993E-03     450.922E-03    -224.929E-03     91.1635E-03    -227.133E-03     451.928E-03    -224.643E-03     82.7112E-03
             515     10.7841E-03     104.217E-03    -30.7120E+06     67.4549E+06     71.8180E+06     302.048E+03    -225.977E-03     450.906E-03    -224.929E-03     92.1541E-03    -227.220E-03     452.071E-03    -224.623E-03     82.9524E-03
             516     11.5026E-03     104.344E-03    -23.8929E+06     74.9427E+06     83.9328E+06    -320.769E+03    -225.694E-03     450.643E-03    -224.950E-03     91.2220E-03    -227.011E-03     451.898E-03    -224.604E-03     81.3331E-03
             517     12.2235E-03     104.464E-03    -17.6761E+06     80.2449E+06     94.6467E+06    -315.486E+03    -225.360E-03     450.327E-03    -224.967E-03     86.4280E-03    -226.680E-03     451.595E-03    -224.584E-03     76.1570E-03
             518     12.9412E-03     104.574E-03    -11.4141E+06     86.1974E+06     99.7714E+06    -236.649E+03    -225.088E-03     450.048E-03    -224.960E-03     81.8750E-03    -226.458E-03     451.395E-03    -224.570E-03     70.8319E-03
             519     13.6608E-03     104.683E-03    -5.43858E+06     91.0270E+06     99.2442E+06     38.8905E+03    -224.496E-03     449.425E-03    -224.929E-03     65.1383E-03    -225.601E-03     450.546E-03    -224.557E-03     55.3090E-03
             520     718.137E-06     104.522E-03    -137.332E+06    -262.321E+06    -135.810E+06     230.822E+03    -225.021E-03     450.054E-03    -225.032E-03     10.3656E-03    -225.139E-03     449.146E-03    -225.132E-03     9.66234E-03
             521     1.43714E-03     104.541E-03    -133.982E+06    -250.393E+06    -124.885E+06     394.604E+03    -224.802E-03     449.789E-03    -224.987E-03     18.7883E-03    -224.952E-03     448.937E-03    -225.054E-03     17.5154E-03
             522     2.15606E-03     104.574E-03    -128.187E+06    -235.508E+06    -107.953E+06     546.080E+03    -224.917E-03     449.876E-03    -224.959E-03     27.5663E-03    -225.110E-03     449.091E-03    -224.972E-03     25.7239E-03
             523     2.87489E-03     104.619E-03    -121.014E+06    -215.613E+06    -88.8361E+06     362.424E+03    -225.064E-03     450.044E-03    -224.980E-03     35.8899E-03    -225.312E-03     449.355E-03    -224.936E-03     33.4814E-03
             524     3.59379E-03     104.676E-03    -112.585E+06    -192.054E+06    -69.3650E+06     351.759E+03    -225.213E-03     450.224E-03    -225.011E-03     43.7267E-03    -225.522E-03     449.652E-03    -224.916E-03     40.7648E-03
             525     4.31254E-03     104.743E-03    -103.299E+06    -168.956E+06    -49.9405E+06      474.83E+03    -225.372E-03     450.416E-03    -225.044E-03     51.1224E-03    -225.743E-03     449.966E-03    -224.899E-03     47.6227E-03
             526     5.03109E-03     104.822E-03    -94.6387E+06    -145.777E+06    -31.8708E+06     865.586E+03    -225.442E-03     450.507E-03    -225.066E-03     58.0328E-03    -225.882E-03     450.186E-03    -224.876E-03     54.0055E-03
             527     5.75001E-03     104.907E-03    -85.9647E+06    -122.650E+06    -15.1513E+06     963.357E+03    -225.540E-03     450.611E-03    -225.071E-03     64.4892E-03    -226.052E-03     450.427E-03    -224.844E-03     59.9282E-03
             528     6.46917E-03     105.004E-03    -76.5514E+06    -97.0029E+06     306.234E+03     867.267E+03    -225.716E-03     450.781E-03    -225.065E-03     70.4150E-03    -226.306E-03     450.753E-03    -224.812E-03     65.3018E-03
             529     7.18809E-03     105.106E-03    -67.8263E+06    -68.1271E+06     14.6317E+06     1.19903E+06    -225.822E-03     450.872E-03    -225.051E-03     75.8946E-03    -226.503E-03     451.029E-03    -224.780E-03     70.1985E-03
             530     7.90744E-03     105.217E-03    -59.6592E+06    -36.3886E+06     28.6124E+06     1.79867E+06    -225.839E-03     450.867E-03    -225.028E-03     80.7920E-03    -226.627E-03     451.231E-03    -224.746E-03     74.4768E-03
             531     8.62709E-03     105.331E-03    -51.0302E+06     5.13704E+06     43.6524E+06     2.15691E+06    -225.852E-03     450.845E-03    -224.993E-03     84.8293E-03    -226.767E-03     451.471E-03    -224.708E-03     77.8550E-03
             532     9.34538E-03     105.453E-03    -43.3554E+06     33.3762E+06     53.8490E+06     1.92674E+06    -225.918E-03     450.875E-03    -224.957E-03     88.2073E-03    -226.947E-03     451.712E-03    -224.673E-03     80.5184E-03
             533     10.0647E-03     105.577E-03    -36.7929E+06     50.7053E+06     61.2597E+06     829.708E+03    -225.887E-03     450.815E-03    -224.929E-03     90.7707E-03    -227.021E-03     451.822E-03    -224.642E-03     82.3226E-03
             534     10.7841E-03     105.705E-03    -30.0184E+06     67.9943E+06     72.0893E+06     284.916E+03    -225.796E-03     450.715E-03    -224.919E-03     91.9612E-03    -227.036E-03     451.880E-03    -224.613E-03     82.7655E-03
             535     11.5039E-03     105.829E-03    -23.6571E+06     75.0738E+06       84.51E+06     579.222E+03    -225.748E-03     450.687E-03    -224.940E-03     90.9859E-03    -227.064E-03     451.941E-03    -224.592E-03     81.0967E-03
             536     12.2217E-03     105.951E-03    -17.4787E+06     80.5081E+06     95.2124E+06     703.013E+03    -225.576E-03     450.542E-03    -224.966E-03     86.5108E-03    -226.897E-03     451.811E-03    -224.581E-03     76.2496E-03
             537     12.9411E-03     106.062E-03    -11.1232E+06     86.5639E+06     100.221E+06     252.708E+03    -225.182E-03     450.148E-03    -224.966E-03     82.5131E-03    -226.557E-03     451.500E-03    -224.575E-03     71.4754E-03
             538     13.6603E-03     106.166E-03    -5.57214E+06     90.8418E+06     99.5321E+06    -482.462E+03    -224.397E-03     449.331E-03    -224.934E-03     65.4652E-03    -225.509E-03     450.457E-03    -224.560E-03     55.6066E-03
             539     718.822E-06     106.007E-03    -138.194E+06    -262.701E+06    -135.504E+06    -242.873E+03    -224.756E-03     449.706E-03    -224.949E-03     10.3199E-03    -224.878E-03     448.797E-03    -225.046E-03     9.61458E-03
             540     1.43750E-03     106.027E-03    -134.373E+06    -251.146E+06    -125.178E+06    -12.2021E+03    -224.920E-03     449.792E-03    -224.872E-03     18.9770E-03    -225.071E-03     448.937E-03    -224.938E-03     17.7037E-03
             541     2.15620E-03     106.059E-03    -128.424E+06    -235.801E+06    -108.304E+06     97.7331E+03    -225.078E-03     450.010E-03    -224.932E-03     27.5903E-03    -225.272E-03     449.224E-03    -224.945E-03     25.7446E-03
             542     2.87476E-03     106.105E-03    -121.020E+06    -215.742E+06    -89.3383E+06     163.130E+03    -225.136E-03     450.126E-03    -224.990E-03     35.7593E-03    -225.382E-03     449.436E-03    -224.949E-03     33.3508E-03
             543     3.59347E-03     106.161E-03    -112.750E+06    -192.264E+06    -69.9086E+06     109.456E+03    -225.197E-03     450.223E-03    -225.026E-03     43.7554E-03    -225.506E-03     449.651E-03    -224.933E-03     40.7932E-03
             544     4.31213E-03     106.230E-03    -104.099E+06    -169.828E+06    -50.3497E+06     417.210E+03    -225.245E-03     450.292E-03    -225.047E-03     51.2980E-03    -225.619E-03     449.839E-03    -224.901E-03     47.7974E-03
             545     5.03136E-03     106.306E-03    -94.8849E+06    -146.372E+06    -31.7479E+06     415.562E+03    -225.352E-03     450.404E-03    -225.052E-03     58.3117E-03    -225.793E-03     450.081E-03    -224.861E-03     54.2819E-03
             546     5.75051E-03     106.394E-03    -85.4816E+06    -122.776E+06    -15.1980E+06     342.894E+03    -225.563E-03     450.614E-03    -225.051E-03     64.6470E-03    -226.073E-03     450.429E-03    -224.825E-03     60.0827E-03
             547     6.46935E-03     106.488E-03    -76.8777E+06    -97.6197E+06    -191.463E+03     591.279E+03    -225.705E-03     450.752E-03    -225.047E-03     70.4306E-03    -226.295E-03     450.723E-03    -224.795E-03     65.3133E-03
             548     7.18843E-03     106.592E-03    -68.5931E+06    -69.1084E+06     14.1890E+06     791.540E+03    -225.777E-03     450.811E-03    -225.034E-03     75.6958E-03    -226.460E-03     450.964E-03    -224.763E-03     69.9884E-03
             549     7.90762E-03     106.701E-03    -60.0846E+06    -37.4413E+06     28.0524E+06     857.562E+03    -225.889E-03     450.903E-03    -225.014E-03     80.3492E-03    -226.676E-03     451.262E-03    -224.732E-03     74.0110E-03
             550     8.62612E-03     106.818E-03    -52.1514E+06     2.24020E+06     42.2446E+06     1.94345E+06    -225.982E-03     450.971E-03    -224.988E-03     84.5938E-03    -226.897E-03     451.586E-03    -224.705E-03     77.6019E-03
             551     9.34576E-03     106.938E-03    -44.6445E+06     34.6001E+06     53.4754E+06     2.50236E+06    -225.980E-03     450.940E-03    -224.960E-03     88.4442E-03    -227.019E-03     451.789E-03    -224.678E-03     80.7496E-03
             552     10.0647E-03     107.064E-03    -37.3473E+06     53.8688E+06     61.5968E+06     1.26529E+06    -225.888E-03     450.821E-03    -224.933E-03     91.0509E-03    -227.033E-03     451.846E-03    -224.649E-03     82.5990E-03
             553     10.7843E-03     107.189E-03    -30.7399E+06     67.1384E+06     71.6037E+06     648.952E+03    -225.769E-03     450.693E-03    -224.924E-03     91.9231E-03    -227.010E-03     451.855E-03    -224.618E-03     82.7348E-03
             554     11.5030E-03     107.316E-03    -23.9946E+06     74.5921E+06     84.3481E+06     763.437E+03    -225.641E-03     450.581E-03    -224.940E-03     91.0826E-03    -226.956E-03     451.831E-03    -224.592E-03     81.2237E-03
             555     12.2228E-03     107.437E-03    -16.9275E+06     80.7478E+06     95.6424E+06     679.423E+03    -225.378E-03     450.335E-03    -224.957E-03     86.8156E-03    -226.697E-03     451.603E-03    -224.572E-03     76.5825E-03
             556     12.9424E-03     107.548E-03    -10.1279E+06     87.2062E+06     101.386E+06     441.336E+03    -225.013E-03     449.963E-03    -224.950E-03     82.5214E-03    -226.382E-03     451.311E-03    -224.554E-03     71.5317E-03
             557     13.6608E-03     107.655E-03    -5.05809E+06     91.3173E+06     100.421E+06     90.3521E+03    -224.479E-03     449.394E-03    -224.915E-03     65.3422E-03    -225.586E-03     450.516E-03    -224.538E-03     55.5138E-03
             558     718.931E-06     107.492E-03    -138.392E+06    -262.562E+06    -135.185E+06     122.124E+03    -224.710E-03     449.519E-03    -224.808E-03     10.0548E-03    -224.833E-03     448.610E-03    -224.903E-03     9.36021E-03
             559     1.43765E-03     107.512E-03    -134.050E+06    -251.257E+06    -124.131E+06    -197.084E+03    -225.094E-03     449.931E-03    -224.837E-03     18.7693E-03    -225.243E-03     449.073E-03    -224.899E-03     17.5132E-03
             560     2.15595E-03     107.546E-03    -128.333E+06    -236.272E+06    -108.580E+06     31.4342E+03    -225.124E-03     450.074E-03    -224.950E-03     27.4385E-03    -225.315E-03     449.286E-03    -224.964E-03     25.5968E-03
             561     2.87474E-03     107.590E-03    -121.031E+06    -216.042E+06    -89.6228E+06     298.493E+03    -225.095E-03     450.100E-03    -225.006E-03     35.8545E-03    -225.341E-03     449.410E-03    -224.965E-03     33.4406E-03
             562     3.59348E-03     107.648E-03    -113.172E+06    -192.609E+06    -70.0103E+06     460.877E+03    -225.078E-03     450.101E-03    -225.023E-03     43.9006E-03    -225.389E-03     449.529E-03    -224.929E-03     40.9361E-03
             563     4.31275E-03     107.714E-03    -104.514E+06    -170.089E+06    -50.3423E+06     236.811E+03    -225.178E-03     450.207E-03    -225.029E-03     51.3005E-03    -225.554E-03     449.754E-03    -224.883E-03     47.7976E-03
             564     5.03162E-03     107.793E-03    -95.1417E+06    -146.323E+06    -32.1623E+06     129.708E+03    -225.417E-03     450.451E-03    -225.034E-03     58.1096E-03    -225.858E-03     450.129E-03    -224.845E-03     54.0790E-03
             565     5.75029E-03     107.879E-03    -86.4883E+06    -123.206E+06    -16.0565E+06     243.653E+03    -225.573E-03     450.614E-03    -225.041E-03     64.4081E-03    -226.086E-03     450.429E-03    -224.817E-03     59.8384E-03
             566     6.46930E-03     107.975E-03    -78.0166E+06    -98.3065E+06    -888.336E+03     449.712E+03    -225.655E-03     450.694E-03    -225.039E-03     70.2800E-03    -226.249E-03     450.664E-03    -224.787E-03     65.1544E-03
             567     7.18841E-03     108.077E-03    -69.5626E+06    -69.6274E+06     13.5076E+06     618.892E+03    -225.799E-03     450.824E-03    -225.025E-03     75.7578E-03    -226.486E-03     450.977E-03    -224.756E-03     70.0515E-03
             568     7.90707E-03     108.188E-03    -61.9163E+06    -38.4877E+06     26.9526E+06     1.09885E+06    -225.955E-03     450.963E-03    -225.009E-03     80.7291E-03    -226.749E-03     451.323E-03    -224.728E-03     74.4000E-03
             569     8.62675E-03     108.302E-03    -54.2602E+06    -608.616E+03     40.5729E+06     1.69200E+06    -225.993E-03     450.979E-03    -224.986E-03     84.9262E-03    -226.913E-03     451.587E-03    -224.703E-03     77.9306E-03
             570     9.34560E-03     108.425E-03    -46.1434E+06     35.2704E+06     52.8615E+06     1.61435E+06    -225.937E-03     450.893E-03    -224.956E-03     88.3215E-03    -226.984E-03     451.748E-03    -224.676E-03     80.6075E-03
             571     10.0651E-03     108.548E-03    -38.3525E+06     56.3101E+06     61.6679E+06     954.520E+03    -225.904E-03     450.833E-03    -224.929E-03     90.9214E-03    -227.058E-03     451.872E-03    -224.647E-03     82.4579E-03
             572     10.7837E-03     108.676E-03    -30.9508E+06     66.7381E+06     71.0365E+06     452.464E+03    -225.830E-03     450.752E-03    -224.922E-03     92.1719E-03    -227.073E-03     451.916E-03    -224.619E-03     82.9699E-03
             573     11.5035E-03     108.800E-03    -24.0317E+06     74.4083E+06     84.3163E+06     558.538E+03    -225.618E-03     450.560E-03    -224.942E-03     91.1863E-03    -226.934E-03     451.810E-03    -224.593E-03     81.3200E-03
             574     12.2228E-03     108.923E-03    -17.4736E+06     80.7041E+06     95.9400E+06     343.950E+03    -225.267E-03     450.225E-03    -224.958E-03     86.4287E-03    -226.588E-03     451.491E-03    -224.570E-03     76.1834E-03
             575     12.9411E-03     109.034E-03    -11.5031E+06     86.5507E+06     100.865E+06     457.735E+03    -224.817E-03     449.758E-03    -224.941E-03     82.0482E-03    -226.190E-03     451.105E-03    -224.546E-03     71.0369E-03
             576     13.6617E-03     109.139E-03    -5.59523E+06     91.7230E+06     100.871E+06     707.273E+03    -224.548E-03     449.455E-03    -224.907E-03     65.0169E-03    -225.657E-03     450.578E-03    -224.528E-03     55.1914E-03
             577     718.760E-06     108.976E-03    -137.824E+06    -262.826E+06    -135.160E+06     80.8556E+03    -225.030E-03     449.894E-03    -224.864E-03     10.2945E-03    -225.150E-03     448.983E-03    -224.959E-03     9.61345E-03
             578     1.43705E-03     108.999E-03    -134.455E+06    -251.301E+06    -124.326E+06     316.916E+03    -224.995E-03     449.961E-03    -224.966E-03     18.7839E-03    -225.147E-03     449.104E-03    -225.028E-03     17.5249E-03
             579     2.15603E-03     109.031E-03    -128.912E+06    -236.886E+06    -108.827E+06     247.929E+03    -224.950E-03     449.938E-03    -224.988E-03     27.4654E-03    -225.143E-03     449.148E-03    -225.002E-03     25.6225E-03
             580     2.87471E-03     109.077E-03    -121.867E+06    -216.553E+06    -90.1194E+06     421.599E+03    -224.993E-03     449.989E-03    -224.996E-03     35.8823E-03    -225.242E-03     449.298E-03    -224.956E-03     33.4686E-03
             581     3.59376E-03     109.132E-03    -113.345E+06    -192.971E+06    -69.9315E+06      489.25E+03    -225.112E-03     450.121E-03    -225.009E-03     43.7236E-03    -225.423E-03     449.547E-03    -224.915E-03     40.7604E-03
             582     4.31242E-03     109.200E-03    -104.356E+06    -169.932E+06    -50.3062E+06     578.536E+03    -225.309E-03     450.339E-03    -225.031E-03     51.1328E-03    -225.683E-03     449.886E-03    -224.884E-03     47.6354E-03
             583     5.03117E-03     109.278E-03    -95.8487E+06    -146.465E+06    -32.5398E+06     578.147E+03    -225.422E-03     450.469E-03    -225.047E-03     58.0502E-03    -225.867E-03     450.147E-03    -224.858E-03     54.0166E-03
             584     5.75031E-03     109.365E-03    -87.1861E+06    -123.465E+06    -16.1497E+06     535.982E+03    -225.482E-03     450.531E-03    -225.049E-03     64.4281E-03    -225.998E-03     450.346E-03    -224.824E-03     59.8570E-03
             585     6.46944E-03     109.460E-03    -78.6992E+06    -98.8545E+06    -1.22231E+06     511.243E+03    -225.619E-03     450.656E-03    -225.038E-03     70.3381E-03    -226.215E-03     450.625E-03    -224.786E-03     65.2135E-03
             586     7.18840E-03     109.563E-03    -70.5812E+06    -70.5230E+06     12.7042E+06     862.039E+03    -225.783E-03     450.803E-03    -225.020E-03     75.7498E-03    -226.472E-03     450.954E-03    -224.752E-03     70.0452E-03
             587     7.90808E-03     109.672E-03    -62.1559E+06    -39.6654E+06     26.4789E+06     1.30640E+06    -225.924E-03     450.928E-03    -225.003E-03     80.5271E-03    -226.716E-03     451.281E-03    -224.723E-03     74.2039E-03
             588     8.62646E-03     109.790E-03    -53.6705E+06    -1.21771E+06     40.5669E+06     1.28184E+06    -225.997E-03     450.977E-03    -224.981E-03     84.7455E-03    -226.912E-03     451.580E-03    -224.698E-03     77.7465E-03
             589     9.34566E-03     109.909E-03    -45.7509E+06     35.6196E+06     53.1411E+06     1.03763E+06    -225.958E-03     450.910E-03    -224.953E-03     88.3827E-03    -227.004E-03     451.766E-03    -224.672E-03     80.6631E-03
             590     10.0645E-03     110.035E-03    -38.1291E+06     57.3956E+06     61.9492E+06     681.809E+03    -225.868E-03     450.793E-03    -224.924E-03     91.0970E-03    -227.024E-03     451.837E-03    -224.642E-03     82.6356E-03
             591     10.7845E-03     110.161E-03    -31.4338E+06     67.2203E+06     70.9909E+06     319.511E+03    -225.842E-03     450.759E-03    -224.917E-03     92.1737E-03    -227.087E-03     451.925E-03    -224.614E-03     82.9780E-03
             592     11.5033E-03     110.288E-03    -24.9379E+06     73.5016E+06     83.8002E+06     443.818E+03    -225.721E-03     450.661E-03    -224.941E-03     91.2372E-03    -227.041E-03     451.911E-03    -224.592E-03     81.3537E-03
             593     12.2219E-03     110.409E-03    -18.3945E+06     80.5730E+06     95.7542E+06     1.06086E+06    -225.246E-03     450.205E-03    -224.959E-03     86.6469E-03    -226.573E-03     451.476E-03    -224.571E-03     76.4054E-03
             594     12.9428E-03     110.519E-03    -12.0572E+06     87.3393E+06     101.436E+06     725.865E+03    -224.914E-03     449.861E-03    -224.947E-03     82.2232E-03    -226.293E-03     451.213E-03    -224.549E-03     71.2173E-03
             595     13.6604E-03     110.626E-03    -5.62869E+06     92.0547E+06     100.993E+06    -60.2469E+03    -224.522E-03     449.434E-03    -224.912E-03     65.2540E-03    -225.633E-03     450.558E-03    -224.532E-03     55.4371E-03
             596     718.243E-06     110.464E-03    -137.689E+06    -263.320E+06    -136.145E+06    -125.193E+03    -225.111E-03     450.101E-03    -224.990E-03     10.5172E-03    -225.228E-03     449.189E-03    -225.089E-03     9.81969E-03
             597     1.43725E-03     110.483E-03    -134.363E+06    -252.443E+06    -125.214E+06     463.004E+03    -224.862E-03     449.881E-03    -225.018E-03     18.9273E-03    -225.011E-03     449.019E-03    -225.084E-03     17.6705E-03
             598     2.15593E-03     110.517E-03    -128.781E+06    -237.146E+06    -108.475E+06     680.609E+03    -224.881E-03     449.867E-03    -224.986E-03     27.5429E-03    -225.074E-03     449.076E-03    -224.998E-03     25.6986E-03
             599     2.87493E-03     110.561E-03    -121.452E+06    -216.993E+06    -89.5185E+06     599.808E+03    -225.002E-03     449.989E-03    -224.987E-03     35.8519E-03    -225.249E-03     449.294E-03    -224.944E-03     33.4394E-03
             600     3.59356E-03     110.618E-03    -113.191E+06    -193.032E+06    -69.6279E+06     529.916E+03    -225.202E-03     450.211E-03    -225.009E-03     43.8390E-03    -225.512E-03     449.637E-03    -224.914E-03     40.8748E-03
             601     4.31238E-03     110.686E-03    -104.465E+06    -170.687E+06    -50.4563E+06     616.286E+03    -225.314E-03     450.352E-03    -225.038E-03     51.3262E-03    -225.689E-03     449.896E-03    -224.891E-03     47.8215E-03
             602     5.03139E-03     110.764E-03    -95.5921E+06    -147.134E+06    -32.4449E+06     1.02883E+06    -225.360E-03     450.409E-03    -225.049E-03     58.2123E-03    -225.803E-03     450.084E-03    -224.859E-03     54.1841E-03
             603     5.75035E-03     110.850E-03    -86.8498E+06    -123.379E+06    -15.8182E+06     1.17003E+06    -225.528E-03     450.577E-03    -225.048E-03     64.4847E-03    -226.044E-03     450.392E-03    -224.823E-03     59.9234E-03
             604     6.46930E-03     110.946E-03    -78.1513E+06    -99.1590E+06    -740.728E+03     1.21105E+06    -225.733E-03     450.780E-03    -225.047E-03     70.1937E-03    -226.326E-03     450.746E-03    -224.794E-03     65.0732E-03
             605     7.18852E-03     111.048E-03    -69.9096E+06    -71.2136E+06     13.1252E+06     1.25537E+06    -225.852E-03     450.891E-03    -225.039E-03     75.4858E-03    -226.536E-03     451.036E-03    -224.769E-03     69.7794E-03
             606     7.90678E-03     111.159E-03    -61.9175E+06    -40.0158E+06     26.5768E+06     947.672E+03    -225.866E-03     450.887E-03    -225.021E-03     80.4120E-03    -226.656E-03     451.238E-03    -224.740E-03     74.0824E-03
             607     8.62660E-03     111.274E-03    -54.0511E+06    -1.80385E+06     40.5735E+06     976.125E+03    -225.797E-03     450.784E-03    -224.987E-03     84.7808E-03    -226.712E-03     451.383E-03    -224.703E-03     77.7951E-03
             608     9.34582E-03     111.396E-03    -46.4619E+06     35.9687E+06     53.0638E+06     1.16524E+06    -225.810E-03     450.754E-03    -224.944E-03     88.4659E-03    -226.860E-03     451.612E-03    -224.663E-03     80.7601E-03
             609     10.0654E-03     111.520E-03    -39.5915E+06     58.4356E+06     61.7268E+06     738.120E+03    -225.981E-03     450.895E-03    -224.914E-03     91.1290E-03    -227.146E-03     451.947E-03    -224.632E-03     82.6631E-03
             610     10.7838E-03     111.647E-03    -32.5709E+06     67.2374E+06     70.9092E+06     420.470E+03    -225.977E-03     450.895E-03    -224.918E-03     92.1537E-03    -227.228E-03     452.063E-03    -224.613E-03     82.9547E-03
             611     11.5032E-03     111.773E-03    -25.4406E+06     73.0219E+06     83.8516E+06     453.108E+03    -225.636E-03     450.580E-03    -224.944E-03     91.0465E-03    -226.956E-03     451.826E-03    -224.594E-03     81.1743E-03
             612     12.2235E-03     111.894E-03    -18.2027E+06     80.6466E+06     95.7925E+06     95.9692E+03    -225.359E-03     450.322E-03    -224.963E-03     86.2949E-03    -226.683E-03     451.589E-03    -224.574E-03     76.0342E-03
             613     12.9409E-03     112.005E-03    -10.8784E+06     88.0770E+06     101.839E+06    -46.0338E+03    -224.932E-03     449.885E-03    -224.954E-03     81.9724E-03    -226.306E-03     451.238E-03    -224.556E-03     70.9374E-03
             614     13.6614E-03     112.112E-03    -5.00515E+06     92.2223E+06     101.414E+06     275.441E+03    -224.271E-03     449.185E-03    -224.914E-03     65.2504E-03    -225.380E-03     450.310E-03    -224.534E-03     55.4339E-03
             615     718.727E-06     111.949E-03    -138.446E+06    -263.955E+06    -134.902E+06     297.575E+03    -225.042E-03     449.885E-03    -224.843E-03     10.6260E-03    -225.164E-03     448.970E-03    -224.934E-03     9.93525E-03
             616     1.43728E-03     111.969E-03    -134.491E+06    -253.103E+06    -124.565E+06     176.522E+03    -224.921E-03     449.868E-03    -224.947E-03     18.8660E-03    -225.070E-03     449.003E-03    -225.008E-03     17.6002E-03
             617     2.15613E-03     112.002E-03    -128.428E+06    -237.926E+06    -108.602E+06     423.853E+03    -224.959E-03     449.920E-03    -224.961E-03     27.5259E-03    -225.149E-03     449.124E-03    -224.973E-03     25.6814E-03
             618     2.87475E-03     112.047E-03    -120.991E+06    -217.365E+06    -89.3257E+06     580.841E+03    -225.079E-03     450.068E-03    -224.988E-03     35.8660E-03    -225.324E-03     449.370E-03    -224.944E-03     33.4512E-03
             619     3.59370E-03     112.104E-03    -112.878E+06    -193.922E+06    -69.7016E+06     927.878E+03    -225.153E-03     450.167E-03    -225.014E-03     43.8331E-03    -225.460E-03     449.588E-03    -224.918E-03     40.8710E-03
             620     4.31252E-03     112.171E-03    -104.497E+06    -171.344E+06    -50.2492E+06     1.28063E+06    -225.239E-03     450.272E-03    -225.033E-03     51.2193E-03    -225.613E-03     449.812E-03    -224.884E-03     47.7256E-03
             621     5.03144E-03     112.249E-03    -95.5187E+06    -147.795E+06    -32.1218E+06     1.20592E+06    -225.406E-03     450.449E-03    -225.043E-03     58.0865E-03    -225.847E-03     450.120E-03    -224.851E-03     54.0642E-03
             622     5.75039E-03     112.336E-03    -86.3921E+06    -123.850E+06    -15.5809E+06     1.28177E+06    -225.603E-03     450.653E-03    -225.050E-03     64.4852E-03    -226.116E-03     450.464E-03    -224.823E-03     59.9292E-03
             623     6.46923E-03     112.431E-03    -77.8203E+06    -100.055E+06    -580.273E+03     1.59967E+06    -225.794E-03     450.849E-03    -225.056E-03     70.4267E-03    -226.384E-03     450.810E-03    -224.801E-03     65.3177E-03
             624     7.18775E-03     112.535E-03    -69.6249E+06    -71.3780E+06     13.6885E+06     1.73198E+06    -225.877E-03     450.928E-03    -225.051E-03     75.8550E-03    -226.562E-03     451.072E-03    -224.778E-03     70.1575E-03
             625     7.90771E-03     112.644E-03    -61.7566E+06    -39.6402E+06     27.3857E+06     1.65592E+06    -225.836E-03     450.867E-03    -225.030E-03     80.6298E-03    -226.629E-03     451.220E-03    -224.747E-03     74.3035E-03
             626     8.62638E-03     112.760E-03    -53.8247E+06    -2.14911E+06     41.0686E+06     1.43419E+06    -225.776E-03     450.769E-03    -224.993E-03     84.7460E-03    -226.691E-03     451.366E-03    -224.707E-03     77.7579E-03
             627     9.34594E-03     112.881E-03    -46.0578E+06     35.8750E+06     53.5852E+06     1.30273E+06    -225.876E-03     450.827E-03    -224.951E-03     88.2810E-03    -226.923E-03     451.682E-03    -224.668E-03     80.5828E-03
             628     10.0648E-03     113.007E-03    -38.5481E+06     59.1860E+06     62.6643E+06     1.21069E+06    -225.984E-03     450.908E-03    -224.924E-03     90.8729E-03    -227.143E-03     451.958E-03    -224.640E-03     82.4228E-03
             629     10.7843E-03     113.133E-03    -31.6798E+06     68.1036E+06     71.6722E+06     606.736E+03    -225.908E-03     450.833E-03    -224.925E-03     92.0272E-03    -227.158E-03     452.004E-03    -224.619E-03     82.8210E-03
             630     11.5034E-03     113.259E-03    -24.7338E+06     73.5340E+06     84.0654E+06    -183.049E+03    -225.699E-03     450.649E-03    -224.949E-03     90.9898E-03    -227.017E-03     451.896E-03    -224.600E-03     81.0997E-03
             631     12.2214E-03     113.381E-03    -17.8478E+06     80.5887E+06     95.6152E+06    -317.916E+03    -225.251E-03     450.216E-03    -224.965E-03     86.7657E-03    -226.575E-03     451.485E-03    -224.577E-03     76.5174E-03
             632     12.9420E-03     113.492E-03     -11.661E+06     87.2233E+06     101.001E+06    -176.017E+03    -224.810E-03     449.757E-03    -224.947E-03     82.5009E-03    -226.190E-03     451.113E-03    -224.552E-03     71.4632E-03
             633     13.6608E-03     113.595E-03    -5.14474E+06     92.0737E+06     101.139E+06     110.944E+03    -224.346E-03     449.253E-03    -224.907E-03     65.4568E-03    -225.458E-03     450.380E-03    -224.527E-03     55.6225E-03
             634     718.849E-06     113.435E-03    -137.546E+06    -265.264E+06    -135.506E+06     523.059E+03    -225.057E-03     449.755E-03    -224.697E-03     10.2761E-03    -225.171E-03     448.832E-03    -224.791E-03     9.60439E-03
             635     1.43740E-03     113.455E-03    -133.960E+06    -253.476E+06    -123.863E+06     622.565E+03    -225.013E-03     449.929E-03    -224.915E-03     18.6576E-03    -225.160E-03     449.059E-03    -224.973E-03     17.4025E-03
             636     2.15605E-03     113.487E-03    -128.389E+06    -238.384E+06    -107.980E+06     472.189E+03    -225.036E-03     450.010E-03    -224.973E-03     27.3521E-03    -225.226E-03     449.210E-03    -224.981E-03     25.5077E-03
             637     2.87484E-03     113.533E-03    -121.215E+06    -218.276E+06    -89.5733E+06     715.299E+03    -225.044E-03     450.047E-03    -225.003E-03     35.8489E-03    -225.288E-03     449.345E-03    -224.959E-03     33.4385E-03
             638     3.59341E-03     113.589E-03    -112.991E+06    -195.114E+06    -69.6543E+06     972.801E+03    -225.091E-03     450.109E-03    -225.018E-03     43.8381E-03    -225.398E-03     449.524E-03    -224.920E-03     40.8791E-03
             639     4.31252E-03     113.657E-03    -103.827E+06    -172.178E+06    -49.8186E+06     1.08848E+06    -225.262E-03     450.294E-03    -225.032E-03     51.3109E-03    -225.632E-03     449.829E-03    -224.881E-03     47.8180E-03
             640     5.03134E-03     113.734E-03    -94.6885E+06    -148.238E+06    -31.6893E+06     1.31646E+06    -225.475E-03     450.523E-03    -225.047E-03     58.1187E-03    -225.913E-03     450.189E-03    -224.854E-03     54.0967E-03
             641     5.75023E-03     113.821E-03    -86.0322E+06    -124.903E+06    -15.3707E+06     1.70282E+06    -225.587E-03     450.645E-03    -225.058E-03     64.4962E-03    -226.097E-03     450.450E-03    -224.829E-03     59.9460E-03
             642     6.46932E-03     113.917E-03    -77.4768E+06    -100.701E+06    -162.970E+03     1.83951E+06    -225.666E-03     450.721E-03    -225.055E-03     70.4266E-03    -226.255E-03     450.678E-03    -224.798E-03     65.3271E-03
             643     7.18886E-03     114.020E-03    -68.8160E+06    -72.0421E+06     14.3362E+06     1.92824E+06    -225.779E-03     450.818E-03    -225.039E-03     75.8436E-03    -226.459E-03     450.957E-03    -224.763E-03     70.1594E-03
             644     7.90694E-03     114.130E-03    -60.4528E+06    -39.9947E+06     28.3282E+06     2.14283E+06    -225.918E-03     450.937E-03    -225.019E-03     80.6787E-03    -226.705E-03     451.285E-03    -224.732E-03     74.3614E-03
             645     8.62661E-03     114.245E-03    -52.4571E+06    -861.836E+03     42.4746E+06     1.58445E+06    -226.090E-03     451.088E-03    -224.998E-03     84.8402E-03    -227.004E-03     451.689E-03    -224.708E-03     77.8326E-03
             646     9.34542E-03     114.367E-03    -44.3671E+06     35.2102E+06     54.6395E+06     1.13446E+06    -226.088E-03     451.065E-03    -224.976E-03     88.2938E-03    -227.129E-03     451.914E-03    -224.690E-03     80.5743E-03
             647     10.0646E-03     114.492E-03    -36.8737E+06     58.0235E+06     63.6835E+06     1.82684E+06    -225.849E-03     450.800E-03    -224.951E-03     90.8273E-03    -226.999E-03     451.841E-03    -224.663E-03     82.3842E-03
             648     10.7839E-03     114.618E-03    -30.1749E+06     70.3818E+06     73.0413E+06     1.69680E+06    -225.657E-03     450.591E-03    -224.934E-03     92.1086E-03    -226.903E-03     451.769E-03    -224.627E-03     82.9385E-03
             649     11.5029E-03     114.746E-03    -24.1591E+06     74.9412E+06     84.6268E+06     610.692E+03    -225.507E-03     450.449E-03    -224.942E-03     91.4091E-03    -226.827E-03     451.704E-03    -224.592E-03     81.5470E-03
             650     12.2234E-03     114.866E-03    -17.8962E+06     80.5097E+06     95.8083E+06     81.3965E+03    -225.165E-03     450.115E-03    -224.949E-03     86.8184E-03    -226.491E-03     451.385E-03    -224.561E-03     76.5706E-03
             651     12.9423E-03     114.977E-03    -11.3582E+06     87.4024E+06     101.515E+06    -204.783E+03    -224.871E-03     449.803E-03    -224.933E-03     82.3818E-03    -226.250E-03     451.158E-03    -224.535E-03     71.3403E-03
             652     13.6612E-03     115.084E-03    -5.03291E+06     92.0870E+06     101.178E+06    -172.273E+03    -224.500E-03     449.397E-03    -224.897E-03     65.2962E-03    -225.613E-03     450.526E-03    -224.518E-03     55.4231E-03
             653     718.465E-06     114.919E-03    -137.475E+06    -265.637E+06    -135.293E+06    -283.124E+03    -224.968E-03     449.892E-03    -224.924E-03     10.1618E-03    -225.082E-03     448.967E-03    -225.016E-03     9.47180E-03
             654     1.43737E-03     114.941E-03    -133.837E+06    -255.073E+06    -124.702E+06     288.148E+03    -224.930E-03     449.880E-03    -224.950E-03     18.8117E-03    -225.073E-03     449.004E-03    -225.010E-03     17.5421E-03
             655     2.15582E-03     114.973E-03    -127.940E+06    -239.262E+06    -107.862E+06     991.394E+03    -225.031E-03     450.008E-03    -224.977E-03     27.5089E-03    -225.218E-03     449.204E-03    -224.984E-03     25.6691E-03
             656     2.87461E-03     115.018E-03    -120.850E+06    -218.883E+06    -88.8527E+06     906.631E+03    -225.031E-03     450.037E-03    -225.006E-03     35.9059E-03    -225.274E-03     449.331E-03    -224.957E-03     33.4988E-03
             657     3.59387E-03     115.075E-03    -112.435E+06    -195.623E+06    -69.0825E+06     855.188E+03    -225.143E-03     450.166E-03    -225.023E-03     43.7891E-03    -225.447E-03     449.576E-03    -224.921E-03     40.8334E-03
             658     4.31252E-03     115.142E-03    -103.499E+06    -172.987E+06    -49.8110E+06     979.565E+03    -225.284E-03     450.325E-03    -225.041E-03     51.2110E-03    -225.650E-03     449.854E-03    -224.889E-03     47.7226E-03
             659     5.03142E-03     115.220E-03    -94.7840E+06    -149.625E+06    -31.8539E+06     1.43158E+06    -225.414E-03     450.467E-03    -225.053E-03     58.1838E-03    -225.850E-03     450.127E-03    -224.858E-03     54.1692E-03
             660     5.75029E-03     115.307E-03    -85.8087E+06    -125.816E+06    -14.9632E+06     1.62721E+06    -225.617E-03     450.678E-03    -225.061E-03     64.5520E-03    -226.125E-03     450.478E-03    -224.829E-03     59.9969E-03
             661     6.46925E-03     115.402E-03    -76.6181E+06    -101.273E+06     366.054E+03     1.80541E+06    -225.714E-03     450.776E-03    -225.062E-03     70.2543E-03    -226.298E-03     450.728E-03    -224.802E-03     65.1412E-03
             662     7.18792E-03     115.506E-03    -68.2665E+06    -72.6753E+06     14.7537E+06     1.86542E+06    -225.749E-03     450.796E-03    -225.048E-03     75.5039E-03    -226.426E-03     450.930E-03    -224.770E-03     69.8063E-03
             663     7.90818E-03     115.616E-03    -59.8370E+06    -40.2221E+06     28.8624E+06     1.57247E+06    -225.964E-03     450.993E-03    -225.029E-03     80.3541E-03    -226.745E-03     451.335E-03    -224.740E-03     74.0359E-03
             664     8.62647E-03     115.732E-03    -52.0890E+06    -937.646E+03     42.8879E+06     1.88609E+06    -226.112E-03     451.123E-03    -225.011E-03     84.7454E-03    -227.023E-03     451.721E-03    -224.719E-03     77.7557E-03
             665     9.34520E-03     115.854E-03    -45.3658E+06     35.0800E+06     54.6104E+06     2.20096E+06    -225.954E-03     450.937E-03    -224.984E-03     88.5044E-03    -227.001E-03     451.790E-03    -224.696E-03     80.7911E-03
             666     10.0645E-03     115.977E-03    -38.2603E+06     57.5046E+06     62.9875E+06     1.60296E+06    -225.769E-03     450.716E-03    -224.947E-03     91.3138E-03    -226.928E-03     451.761E-03    -224.660E-03     82.8658E-03
             667     10.7839E-03     116.105E-03    -30.7838E+06     70.5393E+06     72.9419E+06     1.63192E+06    -225.607E-03     450.532E-03    -224.925E-03     92.4620E-03    -226.858E-03     451.713E-03    -224.618E-03     83.2973E-03
             668     11.5041E-03     116.229E-03    -23.5534E+06     76.4265E+06     85.9664E+06     1.72476E+06    -225.447E-03     450.380E-03    -224.933E-03     91.2685E-03    -226.768E-03     451.639E-03    -224.580E-03     81.4212E-03
             669     12.2224E-03     116.353E-03    -17.0709E+06     81.3968E+06     97.0729E+06     825.682E+03    -225.224E-03     450.166E-03    -224.942E-03     86.4669E-03    -226.545E-03     451.434E-03    -224.550E-03     76.2346E-03
             670     12.9415E-03     116.462E-03    -10.8931E+06     87.8976E+06     102.375E+06     367.992E+03    -224.921E-03     449.850E-03    -224.929E-03     82.4742E-03    -226.297E-03     451.202E-03    -224.528E-03     71.4740E-03
             671     13.6615E-03     116.569E-03    -5.96636E+06     92.1553E+06     101.457E+06    -138.873E+03    -224.608E-03     449.505E-03    -224.897E-03     65.3623E-03    -225.727E-03     450.636E-03    -224.515E-03     55.4904E-03
             672     718.600E-06     116.406E-03    -137.802E+06    -266.440E+06    -134.484E+06     728.129E+03    -224.833E-03     449.864E-03    -225.030E-03     10.2421E-03    -224.949E-03     448.935E-03    -225.117E-03     9.53116E-03
             673     1.43723E-03     116.425E-03    -134.279E+06    -255.736E+06    -123.908E+06     401.114E+03    -224.853E-03     449.780E-03    -224.927E-03     18.9830E-03    -224.999E-03     448.900E-03    -224.981E-03     17.7323E-03
             674     2.15636E-03     116.459E-03    -128.310E+06    -240.603E+06    -108.466E+06     239.833E+03    -224.968E-03     449.900E-03    -224.932E-03     27.6572E-03    -225.153E-03     449.091E-03    -224.940E-03     25.8127E-03
             675     2.87496E-03     116.503E-03    -120.792E+06    -219.815E+06    -89.4248E+06     853.537E+03    -225.177E-03     450.154E-03    -224.977E-03     35.9353E-03    -225.417E-03     449.444E-03    -224.930E-03     33.5317E-03
             676     3.59334E-03     116.560E-03    -112.555E+06    -196.454E+06    -69.1575E+06     1.22089E+06    -225.261E-03     450.290E-03    -225.029E-03     43.8409E-03    -225.564E-03     449.696E-03    -224.926E-03     40.8909E-03
             677     4.31221E-03     116.628E-03    -104.075E+06    -173.965E+06    -49.7623E+06     1.56124E+06    -225.284E-03     450.343E-03    -225.059E-03     51.1909E-03    -225.652E-03     449.868E-03    -224.904E-03     47.7043E-03
             678     5.03133E-03     116.705E-03    -95.0606E+06    -150.159E+06    -31.5330E+06     1.45684E+06    -225.408E-03     450.476E-03    -225.068E-03     58.1326E-03    -225.845E-03     450.134E-03    -224.871E-03     54.1159E-03
             679     5.75041E-03     116.793E-03    -85.9435E+06    -126.536E+06    -14.9797E+06     1.47864E+06    -225.580E-03     450.652E-03    -225.072E-03     64.4339E-03    -226.087E-03     450.448E-03    -224.838E-03     59.8799E-03
             680     6.46912E-03     116.888E-03    -77.7272E+06    -102.086E+06    -102.123E+03     1.53133E+06    -225.753E-03     450.825E-03    -225.071E-03     70.2918E-03    -226.342E-03     450.775E-03    -224.811E-03     65.1743E-03
             681     7.18846E-03     116.991E-03    -68.9752E+06    -72.8968E+06     14.5250E+06     1.53721E+06    -225.972E-03     451.040E-03    -225.068E-03     75.6754E-03    -226.652E-03     451.175E-03    -224.790E-03     69.9689E-03
             682     7.90636E-03     117.101E-03    -61.0261E+06    -41.3797E+06     28.2431E+06     2.06717E+06    -225.966E-03     451.024E-03    -225.058E-03     80.4848E-03    -226.752E-03     451.365E-03    -224.768E-03     74.1646E-03
             683     8.62595E-03     117.219E-03    -53.6709E+06    -2.95980E+06     42.0877E+06     2.92658E+06    -225.702E-03     450.724E-03    -225.021E-03     84.8984E-03    -226.617E-03     451.315E-03    -224.729E-03     77.9412E-03
             684     9.34592E-03     117.338E-03    -45.8165E+06     36.0857E+06     54.8363E+06     2.80797E+06    -225.679E-03     450.645E-03    -224.965E-03     88.6807E-03    -226.729E-03     451.501E-03    -224.677E-03     81.0085E-03
             685     10.0652E-03     117.464E-03    -38.3337E+06     59.3190E+06     63.7169E+06     1.74761E+06    -225.862E-03     450.786E-03    -224.924E-03     91.2368E-03    -227.025E-03     451.839E-03    -224.636E-03     82.7871E-03
             686     10.7847E-03     117.589E-03    -31.3356E+06     69.8101E+06     73.0593E+06     992.606E+03    -225.880E-03     450.798E-03    -224.918E-03     92.0555E-03    -227.132E-03     451.975E-03    -224.609E-03     82.8552E-03
             687     11.5029E-03     117.717E-03    -24.2520E+06     76.4257E+06     85.9886E+06     756.215E+03    -225.547E-03     450.486E-03    -224.939E-03     90.9737E-03    -226.870E-03     451.744E-03    -224.585E-03     81.0984E-03
             688     12.2230E-03     117.837E-03    -17.0827E+06     81.9848E+06     97.7315E+06     1.26600E+06    -225.143E-03     450.094E-03    -224.951E-03     86.4306E-03    -226.466E-03     451.364E-03    -224.556E-03     76.2036E-03
             689     12.9430E-03     117.949E-03    -10.7947E+06     88.5398E+06     103.321E+06     1.36599E+06    -224.887E-03     449.822E-03    -224.935E-03     82.1885E-03    -226.261E-03     451.173E-03    -224.531E-03     71.2141E-03
             690     13.6610E-03     118.055E-03    -5.38232E+06     93.1240E+06     102.239E+06     386.023E+03    -224.457E-03     449.354E-03    -224.897E-03     65.5150E-03    -225.571E-03     450.483E-03    -224.513E-03     55.7056E-03
             691     718.808E-06     117.890E-03    -137.757E+06    -268.514E+06    -135.322E+06     574.823E+03    -224.720E-03     449.705E-03    -224.985E-03     10.1465E-03    -224.831E-03     448.767E-03    -225.073E-03     9.44127E-03
             692     1.43757E-03     117.911E-03    -133.459E+06    -256.237E+06    -123.729E+06     814.893E+03    -224.964E-03     449.849E-03    -224.885E-03     18.7739E-03    -225.105E-03     448.965E-03    -224.938E-03     17.5195E-03
             693     2.15604E-03     117.944E-03    -128.218E+06    -241.376E+06    -107.666E+06     958.575E+03    -225.015E-03     449.956E-03    -224.941E-03     27.4067E-03    -225.200E-03     449.140E-03    -224.943E-03     25.5771E-03
             694     2.87492E-03     117.990E-03    -120.980E+06    -221.192E+06    -88.8343E+06     989.669E+03    -225.122E-03     450.108E-03    -224.986E-03     35.8443E-03    -225.361E-03     449.390E-03    -224.934E-03     33.4486E-03
             695     3.59366E-03     118.046E-03    -112.660E+06    -197.649E+06    -69.1179E+06     1.28101E+06    -225.238E-03     450.263E-03    -225.026E-03     43.8628E-03    -225.539E-03     449.664E-03    -224.921E-03     40.9121E-03
             696     4.31259E-03     118.113E-03    -103.697E+06    -174.692E+06    -49.4129E+06     1.36406E+06    -225.404E-03     450.467E-03    -225.063E-03     51.2953E-03    -225.770E-03     449.988E-03    -224.906E-03     47.7985E-03
             697     5.03114E-03     118.192E-03    -94.2857E+06    -150.836E+06    -31.1765E+06     1.66718E+06    -225.511E-03     450.598E-03    -225.087E-03     58.1370E-03    -225.944E-03     450.251E-03    -224.888E-03     54.1164E-03
             698     5.74988E-03     118.278E-03    -85.7022E+06    -127.148E+06    -14.7596E+06     1.80788E+06    -225.521E-03     450.612E-03    -225.091E-03     64.4554E-03    -226.026E-03     450.405E-03    -224.857E-03     59.9063E-03
             699     6.46934E-03     118.374E-03    -76.8386E+06    -102.578E+06     551.774E+03     1.85462E+06    -225.696E-03     450.779E-03    -225.083E-03     70.3491E-03    -226.279E-03     450.723E-03    -224.820E-03     65.2527E-03
             700     7.18786E-03     118.477E-03    -68.7551E+06    -74.3046E+06     14.5958E+06     2.43813E+06    -225.849E-03     450.917E-03    -225.068E-03     76.0109E-03    -226.527E-03     451.044E-03    -224.787E-03     70.3391E-03
             701     7.90740E-03     118.588E-03    -61.3298E+06    -42.8559E+06     28.1643E+06     2.94001E+06    -225.843E-03     450.887E-03    -225.044E-03     81.0631E-03    -226.631E-03     451.224E-03    -224.752E-03     74.7640E-03
             702     8.62668E-03     118.702E-03    -52.9782E+06    -4.40079E+06     42.2793E+06     3.10248E+06    -225.852E-03     450.859E-03    -225.007E-03     85.0672E-03    -226.763E-03     451.444E-03    -224.712E-03     78.1012E-03
             703     9.34574E-03     118.825E-03     -44.959E+06     37.1681E+06     55.7491E+06     2.86411E+06    -225.870E-03     450.835E-03    -224.966E-03     88.2402E-03    -226.917E-03     451.693E-03    -224.676E-03     80.5523E-03
             704     10.0652E-03     118.948E-03    -37.7744E+06     61.3468E+06     64.8824E+06     2.08225E+06    -225.919E-03     450.855E-03    -224.936E-03     90.6562E-03    -227.081E-03     451.912E-03    -224.645E-03     82.2030E-03
             705     10.7835E-03     119.077E-03    -30.8646E+06     69.9197E+06     73.6245E+06     1.56856E+06    -225.841E-03     450.773E-03    -224.932E-03     91.8841E-03    -227.092E-03     451.949E-03    -224.621E-03     82.6866E-03
             706     11.5035E-03     119.201E-03    -24.4643E+06     76.8631E+06     86.5945E+06     1.45366E+06    -225.625E-03     450.579E-03    -224.954E-03     90.9011E-03    -226.951E-03     451.840E-03    -224.597E-03     81.0270E-03
             707     12.2225E-03     119.324E-03    -18.1378E+06     81.6254E+06     97.4358E+06     970.337E+03    -225.240E-03     450.209E-03    -224.969E-03     86.2290E-03    -226.567E-03     451.479E-03    -224.574E-03     75.9799E-03
             708     12.9407E-03     119.434E-03    -11.2869E+06     88.2676E+06     102.894E+06     837.615E+03    -224.669E-03     449.618E-03    -224.949E-03     82.1764E-03    -226.050E-03     450.974E-03    -224.546E-03     71.1533E-03
             709     13.6617E-03     119.540E-03    -5.03954E+06     94.3221E+06     103.324E+06     1.01830E+06    -224.245E-03     449.148E-03    -224.903E-03     65.4909E-03    -225.361E-03     450.281E-03    -224.516E-03     55.7017E-03
             710     718.742E-06     119.376E-03    -137.355E+06    -269.669E+06    -135.102E+06     63.5130E+03    -224.890E-03     449.820E-03    -224.929E-03     10.2329E-03    -224.998E-03     448.874E-03    -225.015E-03     9.54693E-03
             711     1.43724E-03     119.397E-03    -133.914E+06    -258.089E+06    -124.343E+06     763.278E+03    -225.028E-03     449.969E-03    -224.941E-03     18.7100E-03    -225.167E-03     449.077E-03    -224.995E-03     17.4477E-03
             712     2.15599E-03     119.430E-03    -128.094E+06    -242.517E+06    -107.610E+06     1.19963E+06    -225.075E-03     450.075E-03    -225.000E-03     27.4628E-03    -225.258E-03     449.254E-03    -225.001E-03     25.6281E-03
             713     2.87458E-03     119.475E-03    -120.751E+06    -221.847E+06    -88.4622E+06     1.28131E+06    -225.067E-03     450.102E-03    -225.034E-03     35.7532E-03    -225.305E-03     449.380E-03    -224.980E-03     33.3572E-03
             714     3.59371E-03     119.531E-03    -112.427E+06    -198.636E+06    -68.7606E+06     1.36525E+06    -225.189E-03     450.244E-03    -225.055E-03     43.6129E-03    -225.488E-03     449.638E-03    -224.947E-03     40.6707E-03
             715     4.31221E-03     119.600E-03    -103.635E+06    -175.546E+06    -49.3532E+06     1.62487E+06    -225.365E-03     450.444E-03    -225.079E-03     51.1364E-03    -225.729E-03     449.960E-03    -224.921E-03     47.6559E-03
             716     5.03112E-03     119.677E-03    -95.1418E+06    -152.029E+06    -31.4500E+06     1.73752E+06    -225.442E-03     450.536E-03    -225.094E-03     58.1501E-03    -225.876E-03     450.184E-03    -224.893E-03     54.1354E-03
             717     5.75031E-03     119.764E-03    -85.8905E+06    -128.098E+06    -14.6451E+06     1.95071E+06    -225.587E-03     450.685E-03    -225.097E-03     64.5703E-03    -226.093E-03     450.473E-03    -224.860E-03     60.0213E-03
             718     6.46889E-03     119.859E-03    -77.6305E+06    -103.949E+06     297.597E+03     2.49516E+06    -225.676E-03     450.766E-03    -225.090E-03     70.4633E-03    -226.261E-03     450.706E-03    -224.825E-03     65.3690E-03
             719     7.18840E-03     119.963E-03    -69.5638E+06    -75.5979E+06     14.3820E+06     2.65247E+06    -225.660E-03     450.726E-03    -225.066E-03     75.6805E-03    -226.339E-03     450.847E-03    -224.783E-03     70.0039E-03
             720     7.90785E-03     120.072E-03    -60.6119E+06    -43.7271E+06     28.4493E+06     2.75958E+06    -225.846E-03     450.881E-03    -225.036E-03     80.3002E-03    -226.626E-03     451.208E-03    -224.742E-03     74.0009E-03
             721     8.62653E-03     120.190E-03    -52.9214E+06    -5.64908E+06     42.1137E+06     3.16535E+06    -226.111E-03     451.123E-03    -225.012E-03     84.4513E-03    -227.017E-03     451.699E-03    -224.717E-03     77.4761E-03
             722     9.34531E-03     120.309E-03    -45.5402E+06     37.4240E+06     55.8763E+06     3.32548E+06    -226.065E-03     451.055E-03    -224.990E-03     88.1678E-03    -227.116E-03     451.915E-03    -224.699E-03     80.4736E-03
             723     10.0640E-03     120.436E-03    -38.0724E+06     62.9364E+06     65.4072E+06     2.79077E+06    -225.790E-03     450.751E-03    -224.961E-03     90.9532E-03    -226.957E-03     451.816E-03    -224.670E-03     82.5244E-03
             724     10.7844E-03     120.561E-03    -31.3981E+06     70.2902E+06     73.7535E+06     2.14504E+06    -225.657E-03     450.601E-03    -224.944E-03     92.0793E-03    -226.910E-03     451.779E-03    -224.632E-03     82.9155E-03
             725     11.5031E-03     120.689E-03    -24.4725E+06     76.4180E+06     86.4755E+06     2.15931E+06    -225.582E-03     450.539E-03    -224.956E-03     91.2545E-03    -226.909E-03     451.799E-03    -224.599E-03     81.4028E-03
             726     12.2218E-03     120.809E-03    -17.7897E+06     82.6644E+06     98.0140E+06     2.11372E+06    -225.239E-03     450.208E-03    -224.969E-03     86.8226E-03    -226.571E-03     451.486E-03    -224.573E-03     76.6020E-03
             727     12.9428E-03     120.919E-03    -11.9037E+06     89.4499E+06     103.564E+06     1.19770E+06    -224.962E-03     449.919E-03    -224.957E-03     82.4462E-03    -226.349E-03     451.281E-03    -224.551E-03     71.4356E-03
             728     13.6609E-03     121.026E-03    -5.81260E+06     94.8917E+06     103.283E+06     550.163E+03    -224.243E-03     449.159E-03    -224.916E-03     65.0949E-03    -225.362E-03     450.294E-03    -224.529E-03     55.2889E-03
             729     718.487E-06     120.862E-03    -137.025E+06    -270.984E+06    -135.201E+06     573.609E+03    -225.179E-03     450.013E-03    -224.833E-03     10.3901E-03    -225.284E-03     449.061E-03    -224.918E-03     9.70502E-03
             730     1.43728E-03     120.882E-03    -134.199E+06    -259.778E+06    -124.443E+06     784.171E+03    -225.022E-03     450.039E-03    -225.017E-03     18.8230E-03    -225.161E-03     449.140E-03    -225.068E-03     17.5683E-03
             731     2.15587E-03     120.916E-03    -128.179E+06    -243.736E+06    -108.001E+06     987.503E+03    -225.066E-03     450.110E-03    -225.044E-03     27.4979E-03    -225.247E-03     449.284E-03    -225.045E-03     25.6648E-03
             732     2.87469E-03     120.960E-03    -120.615E+06    -223.143E+06    -88.6082E+06     1.37176E+06    -225.168E-03     450.244E-03    -225.076E-03     35.8116E-03    -225.403E-03     449.516E-03    -225.021E-03     33.4173E-03
             733     3.59306E-03     121.017E-03    -112.501E+06    -199.788E+06    -68.6326E+06     1.81028E+06    -225.200E-03     450.301E-03    -225.101E-03     43.7760E-03    -225.498E-03     449.690E-03    -224.992E-03     40.8347E-03
             734     4.31223E-03     121.085E-03    -104.143E+06    -176.919E+06    -49.2694E+06     2.07773E+06    -225.200E-03     450.307E-03    -225.107E-03     51.2057E-03    -225.565E-03     449.817E-03    -224.945E-03     47.7327E-03
             735     5.03132E-03     121.163E-03    -95.1335E+06    -152.859E+06    -31.0635E+06     2.28240E+06    -225.397E-03     450.499E-03    -225.102E-03     58.1053E-03    -225.831E-03     450.143E-03    -224.898E-03     54.0998E-03
             736     5.75000E-03     121.250E-03    -86.6112E+06    -129.520E+06    -14.8543E+06     2.63252E+06    -225.626E-03     450.730E-03    -225.103E-03     64.4622E-03    -226.133E-03     450.512E-03    -224.864E-03     59.9203E-03
             737     6.46919E-03     121.345E-03    -77.8110E+06    -105.012E+06     162.910E+03     2.69743E+06    -225.754E-03     450.856E-03    -225.102E-03     70.1852E-03    -226.338E-03     450.791E-03    -224.836E-03     65.0853E-03
             738     7.18808E-03     121.448E-03    -69.0918E+06    -76.2607E+06     14.5769E+06     2.76839E+06    -225.922E-03     451.017E-03    -225.095E-03     75.3712E-03    -226.597E-03     451.134E-03    -224.811E-03     69.6835E-03
             739     7.90649E-03     121.559E-03    -61.5465E+06    -45.0905E+06     28.0600E+06     3.14648E+06    -225.983E-03     451.065E-03    -225.082E-03     80.1687E-03    -226.765E-03     451.387E-03    -224.787E-03     73.8672E-03
             740     8.62602E-03     121.674E-03    -53.7435E+06    -6.92144E+06     41.8239E+06     3.46381E+06    -225.872E-03     450.924E-03    -225.052E-03     84.5721E-03    -226.779E-03     451.494E-03    -224.755E-03     77.6243E-03
             741     9.34524E-03     121.797E-03    -45.7399E+06     36.6600E+06     55.7762E+06     3.72589E+06    -225.795E-03     450.800E-03    -225.005E-03     88.3308E-03    -226.844E-03     451.656E-03    -224.713E-03     80.6696E-03
             742     10.0651E-03     121.920E-03    -38.7338E+06     63.4969E+06     65.5925E+06     3.85234E+06    -225.795E-03     450.760E-03    -224.965E-03     90.9560E-03    -226.967E-03     451.829E-03    -224.673E-03     82.5443E-03
             743     10.7836E-03     122.048E-03    -32.1323E+06     71.5596E+06     74.2086E+06     3.31267E+06    -225.681E-03     450.631E-03    -224.950E-03     92.0620E-03    -226.939E-03     451.813E-03    -224.636E-03     82.9220E-03
             744     11.5032E-03     122.173E-03    -25.7872E+06     76.9855E+06     86.4881E+06     2.19643E+06    -225.406E-03     450.363E-03    -224.957E-03     91.1044E-03    -226.736E-03     451.624E-03    -224.599E-03     81.2760E-03
             745     12.2238E-03     122.295E-03    -18.7286E+06     83.3318E+06     98.2073E+06     1.37523E+06    -225.348E-03     450.317E-03    -224.969E-03     86.3162E-03    -226.682E-03     451.596E-03    -224.572E-03     76.0750E-03
             746     12.9410E-03     122.406E-03    -11.5693E+06     90.6811E+06     104.289E+06     1.37448E+06    -224.907E-03     449.867E-03    -224.960E-03     82.0948E-03    -226.294E-03     451.233E-03    -224.554E-03     71.0766E-03
             747     13.6602E-03     122.513E-03    -5.69217E+06     95.9620E+06     103.821E+06     1.00437E+06    -223.994E-03     448.906E-03    -224.912E-03     65.4771E-03    -225.119E-03     450.050E-03    -224.524E-03     55.6589E-03
             748     718.682E-06     122.347E-03    -138.223E+06    -272.822E+06    -134.766E+06     351.126E+03    -225.215E-03     450.043E-03    -224.829E-03     10.3650E-03    -225.323E-03     449.083E-03    -224.906E-03     9.68163E-03
             749     1.43710E-03     122.368E-03    -133.779E+06    -261.170E+06    -124.266E+06     772.985E+03    -225.052E-03     450.088E-03    -225.035E-03     18.9168E-03    -225.187E-03     449.180E-03    -225.084E-03     17.6549E-03
             750     2.15583E-03     122.401E-03    -128.011E+06    -245.235E+06    -107.798E+06     1.26164E+06    -225.097E-03     450.163E-03    -225.066E-03     27.5755E-03    -225.275E-03     449.329E-03    -225.064E-03     25.7473E-03
             751     2.87445E-03     122.447E-03    -120.970E+06    -224.987E+06    -88.5536E+06     1.61284E+06    -225.142E-03     450.237E-03    -225.095E-03     35.9354E-03    -225.376E-03     449.500E-03    -225.036E-03     33.5452E-03
             752     3.59343E-03     122.503E-03    -112.758E+06    -201.686E+06    -68.9123E+06     2.02974E+06    -225.184E-03     450.294E-03    -225.110E-03     43.8286E-03    -225.481E-03     449.675E-03    -224.998E-03     40.8829E-03
             753     4.31219E-03     122.570E-03    -103.707E+06    -178.260E+06    -49.1397E+06     2.55593E+06    -225.315E-03     450.436E-03    -225.121E-03     51.1778E-03    -225.676E-03     449.939E-03    -224.958E-03     47.7016E-03
             754     5.03101E-03     122.648E-03    -95.0192E+06    -154.473E+06    -31.0975E+06     3.07400E+06    -225.472E-03     450.601E-03    -225.129E-03     58.0147E-03    -225.903E-03     450.236E-03    -224.923E-03     54.0201E-03
             755     5.75005E-03     122.736E-03    -86.3238E+06    -130.374E+06    -14.5971E+06     3.18203E+06    -225.645E-03     450.779E-03    -225.133E-03     64.3049E-03    -226.148E-03     450.555E-03    -224.892E-03     59.7777E-03
             756     6.46885E-03     122.831E-03    -77.7922E+06    -105.956E+06     284.803E+03     3.40988E+06    -225.855E-03     450.991E-03    -225.136E-03     70.0679E-03    -226.437E-03     450.919E-03    -224.868E-03     64.9848E-03
             757     7.18752E-03     122.935E-03    -70.1053E+06    -77.6676E+06     14.3523E+06     3.89071E+06    -225.944E-03     451.076E-03    -225.131E-03     75.5844E-03    -226.622E-03     451.187E-03    -224.845E-03     69.9221E-03
             758     7.90699E-03     123.044E-03    -62.1212E+06    -45.7568E+06     28.2076E+06     3.85005E+06    -225.937E-03     451.050E-03    -225.113E-03     80.5724E-03    -226.722E-03     451.370E-03    -224.816E-03     74.2906E-03
             759     8.62567E-03     123.161E-03    -54.0230E+06    -7.56132E+06     41.9289E+06     3.51892E+06    -225.834E-03     450.909E-03    -225.075E-03     84.7316E-03    -226.743E-03     451.477E-03    -224.776E-03     77.7834E-03
             760     9.34546E-03     123.281E-03    -46.5158E+06     34.3012E+06     55.0790E+06     4.09138E+06    -225.738E-03     450.760E-03    -225.023E-03     88.1117E-03    -226.785E-03     451.604E-03    -224.730E-03     80.4633E-03
             761     10.0643E-03     123.407E-03    -39.1024E+06     62.7887E+06     65.2408E+06     4.86850E+06    -225.726E-03     450.703E-03    -224.976E-03     90.6381E-03    -226.894E-03     451.765E-03    -224.684E-03     82.2572E-03
             762     10.7840E-03     123.533E-03    -31.9744E+06     73.7248E+06     74.9862E+06     4.19928E+06    -225.693E-03     450.653E-03    -224.960E-03     91.8643E-03    -226.954E-03     451.845E-03    -224.646E-03     82.7315E-03
             763     11.5034E-03     123.659E-03    -24.8406E+06     79.2811E+06     87.9717E+06     2.89659E+06    -225.628E-03     450.605E-03    -224.977E-03     90.8460E-03    -226.958E-03     451.873E-03    -224.616E-03     81.0115E-03
             764     12.2210E-03     123.781E-03    -18.3575E+06     84.7225E+06     99.0466E+06     1.71448E+06    -225.062E-03     450.048E-03    -224.986E-03     86.6115E-03    -226.398E-03     451.332E-03    -224.587E-03     76.3978E-03
             765     12.9417E-03     123.893E-03    -12.3725E+06     90.4507E+06     103.689E+06     744.639E+03    -224.350E-03     449.299E-03    -224.949E-03     82.3841E-03    -225.741E-03     450.667E-03    -224.544E-03     71.3865E-03
             766     13.6631E-03     123.994E-03    -5.42099E+06     96.6812E+06     104.165E+06     606.470E+03    -224.091E-03     448.981E-03    -224.890E-03     65.3330E-03    -225.214E-03     450.126E-03    -224.502E-03     55.5177E-03
             767     718.537E-06     123.834E-03    -138.112E+06    -274.640E+06    -135.198E+06     669.021E+03    -225.064E-03     450.047E-03    -224.983E-03     10.3278E-03    -225.168E-03     449.078E-03    -225.061E-03     9.64338E-03
             768     1.43731E-03     123.853E-03    -134.204E+06    -262.978E+06    -124.056E+06     913.986E+03    -225.094E-03     450.141E-03    -225.048E-03     18.8554E-03    -225.227E-03     449.225E-03    -225.092E-03     17.6122E-03
             769     2.15588E-03     123.887E-03    -128.418E+06    -247.110E+06    -108.128E+06     1.35856E+06    -225.107E-03     450.191E-03    -225.084E-03     27.4815E-03    -225.284E-03     449.348E-03    -225.080E-03     25.6514E-03
             770     2.87455E-03     123.932E-03    -121.249E+06    -226.886E+06    -89.1340E+06     1.96410E+06    -225.098E-03     450.202E-03    -225.104E-03     35.8182E-03    -225.330E-03     449.456E-03    -225.045E-03     33.4258E-03
             771     3.59335E-03     123.989E-03    -112.676E+06    -203.422E+06    -68.7669E+06     2.31824E+06    -225.241E-03     450.361E-03    -225.120E-03     43.7027E-03    -225.535E-03     449.732E-03    -225.006E-03     40.7619E-03
             772     4.31209E-03     124.056E-03    -103.766E+06    -180.478E+06    -49.3694E+06     2.78336E+06    -225.453E-03     450.598E-03    -225.145E-03     51.1384E-03    -225.811E-03     450.090E-03    -224.980E-03     47.6671E-03
             773     5.03080E-03     124.134E-03    -94.6393E+06    -156.414E+06    -31.1822E+06     3.44159E+06    -225.598E-03     450.766E-03    -225.168E-03     57.9836E-03    -226.023E-03     450.390E-03    -224.960E-03     53.9968E-03
             774     5.74967E-03     124.221E-03    -85.8761E+06    -131.890E+06    -14.4846E+06     4.18131E+06    -225.691E-03     450.869E-03    -225.179E-03     64.2743E-03    -226.189E-03     450.637E-03    -224.935E-03     59.7660E-03
             775     6.46847E-03     124.317E-03    -77.9857E+06    -107.628E+06     601.969E+03     4.58047E+06    -225.751E-03     450.926E-03    -225.175E-03     70.1580E-03    -226.332E-03     450.846E-03    -224.903E-03     65.0977E-03
             776     7.18779E-03     124.420E-03    -69.4864E+06    -79.0295E+06     15.0231E+06     4.73354E+06    -225.827E-03     450.983E-03    -225.156E-03     75.5828E-03    -226.500E-03     451.085E-03    -224.865E-03     69.9420E-03
             777     7.90654E-03     124.531E-03    -61.3548E+06    -46.2683E+06     28.8106E+06     4.90813E+06    -225.903E-03     451.030E-03    -225.127E-03     80.3676E-03    -226.683E-03     451.344E-03    -224.826E-03     74.1052E-03
             778     8.62610E-03     124.646E-03    -53.9327E+06    -6.86475E+06     42.6493E+06     4.42852E+06    -225.954E-03     451.045E-03    -225.091E-03     84.5102E-03    -226.863E-03     451.614E-03    -224.790E-03     77.5718E-03
             779     9.34454E-03     124.767E-03    -46.2639E+06     31.6517E+06     55.0734E+06     4.20835E+06    -225.856E-03     450.904E-03    -225.048E-03     88.1297E-03    -226.898E-03     451.735E-03    -224.752E-03     80.4797E-03
             780     10.0643E-03     124.892E-03    -38.5067E+06     60.4709E+06     65.3705E+06     5.13107E+06    -225.728E-03     450.732E-03    -225.004E-03     90.6758E-03    -226.889E-03     451.781E-03    -224.709E-03     82.3015E-03
             781     10.7838E-03     125.018E-03    -31.3370E+06     76.2077E+06     76.0386E+06     4.93050E+06    -225.723E-03     450.708E-03    -224.985E-03     91.7264E-03    -226.984E-03     451.907E-03    -224.670E-03     82.6125E-03
             782     11.5022E-03     125.145E-03    -25.0010E+06     81.2996E+06     88.5207E+06     3.62223E+06    -225.324E-03     450.315E-03    -224.992E-03     91.1226E-03    -226.661E-03     451.596E-03    -224.631E-03     81.3072E-03
             783     12.2230E-03     125.266E-03    -18.4159E+06     86.7999E+06     100.035E+06     2.56340E+06    -224.655E-03     449.635E-03    -224.980E-03     86.6553E-03    -225.997E-03     450.930E-03    -224.579E-03     76.4646E-03
             784     12.9431E-03     125.375E-03    -11.9160E+06     92.4511E+06     105.202E+06     1.31586E+06    -224.526E-03     449.465E-03    -224.939E-03     82.1411E-03    -225.917E-03     450.837E-03    -224.530E-03     71.1538E-03
             785     13.6597E-03     125.484E-03    -5.56836E+06     97.5595E+06     104.780E+06     324.769E+03    -224.245E-03     449.134E-03    -224.888E-03     65.0852E-03    -225.371E-03     450.281E-03    -224.498E-03     55.2517E-03
             786     718.634E-06     125.318E-03    -138.082E+06    -276.287E+06    -135.685E+06     304.922E+03    -225.007E-03     450.163E-03    -225.156E-03     10.2844E-03    -225.107E-03     449.186E-03    -225.234E-03     9.60642E-03
             787     1.43708E-03     125.340E-03    -134.305E+06    -265.062E+06    -124.710E+06     935.326E+03    -225.096E-03     450.189E-03    -225.093E-03     18.8630E-03    -225.227E-03     449.263E-03    -225.137E-03     17.6086E-03
             788     2.15558E-03     125.372E-03    -128.653E+06    -249.368E+06    -108.550E+06     1.61415E+06    -225.111E-03     450.225E-03    -225.114E-03     27.3854E-03    -225.285E-03     449.372E-03    -225.109E-03     25.5545E-03
             789     2.87452E-03     125.418E-03    -121.223E+06    -228.727E+06    -89.1774E+06     1.94278E+06    -225.189E-03     450.328E-03    -225.138E-03     35.6976E-03    -225.418E-03     449.573E-03    -225.077E-03     33.3093E-03
             790     3.59315E-03     125.474E-03    -112.963E+06    -205.623E+06    -69.1904E+06     2.46245E+06    -225.325E-03     450.491E-03    -225.165E-03     43.6188E-03    -225.616E-03     449.851E-03    -225.049E-03     40.6843E-03
             791     4.31193E-03     125.542E-03    -103.966E+06    -182.591E+06    -49.5160E+06     3.06265E+06    -225.477E-03     450.671E-03    -225.194E-03     51.0240E-03    -225.832E-03     450.152E-03    -225.026E-03     47.5640E-03
             792     5.03075E-03     125.620E-03    -94.8863E+06    -158.832E+06    -31.3577E+06     3.63852E+06    -225.619E-03     450.832E-03    -225.214E-03     57.9114E-03    -226.041E-03     450.445E-03    -225.003E-03     53.9317E-03
             793     5.74929E-03     125.707E-03    -86.1682E+06    -134.788E+06    -14.8484E+06     4.34356E+06    -225.659E-03     450.877E-03    -225.218E-03     64.2907E-03    -226.154E-03     450.631E-03    -224.972E-03     59.7839E-03
             794     6.46857E-03     125.802E-03    -76.8601E+06    -109.407E+06     986.693E+03     5.04624E+06    -225.743E-03     450.950E-03    -225.207E-03     70.1231E-03    -226.315E-03     450.858E-03    -224.932E-03     65.0752E-03
             795     7.18736E-03     125.906E-03    -68.5059E+06    -80.3408E+06     15.5454E+06     5.33164E+06    -225.877E-03     451.064E-03    -225.187E-03     75.3594E-03    -226.542E-03     451.156E-03    -224.893E-03     69.7306E-03
             796     7.90664E-03     126.016E-03    -60.4956E+06    -47.5953E+06     29.2744E+06     5.51014E+06    -225.941E-03     451.101E-03    -225.160E-03     80.1347E-03    -226.714E-03     451.405E-03    -224.857E-03     73.8853E-03
             797     8.62530E-03     126.132E-03    -52.5686E+06    -7.06018E+06     43.5317E+06     5.80931E+06    -225.895E-03     451.017E-03    -225.121E-03     84.3643E-03    -226.796E-03     451.580E-03    -224.817E-03     77.4575E-03
             798     9.34509E-03     126.253E-03    -45.6484E+06     30.4148E+06     55.6549E+06     5.99618E+06    -225.865E-03     450.941E-03    -225.076E-03     87.8900E-03    -226.901E-03     451.762E-03    -224.775E-03     80.2662E-03
             799     10.0641E-03     126.377E-03    -39.2571E+06     59.2630E+06     65.1500E+06     5.64897E+06    -225.842E-03     450.875E-03    -225.032E-03     90.6096E-03    -227.005E-03     451.920E-03    -224.736E-03     82.2365E-03
             800     10.7828E-03     126.505E-03    -32.3627E+06     77.1641E+06     75.9469E+06     5.32330E+06    -225.474E-03     450.479E-03    -225.005E-03     91.8899E-03    -226.742E-03     451.686E-03    -224.691E-03     82.7905E-03
             801     11.5033E-03     126.630E-03    -25.2137E+06     83.3719E+06     89.2539E+06     4.59778E+06    -225.028E-03     450.024E-03    -224.996E-03     90.7599E-03    -226.367E-03     451.311E-03    -224.634E-03     80.9703E-03
             802     12.2227E-03     126.751E-03    -18.5321E+06     88.9651E+06     101.130E+06     3.29079E+06    -224.894E-03     449.880E-03    -224.985E-03     86.0028E-03    -226.236E-03     451.178E-03    -224.582E-03     75.8148E-03
             803     12.9407E-03     126.863E-03    -11.5887E+06     95.5422E+06     107.207E+06     1.86701E+06    -224.651E-03     449.610E-03    -224.958E-03     81.9030E-03    -226.045E-03     450.991E-03    -224.544E-03     70.9215E-03
             804     13.6634E-03     126.967E-03    -5.91267E+06     99.3755E+06     106.256E+06     81.1739E+03    -224.075E-03     448.982E-03    -224.907E-03     64.7803E-03    -225.207E-03     450.137E-03    -224.511E-03     54.9317E-03
             805     718.392E-06     126.806E-03    -138.617E+06    -277.973E+06     -135.75E+06     528.534E+03    -225.041E-03     450.326E-03    -225.285E-03     10.2310E-03    -225.142E-03     449.342E-03    -225.359E-03     9.54356E-03
             806     1.43704E-03     126.825E-03    -135.129E+06    -267.216E+06    -125.235E+06     854.355E+03    -225.098E-03     450.257E-03    -225.159E-03     18.7804E-03    -225.229E-03     449.323E-03    -225.202E-03     17.5284E-03
             807     2.15594E-03     126.859E-03    -129.131E+06    -251.530E+06    -109.025E+06     1.25506E+06    -225.191E-03     450.360E-03    -225.170E-03     27.2942E-03    -225.363E-03     449.498E-03    -225.163E-03     25.4629E-03
             808     2.87418E-03     126.903E-03    -121.696E+06     -230.95E+06    -89.8889E+06     2.02949E+06    -225.306E-03     450.509E-03    -225.204E-03     35.5976E-03    -225.532E-03     449.745E-03    -225.142E-03     33.2100E-03
             809     3.59292E-03     126.961E-03    -113.588E+06    -207.897E+06    -69.7501E+06     2.57324E+06    -225.397E-03     450.635E-03    -225.238E-03     43.5536E-03    -225.686E-03     449.985E-03    -225.121E-03     40.6267E-03
             810     4.31156E-03     127.028E-03    -104.633E+06    -184.948E+06    -50.1061E+06     3.14992E+06    -225.497E-03     450.760E-03    -225.263E-03     50.9508E-03    -225.850E-03     450.230E-03    -225.093E-03     47.4959E-03
             811     5.03020E-03     127.106E-03    -95.6912E+06    -161.080E+06    -31.9960E+06     3.59387E+06    -225.527E-03     450.796E-03    -225.269E-03     57.7767E-03    -225.949E-03     450.398E-03    -225.056E-03     53.7959E-03
             812     5.74952E-03     127.193E-03    -86.5322E+06    -137.368E+06    -15.3342E+06     4.07219E+06    -225.676E-03     450.938E-03    -225.262E-03     64.0663E-03    -226.168E-03     450.680E-03    -225.014E-03     59.5599E-03
             813     6.46810E-03     127.289E-03    -77.7380E+06    -111.949E+06     -94.235E+03     4.72050E+06    -225.866E-03     451.119E-03    -225.253E-03     69.8652E-03    -226.436E-03     451.016E-03    -224.979E-03     64.8167E-03
             814     7.18712E-03     127.392E-03    -69.2519E+06    -82.2844E+06     14.5936E+06     5.29846E+06    -225.936E-03     451.175E-03    -225.238E-03     75.1253E-03    -226.600E-03     451.258E-03    -224.946E-03     69.4990E-03
             815     7.90592E-03     127.502E-03    -61.1287E+06    -49.9457E+06     28.6764E+06     6.04953E+06    -225.928E-03     451.140E-03    -225.212E-03     79.8780E-03    -226.698E-03     451.432E-03    -224.908E-03     73.6405E-03
             816     8.62540E-03     127.618E-03    -53.7786E+06     -9.5458E+06     42.7946E+06     7.16548E+06    -225.868E-03     451.037E-03    -225.169E-03     84.0162E-03    -226.768E-03     451.589E-03    -224.864E-03     77.1310E-03
             817     9.34429E-03     127.738E-03    -46.7035E+06     28.9635E+06     55.0129E+06     8.00930E+06    -225.834E-03     450.952E-03    -225.118E-03     87.6065E-03    -226.869E-03     451.765E-03    -224.817E-03     80.0234E-03
             818     10.0634E-03     127.864E-03    -39.7581E+06     60.6633E+06     65.4186E+06     7.55652E+06    -225.617E-03     450.680E-03    -225.063E-03     90.4021E-03    -226.783E-03     451.731E-03    -224.767E-03     82.0682E-03
             819     10.7836E-03     127.989E-03    -33.0191E+06     79.1701E+06     76.3261E+06     5.55292E+06    -225.369E-03     450.394E-03    -225.025E-03     91.3945E-03    -226.641E-03     451.608E-03    -224.710E-03     82.3009E-03
             820     11.5027E-03     128.115E-03    -25.6158E+06     84.2050E+06     89.4517E+06     3.91400E+06    -225.289E-03     450.310E-03    -225.021E-03     90.2716E-03    -226.627E-03     451.596E-03    -224.659E-03     80.4752E-03
             821     12.2216E-03     128.237E-03    -17.4698E+06     90.8491E+06     102.498E+06     3.46033E+06    -224.899E-03     449.919E-03    -225.020E-03     85.8932E-03    -226.239E-03     451.223E-03    -224.614E-03     75.7034E-03
             822     12.9428E-03     128.347E-03    -10.6716E+06     98.6024E+06     108.991E+06     2.40485E+06    -224.295E-03     449.278E-03    -224.983E-03     81.9606E-03    -225.691E-03     450.670E-03    -224.566E-03     71.0123E-03
             823     13.6589E-03     128.454E-03    -5.39474E+06     101.424E+06     107.427E+06     759.825E+03    -223.745E-03     448.656E-03    -224.911E-03     65.3704E-03    -224.880E-03     449.820E-03    -224.513E-03     55.5622E-03
             824     718.451E-06     128.291E-03    -140.035E+06    -280.398E+06    -137.460E+06     465.217E+03    -225.232E-03     450.516E-03    -225.283E-03     10.1966E-03    -225.335E-03     449.524E-03    -225.361E-03     9.49964E-03
             825     1.43698E-03     128.312E-03    -135.886E+06    -268.861E+06    -125.844E+06     915.981E+03    -225.240E-03     450.507E-03    -225.267E-03     18.5439E-03    -225.371E-03     449.566E-03    -225.309E-03     17.2975E-03
             826     2.15518E-03     128.344E-03    -130.138E+06    -253.457E+06    -109.702E+06     1.28310E+06    -225.259E-03     450.539E-03    -225.281E-03     27.1733E-03    -225.432E-03     449.669E-03    -225.273E-03     25.3450E-03
             827     2.87407E-03     128.390E-03    -122.873E+06    -233.542E+06    -90.9311E+06     1.76649E+06    -225.352E-03     450.653E-03    -225.301E-03     35.5127E-03    -225.579E-03     449.879E-03    -225.239E-03     33.1233E-03
             828     3.59257E-03     128.446E-03    -114.264E+06    -210.113E+06    -70.7038E+06     2.53302E+06    -225.462E-03     450.788E-03    -225.326E-03     43.4821E-03    -225.750E-03     450.130E-03    -225.210E-03     40.5560E-03
             829     4.31122E-03     128.515E-03    -105.518E+06    -187.031E+06    -51.0981E+06     2.89257E+06    -225.495E-03     450.838E-03    -225.342E-03     50.7952E-03    -225.848E-03     450.301E-03    -225.174E-03     47.3315E-03
             830     5.03023E-03     128.592E-03    -96.3266E+06    -163.242E+06    -32.9495E+06     3.28426E+06    -225.622E-03     450.966E-03    -225.344E-03     57.5377E-03    -226.041E-03     450.559E-03    -225.132E-03     53.5484E-03
             831     5.74869E-03     128.679E-03    -87.2278E+06    -140.040E+06    -16.3544E+06     4.07826E+06    -225.819E-03     451.164E-03    -225.345E-03     63.7578E-03    -226.307E-03     450.893E-03    -225.097E-03     59.2494E-03
             832     6.46767E-03     128.775E-03    -78.4390E+06    -114.385E+06    -1.05797E+06     4.78627E+06    -225.871E-03     451.208E-03    -225.337E-03     69.4484E-03    -226.438E-03     451.094E-03    -225.063E-03     64.4038E-03
             833     7.18650E-03     128.878E-03    -70.0514E+06    -85.1177E+06     13.4706E+06     5.65681E+06    -225.894E-03     451.207E-03    -225.313E-03     74.8971E-03    -226.555E-03     451.278E-03    -225.021E-03     69.2805E-03
             834     7.90558E-03     128.988E-03    -62.2680E+06    -53.3031E+06     27.3300E+06     6.71723E+06    -225.966E-03     451.247E-03    -225.281E-03     79.6401E-03    -226.733E-03     451.524E-03    -224.976E-03     73.4136E-03
             835     8.62448E-03     129.103E-03    -54.3624E+06    -13.6449E+06     41.4228E+06     8.09827E+06    -225.927E-03     451.165E-03    -225.237E-03     83.7260E-03    -226.820E-03     451.696E-03    -224.932E-03     76.8628E-03
             836     9.34370E-03     129.225E-03    -46.7481E+06     26.9019E+06     54.4341E+06     9.04595E+06    -225.694E-03     450.873E-03    -225.179E-03     87.2957E-03    -226.724E-03     451.674E-03    -224.878E-03     79.7387E-03
             837     10.0636E-03     129.348E-03    -39.4011E+06     62.5198E+06     65.8041E+06     8.36777E+06    -225.519E-03     450.631E-03    -225.112E-03     89.8375E-03    -226.682E-03     451.685E-03    -224.816E-03     81.5269E-03
             838     10.7824E-03     129.476E-03    -32.3011E+06     82.6138E+06     77.5620E+06     6.74543E+06    -225.446E-03     450.518E-03    -225.072E-03     90.8995E-03    -226.715E-03     451.741E-03    -224.757E-03     81.8297E-03
             839     11.5018E-03     129.601E-03    -25.7040E+06     87.0896E+06     90.8579E+06     4.66109E+06    -225.152E-03     450.220E-03    -225.068E-03     90.2354E-03    -226.496E-03     451.518E-03    -224.703E-03     80.4565E-03
             840     12.2220E-03     129.722E-03    -19.3087E+06     91.7388E+06     102.324E+06     2.47579E+06    -224.579E-03     449.628E-03    -225.049E-03     85.9330E-03    -225.929E-03     450.939E-03    -224.643E-03     75.7473E-03
             841     12.9400E-03     129.832E-03    -12.1211E+06     99.1566E+06     108.674E+06     2.07015E+06    -223.909E-03     448.900E-03    -224.991E-03     81.9447E-03    -225.315E-03     450.300E-03    -224.574E-03     70.9872E-03
             842     13.6641E-03     129.938E-03    -4.94366E+06     103.966E+06     109.171E+06     1.76156E+06    -223.579E-03     448.487E-03    -224.908E-03     65.2463E-03    -224.716E-03     449.659E-03    -224.506E-03     55.4840E-03
             843     718.367E-06     129.778E-03    -141.302E+06    -281.865E+06    -138.497E+06     81.6123E+03    -225.489E-03     450.720E-03    -225.231E-03     10.1985E-03    -225.594E-03     449.725E-03    -225.310E-03     9.49760E-03
             844     1.43650E-03     129.798E-03    -137.466E+06    -270.915E+06    -127.565E+06     707.612E+03    -225.382E-03     450.757E-03    -225.375E-03     18.6276E-03    -225.515E-03     449.811E-03    -225.421E-03     17.3674E-03
             845     2.15529E-03     129.831E-03    -131.507E+06    -255.497E+06    -111.040E+06     1.35021E+06    -225.395E-03     450.796E-03    -225.401E-03     27.2372E-03    -225.571E-03     449.920E-03    -225.395E-03     25.4016E-03
             846     2.87359E-03     129.876E-03    -124.153E+06    -235.343E+06    -91.8639E+06     1.74125E+06    -225.468E-03     450.893E-03    -225.425E-03     35.4437E-03    -225.697E-03     450.113E-03    -225.363E-03     33.0539E-03
             847     3.59217E-03     129.934E-03    -115.755E+06    -212.251E+06    -72.2838E+06     1.93806E+06    -225.511E-03     450.953E-03    -225.442E-03     43.2452E-03    -225.801E-03     450.288E-03    -225.328E-03     40.3042E-03
             848     4.31085E-03     130.000E-03    -106.629E+06    -189.149E+06    -52.7335E+06     2.56646E+06    -225.613E-03     451.065E-03    -225.452E-03     50.4670E-03    -225.965E-03     450.520E-03    -225.287E-03     46.9935E-03
             849     5.02937E-03     130.079E-03    -97.7060E+06    -165.573E+06    -34.4071E+06     3.24339E+06    -225.795E-03     451.257E-03    -225.462E-03     57.2607E-03    -226.215E-03     450.842E-03    -225.252E-03     53.2721E-03
             850     5.74811E-03     130.166E-03    -88.6749E+06    -142.621E+06    -17.7768E+06     3.74187E+06    -225.870E-03     451.334E-03    -225.464E-03     63.5133E-03    -226.359E-03     451.053E-03    -225.218E-03     59.0004E-03
             851     6.46675E-03     130.261E-03    -80.0100E+06    -117.253E+06    -2.64266E+06     4.62360E+06    -225.884E-03     451.332E-03    -225.448E-03     69.2125E-03    -226.452E-03     451.207E-03    -225.175E-03     64.1584E-03
             852     7.18582E-03     130.364E-03    -71.5132E+06    -88.2616E+06     11.7980E+06     5.54681E+06    -225.938E-03     451.355E-03    -225.417E-03     74.4878E-03    -226.596E-03     451.412E-03    -225.126E-03     68.8754E-03
             853     7.90492E-03     130.474E-03    -62.9579E+06    -57.5190E+06     25.4631E+06     6.75366E+06    -225.953E-03     451.331E-03    -225.378E-03     79.1744E-03    -226.712E-03     451.588E-03    -225.076E-03     72.9636E-03
             854     8.62377E-03     130.590E-03    -55.1606E+06    -18.8054E+06     39.4236E+06     8.50620E+06    -225.848E-03     451.173E-03    -225.325E-03     83.3379E-03    -226.732E-03     451.679E-03    -225.020E-03     76.4869E-03
             855     9.34322E-03     130.709E-03    -47.4567E+06     25.2926E+06     53.4841E+06     9.32734E+06    -225.730E-03     450.989E-03    -225.259E-03     86.7995E-03    -226.756E-03     451.781E-03    -224.960E-03     79.2506E-03
             856     10.0621E-03     130.835E-03    -39.9652E+06     64.0027E+06     65.3923E+06     8.61618E+06    -225.512E-03     450.699E-03    -225.187E-03     89.4033E-03    -226.674E-03     451.757E-03    -224.895E-03     81.1098E-03
             857     10.7819E-03     130.961E-03    -32.7096E+06     84.5142E+06     77.3710E+06     7.47106E+06    -225.136E-03     450.270E-03    -225.134E-03     90.8125E-03    -226.408E-03     451.502E-03    -224.822E-03     81.7731E-03
             858     11.5019E-03     131.086E-03    -25.6765E+06     90.4534E+06     92.0160E+06     6.34925E+06    -224.742E-03     449.849E-03    -225.107E-03     90.2042E-03    -226.090E-03     451.161E-03    -224.741E-03     80.4728E-03
             859     12.2210E-03     131.207E-03    -19.3137E+06     96.2463E+06     104.820E+06     4.42741E+06    -224.389E-03     449.463E-03    -225.074E-03     85.8110E-03    -225.746E-03     450.789E-03    -224.662E-03     75.6818E-03
             860     12.9430E-03     131.316E-03    -12.9901E+06     101.311E+06     110.188E+06     1.46008E+06    -224.172E-03     449.190E-03    -225.018E-03     81.2005E-03    -225.584E-03     450.596E-03    -224.595E-03     70.1998E-03
             861     13.6589E-03     131.422E-03    -6.16591E+06     104.760E+06     109.380E+06     645.914E+03    -223.584E-03     448.524E-03    -224.940E-03     64.3997E-03    -224.723E-03     449.696E-03    -224.536E-03     54.6186E-03
             862     718.255E-06     131.264E-03    -142.369E+06    -283.320E+06    -139.860E+06     839.573E+03    -225.462E-03     450.917E-03    -225.455E-03     9.98088E-03    -225.568E-03     449.918E-03    -225.537E-03     9.29859E-03
             863     1.43684E-03     131.285E-03    -138.896E+06    -272.478E+06    -128.648E+06     791.701E+03    -225.511E-03     450.993E-03    -225.482E-03     18.5453E-03    -225.648E-03     450.042E-03    -225.529E-03     17.2948E-03
             864     2.15478E-03     131.318E-03    -132.812E+06    -257.370E+06    -112.343E+06     982.255E+03    -225.630E-03     451.162E-03    -225.532E-03     27.0781E-03    -225.808E-03     450.280E-03    -225.528E-03     25.2339E-03
             865     2.87319E-03     131.364E-03    -125.146E+06    -237.018E+06    -93.2146E+06     1.51078E+06    -225.639E-03     451.214E-03    -225.576E-03     35.2856E-03    -225.869E-03     450.429E-03    -225.517E-03     32.8773E-03
             866     3.59158E-03     131.420E-03    -116.898E+06    -213.572E+06    -73.4284E+06     1.86827E+06    -225.666E-03     451.263E-03    -225.597E-03     42.9953E-03    -225.958E-03     450.594E-03    -225.485E-03     40.0460E-03
             867     4.31011E-03     131.488E-03    -108.255E+06    -191.673E+06    -54.3766E+06     2.14557E+06    -225.801E-03     451.412E-03    -225.611E-03     50.2852E-03    -226.155E-03     450.859E-03    -225.448E-03     46.8066E-03
             868     5.02857E-03     131.565E-03    -98.9366E+06    -167.948E+06    -36.0015E+06     2.88884E+06    -225.879E-03     451.497E-03    -225.618E-03     57.0362E-03    -226.298E-03     451.073E-03    -225.411E-03     53.0411E-03
             869     5.74723E-03     131.652E-03    -89.9637E+06    -144.857E+06    -19.3385E+06     3.55853E+06    -225.898E-03     451.508E-03    -225.610E-03     63.1621E-03    -226.387E-03     451.219E-03    -225.366E-03     58.6454E-03
             870     6.46617E-03     131.747E-03    -81.1744E+06    -120.262E+06    -4.36683E+06     4.03611E+06    -226.036E-03     451.624E-03    -225.588E-03     68.8199E-03    -226.601E-03     451.486E-03    -225.318E-03     63.7584E-03
             871     7.18477E-03     131.850E-03    -72.3760E+06    -91.8293E+06     9.87258E+06     5.12635E+06    -226.085E-03     451.645E-03    -225.560E-03     73.9709E-03    -226.737E-03     451.685E-03    -225.272E-03     68.3503E-03
             872     7.90335E-03     131.960E-03    -64.5883E+06    -61.8547E+06     23.3680E+06     6.50811E+06    -225.914E-03     451.431E-03    -225.516E-03     78.5965E-03    -226.669E-03     451.668E-03    -225.216E-03     72.3816E-03
             873     8.62304E-03     132.075E-03    -56.3734E+06    -24.0667E+06     37.2413E+06     7.89918E+06    -225.796E-03     451.246E-03    -225.451E-03     82.6655E-03    -226.670E-03     451.727E-03    -225.148E-03     75.8149E-03
             874     9.34192E-03     132.197E-03    -48.0869E+06     22.4766E+06     52.0038E+06     9.29958E+06    -225.624E-03     450.995E-03    -225.371E-03     86.2603E-03    -226.643E-03     451.772E-03    -225.074E-03     78.7222E-03
             875     10.0615E-03     132.320E-03    -40.7491E+06     65.2351E+06     64.8971E+06     9.30582E+06    -225.262E-03     450.541E-03    -225.279E-03     89.0137E-03    -226.427E-03     451.605E-03    -224.990E-03     80.7390E-03
             876     10.7812E-03     132.445E-03    -33.8101E+06     85.9596E+06     76.5200E+06     8.01897E+06    -224.934E-03     450.139E-03    -225.205E-03     90.2406E-03    -226.208E-03     451.376E-03    -224.898E-03     81.2188E-03
             877     11.5009E-03     132.571E-03    -26.6314E+06     93.0382E+06     92.1161E+06     6.28728E+06    -224.559E-03     449.728E-03    -225.168E-03     89.1471E-03    -225.908E-03     451.045E-03    -224.804E-03     79.4215E-03
             878     12.2219E-03     132.691E-03    -18.5243E+06     100.382E+06     107.219E+06     4.57363E+06    -224.194E-03     449.325E-03    -225.131E-03     84.9251E-03    -225.553E-03     450.663E-03    -224.713E-03     74.7783E-03
             879     12.9391E-03     132.803E-03    -11.4851E+06     105.005E+06     113.093E+06     3.07212E+06    -223.864E-03     448.925E-03    -225.061E-03     81.4257E-03    -225.281E-03     450.346E-03    -224.631E-03     70.4527E-03
             880     13.6616E-03     132.907E-03    -6.07628E+06     106.914E+06     110.842E+06     1.29489E+06    -223.190E-03     448.149E-03    -224.959E-03     65.3538E-03    -224.342E-03     449.337E-03    -224.551E-03     55.5753E-03
             881     718.152E-06     132.752E-03    -143.980E+06    -285.159E+06    -141.169E+06     210.198E+03    -225.639E-03     451.307E-03    -225.669E-03     10.1447E-03    -225.748E-03     450.303E-03    -225.752E-03     9.45863E-03
             882     1.43619E-03     132.772E-03    -139.442E+06    -273.544E+06    -129.687E+06     694.934E+03    -225.784E-03     451.476E-03    -225.692E-03     18.3388E-03    -225.920E-03     450.523E-03    -225.742E-03     17.0727E-03
             883     2.15451E-03     132.806E-03    -133.754E+06    -258.841E+06    -113.418E+06     928.108E+03    -225.778E-03     451.526E-03    -225.748E-03     26.7994E-03    -225.956E-03     450.640E-03    -225.746E-03     24.9547E-03
             884     2.87262E-03     132.850E-03    -126.431E+06    -238.798E+06    -94.7459E+06     1.10153E+06    -225.832E-03     451.611E-03    -225.780E-03     34.9643E-03    -226.063E-03     450.821E-03    -225.724E-03     32.5488E-03
             885     3.59097E-03     132.907E-03    -117.999E+06    -215.511E+06    -74.9457E+06     1.70760E+06    -225.929E-03     451.735E-03    -225.806E-03     42.6467E-03    -226.220E-03     451.060E-03    -225.697E-03     39.6880E-03
             886     4.30916E-03     132.975E-03    -109.248E+06    -193.091E+06    -55.3466E+06     2.18688E+06    -225.957E-03     451.782E-03    -225.825E-03     49.8354E-03    -226.311E-03     451.224E-03    -225.664E-03     46.3513E-03
             887     5.02770E-03     133.053E-03    -100.283E+06    -170.170E+06    -37.4423E+06     2.45829E+06    -225.976E-03     451.798E-03    -225.822E-03     56.5059E-03    -226.396E-03     451.366E-03    -225.617E-03     52.5014E-03
             888     5.74624E-03     133.139E-03    -91.0437E+06    -147.046E+06    -20.9443E+06     3.00612E+06    -226.117E-03     451.926E-03    -225.809E-03     62.5404E-03    -226.604E-03     451.628E-03    -225.568E-03     58.0093E-03
             889     6.46467E-03     133.235E-03    -82.1055E+06    -122.586E+06    -5.78247E+06     3.67637E+06    -226.180E-03     451.970E-03    -225.790E-03     68.1550E-03    -226.741E-03     451.822E-03    -225.522E-03     63.0856E-03
             890     7.18324E-03     133.338E-03    -73.8353E+06    -95.5041E+06     8.07030E+06     4.41519E+06    -226.093E-03     451.847E-03    -225.753E-03     73.2638E-03    -226.742E-03     451.871E-03    -225.467E-03     67.6281E-03
             891     7.90258E-03     133.446E-03    -64.9714E+06    -65.7983E+06     21.7541E+06     5.45947E+06    -226.027E-03     451.728E-03    -225.700E-03     77.8671E-03    -226.772E-03     451.945E-03    -225.402E-03     71.6359E-03
             892     8.62094E-03     133.562E-03    -56.5401E+06    -29.1554E+06     35.2952E+06     6.93300E+06    -225.786E-03     451.412E-03    -225.626E-03     81.9441E-03    -226.647E-03     451.867E-03    -225.326E-03     75.0836E-03
             893     9.34055E-03     133.682E-03    -48.7056E+06     17.3339E+06     50.1678E+06     8.77786E+06    -225.359E-03     450.886E-03    -225.527E-03     85.4296E-03    -226.366E-03     451.636E-03    -225.231E-03     77.8913E-03
             894     10.0604E-03     133.805E-03    -40.7487E+06     64.8614E+06     64.0468E+06     9.81573E+06    -225.066E-03     450.474E-03    -225.408E-03     87.9891E-03    -226.222E-03     451.530E-03    -225.123E-03     79.7297E-03
             895     10.7799E-03     133.931E-03    -33.3247E+06     89.1679E+06     76.4490E+06     8.48360E+06    -224.777E-03     450.093E-03    -225.315E-03     89.2691E-03    -226.046E-03     451.338E-03    -225.014E-03     80.2632E-03
             896     11.4998E-03     134.055E-03    -25.9362E+06     96.1015E+06     92.8572E+06     6.21155E+06    -224.366E-03     449.633E-03    -225.267E-03     88.7459E-03    -225.714E-03     450.961E-03    -224.904E-03     79.0211E-03
             897     12.2184E-03     134.176E-03    -19.1963E+06     102.090E+06     107.292E+06     4.88305E+06    -223.606E-03     448.809E-03    -225.202E-03     85.0094E-03    -224.971E-03     450.156E-03    -224.786E-03     74.8915E-03
             898     12.9418E-03     134.286E-03    -12.3152E+06     107.199E+06     113.707E+06     3.67207E+06    -222.912E-03     448.000E-03    -225.088E-03     81.5248E-03    -224.330E-03     449.425E-03    -224.657E-03     70.6607E-03
             899     13.6607E-03     134.390E-03    -4.82169E+06     110.744E+06     113.134E+06     1.96520E+06    -222.576E-03     447.522E-03    -224.946E-03     64.9216E-03    -223.722E-03     448.716E-03    -224.534E-03     55.2019E-03
             900     718.187E-06     134.240E-03    -143.543E+06    -285.760E+06    -141.397E+06     225.494E+03    -226.137E-03     452.040E-03    -225.903E-03     10.1597E-03    -226.243E-03     451.032E-03    -225.987E-03     9.44132E-03
             901     1.43574E-03     134.261E-03    -140.772E+06    -275.338E+06    -131.195E+06     509.676E+03    -226.044E-03     452.078E-03    -226.034E-03     18.0943E-03    -226.181E-03     451.119E-03    -226.087E-03     16.8292E-03
             902     2.15370E-03     134.293E-03    -134.867E+06    -259.864E+06    -114.830E+06     761.682E+03    -226.027E-03     452.087E-03    -226.059E-03     26.5105E-03    -226.207E-03     451.198E-03    -226.061E-03     24.6583E-03
             903     2.87185E-03     134.339E-03    -127.497E+06    -240.090E+06    -95.8843E+06     1.00232E+06    -226.119E-03     452.201E-03    -226.082E-03     34.5358E-03    -226.351E-03     451.407E-03    -226.029E-03     32.1111E-03
             904     3.58975E-03     134.395E-03    -119.243E+06    -217.658E+06    -76.1330E+06     1.38256E+06    -226.182E-03     452.289E-03    -226.107E-03     42.1438E-03    -226.475E-03     451.606E-03    -225.999E-03     39.1700E-03
             905     4.30793E-03     134.463E-03    -110.198E+06    -194.544E+06    -56.5458E+06     1.87517E+06    -226.190E-03     452.308E-03    -226.118E-03     49.1667E-03    -226.544E-03     451.744E-03    -225.959E-03     45.6672E-03
             906     5.02621E-03     134.540E-03    -101.124E+06    -171.522E+06    -38.4926E+06     2.18026E+06    -226.246E-03     452.360E-03    -226.113E-03     55.7459E-03    -226.665E-03     451.921E-03    -225.910E-03     51.7276E-03
             907     5.74452E-03     134.627E-03    -91.9687E+06    -149.035E+06    -22.1286E+06     2.45278E+06    -226.337E-03     452.435E-03    -226.099E-03     61.8115E-03    -226.821E-03     452.128E-03    -225.860E-03     57.2654E-03
             908     6.46279E-03     134.722E-03    -83.1320E+06    -124.839E+06    -7.13832E+06     2.88691E+06    -226.275E-03     452.345E-03    -226.069E-03     67.2504E-03    -226.834E-03     452.185E-03    -225.803E-03     62.1629E-03
             909     7.18176E-03     134.824E-03    -74.3313E+06    -98.2955E+06     6.87702E+06     3.47666E+06    -226.164E-03     452.182E-03    -226.018E-03     72.2863E-03    -226.805E-03     452.191E-03    -225.733E-03     66.6368E-03
             910     7.89997E-03     134.934E-03    -65.9969E+06    -69.6597E+06     20.0373E+06     4.47737E+06    -226.014E-03     451.962E-03    -225.948E-03     76.9066E-03    -226.751E-03     452.160E-03    -225.651E-03     70.6623E-03
             911     8.61943E-03     135.048E-03    -57.8968E+06    -33.3375E+06     33.5432E+06     5.53652E+06    -225.702E-03     451.556E-03    -225.855E-03     80.9299E-03    -226.555E-03     451.989E-03    -225.555E-03     74.0498E-03
             912     9.33873E-03     135.167E-03    -49.6072E+06     11.0854E+06     48.1051E+06     7.28233E+06    -225.327E-03     451.065E-03    -225.738E-03     84.3720E-03    -226.319E-03     451.781E-03    -225.442E-03     76.8186E-03
             913     10.0580E-03     135.291E-03    -41.6642E+06     61.8258E+06     62.4390E+06     9.09409E+06    -224.798E-03     450.393E-03    -225.595E-03     87.1011E-03    -225.944E-03     451.430E-03    -225.312E-03     78.8485E-03
             914     10.7781E-03     135.415E-03    -34.1600E+06     92.3679E+06     75.4571E+06     8.78233E+06    -224.203E-03     449.662E-03    -225.459E-03     88.6626E-03    -225.473E-03     450.920E-03    -225.166E-03     79.6932E-03
             915     11.4983E-03     135.540E-03    -27.5500E+06     98.3555E+06     91.1728E+06     7.33785E+06    -223.603E-03     448.963E-03    -225.360E-03     88.5693E-03    -224.954E-03     450.301E-03    -225.007E-03     78.9227E-03
             916     12.2204E-03     135.659E-03    -20.4754E+06     103.938E+06     106.840E+06     5.65077E+06    -223.050E-03     448.308E-03    -225.257E-03     84.5899E-03    -224.414E-03     449.658E-03    -224.844E-03     74.5512E-03
             917     12.9390E-03     135.767E-03    -12.8879E+06     111.069E+06     115.390E+06     3.71500E+06    -222.525E-03     447.646E-03    -225.122E-03     80.9504E-03    -223.948E-03     449.083E-03    -224.687E-03     70.1096E-03
             918     13.6613E-03     135.875E-03    -6.30351E+06     114.535E+06     114.957E+06     1.69679E+06    -222.019E-03     446.976E-03    -224.957E-03     64.6139E-03    -223.180E-03     448.188E-03    -224.539E-03     54.9085E-03
             919     717.052E-06     135.729E-03    -144.434E+06    -287.272E+06    -142.235E+06     544.057E+03    -226.569E-03     452.971E-03    -226.402E-03     9.89810E-03    -226.676E-03     451.958E-03    -226.487E-03     9.17927E-03
             920     1.43531E-03     135.750E-03    -140.900E+06    -276.340E+06    -131.285E+06     625.599E+03    -226.380E-03     452.857E-03    -226.477E-03     17.9164E-03    -226.517E-03     451.894E-03    -226.529E-03     16.6334E-03
             921     2.15291E-03     135.783E-03    -135.208E+06    -260.285E+06    -115.291E+06     571.771E+03    -226.500E-03     452.984E-03    -226.484E-03     26.1172E-03    -226.680E-03     452.094E-03    -226.487E-03     24.2514E-03
             922     2.87050E-03     135.828E-03    -127.845E+06    -241.369E+06    -96.2394E+06     667.215E+03    -226.489E-03     453.001E-03    -226.512E-03     34.0250E-03    -226.720E-03     452.200E-03    -226.458E-03     31.5844E-03
             923     3.58839E-03     135.884E-03    -119.421E+06    -219.258E+06    -76.5825E+06     1.11552E+06    -226.466E-03     452.985E-03    -226.519E-03     41.4913E-03    -226.754E-03     452.293E-03    -226.411E-03     38.5051E-03
             924     4.30633E-03     135.951E-03    -110.494E+06    -195.889E+06    -57.4787E+06     1.29229E+06    -226.559E-03     453.076E-03    -226.517E-03     48.4678E-03    -226.910E-03     452.506E-03    -226.360E-03     44.9455E-03
             925     5.02416E-03     136.029E-03    -101.290E+06    -173.003E+06    -39.2712E+06     1.59897E+06    -226.633E-03     453.146E-03    -226.513E-03     54.9184E-03    -227.046E-03     452.699E-03    -226.312E-03     50.8769E-03
             926     5.74219E-03     136.115E-03    -92.5515E+06    -150.296E+06    -22.9414E+06     1.78184E+06    -226.507E-03     452.996E-03    -226.489E-03     60.8351E-03    -226.988E-03     452.681E-03    -226.252E-03     56.2758E-03
             927     6.46069E-03     136.210E-03    -83.4820E+06    -126.924E+06    -8.11246E+06     2.07190E+06    -226.395E-03     452.833E-03    -226.437E-03     66.2103E-03    -226.946E-03     452.660E-03    -226.173E-03     61.1103E-03
             928     7.17868E-03     136.312E-03    -74.9521E+06    -100.884E+06     5.85881E+06     2.90616E+06    -226.248E-03     452.613E-03    -226.365E-03     71.2923E-03    -226.882E-03     452.606E-03    -226.081E-03     65.6304E-03
             929     7.89792E-03     136.421E-03    -66.7595E+06    -72.2675E+06     19.1017E+06     3.50378E+06    -225.951E-03     452.222E-03    -226.270E-03     75.8184E-03    -226.681E-03     452.403E-03    -225.973E-03     69.5612E-03
             930     8.61676E-03     136.534E-03    -58.5229E+06    -37.2801E+06     32.1932E+06     4.50124E+06    -225.605E-03     451.753E-03    -226.148E-03     79.7393E-03    -226.446E-03     452.161E-03    -225.848E-03     72.8635E-03
             931     9.33584E-03     136.654E-03    -51.0069E+06     4.56545E+06     45.9475E+06     6.52006E+06    -225.043E-03     451.043E-03    -225.999E-03     83.3777E-03    -226.021E-03     451.722E-03    -225.702E-03     75.8472E-03
             932     10.0560E-03     136.775E-03    -43.5534E+06     57.6703E+06     60.6957E+06     8.29895E+06    -224.245E-03     450.056E-03    -225.811E-03     86.4165E-03    -225.384E-03     451.069E-03    -225.528E-03     78.1981E-03
             933     10.7763E-03     136.900E-03    -36.1249E+06     93.0524E+06     73.9196E+06     8.75572E+06    -223.511E-03     449.126E-03    -225.615E-03     88.0987E-03    -224.781E-03     450.384E-03    -225.328E-03     79.1827E-03
             934     11.4976E-03     137.022E-03    -28.3673E+06     100.947E+06     89.5315E+06     7.58198E+06    -222.973E-03     448.435E-03    -225.462E-03     87.6940E-03    -224.320E-03     449.780E-03    -225.120E-03     78.0942E-03
             935     12.2177E-03     137.142E-03    -20.4926E+06     107.672E+06     107.017E+06     5.15261E+06    -222.432E-03     447.757E-03    -225.325E-03     83.9343E-03    -223.794E-03     449.118E-03    -224.916E-03     73.9229E-03
             936     12.9400E-03     137.252E-03    -13.1495E+06     114.537E+06     116.940E+06     3.03016E+06    -221.928E-03     447.089E-03    -225.160E-03     80.8520E-03    -223.359E-03     448.540E-03    -224.723E-03     70.0248E-03
             937     13.6607E-03     137.354E-03    -6.28977E+06     117.382E+06     116.211E+06     1.84188E+06    -221.125E-03     446.079E-03    -224.954E-03     65.1373E-03    -222.295E-03     447.306E-03    -224.534E-03     55.4590E-03
             938     717.549E-06     137.220E-03    -145.857E+06    -288.812E+06    -142.838E+06     170.742E+03    -227.153E-03     453.999E-03    -226.846E-03     9.63931E-03    -227.264E-03     452.982E-03    -226.930E-03     8.91333E-03
             939     1.43433E-03     137.240E-03    -141.663E+06    -276.987E+06    -131.955E+06     321.198E+03    -227.050E-03     454.074E-03    -227.024E-03     17.6793E-03    -227.189E-03     453.109E-03    -227.077E-03     16.3838E-03
             940     2.15161E-03     137.273E-03    -135.869E+06    -260.859E+06    -115.964E+06     391.838E+03    -227.031E-03     454.088E-03    -227.057E-03     25.6200E-03    -227.212E-03     453.197E-03    -227.061E-03     23.7332E-03
             941     2.86892E-03     137.318E-03    -128.493E+06    -242.051E+06    -97.1378E+06     411.212E+03    -226.956E-03     454.025E-03    -227.070E-03     33.3208E-03    -227.186E-03     453.222E-03    -227.018E-03     30.8656E-03
             942     3.58645E-03     137.374E-03    -119.999E+06    -220.303E+06    -77.6225E+06     346.323E+03    -226.934E-03     453.996E-03    -227.062E-03     40.6897E-03    -227.221E-03     453.300E-03    -226.957E-03     37.6828E-03
             943     4.30397E-03     137.442E-03    -111.006E+06    -196.984E+06    -58.3402E+06     650.020E+03    -226.994E-03     454.044E-03    -227.050E-03     47.5982E-03    -227.342E-03     453.468E-03    -226.895E-03     44.0577E-03
             944     5.02160E-03     137.519E-03    -101.889E+06    -174.184E+06    -40.1464E+06     840.514E+03    -226.953E-03     453.983E-03    -227.029E-03     53.8845E-03    -227.364E-03     453.530E-03    -226.830E-03     49.8220E-03
             945     5.73938E-03     137.605E-03    -92.6623E+06    -151.140E+06    -23.5010E+06     1.05757E+06    -226.756E-03     453.738E-03    -226.983E-03     59.6424E-03    -227.231E-03     453.416E-03    -226.747E-03     55.0601E-03
             946     6.45739E-03     137.699E-03    -84.0272E+06    -128.360E+06    -8.71900E+06     1.27096E+06    -226.489E-03     453.391E-03    -226.902E-03     65.0922E-03    -227.035E-03     453.208E-03    -226.638E-03     59.9836E-03
             947     7.17615E-03     137.801E-03    -74.9256E+06    -103.318E+06     5.07619E+06     1.60767E+06    -226.207E-03     452.998E-03    -226.792E-03     70.0832E-03    -226.829E-03     452.973E-03    -226.508E-03     64.4242E-03
             948     7.89448E-03     137.908E-03    -66.2873E+06    -75.2880E+06     18.1925E+06     2.76393E+06    -225.811E-03     452.465E-03    -226.654E-03     74.7138E-03    -226.525E-03     452.623E-03    -226.358E-03     68.4828E-03
             949     8.61347E-03     138.022E-03    -58.6756E+06    -41.6999E+06     31.1761E+06     4.40026E+06    -225.194E-03     451.677E-03    -226.482E-03     79.0214E-03    -226.021E-03     452.056E-03    -226.181E-03     72.1891E-03
             950     9.33349E-03     138.138E-03    -50.5810E+06    -360.757E+03     45.2613E+06     5.66948E+06    -224.468E-03     450.741E-03    -226.273E-03     82.8258E-03    -225.427E-03     451.388E-03    -225.973E-03     75.3427E-03
             951     10.0536E-03     138.261E-03    -42.2762E+06     51.4657E+06     60.2204E+06     7.79335E+06    -223.722E-03     449.750E-03    -226.028E-03     85.7659E-03    -224.835E-03     450.721E-03    -225.741E-03     77.6114E-03
             952     10.7747E-03     138.382E-03    -34.6239E+06     92.4866E+06     74.1358E+06     9.21726E+06    -223.007E-03     448.787E-03    -225.780E-03     87.3493E-03    -224.257E-03     450.027E-03    -225.493E-03     78.5129E-03
             953     11.4956E-03     138.506E-03    -27.6067E+06     105.532E+06     89.8669E+06     7.24848E+06    -222.259E-03     447.833E-03    -225.574E-03     87.4627E-03    -223.601E-03     449.191E-03    -225.238E-03     77.9315E-03
             954     12.2174E-03     138.624E-03    -20.1914E+06     110.918E+06     107.241E+06     4.99995E+06    -221.444E-03     446.826E-03    -225.381E-03     84.3257E-03    -222.807E-03     448.200E-03    -224.977E-03     74.3920E-03
             955     12.9391E-03     138.732E-03    -12.7939E+06     117.339E+06     117.770E+06     3.57851E+06    -220.725E-03     445.879E-03    -225.154E-03     81.6475E-03    -222.154E-03     447.338E-03    -224.717E-03     70.9614E-03
             956     13.6609E-03     138.839E-03    -6.02335E+06     120.198E+06     117.647E+06     1.72994E+06    -220.214E-03     445.107E-03    -224.893E-03     65.8698E-03    -221.386E-03     446.343E-03    -224.470E-03     56.2940E-03
             957     716.565E-06     138.712E-03    -146.663E+06    -288.831E+06    -144.626E+06    -194.115E+03    -227.856E-03     455.507E-03    -227.650E-03     9.22653E-03    -227.968E-03     454.492E-03    -227.742E-03     8.51700E-03
             958     1.43339E-03     138.733E-03    -143.037E+06    -277.714E+06    -133.748E+06     32.7374E+03    -227.764E-03     455.535E-03    -227.771E-03     17.1271E-03    -227.905E-03     454.570E-03    -227.830E-03     15.8286E-03
             959     2.14999E-03     138.766E-03    -137.281E+06    -261.265E+06    -117.625E+06     98.0451E+03    -227.612E-03     455.388E-03    -227.775E-03     25.0745E-03    -227.797E-03     454.498E-03    -227.786E-03     23.1712E-03
             960     2.86700E-03     138.810E-03    -130.026E+06    -241.996E+06    -98.9563E+06    -122.492E+03    -227.573E-03     455.331E-03    -227.759E-03     32.6509E-03    -227.808E-03     454.532E-03    -227.714E-03     30.1753E-03
             961     3.58390E-03     138.866E-03    -121.677E+06    -220.097E+06    -79.0381E+06    -406.255E+03    -227.570E-03     455.314E-03    -227.744E-03     39.9190E-03    -227.862E-03     454.622E-03    -227.644E-03     36.8902E-03
             962     4.30101E-03     138.933E-03    -112.417E+06    -197.560E+06    -59.4063E+06    -662.777E+03    -227.429E-03     455.145E-03    -227.715E-03     46.6898E-03    -227.779E-03     454.566E-03    -227.563E-03     43.1300E-03
             963     5.01830E-03     139.010E-03    -102.791E+06    -175.080E+06    -41.3720E+06    -507.828E+03    -227.207E-03     454.861E-03    -227.654E-03     52.9061E-03    -227.615E-03     454.403E-03    -227.458E-03     48.8272E-03
             964     5.73596E-03     139.095E-03    -93.3883E+06    -152.397E+06    -24.7537E+06    -208.925E+03    -226.962E-03     454.524E-03    -227.562E-03     58.6312E-03    -227.432E-03     454.194E-03    -227.330E-03     54.0402E-03
             965     6.45388E-03     139.189E-03    -84.1055E+06    -129.140E+06    -9.35054E+06     43.9351E+03    -226.568E-03     454.008E-03    -227.440E-03     64.0040E-03    -227.106E-03     453.815E-03    -227.177E-03     58.9070E-03
             966     7.17208E-03     139.289E-03    -75.4486E+06    -105.204E+06     4.25379E+06     446.382E+03    -226.002E-03     453.277E-03    -227.275E-03     69.1117E-03    -226.616E-03     453.237E-03    -226.992E-03     63.4796E-03
             967     7.89111E-03     139.397E-03    -67.0350E+06    -78.8257E+06     17.0798E+06     1.16460E+06    -225.313E-03     452.380E-03    -227.066E-03     73.8923E-03    -226.015E-03     452.514E-03    -226.769E-03     67.7012E-03
             968     8.61105E-03     139.507E-03    -57.9342E+06    -46.1362E+06     30.5917E+06     2.34160E+06    -224.568E-03     451.386E-03    -226.817E-03     78.2078E-03    -225.372E-03     451.731E-03    -226.513E-03     71.4337E-03
             969     9.33100E-03     139.625E-03    -49.2888E+06    -5.34378E+06     44.9999E+06     4.52535E+06    -223.832E-03     450.369E-03    -226.537E-03     82.0232E-03    -224.763E-03     450.976E-03    -226.233E-03     74.6212E-03
             970     10.0519E-03     139.743E-03    -42.2026E+06     44.4891E+06     59.3155E+06     7.11096E+06    -223.062E-03     449.291E-03    -226.229E-03     85.2700E-03    -224.150E-03     450.215E-03    -225.936E-03     77.2137E-03
             971     10.7726E-03     139.867E-03    -34.9440E+06     90.0286E+06     72.9363E+06     8.86534E+06    -222.230E-03     448.141E-03    -225.911E-03     87.4867E-03    -223.467E-03     449.362E-03    -225.627E-03     78.7548E-03
             972     11.4946E-03     139.986E-03    -27.4601E+06     110.423E+06     89.1423E+06     8.27863E+06    -221.332E-03     446.965E-03    -225.633E-03     87.6407E-03    -222.672E-03     448.341E-03    -225.308E-03     78.2268E-03
             973     12.2176E-03     140.104E-03    -20.6914E+06     114.678E+06     106.751E+06     5.43900E+06    -220.455E-03     445.837E-03    -225.383E-03     84.4439E-03    -221.820E-03     447.227E-03    -224.985E-03     74.5976E-03
             974     12.9401E-03     140.212E-03    -13.4013E+06     120.485E+06     118.679E+06     3.40986E+06    -219.957E-03     445.071E-03    -225.114E-03     81.3280E-03    -221.395E-03     446.545E-03    -224.676E-03     70.6425E-03
             975     13.6652E-03     140.313E-03    -6.59394E+06     123.439E+06     119.185E+06     1.85008E+06    -219.845E-03     444.674E-03    -224.830E-03     64.9767E-03    -221.023E-03     445.922E-03    -224.403E-03     55.3869E-03
             976     715.953E-06     140.208E-03    -149.000E+06    -288.438E+06    -145.800E+06    -163.729E+03    -228.504E-03     457.373E-03    -228.870E-03     9.30039E-03    -228.626E-03     456.366E-03    -228.965E-03     8.58838E-03
             977     1.43179E-03     140.228E-03    -145.094E+06    -277.551E+06    -135.648E+06    -517.050E+03    -228.475E-03     457.136E-03    -228.661E-03     16.8010E-03    -228.624E-03     456.178E-03    -228.727E-03     15.4716E-03
             978     2.14830E-03     140.260E-03    -139.126E+06    -261.211E+06    -119.976E+06    -552.773E+03    -228.364E-03     456.972E-03    -228.607E-03     24.5550E-03    -228.554E-03     456.088E-03    -228.627E-03     22.6482E-03
             979     2.86454E-03     140.304E-03    -131.513E+06    -241.030E+06    -100.379E+06    -879.271E+03    -228.340E-03     456.917E-03    -228.577E-03     32.0243E-03    -228.580E-03     456.125E-03    -228.538E-03     29.5417E-03
             980     3.58103E-03     140.361E-03    -122.751E+06    -219.127E+06    -80.0517E+06    -1.40019E+06    -228.153E-03     456.693E-03    -228.540E-03     39.1039E-03    -228.447E-03     456.006E-03    -228.445E-03     36.0660E-03
             981     4.29759E-03     140.427E-03    -113.843E+06    -197.252E+06    -60.6714E+06    -1.57349E+06    -227.805E-03     456.268E-03    -228.464E-03     45.8404E-03    -228.156E-03     455.692E-03    -228.316E-03     42.2835E-03
             982     5.01485E-03     140.503E-03    -104.540E+06    -174.968E+06    -42.5626E+06    -1.98208E+06    -227.426E-03     455.769E-03    -228.343E-03     52.0872E-03    -227.836E-03     455.311E-03    -228.151E-03     48.0236E-03
             983     5.73222E-03     140.588E-03    -95.0224E+06    -152.966E+06    -26.1441E+06    -2.14323E+06    -226.975E-03     455.159E-03    -228.184E-03     57.8315E-03    -227.444E-03     454.824E-03    -227.955E-03     53.2723E-03
             984     6.45016E-03     140.679E-03    -85.6792E+06    -130.195E+06    -10.9305E+06    -1.79281E+06    -226.391E-03     454.376E-03    -227.986E-03     63.3605E-03    -226.925E-03     454.176E-03    -227.727E-03     58.3020E-03
             985     7.16865E-03     140.779E-03    -76.7239E+06    -106.590E+06     3.02173E+06    -1.43361E+06    -225.659E-03     453.403E-03    -227.744E-03     68.5724E-03    -226.267E-03     453.351E-03    -227.463E-03     62.9923E-03
             986     7.88817E-03     140.883E-03    -67.9390E+06    -80.6276E+06     16.0709E+06    -1.08533E+06    -224.810E-03     452.267E-03    -227.457E-03     73.1517E-03    -225.501E-03     452.383E-03    -227.161E-03     67.0236E-03
             987     8.60775E-03     140.995E-03     -59.746E+06    -50.2846E+06     28.7765E+06     126.234E+03    -223.911E-03     451.040E-03    -227.129E-03     77.4689E-03    -224.701E-03     451.356E-03    -226.826E-03     70.7795E-03
             988     9.32868E-03     141.108E-03    -52.1699E+06    -13.0260E+06     41.9366E+06     2.83412E+06    -223.060E-03     449.831E-03    -226.771E-03     81.5828E-03    -223.975E-03     450.393E-03    -226.467E-03     74.3024E-03
             989     10.0498E-03     141.228E-03    -44.2680E+06     36.9540E+06     56.5504E+06     6.38962E+06    -222.163E-03     448.549E-03    -226.387E-03     84.8825E-03    -223.230E-03     449.427E-03    -226.093E-03     76.9641E-03
             990     10.7726E-03     141.346E-03    -36.7098E+06     87.7429E+06     70.6590E+06     8.00836E+06    -221.193E-03     447.181E-03    -225.988E-03     86.9659E-03    -222.417E-03     448.381E-03    -225.709E-03     78.3567E-03
             991     11.4953E-03     141.468E-03    -28.6331E+06     113.000E+06     87.2025E+06     7.02474E+06    -220.489E-03     446.129E-03    -225.640E-03     87.3388E-03    -221.825E-03     447.511E-03    -225.326E-03     78.0060E-03
             992     12.2172E-03     141.583E-03    -20.3667E+06     118.797E+06     106.531E+06     5.81119E+06    -220.034E-03     445.390E-03    -225.356E-03     83.9752E-03    -221.396E-03     446.792E-03    -224.966E-03     74.1760E-03
             993     12.9416E-03     141.690E-03    -13.2701E+06     123.733E+06     119.436E+06     3.88256E+06    -219.683E-03     444.759E-03    -225.076E-03     81.0850E-03    -221.121E-03     446.243E-03    -224.639E-03     70.4368E-03
             994     13.6603E-03     141.797E-03    -6.51019E+06     126.204E+06     120.639E+06     1.84970E+06    -218.967E-03     443.735E-03    -224.768E-03     65.7181E-03    -220.153E-03     444.996E-03    -224.338E-03     56.1819E-03
             995     715.166E-06     141.705E-03    -151.033E+06    -287.597E+06    -148.573E+06    -270.377E+03    -229.414E-03     459.156E-03    -229.742E-03     9.15467E-03    -229.544E-03     458.160E-03    -229.848E-03     8.41543E-03
             996     1.43085E-03     141.726E-03    -147.106E+06    -276.205E+06    -137.444E+06    -788.344E+03    -229.407E-03     458.971E-03    -229.563E-03     16.4512E-03    -229.565E-03     458.024E-03    -229.637E-03     15.1482E-03
             997     2.14617E-03     141.757E-03    -141.275E+06    -259.559E+06    -121.729E+06    -1.59420E+06    -229.265E-03     458.783E-03    -229.518E-03     24.0907E-03    -229.464E-03     457.912E-03    -229.546E-03     22.1815E-03
             998     2.86189E-03     141.802E-03    -133.592E+06    -239.758E+06    -102.538E+06    -2.07678E+06    -228.986E-03     458.444E-03    -229.457E-03     31.6230E-03    -229.233E-03     457.663E-03    -229.429E-03     29.1489E-03
             999     3.57764E-03     141.856E-03    -125.186E+06    -218.316E+06    -82.1245E+06    -2.16977E+06    -228.606E-03     457.965E-03    -229.359E-03     38.6345E-03    -228.908E-03     457.285E-03    -229.271E-03     35.6226E-03
            1000     4.29440E-03     141.922E-03    -115.905E+06    -195.860E+06    -62.1283E+06    -2.73789E+06    -228.142E-03     457.357E-03    -229.215E-03     45.2899E-03    -228.499E-03     456.788E-03    -229.074E-03     41.7689E-03
            1001     5.01104E-03     141.997E-03    -106.319E+06    -173.516E+06    -43.7892E+06    -3.36441E+06    -227.510E-03     456.531E-03    -229.021E-03     51.4650E-03    -227.923E-03     456.077E-03    -228.834E-03     47.4545E-03
            1002     5.72868E-03     142.080E-03    -97.0621E+06    -152.407E+06    -27.4417E+06    -3.70283E+06    -226.744E-03     455.515E-03    -228.771E-03     57.3620E-03    -227.214E-03     455.180E-03    -228.547E-03     52.8673E-03
            1003     6.44684E-03     142.171E-03    -87.6305E+06    -130.122E+06    -12.4254E+06    -3.94917E+06    -225.960E-03     454.432E-03    -228.471E-03     62.9141E-03    -226.492E-03     454.226E-03    -228.218E-03     57.9371E-03
            1004     7.16602E-03     142.268E-03    -78.2741E+06    -107.341E+06     1.37484E+06    -3.81339E+06    -225.121E-03     453.253E-03    -228.132E-03     68.1608E-03    -225.720E-03     453.189E-03    -227.856E-03     62.6902E-03
            1005     7.88502E-03     142.372E-03    -69.8026E+06    -82.5065E+06     14.2256E+06    -2.85914E+06    -224.234E-03     451.993E-03    -227.758E-03     73.1138E-03    -224.916E-03     452.092E-03    -227.467E-03     67.1178E-03
            1006     8.60596E-03     142.479E-03    -61.9126E+06    -54.2592E+06     26.5595E+06    -1.39391E+06    -223.369E-03     450.728E-03    -227.358E-03     77.5286E-03    -224.148E-03     451.017E-03    -227.057E-03     70.9655E-03
            1007     9.32704E-03     142.593E-03    -53.4070E+06    -20.2373E+06     39.1254E+06     799.578E+03    -222.419E-03     449.354E-03    -226.936E-03     81.3443E-03    -223.311E-03     449.871E-03    -226.633E-03     74.1789E-03
            1008     10.0494E-03     142.708E-03    -44.5975E+06     27.5907E+06     53.6707E+06     4.21899E+06    -221.400E-03     447.889E-03    -226.489E-03     84.4564E-03    -222.434E-03     448.708E-03    -226.196E-03     76.6527E-03
            1009     10.7712E-03     142.828E-03    -36.1467E+06     85.1594E+06     69.3330E+06     6.96628E+06    -220.481E-03     446.512E-03    -226.031E-03     86.4842E-03    -221.680E-03     447.684E-03    -225.755E-03     77.9899E-03
            1010     11.4944E-03     142.945E-03    -29.2171E+06     116.117E+06     85.7546E+06     6.54333E+06    -219.885E-03     445.516E-03    -225.631E-03     86.8572E-03    -221.211E-03     446.903E-03    -225.329E-03     77.6236E-03
            1011     12.2191E-03     143.063E-03    -22.1402E+06     119.801E+06     103.814E+06     4.70519E+06    -219.586E-03     444.901E-03    -225.315E-03     83.9015E-03    -220.944E-03     446.305E-03    -224.937E-03     74.1758E-03
            1012     12.9395E-03     143.169E-03    -13.4593E+06     126.629E+06     119.807E+06     4.10024E+06    -218.929E-03     443.942E-03    -225.014E-03     81.3639E-03    -220.373E-03     445.440E-03    -224.579E-03     70.7554E-03
            1013     13.6686E-03     143.271E-03    -6.16712E+06     130.497E+06     123.682E+06     2.16215E+06    -218.297E-03     442.978E-03    -224.681E-03     65.3690E-03    -219.494E-03     444.258E-03    -224.243E-03     55.8138E-03
            1014     714.731E-06     143.207E-03    -153.127E+06    -285.713E+06    -150.798E+06    -971.653E+03    -230.475E-03     460.948E-03    -230.474E-03     8.80371E-03    -230.614E-03     459.968E-03    -230.592E-03     8.08522E-03
            1015     1.42921E-03     143.226E-03    -149.262E+06    -274.051E+06    -140.022E+06    -1.44648E+06    -230.278E-03     460.731E-03    -230.453E-03     16.2365E-03    -230.445E-03     459.801E-03    -230.539E-03     14.9402E-03
            1016     2.14408E-03     143.258E-03    -143.506E+06    -257.244E+06    -123.603E+06    -1.73905E+06    -229.940E-03     460.316E-03    -230.376E-03     24.0077E-03    -230.149E-03     459.460E-03    -230.413E-03     22.1341E-03
            1017     2.85928E-03     143.300E-03    -136.638E+06    -237.527E+06    -104.272E+06    -2.43151E+06    -229.407E-03     459.648E-03    -230.241E-03     31.5428E-03    -229.667E-03     458.883E-03    -230.220E-03     29.1235E-03
            1018     3.57545E-03     143.355E-03    -127.552E+06    -216.072E+06    -83.5281E+06    -3.63486E+06    -228.921E-03     458.980E-03    -230.059E-03     38.7266E-03    -229.232E-03     458.313E-03    -229.978E-03     35.7753E-03
            1019     4.29111E-03     143.419E-03    -117.660E+06    -193.401E+06    -63.5690E+06    -4.43623E+06    -228.314E-03     458.151E-03    -229.837E-03     45.3245E-03    -228.677E-03     457.594E-03    -229.704E-03     41.8698E-03
            1020     5.00821E-03     143.492E-03    -108.349E+06    -171.909E+06    -45.4125E+06    -4.81370E+06    -227.421E-03     456.980E-03    -229.559E-03     51.5044E-03    -227.838E-03     456.533E-03    -229.379E-03     47.5846E-03
            1021     5.72580E-03     143.573E-03    -98.7106E+06    -150.587E+06    -28.6205E+06    -5.38071E+06    -226.493E-03     455.713E-03    -229.220E-03     57.3222E-03    -226.963E-03     455.381E-03    -229.001E-03     52.9426E-03
            1022     6.44454E-03     143.662E-03    -89.1042E+06    -128.964E+06    -13.6969E+06    -5.86016E+06    -225.529E-03     454.359E-03    -228.831E-03     62.7620E-03    -226.056E-03     454.152E-03    -228.583E-03     57.9149E-03
            1023     7.16341E-03     143.757E-03    -80.4184E+06    -107.765E+06    -370.207E+03    -5.67658E+06    -224.479E-03     452.880E-03    -228.401E-03     67.8612E-03    -225.072E-03     452.806E-03    -228.130E-03     62.5281E-03
            1024     7.88469E-03     143.858E-03    -71.4600E+06    -84.0480E+06     12.4619E+06    -5.16810E+06    -223.586E-03     451.530E-03    -227.944E-03     72.7531E-03    -224.254E-03     451.610E-03    -227.656E-03     66.9127E-03
            1025     8.60496E-03     143.966E-03    -62.4985E+06    -58.2791E+06     24.5560E+06    -3.86885E+06    -222.815E-03     450.293E-03    -227.478E-03     77.1383E-03    -223.570E-03     450.548E-03    -227.180E-03     70.7326E-03
            1026     9.32632E-03     144.075E-03    -54.1487E+06    -25.2689E+06     37.1212E+06    -1.94993E+06    -221.888E-03     448.892E-03    -227.004E-03     81.1189E-03    -222.757E-03     449.371E-03    -226.703E-03     74.0747E-03
            1027     10.0483E-03     144.191E-03    -45.4371E+06     18.6465E+06     51.1594E+06     877.116E+03    -220.904E-03     447.422E-03    -226.517E-03     84.3957E-03    -221.912E-03     448.186E-03    -226.223E-03     76.6826E-03
            1028     10.7721E-03     144.306E-03    -37.3958E+06     78.0516E+06     66.5469E+06     4.76853E+06    -220.152E-03     446.176E-03    -226.024E-03     86.4438E-03    -221.329E-03     447.304E-03    -225.750E-03     78.0477E-03
            1029     11.4955E-03     144.425E-03    -29.5891E+06     117.683E+06     83.2883E+06     6.80138E+06    -219.586E-03     445.178E-03    -225.591E-03     86.8961E-03    -220.901E-03     446.564E-03    -225.303E-03     77.7768E-03
            1030     12.2173E-03     144.540E-03    -22.1829E+06     123.753E+06     102.559E+06     5.13894E+06    -218.901E-03     444.150E-03    -225.249E-03     83.9931E-03    -220.259E-03     445.571E-03    -224.884E-03     74.3291E-03
            1031     12.9448E-03     144.646E-03    -15.4903E+06     129.433E+06     119.527E+06     2.09887E+06    -218.502E-03     443.432E-03    -224.930E-03     80.7666E-03    -219.958E-03     444.946E-03    -224.498E-03     70.1144E-03
            1032     13.6629E-03     144.748E-03    -7.25426E+06     132.637E+06     124.085E+06     1.00083E+06    -218.073E-03     442.664E-03    -224.590E-03     65.0157E-03    -219.280E-03     443.955E-03    -224.151E-03     55.4045E-03
            1033     713.868E-06     144.710E-03    -155.510E+06    -283.663E+06    -152.972E+06    -341.576E+03    -231.132E-03     462.251E-03    -231.119E-03     9.02088E-03    -231.283E-03     461.287E-03    -231.247E-03     8.34290E-03
            1034     1.42815E-03     144.729E-03    -152.432E+06    -271.437E+06    -142.122E+06    -1.13942E+06    -230.761E-03     461.831E-03    -231.070E-03     16.6344E-03    -230.944E-03     460.921E-03    -231.166E-03     15.3912E-03
            1035     2.14282E-03     144.760E-03    -146.332E+06    -254.552E+06    -125.113E+06    -2.36843E+06    -230.315E-03     461.246E-03    -230.931E-03     24.4303E-03    -230.538E-03     460.408E-03    -230.975E-03     22.6252E-03
            1036     2.85797E-03     144.801E-03    -137.552E+06    -233.539E+06    -104.984E+06    -3.49983E+06    -229.812E-03     460.562E-03    -230.751E-03     31.7683E-03    -230.078E-03     459.816E-03    -230.737E-03     29.4255E-03
            1037     3.57319E-03     144.854E-03    -128.702E+06    -212.140E+06    -84.5300E+06    -4.62127E+06    -229.014E-03     459.529E-03    -230.515E-03     38.8505E-03    -229.330E-03     458.880E-03    -230.443E-03     36.0084E-03
            1038     4.28988E-03     144.917E-03    -119.793E+06    -190.889E+06    -64.8600E+06    -5.36158E+06    -228.065E-03     458.269E-03    -230.204E-03     45.5509E-03    -228.432E-03     457.721E-03    -230.078E-03     42.2389E-03
            1039     5.00667E-03     144.987E-03    -110.028E+06    -168.783E+06    -46.1901E+06     -6.2914E+06    -227.194E-03     457.029E-03    -229.836E-03     51.8722E-03    -227.612E-03     456.592E-03    -229.662E-03     48.1060E-03
            1040     5.72465E-03     145.067E-03    -100.024E+06    -147.994E+06    -29.5699E+06    -7.22763E+06    -226.246E-03     455.673E-03    -229.427E-03     57.7640E-03    -226.714E-03     455.346E-03    -229.215E-03     53.5464E-03
            1041     6.44294E-03     145.153E-03    -91.0140E+06    -127.336E+06    -14.9972E+06    -7.66117E+06    -225.153E-03     454.130E-03    -228.976E-03     63.1230E-03    -225.678E-03     453.923E-03    -228.735E-03     58.4377E-03
            1042     7.16333E-03     145.245E-03    -81.6220E+06    -106.989E+06    -1.40064E+06    -7.99871E+06    -224.194E-03     452.691E-03    -228.497E-03     68.0994E-03    -224.778E-03     452.610E-03    -228.230E-03     62.9242E-03
            1043     7.88269E-03     145.345E-03    -72.4574E+06    -84.6483E+06     11.1202E+06    -7.74063E+06    -223.249E-03     451.249E-03    -228.000E-03     72.7586E-03    -223.904E-03     451.314E-03    -227.717E-03     67.0611E-03
            1044     8.60458E-03     145.449E-03    -63.7094E+06    -60.2922E+06     23.1070E+06    -7.12786E+06    -222.212E-03     449.702E-03    -227.490E-03     77.0597E-03    -222.951E-03     449.933E-03    -227.194E-03     70.7964E-03
            1045     9.32685E-03     145.558E-03    -54.5027E+06    -29.6715E+06     35.3387E+06    -5.67487E+06    -221.405E-03     448.376E-03    -226.972E-03     80.9218E-03    -222.246E-03     448.817E-03    -226.673E-03     74.0204E-03
            1046     10.0499E-03     145.671E-03    -46.1810E+06     9.75691E+06     48.3884E+06    -2.30821E+06    -220.820E-03     447.286E-03    -226.467E-03     84.0086E-03    -221.794E-03     447.992E-03    -226.172E-03     76.4148E-03
            1047     10.7721E-03     145.786E-03    -37.7947E+06     68.3283E+06     63.6969E+06     2.31569E+06    -220.097E-03     446.068E-03    -225.971E-03     85.9782E-03    -221.240E-03     447.135E-03    -225.697E-03     77.6688E-03
            1048     11.4952E-03     145.904E-03    -29.5836E+06     115.408E+06     81.2064E+06     5.00572E+06    -219.255E-03     444.779E-03    -225.523E-03     86.3670E-03    -220.551E-03     446.143E-03    -225.241E-03     77.3002E-03
            1049     12.2213E-03     146.016E-03    -21.4127E+06     127.658E+06     100.964E+06     4.66900E+06    -218.640E-03     443.800E-03    -225.160E-03     83.4016E-03    -219.987E-03     445.232E-03    -224.809E-03     73.7882E-03
            1050     12.9413E-03     146.123E-03    -13.6743E+06     134.200E+06     120.172E+06     2.71145E+06    -218.028E-03     442.862E-03    -224.834E-03     80.9413E-03    -219.480E-03     444.392E-03    -224.407E-03     70.3490E-03
            1051     13.6705E-03     146.224E-03    -6.80982E+06     134.932E+06     125.725E+06     568.980E+03    -217.662E-03     442.146E-03    -224.484E-03     65.5040E-03    -218.873E-03     443.448E-03    -224.041E-03     55.9235E-03
            1052     714.063E-06     146.214E-03    -157.371E+06    -280.635E+06    -156.324E+06    -1.26992E+06    -231.237E-03     462.246E-03    -231.010E-03     9.52932E-03    -231.396E-03     461.305E-03    -231.156E-03     8.88244E-03
            1053     1.42821E-03     146.233E-03     -153.46E+06    -267.988E+06    -143.614E+06    -1.98438E+06    -230.936E-03     462.037E-03    -231.101E-03     17.2347E-03    -231.126E-03     461.147E-03    -231.208E-03     16.0626E-03
            1054     2.14266E-03     146.262E-03    -146.660E+06    -249.815E+06    -125.946E+06    -3.17168E+06    -230.521E-03     461.533E-03    -231.013E-03     24.8719E-03    -230.748E-03     460.718E-03    -231.067E-03     23.1756E-03
            1055     2.85734E-03     146.304E-03    -139.012E+06    -229.808E+06    -106.181E+06    -4.30592E+06    -229.804E-03     460.641E-03    -230.837E-03     32.4746E-03    -230.077E-03     459.912E-03    -230.833E-03     30.2684E-03
            1056     3.57283E-03     146.354E-03    -130.406E+06    -208.305E+06    -85.4141E+06    -4.99047E+06    -228.847E-03     459.410E-03    -230.563E-03     39.5866E-03    -229.169E-03     458.778E-03    -230.499E-03     36.9026E-03
            1057     4.28927E-03     146.414E-03    -120.962E+06    -186.383E+06    -64.9472E+06    -6.42571E+06    -227.780E-03     457.984E-03    -230.204E-03     46.2585E-03    -228.151E-03     457.452E-03    -230.083E-03     43.1286E-03
            1058     5.00701E-03     146.483E-03    -110.682E+06    -164.845E+06    -46.2544E+06    -7.76260E+06    -226.812E-03     456.594E-03    -229.783E-03     52.5267E-03    -227.228E-03     456.166E-03    -229.614E-03     48.9606E-03
            1059     5.72490E-03     146.560E-03    -101.202E+06    -144.423E+06    -29.7988E+06    -8.76044E+06    -225.827E-03     455.153E-03    -229.326E-03     58.3701E-03    -226.293E-03     454.833E-03    -229.118E-03     54.3534E-03
            1060     6.44447E-03     146.644E-03    -91.5292E+06    -124.246E+06    -14.9458E+06    -9.82385E+06    -224.914E-03     453.759E-03    -228.845E-03     63.7888E-03    -225.432E-03     453.554E-03    -228.607E-03     59.2965E-03
            1061     7.16350E-03     146.734E-03    -82.2332E+06    -104.946E+06    -1.65905E+06    -10.3011E+06    -224.078E-03     452.433E-03    -228.355E-03     68.9076E-03    -224.654E-03     452.349E-03    -228.092E-03     63.9104E-03
            1062     7.88485E-03     146.832E-03    -72.9700E+06    -83.3889E+06     10.7233E+06    -10.8743E+06    -223.175E-03     451.033E-03    -227.857E-03     73.4293E-03    -223.819E-03     451.091E-03    -227.577E-03     67.8774E-03
            1063     8.60579E-03     146.932E-03    -63.5450E+06    -61.0024E+06     22.4223E+06    -10.7052E+06    -222.291E-03     449.646E-03    -227.356E-03     77.2358E-03    -223.011E-03     449.860E-03    -227.063E-03     71.0839E-03
            1064     9.32792E-03     147.040E-03    -55.1176E+06    -33.4147E+06     33.6943E+06    -9.26365E+06    -221.546E-03     448.402E-03    -226.855E-03     80.5458E-03    -222.365E-03     448.808E-03    -226.558E-03     73.7486E-03
            1065     10.0501E-03     147.151E-03    -46.0383E+06     2.03031E+06     46.3438E+06    -6.67777E+06    -220.884E-03     447.253E-03    -226.369E-03     83.4453E-03    -221.823E-03     447.901E-03    -226.073E-03     75.9483E-03
            1066     10.7732E-03     147.267E-03    -37.2114E+06     55.7530E+06     61.2344E+06    -1.35820E+06    -220.005E-03     445.888E-03    -225.883E-03     85.5095E-03    -221.106E-03     446.878E-03    -225.604E-03     77.2692E-03
            1067     11.4974E-03     147.379E-03    -29.2541E+06     110.804E+06     78.2668E+06     3.54087E+06    -219.153E-03     444.573E-03    -225.420E-03     86.1707E-03    -220.423E-03     445.905E-03    -225.147E-03     77.1758E-03
            1068     12.2189E-03     147.495E-03    -21.9917E+06     131.380E+06     97.3530E+06     3.25272E+06    -218.398E-03     443.435E-03    -225.037E-03     83.4405E-03    -219.738E-03     444.881E-03    -224.709E-03     73.8905E-03
            1069     12.9471E-03     147.597E-03    -14.1000E+06     135.767E+06     118.363E+06     1.58138E+06    -217.790E-03     442.505E-03    -224.715E-03     80.4852E-03    -219.237E-03     444.041E-03    -224.300E-03     69.8905E-03
            1070     13.6677E-03     147.699E-03    -6.31210E+06     136.740E+06     127.411E+06     1.19936E+06    -217.514E-03     441.892E-03    -224.379E-03     64.8820E-03    -218.725E-03     443.197E-03    -223.931E-03     55.2885E-03
            1071     714.584E-06     147.719E-03    -158.731E+06    -275.165E+06    -154.535E+06    -1.60785E+06    -230.737E-03     461.392E-03    -230.654E-03     9.29723E-03    -230.913E-03     460.476E-03    -230.798E-03     8.71100E-03
            1072     1.42904E-03     147.736E-03    -153.715E+06    -263.214E+06    -143.817E+06    -2.97703E+06    -230.463E-03     461.126E-03    -230.663E-03     17.4247E-03    -230.658E-03     460.258E-03    -230.778E-03     16.3631E-03
            1073     2.14330E-03     147.766E-03    -147.409E+06    -246.070E+06    -126.718E+06    -3.51990E+06    -229.968E-03     460.514E-03    -230.546E-03     25.6625E-03    -230.200E-03     459.716E-03    -230.609E-03     24.1112E-03
            1074     2.85865E-03     147.804E-03    -139.930E+06    -225.358E+06    -105.848E+06    -4.30164E+06    -229.168E-03     459.505E-03    -230.337E-03     33.5561E-03    -229.447E-03     458.794E-03    -230.336E-03     31.5370E-03
            1075     3.57500E-03     147.854E-03    -130.506E+06    -203.218E+06    -84.3309E+06    -6.11484E+06    -228.375E-03     458.420E-03    -230.046E-03     40.9001E-03    -228.699E-03     457.804E-03    -229.983E-03     38.4225E-03
            1076     4.29154E-03     147.911E-03    -120.246E+06    -180.723E+06    -63.8589E+06    -7.65239E+06    -227.551E-03     457.253E-03    -229.703E-03     47.6137E-03    -227.919E-03     456.738E-03    -229.586E-03     44.6908E-03
            1077     5.00885E-03     147.978E-03    -110.932E+06    -159.916E+06    -45.5223E+06    -9.07703E+06    -226.509E-03     455.818E-03    -229.309E-03     53.8535E-03    -226.924E-03     455.403E-03    -229.144E-03     50.5001E-03
            1078     5.72776E-03     148.052E-03    -101.006E+06    -139.941E+06    -28.8221E+06    -10.4145E+06    -225.596E-03     454.467E-03    -228.872E-03     59.4149E-03    -226.056E-03     454.156E-03    -228.666E-03     55.6123E-03
            1079     6.44661E-03     148.134E-03    -91.4831E+06    -119.953E+06    -14.0511E+06    -11.5002E+06    -224.827E-03     453.245E-03    -228.418E-03     64.6619E-03    -225.338E-03     453.046E-03    -228.181E-03     60.3770E-03
            1080     7.16709E-03     148.223E-03    -82.0086E+06    -101.034E+06    -842.193E+03    -12.8612E+06    -224.112E-03     452.075E-03    -227.963E-03     69.4955E-03    -224.679E-03     451.995E-03    -227.702E-03     64.6780E-03
            1081     7.88711E-03     148.316E-03    -72.8793E+06    -80.4697E+06     11.0400E+06    -13.5959E+06    -223.436E-03     450.947E-03    -227.510E-03     73.6114E-03    -224.068E-03     451.002E-03    -227.233E-03     68.2165E-03
            1082     8.60832E-03     148.418E-03    -64.4978E+06    -60.2227E+06     21.9807E+06    -13.8385E+06    -222.828E-03     449.898E-03    -227.069E-03     77.3793E-03    -223.537E-03     450.100E-03    -226.779E-03     71.3584E-03
            1083     9.32956E-03     148.521E-03    -55.5292E+06    -35.2180E+06     32.9232E+06    -13.3780E+06    -222.145E-03     448.779E-03    -226.634E-03     80.9015E-03    -222.947E-03     449.163E-03    -226.338E-03     74.1964E-03
            1084     10.0518E-03     148.634E-03    -47.2534E+06    -4.36649E+06     44.3990E+06    -11.0907E+06    -221.107E-03     447.300E-03    -226.193E-03     83.5574E-03    -222.024E-03     447.905E-03    -225.896E-03     76.1372E-03
            1085     10.7750E-03     148.743E-03    -39.0161E+06     40.1871E+06     57.0585E+06    -5.47488E+06    -220.081E-03     445.811E-03    -225.730E-03     85.3825E-03    -221.141E-03     446.710E-03    -225.446E-03     77.2568E-03
            1086     11.4977E-03     148.860E-03    -30.4181E+06     102.302E+06     73.5841E+06     1.02040E+06    -219.062E-03     444.322E-03    -225.260E-03     85.9837E-03    -220.296E-03     445.599E-03    -224.997E-03     77.1226E-03
            1087     12.2244E-03     148.969E-03    -22.5557E+06     135.816E+06     94.1211E+06     2.72557E+06    -218.302E-03     443.170E-03    -224.868E-03     83.4715E-03    -219.636E-03     444.633E-03    -224.562E-03     73.9939E-03
            1088     12.9449E-03     149.074E-03    -15.4822E+06     137.399E+06     116.077E+06     832.396E+03    -217.930E-03     442.494E-03    -224.564E-03     81.0393E-03    -219.382E-03     444.043E-03    -224.160E-03     70.4648E-03
            1089     13.6716E-03     149.174E-03    -7.43182E+06     137.083E+06     127.754E+06    -27.5614E+03    -217.463E-03     441.714E-03    -224.250E-03     66.0245E-03    -218.684E-03     443.024E-03    -223.800E-03     56.4456E-03
            1090     714.565E-06     149.221E-03    -157.275E+06    -270.484E+06    -154.729E+06    -1.12462E+06    -229.627E-03     459.419E-03    -229.792E-03     10.1441E-03    -229.802E-03     458.524E-03    -229.945E-03     9.62319E-03
            1091     1.42971E-03     149.238E-03    -153.758E+06    -258.291E+06    -142.256E+06    -1.98175E+06    -229.196E-03     458.818E-03    -229.622E-03     18.3410E-03    -229.399E-03     457.971E-03    -229.736E-03     17.4169E-03
            1092     2.14610E-03     149.266E-03    -147.778E+06    -240.951E+06    -124.816E+06    -3.76974E+06    -228.691E-03     458.114E-03    -229.423E-03     26.6896E-03    -228.931E-03     457.336E-03    -229.484E-03     25.3180E-03
            1093     2.86226E-03     149.303E-03    -138.472E+06    -219.433E+06    -104.013E+06    -5.79486E+06    -228.228E-03     457.433E-03    -229.204E-03     34.5060E-03    -228.505E-03     456.740E-03    -229.205E-03     32.6871E-03
            1094     3.57871E-03     149.350E-03    -128.759E+06    -197.501E+06    -82.6662E+06    -7.04474E+06    -227.620E-03     456.582E-03    -228.962E-03     41.9829E-03    -227.938E-03     455.981E-03    -228.902E-03     39.7331E-03
            1095     4.29614E-03     149.407E-03    -119.399E+06    -175.361E+06    -62.2009E+06    -8.30447E+06    -226.979E-03     455.663E-03    -228.684E-03     48.8121E-03    -227.342E-03     455.160E-03    -228.567E-03     46.1352E-03
            1096     5.01412E-03     149.471E-03    -109.357E+06    -153.584E+06    -43.1351E+06    -9.84293E+06    -226.313E-03     454.688E-03    -228.374E-03     55.0204E-03    -226.722E-03     454.288E-03    -228.209E-03     51.9000E-03
            1097     5.73237E-03     149.544E-03    -99.8154E+06    -134.160E+06    -26.6337E+06    -11.5448E+06    -225.625E-03     453.662E-03    -228.037E-03     60.8140E-03    -226.079E-03     453.363E-03    -227.831E-03     57.2274E-03
            1098     6.45172E-03     149.624E-03    -90.0117E+06    -114.657E+06    -11.9865E+06    -13.1433E+06    -225.076E-03     452.761E-03    -227.685E-03     65.8704E-03    -225.577E-03     452.570E-03    -227.448E-03     61.7869E-03
            1099     7.17110E-03     149.710E-03    -80.9574E+06    -95.9907E+06     827.775E+03    -14.2474E+06    -224.511E-03     451.840E-03    -227.329E-03     70.4055E-03    -225.068E-03     451.767E-03    -227.069E-03     65.7835E-03
            1100     7.89139E-03     149.805E-03    -72.7836E+06    -76.7690E+06     12.2008E+06    -15.3078E+06    -223.972E-03     450.944E-03    -226.973E-03     74.5259E-03    -224.595E-03     451.001E-03    -226.695E-03     69.3150E-03
            1101     8.61206E-03     149.901E-03    -64.4360E+06    -57.4030E+06     22.9581E+06    -15.8958E+06    -223.399E-03     450.018E-03    -226.619E-03     78.1844E-03    -224.096E-03     450.216E-03    -226.327E-03     72.3427E-03
            1102     9.33320E-03     150.008E-03    -56.9217E+06    -34.8371E+06     32.9587E+06    -15.7112E+06    -222.501E-03     448.753E-03    -226.251E-03     81.5315E-03    -223.291E-03     449.121E-03    -225.953E-03     75.0110E-03
            1103     10.0550E-03     150.112E-03    -49.1530E+06    -8.87776E+06     43.1267E+06    -14.2906E+06    -221.600E-03     447.465E-03    -225.865E-03     84.4087E-03    -222.499E-03     448.033E-03    -225.565E-03     77.1509E-03
            1104     10.7772E-03     150.225E-03    -40.2381E+06     26.8392E+06     53.7595E+06    -10.4564E+06    -220.622E-03     446.077E-03    -225.455E-03     86.2195E-03    -221.647E-03     446.899E-03    -225.167E-03     78.1907E-03
            1105     11.5015E-03     150.334E-03    -30.8674E+06     89.7722E+06     70.2061E+06    -4.34637E+06    -219.448E-03     444.473E-03    -225.026E-03     86.3736E-03    -220.647E-03     445.678E-03    -224.760E-03     77.5652E-03
            1106     12.2234E-03     150.446E-03    -21.9125E+06     134.755E+06     91.0108E+06     171.297E+03    -218.433E-03     443.076E-03    -224.643E-03     83.9218E-03    -219.747E-03     444.526E-03    -224.351E-03     74.5134E-03
            1107     12.9507E-03     150.549E-03    -13.5835E+06     140.840E+06     114.493E+06     726.620E+03    -217.837E-03     442.186E-03    -224.349E-03     81.6926E-03    -219.281E-03     443.749E-03    -223.961E-03     71.1617E-03
            1108     13.6734E-03     150.648E-03    -6.90826E+06     137.465E+06     128.356E+06    -245.828E+03    -217.962E-03     442.034E-03    -224.071E-03     66.3750E-03    -219.182E-03     443.344E-03    -223.619E-03     56.8005E-03
            1109     716.672E-06     150.718E-03    -156.271E+06    -265.698E+06    -153.911E+06    -1.62054E+06    -227.737E-03     455.483E-03    -227.746E-03     10.6191E-03    -227.915E-03     454.609E-03    -227.903E-03     10.1532E-03
            1110     1.43340E-03     150.735E-03    -151.807E+06    -252.886E+06    -140.646E+06    -3.19988E+06    -227.557E-03     455.273E-03    -227.717E-03     19.2403E-03    -227.759E-03     454.446E-03    -227.833E-03     18.4036E-03
            1111     2.14972E-03     150.761E-03    -144.128E+06    -234.076E+06    -122.120E+06    -4.67921E+06    -227.339E-03     454.987E-03    -227.648E-03     27.5425E-03    -227.571E-03     454.230E-03    -227.711E-03     26.3248E-03
            1112     2.86695E-03     150.799E-03    -136.234E+06    -213.070E+06    -101.376E+06    -6.15978E+06    -226.954E-03     454.498E-03    -227.544E-03     35.4419E-03    -227.226E-03     453.824E-03    -227.544E-03     33.8254E-03
            1113     3.58449E-03     150.844E-03    -126.997E+06    -191.703E+06    -79.7701E+06    -7.72611E+06    -226.576E-03     453.975E-03    -227.399E-03     43.1121E-03    -226.889E-03     453.388E-03    -227.336E-03     41.0874E-03
            1114     4.30243E-03     150.899E-03    -116.480E+06    -169.045E+06    -58.8739E+06    -9.29793E+06    -226.237E-03     453.463E-03    -227.226E-03     50.1384E-03    -226.590E-03     452.973E-03    -227.106E-03     47.6958E-03
            1115     5.02064E-03     150.963E-03    -106.254E+06    -147.491E+06    -39.9474E+06    -10.7942E+06    -225.985E-03     453.025E-03    -227.040E-03     56.3560E-03    -226.380E-03     452.635E-03    -226.871E-03     53.4674E-03
            1116     5.73945E-03     151.034E-03    -96.1048E+06    -127.545E+06    -22.8727E+06    -12.2003E+06    -225.739E-03     452.589E-03    -226.850E-03     62.1200E-03    -226.177E-03     452.299E-03    -226.640E-03     58.7699E-03
            1117     6.45844E-03     151.112E-03    -87.1347E+06    -109.069E+06    -8.56969E+06    -13.4616E+06    -225.393E-03     452.040E-03    -226.647E-03     67.2952E-03    -225.880E-03     451.855E-03    -226.405E-03     63.4497E-03
            1118     7.17758E-03     151.199E-03    -78.7571E+06    -91.2355E+06     3.79548E+06    -14.4578E+06    -225.036E-03     451.467E-03    -226.430E-03     71.8986E-03    -225.579E-03     451.395E-03    -226.165E-03     67.5074E-03
            1119     7.89768E-03     151.289E-03    -70.3846E+06    -71.6664E+06     15.4799E+06    -15.3651E+06    -224.563E-03     450.763E-03    -226.200E-03     75.9875E-03    -225.171E-03     450.822E-03    -225.917E-03     71.0115E-03
            1120     8.61740E-03     151.389E-03    -62.9107E+06    -53.5751E+06     25.7189E+06    -16.2238E+06    -223.813E-03     449.760E-03    -225.947E-03     79.6136E-03    -224.496E-03     449.954E-03    -225.649E-03     74.0052E-03
            1121     9.33845E-03     151.487E-03    -55.5751E+06    -32.6410E+06     35.2859E+06    -16.5930E+06    -223.025E-03     448.687E-03    -225.661E-03     82.8498E-03    -223.796E-03     449.042E-03    -225.357E-03     76.5612E-03
            1122     10.0605E-03     151.596E-03    -48.2529E+06    -10.0066E+06     44.5205E+06    -16.3159E+06    -222.198E-03     447.550E-03    -225.352E-03     85.4323E-03    -223.071E-03     448.088E-03    -225.045E-03     78.3826E-03
            1123     10.7827E-03     151.703E-03    -40.7613E+06     20.5893E+06     53.7560E+06    -15.0612E+06    -221.191E-03     446.205E-03    -225.013E-03     87.1792E-03    -222.190E-03     446.976E-03    -224.715E-03     79.2978E-03
            1124     11.5046E-03     151.814E-03    -32.2493E+06     76.5552E+06     68.0151E+06    -10.7157E+06    -220.175E-03     444.821E-03    -224.647E-03     87.9923E-03    -221.344E-03     445.951E-03    -224.371E-03     79.2732E-03
            1125     12.2297E-03     151.922E-03    -23.2782E+06     126.209E+06     86.2616E+06    -4.44322E+06    -219.256E-03     443.562E-03    -224.306E-03     85.2346E-03    -220.546E-03     444.967E-03    -224.024E-03     75.8971E-03
            1126     12.9517E-03     152.023E-03    -15.2155E+06     140.936E+06     109.552E+06    -1.36868E+06    -218.834E-03     442.898E-03    -224.064E-03     82.4425E-03    -220.273E-03     444.466E-03    -223.699E-03     71.9273E-03
            1127     13.6765E-03     152.126E-03    -6.95759E+06     136.647E+06     128.165E+06    -315.192E+03    -218.817E-03     442.688E-03    -223.871E-03     67.0988E-03    -220.035E-03     443.994E-03    -223.418E-03     57.5338E-03
            1128     718.204E-06     152.209E-03    -153.469E+06    -258.330E+06    -149.586E+06    -1.97862E+06    -225.630E-03     450.793E-03    -225.164E-03     10.5254E-03    -225.809E-03     449.945E-03    -225.314E-03     10.1031E-03
            1129     1.43652E-03     152.225E-03    -147.954E+06    -245.330E+06    -137.027E+06    -3.94525E+06    -225.471E-03     450.893E-03    -225.422E-03     19.2229E-03    -225.667E-03     450.090E-03    -225.537E-03     18.5033E-03
            1130     2.15486E-03     152.253E-03    -141.040E+06    -227.677E+06    -118.930E+06    -5.71601E+06    -225.421E-03     450.872E-03    -225.450E-03     28.1308E-03    -225.649E-03     450.134E-03    -225.510E-03     27.0383E-03
            1131     2.87300E-03     152.288E-03    -132.442E+06    -206.641E+06      -97.53E+06    -7.14584E+06    -225.357E-03     450.809E-03    -225.452E-03     36.5189E-03    -225.621E-03     450.151E-03    -225.448E-03     35.0555E-03
            1132     3.59184E-03     152.334E-03    -122.661E+06    -184.450E+06    -75.3247E+06    -8.82990E+06    -225.359E-03     450.797E-03    -225.438E-03     44.2892E-03    -225.660E-03     450.226E-03    -225.369E-03     42.4560E-03
            1133     4.31048E-03     152.388E-03    -112.014E+06    -162.557E+06    -54.5916E+06    -10.5130E+06    -225.365E-03     450.775E-03    -225.410E-03     51.3829E-03    -225.703E-03     450.296E-03    -225.285E-03     49.1473E-03
            1134     5.02950E-03     152.452E-03    -101.489E+06    -141.652E+06    -35.5905E+06    -11.6524E+06    -225.467E-03     450.844E-03    -225.376E-03     57.9552E-03    -225.843E-03     450.459E-03    -225.201E-03     55.3039E-03
            1135     5.74812E-03     152.522E-03    -91.9085E+06    -121.955E+06    -18.6589E+06    -12.5372E+06    -225.573E-03     450.916E-03    -225.342E-03     63.9078E-03    -225.993E-03     450.630E-03    -225.125E-03     60.8101E-03
            1136     6.46678E-03     152.601E-03    -82.7119E+06    -103.704E+06    -3.99928E+06    -13.4024E+06    -225.459E-03     450.752E-03    -225.293E-03     69.3124E-03    -225.925E-03     450.568E-03    -225.043E-03     65.7273E-03
            1137     7.18667E-03     152.685E-03    -73.7239E+06    -85.9126E+06     8.89686E+06    -14.4273E+06    -225.274E-03     450.493E-03    -225.218E-03     74.3133E-03    -225.793E-03     450.419E-03    -224.942E-03     70.2017E-03
            1138     7.90519E-03     152.778E-03    -65.5238E+06    -67.3240E+06     20.2434E+06    -15.1585E+06    -224.911E-03     450.024E-03    -225.113E-03     78.6428E-03    -225.493E-03     450.076E-03    -224.819E-03     73.9522E-03
            1139     8.62616E-03     152.870E-03    -57.7679E+06    -49.5131E+06     30.5727E+06    -15.5671E+06    -224.415E-03     449.393E-03    -224.978E-03     82.0604E-03    -225.067E-03     449.576E-03    -224.670E-03     76.7463E-03
            1140     9.34682E-03     152.974E-03    -51.0594E+06    -29.9463E+06     39.6446E+06    -15.7293E+06    -223.800E-03     448.610E-03    -224.810E-03     84.9583E-03    -224.538E-03     448.946E-03    -224.494E-03     78.9701E-03
            1141     10.0670E-03     153.076E-03    -44.8930E+06    -7.81918E+06     48.6183E+06    -15.6740E+06    -222.881E-03     447.487E-03    -224.606E-03     87.4553E-03    -223.722E-03     448.000E-03    -224.287E-03     80.7269E-03
            1142     10.7891E-03     153.184E-03    -38.8821E+06     20.5420E+06     57.2061E+06    -15.5388E+06    -221.993E-03     446.352E-03    -224.360E-03     89.1676E-03    -222.958E-03     447.087E-03    -224.047E-03     81.6141E-03
            1143     11.5125E-03     153.291E-03    -33.0123E+06     67.8073E+06     68.6811E+06    -13.5129E+06    -221.269E-03     445.357E-03    -224.088E-03     89.4535E-03    -222.402E-03     446.415E-03    -223.795E-03     80.9812E-03
            1144     12.2341E-03     153.400E-03    -25.4314E+06     115.973E+06     82.6288E+06    -9.57049E+06    -220.835E-03     444.672E-03    -223.836E-03     86.5922E-03    -222.096E-03     446.014E-03    -223.555E-03     77.3647E-03
            1145     12.9576E-03     153.502E-03    -16.3121E+06     135.825E+06     103.305E+06    -5.06129E+06    -220.556E-03     444.240E-03    -223.684E-03     84.2267E-03    -221.980E-03     445.788E-03    -223.341E-03     73.7281E-03
            1146     13.6792E-03     153.601E-03    -7.93834E+06     133.358E+06     124.938E+06    -1.64880E+06    -220.516E-03     444.124E-03    -223.607E-03     68.6895E-03    -221.735E-03     445.426E-03    -223.165E-03     59.0843E-03
            1147     720.092E-06     153.692E-03    -147.778E+06    -249.578E+06    -145.696E+06    -2.56264E+06    -223.250E-03     445.805E-03    -222.556E-03     11.1017E-03    -223.419E-03     444.987E-03    -222.708E-03     10.7271E-03
            1148     1.43973E-03     153.709E-03    -143.190E+06    -236.769E+06    -132.113E+06    -4.45384E+06    -223.081E-03     446.028E-03    -222.946E-03     19.9702E-03    -223.273E-03     445.253E-03    -223.056E-03     19.3084E-03
            1149     2.16003E-03     153.736E-03    -136.666E+06    -219.502E+06    -114.199E+06    -6.66467E+06    -223.139E-03     446.157E-03    -223.018E-03     28.6666E-03    -223.361E-03     445.445E-03    -223.072E-03     27.6773E-03
            1150     2.88044E-03     153.773E-03    -127.521E+06    -198.958E+06    -92.7688E+06    -8.78485E+06    -223.444E-03     446.539E-03    -223.095E-03     37.2584E-03    -223.697E-03     445.902E-03    -223.086E-03     35.9339E-03
            1151     3.59979E-03     153.818E-03    -117.235E+06    -177.216E+06    -70.8076E+06    -10.3481E+06    -223.803E-03     447.000E-03    -223.197E-03     45.4389E-03    -224.089E-03     446.445E-03    -223.124E-03     43.7671E-03
            1152     4.31956E-03     153.873E-03    -107.317E+06    -156.111E+06    -50.1387E+06    -11.5912E+06    -224.163E-03     447.468E-03    -223.305E-03     53.0129E-03    -224.486E-03     447.000E-03    -223.174E-03     50.9740E-03
            1153     5.03900E-03     153.936E-03    -97.0101E+06    -136.050E+06    -31.0502E+06    -12.6658E+06    -224.508E-03     447.917E-03    -223.409E-03     60.0564E-03    -224.867E-03     447.539E-03    -223.226E-03     57.6357E-03
            1154     5.75859E-03     154.008E-03    -86.7502E+06    -116.603E+06    -13.9489E+06    -13.6200E+06    -224.765E-03     448.264E-03    -223.499E-03     66.4655E-03    -225.162E-03     447.979E-03    -223.274E-03     63.6261E-03
            1155     6.47859E-03     154.085E-03    -76.7353E+06    -98.7435E+06     1.05903E+06    -14.3828E+06    -225.029E-03     448.601E-03    -223.572E-03     72.3414E-03    -225.467E-03     448.413E-03    -223.312E-03     69.0460E-03
            1156     7.19714E-03     154.171E-03    -67.5203E+06    -81.5589E+06     14.0887E+06    -14.7815E+06    -225.037E-03     448.658E-03    -223.621E-03     77.6249E-03    -225.524E-03     448.575E-03    -223.335E-03     73.8359E-03
            1157     7.91852E-03     154.260E-03    -59.1644E+06    -63.8898E+06     25.5201E+06    -14.8693E+06    -224.982E-03     448.621E-03    -223.638E-03     82.0079E-03    -225.526E-03     448.654E-03    -223.332E-03     77.6898E-03
            1158     8.63731E-03     154.358E-03    -51.9426E+06    -47.3917E+06     35.3479E+06    -14.4263E+06    -224.875E-03     448.507E-03    -223.632E-03     85.7186E-03    -225.486E-03     448.662E-03    -223.311E-03     80.8209E-03
            1159     9.35690E-03     154.455E-03    -45.1528E+06    -27.4128E+06     44.9718E+06    -13.8564E+06    -224.449E-03     448.043E-03    -223.594E-03     88.9255E-03    -225.143E-03     448.350E-03    -223.264E-03     83.3849E-03
            1160     10.0789E-03     154.559E-03    -38.6921E+06    -5.12790E+06     54.3339E+06    -13.4228E+06    -224.022E-03     447.547E-03    -223.525E-03     91.0375E-03    -224.815E-03     448.027E-03    -223.190E-03     84.7680E-03
            1161     10.7999E-03     154.663E-03    -33.1338E+06     21.8275E+06     62.9960E+06    -12.7242E+06    -223.622E-03     447.054E-03    -223.432E-03     92.0740E-03    -224.538E-03     447.748E-03    -223.101E-03     84.9450E-03
            1162     11.5203E-03     154.772E-03    -27.0896E+06     67.4722E+06     75.1490E+06    -12.6675E+06    -223.175E-03     446.497E-03    -223.322E-03     92.1040E-03    -224.257E-03     447.505E-03    -223.005E-03     83.9821E-03
            1163     12.2423E-03     154.879E-03    -20.4309E+06     110.348E+06     86.3306E+06    -11.7899E+06    -222.956E-03     446.174E-03    -223.218E-03     89.3926E-03    -224.172E-03     447.459E-03    -222.917E-03     80.3651E-03
            1164     12.9630E-03     154.981E-03    -13.7151E+06     125.678E+06     100.998E+06    -7.75939E+06    -223.287E-03     446.493E-03    -223.206E-03     86.0315E-03    -224.672E-03     447.982E-03    -222.864E-03     75.5614E-03
            1165     13.6849E-03     155.082E-03    -6.69677E+06     126.401E+06     120.244E+06    -3.01297E+06    -224.003E-03     447.300E-03    -223.298E-03     69.3454E-03    -225.192E-03     448.566E-03    -222.870E-03     59.6985E-03
            1166     722.143E-06     155.168E-03    -143.716E+06    -239.239E+06    -140.076E+06    -3.22357E+06    -220.262E-03     440.502E-03    -220.240E-03     11.1280E-03    -220.434E-03     439.721E-03    -220.385E-03     10.7877E-03
            1167     1.44441E-03     155.186E-03    -138.557E+06    -227.217E+06    -127.972E+06    -5.61527E+06    -220.444E-03     440.738E-03    -220.293E-03     20.2641E-03    -220.632E-03     439.997E-03    -220.403E-03     19.6614E-03
            1168     2.16572E-03     155.213E-03    -131.546E+06    -209.996E+06    -109.707E+06    -7.78326E+06    -220.826E-03     441.238E-03    -220.413E-03     29.5230E-03    -221.041E-03     440.558E-03    -220.466E-03     28.6230E-03
            1169     2.88695E-03     155.250E-03    -122.939E+06    -189.965E+06    -88.3103E+06    -9.79835E+06    -221.201E-03     441.768E-03    -220.567E-03     38.5407E-03    -221.447E-03     441.160E-03    -220.555E-03     37.3469E-03
            1170     3.60889E-03     155.297E-03    -113.374E+06    -169.497E+06    -66.6303E+06    -11.7100E+06    -221.682E-03     442.412E-03    -220.730E-03     47.0961E-03    -221.961E-03     441.879E-03    -220.653E-03     45.5977E-03
            1171     4.33003E-03     155.352E-03    -103.015E+06    -149.075E+06    -45.8722E+06    -13.2432E+06    -222.293E-03     443.199E-03    -220.905E-03     55.3618E-03    -222.604E-03     442.747E-03    -220.769E-03     53.5348E-03
            1172     5.05080E-03     155.417E-03    -92.5443E+06    -129.875E+06    -27.1451E+06    -14.5364E+06    -222.820E-03     443.902E-03    -221.083E-03     63.0061E-03    -223.162E-03     443.534E-03    -220.896E-03     60.8278E-03
            1173     5.77172E-03     155.488E-03    -82.1586E+06    -111.479E+06    -10.3725E+06    -15.3199E+06    -223.315E-03     444.563E-03    -221.249E-03     70.0788E-03    -223.690E-03     444.281E-03    -221.020E-03     67.5392E-03
            1174     6.49166E-03     155.568E-03    -72.7336E+06    -94.8170E+06     4.34503E+06    -15.5353E+06    -223.792E-03     445.195E-03    -221.404E-03     76.5338E-03    -224.205E-03     445.001E-03    -221.139E-03     73.5976E-03
            1175     7.21324E-03     155.652E-03    -63.7563E+06    -78.5721E+06     17.2688E+06    -15.3398E+06    -224.309E-03     445.858E-03    -221.550E-03     82.2472E-03    -224.766E-03     445.760E-03    -221.257E-03     78.8809E-03
            1176     7.93179E-03     155.744E-03    -55.6782E+06    -61.8086E+06     28.6583E+06    -14.6635E+06    -224.663E-03     446.348E-03    -221.685E-03     87.2108E-03    -225.173E-03     446.358E-03    -221.372E-03     83.3812E-03
            1177     8.65314E-03     155.838E-03    -48.0596E+06    -45.8153E+06     39.0057E+06    -13.8755E+06    -224.966E-03     446.775E-03    -221.810E-03     91.0739E-03    -225.536E-03     446.899E-03    -221.479E-03     86.7137E-03
            1178     9.37449E-03     155.938E-03    -40.9077E+06    -26.5906E+06     48.5286E+06    -12.8058E+06    -225.437E-03     447.366E-03    -221.930E-03     93.6048E-03    -226.083E-03     447.632E-03    -221.589E-03     88.6121E-03
            1179     10.0932E-03     156.040E-03    -35.0112E+06    -4.41933E+06     57.7829E+06    -11.5307E+06    -225.674E-03     447.727E-03    -222.054E-03     95.1594E-03    -226.419E-03     448.165E-03    -221.707E-03     89.4144E-03
            1180     10.8129E-03     156.146E-03    -28.8580E+06     23.3846E+06     67.6818E+06    -10.8900E+06    -225.771E-03     447.941E-03    -222.170E-03     96.1872E-03    -226.639E-03     448.594E-03    -221.824E-03     89.5551E-03
            1181     11.5333E-03     156.253E-03    -22.7019E+06     71.3533E+06     80.9141E+06    -11.0883E+06    -226.070E-03     448.352E-03    -222.282E-03     95.8224E-03    -227.113E-03     449.333E-03    -221.947E-03     88.1109E-03
            1182     12.2527E-03     156.361E-03    -17.4860E+06     107.963E+06     90.9171E+06    -10.5499E+06    -226.704E-03     449.129E-03    -222.426E-03     91.7347E-03    -227.880E-03     450.364E-03    -222.103E-03     82.9737E-03
            1183     12.9718E-03     156.465E-03    -12.1685E+06     115.883E+06     101.686E+06    -7.23396E+06    -227.546E-03     450.211E-03    -222.665E-03     87.4927E-03    -228.895E-03     451.634E-03    -222.307E-03     77.0810E-03
            1184     13.6871E-03     156.568E-03    -6.20968E+06     119.179E+06     117.012E+06    -2.94909E+06    -228.580E-03     451.569E-03    -222.990E-03     70.7300E-03    -229.747E-03     452.798E-03    -222.568E-03     61.0713E-03
            1185     723.559E-06     156.637E-03    -138.876E+06    -227.602E+06    -136.931E+06    -3.25216E+06    -217.669E-03     435.231E-03    -217.562E-03     11.4861E-03    -217.837E-03     434.495E-03    -217.715E-03     11.1947E-03
            1186     1.44740E-03     156.653E-03    -135.534E+06    -216.418E+06    -124.675E+06    -5.86913E+06    -217.593E-03     435.205E-03    -217.612E-03     20.6802E-03    -217.785E-03     434.508E-03    -217.725E-03     20.1719E-03
            1187     2.17184E-03     156.682E-03    -128.739E+06    -199.771E+06    -106.580E+06    -8.48823E+06    -217.936E-03     435.596E-03    -217.660E-03     30.5580E-03    -218.153E-03     434.955E-03    -217.717E-03     29.7977E-03
            1188     2.89554E-03     156.720E-03    -120.337E+06    -180.307E+06    -85.6981E+06    -10.8733E+06    -218.485E-03     436.273E-03    -217.789E-03     40.1950E-03    -218.732E-03     435.701E-03    -217.781E-03     39.1793E-03
            1189     3.61856E-03     156.768E-03    -111.010E+06    -160.484E+06    -64.2183E+06    -12.9329E+06    -219.025E-03     436.982E-03    -217.958E-03     49.4438E-03    -219.302E-03     436.481E-03    -217.885E-03     48.1630E-03
            1190     4.34161E-03     156.825E-03    -101.061E+06    -141.461E+06    -43.8630E+06    -14.6070E+06    -219.525E-03     437.654E-03    -218.129E-03     58.3487E-03    -219.830E-03     437.225E-03    -217.997E-03     56.8010E-03
            1191     5.06483E-03     156.890E-03    -91.2920E+06    -123.370E+06    -25.6318E+06    -15.6252E+06    -220.202E-03     438.500E-03    -218.298E-03     66.9294E-03    -220.536E-03     438.146E-03    -218.115E-03     65.0993E-03
            1192     5.78705E-03     156.964E-03    -82.3584E+06    -106.797E+06    -9.64931E+06    -16.1146E+06    -221.018E-03     439.500E-03    -218.482E-03     74.9144E-03    -221.385E-03     439.223E-03    -218.256E-03     72.7796E-03
            1193     6.51016E-03     157.043E-03    -73.4925E+06    -91.5114E+06     4.63194E+06    -16.0073E+06    -221.943E-03     440.630E-03    -218.688E-03     82.0629E-03    -222.344E-03     440.432E-03    -218.425E-03     79.5955E-03
            1194     7.23094E-03     157.130E-03    -65.5338E+06    -75.8163E+06     16.9993E+06    -15.5303E+06    -222.927E-03     441.841E-03    -218.914E-03     88.2666E-03    -223.370E-03     441.733E-03    -218.624E-03     85.4309E-03
            1195     7.95397E-03     157.221E-03    -57.9168E+06    -60.3053E+06     28.0910E+06    -14.9299E+06    -224.025E-03     443.193E-03    -219.169E-03     93.2954E-03    -224.517E-03     443.184E-03    -218.857E-03     90.0361E-03
            1196     8.67419E-03     157.318E-03    -50.9145E+06    -45.7418E+06     37.7160E+06    -13.5857E+06    -225.339E-03     444.800E-03    -219.461E-03     97.0963E-03    -225.886E-03     444.894E-03    -219.132E-03     93.3400E-03
            1197     9.39259E-03     157.420E-03    -44.7067E+06    -26.5690E+06     46.8253E+06    -12.1773E+06    -226.580E-03     446.370E-03    -219.790E-03     99.6853E-03    -227.204E-03     446.605E-03    -219.453E-03     95.3207E-03
            1198     10.1127E-03     157.523E-03    -38.0211E+06    -4.44245E+06     56.5490E+06    -11.1011E+06    -227.800E-03     447.956E-03    -220.156E-03     100.994E-03    -228.517E-03     448.358E-03    -219.812E-03     95.8682E-03
            1199     10.8315E-03     157.629E-03    -31.9514E+06     26.1313E+06     67.0508E+06    -10.7691E+06    -229.130E-03     449.686E-03    -220.556E-03     100.763E-03    -229.972E-03     450.314E-03    -220.212E-03     94.6880E-03
            1200     11.5487E-03     157.738E-03    -25.7647E+06     73.9115E+06     80.0538E+06    -10.8001E+06    -230.473E-03     451.462E-03    -220.989E-03     98.9996E-03    -231.490E-03     452.418E-03    -220.659E-03     91.7335E-03
            1201     12.2642E-03     157.850E-03    -19.2146E+06     104.443E+06     89.8935E+06    -8.87945E+06    -231.726E-03     453.202E-03    -221.476E-03     94.4461E-03    -232.872E-03     454.390E-03    -221.150E-03     85.9928E-03
            1202     12.9777E-03     157.954E-03    -13.1717E+06     109.525E+06     100.272E+06    -6.29758E+06    -232.876E-03     454.919E-03    -222.043E-03     89.9100E-03    -234.200E-03     456.295E-03    -221.681E-03     79.6239E-03
            1203     13.6936E-03     158.061E-03    -6.50100E+06     112.158E+06     114.092E+06    -3.51758E+06    -234.036E-03     456.703E-03    -222.666E-03     72.6485E-03    -235.182E-03     457.893E-03    -222.249E-03     62.9921E-03
            1204     726.089E-06     158.096E-03    -138.308E+06    -216.418E+06    -135.522E+06    -3.08679E+06    -214.637E-03     429.055E-03    -214.419E-03     11.9205E-03    -214.820E-03     428.372E-03    -214.582E-03     11.7271E-03
            1205     1.45218E-03     158.114E-03    -134.194E+06    -205.037E+06    -123.316E+06    -5.75513E+06    -214.657E-03     429.207E-03    -214.550E-03     21.9323E-03    -214.859E-03     428.561E-03    -214.675E-03     21.5493E-03
            1206     2.17784E-03     158.142E-03    -128.224E+06    -189.171E+06    -106.163E+06    -8.28112E+06    -214.725E-03     429.319E-03    -214.593E-03     32.1021E-03    -214.952E-03     428.726E-03    -214.664E-03     31.5479E-03
            1207     2.90413E-03     158.181E-03    -120.996E+06    -170.630E+06    -86.0967E+06    -10.3962E+06    -214.953E-03     429.589E-03    -214.636E-03     42.3675E-03    -215.209E-03     429.058E-03    -214.644E-03     41.6365E-03
            1208     3.62999E-03     158.231E-03    -112.887E+06    -151.689E+06    -65.1773E+06    -12.1825E+06    -215.366E-03     430.067E-03    -214.701E-03     52.6897E-03    -215.653E-03     429.602E-03    -214.643E-03     51.7662E-03
            1209     4.35600E-03     158.287E-03    -104.633E+06    -133.629E+06    -45.4675E+06    -13.6712E+06    -215.970E-03     430.762E-03    -214.792E-03     62.6766E-03    -216.287E-03     430.364E-03    -214.674E-03     61.5519E-03
            1210     5.08146E-03     158.355E-03    -96.5636E+06    -117.398E+06    -27.9444E+06    -14.5675E+06    -216.786E-03     431.702E-03    -214.916E-03     72.0858E-03    -217.131E-03     431.368E-03    -214.746E-03     70.7502E-03
            1211     5.80732E-03     158.429E-03    -88.6087E+06    -101.964E+06    -12.4062E+06    -14.7663E+06    -217.959E-03     433.048E-03    -215.089E-03     80.8273E-03    -218.334E-03     432.782E-03    -214.875E-03     79.2531E-03
            1212     6.53102E-03     158.512E-03    -81.3205E+06    -87.5900E+06     821.953E+03    -15.0043E+06    -219.496E-03     434.826E-03    -215.330E-03     88.8060E-03    -219.906E-03     434.633E-03    -215.081E-03     86.9506E-03
            1213     7.25566E-03     158.600E-03    -73.7775E+06    -73.0153E+06     12.4666E+06    -14.9331E+06    -221.359E-03     437.013E-03    -215.654E-03     95.4357E-03    -221.805E-03     436.902E-03    -215.379E-03     93.2472E-03
            1214     7.97698E-03     158.694E-03    -66.8115E+06    -59.0851E+06     22.7331E+06    -14.1080E+06    -223.585E-03     439.659E-03    -216.074E-03     100.634E-03    -224.076E-03     439.636E-03    -215.777E-03     98.0448E-03
            1215     8.69806E-03     158.795E-03    -60.0127E+06    -44.7164E+06     31.9862E+06    -13.7024E+06    -225.878E-03     442.466E-03    -216.588E-03     104.417E-03    -226.422E-03     442.546E-03    -216.276E-03     101.330E-03
            1216     9.41934E-03     158.898E-03    -51.9029E+06    -25.2362E+06     41.6733E+06    -13.5560E+06    -228.323E-03     445.510E-03    -217.187E-03     106.357E-03    -228.932E-03     445.725E-03    -216.867E-03     102.652E-03
            1217     10.1368E-03     159.007E-03    -43.8138E+06    -3.90660E+06     51.4568E+06    -13.3985E+06    -231.209E-03     449.096E-03    -217.887E-03     106.347E-03    -231.899E-03     449.468E-03    -217.560E-03     101.840E-03
            1218     10.8517E-03     159.116E-03    -35.4945E+06     28.3920E+06     63.2395E+06    -13.1173E+06    -233.951E-03     452.632E-03    -218.681E-03     104.838E-03    -234.757E-03     453.231E-03    -218.355E-03     99.3121E-03
            1219     11.5649E-03     159.230E-03    -27.5337E+06     73.7692E+06     76.5153E+06    -11.7601E+06    -235.815E-03     455.340E-03    -219.525E-03     102.313E-03    -236.784E-03     456.252E-03    -219.210E-03     95.5408E-03
            1220     12.2776E-03     159.343E-03    -20.2544E+06     99.7230E+06     86.4609E+06    -9.91437E+06    -237.297E-03     457.700E-03    -220.403E-03     97.3193E-03    -238.395E-03     458.830E-03    -220.086E-03     89.2265E-03
            1221     12.9896E-03     159.453E-03    -12.1363E+06     104.474E+06     99.1968E+06    -7.48613E+06    -239.094E-03     460.440E-03    -221.347E-03     92.4693E-03    -240.373E-03     461.760E-03    -220.984E-03     82.3692E-03
            1222     13.6956E-03     159.561E-03    -5.26677E+06     105.459E+06     112.838E+06    -3.96948E+06    -240.374E-03     462.697E-03    -222.323E-03     74.5913E-03    -241.488E-03     463.840E-03    -221.904E-03     64.9498E-03
            1223     728.864E-06     159.547E-03    -142.610E+06    -207.427E+06    -138.470E+06    -2.03789E+06    -210.875E-03     421.607E-03    -210.732E-03     12.8312E-03    -211.088E-03     420.978E-03    -210.917E-03     12.7619E-03
            1224     1.45716E-03     159.565E-03    -139.008E+06    -196.066E+06    -127.706E+06    -3.50668E+06    -210.816E-03     421.611E-03    -210.795E-03     23.2339E-03    -211.045E-03     421.019E-03    -210.947E-03     23.0866E-03
            1225     2.18603E-03     159.593E-03    -134.719E+06    -180.295E+06    -111.187E+06    -5.18434E+06    -210.754E-03     421.532E-03    -210.778E-03     34.8063E-03    -211.011E-03     420.992E-03    -210.878E-03     34.5812E-03
            1226     2.91463E-03     159.632E-03    -128.957E+06    -162.295E+06    -91.3259E+06    -6.99180E+06    -210.733E-03     421.473E-03    -210.740E-03     46.0322E-03    -211.022E-03     420.991E-03    -210.775E-03     45.7192E-03
            1227     3.64452E-03     159.681E-03    -122.118E+06    -143.917E+06    -70.7604E+06    -8.66038E+06    -210.999E-03     421.706E-03    -210.707E-03     56.9055E-03    -211.316E-03     421.283E-03    -210.675E-03     56.4995E-03
            1228     4.37361E-03     159.741E-03    -114.865E+06    -126.890E+06    -51.3097E+06    -9.78677E+06    -211.752E-03     422.477E-03    -210.725E-03     67.5266E-03    -212.096E-03     422.110E-03    -210.631E-03     67.0072E-03
            1229     5.10261E-03     159.808E-03    -107.665E+06    -111.408E+06    -33.9308E+06    -10.6988E+06    -212.934E-03     423.761E-03    -210.826E-03     77.7049E-03    -213.303E-03     423.448E-03    -210.678E-03     77.0400E-03
            1230     5.83028E-03     159.885E-03    -100.288E+06    -96.6459E+06    -18.9734E+06    -11.8549E+06    -214.570E-03     425.592E-03    -211.022E-03     87.2342E-03    -214.963E-03     425.340E-03    -210.832E-03     86.3732E-03
            1231     6.55838E-03     159.970E-03    -92.3077E+06    -82.5810E+06    -5.97125E+06    -12.7818E+06    -216.853E-03     428.192E-03    -211.339E-03     95.7177E-03    -217.271E-03     428.005E-03    -211.115E-03     94.6114E-03
            1232     7.28331E-03     160.063E-03    -84.7684E+06    -68.7294E+06     5.27690E+06    -13.7950E+06    -219.855E-03     431.662E-03    -211.808E-03     102.903E-03    -220.303E-03     431.550E-03    -211.559E-03     101.473E-03
            1233     8.00751E-03     160.163E-03    -76.2078E+06    -55.5457E+06     15.5269E+06    -15.2205E+06    -223.356E-03     435.804E-03    -212.448E-03     108.503E-03    -223.839E-03     435.774E-03    -212.179E-03     106.638E-03
            1234     8.72899E-03     160.267E-03    -66.0492E+06    -40.0352E+06     26.0560E+06    -16.7842E+06    -227.338E-03     440.602E-03    -213.264E-03     111.709E-03    -227.861E-03     440.674E-03    -212.980E-03     109.293E-03
            1235     9.44591E-03     160.378E-03    -56.3233E+06    -21.6800E+06     36.0660E+06    -18.3681E+06    -231.642E-03     445.897E-03    -214.255E-03     112.592E-03    -232.220E-03     446.095E-03    -213.961E-03     109.490E-03
            1236     10.1613E-03     160.491E-03    -46.6270E+06    -3.26951E+06     45.9481E+06    -18.3959E+06    -235.728E-03     451.128E-03    -215.400E-03     111.916E-03    -236.375E-03     451.467E-03    -215.098E-03     107.980E-03
            1237     10.8737E-03     160.610E-03    -37.7148E+06     29.3821E+06     58.7414E+06    -17.0979E+06    -239.248E-03     455.898E-03    -216.650E-03     109.705E-03    -240.011E-03     456.462E-03    -216.344E-03     104.723E-03
            1238     11.5839E-03     160.726E-03    -29.4009E+06     72.7594E+06     72.6336E+06    -16.1790E+06    -242.066E-03     460.017E-03    -217.952E-03     105.606E-03    -242.988E-03     460.884E-03    -217.651E-03     99.2688E-03
            1239     12.2916E-03     160.845E-03    -20.5557E+06     95.3861E+06     84.3386E+06    -14.3003E+06    -244.099E-03     463.390E-03    -219.291E-03     99.0935E-03    -245.142E-03     464.455E-03    -218.977E-03     91.2941E-03
            1240     12.9964E-03     160.958E-03    -13.0643E+06     96.5943E+06     97.1425E+06    -10.3007E+06    -245.569E-03     466.221E-03    -220.652E-03     93.7606E-03    -246.800E-03     467.467E-03    -220.287E-03     83.8160E-03
            1241     13.7034E-03     161.074E-03    -6.20497E+06     95.3329E+06     110.124E+06    -4.52593E+06    -246.531E-03     468.513E-03    -221.983E-03     75.6803E-03    -247.611E-03     469.591E-03    -221.561E-03     66.0730E-03
            1242     731.475E-06     160.987E-03    -159.973E+06    -204.423E+06    -157.049E+06     386.707E+03    -206.050E-03     411.831E-03    -205.781E-03     14.3498E-03    -206.326E-03     411.267E-03    -206.038E-03     14.4404E-03
            1243     1.46405E-03     161.002E-03    -157.542E+06    -192.617E+06    -144.429E+06     380.985E+03    -205.757E-03     411.627E-03    -205.869E-03     25.8007E-03    -206.055E-03     411.097E-03    -206.084E-03     25.9603E-03
            1244     2.19664E-03     161.032E-03    -152.479E+06    -175.283E+06    -125.906E+06    -421.537E+03    -205.736E-03     411.544E-03    -205.807E-03     37.9929E-03    -206.058E-03     411.065E-03    -205.962E-03     38.2027E-03
            1245     2.92987E-03     161.070E-03    -145.978E+06    -156.084E+06    -104.113E+06    -1.80341E+06    -205.977E-03     411.755E-03    -205.778E-03     49.9068E-03    -206.324E-03     411.329E-03    -205.861E-03     50.1426E-03
            1246     3.66186E-03     161.120E-03    -138.556E+06    -137.343E+06    -82.0579E+06    -3.58146E+06    -206.520E-03     412.318E-03    -205.799E-03     61.5021E-03    -206.887E-03     411.942E-03    -205.809E-03     61.7362E-03
            1247     4.39478E-03     161.179E-03    -130.099E+06    -120.647E+06    -61.4480E+06    -5.69801E+06    -207.462E-03     413.345E-03    -205.883E-03     72.5951E-03    -207.841E-03     413.010E-03    -205.827E-03     72.7883E-03
            1248     5.12687E-03     161.250E-03    -120.769E+06    -104.833E+06    -43.2929E+06    -8.04557E+06    -209.130E-03     415.194E-03    -206.064E-03     83.1423E-03    -209.517E-03     414.904E-03    -205.953E-03     83.2390E-03
            1249     5.85843E-03     161.329E-03    -110.443E+06    -89.2668E+06    -27.2583E+06    -10.5796E+06    -211.627E-03     418.020E-03    -206.393E-03     92.8007E-03    -212.019E-03     417.781E-03    -206.239E-03     92.7288E-03
            1250     6.58732E-03     161.419E-03    -99.6690E+06    -75.5383E+06    -13.2478E+06    -13.4305E+06    -214.933E-03     421.841E-03    -206.908E-03     101.305E-03    -215.331E-03     421.655E-03    -206.721E-03     100.976E-03
            1251     7.31507E-03     161.518E-03    -88.2567E+06    -61.4825E+06    -581.193E+03    -16.2306E+06    -218.997E-03     426.630E-03    -207.632E-03     108.202E-03    -219.407E-03     426.509E-03    -207.418E-03     107.520E-03
            1252     8.03924E-03     161.623E-03    -76.9376E+06    -47.3652E+06     11.1090E+06    -19.2545E+06    -223.877E-03     432.463E-03    -208.586E-03     113.315E-03    -224.310E-03     432.423E-03    -208.350E-03     112.159E-03
            1253     8.75936E-03     161.739E-03    -66.5771E+06    -32.8128E+06     21.9197E+06    -22.2513E+06    -229.481E-03     439.263E-03    -209.783E-03     116.789E-03    -229.953E-03     439.320E-03    -209.529E-03     115.029E-03
            1254     9.47657E-03     161.857E-03    -56.8427E+06    -17.0293E+06     32.0827E+06    -23.7608E+06    -235.294E-03     446.506E-03    -211.211E-03     118.232E-03    -235.824E-03     446.681E-03    -210.944E-03     115.736E-03
            1255     10.1883E-03     161.981E-03    -48.3121E+06    -889.838E+03     41.9822E+06    -24.4537E+06    -240.686E-03     453.519E-03    -212.832E-03     117.116E-03    -241.292E-03     453.830E-03    -212.551E-03     113.713E-03
            1256     10.8973E-03     162.105E-03    -38.2291E+06     30.4271E+06     55.2056E+06    -24.5910E+06    -245.247E-03     459.820E-03    -214.573E-03     113.542E-03    -245.961E-03     460.348E-03    -214.286E-03     109.021E-03
            1257     11.6023E-03     162.233E-03    -27.5340E+06     70.9273E+06     70.3360E+06    -22.6767E+06    -248.882E-03     465.254E-03    -216.372E-03     108.312E-03    -249.739E-03     466.063E-03    -216.083E-03     102.377E-03
            1258     12.3044E-03     162.355E-03    -19.9313E+06     86.6522E+06     81.4219E+06    -17.5592E+06    -251.282E-03     469.474E-03    -218.192E-03     101.186E-03    -252.261E-03     470.455E-03    -217.882E-03     93.7110E-03
            1259     13.0064E-03     162.474E-03    -13.9844E+06     86.5057E+06     93.7446E+06    -11.0552E+06    -252.414E-03     472.395E-03    -219.980E-03     95.4630E-03    -253.593E-03     473.560E-03    -219.617E-03     85.7291E-03
            1260     13.7045E-03     162.590E-03    -7.84653E+06     84.3418E+06     107.235E+06    -6.34211E+06    -252.410E-03     474.079E-03    -221.669E-03     76.7939E-03    -253.457E-03     475.086E-03    -221.243E-03     67.2419E-03
            1261     737.290E-06     162.407E-03    -209.677E+06    -202.445E+06    -206.569E+06    -1.81563E+06    -199.573E-03     399.100E-03    -199.527E-03     15.1829E-03    -200.026E-03     398.687E-03    -199.962E-03     15.3905E-03
            1262     1.47380E-03     162.426E-03    -201.133E+06    -189.757E+06    -188.345E+06    -2.93202E+06    -199.802E-03     399.394E-03    -199.592E-03     27.7640E-03    -200.253E-03     399.000E-03    -199.967E-03     28.1536E-03
            1263     2.21037E-03     162.453E-03    -188.576E+06    -171.299E+06    -162.214E+06    -4.26245E+06    -200.217E-03     399.932E-03    -199.715E-03     40.5110E-03    -200.661E-03     399.566E-03    -200.004E-03     41.0668E-03
            1264     2.94665E-03     162.493E-03    -173.283E+06    -150.692E+06    -132.212E+06    -5.97951E+06    -200.835E-03     400.714E-03    -199.880E-03     53.0690E-03    -201.265E-03     400.375E-03    -200.071E-03     53.7593E-03
            1265     3.68376E-03     162.543E-03    -156.489E+06    -131.379E+06    -102.380E+06    -7.81406E+06    -202.025E-03     402.133E-03    -200.109E-03     65.1396E-03    -202.432E-03     401.813E-03    -200.203E-03     65.9212E-03
            1266     4.41925E-03     162.605E-03    -140.134E+06    -113.503E+06    -76.0923E+06    -9.86721E+06    -203.865E-03     404.309E-03    -200.444E-03     76.3627E-03    -204.246E-03     404.008E-03    -200.457E-03     77.1795E-03
            1267     5.15425E-03     162.678E-03    -124.322E+06    -97.2551E+06    -53.8147E+06    -12.2322E+06    -206.426E-03     407.346E-03    -200.920E-03     86.6229E-03    -206.779E-03     407.068E-03    -200.868E-03     87.4055E-03
            1268     5.88714E-03     162.763E-03    -109.873E+06    -81.4006E+06    -34.8166E+06    -14.3549E+06    -209.941E-03     411.520E-03    -201.579E-03     95.8466E-03    -210.277E-03     411.278E-03    -201.475E-03     96.5111E-03
            1269     6.61811E-03     162.859E-03    -97.8801E+06    -65.7166E+06    -18.5440E+06    -17.2057E+06    -214.290E-03     416.748E-03    -202.458E-03     103.814E-03    -214.626E-03     416.558E-03    -202.314E-03     104.241E-03
            1270     7.34538E-03     162.965E-03    -87.2749E+06    -51.1559E+06    -4.68942E+06    -21.2234E+06    -219.434E-03     423.008E-03    -203.574E-03     110.437E-03    -219.786E-03     422.884E-03    -203.397E-03     110.488E-03
            1271     8.06902E-03     163.082E-03    -76.5865E+06    -35.7828E+06     8.35547E+06    -26.0185E+06    -225.370E-03     430.311E-03    -204.941E-03     115.585E-03    -225.752E-03     430.270E-03    -204.736E-03     115.117E-03
            1272     8.78920E-03     163.205E-03    -65.0556E+06    -23.6544E+06     20.3282E+06    -29.9878E+06    -231.792E-03     438.350E-03    -206.557E-03     118.917E-03    -232.207E-03     438.393E-03    -206.327E-03     117.795E-03
            1273     9.50352E-03     163.338E-03    -53.0059E+06    -12.3203E+06     31.2063E+06    -31.7634E+06    -238.507E-03     446.911E-03    -208.404E-03     120.143E-03    -238.964E-03     447.048E-03    -208.153E-03     118.232E-03
            1274     10.2140E-03     163.472E-03    -40.3742E+06     3.54041E+06     43.2574E+06    -32.2475E+06    -245.196E-03     455.653E-03    -210.457E-03     119.133E-03    -245.714E-03     455.918E-03    -210.188E-03     116.268E-03
            1275     10.9181E-03     163.610E-03    -30.7492E+06     29.5645E+06     55.6799E+06    -30.3515E+06    -250.926E-03     463.580E-03    -212.653E-03     115.800E-03    -251.550E-03     464.039E-03    -212.373E-03     111.792E-03
            1276     11.6194E-03     163.743E-03    -25.7811E+06     61.4052E+06     67.9639E+06    -23.9639E+06    -255.092E-03     470.000E-03    -214.908E-03     110.501E-03    -255.868E-03     470.708E-03    -214.620E-03     105.121E-03
            1277     12.3184E-03     163.877E-03    -20.8912E+06     77.8923E+06     79.5000E+06    -18.1773E+06    -257.825E-03     474.985E-03    -217.160E-03     102.516E-03    -258.736E-03     475.869E-03    -216.845E-03     95.5555E-03
            1278     13.0138E-03     163.996E-03    -13.0568E+06     77.8518E+06     92.1064E+06    -15.1296E+06    -258.770E-03     478.107E-03    -219.337E-03     96.1110E-03    -259.875E-03     479.176E-03    -218.971E-03     86.6776E-03
            1279     13.7109E-03     164.121E-03    -4.65044E+06     69.2364E+06     106.494E+06    -8.64766E+06    -257.887E-03     479.250E-03    -221.363E-03     77.8630E-03    -258.868E-03     480.152E-03    -220.924E-03     68.4145E-03
            1280     741.475E-06     163.812E-03    -264.046E+06    -185.702E+06    -260.666E+06    -8.30853E+06    -193.098E-03     386.015E-03    -192.917E-03     14.8984E-03    -193.769E-03     385.842E-03    -193.568E-03     15.1429E-03
            1281     1.48356E-03     163.829E-03    -253.951E+06    -174.046E+06    -240.717E+06    -14.9257E+06    -193.616E-03     386.741E-03    -193.125E-03     27.5974E-03    -194.274E-03     386.575E-03    -193.708E-03     28.0346E-03
            1282     2.22496E-03     163.860E-03    -237.906E+06    -157.069E+06    -211.621E+06    -21.1065E+06    -194.597E-03     388.030E-03    -193.434E-03     40.3996E-03    -195.228E-03     387.870E-03    -193.919E-03     41.0387E-03
            1283     2.96599E-03     163.899E-03    -217.346E+06    -137.510E+06    -177.214E+06    -26.2690E+06    -196.064E-03     389.933E-03    -193.869E-03     52.7973E-03    -196.654E-03     389.775E-03    -194.241E-03     53.6156E-03
            1284     3.70548E-03     163.953E-03    -194.158E+06    -120.543E+06    -142.130E+06    -30.1557E+06    -198.192E-03     392.634E-03    -194.442E-03     64.5401E-03    -198.726E-03     392.461E-03    -194.696E-03     65.5094E-03
            1285     4.44417E-03     164.019E-03    -169.115E+06    -104.126E+06    -109.271E+06    -32.8079E+06    -201.218E-03     396.400E-03    -195.182E-03     75.2780E-03    -201.682E-03     396.210E-03    -195.332E-03     76.3618E-03
            1286     5.18021E-03     164.097E-03    -144.338E+06    -89.6871E+06    -79.6979E+06    -34.2529E+06    -205.080E-03     401.205E-03    -196.125E-03     85.0626E-03    -205.473E-03     400.999E-03    -196.185E-03     86.1978E-03
            1287     5.91398E-03     164.188E-03    -120.565E+06    -76.6358E+06    -53.2241E+06    -34.3773E+06    -209.598E-03     406.879E-03    -197.280E-03     93.7300E-03    -209.928E-03     406.663E-03    -197.261E-03     94.8311E-03
            1288     6.64439E-03     164.292E-03    -98.0206E+06    -60.6233E+06    -28.9175E+06    -33.0125E+06    -214.856E-03     413.504E-03    -198.648E-03     101.082E-03    -215.139E-03     413.309E-03    -198.562E-03     102.053E-03
            1289     7.37137E-03     164.408E-03    -78.4427E+06    -41.9866E+06    -6.75552E+06    -32.8758E+06    -220.804E-03     421.042E-03    -200.238E-03     107.297E-03    -221.070E-03     420.902E-03    -200.097E-03     107.980E-03
            1290     8.09449E-03     164.534E-03    -62.5649E+06    -25.6214E+06     11.6675E+06    -33.9437E+06    -227.295E-03     429.345E-03    -202.050E-03     112.280E-03    -227.568E-03     429.273E-03    -201.863E-03     112.506E-03
            1291     8.81164E-03     164.673E-03    -51.6844E+06    -14.9440E+06     25.4874E+06    -34.7519E+06    -234.147E-03     438.220E-03    -204.073E-03     115.730E-03    -234.453E-03     438.218E-03    -203.849E-03     115.341E-03
            1292     9.52534E-03     164.815E-03    -44.6721E+06    -4.15797E+06     36.2645E+06    -36.3347E+06    -241.099E-03     447.383E-03    -206.284E-03     117.742E-03    -241.468E-03     447.476E-03    -206.032E-03     116.562E-03
            1293     10.2327E-03     164.967E-03    -39.6362E+06     7.38057E+06     46.0013E+06    -36.9177E+06    -247.872E-03     456.530E-03    -208.658E-03     117.803E-03    -248.328E-03     456.740E-03    -208.381E-03     115.665E-03
            1294     10.9366E-03     165.115E-03    -34.1271E+06     24.6155E+06     55.5770E+06    -34.1961E+06    -254.224E-03     465.373E-03    -211.150E-03     115.534E-03    -254.786E-03     465.743E-03    -210.858E-03     112.256E-03
            1295     11.6347E-03     165.263E-03    -25.0897E+06     45.5169E+06     67.4423E+06    -27.3517E+06    -259.512E-03     473.229E-03    -213.718E-03     110.832E-03    -260.189E-03     473.786E-03    -213.410E-03     106.178E-03
            1296     12.3288E-03     165.401E-03    -15.5154E+06     70.4702E+06     81.9892E+06    -19.9309E+06    -262.825E-03     479.108E-03    -216.283E-03     103.450E-03    -263.634E-03     479.876E-03    -215.953E-03     97.1604E-03
            1297     13.0218E-03     165.532E-03    -10.3595E+06     72.4116E+06     93.0593E+06    -15.4923E+06    -263.795E-03     482.551E-03    -218.756E-03     96.3531E-03    -264.811E-03     483.518E-03    -218.381E-03     87.4628E-03
            1298     13.7137E-03     165.649E-03    -7.06603E+06     49.8949E+06     105.398E+06    -9.53500E+06    -262.707E-03     483.779E-03    -221.072E-03     77.7343E-03    -263.624E-03     484.543E-03    -220.607E-03     68.5686E-03
            1299     746.257E-06     165.197E-03    -243.512E+06    -150.193E+06    -239.331E+06    -12.6290E+06    -188.939E-03     377.381E-03    -188.442E-03     12.4213E-03    -189.589E-03     377.326E-03    -189.067E-03     12.6131E-03
            1300     1.49143E-03     165.217E-03    -235.593E+06    -139.671E+06    -221.595E+06    -23.5550E+06    -189.533E-03     378.403E-03    -188.870E-03     22.8619E-03    -190.178E-03     378.357E-03    -189.434E-03     23.2025E-03
            1301     2.23641E-03     165.248E-03    -223.710E+06    -125.188E+06    -197.068E+06    -34.2309E+06    -190.934E-03     380.251E-03    -189.317E-03     33.5581E-03    -191.565E-03     380.215E-03    -189.797E-03     34.0575E-03
            1302     2.97988E-03     165.293E-03    -208.786E+06    -109.627E+06    -169.334E+06    -43.4501E+06    -193.214E-03     383.194E-03    -189.980E-03     44.0119E-03    -193.820E-03     383.161E-03    -190.365E-03     44.6713E-03
            1303     3.72190E-03     165.350E-03    -191.329E+06    -97.0313E+06    -141.111E+06    -51.1125E+06    -196.250E-03     387.124E-03    -190.875E-03     54.0738E-03    -196.813E-03     387.073E-03    -191.162E-03     54.8828E-03
            1304     4.46135E-03     165.422E-03    -172.060E+06    -85.4654E+06    -114.185E+06    -57.1289E+06    -200.038E-03     392.025E-03    -191.988E-03     63.5108E-03    -200.546E-03     391.951E-03    -192.185E-03     64.4551E-03
            1305     5.19813E-03     165.508E-03    -151.635E+06    -76.3577E+06    -89.3275E+06    -60.9986E+06    -204.612E-03     397.932E-03    -193.320E-03     72.2574E-03    -205.054E-03     397.825E-03    -193.436E-03     73.3101E-03
            1306     5.93123E-03     165.607E-03    -130.939E+06    -68.5211E+06    -66.4137E+06    -62.8294E+06    -209.802E-03     404.669E-03    -194.868E-03     80.3544E-03    -210.177E-03     404.530E-03    -194.910E-03     81.4627E-03
            1307     6.66083E-03     165.721E-03    -109.761E+06    -58.2068E+06    -44.7357E+06    -62.5937E+06    -215.553E-03     412.169E-03    -196.616E-03     87.6751E-03    -215.868E-03     412.018E-03    -196.596E-03     88.7724E-03
            1308     7.38625E-03     165.847E-03    -88.4773E+06    -40.6379E+06    -21.2666E+06    -59.3991E+06    -221.797E-03     420.360E-03    -198.563E-03     93.9962E-03    -222.072E-03     420.240E-03    -198.482E-03     95.0011E-03
            1309     8.10660E-03     165.987E-03    -69.7877E+06    -26.5166E+06     2.35433E+06    -54.1550E+06    -228.296E-03     428.999E-03    -200.702E-03     99.4604E-03    -228.553E-03     428.908E-03    -200.551E-03     100.229E-03
            1310     8.82409E-03     166.136E-03    -53.0394E+06    -17.6013E+06     23.5151E+06    -47.4539E+06    -234.947E-03     437.946E-03    -202.999E-03     103.842E-03    -235.198E-03     437.880E-03    -202.779E-03     104.204E-03
            1311     9.53522E-03     166.295E-03    -39.3537E+06    -4.57904E+06     41.8520E+06    -39.8712E+06    -241.521E-03     446.933E-03    -205.413E-03     107.044E-03    -241.799E-03     446.937E-03    -205.140E-03     106.818E-03
            1312     10.2433E-03     166.457E-03    -29.8102E+06     9.05000E+06     56.4218E+06    -34.8604E+06    -247.820E-03     455.734E-03    -207.914E-03     108.840E-03    -248.160E-03     455.839E-03    -207.602E-03     107.766E-03
            1313     10.9455E-03     166.621E-03    -22.7454E+06     24.7738E+06     66.6578E+06    -33.5125E+06    -254.063E-03     464.540E-03    -210.476E-03     109.074E-03    -254.492E-03     464.785E-03    -210.146E-03     106.857E-03
            1314     11.6438E-03     166.781E-03    -17.2911E+06     32.8196E+06     75.4986E+06    -30.2870E+06    -259.971E-03     473.083E-03    -213.112E-03     106.842E-03    -260.501E-03     473.451E-03    -212.757E-03     103.246E-03
            1315     12.3379E-03     166.933E-03    -12.2348E+06     54.8288E+06     86.6426E+06    -21.9234E+06    -264.329E-03     480.090E-03    -215.761E-03     100.972E-03    -265.001E-03     480.663E-03    -215.389E-03     95.7544E-03
            1316     13.0290E-03     167.068E-03    -6.44994E+06     60.1229E+06     95.7118E+06    -12.0737E+06    -266.130E-03     484.475E-03    -218.345E-03     94.2770E-03    -267.004E-03     485.263E-03    -217.944E-03     86.4148E-03
            1317     13.7187E-03     167.194E-03    -1.51372E+06     35.1697E+06     110.385E+06    -4.88685E+06    -265.932E-03     486.761E-03    -220.829E-03     77.6323E-03    -266.739E-03     487.368E-03    -220.326E-03     69.1566E-03
            1318     745.617E-06     166.577E-03    -157.787E+06    -104.935E+06    -153.803E+06    -14.2512E+06    -190.146E-03     379.678E-03    -189.532E-03     6.05481E-03    -190.560E-03     379.603E-03    -189.920E-03     6.07396E-03
            1319     1.49142E-03     166.597E-03    -151.109E+06    -96.1170E+06    -138.321E+06    -25.5812E+06    -190.853E-03     380.969E-03    -190.116E-03     11.0466E-03    -191.268E-03     380.904E-03    -190.449E-03     11.1113E-03
            1320     2.23603E-03     166.632E-03    -142.084E+06    -84.3715E+06    -117.621E+06    -36.2180E+06    -192.398E-03     383.107E-03    -190.709E-03     16.3887E-03    -192.813E-03     383.056E-03    -190.969E-03     16.5061E-03
            1321     2.97934E-03     166.680E-03    -131.920E+06    -73.1845E+06    -96.4398E+06    -45.5349E+06    -194.743E-03     386.276E-03    -191.533E-03     21.7356E-03    -195.151E-03     386.232E-03    -191.718E-03     21.9123E-03
            1322     3.72018E-03     166.744E-03    -121.817E+06    -64.1898E+06    -77.3610E+06    -53.5896E+06    -197.766E-03     390.358E-03    -192.592E-03     26.9985E-03    -198.160E-03     390.313E-03    -192.709E-03     27.2467E-03
            1323     4.45834E-03     166.821E-03    -112.757E+06    -57.0532E+06    -60.9694E+06    -60.1661E+06    -201.232E-03     395.087E-03    -193.855E-03     32.5312E-03    -201.611E-03     395.037E-03    -193.914E-03     32.8732E-03
            1324     5.19362E-03     166.915E-03    -104.653E+06    -52.5514E+06    -47.2261E+06    -65.3753E+06    -205.125E-03     400.415E-03    -195.290E-03     38.3142E-03    -205.485E-03     400.352E-03    -195.298E-03     38.7730E-03
            1325     5.92570E-03     167.024E-03    -97.2042E+06    -49.2913E+06    -35.4066E+06    -69.4828E+06    -209.571E-03     406.455E-03    -196.884E-03     44.4815E-03    -209.911E-03     406.377E-03    -196.849E-03     45.0785E-03
            1326     6.65396E-03     167.147E-03    -90.2416E+06    -44.7343E+06    -24.0674E+06    -72.1776E+06    -214.457E-03     413.089E-03    -198.632E-03     51.1598E-03    -214.781E-03     413.003E-03    -198.556E-03     51.8933E-03
            1327     7.37806E-03     167.285E-03    -82.9772E+06    -35.9890E+06    -11.1182E+06    -72.5619E+06    -219.652E-03     420.169E-03    -200.516E-03     58.2910E-03    -219.967E-03     420.095E-03    -200.399E-03     59.1478E-03
            1328     8.09902E-03     167.435E-03    -73.5787E+06    -28.7453E+06     4.53797E+06    -69.7020E+06    -225.162E-03     427.691E-03    -202.529E-03     65.5561E-03    -225.462E-03     427.616E-03    -202.357E-03     66.4934E-03
            1329     8.81411E-03     167.598E-03    -62.3186E+06    -26.3343E+06     20.3117E+06    -64.4417E+06    -230.837E-03     435.476E-03    -204.639E-03     72.8756E-03    -231.112E-03     435.380E-03    -204.409E-03     73.7563E-03
            1330     9.52705E-03     167.768E-03    -49.1439E+06    -19.2333E+06     36.7636E+06    -56.4427E+06    -236.544E-03     443.359E-03    -206.816E-03     79.7240E-03    -236.801E-03     443.270E-03    -206.533E-03     80.3846E-03
            1331     10.2348E-03     167.943E-03    -35.4757E+06    -2.12891E+06     55.7570E+06    -46.2285E+06    -242.378E-03     451.428E-03    -209.049E-03     85.6467E-03    -242.648E-03     451.405E-03    -208.716E-03     85.8503E-03
            1332     10.9403E-03     168.120E-03    -25.6101E+06     16.8606E+06      74.945E+06    -35.2691E+06    -248.322E-03     459.670E-03    -211.348E-03     90.1971E-03    -248.653E-03     459.755E-03    -210.960E-03     89.5498E-03
            1333     11.6412E-03     168.295E-03    -20.8311E+06     22.8498E+06       88.82E+06    -26.3436E+06    -254.125E-03     467.833E-03    -213.707E-03     92.1712E-03    -254.548E-03     468.008E-03    -213.266E-03     90.1787E-03
            1334     12.3377E-03     168.460E-03    -16.4931E+06     40.0018E+06     94.4957E+06    -20.3873E+06    -259.406E-03     475.464E-03    -216.059E-03     90.7302E-03    -259.954E-03     475.824E-03    -215.620E-03     86.9702E-03
            1335     13.0296E-03     168.607E-03    -11.0003E+06     37.4788E+06     97.1615E+06    -12.5653E+06    -263.177E-03     481.604E-03    -218.427E-03     86.4806E-03    -263.873E-03     482.113E-03    -217.979E-03     80.2535E-03
            1336     13.7220E-03     168.731E-03    -5.30649E+06     21.5890E+06     111.989E+06    -3.28424E+06    -264.490E-03     485.284E-03    -220.794E-03     72.8567E-03    -265.156E-03     485.684E-03    -220.258E-03     65.9061E-03
            1337     739.527E-06     167.968E-03    -69.5644E+06     -58.773E+06    -65.9067E+06    -13.2309E+06    -200.622E-03     400.885E-03    -200.263E-03    -4.83320E-03    -200.802E-03     400.775E-03    -200.407E-03    -5.02891E-03
            1338     1.47773E-03     167.992E-03    -65.6763E+06    -53.1076E+06    -54.4091E+06    -23.1274E+06    -201.202E-03     402.038E-03    -200.836E-03    -9.02175E-03    -201.386E-03     401.933E-03    -200.936E-03    -9.37829E-03
            1339     2.21505E-03     168.027E-03    -60.4573E+06    -46.1381E+06    -38.9868E+06    -31.8654E+06    -202.318E-03     403.810E-03    -201.492E-03    -12.9381E-03    -202.506E-03     403.708E-03    -201.533E-03    -13.4657E-03
            1340     2.95065E-03     168.081E-03    -54.6145E+06    -39.3484E+06    -22.9939E+06    -38.6838E+06    -203.693E-03     406.038E-03    -202.345E-03    -16.5485E-03    -203.883E-03     405.937E-03    -202.324E-03    -17.2169E-03
            1341     3.68442E-03     168.148E-03    -49.4371E+06    -33.6745E+06    -8.62697E+06    -43.8112E+06    -205.215E-03     408.566E-03    -203.350E-03    -19.6942E-03    -205.406E-03     408.464E-03    -203.273E-03    -20.4428E-03
            1342     4.41629E-03     168.232E-03    -45.1425E+06    -29.7735E+06     3.78252E+06    -47.6572E+06    -206.751E-03     411.221E-03    -204.469E-03    -22.0106E-03    -206.944E-03     411.116E-03    -204.342E-03    -22.7695E-03
            1343     5.14588E-03     168.330E-03    -41.7864E+06    -27.5841E+06     14.6363E+06    -50.7956E+06    -208.271E-03     413.938E-03    -205.667E-03    -23.0806E-03    -208.467E-03     413.828E-03    -205.493E-03    -23.7841E-03
            1344     5.87349E-03     168.445E-03    -39.5008E+06    -26.2210E+06     24.2324E+06    -53.3170E+06    -209.842E-03     416.759E-03    -206.917E-03    -22.6283E-03    -210.045E-03     416.644E-03    -206.701E-03    -23.2073E-03
            1345     6.59871E-03     168.575E-03    -38.1792E+06    -24.3254E+06     32.5998E+06    -55.3248E+06    -211.420E-03     419.614E-03    -208.194E-03    -20.4495E-03    -211.636E-03     419.503E-03    -207.940E-03    -20.8410E-03
            1346     7.32248E-03     168.720E-03    -37.8701E+06    -21.2270E+06     39.4483E+06    -56.3236E+06    -213.097E-03     422.566E-03    -209.469E-03    -16.1394E-03    -213.330E-03     422.469E-03    -209.186E-03    -16.2820E-03
            1347     8.04307E-03     168.879E-03    -39.0206E+06    -19.8516E+06     44.0266E+06    -55.8707E+06    -214.993E-03     425.717E-03    -210.723E-03    -9.65082E-03    -215.243E-03     425.629E-03    -210.418E-03    -9.50977E-03
            1348     8.76341E-03     169.049E-03    -41.2666E+06    -21.0436E+06     47.5308E+06    -54.7550E+06    -217.266E-03     429.218E-03    -211.951E-03    -901.946E-06    -217.532E-03     429.128E-03    -211.623E-03    -507.283E-06
            1349     9.47990E-03     169.230E-03    -43.7434E+06    -21.6309E+06     51.9551E+06    -53.5135E+06    -220.120E-03     433.275E-03    -213.155E-03     9.84870E-03    -220.403E-03     433.183E-03    -212.801E-03     10.4146E-03
            1350     10.1953E-03     169.415E-03    -43.8550E+06    -13.8017E+06     61.0880E+06    -49.8286E+06    -223.796E-03     438.147E-03    -214.351E-03     22.6158E-03    -224.104E-03     438.085E-03    -213.962E-03     23.2421E-03
            1351     10.9058E-03     169.606E-03    -38.0557E+06    -4.39210E+06     75.7749E+06    -40.9119E+06    -228.281E-03     443.845E-03    -215.564E-03     37.1197E-03    -228.602E-03     443.809E-03    -215.124E-03     37.6272E-03
            1352     11.6135E-03     169.792E-03    -27.0182E+06     5.64836E+06     92.1233E+06    -29.3580E+06    -233.458E-03     450.251E-03    -216.793E-03     52.3384E-03    -233.785E-03     450.248E-03    -216.302E-03     52.3373E-03
            1353     12.3185E-03     169.972E-03    -17.6415E+06     27.8274E+06     103.411E+06    -20.3219E+06    -240.297E-03     458.358E-03    -218.060E-03     66.1269E-03    -240.678E-03     458.484E-03    -217.558E-03     64.9857E-03
            1354     13.0208E-03     170.132E-03    -11.5749E+06     16.4053E+06     103.851E+06    -10.8013E+06    -249.073E-03     468.593E-03    -219.521E-03     74.1480E-03    -249.520E-03     468.761E-03    -219.008E-03     70.9417E-03
            1355     13.7146E-03     170.270E-03    -4.87619E+06     8.62085E+06     109.533E+06    -2.61096E+06    -254.230E-03     475.409E-03    -221.179E-03     66.8349E-03    -254.673E-03     475.549E-03    -220.636E-03     62.5372E-03
            1356     721.583E-06     169.409E-03     13.9524E+06    -22.0543E+06     16.5448E+06    -7.91088E+06    -224.412E-03     448.961E-03    -224.549E-03    -19.3087E-03    -224.373E-03     448.758E-03    -224.454E-03    -19.7146E-03
            1357     1.44334E-03     169.430E-03     13.5429E+06    -19.9514E+06     23.2495E+06    -13.6715E+06    -224.486E-03     449.506E-03    -225.020E-03    -36.0808E-03    -224.453E-03     449.293E-03    -224.894E-03    -36.7876E-03
            1358     2.16389E-03     169.471E-03     13.2792E+06    -17.3019E+06     32.7873E+06    -18.5350E+06    -224.196E-03     449.798E-03    -225.602E-03    -52.9554E-03    -224.165E-03     449.572E-03    -225.433E-03    -53.9518E-03
            1359     2.88321E-03     169.523E-03     12.7065E+06    -14.7821E+06     43.3650E+06    -22.0737E+06    -223.390E-03     449.646E-03    -226.256E-03    -69.0785E-03    -223.363E-03     449.403E-03    -226.036E-03    -70.3025E-03
            1360     3.60168E-03     169.593E-03     12.1158E+06    -12.3954E+06     54.1865E+06    -24.4109E+06    -222.031E-03     448.965E-03    -226.934E-03    -84.1261E-03    -222.006E-03     448.704E-03    -226.662E-03    -85.5041E-03
            1361     4.31874E-03     169.677E-03     11.0838E+06    -10.9403E+06     64.3911E+06    -25.7466E+06    -220.187E-03     447.793E-03    -227.606E-03    -97.7549E-03    -220.166E-03     447.515E-03    -227.285E-03    -99.2179E-03
            1362     5.03540E-03     169.776E-03     9.51680E+06    -9.85047E+06     73.6206E+06    -26.5495E+06    -217.777E-03     446.025E-03    -228.247E-03    -109.584E-03    -217.766E-03     445.733E-03    -227.879E-03    -111.061E-03
            1363     5.75104E-03     169.891E-03     7.40002E+06    -9.26693E+06     81.3472E+06    -27.1679E+06    -214.606E-03     443.416E-03    -228.810E-03    -119.198E-03    -214.609E-03     443.119E-03    -228.400E-03    -120.629E-03
            1364     6.46728E-03     170.019E-03     4.36376E+06    -8.33181E+06     87.0659E+06    -27.5137E+06    -210.804E-03     440.046E-03    -229.242E-03    -126.257E-03    -210.830E-03     439.757E-03    -228.801E-03    -127.582E-03
            1365     7.18323E-03     170.163E-03     467.796E+03    -7.44388E+06     91.0942E+06    -27.1419E+06    -206.458E-03     435.967E-03    -229.509E-03    -130.364E-03    -206.514E-03     435.694E-03    -229.043E-03    -131.526E-03
            1366     7.90180E-03     170.319E-03    -3.20119E+06     -7.7244E+06     94.2836E+06    -26.1317E+06    -201.725E-03     431.305E-03    -229.581E-03    -131.181E-03    -201.810E-03     431.050E-03    -229.093E-03    -132.145E-03
            1367     8.62065E-03     170.489E-03    -6.08963E+06    -8.97590E+06     96.9322E+06    -25.0190E+06    -196.995E-03     426.431E-03    -229.436E-03    -128.402E-03    -197.105E-03     426.189E-03    -228.930E-03    -129.141E-03
            1368     9.34347E-03     170.668E-03    -8.00495E+06    -9.50581E+06     99.9251E+06    -24.6992E+06    -192.622E-03     421.689E-03    -229.067E-03    -121.440E-03    -192.753E-03     421.464E-03    -228.542E-03    -121.959E-03
            1369     10.0677E-03     170.857E-03    -9.72290E+06    -8.72647E+06     102.272E+06    -25.0064E+06    -188.864E-03     417.325E-03    -228.461E-03    -109.452E-03    -189.011E-03     417.119E-03    -227.923E-03    -109.761E-03
            1370     10.7970E-03     171.051E-03    -11.9219E+06    -8.25605E+06     101.949E+06    -24.9349E+06    -186.299E-03     413.915E-03    -227.616E-03    -92.1865E-03    -186.451E-03     413.719E-03    -227.077E-03    -92.2954E-03
            1371     11.5296E-03     171.246E-03    -13.5990E+06    -6.22000E+06     101.231E+06    -22.3941E+06    -186.392E-03     413.005E-03    -226.614E-03    -71.1129E-03    -186.538E-03     412.814E-03    -226.079E-03    -71.0936E-03
            1372     12.2632E-03     171.436E-03    -12.4049E+06     12.1845E+06     108.923E+06    -15.7791E+06    -190.037E-03     415.644E-03    -225.607E-03    -45.9908E-03    -190.206E-03     415.534E-03    -225.062E-03    -46.1672E-03
            1373     12.9886E-03     171.624E-03    -8.10493E+06     3.03271E+06     104.849E+06    -7.31528E+06    -196.613E-03     421.257E-03    -224.644E-03    -13.9395E-03    -196.789E-03     421.161E-03    -224.112E-03    -15.1218E-03
            1374     13.7061E-03     171.785E-03    -1.62109E+06    -971.491E+03     89.6276E+06    -2.48335E+06    -202.569E-03     426.230E-03    -223.660E-03     14.8456E-03    -202.745E-03     426.177E-03    -223.208E-03     13.1314E-03
            1375     13.6604E-03     85.3646E-03    -5.00801E+06     91.2710E+06      99.116E+06    -128.759E+03    -224.413E-03     449.343E-03    -224.929E-03     65.2807E-03    -225.517E-03     450.465E-03    -224.559E-03     55.4599E-03
            1376     12.9413E-03     85.2588E-03    -10.5768E+06     87.6628E+06     99.8659E+06     8.88417E+03    -224.902E-03     449.870E-03    -224.968E-03     81.9774E-03    -226.267E-03     451.219E-03    -224.580E-03     70.9816E-03
            1377     12.2226E-03     85.1485E-03    -17.2233E+06     79.9453E+06     94.0259E+06    -34.2987E+03    -225.189E-03     450.174E-03    -224.985E-03     86.2709E-03    -226.501E-03     451.436E-03    -224.606E-03     76.0437E-03
            1378     11.5029E-03     85.0266E-03    -23.5763E+06     73.0990E+06     82.7998E+06     407.292E+03    -225.431E-03     450.414E-03    -224.982E-03     90.8477E-03    -226.737E-03     451.655E-03    -224.640E-03     80.9964E-03
            1379     10.7833E-03     84.9023E-03    -30.7270E+06      65.244E+06     70.7016E+06     511.845E+03    -225.769E-03     450.749E-03    -224.980E-03     91.9640E-03    -227.004E-03     451.902E-03    -224.676E-03     82.7853E-03
            1380     10.0642E-03     84.7756E-03    -37.8663E+06     49.8909E+06     60.3731E+06     84.2587E+03    -225.964E-03     450.957E-03    -224.993E-03     90.9241E-03    -227.103E-03     451.963E-03    -224.708E-03     82.4604E-03
            1381     9.34518E-03     84.6508E-03    -44.7909E+06     34.4712E+06     52.5285E+06    -120.550E+03    -225.895E-03     450.916E-03    -225.020E-03     88.2261E-03    -226.932E-03     451.763E-03    -224.743E-03     80.5040E-03
            1382     8.62566E-03     84.5310E-03    -52.5166E+06     7.13132E+06     42.4211E+06     123.049E+03    -225.884E-03     450.943E-03    -225.059E-03     84.6703E-03    -226.807E-03     451.582E-03    -224.781E-03     77.6661E-03
            1383     7.90675E-03     84.4143E-03    -60.4747E+06    -32.5129E+06     28.2588E+06     332.545E+03    -225.921E-03     451.015E-03    -225.094E-03     80.4105E-03    -226.716E-03     451.398E-03    -224.818E-03     74.0760E-03
            1384     7.18776E-03     84.3052E-03    -68.6563E+06    -64.0621E+06     14.4968E+06     242.423E+03    -225.863E-03     450.979E-03    -225.116E-03     75.5921E-03    -226.553E-03     451.156E-03    -224.851E-03     69.8791E-03
            1385     6.46879E-03     84.2020E-03    -76.9761E+06    -92.8542E+06     134.208E+03     224.755E+03    -225.760E-03     450.890E-03    -225.130E-03     70.2999E-03    -226.357E-03     450.884E-03    -224.883E-03     65.1743E-03
            1386     5.74982E-03     84.1071E-03    -85.7775E+06    -118.329E+06    -15.2324E+06     190.186E+03    -225.539E-03     450.680E-03    -225.141E-03     64.4564E-03    -226.057E-03     450.517E-03    -224.921E-03     59.8890E-03
            1387     5.03082E-03     84.0203E-03    -94.8628E+06    -142.007E+06    -31.7896E+06     34.8748E+03    -225.338E-03     450.494E-03    -225.156E-03     58.1219E-03    -225.785E-03     450.192E-03    -224.971E-03     54.0878E-03
            1388     4.31179E-03     83.9431E-03    -103.986E+06    -165.340E+06    -49.6508E+06     103.190E+03    -225.301E-03     450.467E-03    -225.166E-03     51.2809E-03    -225.681E-03     450.035E-03    -225.024E-03     47.7767E-03
            1389     3.59300E-03     83.8754E-03    -112.603E+06    -187.640E+06    -69.0745E+06     326.181E+03    -225.278E-03     450.433E-03    -225.155E-03     43.7902E-03    -225.594E-03     449.884E-03    -225.065E-03     40.8270E-03
            1390     2.87434E-03     83.8190E-03    -120.528E+06    -211.264E+06    -88.8584E+06     164.624E+03    -225.196E-03     450.329E-03    -225.132E-03     35.7889E-03    -225.448E-03     449.660E-03    -225.096E-03     33.3695E-03
            1391     2.15577E-03     83.7740E-03    -127.914E+06    -231.701E+06    -108.089E+06     43.2548E+03    -225.089E-03     450.200E-03    -225.111E-03     27.4942E-03    -225.286E-03     449.434E-03    -225.130E-03     25.6396E-03
            1392     1.43704E-03     83.7417E-03    -133.719E+06    -246.524E+06    -124.088E+06    -247.434E+03    -225.042E-03     450.153E-03    -225.111E-03     18.7739E-03    -225.198E-03     449.318E-03    -225.180E-03     17.5077E-03
            1393     718.571E-06     83.7202E-03    -138.160E+06    -257.765E+06    -135.132E+06    -170.104E+03    -225.182E-03     450.230E-03    -225.048E-03     10.1559E-03    -225.311E-03     449.345E-03    -225.150E-03     9.45519E-03
            1394     13.6602E-03     83.8772E-03    -5.31101E+06     91.1889E+06     98.8140E+06    -369.483E+03    -224.395E-03     449.333E-03    -224.938E-03     64.9375E-03    -225.500E-03     450.456E-03    -224.568E-03     55.0822E-03
            1395     12.9415E-03     83.7727E-03    -11.1751E+06     87.2409E+06     99.4691E+06    -457.961E+03    -224.959E-03     449.934E-03    -224.975E-03     81.8712E-03    -226.327E-03     451.284E-03    -224.588E-03     70.8400E-03
            1396     12.2219E-03     83.6623E-03    -17.3019E+06     79.9646E+06     94.1453E+06     88.5813E+03    -225.126E-03     450.121E-03    -224.995E-03     86.4908E-03    -226.441E-03     451.386E-03    -224.615E-03     76.2568E-03
            1397     11.5025E-03     83.5421E-03    -24.2540E+06     72.5386E+06     82.7325E+06     141.212E+03    -225.452E-03     450.448E-03    -224.995E-03     91.0935E-03    -226.761E-03     451.688E-03    -224.652E-03     81.2437E-03
            1398     10.7832E-03     83.4158E-03    -30.5204E+06     65.5988E+06     71.2439E+06     287.625E+03    -225.868E-03     450.859E-03    -224.991E-03     91.9760E-03    -227.104E-03     452.012E-03    -224.685E-03     82.7933E-03
            1399     10.0644E-03     83.2894E-03    -36.8003E+06     50.7950E+06     61.0391E+06     186.273E+03    -225.960E-03     450.960E-03    -224.999E-03     90.7808E-03    -227.095E-03     451.967E-03    -224.714E-03     82.3160E-03
            1400     9.34481E-03     83.1657E-03    -44.2387E+06     34.3932E+06     52.6960E+06     89.5201E+03    -225.935E-03     450.960E-03    -225.025E-03     88.2390E-03    -226.969E-03     451.806E-03    -224.747E-03     80.5184E-03
            1401     8.62600E-03     83.0442E-03    -51.9797E+06     6.82940E+06     42.6151E+06     235.698E+03    -225.942E-03     451.003E-03    -225.061E-03     84.6360E-03    -226.862E-03     451.640E-03    -224.783E-03     77.6318E-03
            1402     7.90681E-03     82.9292E-03    -60.1772E+06    -32.6248E+06     28.4631E+06     356.159E+03    -225.865E-03     450.961E-03    -225.097E-03     80.4391E-03    -226.659E-03     451.343E-03    -224.820E-03     74.1064E-03
            1403     7.18755E-03     82.8189E-03    -68.4574E+06    -63.7406E+06     14.6662E+06     501.783E+03    -225.805E-03     450.929E-03    -225.124E-03     75.6652E-03    -226.495E-03     451.107E-03    -224.859E-03     69.9587E-03
            1404     6.46862E-03     82.7163E-03    -76.8395E+06    -92.4147E+06     216.376E+03     347.498E+03    -225.699E-03     450.844E-03    -225.145E-03     70.2731E-03    -226.296E-03     450.840E-03    -224.899E-03     65.1489E-03
            1405     5.74965E-03     82.6211E-03    -85.6799E+06    -118.093E+06    -15.0780E+06     195.213E+03    -225.535E-03     450.697E-03    -225.162E-03     64.4275E-03    -226.053E-03     450.535E-03    -224.942E-03     59.8573E-03
            1406     5.03063E-03     82.5349E-03    -94.6966E+06    -141.633E+06    -31.5467E+06     279.237E+03    -225.473E-03     450.643E-03    -225.170E-03     58.0642E-03    -225.920E-03     450.342E-03    -224.985E-03     54.0328E-03
            1407     4.31179E-03     82.4570E-03    -103.528E+06    -165.026E+06    -49.6836E+06     169.744E+03    -225.405E-03     450.566E-03    -225.161E-03     51.0729E-03    -225.783E-03     450.135E-03    -225.020E-03     47.5708E-03
            1408     3.59315E-03     82.3894E-03    -112.130E+06    -187.316E+06    -69.0906E+06    -91.9882E+03    -225.229E-03     450.372E-03    -225.144E-03     43.5819E-03    -225.542E-03     449.823E-03    -225.055E-03     40.6137E-03
            1409     2.87441E-03     82.3330E-03    -120.812E+06    -211.271E+06    -89.0174E+06    -85.2886E+03    -225.107E-03     450.244E-03    -225.137E-03     35.7440E-03    -225.360E-03     449.576E-03    -225.101E-03     33.3246E-03
            1410     2.15553E-03     82.2883E-03    -128.197E+06    -231.520E+06    -107.760E+06     6.56835E+03    -225.113E-03     450.241E-03    -225.127E-03     27.4721E-03    -225.312E-03     449.475E-03    -225.145E-03     25.6164E-03
            1411     1.43716E-03     82.2550E-03    -133.870E+06    -246.203E+06    -124.093E+06     184.620E+03    -225.088E-03     450.199E-03    -225.111E-03     18.8279E-03    -225.245E-03     449.367E-03    -225.180E-03     17.5616E-03
            1412     718.375E-06     82.2352E-03    -138.159E+06    -257.941E+06    -135.102E+06     67.9901E+03    -225.240E-03     450.211E-03    -224.971E-03     10.4187E-03    -225.369E-03     449.326E-03    -225.072E-03     9.72687E-03
            1413     13.6612E-03     82.3923E-03    -5.31288E+06     91.6873E+06     98.9959E+06    -26.1749E+03    -224.206E-03     449.144E-03    -224.938E-03     65.2714E-03    -225.311E-03     450.269E-03    -224.568E-03     55.4624E-03
            1414     12.9410E-03     82.2866E-03    -11.1401E+06     87.3488E+06     99.2873E+06    -153.589E+03    -224.746E-03     449.732E-03    -224.986E-03     82.0617E-03    -226.114E-03     451.083E-03    -224.600E-03     71.0614E-03
            1415     12.2218E-03     82.1770E-03    -17.8334E+06     79.5858E+06     93.6751E+06    -148.686E+03    -225.296E-03     450.303E-03    -225.007E-03     86.0647E-03    -226.607E-03     451.562E-03    -224.628E-03     75.8354E-03
            1416     11.5025E-03     82.0561E-03    -24.0484E+06     72.8855E+06     82.9120E+06    -192.294E+03    -225.673E-03     450.669E-03    -224.996E-03     90.7172E-03    -226.980E-03     451.908E-03    -224.652E-03     80.8531E-03
            1417     10.7836E-03     81.9294E-03    -30.6533E+06     65.5674E+06     71.4088E+06    -513.193E+03    -225.763E-03     450.750E-03    -224.987E-03     91.8449E-03    -226.999E-03     451.903E-03    -224.681E-03     82.6480E-03
            1418     10.0639E-03     81.8041E-03    -37.6646E+06     50.3153E+06     60.7265E+06    -269.354E+03    -225.890E-03     450.890E-03    -225.001E-03     90.6716E-03    -227.026E-03     451.895E-03    -224.715E-03     82.2096E-03
            1419     9.34512E-03     81.6790E-03    -44.5595E+06     34.2647E+06     52.4295E+06     180.609E+03    -225.958E-03     450.985E-03    -225.027E-03     88.2019E-03    -226.993E-03     451.831E-03    -224.750E-03     80.4816E-03
            1420     8.62575E-03     81.5588E-03    -52.2963E+06     6.67108E+06     42.4714E+06     278.749E+03    -225.900E-03     450.964E-03    -225.064E-03     84.6562E-03    -226.821E-03     451.600E-03    -224.786E-03     77.6532E-03
            1421     7.90659E-03     81.4431E-03    -60.5490E+06    -32.5992E+06     28.3473E+06     443.132E+03    -225.887E-03     450.988E-03    -225.101E-03     80.4018E-03    -226.682E-03     451.370E-03    -224.824E-03     74.0710E-03
            1422     7.18770E-03     81.3334E-03    -68.7144E+06    -63.3835E+06     14.6232E+06     382.070E+03    -225.768E-03     450.897E-03    -225.129E-03     75.5957E-03    -226.459E-03     451.077E-03    -224.864E-03     69.8929E-03
            1423     6.46855E-03     81.2303E-03    -77.1205E+06    -91.9874E+06     196.184E+03     283.191E+03    -225.652E-03     450.806E-03    -225.154E-03     70.1592E-03    -226.251E-03     450.804E-03    -224.908E-03     65.0322E-03
            1424     5.74946E-03     81.1357E-03    -85.7602E+06    -117.820E+06    -15.1130E+06     336.858E+03    -225.654E-03     450.821E-03    -225.166E-03     64.2517E-03    -226.172E-03     450.660E-03    -224.947E-03     59.6796E-03
            1425     5.03070E-03     81.0484E-03    -94.0897E+06    -141.112E+06    -31.3996E+06     171.881E+03    -225.598E-03     450.754E-03    -225.156E-03     57.8874E-03    -226.042E-03     450.454E-03    -224.972E-03     53.8520E-03
            1426     4.31221E-03     80.9710E-03    -103.072E+06    -164.458E+06    -49.5341E+06    -116.516E+03    -225.356E-03     450.495E-03    -225.139E-03     51.0492E-03    -225.733E-03     450.066E-03    -224.999E-03     47.5387E-03
            1427     3.59326E-03     80.9037E-03    -112.666E+06    -187.648E+06    -69.0864E+06     23.9914E+03    -225.149E-03     450.281E-03    -225.133E-03     43.7263E-03    -225.465E-03     449.732E-03    -225.043E-03     40.7536E-03
            1428     2.87427E-03     80.8474E-03    -120.661E+06    -211.081E+06    -88.5967E+06     216.288E+03    -225.133E-03     450.263E-03    -225.129E-03     35.8205E-03    -225.386E-03     449.595E-03    -225.091E-03     33.4064E-03
            1429     2.15580E-03     80.8019E-03    -127.896E+06    -231.432E+06    -107.864E+06     143.861E+03    -225.119E-03     450.228E-03    -225.109E-03     27.3861E-03    -225.316E-03     449.462E-03    -225.127E-03     25.5418E-03
            1430     1.43695E-03     80.7694E-03    -133.879E+06    -245.990E+06    -123.981E+06     143.972E+03    -225.092E-03     450.173E-03    -225.081E-03     18.7086E-03    -225.249E-03     449.341E-03    -225.150E-03     17.4450E-03
            1431     718.635E-06     80.7485E-03    -137.036E+06    -257.219E+06    -134.987E+06     150.725E+03    -225.147E-03     450.135E-03    -224.988E-03     10.3509E-03    -225.271E-03     449.251E-03    -225.091E-03     9.66191E-03
            1432     13.6597E-03     80.9068E-03    -5.25645E+06     91.7044E+06     98.7636E+06     207.636E+03    -224.159E-03     449.098E-03    -224.939E-03     65.1947E-03    -225.263E-03     450.222E-03    -224.571E-03     55.4029E-03
            1433     12.9410E-03     80.8008E-03    -10.9574E+06     87.6863E+06     99.5234E+06     186.950E+03    -224.851E-03     449.838E-03    -224.987E-03     81.7900E-03    -226.217E-03     451.188E-03    -224.601E-03     70.7887E-03
            1434     12.2217E-03     80.6907E-03    -17.2152E+06     80.2946E+06     93.9496E+06    -249.976E+03    -225.397E-03     450.398E-03    -225.000E-03     85.8730E-03    -226.707E-03     451.659E-03    -224.622E-03     75.6265E-03
            1435     11.5032E-03     80.5694E-03    -23.9948E+06     73.0050E+06     82.3434E+06    -480.544E+03    -225.675E-03     450.657E-03    -224.982E-03     90.6979E-03    -226.982E-03     451.899E-03    -224.642E-03     80.8121E-03
            1436     10.7834E-03     80.4449E-03    -30.7897E+06     65.4871E+06     69.9724E+06    -182.405E+03    -225.727E-03     450.698E-03    -224.970E-03     91.7427E-03    -226.961E-03     451.852E-03    -224.671E-03     82.5520E-03
            1437     10.0644E-03     80.3174E-03    -37.9507E+06     50.0773E+06     59.5021E+06    -195.947E+03    -225.807E-03     450.796E-03    -224.989E-03     90.7341E-03    -226.943E-03     451.802E-03    -224.709E-03     82.2779E-03
            1438     9.34494E-03     80.1937E-03    -45.6192E+06     33.7686E+06     51.8336E+06    -181.249E+03    -225.894E-03     450.918E-03    -225.024E-03     88.1762E-03    -226.932E-03     451.764E-03    -224.748E-03     80.4577E-03
            1439     8.62574E-03     80.0727E-03    -53.1855E+06     6.49366E+06     42.0882E+06     118.665E+03    -225.907E-03     450.971E-03    -225.064E-03     84.5126E-03    -226.831E-03     451.607E-03    -224.786E-03     77.5110E-03
            1440     7.90679E-03     79.9572E-03    -60.8301E+06    -32.2986E+06     28.1690E+06     54.2092E+03    -225.882E-03     450.981E-03    -225.099E-03     80.2918E-03    -226.679E-03     451.365E-03    -224.823E-03     73.9534E-03
            1441     7.18759E-03     79.8475E-03    -68.9382E+06    -63.2884E+06     14.4949E+06     9.14884E+03    -225.801E-03     450.925E-03    -225.125E-03     75.4825E-03    -226.493E-03     451.106E-03    -224.860E-03     69.7653E-03
            1442     6.46850E-03     79.7449E-03    -77.1559E+06    -91.9583E+06     172.382E+03     180.113E+03    -225.745E-03     450.887E-03    -225.142E-03     70.0294E-03    -226.343E-03     450.885E-03    -224.896E-03     64.9022E-03
            1443     5.74978E-03     79.6492E-03    -85.2032E+06    -117.062E+06    -14.8610E+06     20.3760E+03    -225.677E-03     450.822E-03    -225.145E-03     64.2277E-03    -226.193E-03     450.663E-03    -224.926E-03     59.6523E-03
            1444     5.03112E-03     79.5625E-03    -94.4659E+06    -140.957E+06    -31.4921E+06    -143.779E+03    -225.467E-03     450.608E-03    -225.141E-03     57.9758E-03    -225.914E-03     450.310E-03    -224.957E-03     53.9314E-03
            1445     4.31188E-03     79.4853E-03    -103.861E+06    -164.812E+06    -49.7700E+06     222.131E+03    -225.281E-03     450.419E-03    -225.138E-03     51.1309E-03    -225.661E-03     449.990E-03    -224.998E-03     47.6204E-03
            1446     3.59298E-03     79.4182E-03    -112.156E+06    -187.277E+06    -69.1507E+06     220.910E+03    -225.245E-03     450.371E-03    -225.126E-03     43.7112E-03    -225.559E-03     449.823E-03    -225.038E-03     40.7421E-03
            1447     2.87453E-03     79.3611E-03    -120.469E+06    -210.992E+06    -88.7394E+06     95.5048E+03    -225.192E-03     450.295E-03    -225.103E-03     35.7669E-03    -225.443E-03     449.627E-03    -225.066E-03     33.3541E-03
            1448     2.15574E-03     79.3162E-03    -127.943E+06    -230.954E+06    -107.754E+06     213.874E+03    -225.132E-03     450.195E-03    -225.064E-03     27.3728E-03    -225.330E-03     449.432E-03    -225.082E-03     25.5305E-03
            1449     1.43733E-03     79.2832E-03    -133.752E+06    -245.984E+06    -124.378E+06    -113.270E+03    -225.075E-03     450.087E-03    -225.011E-03     18.6912E-03    -225.231E-03     449.255E-03    -225.083E-03     17.4201E-03
            1450     718.576E-06     79.2626E-03    -137.795E+06    -257.108E+06    -134.699E+06    -16.4218E+03    -225.081E-03     449.972E-03    -224.891E-03     10.2907E-03    -225.210E-03     449.089E-03    -224.991E-03     9.59786E-03
            1451     13.6613E-03     79.4220E-03    -5.19580E+06     91.9226E+06     99.1453E+06    -57.0313E+03    -224.462E-03     449.394E-03    -224.932E-03     64.9281E-03    -225.567E-03     450.519E-03    -224.562E-03     55.0862E-03
            1452     12.9414E-03     79.3145E-03    -10.7986E+06     87.8858E+06     99.5594E+06     249.546E+03    -224.773E-03     449.745E-03    -224.972E-03     81.9520E-03    -226.139E-03     451.096E-03    -224.586E-03     70.9628E-03
            1453     12.2224E-03     79.2048E-03    -17.1323E+06     80.4135E+06     93.7181E+06     68.9881E+03    -225.193E-03     450.185E-03    -224.992E-03     86.2457E-03    -226.505E-03     451.450E-03    -224.616E-03     76.0088E-03
            1454     11.5023E-03     79.0838E-03    -23.9332E+06     73.1584E+06     81.9977E+06     235.095E+03    -225.648E-03     450.630E-03    -224.982E-03     90.8368E-03    -226.955E-03     451.874E-03    -224.643E-03     80.9704E-03
            1455     10.7838E-03     78.9582E-03    -31.0291E+06     65.3550E+06     69.1665E+06     159.422E+03    -225.790E-03     450.757E-03    -224.967E-03     91.8284E-03    -227.024E-03     451.913E-03    -224.671E-03     82.6376E-03
            1456     10.0642E-03     78.8328E-03    -37.9915E+06     50.5757E+06     59.1911E+06     349.124E+03    -225.852E-03     450.836E-03    -224.984E-03     90.9877E-03    -226.990E-03     451.847E-03    -224.706E-03     82.5372E-03
            1457     9.34494E-03     78.7073E-03    -45.1435E+06     34.2794E+06     52.1612E+06     23.3091E+03    -225.923E-03     450.943E-03    -225.020E-03     88.2245E-03    -226.960E-03     451.790E-03    -224.744E-03     80.5070E-03
            1458     8.62602E-03     78.5870E-03    -52.7289E+06     6.37970E+06     42.3176E+06    -469.412E+03    -225.905E-03     450.964E-03    -225.059E-03     84.4942E-03    -226.828E-03     451.599E-03    -224.780E-03     77.4759E-03
            1459     7.90667E-03     78.4715E-03    -60.3173E+06    -32.3146E+06     28.4210E+06    -279.625E+03    -225.896E-03     450.989E-03    -225.092E-03     80.3152E-03    -226.692E-03     451.373E-03    -224.816E-03     73.9633E-03
            1460     7.18768E-03     78.3616E-03    -67.9918E+06    -63.2337E+06     14.6373E+06    -163.345E+03    -225.872E-03     450.984E-03    -225.112E-03     75.4294E-03    -226.561E-03     451.164E-03    -224.848E-03     69.7039E-03
            1461     6.46896E-03     78.2587E-03    -76.2957E+06    -91.9508E+06     368.376E+03    -304.622E+03    -225.762E-03     450.887E-03    -225.125E-03     70.1648E-03    -226.357E-03     450.883E-03    -224.879E-03     65.0307E-03
            1462     5.74993E-03     78.1635E-03    -85.8265E+06    -117.480E+06    -15.0044E+06     13.8125E+03    -225.530E-03     450.666E-03    -225.136E-03     64.4256E-03    -226.050E-03     450.507E-03    -224.916E-03     59.8515E-03
            1463     5.03063E-03     78.0768E-03    -95.0053E+06    -140.983E+06    -31.8750E+06     489.789E+03    -225.391E-03     450.535E-03    -225.144E-03     58.0620E-03    -225.839E-03     450.239E-03    -224.962E-03     54.0287E-03
            1464     4.31196E-03     77.9996E-03    -103.478E+06    -164.392E+06    -49.8185E+06     192.634E+03    -225.405E-03     450.543E-03    -225.138E-03     51.1029E-03    -225.784E-03     450.115E-03    -224.998E-03     47.5940E-03
            1465     3.59342E-03     77.9318E-03    -112.369E+06    -186.915E+06    -69.1459E+06     102.339E+03    -225.324E-03     450.430E-03    -225.106E-03     43.6444E-03    -225.639E-03     449.883E-03    -225.018E-03     40.6794E-03
            1466     2.87454E-03     77.8755E-03    -120.964E+06    -210.732E+06    -89.2409E+06     82.7621E+03    -225.182E-03     450.250E-03    -225.068E-03     35.7434E-03    -225.436E-03     449.585E-03    -225.033E-03     33.3330E-03
            1467     2.15592E-03     77.8302E-03    -128.297E+06    -230.960E+06    -107.943E+06    -134.525E+03    -225.079E-03     450.109E-03    -225.030E-03     27.4515E-03    -225.279E-03     449.347E-03    -225.049E-03     25.6024E-03
            1468     1.43725E-03     77.7972E-03    -133.915E+06    -245.620E+06    -124.191E+06     228.889E+03    -225.005E-03     450.000E-03    -224.995E-03     18.7716E-03    -225.162E-03     449.170E-03    -225.066E-03     17.5109E-03
            1469     718.658E-06     77.7776E-03    -137.358E+06    -257.199E+06    -135.686E+06    -38.9109E+03    -225.110E-03     449.964E-03    -224.854E-03     10.4937E-03    -225.235E-03     449.082E-03    -224.960E-03     9.78995E-03
            1470     13.6602E-03     77.9347E-03    -5.25086E+06     91.7613E+06     98.4758E+06    -416.078E+03    -224.373E-03     449.301E-03    -224.928E-03     65.3068E-03    -225.478E-03     450.428E-03    -224.561E-03     55.4657E-03
            1471     12.9416E-03     77.8299E-03    -10.9872E+06     87.8030E+06     99.0672E+06    -7.39558E+03    -224.886E-03     449.855E-03    -224.969E-03     82.2946E-03    -226.253E-03     451.207E-03    -224.585E-03     71.3153E-03
            1472     12.2213E-03     77.7189E-03    -17.3377E+06     80.3467E+06     93.4129E+06     332.242E+03    -225.202E-03     450.189E-03    -224.987E-03     86.0740E-03    -226.510E-03     451.450E-03    -224.611E-03     75.8661E-03
            1473     11.5031E-03     77.5974E-03    -24.0373E+06     73.1937E+06     82.1219E+06     582.357E+03    -225.440E-03     450.424E-03    -224.984E-03     90.5750E-03    -226.742E-03     451.663E-03    -224.645E-03     80.7449E-03
            1474     10.7831E-03     77.4729E-03    -30.6426E+06     65.8752E+06     69.8191E+06     570.643E+03    -225.780E-03     450.758E-03    -224.978E-03     91.8531E-03    -227.014E-03     451.915E-03    -224.680E-03     82.6728E-03
            1475     10.0641E-03     77.3465E-03    -37.1491E+06     51.3412E+06     60.0535E+06    -33.2488E+03    -226.071E-03     451.058E-03    -224.987E-03     90.8881E-03    -227.208E-03     452.071E-03    -224.708E-03     82.4147E-03
            1476     9.34528E-03     77.2214E-03    -43.9666E+06     34.8918E+06     52.8623E+06    -294.788E+03    -225.944E-03     450.957E-03    -225.013E-03     88.1149E-03    -226.978E-03     451.805E-03    -224.735E-03     80.3801E-03
            1477     8.62573E-03     77.1014E-03    -51.6166E+06     6.38210E+06     42.5600E+06    -87.5017E+03    -225.874E-03     450.924E-03    -225.050E-03     84.4598E-03    -226.792E-03     451.557E-03    -224.771E-03     77.4436E-03
            1478     7.90686E-03     76.9853E-03    -59.6794E+06    -32.3510E+06     28.5970E+06    -216.121E+03    -225.898E-03     450.982E-03    -225.084E-03     80.3051E-03    -226.690E-03     451.365E-03    -224.808E-03     73.9538E-03
            1479     7.18792E-03     76.8758E-03    -68.1648E+06    -63.2620E+06     14.7406E+06    -243.729E+03    -225.795E-03     450.904E-03    -225.109E-03     75.6461E-03    -226.484E-03     451.084E-03    -224.845E-03     69.9247E-03
            1480     6.46866E-03     76.7728E-03    -77.2460E+06    -92.3436E+06    -29.5444E+03     235.686E+03    -225.668E-03     450.799E-03    -225.131E-03     70.3763E-03    -226.268E-03     450.797E-03    -224.885E-03     65.2489E-03
            1481     5.74965E-03     76.6779E-03    -86.1219E+06    -117.815E+06    -15.5045E+06     406.490E+03    -225.558E-03     450.703E-03    -225.146E-03     64.4481E-03    -226.077E-03     450.544E-03    -224.927E-03     59.8801E-03
            1482     5.03087E-03     76.5912E-03    -94.5641E+06    -140.597E+06    -31.6514E+06     190.209E+03    -225.503E-03     450.650E-03    -225.147E-03     58.0674E-03    -225.950E-03     450.354E-03    -224.964E-03     54.0364E-03
            1483     4.31204E-03     76.5131E-03    -103.508E+06    -163.807E+06    -49.6140E+06     214.534E+03    -225.411E-03     450.544E-03    -225.132E-03     51.1742E-03    -225.791E-03     450.118E-03    -224.993E-03     47.6730E-03
            1484     3.59321E-03     76.4462E-03    -112.466E+06    -186.821E+06    -69.3061E+06     124.614E+03    -225.299E-03     450.401E-03    -225.102E-03     43.7900E-03    -225.615E-03     449.856E-03    -225.014E-03     40.8228E-03
            1485     2.87463E-03     76.3894E-03    -120.443E+06    -210.270E+06    -88.8198E+06     1.14031E+03    -225.182E-03     450.250E-03    -225.067E-03     35.8727E-03    -225.435E-03     449.586E-03    -225.032E-03     33.4578E-03
            1486     2.15597E-03     76.3446E-03    -127.769E+06    -230.866E+06    -107.844E+06    -89.8881E+03    -225.007E-03     450.051E-03    -225.044E-03     27.5434E-03    -225.205E-03     449.288E-03    -225.063E-03     25.6965E-03
            1487     1.43710E-03     76.3118E-03    -133.689E+06    -245.769E+06    -123.704E+06    -102.289E+03    -224.974E-03     450.022E-03    -225.048E-03     18.9627E-03    -225.131E-03     449.191E-03    -225.116E-03     17.6990E-03
            1488     718.505E-06     76.2910E-03    -137.318E+06    -256.448E+06    -134.224E+06     419.769E+03    -225.073E-03     450.111E-03    -225.038E-03     10.5299E-03    -225.201E-03     449.231E-03    -225.139E-03     9.82491E-03
            1489     13.6606E-03     76.4501E-03    -5.05386E+06     92.0509E+06     98.2024E+06    -40.6749E+03    -224.325E-03     449.257E-03    -224.931E-03     65.3096E-03    -225.430E-03     450.385E-03    -224.567E-03     55.4999E-03
            1490     12.9407E-03     76.3427E-03    -11.5875E+06     87.3998E+06     98.2846E+06    -263.702E+03    -225.033E-03     450.002E-03    -224.969E-03     81.9974E-03    -226.400E-03     451.353E-03    -224.587E-03     70.9928E-03
            1491     12.2232E-03     76.2331E-03    -17.8803E+06     79.9972E+06     93.0645E+06     58.0311E+03    -225.210E-03     450.194E-03    -224.984E-03     86.0642E-03    -226.520E-03     451.455E-03    -224.609E-03     75.8549E-03
            1492     11.5025E-03     76.1127E-03    -24.0810E+06     73.2991E+06     82.3182E+06    -36.0121E+03    -225.500E-03     450.480E-03    -224.980E-03     90.7480E-03    -226.808E-03     451.724E-03    -224.640E-03     80.8831E-03
            1493     10.7834E-03     75.9871E-03    -30.1405E+06     66.5183E+06     70.3687E+06    -377.181E+03    -225.927E-03     450.893E-03    -224.966E-03     91.5917E-03    -227.159E-03     452.050E-03    -224.667E-03     82.3933E-03
            1494     10.0645E-03     75.8594E-03    -36.4026E+06     51.6924E+06     60.3326E+06    -336.986E+03    -225.937E-03     450.908E-03    -224.972E-03     90.4284E-03    -227.069E-03     451.920E-03    -224.692E-03     81.9457E-03
            1495     9.34513E-03     75.7365E-03    -43.7366E+06     34.4344E+06     52.5801E+06    -2.36969E+03    -225.816E-03     450.820E-03    -225.005E-03     88.1112E-03    -226.847E-03     451.667E-03    -224.728E-03     80.3825E-03
            1496     8.62619E-03     75.6149E-03    -51.5740E+06     6.49489E+06     42.4026E+06     242.105E+03    -225.833E-03     450.882E-03    -225.049E-03     84.7559E-03    -226.751E-03     451.516E-03    -224.771E-03     77.7537E-03
            1497     7.90693E-03     75.5000E-03    -60.0419E+06    -32.0220E+06     28.3866E+06     213.913E+03    -225.826E-03     450.916E-03    -225.090E-03     80.5579E-03    -226.621E-03     451.302E-03    -224.815E-03     74.2204E-03
            1498     7.18750E-03     75.3899E-03    -68.6610E+06    -63.8347E+06     14.6154E+06     542.629E+03    -225.764E-03     450.888E-03    -225.123E-03     75.7450E-03    -226.456E-03     451.066E-03    -224.858E-03     70.0359E-03
            1499     6.46863E-03     75.2873E-03    -76.8820E+06    -92.4494E+06     222.719E+03     758.855E+03    -225.702E-03     450.848E-03    -225.146E-03     70.2637E-03    -226.299E-03     450.843E-03    -224.900E-03     65.1461E-03
            1500     5.74962E-03     75.1919E-03    -85.1667E+06    -116.540E+06    -14.9312E+06     375.974E+03    -225.649E-03     450.802E-03    -225.153E-03     64.4059E-03    -226.166E-03     450.647E-03    -224.936E-03     59.8417E-03
            1501     5.03086E-03     75.1049E-03    -94.3464E+06    -140.353E+06    -31.5326E+06     22.5604E+03    -225.510E-03     450.661E-03    -225.150E-03     58.1510E-03    -225.957E-03     450.366E-03    -224.968E-03     54.1173E-03
            1502     4.31201E-03     75.0276E-03    -103.529E+06    -163.984E+06    -49.6044E+06     70.5556E+03    -225.344E-03     450.487E-03    -225.143E-03     51.3099E-03    -225.724E-03     450.061E-03    -225.003E-03     47.8062E-03
            1503     3.59319E-03     74.9600E-03    -112.068E+06    -186.267E+06    -69.0198E+06     43.2067E+03    -225.255E-03     450.380E-03    -225.126E-03     43.8611E-03    -225.570E-03     449.837E-03    -225.038E-03     40.8928E-03
            1504     2.87448E-03     74.9035E-03    -120.589E+06    -210.263E+06    -88.9413E+06     4.60513E+03    -225.151E-03     450.258E-03    -225.107E-03     35.8794E-03    -225.404E-03     449.594E-03    -225.072E-03     33.4615E-03
            1505     2.15566E-03     74.8590E-03    -128.015E+06    -230.472E+06    -107.953E+06     143.007E+03    -225.078E-03     450.165E-03    -225.087E-03     27.5210E-03    -225.277E-03     449.404E-03    -225.107E-03     25.6726E-03
            1506     1.43707E-03     74.8259E-03    -133.722E+06    -245.746E+06    -124.419E+06    -120.054E+03    -225.071E-03     450.135E-03    -225.064E-03     18.9397E-03    -225.227E-03     449.305E-03    -225.136E-03     17.6732E-03
            1507     718.508E-06     74.8049E-03    -137.379E+06    -256.517E+06    -134.852E+06    -581.758E+03    -224.875E-03     450.110E-03    -225.235E-03     10.3482E-03    -225.002E-03     449.230E-03    -225.338E-03     9.64834E-03
            1508     13.6604E-03     74.9636E-03    -5.32199E+06     92.3152E+06     98.6568E+06     383.129E+03    -224.556E-03     449.478E-03    -224.922E-03     65.0327E-03    -225.659E-03     450.604E-03    -224.555E-03     55.2286E-03
            1509     12.9421E-03     74.8568E-03    -11.1665E+06     87.8986E+06     98.9367E+06     196.362E+03    -224.707E-03     449.668E-03    -224.961E-03     81.7768E-03    -226.074E-03     451.020E-03    -224.577E-03     70.7728E-03
            1510     12.2209E-03     74.7476E-03    -17.7617E+06     80.2248E+06     93.3069E+06    -566.725E+03    -225.166E-03     450.150E-03    -224.984E-03     85.9889E-03    -226.478E-03     451.414E-03    -224.608E-03     75.7441E-03
            1511     11.5029E-03     74.6267E-03    -23.8960E+06     73.6476E+06     82.5576E+06    -1.01459E+06    -225.809E-03     450.780E-03    -224.971E-03     90.7045E-03    -227.117E-03     452.025E-03    -224.630E-03     80.8039E-03
            1512     10.7843E-03     74.4999E-03    -30.3277E+06     66.4107E+06     69.9445E+06    -739.832E+03    -225.814E-03     450.762E-03    -224.948E-03     91.8496E-03    -227.049E-03     451.923E-03    -224.651E-03     82.6308E-03
            1513     10.0647E-03     74.3752E-03    -37.6889E+06     50.6075E+06     59.0180E+06    -282.049E+03    -225.718E-03     450.683E-03    -224.965E-03     90.9152E-03    -226.856E-03     451.695E-03    -224.688E-03     82.4468E-03
            1514     9.34519E-03     74.2501E-03    -44.7566E+06     34.1043E+06     52.0366E+06     213.219E+03    -225.752E-03     450.764E-03    -225.012E-03     88.4138E-03    -226.788E-03     451.611E-03    -224.736E-03     80.7030E-03
            1515     8.62564E-03     74.1298E-03    -52.6514E+06     6.61026E+06     42.1119E+06     299.770E+03    -225.764E-03     450.827E-03    -225.064E-03     84.8716E-03    -226.687E-03     451.465E-03    -224.786E-03     77.8771E-03
            1516     7.90635E-03     74.0139E-03    -60.6502E+06    -32.1819E+06     27.9222E+06     533.442E+03    -225.852E-03     450.959E-03    -225.107E-03     80.5724E-03    -226.649E-03     451.346E-03    -224.833E-03     74.2421E-03
            1517     7.18770E-03     73.9042E-03    -68.6231E+06    -63.8212E+06     14.1152E+06     470.490E+03    -225.854E-03     450.989E-03    -225.135E-03     75.6515E-03    -226.545E-03     451.168E-03    -224.872E-03     69.9407E-03
            1518     6.46853E-03     73.8013E-03    -76.9278E+06    -91.8392E+06     102.080E+03     186.024E+03    -225.758E-03     450.910E-03    -225.152E-03     70.3142E-03    -226.357E-03     450.910E-03    -224.907E-03     65.1881E-03
            1519     5.74977E-03     73.7059E-03    -85.2806E+06    -116.213E+06    -14.6621E+06     245.289E+03    -225.613E-03     450.775E-03    -225.162E-03     64.5044E-03    -226.132E-03     450.621E-03    -224.943E-03     59.9379E-03
            1520     5.03071E-03     73.6193E-03    -94.2631E+06    -140.049E+06    -31.4817E+06     329.244E+03    -225.476E-03     450.639E-03    -225.164E-03     58.1712E-03    -225.923E-03     450.346E-03    -224.981E-03     54.1371E-03
            1521     4.31181E-03     73.5416E-03    -103.424E+06    -163.657E+06    -49.7255E+06     133.585E+03    -225.353E-03     450.512E-03    -225.159E-03     51.2743E-03    -225.733E-03     450.088E-03    -225.021E-03     47.7673E-03
            1522     3.59310E-03     73.4740E-03    -112.389E+06    -186.250E+06    -69.0766E+06     164.300E+03    -225.181E-03     450.335E-03    -225.155E-03     43.8443E-03    -225.498E-03     449.793E-03    -225.067E-03     40.8776E-03
            1523     2.87424E-03     73.4177E-03    -120.626E+06    -209.955E+06    -88.8525E+06     225.950E+03    -225.153E-03     450.304E-03    -225.151E-03     35.9048E-03    -225.407E-03     449.642E-03    -225.116E-03     33.4855E-03
            1524     2.15570E-03     73.3728E-03    -127.882E+06    -230.329E+06    -107.718E+06     127.545E+03    -225.228E-03     450.345E-03    -225.117E-03     27.5041E-03    -225.428E-03     449.585E-03    -225.136E-03     25.6530E-03
            1525     1.43725E-03     73.3398E-03    -133.678E+06    -245.051E+06    -123.926E+06     188.080E+03    -225.154E-03     450.203E-03    -225.049E-03     18.8556E-03    -225.311E-03     449.375E-03    -225.120E-03     17.5968E-03
            1526     718.681E-06     73.3192E-03    -137.625E+06    -256.921E+06    -135.483E+06     104.533E+03    -224.876E-03     450.023E-03    -225.146E-03     10.2624E-03    -225.003E-03     449.142E-03    -225.252E-03     9.57371E-03
            1527     13.6617E-03     73.4766E-03    -5.74878E+06     92.0198E+06     98.5598E+06     146.738E+03    -224.504E-03     449.423E-03    -224.919E-03     65.3862E-03    -225.614E-03     450.553E-03    -224.551E-03     55.5532E-03
            1528     12.9411E-03     73.3728E-03    -10.7970E+06     88.4107E+06     99.8459E+06    -80.5819E+03    -224.914E-03     449.870E-03    -224.956E-03     81.8867E-03    -226.284E-03     451.226E-03    -224.569E-03     70.8611E-03
            1529     12.2229E-03     73.2616E-03    -16.1056E+06     81.9678E+06     94.9156E+06    -116.490E+03    -225.304E-03     450.272E-03    -224.969E-03     85.7727E-03    -226.610E-03     451.537E-03    -224.589E-03     75.5364E-03
            1530     11.5034E-03     73.1396E-03    -23.4741E+06     73.9254E+06     82.1824E+06    -327.169E+03    -225.388E-03     450.345E-03    -224.957E-03     90.6984E-03    -226.690E-03     451.588E-03    -224.619E-03     80.8501E-03
            1531     10.7833E-03     73.0156E-03    -31.2654E+06     65.4119E+06     68.6441E+06    -217.941E+03    -225.493E-03     450.452E-03    -224.959E-03     92.1451E-03    -226.730E-03     451.612E-03    -224.665E-03     82.9613E-03
            1532     10.0638E-03     72.8888E-03    -38.1932E+06     50.2385E+06     58.7553E+06      54.678E+03    -225.764E-03     450.755E-03    -224.991E-03     91.1749E-03    -226.904E-03     451.767E-03    -224.715E-03     82.7199E-03
            1533     9.34493E-03     72.7647E-03    -45.5862E+06     33.8082E+06     51.5194E+06    -3.21312E+03    -225.878E-03     450.911E-03    -225.033E-03     88.4835E-03    -226.918E-03     451.760E-03    -224.758E-03     80.7614E-03
            1534     8.62574E-03     72.6442E-03    -53.1503E+06     6.44563E+06     41.6840E+06     211.363E+03    -225.880E-03     450.956E-03    -225.076E-03     84.7814E-03    -226.804E-03     451.593E-03    -224.800E-03     77.7814E-03
            1535     7.90674E-03     72.5279E-03    -60.9436E+06    -32.2188E+06     27.7671E+06     222.775E+03    -225.867E-03     450.982E-03    -225.116E-03     80.5081E-03    -226.664E-03     451.368E-03    -224.842E-03     74.1783E-03
            1536     7.18734E-03     72.4183E-03    -68.8517E+06    -62.9871E+06     13.9618E+06      -25.53E+03    -225.835E-03     450.977E-03    -225.142E-03     75.6995E-03    -226.527E-03     451.161E-03    -224.881E-03     69.9828E-03
            1537     6.46860E-03     72.3152E-03    -77.1501E+06    -91.5363E+06    -236.989E+03    -269.616E+03    -225.754E-03     450.916E-03    -225.162E-03     70.3785E-03    -226.354E-03     450.919E-03    -224.919E-03     65.2402E-03
            1538     5.74944E-03     72.2201E-03    -86.2554E+06    -117.032E+06    -15.3999E+06    -27.0538E+03    -225.617E-03     450.791E-03    -225.174E-03     64.5033E-03    -226.139E-03     450.636E-03    -224.956E-03     59.9245E-03
            1539     5.03064E-03     72.1332E-03    -94.8152E+06    -139.746E+06    -31.6112E+06     342.971E+03    -225.482E-03     450.659E-03    -225.177E-03     58.1514E-03    -225.933E-03     450.369E-03    -224.995E-03     54.1132E-03
            1540     4.31196E-03     72.0555E-03    -103.422E+06    -163.069E+06    -49.6655E+06     315.888E+03    -225.308E-03     450.486E-03    -225.178E-03     51.2700E-03    -225.689E-03     450.065E-03    -225.040E-03     47.7617E-03
            1541     3.59298E-03     71.9885E-03    -112.460E+06    -186.175E+06    -69.2657E+06     149.386E+03    -225.201E-03     450.379E-03    -225.178E-03     43.8668E-03    -225.518E-03     449.838E-03    -225.092E-03     40.8900E-03
            1542     2.87418E-03     71.9316E-03    -120.814E+06    -209.775E+06    -88.8287E+06     216.095E+03    -225.218E-03     450.389E-03    -225.171E-03     35.9493E-03    -225.474E-03     449.729E-03    -225.135E-03     33.5286E-03
            1543     2.15562E-03     71.8863E-03    -127.949E+06    -230.004E+06    -107.748E+06     145.505E+03    -225.234E-03     450.365E-03    -225.131E-03     27.4932E-03    -225.434E-03     449.607E-03    -225.151E-03     25.6452E-03
            1544     1.43711E-03     71.8538E-03    -133.795E+06    -244.944E+06    -123.887E+06     208.370E+03    -225.152E-03     450.223E-03    -225.072E-03     18.7838E-03    -225.310E-03     449.397E-03    -225.142E-03     17.5115E-03
            1545     718.515E-06     71.8334E-03    -137.465E+06    -256.215E+06    -134.536E+06     566.542E+03    -225.135E-03     450.080E-03    -224.944E-03     10.3144E-03    -225.264E-03     449.201E-03    -225.046E-03     9.61187E-03
            1546     13.6596E-03     71.9926E-03    -4.99149E+06     92.8147E+06     99.3414E+06    -383.436E+03    -224.462E-03     449.380E-03    -224.918E-03     64.8351E-03    -225.567E-03     450.509E-03    -224.549E-03     54.9913E-03
            1547     12.9417E-03     71.8847E-03    -10.9089E+06     88.3893E+06     99.4282E+06    -580.720E+03    -224.981E-03     449.931E-03    -224.950E-03     81.7791E-03    -226.347E-03     451.283E-03    -224.565E-03     70.7698E-03
            1548     12.2227E-03     71.7755E-03    -17.4018E+06     80.7314E+06     93.5162E+06    -100.665E+03    -225.023E-03     449.992E-03    -224.969E-03     86.4857E-03    -226.336E-03     451.258E-03    -224.593E-03     76.2765E-03
            1549     11.5027E-03     71.6558E-03    -23.7721E+06     73.7347E+06     82.0745E+06     864.173E+03    -225.256E-03     450.232E-03    -224.976E-03     91.3377E-03    -226.565E-03     451.481E-03    -224.638E-03     81.5093E-03
            1550     10.7833E-03     71.5296E-03    -30.5399E+06     66.1652E+06     69.3033E+06     801.491E+03    -225.630E-03     450.611E-03    -224.981E-03     92.0001E-03    -226.862E-03     451.769E-03    -224.686E-03     82.8461E-03
            1551     10.0642E-03     71.4034E-03    -37.7057E+06     50.6060E+06     58.9321E+06     332.808E+03    -225.827E-03     450.832E-03    -225.005E-03     90.8254E-03    -226.962E-03     451.842E-03    -224.729E-03     82.3766E-03
            1552     9.34452E-03     71.2787E-03    -45.0385E+06     33.8470E+06     51.5382E+06     314.046E+03    -225.898E-03     450.941E-03    -225.044E-03     88.2438E-03    -226.934E-03     451.788E-03    -224.770E-03     80.5255E-03
            1553     8.62564E-03     71.1578E-03    -52.7123E+06     6.64450E+06     41.7679E+06     88.0361E+03    -225.927E-03     451.012E-03    -225.085E-03     84.7905E-03    -226.851E-03     451.651E-03    -224.809E-03     77.7773E-03
            1554     7.90639E-03     71.0425E-03    -60.6539E+06    -31.7389E+06     28.0066E+06    -153.400E+03    -225.913E-03     451.034E-03    -225.121E-03     80.5970E-03    -226.711E-03     451.423E-03    -224.847E-03     74.2512E-03
            1555     7.18752E-03     70.9322E-03    -68.9679E+06    -62.7224E+06     14.2414E+06    -175.411E+03    -225.822E-03     450.971E-03    -225.149E-03     75.6626E-03    -226.516E-03     451.156E-03    -224.886E-03     69.9433E-03
            1556     6.46830E-03     70.8293E-03    -77.3762E+06    -91.6012E+06    -244.717E+03     45.6716E+03    -225.720E-03     450.890E-03    -225.170E-03     70.2344E-03    -226.321E-03     450.892E-03    -224.926E-03     65.0974E-03
            1557     5.74958E-03     70.7341E-03    -85.8034E+06    -117.004E+06    -15.4123E+06    -53.3294E+03    -225.606E-03     450.790E-03    -225.184E-03     64.4918E-03    -226.126E-03     450.635E-03    -224.967E-03     59.9045E-03
            1558     5.03072E-03     70.6472E-03    -94.8347E+06    -139.954E+06    -31.7768E+06    -210.501E+03    -225.445E-03     450.638E-03    -225.193E-03     58.2031E-03    -225.896E-03     450.347E-03    -225.011E-03     54.1515E-03
            1559     4.31156E-03     70.5700E-03    -103.980E+06    -163.155E+06    -49.7596E+06     49.1814E+03    -225.343E-03     450.540E-03    -225.197E-03     51.2731E-03    -225.727E-03     450.120E-03    -225.058E-03     47.7533E-03
            1560     3.59284E-03     70.5022E-03    -112.547E+06    -185.883E+06    -69.2410E+06     214.485E+03    -225.319E-03     450.502E-03    -225.183E-03     43.7877E-03    -225.638E-03     449.962E-03    -225.097E-03     40.8101E-03
            1561     2.87435E-03     70.4455E-03    -120.669E+06    -209.543E+06    -88.8643E+06     49.3195E+03    -225.220E-03     450.382E-03    -225.162E-03     35.8786E-03    -225.475E-03     449.722E-03    -225.127E-03     33.4564E-03
            1562     2.15566E-03     70.4002E-03    -128.111E+06    -229.715E+06    -107.881E+06     147.514E+03    -225.114E-03     450.257E-03    -225.143E-03     27.5218E-03    -225.315E-03     449.500E-03    -225.163E-03     25.6668E-03
            1563     1.43706E-03     70.3676E-03    -133.874E+06    -244.878E+06    -124.378E+06     48.5460E+03    -225.114E-03     450.241E-03    -225.127E-03     18.7832E-03    -225.273E-03     449.416E-03    -225.200E-03     17.5000E-03
            1564     718.590E-06     70.3475E-03    -136.768E+06    -255.609E+06    -134.866E+06    -322.113E+03    -225.166E-03     450.243E-03    -225.077E-03     10.4808E-03    -225.292E-03     449.367E-03    -225.182E-03     9.76281E-03
            1565     13.6620E-03     70.5049E-03    -4.28552E+06     93.4211E+06     99.5055E+06    -162.129E+03    -224.213E-03     449.119E-03    -224.906E-03     64.9116E-03    -225.314E-03     450.248E-03    -224.538E-03     55.0893E-03
            1566     12.9420E-03     70.3999E-03    -11.1241E+06     88.1513E+06     98.6091E+06     43.4958E+03    -224.287E-03     449.250E-03    -224.963E-03     82.3691E-03    -225.655E-03     450.605E-03    -224.581E-03     71.4081E-03
            1567     12.2212E-03     70.2912E-03    -18.4946E+06     79.7899E+06     92.1072E+06     49.3672E+03    -224.985E-03     449.988E-03    -225.004E-03     86.6902E-03    -226.302E-03     451.257E-03    -224.632E-03     76.4754E-03
            1568     11.5022E-03     70.1689E-03    -24.9139E+06     72.9180E+06     81.5369E+06    -54.4995E+03    -225.664E-03     450.669E-03    -225.005E-03     91.0020E-03    -226.975E-03     451.915E-03    -224.667E-03     81.1335E-03
            1569     10.7834E-03     70.0441E-03    -30.7436E+06     66.2355E+06     69.7596E+06     443.235E+03    -225.819E-03     450.813E-03    -224.994E-03     91.9705E-03    -227.056E-03     451.973E-03    -224.696E-03     82.7797E-03
            1570     10.0638E-03     69.9175E-03    -37.2124E+06     51.2962E+06     59.4864E+06     820.222E+03    -225.877E-03     450.886E-03    -225.008E-03     90.9783E-03    -227.014E-03     451.900E-03    -224.731E-03     82.5270E-03
            1571     9.34514E-03     69.7929E-03    -44.5938E+06     34.7861E+06     52.1420E+06     372.053E+03    -225.881E-03     450.928E-03    -225.047E-03     88.3821E-03    -226.918E-03     451.779E-03    -224.772E-03     80.6607E-03
            1572     8.62542E-03     69.6723E-03    -51.9086E+06     7.30353E+06     42.4026E+06    -18.0014E+03    -225.901E-03     450.991E-03    -225.090E-03     84.7144E-03    -226.823E-03     451.632E-03    -224.813E-03     77.6941E-03
            1573     7.90652E-03     69.5560E-03    -59.7643E+06    -31.4033E+06     28.3972E+06    -158.505E+03    -225.926E-03     451.052E-03    -225.126E-03     80.4864E-03    -226.722E-03     451.442E-03    -224.852E-03     74.1262E-03
            1574     7.18745E-03     69.4465E-03    -67.9085E+06    -63.0574E+06     14.7148E+06    -48.6203E+03    -225.836E-03     450.990E-03    -225.153E-03     75.6983E-03    -226.526E-03     451.172E-03    -224.890E-03     69.9672E-03
            1575     6.46860E-03     69.3434E-03    -76.2406E+06    -91.9461E+06     493.815E+03     113.942E+03    -225.706E-03     450.884E-03    -225.178E-03     70.3488E-03    -226.303E-03     450.882E-03    -224.931E-03     65.2067E-03
            1576     5.74941E-03     69.2482E-03    -85.2865E+06    -116.503E+06    -14.7561E+06     258.197E+03    -225.564E-03     450.759E-03    -225.195E-03     64.5096E-03    -226.084E-03     450.606E-03    -224.977E-03     59.9233E-03
            1577     5.03033E-03     69.1614E-03    -94.5373E+06    -139.737E+06    -31.6183E+06     238.052E+03    -225.474E-03     450.678E-03    -225.204E-03     58.1333E-03    -225.924E-03     450.388E-03    -225.023E-03     54.0824E-03
            1578     4.31178E-03     69.0838E-03    -103.525E+06    -163.233E+06    -49.7433E+06     36.3114E+03    -225.444E-03     450.642E-03    -225.198E-03     51.2329E-03    -225.826E-03     450.222E-03    -225.060E-03     47.7098E-03
            1579     3.59316E-03     69.0160E-03    -112.097E+06    -185.613E+06    -68.9666E+06    -66.3032E+03    -225.336E-03     450.511E-03    -225.175E-03     43.8069E-03    -225.654E-03     449.972E-03    -225.088E-03     40.8266E-03
            1580     2.87433E-03     68.9595E-03    -120.680E+06    -209.471E+06    -88.9264E+06    -87.7604E+03    -225.175E-03     450.330E-03    -225.155E-03     35.8970E-03    -225.430E-03     449.671E-03    -225.121E-03     33.4699E-03
            1581     2.15560E-03     68.9145E-03    -128.034E+06    -229.828E+06    -107.738E+06    -23.3165E+03    -225.058E-03     450.212E-03    -225.154E-03     27.5737E-03    -225.259E-03     449.455E-03    -225.173E-03     25.7160E-03
            1582     1.43688E-03     68.8813E-03    -133.331E+06    -244.218E+06    -123.881E+06     12.1453E+03    -225.068E-03     450.240E-03    -225.172E-03     18.8453E-03    -225.226E-03     449.417E-03    -225.244E-03     17.5677E-03
            1583     718.328E-06     68.8611E-03    -137.509E+06    -255.752E+06    -134.831E+06    -69.2979E+03    -225.089E-03     450.376E-03    -225.286E-03     10.4036E-03    -225.219E-03     449.500E-03    -225.390E-03     9.69095E-03
            1584     13.6607E-03     69.0206E-03    -5.31018E+06     92.4231E+06     97.9997E+06     54.5841E+03    -224.080E-03     449.013E-03    -224.932E-03     65.7022E-03    -225.186E-03     450.143E-03    -224.569E-03     55.9063E-03
            1585     12.9398E-03     68.9165E-03    -10.9249E+06     88.5279E+06      98.903E+06     631.183E+03    -224.707E-03     449.695E-03    -224.988E-03     82.0870E-03    -226.071E-03     451.048E-03    -224.606E-03     71.1308E-03
            1586     12.2216E-03     68.8035E-03    -17.0943E+06     81.3422E+06     93.5729E+06     589.254E+03    -225.229E-03     450.241E-03    -225.012E-03     85.9479E-03    -226.539E-03     451.508E-03    -224.638E-03     75.7276E-03
            1587     11.5027E-03     68.6837E-03    -24.1188E+06     73.7806E+06     81.7062E+06    -9.95584E+03    -225.567E-03     450.570E-03    -225.003E-03     90.5502E-03    -226.872E-03     451.815E-03    -224.667E-03     80.6883E-03
            1588     10.7830E-03     68.5578E-03    -31.1725E+06     65.3579E+06     69.0110E+06    -518.218E+03    -225.768E-03     450.763E-03    -224.995E-03     91.8222E-03    -227.005E-03     451.921E-03    -224.700E-03     82.6115E-03
            1589     10.0642E-03     68.4318E-03    -37.4876E+06     50.7832E+06     59.4422E+06    -199.745E+03    -225.888E-03     450.902E-03    -225.014E-03     90.9096E-03    -227.026E-03     451.915E-03    -224.736E-03     82.4312E-03
            1590     9.34430E-03     68.3070E-03    -43.5894E+06     35.5907E+06     52.8058E+06     103.818E+03    -225.932E-03     450.981E-03    -225.049E-03     88.3583E-03    -226.967E-03     451.835E-03    -224.773E-03     80.6221E-03
            1591     8.62578E-03     68.1860E-03    -51.3392E+06     7.67411E+06     42.7146E+06     27.5789E+03    -225.896E-03     450.987E-03    -225.090E-03     84.7452E-03    -226.817E-03     451.628E-03    -224.813E-03     77.7221E-03
            1592     7.90646E-03     68.0705E-03    -59.7019E+06    -31.3773E+06     28.5132E+06     121.240E+03    -225.846E-03     450.977E-03    -225.131E-03     80.6207E-03    -226.642E-03     451.368E-03    -224.857E-03     74.2664E-03
            1593     7.18734E-03     67.9603E-03    -68.0273E+06    -63.3061E+06     14.7331E+06     172.878E+03    -225.791E-03     450.957E-03    -225.166E-03     75.7978E-03    -226.482E-03     451.139E-03    -224.902E-03     70.0631E-03
            1594     6.46821E-03     67.8576E-03    -76.8528E+06    -92.2128E+06     283.335E+03     406.163E+03    -225.706E-03     450.900E-03    -225.194E-03     70.4492E-03    -226.306E-03     450.899E-03    -224.947E-03     65.3002E-03
            1595     5.74940E-03     67.7623E-03    -85.5716E+06    -116.219E+06    -14.8795E+06     525.758E+03    -225.626E-03     450.836E-03    -225.209E-03     64.6056E-03    -226.149E-03     450.685E-03    -224.991E-03     60.0157E-03
            1596     5.03068E-03     67.6755E-03    -93.9989E+06    -138.916E+06    -31.2451E+06     267.642E+03    -225.548E-03     450.759E-03    -225.212E-03     58.2544E-03    -225.997E-03     450.473E-03    -225.030E-03     54.1984E-03
            1597     4.31171E-03     67.5974E-03    -102.935E+06    -162.812E+06    -49.2906E+06     4.49774E+03    -225.409E-03     450.616E-03    -225.206E-03     51.4197E-03    -225.790E-03     450.196E-03    -225.067E-03     47.8957E-03
            1598     3.59289E-03     67.5301E-03    -112.244E+06    -185.757E+06    -68.7021E+06     83.9312E+03    -225.294E-03     450.488E-03    -225.194E-03     43.9991E-03    -225.613E-03     449.948E-03    -225.106E-03     41.0159E-03
            1599     2.87425E-03     67.4734E-03    -120.406E+06    -209.168E+06    -88.7821E+06     144.395E+03    -225.228E-03     450.403E-03    -225.175E-03     35.9618E-03    -225.483E-03     449.746E-03    -225.141E-03     33.5299E-03
            1600     2.15564E-03     67.4285E-03    -127.677E+06    -229.675E+06    -107.957E+06    -217.875E+03    -225.107E-03     450.269E-03    -225.162E-03     27.5508E-03    -225.307E-03     449.513E-03    -225.184E-03     25.6910E-03
            1601     1.43702E-03     67.3953E-03    -133.739E+06    -244.415E+06    -123.745E+06    -98.1868E+03    -225.080E-03     450.255E-03    -225.175E-03     18.9939E-03    -225.239E-03     449.430E-03    -225.246E-03     17.7307E-03
            1602     718.465E-06     67.3746E-03    -136.911E+06    -255.363E+06    -134.674E+06     225.726E+03    -225.182E-03     450.376E-03    -225.194E-03     10.3330E-03    -225.309E-03     449.502E-03    -225.299E-03     9.62133E-03
            1603     13.6587E-03     67.5344E-03    -5.66882E+06     92.3914E+06     97.9553E+06     183.326E+03    -224.466E-03     449.419E-03    -224.953E-03     64.6335E-03    -225.567E-03     450.544E-03    -224.589E-03     54.8273E-03
            1604     12.9423E-03     67.4284E-03    -11.2661E+06     88.4169E+06     98.8406E+06    -119.203E+03    -225.143E-03     450.128E-03    -224.984E-03     81.4269E-03    -226.510E-03     451.482E-03    -224.602E-03     70.3913E-03
            1605     12.2225E-03     67.3194E-03    -17.1320E+06     81.3665E+06     93.6950E+06     180.849E+03    -225.178E-03     450.175E-03    -224.997E-03     86.2685E-03    -226.491E-03     451.444E-03    -224.622E-03     76.0384E-03
            1606     11.5022E-03     67.1974E-03    -23.3367E+06     74.6822E+06     82.5984E+06     443.908E+03    -225.444E-03     450.439E-03    -224.995E-03     90.7503E-03    -226.750E-03     451.688E-03    -224.656E-03     80.8964E-03
            1607     10.7835E-03     67.0722E-03    -29.9000E+06     66.7279E+06     69.8321E+06      37.634E+03    -225.727E-03     450.717E-03    -224.990E-03     91.7290E-03    -226.959E-03     451.877E-03    -224.694E-03     82.5394E-03
            1608     10.0637E-03     66.9460E-03    -36.9717E+06     50.6297E+06     59.2880E+06    -779.819E+03    -225.911E-03     450.918E-03    -225.007E-03     90.8187E-03    -227.046E-03     451.929E-03    -224.730E-03     82.3329E-03
            1609     9.34527E-03     66.8209E-03    -44.6390E+06     34.5375E+06     52.0908E+06    -561.163E+03    -225.840E-03     450.885E-03    -225.045E-03     88.2511E-03    -226.878E-03     451.736E-03    -224.770E-03     80.5088E-03
            1610     8.62538E-03     66.7005E-03    -52.3573E+06     7.32213E+06     42.2307E+06     258.672E+03    -225.765E-03     450.860E-03    -225.095E-03     84.8291E-03    -226.690E-03     451.503E-03    -224.819E-03     77.8098E-03
            1611     7.90631E-03     66.5845E-03    -60.3623E+06    -31.3464E+06     28.2620E+06     515.639E+03    -225.822E-03     450.966E-03    -225.144E-03     80.6815E-03    -226.623E-03     451.359E-03    -224.869E-03     74.3277E-03
            1612     7.18723E-03     66.4746E-03    -68.6709E+06    -63.1637E+06     14.4340E+06     528.243E+03    -225.783E-03     450.963E-03    -225.181E-03     75.7973E-03    -226.477E-03     451.148E-03    -224.917E-03     70.0653E-03
            1613     6.46826E-03     66.3717E-03     -77.014E+06    -92.0549E+06     104.469E+03     379.266E+03    -225.727E-03     450.936E-03    -225.209E-03     70.3952E-03    -226.329E-03     450.937E-03    -224.963E-03     65.2444E-03
            1614     5.74918E-03     66.2763E-03    -85.1538E+06    -115.569E+06    -14.6448E+06     74.3634E+03    -225.643E-03     450.867E-03    -225.224E-03     64.6285E-03    -226.165E-03     450.719E-03    -225.006E-03     60.0299E-03
            1615     5.03028E-03     66.1891E-03    -94.1128E+06    -138.718E+06    -31.0378E+06    -20.2862E+03    -225.508E-03     450.740E-03    -225.232E-03     58.3524E-03    -225.960E-03     450.455E-03    -225.050E-03     54.2885E-03
            1616     4.31161E-03     66.1117E-03    -103.453E+06    -162.722E+06    -49.3580E+06     261.547E+03    -225.374E-03     450.610E-03    -225.236E-03     51.4855E-03    -225.758E-03     450.192E-03    -225.096E-03     47.9601E-03
            1617     3.59277E-03     66.0439E-03    -111.926E+06    -185.484E+06    -68.7467E+06     110.164E+03    -225.295E-03     450.527E-03    -225.232E-03     44.0514E-03    -225.613E-03     449.988E-03    -225.144E-03     41.0656E-03
            1618     2.87414E-03     65.9872E-03    -119.998E+06    -208.916E+06    -88.2468E+06    -10.9116E+03    -225.239E-03     450.463E-03    -225.225E-03     36.0571E-03    -225.493E-03     449.806E-03    -225.189E-03     33.6167E-03
            1619     2.15558E-03     65.9423E-03    -127.477E+06    -229.233E+06    -107.510E+06     195.318E+03    -225.235E-03     450.437E-03    -225.201E-03     27.7124E-03    -225.435E-03     449.682E-03    -225.222E-03     25.8498E-03
            1620     1.43690E-03     65.9095E-03    -133.366E+06    -244.556E+06    -123.888E+06    -184.137E+03    -225.233E-03     450.388E-03    -225.156E-03     19.0955E-03    -225.390E-03     449.563E-03    -225.227E-03     17.8234E-03
            1621     718.477E-06     65.8875E-03    -137.474E+06    -255.470E+06    -134.316E+06    -324.400E+03    -225.259E-03     450.255E-03    -224.996E-03     10.2660E-03    -225.389E-03     449.380E-03    -225.098E-03     9.57999E-03
            1622     13.6622E-03     66.0474E-03    -5.80340E+06     92.7140E+06     98.3616E+06     310.490E+03    -224.376E-03     449.310E-03    -224.934E-03     64.8576E-03    -225.481E-03     450.438E-03    -224.568E-03     55.0728E-03
            1623     12.9403E-03     65.9431E-03    -11.3267E+06     88.3668E+06     98.7048E+06    -34.0393E+03    -224.749E-03     449.725E-03    -224.976E-03     81.8555E-03    -226.119E-03     451.082E-03    -224.594E-03     70.8429E-03
            1624     12.2213E-03     65.8332E-03    -17.6728E+06     80.9251E+06     93.2683E+06    -447.901E+03    -225.250E-03     450.248E-03    -224.998E-03     86.1543E-03    -226.564E-03     451.516E-03    -224.623E-03     75.9122E-03
            1625     11.5031E-03     65.7116E-03    -23.9146E+06     74.1677E+06     82.3747E+06    -421.698E+03    -225.465E-03     450.459E-03    -224.994E-03     90.8954E-03    -226.774E-03     451.708E-03    -224.655E-03     81.0253E-03
            1626     10.7830E-03     65.5870E-03    -30.0456E+06     67.3179E+06     70.1180E+06     29.0308E+03    -225.740E-03     450.729E-03    -224.989E-03     92.0366E-03    -226.976E-03     451.894E-03    -224.692E-03     82.8415E-03
            1627     10.0645E-03     65.4593E-03    -37.0813E+06     51.5397E+06     59.6098E+06     268.693E+03    -225.839E-03     450.848E-03    -225.008E-03     91.0562E-03    -226.978E-03     451.865E-03    -224.731E-03     82.5825E-03
            1628     9.34450E-03     65.3359E-03    -44.8748E+06     33.8991E+06     51.8670E+06     99.4992E+03    -225.779E-03     450.831E-03    -225.053E-03     88.4936E-03    -226.818E-03     451.681E-03    -224.777E-03     80.7539E-03
            1629     8.62552E-03     65.2147E-03    -52.8806E+06     6.62197E+06     41.8765E+06     132.108E+03    -225.803E-03     450.908E-03    -225.105E-03     84.9357E-03    -226.731E-03     451.550E-03    -224.828E-03     77.9090E-03
            1630     7.90625E-03     65.0987E-03    -60.5507E+06    -31.2916E+06     28.1026E+06     330.051E+03    -225.804E-03     450.956E-03    -225.153E-03     80.6267E-03    -226.605E-03     451.350E-03    -224.879E-03     74.2681E-03
            1631     7.18712E-03     64.9887E-03    -68.3620E+06    -62.7345E+06     14.3196E+06     249.553E+03    -225.782E-03     450.973E-03    -225.190E-03     75.8356E-03    -226.476E-03     451.160E-03    -224.929E-03     70.0994E-03
            1632     6.46809E-03     64.8856E-03    -76.4026E+06    -91.2542E+06     369.364E+03    -125.543E+03    -225.731E-03     450.952E-03    -225.221E-03     70.4965E-03    -226.332E-03     450.956E-03    -224.976E-03     65.3383E-03
            1633     5.74933E-03     64.7902E-03    -85.4364E+06    -115.747E+06    -14.6180E+06    -154.596E+03    -225.596E-03     450.839E-03    -225.243E-03     64.7238E-03    -226.120E-03     450.691E-03    -225.024E-03     60.1191E-03
            1634     5.03036E-03     64.7033E-03    -94.6023E+06    -139.039E+06    -31.2831E+06     257.070E+03    -225.488E-03     450.745E-03    -225.257E-03     58.3785E-03    -225.941E-03     450.460E-03    -225.075E-03     54.3170E-03
            1635     4.31135E-03     64.6254E-03    -103.006E+06    -162.282E+06    -49.2366E+06     107.426E+03    -225.419E-03     450.681E-03    -225.262E-03     51.4293E-03    -225.802E-03     450.265E-03    -225.123E-03     47.8998E-03
            1636     3.59271E-03     64.5578E-03    -112.048E+06    -185.217E+06    -68.7139E+06    -9.87538E+03    -225.293E-03     450.553E-03    -225.260E-03     43.9872E-03    -225.612E-03     450.016E-03    -225.172E-03     40.9951E-03
            1637     2.87390E-03     64.5009E-03    -120.718E+06    -209.152E+06    -88.5489E+06     147.001E+03    -225.245E-03     450.503E-03    -225.258E-03     35.9612E-03    -225.502E-03     449.846E-03    -225.222E-03     33.5269E-03
            1638     2.15515E-03     64.4561E-03    -127.642E+06    -228.791E+06    -107.260E+06     171.435E+03    -225.335E-03     450.560E-03    -225.225E-03     27.5928E-03    -225.536E-03     449.807E-03    -225.245E-03     25.7307E-03
            1639     1.43717E-03     64.4221E-03    -133.442E+06    -244.028E+06    -123.603E+06     232.516E+03    -225.279E-03     450.431E-03    -225.152E-03     18.8993E-03    -225.438E-03     449.608E-03    -225.223E-03     17.6301E-03
            1640     718.659E-06     64.4028E-03    -137.178E+06    -255.928E+06    -135.222E+06    -21.6270E+03    -225.224E-03     450.218E-03    -224.994E-03     10.4641E-03    -225.351E-03     449.341E-03    -225.100E-03     9.77218E-03
            1641     13.6596E-03     64.5648E-03    -5.15376E+06     92.8815E+06     98.5049E+06     183.241E+03    -224.294E-03     449.228E-03    -224.934E-03     65.3244E-03    -225.395E-03     450.355E-03    -224.569E-03     55.5479E-03
            1642     12.9415E-03     64.4565E-03    -10.7649E+06     89.0405E+06     99.3354E+06     279.477E+03    -224.817E-03     449.797E-03    -224.980E-03     81.9092E-03    -226.180E-03     451.150E-03    -224.597E-03     70.9433E-03
            1643     12.2227E-03     64.3469E-03    -16.9385E+06     81.6184E+06     93.9009E+06    -86.6499E+03    -225.138E-03     450.141E-03    -225.003E-03     86.0347E-03    -226.450E-03     451.410E-03    -224.627E-03     75.7955E-03
            1644     11.5020E-03     64.2270E-03    -24.0145E+06     74.0454E+06     82.1242E+06    -352.293E+03    -225.528E-03     450.527E-03    -224.999E-03     90.9983E-03    -226.838E-03     451.777E-03    -224.661E-03     81.1277E-03
            1645     10.7835E-03     64.0999E-03    -31.1421E+06     66.3406E+06     69.3723E+06    -128.144E+03    -225.680E-03     450.675E-03    -224.995E-03     92.0926E-03    -226.921E-03     451.839E-03    -224.699E-03     82.8922E-03
            1646     10.0635E-03     63.9747E-03    -37.9218E+06     51.1310E+06     59.2502E+06     322.943E+03    -225.717E-03     450.739E-03    -225.022E-03     91.0153E-03    -226.860E-03     451.757E-03    -224.745E-03     82.5424E-03
            1647     9.34460E-03     63.8495E-03    -44.7795E+06     34.4331E+06     52.0201E+06     511.300E+03    -225.842E-03     450.911E-03    -225.069E-03     88.5295E-03    -226.883E-03     451.764E-03    -224.794E-03     80.7900E-03
            1648     8.62536E-03     63.7288E-03    -52.1953E+06     7.00761E+06     42.1721E+06     214.804E+03    -225.875E-03     450.991E-03    -225.117E-03     84.9167E-03    -226.801E-03     451.634E-03    -224.840E-03     77.8816E-03
            1649     7.90624E-03     63.6130E-03    -60.2071E+06    -31.2977E+06     28.2170E+06    -29.1975E+03    -225.799E-03     450.962E-03    -225.163E-03     80.7508E-03    -226.599E-03     451.356E-03    -224.890E-03     74.3862E-03
            1650     7.18708E-03     63.5028E-03    -68.4344E+06    -62.1117E+06     14.4272E+06    -98.2274E+03    -225.729E-03     450.935E-03    -225.206E-03     76.0201E-03    -226.425E-03     451.126E-03    -224.944E-03     70.2819E-03
            1651     6.46808E-03     63.3995E-03    -77.0551E+06    -90.8974E+06     58.6399E+03    -180.936E+03    -225.667E-03     450.911E-03    -225.245E-03     70.6946E-03    -226.272E-03     450.920E-03    -225.001E-03     65.5328E-03
            1652     5.74887E-03     63.3043E-03    -85.7089E+06    -116.245E+06    -15.0597E+06    -63.3345E+03    -225.633E-03     450.905E-03    -225.272E-03     64.8843E-03    -226.159E-03     450.757E-03    -225.054E-03     60.2717E-03
            1653     5.03002E-03     63.2170E-03    -94.2464E+06    -138.954E+06    -31.2212E+06    -149.457E+03    -225.568E-03     450.851E-03    -225.283E-03     58.4774E-03    -226.021E-03     450.567E-03    -225.101E-03     54.4033E-03
            1654     4.31148E-03     63.1392E-03    -103.350E+06    -162.205E+06    -49.1463E+06    -16.6848E+03    -225.437E-03     450.724E-03    -225.286E-03     51.5030E-03    -225.822E-03     450.308E-03    -225.147E-03     47.9668E-03
            1655     3.59264E-03     63.0715E-03    -112.410E+06    -185.292E+06    -68.9898E+06     261.877E+03    -225.348E-03     450.627E-03    -225.280E-03     44.0198E-03    -225.668E-03     450.091E-03    -225.193E-03     41.0278E-03
            1656     2.87400E-03     63.0149E-03    -120.418E+06    -208.664E+06    -88.6129E+06     54.6538E+03    -225.370E-03     450.629E-03    -225.259E-03     36.0816E-03    -225.627E-03     449.974E-03    -225.224E-03     33.6497E-03
            1657     2.15582E-03     62.9689E-03    -127.765E+06    -228.872E+06    -107.423E+06    -42.0529E+03    -225.322E-03     450.533E-03    -225.212E-03     27.6029E-03    -225.523E-03     449.780E-03    -225.232E-03     25.7394E-03
            1658     1.43686E-03     62.9366E-03    -133.718E+06    -244.007E+06    -123.680E+06     196.701E+03    -225.188E-03     450.353E-03    -225.164E-03     18.8044E-03    -225.349E-03     449.531E-03    -225.235E-03     17.5225E-03
            1659     718.328E-06     62.9157E-03    -137.536E+06    -255.399E+06    -134.355E+06     420.102E+03    -225.110E-03     450.292E-03    -225.182E-03     10.3879E-03    -225.241E-03     449.418E-03    -225.284E-03     9.67956E-03
            1660     13.6606E-03     63.0750E-03    -5.19181E+06     93.1986E+06     98.8492E+06    -186.445E+03    -224.444E-03     449.378E-03    -224.934E-03     64.6535E-03    -225.547E-03     450.507E-03    -224.567E-03     54.8248E-03
            1661     12.9414E-03     62.9719E-03    -10.8928E+06     89.0167E+06     99.2370E+06    -286.655E+03    -224.679E-03     449.656E-03    -224.976E-03     81.6220E-03    -226.045E-03     451.011E-03    -224.593E-03     70.6180E-03
            1662     12.2207E-03     62.8615E-03    -17.2810E+06     81.3770E+06     93.4864E+06     211.319E+03    -225.031E-03     450.036E-03    -225.005E-03     86.1700E-03    -226.343E-03     451.304E-03    -224.630E-03     75.9515E-03
            1663     11.5029E-03     62.7401E-03    -23.8077E+06     74.3817E+06     82.3035E+06     536.713E+03    -225.482E-03     450.489E-03    -225.007E-03     90.9128E-03    -226.791E-03     451.740E-03    -224.669E-03     81.0510E-03
            1664     10.7830E-03     62.6152E-03    -30.4764E+06     66.3530E+06     69.6623E+06     197.302E+03    -225.621E-03     450.628E-03    -225.007E-03     92.1080E-03    -226.859E-03     451.792E-03    -224.711E-03     82.9085E-03
            1665     10.0639E-03     62.4887E-03    -37.1982E+06     50.6627E+06     59.2928E+06     36.3215E+03    -225.804E-03     450.838E-03    -225.034E-03     91.0994E-03    -226.943E-03     451.852E-03    -224.757E-03     82.6199E-03
            1666     9.34445E-03     62.3639E-03    -44.3308E+06     34.5392E+06     52.2154E+06     162.520E+03    -225.825E-03     450.905E-03    -225.080E-03     88.5251E-03    -226.864E-03     451.758E-03    -224.805E-03     80.7816E-03
            1667     8.62521E-03     62.2427E-03    -51.9040E+06     7.46006E+06     42.4499E+06     217.671E+03    -225.751E-03     450.886E-03    -225.135E-03     85.0365E-03    -226.677E-03     451.532E-03    -224.859E-03     78.0032E-03
            1668     7.90601E-03     62.1273E-03    -59.8849E+06    -30.9910E+06     28.4484E+06     228.762E+03    -225.815E-03     451.004E-03    -225.189E-03     80.9588E-03    -226.617E-03     451.401E-03    -224.915E-03     74.5882E-03
            1669     7.18688E-03     62.0169E-03    -68.1389E+06    -61.7091E+06     14.7502E+06     125.151E+03    -225.764E-03     450.997E-03    -225.233E-03     76.1309E-03    -226.462E-03     451.190E-03    -224.971E-03     70.3843E-03
            1670     6.46760E-03     61.9139E-03    -76.5983E+06    -90.6523E+06     306.548E+03     23.6908E+03    -225.704E-03     450.975E-03    -225.270E-03     70.6763E-03    -226.308E-03     450.984E-03    -225.026E-03     65.5111E-03
            1671     5.74885E-03     61.8179E-03    -85.1728E+06    -115.925E+06    -14.8473E+06    -192.340E+03    -225.651E-03     450.948E-03    -225.297E-03     64.8085E-03    -226.174E-03     450.800E-03    -225.079E-03     60.1944E-03
            1672     5.03013E-03     61.7308E-03    -94.4270E+06    -139.052E+06    -31.3644E+06    -159.192E+03    -225.529E-03     450.843E-03    -225.313E-03     58.5072E-03    -225.983E-03     450.558E-03    -225.132E-03     54.4292E-03
            1673     4.31111E-03     61.6529E-03    -103.726E+06    -162.681E+06    -49.5782E+06     25.7101E+03    -225.449E-03     450.772E-03    -225.323E-03     51.6701E-03    -225.836E-03     450.357E-03    -225.185E-03     48.1242E-03
            1674     3.59246E-03     61.5853E-03    -112.174E+06    -184.912E+06    -68.9679E+06    -66.9828E+03    -225.468E-03     450.779E-03    -225.311E-03     44.2222E-03    -225.789E-03     450.245E-03    -225.225E-03     41.2228E-03
            1675     2.87399E-03     61.5280E-03    -120.483E+06    -208.467E+06    -88.7358E+06    -20.5375E+03    -225.399E-03     450.681E-03    -225.282E-03     36.2420E-03    -225.656E-03     450.028E-03    -225.249E-03     33.8013E-03
            1676     2.15522E-03     61.4828E-03    -127.953E+06    -228.975E+06    -107.759E+06     88.4133E+03    -225.255E-03     450.508E-03    -225.253E-03     27.7839E-03    -225.457E-03     449.756E-03    -225.274E-03     25.9180E-03
            1677     1.43709E-03     61.4501E-03    -133.676E+06    -243.891E+06    -124.125E+06    -49.8666E+03    -225.218E-03     450.453E-03    -225.235E-03     19.0106E-03    -225.378E-03     449.632E-03    -225.308E-03     17.7242E-03
            1678     718.614E-06     61.4297E-03    -137.225E+06    -255.042E+06    -134.789E+06    -204.190E+03    -225.076E-03     450.461E-03    -225.386E-03     10.5400E-03    -225.205E-03     449.589E-03    -225.491E-03     9.81637E-03
            1679     13.6614E-03     61.5924E-03    -5.60844E+06     93.2697E+06     98.5772E+06    -128.615E+03    -224.246E-03     449.176E-03    -224.929E-03     65.0443E-03    -225.353E-03     450.308E-03    -224.564E-03     55.2319E-03
            1680     12.9409E-03     61.4855E-03    -11.4335E+06     88.5016E+06     98.7221E+06     18.6027E+03    -224.590E-03     449.571E-03    -224.980E-03     81.9687E-03    -225.958E-03     450.925E-03    -224.598E-03     70.9933E-03
            1681     12.2230E-03     61.3764E-03    -17.6149E+06     81.3037E+06     93.2435E+06     129.972E+03    -225.056E-03     450.068E-03    -225.012E-03     86.4361E-03    -226.372E-03     451.340E-03    -224.638E-03     76.2142E-03
            1682     11.5019E-03     61.2544E-03    -23.9281E+06     74.4592E+06     82.0765E+06    -76.7844E+03    -225.377E-03     450.395E-03    -225.018E-03     91.1023E-03    -226.690E-03     451.649E-03    -224.681E-03     81.2276E-03
            1683     10.7829E-03     61.1297E-03    -30.3402E+06     66.5520E+06     69.5801E+06    -8.31875E+03    -225.686E-03     450.706E-03    -225.020E-03     92.0944E-03    -226.925E-03     451.872E-03    -224.725E-03     82.8838E-03
            1684     10.0634E-03     61.0025E-03    -37.0947E+06     50.7380E+06     59.3597E+06     138.054E+03    -225.765E-03     450.814E-03    -225.048E-03     91.1914E-03    -226.905E-03     451.830E-03    -224.771E-03     82.7061E-03
            1685     9.34452E-03     60.8781E-03    -44.3270E+06     34.4393E+06     52.1971E+06     196.282E+03    -225.708E-03     450.811E-03    -225.102E-03     88.8051E-03    -226.750E-03     451.665E-03    -224.827E-03     81.0593E-03
            1686     8.62492E-03     60.7576E-03    -52.2671E+06     7.56266E+06     42.3647E+06     252.038E+03    -225.784E-03     450.948E-03    -225.164E-03     85.2471E-03    -226.714E-03     451.596E-03    -224.887E-03     78.2074E-03
            1687     7.90561E-03     60.6409E-03    -60.1280E+06    -30.6308E+06     28.4928E+06     155.690E+03    -225.830E-03     451.048E-03    -225.218E-03     80.9156E-03    -226.634E-03     451.447E-03    -224.944E-03     74.5369E-03
            1688     7.18660E-03     60.5311E-03    -68.0488E+06    -61.3673E+06     14.7857E+06     63.4055E+03    -225.824E-03     451.084E-03    -225.260E-03     76.1272E-03    -226.523E-03     451.280E-03    -224.998E-03     70.3685E-03
            1689     6.46787E-03     60.4275E-03    -76.5017E+06    -90.3294E+06     395.935E+03     -68.024E+03    -225.766E-03     451.060E-03    -225.295E-03     70.8365E-03    -226.371E-03     451.072E-03    -225.051E-03     65.6607E-03
            1690     5.74884E-03     60.3319E-03    -85.4929E+06    -116.034E+06    -14.9396E+06     40.7054E+03    -225.609E-03     450.933E-03    -225.324E-03     65.0268E-03    -226.134E-03     450.787E-03    -225.107E-03     60.4113E-03
            1691     5.02967E-03     60.2446E-03    -94.6339E+06    -139.148E+06    -31.5942E+06     174.149E+03    -225.525E-03     450.874E-03    -225.349E-03     58.6644E-03    -225.980E-03     450.591E-03    -225.168E-03     54.5845E-03
            1692     4.31098E-03     60.1667E-03    -103.444E+06    -162.382E+06    -49.6007E+06     17.7134E+03    -225.531E-03     450.888E-03    -225.357E-03     51.6629E-03    -225.917E-03     450.474E-03    -225.220E-03     48.1123E-03
            1693     3.59235E-03     60.0985E-03    -111.987E+06    -184.705E+06    -68.7889E+06     7.43199E+03    -225.455E-03     450.803E-03    -225.348E-03     44.2132E-03    -225.776E-03     450.270E-03    -225.261E-03     41.2103E-03
            1694     2.87384E-03     60.0414E-03    -120.391E+06    -208.559E+06    -88.8465E+06         61.6680    -225.328E-03     450.667E-03    -225.338E-03     36.2297E-03    -225.585E-03     450.014E-03    -225.306E-03     33.7775E-03
            1695     2.15535E-03     59.9968E-03    -127.899E+06    -229.117E+06    -107.812E+06    -152.032E+03    -225.243E-03     450.586E-03    -225.343E-03     27.8246E-03    -225.445E-03     449.834E-03    -225.364E-03     25.9416E-03
            1696     1.43647E-03     59.9630E-03    -133.408E+06    -243.477E+06    -123.733E+06    -152.199E+03    -225.268E-03     450.630E-03    -225.363E-03     19.1094E-03    -225.427E-03     449.811E-03    -225.435E-03     17.8229E-03
            1697     718.119E-06     59.9435E-03    -137.582E+06    -255.124E+06    -134.644E+06    -13.7476E+03    -225.238E-03     450.755E-03    -225.517E-03     10.5701E-03    -225.369E-03     449.882E-03    -225.620E-03     9.85135E-03
            1698     13.6593E-03     60.1043E-03    -5.14175E+06     93.3228E+06     98.2922E+06     232.851E+03    -224.154E-03     449.097E-03    -224.943E-03     64.9575E-03    -225.255E-03     450.226E-03    -224.579E-03     55.1654E-03
            1699     12.9414E-03     60.0014E-03    -10.8218E+06     88.7972E+06     98.9510E+06     140.230E+03    -224.757E-03     449.751E-03    -224.995E-03     81.9307E-03    -226.123E-03     451.108E-03    -224.613E-03     70.9358E-03
            1700     12.2203E-03     59.8893E-03    -16.5784E+06     81.9652E+06     93.9629E+06    -256.215E+03    -225.060E-03     450.083E-03    -225.024E-03     86.3119E-03    -226.374E-03     451.357E-03    -224.649E-03     76.0641E-03
            1701     11.5025E-03     59.7700E-03    -23.3875E+06     74.2313E+06     82.0920E+06    -80.4568E+03    -225.395E-03     450.422E-03    -225.027E-03     90.8868E-03    -226.702E-03     451.671E-03    -224.690E-03     81.0218E-03
            1702     10.7828E-03     59.6427E-03    -30.6152E+06     66.2634E+06     69.2166E+06     218.825E+03    -225.538E-03     450.572E-03    -225.034E-03     92.2004E-03    -226.778E-03     451.738E-03    -224.740E-03     82.9950E-03
            1703     10.0638E-03     59.5176E-03    -37.5865E+06     51.0489E+06     59.2125E+06     280.892E+03    -225.631E-03     450.705E-03    -225.074E-03     91.3813E-03    -226.776E-03     451.726E-03    -224.798E-03     82.8920E-03
            1704     9.34350E-03     59.3926E-03    -44.9409E+06     34.4025E+06     51.8225E+06     292.514E+03    -225.763E-03     450.895E-03    -225.133E-03     88.8797E-03    -226.808E-03     451.753E-03    -224.858E-03     81.1248E-03
            1705     8.62466E-03     59.2709E-03    -52.2152E+06     8.13530E+06     42.3903E+06     159.929E+03    -225.826E-03     451.019E-03    -225.193E-03     85.2373E-03    -226.757E-03     451.670E-03    -224.917E-03     78.1899E-03
            1706     7.90574E-03     59.1554E-03    -60.1445E+06    -30.1477E+06     28.5291E+06    -204.921E+03    -225.859E-03     451.106E-03    -225.247E-03     81.1013E-03    -226.665E-03     451.509E-03    -224.974E-03     74.7090E-03
            1707     7.18647E-03     59.0448E-03    -68.5446E+06    -61.5097E+06     14.6325E+06    -253.849E+03    -225.816E-03     451.109E-03    -225.293E-03     76.3403E-03    -226.518E-03     451.307E-03    -225.031E-03     70.5699E-03
            1708     6.46728E-03     58.9413E-03    -77.1277E+06    -90.8210E+06     59.6109E+03     177.589E+03    -225.731E-03     451.065E-03    -225.334E-03     71.0011E-03    -226.340E-03     451.077E-03    -225.090E-03     65.8191E-03
            1709     5.74830E-03     58.8458E-03    -85.7678E+06    -115.865E+06    -15.1981E+06     315.182E+03    -225.689E-03     451.054E-03    -225.365E-03     65.1031E-03    -226.217E-03     450.910E-03    -225.148E-03     60.4735E-03
            1710     5.02965E-03     58.7583E-03    -94.2335E+06    -138.614E+06    -31.5334E+06    -17.6456E+03    -225.649E-03     451.029E-03    -225.380E-03     58.6874E-03    -226.103E-03     450.749E-03    -225.200E-03     54.5961E-03
            1711     4.31097E-03     58.6799E-03    -103.057E+06    -162.141E+06    -49.3375E+06    -189.517E+03    -225.525E-03     450.913E-03    -225.387E-03     51.7764E-03    -225.911E-03     450.500E-03    -225.250E-03     48.2159E-03
            1712     3.59239E-03     58.6120E-03    -112.000E+06    -184.878E+06    -68.6752E+06    -185.010E+03    -225.365E-03     450.761E-03    -225.396E-03     44.3697E-03    -225.687E-03     450.227E-03    -225.308E-03     41.3488E-03
            1713     2.87345E-03     58.5552E-03    -120.397E+06    -208.537E+06    -88.3986E+06    -38.1072E+03    -225.336E-03     450.746E-03    -225.410E-03     36.3680E-03    -225.595E-03     450.093E-03    -225.375E-03     33.9062E-03
            1714     2.15492E-03     58.5096E-03    -127.565E+06    -228.685E+06    -107.239E+06     79.5959E+03    -225.371E-03     450.782E-03    -225.411E-03     27.7714E-03    -225.573E-03     450.031E-03    -225.431E-03     25.8816E-03
            1715     1.43671E-03     58.4771E-03    -133.535E+06    -243.763E+06    -123.777E+06     25.8289E+03    -225.377E-03     450.778E-03    -225.401E-03     19.0136E-03    -225.537E-03     449.957E-03    -225.473E-03     17.7238E-03
            1716     718.330E-06     58.4550E-03    -136.878E+06    -254.825E+06    -134.716E+06     177.966E+03    -225.607E-03     450.793E-03    -225.185E-03     10.1263E-03    -225.735E-03     449.920E-03    -225.291E-03     9.42850E-03
            1717     13.6613E-03     58.6205E-03    -5.27540E+06     93.4509E+06     98.4780E+06    -210.460E+03    -224.280E-03     449.224E-03    -224.944E-03     64.6805E-03    -225.383E-03     450.355E-03    -224.580E-03     54.8715E-03
            1718     12.9404E-03     58.5139E-03    -10.2626E+06     89.5164E+06     99.2655E+06    -419.796E+03    -224.718E-03     449.710E-03    -224.991E-03     81.4250E-03    -226.083E-03     451.068E-03    -224.610E-03     70.3957E-03
            1719     12.2229E-03     58.4053E-03    -17.1469E+06     81.4529E+06     93.1702E+06    -176.181E+03    -224.991E-03     450.011E-03    -225.020E-03     85.9663E-03    -226.301E-03     451.279E-03    -224.647E-03     75.7386E-03
            1720     11.5020E-03     58.2829E-03    -23.9268E+06     73.7695E+06     81.9045E+06     407.965E+03    -225.173E-03     450.208E-03    -225.035E-03     91.0018E-03    -226.483E-03     451.457E-03    -224.698E-03     81.1540E-03
            1721     10.7827E-03     58.1587E-03    -30.3066E+06     66.6571E+06     69.6966E+06     569.842E+03    -225.375E-03     450.431E-03    -225.057E-03     92.3359E-03    -226.614E-03     451.598E-03    -224.761E-03     83.1514E-03
            1722     10.0622E-03     58.0314E-03    -37.1672E+06     51.1198E+06     59.2484E+06     453.084E+03    -225.696E-03     450.796E-03    -225.100E-03     91.3765E-03    -226.838E-03     451.816E-03    -224.824E-03     82.8947E-03
            1723     9.34426E-03     57.9064E-03    -44.0665E+06     34.9136E+06     52.2249E+06     368.541E+03    -225.779E-03     450.937E-03    -225.158E-03     88.8368E-03    -226.821E-03     451.796E-03    -224.884E-03     81.0769E-03
            1724     8.62449E-03     57.7856E-03    -51.9119E+06     8.67193E+06     42.5398E+06     99.8723E+03    -225.760E-03     450.983E-03    -225.223E-03     85.4434E-03    -226.692E-03     451.638E-03    -224.947E-03     78.3897E-03
            1725     7.90491E-03     57.6689E-03    -59.7825E+06    -29.6735E+06     28.6858E+06    -12.0451E+03    -225.857E-03     451.141E-03    -225.284E-03     81.2133E-03    -226.664E-03     451.547E-03    -225.011E-03     74.8106E-03
            1726     7.18615E-03     57.5587E-03    -68.1448E+06    -62.0794E+06     14.7152E+06     161.177E+03    -225.826E-03     451.160E-03    -225.334E-03     76.3709E-03    -226.527E-03     451.356E-03    -225.072E-03     70.5859E-03
            1727     6.46714E-03     57.4554E-03    -76.5196E+06    -91.0249E+06     350.025E+03     326.960E+03    -225.801E-03     451.176E-03    -225.375E-03     71.0149E-03    -226.408E-03     451.188E-03    -225.131E-03     65.8186E-03
            1728     5.74830E-03     57.3591E-03    -84.7242E+06    -114.787E+06    -14.5309E+06    -47.8216E+03    -225.761E-03     451.163E-03    -225.402E-03     65.1358E-03    -226.287E-03     451.023E-03    -225.186E-03     60.4939E-03
            1729     5.02954E-03     57.2717E-03    -93.8522E+06    -138.444E+06    -31.0702E+06    -311.047E+03    -225.609E-03     451.032E-03    -225.423E-03     58.9043E-03    -226.064E-03     450.753E-03    -225.242E-03     54.7953E-03
            1730     4.31073E-03     57.1935E-03    -103.340E+06    -162.344E+06    -49.1763E+06    -156.408E+03    -225.468E-03     450.915E-03    -225.447E-03     52.0646E-03    -225.857E-03     450.504E-03    -225.308E-03     48.4884E-03
            1731     3.59176E-03     57.1257E-03    -112.224E+06    -184.968E+06    -68.7890E+06     -25.971E+03    -225.455E-03     450.917E-03    -225.462E-03     44.4945E-03    -225.779E-03     450.385E-03    -225.375E-03     41.4633E-03
            1732     2.87345E-03     57.0682E-03    -120.192E+06    -208.484E+06    -88.5488E+06    -42.2024E+03    -225.453E-03     450.919E-03    -225.465E-03     36.3691E-03    -225.711E-03     450.266E-03    -225.431E-03     33.9024E-03
            1733     2.15502E-03     57.0229E-03    -127.558E+06    -228.524E+06    -107.379E+06     31.7814E+03    -225.473E-03     450.923E-03    -225.449E-03     27.8222E-03    -225.676E-03     450.173E-03    -225.470E-03     25.9399E-03
            1734     1.43666E-03     56.9895E-03    -133.435E+06    -243.578E+06    -123.617E+06     193.296E+03    -225.460E-03     450.872E-03    -225.412E-03     19.1352E-03    -225.620E-03     450.052E-03    -225.484E-03     17.8490E-03
            1735     718.422E-06     56.9690E-03    -137.179E+06    -254.855E+06    -134.694E+06    -36.0476E+03    -225.510E-03     450.783E-03    -225.273E-03     10.8362E-03    -225.639E-03     449.911E-03    -225.378E-03     10.1180E-03
            1736     13.6597E-03     57.1338E-03    -4.73473E+06     93.9286E+06     98.7393E+06    -438.824E+03    -224.066E-03     449.001E-03    -224.935E-03     64.6911E-03    -225.165E-03     450.130E-03    -224.571E-03     54.9111E-03
            1737     12.9419E-03     57.0290E-03    -11.6387E+06     88.5698E+06     98.1469E+06     10.3142E+03    -224.438E-03     449.433E-03    -224.995E-03     82.1546E-03    -225.805E-03     450.788E-03    -224.615E-03     71.1980E-03
            1738     12.2206E-03     56.9190E-03    -17.9858E+06     81.1350E+06     92.5726E+06     402.754E+03    -224.824E-03     449.864E-03    -225.040E-03     86.7880E-03    -226.144E-03     451.140E-03    -224.669E-03     76.5749E-03
            1739     11.5021E-03     56.7987E-03    -24.1175E+06     73.8832E+06     81.6156E+06     82.5976E+03    -225.223E-03     450.285E-03    -225.062E-03     91.4896E-03    -226.540E-03     451.542E-03    -224.726E-03     81.6117E-03
            1740     10.7819E-03     56.6729E-03    -30.8629E+06     66.4050E+06     69.2136E+06     157.469E+03    -225.579E-03     450.657E-03    -225.078E-03     92.3898E-03    -226.821E-03     451.825E-03    -224.783E-03     83.1874E-03
            1741     10.0638E-03     56.5456E-03    -37.4336E+06      51.477E+06     59.4032E+06     325.764E+03    -225.667E-03     450.786E-03    -225.119E-03     91.4484E-03    -226.812E-03     451.809E-03    -224.842E-03     82.9623E-03
            1742     9.34304E-03     56.4209E-03    -44.5855E+06     35.5334E+06     52.1828E+06    -5.07036E+03    -225.719E-03     450.900E-03    -225.181E-03     88.9569E-03    -226.767E-03     451.765E-03    -224.907E-03     81.1846E-03
            1743     8.62394E-03     56.2996E-03    -51.8569E+06     8.91515E+06     42.6459E+06    -108.025E+03    -225.799E-03     451.047E-03    -225.248E-03     85.3189E-03    -226.734E-03     451.706E-03    -224.973E-03     78.2411E-03
            1744     7.90526E-03     56.1827E-03    -59.9169E+06    -30.0885E+06     28.6195E+06     194.550E+03    -225.736E-03     451.051E-03    -225.315E-03     81.1459E-03    -226.545E-03     451.458E-03    -225.042E-03     74.7337E-03
            1745     7.18574E-03     56.0729E-03    -67.8315E+06    -61.8117E+06     14.7740E+06     250.130E+03    -225.792E-03     451.167E-03    -225.375E-03     76.5474E-03    -226.494E-03     451.366E-03    -225.113E-03     70.7539E-03
            1746     6.46688E-03     55.9684E-03    -75.9258E+06    -90.4196E+06     767.446E+03    -226.706E+03    -225.838E-03     451.261E-03    -225.423E-03     71.3356E-03    -226.446E-03     451.276E-03    -225.178E-03     66.1189E-03
            1747     5.74805E-03     55.8730E-03    -85.0740E+06    -114.889E+06    -14.2396E+06    -79.7757E+03    -225.717E-03     451.177E-03    -225.460E-03     65.5064E-03    -226.248E-03     451.039E-03    -225.241E-03     60.8510E-03
            1748     5.02904E-03     55.7851E-03    -94.1331E+06    -138.448E+06    -30.9403E+06     272.090E+03    -225.613E-03     451.105E-03    -225.492E-03     59.0723E-03    -226.071E-03     450.828E-03    -225.310E-03     54.9559E-03
            1749     4.31016E-03     55.7073E-03    -102.980E+06    -162.018E+06    -49.2308E+06     136.167E+03    -225.589E-03     451.103E-03    -225.514E-03     52.0616E-03    -225.977E-03     450.693E-03    -225.376E-03     48.4783E-03
            1750     3.59187E-03     55.6383E-03    -111.659E+06    -184.821E+06    -68.7495E+06    -8.06573E+03    -225.563E-03     451.083E-03    -225.520E-03     44.5092E-03    -225.884E-03     450.551E-03    -225.434E-03     41.4759E-03
            1751     2.87328E-03     55.5815E-03    -120.014E+06    -208.433E+06    -88.5912E+06    -2.90727E+03    -225.521E-03     451.040E-03    -225.518E-03     36.4938E-03    -225.778E-03     450.387E-03    -225.485E-03     34.0243E-03
            1752     2.15481E-03     55.5356E-03    -127.509E+06    -228.792E+06    -107.730E+06    -144.879E+03    -225.494E-03     451.001E-03    -225.508E-03     28.0729E-03    -225.695E-03     450.250E-03    -225.530E-03     26.1809E-03
            1753     1.43653E-03     55.5024E-03    -133.344E+06    -243.443E+06    -123.414E+06    -167.219E+03    -225.489E-03     450.983E-03    -225.493E-03     19.1789E-03    -225.650E-03     450.163E-03    -225.564E-03     17.8666E-03
            1754     718.055E-06     55.4820E-03    -137.633E+06    -254.617E+06    -134.102E+06     135.372E+03    -225.345E-03     450.966E-03    -225.621E-03     10.5768E-03    -225.478E-03     450.096E-03    -225.723E-03     9.86355E-03
            1755     13.6616E-03     55.6498E-03    -5.09039E+06     93.5874E+06     98.2715E+06     490.974E+03    -224.000E-03     448.944E-03    -224.945E-03     65.0398E-03    -225.100E-03     450.074E-03    -224.581E-03     55.2623E-03
            1756     12.9395E-03     55.5438E-03    -11.5682E+06     88.7029E+06     98.1883E+06     237.247E+03    -224.246E-03     449.259E-03    -225.013E-03     81.7742E-03    -225.612E-03     450.614E-03    -224.634E-03     70.8141E-03
            1757     12.2214E-03     55.4339E-03    -17.6116E+06     81.5947E+06     93.0229E+06    -215.713E+03    -224.737E-03     449.803E-03    -225.067E-03     86.2889E-03    -226.054E-03     451.078E-03    -224.695E-03     76.0535E-03
            1758     11.5008E-03     55.3128E-03    -24.3913E+06     73.7526E+06     81.4162E+06     93.8684E+03    -225.425E-03     450.508E-03    -225.084E-03     91.0025E-03    -226.737E-03     451.760E-03    -224.748E-03     81.1276E-03
            1759     10.7826E-03     55.1864E-03    -30.9905E+06     66.4039E+06     69.1359E+06     54.3152E+03    -225.580E-03     450.673E-03    -225.093E-03     92.2499E-03    -226.825E-03     451.844E-03    -224.799E-03     83.0154E-03
            1760     10.0620E-03     55.0606E-03    -37.6604E+06     51.8976E+06     59.4287E+06    -224.786E+03    -225.644E-03     450.779E-03    -225.135E-03     91.4872E-03    -226.796E-03     451.809E-03    -224.859E-03     82.9614E-03
            1761     9.34354E-03     54.9350E-03    -44.4967E+06     36.0199E+06     52.4180E+06    -356.406E+03    -225.675E-03     450.876E-03    -225.202E-03     89.0260E-03    -226.726E-03     451.745E-03    -224.927E-03     81.2339E-03
            1762     8.62449E-03     54.8129E-03    -52.3509E+06     8.59222E+06     42.3673E+06    -289.843E+03    -225.602E-03     450.883E-03    -225.281E-03     85.7034E-03    -226.542E-03     451.545E-03    -225.006E-03     78.6143E-03
            1763     7.90450E-03     54.6979E-03    -60.4598E+06    -30.4963E+06     28.2362E+06    -208.962E+03    -225.743E-03     451.105E-03    -225.362E-03     81.7746E-03    -226.558E-03     451.514E-03    -225.088E-03     75.3459E-03
            1764     7.18552E-03     54.5858E-03    -68.6668E+06    -61.4007E+06     14.5886E+06    -268.807E+03    -225.822E-03     451.248E-03    -225.427E-03     76.8997E-03    -226.530E-03     451.453E-03    -225.165E-03     71.0923E-03
            1765     6.46640E-03     54.4827E-03    -77.4094E+06    -90.1612E+06     134.014E+03    -64.1287E+03    -225.755E-03     451.238E-03    -225.483E-03     71.4374E-03    -226.371E-03     451.259E-03    -225.240E-03     66.2115E-03
            1766     5.74731E-03     54.3858E-03    -85.9917E+06    -115.466E+06    -15.0943E+06     19.9067E+03    -225.727E-03     451.259E-03    -225.531E-03     65.5497E-03    -226.262E-03     451.122E-03    -225.314E-03     60.8776E-03
            1767     5.02869E-03     54.2989E-03    -94.1728E+06    -138.279E+06    -31.2287E+06    -35.2167E+03    -225.740E-03     451.303E-03    -225.564E-03     59.1490E-03    -226.199E-03     451.028E-03    -225.383E-03     55.0169E-03
            1768     4.31030E-03     54.2196E-03    -102.852E+06    -161.617E+06    -49.3108E+06    -67.2230E+03    -225.691E-03     451.271E-03    -225.580E-03     52.2550E-03    -226.080E-03     450.864E-03    -225.443E-03     48.6596E-03
            1769     3.59151E-03     54.1519E-03    -112.007E+06    -184.770E+06    -68.8849E+06    -14.5928E+03    -225.604E-03     451.192E-03    -225.588E-03     44.7485E-03    -225.928E-03     450.662E-03    -225.502E-03     41.7032E-03
            1770     2.87298E-03     54.0939E-03    -120.256E+06    -208.393E+06    -88.5008E+06     40.7469E+03    -225.591E-03     451.181E-03    -225.590E-03     36.6323E-03    -225.850E-03     450.530E-03    -225.556E-03     34.1561E-03
            1771     2.15473E-03     54.0487E-03    -127.760E+06    -228.693E+06    -107.620E+06     23.5916E+03    -225.585E-03     451.161E-03    -225.576E-03     28.0272E-03    -225.789E-03     450.411E-03    -225.597E-03     26.1287E-03
            1772     1.43627E-03     54.0149E-03    -133.447E+06    -243.511E+06    -123.751E+06     76.8395E+03    -225.577E-03     451.123E-03    -225.547E-03     19.1089E-03    -225.737E-03     450.304E-03    -225.619E-03     17.8064E-03
            1773     718.457E-06     53.9944E-03    -136.460E+06    -254.136E+06    -134.271E+06    -89.6931E+03    -225.647E-03     451.060E-03    -225.413E-03     10.4058E-03    -225.775E-03     450.191E-03    -225.518E-03     9.67640E-03
            1774     13.6587E-03     54.1623E-03    -5.44948E+06     93.4092E+06     98.3403E+06     182.203E+03    -224.015E-03     448.987E-03    -224.971E-03     65.1050E-03    -225.121E-03     450.120E-03    -224.607E-03     55.3141E-03
            1775     12.9421E-03     54.0595E-03    -10.0674E+06     90.3928E+06     99.7919E+06     593.751E+03    -224.657E-03     449.689E-03    -225.031E-03     81.8842E-03    -226.022E-03     451.049E-03    -224.649E-03     70.9133E-03
            1776     12.2204E-03     53.9491E-03    -17.2632E+06     82.0913E+06     93.4198E+06     716.560E+03    -224.990E-03     450.055E-03    -225.065E-03     86.3114E-03    -226.303E-03     451.327E-03    -224.692E-03     76.1141E-03
            1777     11.5023E-03     53.8260E-03    -24.1320E+06     74.0326E+06     81.9305E+06     158.479E+03    -225.161E-03     450.244E-03    -225.083E-03     91.0006E-03    -226.475E-03     451.498E-03    -224.746E-03     81.1249E-03
            1778     10.7817E-03     53.7021E-03    -30.5717E+06     66.8524E+06     69.6448E+06    -44.9474E+03    -225.433E-03     450.539E-03    -225.106E-03     92.3054E-03    -226.679E-03     451.712E-03    -224.810E-03     83.0669E-03
            1779     10.0631E-03     53.5743E-03    -37.5703E+06     52.6003E+06     59.5591E+06    -241.692E+03    -225.591E-03     450.745E-03    -225.154E-03     91.6179E-03    -226.746E-03     451.781E-03    -224.878E-03     83.0823E-03
            1780     9.34329E-03     53.4489E-03    -44.9116E+06     36.1394E+06     52.3506E+06    -402.626E+03    -225.446E-03     450.681E-03    -225.235E-03     89.3345E-03    -226.503E-03     451.555E-03    -224.960E-03     81.5305E-03
            1781     8.62276E-03     53.3287E-03    -52.4380E+06     8.28660E+06     42.2865E+06    -365.878E+03    -225.554E-03     450.883E-03    -225.329E-03     85.9173E-03    -226.495E-03     451.545E-03    -225.054E-03     78.8235E-03
            1782     7.90398E-03     53.2102E-03    -60.1726E+06    -30.4563E+06     28.3104E+06    -354.481E+03    -225.782E-03     451.196E-03    -225.414E-03     81.6568E-03    -226.596E-03     451.606E-03    -225.141E-03     75.2157E-03
            1783     7.18504E-03     53.1003E-03    -68.5263E+06    -61.6746E+06     14.4863E+06    -163.289E+03    -225.790E-03     451.274E-03    -225.484E-03     76.9237E-03    -226.500E-03     451.479E-03    -225.222E-03     71.0962E-03
            1784     6.46601E-03     52.9956E-03    -76.8074E+06    -90.2318E+06     172.761E+03    -115.472E+03    -225.761E-03     451.309E-03    -225.548E-03     71.6220E-03    -226.377E-03     451.332E-03    -225.305E-03     66.3755E-03
            1785     5.74726E-03     52.8999E-03    -84.9722E+06    -115.053E+06    -14.8890E+06    -337.140E+03    -225.761E-03     451.364E-03    -225.603E-03     65.8174E-03    -226.293E-03     451.229E-03    -225.387E-03     61.1280E-03
            1786     5.02838E-03     52.8111E-03    -94.3855E+06    -138.648E+06    -31.5546E+06    -341.592E+03    -225.765E-03     451.409E-03    -225.644E-03     59.4757E-03    -226.226E-03     451.135E-03    -225.464E-03     55.3247E-03
            1787     4.30952E-03     52.7331E-03    -103.739E+06    -161.933E+06    -49.7038E+06     85.0273E+03    -225.768E-03     451.435E-03    -225.667E-03     52.4605E-03    -226.161E-03     451.029E-03    -225.530E-03     48.8545E-03
            1788     3.59115E-03     52.6641E-03    -112.259E+06    -184.405E+06    -69.1544E+06     132.547E+03    -225.751E-03     451.419E-03    -225.668E-03     44.7838E-03    -226.077E-03     450.892E-03    -225.584E-03     41.7313E-03
            1789     2.87289E-03     52.6069E-03    -120.591E+06    -208.298E+06    -88.9473E+06     53.8418E+03    -225.689E-03     451.349E-03    -225.660E-03     36.6574E-03    -225.949E-03     450.700E-03    -225.628E-03     34.1724E-03
            1790     2.15452E-03     52.5608E-03    -127.821E+06    -228.516E+06    -108.054E+06     131.742E+03    -225.652E-03     451.295E-03    -225.643E-03     28.1598E-03    -225.856E-03     450.547E-03    -225.667E-03     26.2570E-03
            1791     1.43661E-03     52.5277E-03    -133.380E+06    -243.274E+06    -124.375E+06    -193.174E+03    -225.617E-03     451.241E-03    -225.624E-03     19.3223E-03    -225.776E-03     450.424E-03    -225.700E-03     18.0183E-03
            1792     717.936E-06     52.5068E-03    -137.320E+06    -254.543E+06    -134.671E+06    -390.271E+03    -225.738E-03     451.244E-03    -225.506E-03     10.7179E-03    -225.869E-03     450.375E-03    -225.611E-03     9.96942E-03
            1793     13.6609E-03     52.6787E-03    -5.22168E+06     93.2276E+06     98.1270E+06     19.8646E+03    -223.882E-03     448.853E-03    -224.971E-03     64.5827E-03    -224.979E-03     449.978E-03    -224.608E-03     54.8218E-03
            1794     12.9382E-03     52.5723E-03    -11.3554E+06     89.1896E+06     98.6004E+06     182.565E+03    -224.650E-03     449.683E-03    -225.033E-03     81.4820E-03    -226.015E-03     451.038E-03    -224.652E-03     70.4990E-03
            1795     12.2222E-03     52.4624E-03    -17.2574E+06     82.2071E+06     93.6458E+06     462.308E+03    -224.941E-03     450.012E-03    -225.070E-03     86.3011E-03    -226.261E-03     451.290E-03    -224.696E-03     76.0541E-03
            1796     11.5009E-03     52.3427E-03    -23.2018E+06     75.0593E+06     82.6488E+06     264.315E+03    -225.038E-03     450.133E-03    -225.095E-03     91.4483E-03    -226.357E-03     451.396E-03    -224.757E-03     81.5526E-03
            1797     10.7820E-03     52.2154E-03    -29.7418E+06     67.0933E+06     70.0151E+06     140.881E+03    -225.237E-03     450.367E-03    -225.130E-03     92.7799E-03    -226.483E-03     451.542E-03    -224.834E-03     83.5564E-03
            1798     10.0621E-03     52.0887E-03    -36.4477E+06     53.0925E+06     60.2609E+06     171.618E+03    -225.336E-03     450.536E-03    -225.200E-03     92.1353E-03    -226.491E-03     451.575E-03    -224.923E-03     83.6068E-03
            1799     9.34208E-03     51.9647E-03    -43.7876E+06     36.7353E+06     52.9349E+06    -38.0732E+03    -225.588E-03     450.876E-03    -225.289E-03     89.6854E-03    -226.645E-03     451.755E-03    -225.014E-03     81.8657E-03
            1800     8.62377E-03     51.8413E-03    -51.8383E+06     8.26763E+06     42.5531E+06    -233.508E+03    -225.776E-03     451.150E-03    -225.374E-03     86.0507E-03    -226.717E-03     451.813E-03    -225.098E-03     78.9375E-03
            1801     7.90423E-03     51.7254E-03    -60.1181E+06    -30.8087E+06     28.3393E+06     29.8040E+03    -225.707E-03     451.165E-03    -225.458E-03     81.8955E-03    -226.522E-03     451.576E-03    -225.184E-03     75.4479E-03
            1802     7.18456E-03     51.6133E-03    -67.9366E+06    -61.4836E+06     14.5130E+06    -35.3975E+03    -225.671E-03     451.213E-03    -225.542E-03     77.1838E-03    -226.381E-03     451.421E-03    -225.281E-03     71.3468E-03
            1803     6.46554E-03     51.5096E-03    -76.2875E+06    -90.0665E+06     216.295E+03    -275.502E+03    -225.732E-03     451.355E-03    -225.623E-03     71.9214E-03    -226.348E-03     451.379E-03    -225.380E-03     66.6634E-03
            1804     5.74643E-03     51.4124E-03    -85.6183E+06    -115.379E+06    -15.1399E+06     51.2644E+03    -225.793E-03     451.482E-03    -225.689E-03     66.1401E-03    -226.330E-03     451.350E-03    -225.473E-03     61.4400E-03
            1805     5.02774E-03     51.3245E-03    -94.6013E+06    -138.518E+06    -31.9629E+06     335.848E+03    -225.843E-03     451.576E-03    -225.733E-03     59.6408E-03    -226.307E-03     451.305E-03    -225.555E-03     55.4870E-03
            1806     4.30934E-03     51.2452E-03    -103.340E+06    -161.910E+06    -50.0135E+06     27.8461E+03    -225.868E-03     451.625E-03    -225.757E-03     52.5560E-03    -226.260E-03     451.221E-03    -225.623E-03     48.9412E-03
            1807     3.59103E-03     51.1766E-03    -112.191E+06    -184.299E+06    -69.2486E+06    -9.20460E+03    -225.829E-03     451.591E-03    -225.762E-03     44.9840E-03    -226.155E-03     451.066E-03    -225.678E-03     41.9153E-03
            1808     2.87262E-03     51.1192E-03    -120.684E+06    -208.184E+06    -89.1393E+06     23.4395E+03    -225.776E-03     451.534E-03    -225.758E-03     36.9149E-03    -226.038E-03     450.887E-03    -225.727E-03     34.4108E-03
            1809     2.15439E-03     51.0733E-03    -128.094E+06    -228.235E+06    -107.942E+06     55.5581E+03    -225.723E-03     451.474E-03    -225.751E-03     28.3209E-03    -225.929E-03     450.728E-03    -225.774E-03     26.4109E-03
            1810     1.43582E-03     51.0398E-03    -134.038E+06    -243.104E+06    -124.102E+06     248.833E+03    -225.733E-03     451.470E-03    -225.737E-03     19.2976E-03    -225.897E-03     450.655E-03    -225.811E-03     17.9899E-03
            1811     718.162E-06     51.0191E-03    -137.609E+06    -254.673E+06    -135.556E+06     245.070E+03    -225.799E-03     451.456E-03    -225.657E-03     10.4184E-03    -225.930E-03     450.587E-03    -225.766E-03     9.70656E-03
            1812     13.6593E-03     51.1934E-03    -5.17685E+06     93.4284E+06     98.3902E+06     418.818E+03    -224.145E-03     449.091E-03    -224.946E-03     64.3243E-03    -225.239E-03     450.212E-03    -224.582E-03     54.5676E-03
            1813     12.9430E-03     51.0870E-03    -10.7151E+06     89.3726E+06     98.9932E+06    -86.3940E+03    -224.060E-03     449.075E-03    -225.015E-03     81.4021E-03    -225.422E-03     450.429E-03    -224.634E-03     70.4332E-03
            1814     12.2197E-03     50.9779E-03    -17.0406E+06     81.9452E+06     93.4290E+06    -339.438E+03    -224.458E-03     449.540E-03    -225.081E-03     86.3293E-03    -225.776E-03     450.817E-03    -224.708E-03     76.0920E-03
            1815     11.5016E-03     50.8563E-03    -23.8173E+06     75.2565E+06     82.1797E+06     12.0020E+03    -224.968E-03     450.091E-03    -225.123E-03     91.4485E-03    -226.287E-03     451.354E-03    -224.786E-03     81.5734E-03
            1816     10.7815E-03     50.7307E-03    -30.3075E+06     67.3624E+06     69.8536E+06     55.1913E+03    -225.030E-03     450.201E-03    -225.171E-03     92.9525E-03    -226.282E-03     451.382E-03    -224.875E-03     83.7161E-03
            1817     10.0611E-03     50.6045E-03    -37.0922E+06      53.189E+06     60.0447E+06    -54.1534E+03    -225.355E-03     450.605E-03    -225.250E-03     92.1012E-03    -226.514E-03     451.647E-03    -224.973E-03     83.5646E-03
            1818     9.34229E-03     50.4770E-03    -44.5624E+06     36.8698E+06     52.4602E+06     25.7177E+03    -225.617E-03     450.957E-03    -225.340E-03     89.7631E-03    -226.679E-03     451.840E-03    -225.066E-03     81.9311E-03
            1819     8.62225E-03     50.3562E-03    -52.3122E+06     7.97127E+06     42.0090E+06     365.752E+03    -225.628E-03     451.063E-03    -225.435E-03     86.5307E-03    -226.576E-03     451.732E-03    -225.161E-03     79.3969E-03
            1820     7.90302E-03     50.2384E-03    -59.9860E+06    -30.4175E+06     28.2588E+06     202.990E+03    -225.707E-03     451.242E-03    -225.534E-03     82.5218E-03    -226.528E-03     451.660E-03    -225.262E-03     76.0486E-03
            1821     7.18426E-03     50.1277E-03    -68.4196E+06    -61.1687E+06     14.4640E+06     69.8972E+03    -225.752E-03     451.378E-03    -225.625E-03     77.7098E-03    -226.468E-03     451.592E-03    -225.365E-03     71.8606E-03
            1822     6.46487E-03     50.0226E-03    -77.3938E+06    -90.1836E+06     -443.69E+03     375.200E+03    -225.822E-03     451.529E-03    -225.707E-03     72.2606E-03    -226.444E-03     451.558E-03    -225.466E-03     66.9989E-03
            1823     5.74615E-03     49.9258E-03    -85.9426E+06    -115.411E+06    -15.7668E+06     362.721E+03    -225.894E-03     451.666E-03    -225.772E-03     66.2333E-03    -226.433E-03     451.536E-03    -225.559E-03     61.5267E-03
            1824     5.02745E-03     49.8367E-03    -94.3989E+06    -137.991E+06    -31.9691E+06     72.9591E+03    -225.882E-03     451.703E-03    -225.821E-03     59.8174E-03    -226.347E-03     451.436E-03    -225.644E-03     55.6486E-03
            1825     4.30891E-03     49.7577E-03    -103.497E+06    -161.651E+06    -49.9747E+06     93.7531E+03    -225.829E-03     451.692E-03    -225.863E-03     52.8694E-03    -226.224E-03     451.291E-03    -225.728E-03     49.2377E-03
            1826     3.59028E-03     49.6889E-03    -112.602E+06    -184.538E+06    -69.2882E+06     170.958E+03    -225.836E-03     451.730E-03    -225.894E-03     45.3235E-03    -226.166E-03     451.206E-03    -225.810E-03     42.2414E-03
            1827     2.87210E-03     49.6310E-03    -120.842E+06    -207.831E+06    -89.0162E+06     230.133E+03    -225.912E-03     451.817E-03    -225.905E-03     37.1265E-03    -226.177E-03     451.173E-03    -225.873E-03     34.6087E-03
            1828     2.15399E-03     49.5853E-03    -128.238E+06    -228.153E+06    -108.107E+06     94.2294E+03    -225.927E-03     451.814E-03    -225.887E-03     28.4183E-03    -226.135E-03     451.070E-03    -225.911E-03     26.4948E-03
            1829     1.43631E-03     49.5516E-03    -133.930E+06    -242.855E+06    -123.952E+06     187.014E+03    -225.879E-03     451.736E-03    -225.857E-03     19.4381E-03    -226.042E-03     450.922E-03    -225.931E-03     18.1367E-03
            1830     718.055E-06     49.5306E-03    -137.358E+06    -253.944E+06    -134.660E+06     387.815E+03    -225.839E-03     451.687E-03    -225.848E-03     10.6830E-03    -225.971E-03     450.821E-03    -225.954E-03     9.96535E-03
            1831     13.6623E-03     49.7058E-03    -5.32050E+06     93.3254E+06     98.4616E+06    -239.474E+03    -223.855E-03     448.809E-03    -224.954E-03     65.1158E-03    -224.956E-03     449.937E-03    -224.589E-03     55.3702E-03
            1832     12.9390E-03     49.6048E-03    -10.7925E+06     89.4268E+06     98.9500E+06     166.894E+03    -224.190E-03     449.220E-03    -225.030E-03     82.3685E-03    -225.556E-03     450.577E-03    -224.649E-03     71.4392E-03
            1833     12.2216E-03     49.4922E-03    -16.8835E+06     82.2118E+06     93.6133E+06     311.450E+03    -224.411E-03     449.509E-03    -225.097E-03     86.6061E-03    -225.727E-03     450.784E-03    -224.724E-03     76.4154E-03
            1834     11.5005E-03     49.3716E-03    -23.6832E+06     75.4467E+06     82.3395E+06     126.965E+03    -224.637E-03     449.790E-03    -225.153E-03     91.4139E-03    -225.957E-03     451.055E-03    -224.816E-03     81.5408E-03
            1835     10.7804E-03     49.2463E-03    -30.6582E+06     67.6627E+06     69.5327E+06     1.98031E+03    -225.174E-03     450.381E-03    -225.206E-03     92.9312E-03    -226.431E-03     451.567E-03    -224.912E-03     83.6738E-03
            1836     10.0617E-03     49.1177E-03    -37.6773E+06     53.1027E+06     59.3617E+06     43.1795E+03    -225.387E-03     450.668E-03    -225.281E-03     92.2064E-03    -226.550E-03     451.713E-03    -225.007E-03     83.6549E-03
            1837     9.34147E-03     48.9925E-03    -44.8032E+06     36.5955E+06     52.0357E+06     264.154E+03    -225.285E-03     450.671E-03    -225.387E-03     89.9596E-03    -226.349E-03     451.555E-03    -225.115E-03     82.1401E-03
            1838     8.62206E-03     48.8699E-03    -52.3647E+06     8.14638E+06     41.7619E+06     120.519E+03    -225.421E-03     450.931E-03    -225.509E-03     86.6420E-03    -226.372E-03     451.603E-03    -225.236E-03     79.5020E-03
            1839     7.90261E-03     48.7525E-03    -60.4472E+06    -30.1907E+06     27.9238E+06     154.676E+03    -225.671E-03     451.297E-03    -225.626E-03     82.5734E-03    -226.497E-03     451.720E-03    -225.355E-03     76.0798E-03
            1840     7.18294E-03     48.6407E-03    -68.5779E+06    -61.4793E+06     14.2125E+06     539.645E+03    -225.873E-03     451.596E-03    -225.723E-03     77.8583E-03    -226.592E-03     451.812E-03    -225.463E-03     71.9923E-03
            1841     6.46442E-03     48.5357E-03    -76.5221E+06    -89.9304E+06    -168.873E+03     543.964E+03    -225.985E-03     451.786E-03    -225.801E-03     72.5433E-03    -226.607E-03     451.818E-03    -225.560E-03     67.2613E-03
            1842     5.74559E-03     48.4381E-03    -85.1495E+06    -114.525E+06    -15.2256E+06     182.584E+03    -225.965E-03     451.831E-03    -225.866E-03     66.6521E-03    -226.505E-03     451.707E-03    -225.653E-03     61.9234E-03
            1843     5.02697E-03     48.3494E-03    -94.8082E+06    -138.167E+06    -31.8453E+06     214.502E+03    -225.887E-03     451.814E-03    -225.927E-03     60.1477E-03    -226.356E-03     451.548E-03    -225.748E-03     55.9613E-03
            1844     4.30820E-03     48.2700E-03    -103.959E+06    -161.497E+06    -50.0625E+06     365.147E+03    -225.862E-03     451.845E-03    -225.983E-03     53.0417E-03    -226.261E-03     451.446E-03    -225.848E-03     49.4003E-03
            1845     3.58993E-03     48.2008E-03    -112.656E+06    -184.200E+06    -69.4674E+06     201.823E+03    -225.915E-03     451.941E-03    -226.025E-03     45.3710E-03    -226.246E-03     451.419E-03    -225.942E-03     42.2813E-03
            1846     2.87165E-03     48.1426E-03    -121.235E+06    -207.958E+06    -89.1477E+06     276.460E+03    -225.954E-03     452.010E-03    -226.057E-03     37.1907E-03    -226.220E-03     451.367E-03    -226.025E-03     34.6702E-03
            1847     2.15371E-03     48.0965E-03    -127.894E+06    -227.356E+06    -107.851E+06     433.554E+03    -225.972E-03     452.049E-03    -226.077E-03     28.6557E-03    -226.180E-03     451.309E-03    -226.101E-03     26.7250E-03
            1848     1.43553E-03     48.0631E-03    -133.516E+06    -242.483E+06    -124.539E+06    -12.2859E+03    -225.993E-03     452.098E-03    -226.105E-03     19.8469E-03    -226.156E-03     451.287E-03    -226.183E-03     18.5110E-03
            1849     717.656E-06     48.0424E-03    -137.434E+06    -253.711E+06    -135.120E+06    -198.557E+03    -226.037E-03     452.262E-03    -226.225E-03     10.9023E-03    -226.170E-03     451.398E-03    -226.333E-03     10.1705E-03
            1850     13.6574E-03     48.2249E-03    -4.69517E+06     93.7264E+06     98.6777E+06     188.129E+03    -223.562E-03     448.538E-03    -224.976E-03     64.5623E-03    -224.655E-03     449.661E-03    -224.612E-03     54.8283E-03
            1851     12.9410E-03     48.1157E-03    -11.3315E+06     89.5737E+06     98.7230E+06    -245.466E+03    -224.204E-03     449.263E-03    -225.059E-03     81.6288E-03    -225.570E-03     450.621E-03    -224.678E-03     70.6579E-03
            1852     12.2202E-03     48.0089E-03    -17.8147E+06     81.9569E+06     93.1689E+06    -272.923E+03    -224.360E-03     449.488E-03    -225.128E-03     86.6709E-03    -225.688E-03     450.773E-03    -224.755E-03     76.4122E-03
            1853     11.5004E-03     47.8874E-03    -23.8118E+06     75.4437E+06     82.3766E+06     158.768E+03    -224.784E-03     449.967E-03    -225.183E-03     91.8510E-03    -226.111E-03     451.238E-03    -224.846E-03     81.9521E-03
            1854     10.7811E-03     47.7600E-03    -30.6902E+06     67.6962E+06     69.3206E+06     435.061E+03    -225.075E-03     450.312E-03    -225.237E-03     93.2160E-03    -226.333E-03     451.500E-03    -224.944E-03     83.9683E-03
            1855     10.0607E-03     47.6328E-03    -37.6209E+06     53.3324E+06     59.2560E+06     507.027E+03    -225.150E-03     450.478E-03    -225.328E-03     92.6747E-03    -226.319E-03     451.531E-03    -225.055E-03     84.1187E-03
            1856     9.34111E-03     47.5072E-03    -44.7144E+06     37.1193E+06     52.1060E+06     198.238E+03    -225.280E-03     450.729E-03    -225.449E-03     90.3792E-03    -226.348E-03     451.619E-03    -225.177E-03     82.5438E-03
            1857     8.62119E-03     47.3839E-03    -52.5137E+06     8.36422E+06     41.6584E+06     71.8083E+03    -225.465E-03     451.041E-03    -225.577E-03     86.9629E-03    -226.418E-03     451.717E-03    -225.304E-03     79.8184E-03
            1858     7.90164E-03     47.2664E-03    -60.6141E+06    -30.5131E+06     27.5020E+06     185.778E+03    -225.718E-03     451.414E-03    -225.696E-03     82.6902E-03    -226.545E-03     451.837E-03    -225.426E-03     76.1904E-03
            1859     7.18291E-03     47.1536E-03    -68.5096E+06    -61.6297E+06     13.8954E+06     153.518E+03    -225.879E-03     451.676E-03    -225.797E-03     77.8781E-03    -226.598E-03     451.894E-03    -225.539E-03     71.9887E-03
            1860     6.46365E-03     47.0485E-03    -76.9769E+06    -89.7988E+06    -136.595E+03     325.218E+03    -225.920E-03     451.809E-03    -225.889E-03     72.5798E-03    -226.546E-03     451.844E-03    -225.648E-03     67.2735E-03
            1861     5.74487E-03     46.9505E-03    -86.2028E+06    -114.314E+06    -15.3465E+06     701.246E+03    -225.931E-03     451.902E-03    -225.971E-03     66.7728E-03    -226.479E-03     451.782E-03    -225.757E-03     62.0290E-03
            1862     5.02616E-03     46.8617E-03    -94.9261E+06    -137.729E+06    -31.9374E+06     619.458E+03    -225.998E-03     452.037E-03    -226.039E-03     60.2628E-03    -226.470E-03     451.776E-03    -225.862E-03     56.0617E-03
            1863     4.30791E-03     46.7819E-03    -103.670E+06    -161.138E+06    -49.9782E+06     360.798E+03    -226.057E-03     452.146E-03    -226.089E-03     53.1416E-03    -226.456E-03     451.750E-03    -225.955E-03     49.4863E-03
            1864     3.58951E-03     46.7123E-03    -112.611E+06    -183.847E+06    -69.6051E+06     372.175E+03    -226.019E-03     452.143E-03    -226.124E-03     45.3865E-03    -226.350E-03     451.623E-03    -226.042E-03     42.2942E-03
            1865     2.87138E-03     46.6541E-03    -120.607E+06    -207.533E+06    -89.3141E+06     19.9038E+03    -225.939E-03     452.109E-03    -226.170E-03     37.1388E-03    -226.203E-03     451.467E-03    -226.141E-03     34.6105E-03
            1866     2.15303E-03     46.6078E-03    -128.214E+06    -227.320E+06    -107.837E+06    -73.1794E+03    -225.977E-03     452.211E-03    -226.234E-03     28.5406E-03    -226.186E-03     451.471E-03    -226.258E-03     26.5988E-03
            1867     1.43513E-03     46.5739E-03    -133.893E+06    -241.793E+06    -123.756E+06     325.911E+03    -226.172E-03     452.460E-03    -226.289E-03     19.5051E-03    -226.337E-03     451.651E-03    -226.363E-03     18.1894E-03
            1868     717.543E-06     46.5522E-03    -137.089E+06    -253.333E+06    -135.071E+06     153.538E+03    -226.463E-03     452.618E-03    -226.155E-03     10.6119E-03    -226.593E-03     451.754E-03    -226.264E-03     9.88622E-03
            1869     13.6622E-03     46.7360E-03    -5.17082E+06     93.3497E+06     98.5136E+06     102.444E+03    -223.606E-03     448.572E-03    -224.966E-03     64.1145E-03    -224.699E-03     449.692E-03    -224.601E-03     54.3793E-03
            1870     12.9397E-03     46.6338E-03    -10.6572E+06     90.2753E+06     99.4903E+06     66.6511E+03    -223.558E-03     448.624E-03    -225.065E-03     81.4682E-03    -224.922E-03     449.982E-03    -224.683E-03     70.5244E-03
            1871     12.2195E-03     46.5236E-03    -17.2348E+06     82.4618E+06     93.4592E+06     94.7028E+03    -224.186E-03     449.342E-03    -225.156E-03     86.6061E-03    -225.507E-03     450.624E-03    -224.784E-03     76.3873E-03
            1872     11.5002E-03     46.4012E-03    -24.3577E+06     74.8523E+06     81.5311E+06    -58.0505E+03    -224.712E-03     449.932E-03    -225.219E-03     92.0225E-03    -226.040E-03     451.202E-03    -224.885E-03     82.1288E-03
            1873     10.7799E-03     46.2759E-03    -30.8797E+06     66.9229E+06     69.0829E+06     306.473E+03    -224.863E-03     450.153E-03    -225.290E-03     93.7430E-03    -226.126E-03     451.344E-03    -224.997E-03     84.4855E-03
            1874     10.0600E-03     46.1477E-03    -37.4357E+06     54.0266E+06     59.6307E+06     582.805E+03    -225.154E-03     450.547E-03    -225.394E-03     92.9108E-03    -226.325E-03     451.605E-03    -225.119E-03     84.3451E-03
            1875     9.34021E-03     46.0210E-03    -44.7880E+06     37.8223E+06     52.1112E+06     400.342E+03    -225.394E-03     450.908E-03    -225.514E-03     90.4632E-03    -226.469E-03     451.807E-03    -225.243E-03     82.5939E-03
            1876     8.62082E-03     45.8986E-03    -52.5370E+06     8.00496E+06     41.3174E+06     475.910E+03    -225.592E-03     451.229E-03    -225.637E-03     87.1009E-03    -226.548E-03     451.907E-03    -225.365E-03     79.9339E-03
            1877     7.90170E-03     45.7791E-03    -60.4139E+06    -29.8378E+06     27.5757E+06     339.769E+03    -225.761E-03     451.516E-03    -225.755E-03     83.0002E-03    -226.591E-03     451.946E-03    -225.486E-03     76.4871E-03
            1878     7.18222E-03     45.6672E-03    -68.9904E+06    -61.6513E+06     13.6871E+06     229.391E+03    -225.852E-03     451.716E-03    -225.864E-03     78.2493E-03    -226.577E-03     451.937E-03    -225.606E-03     72.3448E-03
            1879     6.46338E-03     45.5609E-03    -77.8296E+06    -90.3793E+06    -589.270E+03     549.916E+03    -225.904E-03     451.872E-03    -225.967E-03     72.8436E-03    -226.536E-03     451.908E-03    -225.726E-03     67.5227E-03
            1880     5.74444E-03     45.4634E-03    -86.0422E+06    -113.851E+06    -15.3971E+06     530.751E+03    -225.975E-03     452.032E-03    -226.057E-03     66.8839E-03    -226.524E-03     451.916E-03    -225.844E-03     62.1231E-03
            1881     5.02580E-03     45.3732E-03    -94.7357E+06    -137.153E+06    -31.9264E+06     331.943E+03    -226.086E-03     452.214E-03    -226.129E-03     60.3782E-03    -226.559E-03     451.957E-03    -225.952E-03     56.1627E-03
            1882     4.30739E-03     45.2934E-03    -103.701E+06    -160.853E+06    -49.8628E+06     374.788E+03    -226.153E-03     452.332E-03    -226.179E-03     53.2402E-03    -226.554E-03     451.939E-03    -226.045E-03     49.5684E-03
            1883     3.58935E-03     45.2236E-03    -112.244E+06    -183.223E+06    -69.2283E+06     282.018E+03    -226.125E-03     452.338E-03    -226.213E-03     45.5192E-03    -226.457E-03     451.821E-03    -226.130E-03     42.4080E-03
            1884     2.87115E-03     45.1654E-03    -120.875E+06    -207.002E+06    -89.2712E+06     259.938E+03    -226.143E-03     452.383E-03    -226.240E-03     37.1506E-03    -226.410E-03     451.745E-03    -226.211E-03     34.6208E-03
            1885     2.15323E-03     45.1189E-03    -127.901E+06    -227.111E+06    -108.067E+06    -15.8792E+03    -226.222E-03     452.469E-03    -226.247E-03     28.4327E-03    -226.430E-03     451.730E-03    -226.273E-03     26.4989E-03
            1886     1.43553E-03     45.0838E-03    -133.649E+06    -241.864E+06    -123.735E+06    -310.548E+03    -226.246E-03     452.477E-03    -226.232E-03     19.3903E-03    -226.410E-03     451.667E-03    -226.306E-03     18.0630E-03
            1887     717.796E-06     45.0630E-03    -137.878E+06    -252.877E+06    -134.561E+06     46.9320E+03    -226.404E-03     452.436E-03    -226.032E-03     10.7544E-03    -226.540E-03     451.575E-03    -226.138E-03     10.0226E-03
            1888     13.6591E-03     45.2540E-03    -5.17761E+06     93.5030E+06     98.6288E+06    -135.693E+03    -223.300E-03     448.277E-03    -224.977E-03     64.5724E-03    -224.392E-03     449.397E-03    -224.612E-03     54.8697E-03
            1889     12.9400E-03     45.1501E-03    -11.0143E+06     89.9192E+06     99.0505E+06     377.014E+03    -223.631E-03     448.715E-03    -225.084E-03     82.0847E-03    -224.992E-03     450.069E-03    -224.703E-03     71.2100E-03
            1890     12.2203E-03     45.0381E-03    -17.2473E+06     82.4967E+06     93.5146E+06     560.828E+03    -224.035E-03     449.217E-03    -225.182E-03     87.0614E-03    -225.360E-03     450.502E-03    -224.809E-03     76.8597E-03
            1891     11.4993E-03     44.9180E-03     -23.979E+06     75.3065E+06     81.8469E+06     756.046E+03    -224.439E-03     449.700E-03    -225.261E-03     92.1112E-03    -225.768E-03     450.974E-03    -224.926E-03     82.2320E-03
            1892     10.7792E-03     44.7902E-03    -31.0843E+06     66.8354E+06     68.8124E+06     439.551E+03    -224.942E-03     450.281E-03    -225.339E-03     93.5041E-03    -226.206E-03     451.473E-03    -225.047E-03     84.2333E-03
            1893     10.0597E-03     44.6623E-03    -38.0674E+06     54.0936E+06     59.2912E+06     227.886E+03    -225.186E-03     450.627E-03    -225.441E-03     92.7593E-03    -226.363E-03     451.689E-03    -225.168E-03     84.1660E-03
            1894     9.33986E-03     44.5355E-03    -45.3250E+06     37.9881E+06     51.8402E+06     416.778E+03    -225.377E-03     450.941E-03    -225.564E-03     90.6630E-03    -226.457E-03     451.845E-03    -225.294E-03     82.7778E-03
            1895     8.62037E-03     44.4116E-03     -52.928E+06     8.24569E+06     41.2777E+06     424.009E+03    -225.603E-03     451.296E-03    -225.693E-03     87.3973E-03    -226.566E-03     451.981E-03    -225.422E-03     80.1985E-03
            1896     7.90074E-03     44.2933E-03    -60.8742E+06    -29.6787E+06     27.5861E+06     671.465E+03    -225.709E-03     451.529E-03    -225.821E-03     83.3338E-03    -226.545E-03     451.964E-03    -225.551E-03     76.8049E-03
            1897     7.18174E-03     44.1796E-03    -68.9099E+06    -61.4098E+06     13.7870E+06     821.863E+03    -225.819E-03     451.760E-03    -225.941E-03     78.5952E-03    -226.547E-03     451.986E-03    -225.684E-03     72.6842E-03
            1898     6.46263E-03     44.0740E-03    -77.0673E+06    -89.8216E+06    -423.560E+03     312.126E+03    -226.005E-03     452.055E-03    -226.050E-03     73.2461E-03    -226.637E-03     452.096E-03    -225.810E-03     67.9033E-03
            1899     5.74399E-03     43.9750E-03     -85.792E+06    -113.674E+06    -15.3175E+06     63.0174E+03    -226.133E-03     452.270E-03    -226.137E-03     67.2631E-03    -226.685E-03     452.158E-03    -225.924E-03     62.4759E-03
            1900     5.02551E-03     43.8854E-03    -94.6234E+06    -136.926E+06    -31.7239E+06     219.853E+03    -226.154E-03     452.361E-03    -226.207E-03     60.6954E-03    -226.629E-03     452.106E-03    -226.030E-03     56.4604E-03
            1901     4.30716E-03     43.8044E-03    -103.681E+06    -160.617E+06    -49.8692E+06     146.341E+03    -226.139E-03     452.407E-03    -226.268E-03     53.5105E-03    -226.542E-03     452.016E-03    -226.134E-03     49.8224E-03
            1902     3.58881E-03     43.7349E-03    -112.682E+06    -183.104E+06    -69.4303E+06     296.770E+03    -226.228E-03     452.538E-03    -226.311E-03     45.8057E-03    -226.563E-03     452.025E-03    -226.229E-03     42.6790E-03
            1903     2.87090E-03     43.6759E-03    -120.427E+06    -206.225E+06    -88.9782E+06     231.051E+03    -226.419E-03     452.734E-03    -226.315E-03     37.5490E-03    -226.686E-03     452.099E-03    -226.286E-03     35.0041E-03
            1904     2.15341E-03     43.6291E-03    -127.851E+06    -226.493E+06    -108.016E+06     29.2421E+03    -226.460E-03     452.721E-03    -226.261E-03     28.7687E-03    -226.669E-03     451.986E-03    -226.287E-03     26.8271E-03
            1905     1.43558E-03     43.5948E-03    -133.929E+06    -242.045E+06    -124.466E+06     116.976E+03    -226.283E-03     452.472E-03    -226.189E-03     19.6271E-03    -226.448E-03     451.663E-03    -226.266E-03     18.3029E-03
            1906     717.730E-06     43.5734E-03    -137.578E+06    -253.014E+06    -135.317E+06    -190.891E+03    -225.950E-03     452.320E-03    -226.370E-03     11.0029E-03    -226.083E-03     451.459E-03    -226.480E-03     10.2612E-03
            1907     13.6597E-03     43.7692E-03    -5.61962E+06     93.0344E+06     97.8378E+06    -20.0103E+03    -223.259E-03     448.265E-03    -225.007E-03     64.2495E-03    -224.352E-03     449.386E-03    -224.644E-03     54.5047E-03
            1908     12.9395E-03     43.6644E-03    -10.9837E+06     90.1176E+06     99.0675E+06     586.192E+03    -223.716E-03     448.831E-03    -225.115E-03     81.7904E-03    -225.080E-03     450.189E-03    -224.734E-03     70.8719E-03
            1909     12.2187E-03     43.5552E-03    -17.6249E+06     82.3754E+06     93.2444E+06     601.927E+03    -224.001E-03     449.213E-03    -225.212E-03     87.1729E-03    -225.332E-03     450.503E-03    -224.840E-03     76.9436E-03
            1910     11.4989E-03     43.4325E-03    -24.2786E+06     75.2878E+06     82.0421E+06     803.224E+03    -224.614E-03     449.904E-03    -225.290E-03     92.0768E-03    -225.946E-03     451.180E-03    -224.954E-03     82.1778E-03
            1911     10.7795E-03     43.3051E-03    -30.7380E+06     68.0560E+06     69.4716E+06     824.597E+03    -224.853E-03     450.220E-03    -225.367E-03     93.5118E-03    -226.121E-03     451.418E-03    -225.073E-03     84.2320E-03
            1912     10.0592E-03     43.1772E-03    -37.6823E+06     54.4558E+06     59.4490E+06     504.199E+03    -225.059E-03     450.537E-03    -225.478E-03     93.1478E-03    -226.239E-03     451.604E-03    -225.205E-03     84.5467E-03
            1913     9.33949E-03     43.0495E-03    -44.9751E+06     37.8345E+06     52.1170E+06     465.152E+03    -225.336E-03     450.949E-03    -225.613E-03     91.0884E-03    -226.419E-03     451.856E-03    -225.342E-03     83.1871E-03
            1914     8.61970E-03     42.9257E-03    -52.6799E+06     8.50373E+06     41.5561E+06     546.254E+03    -225.513E-03     451.266E-03    -225.753E-03     87.6893E-03    -226.480E-03     451.956E-03    -225.481E-03     80.4708E-03
            1915     7.90062E-03     42.8062E-03    -60.6064E+06    -30.0582E+06     27.6654E+06     593.984E+03    -225.710E-03     451.601E-03    -225.891E-03     83.6116E-03    -226.550E-03     452.039E-03    -225.621E-03     77.0471E-03
            1916     7.18108E-03     42.6933E-03    -68.9464E+06    -60.6871E+06     13.9631E+06     505.781E+03    -225.885E-03     451.900E-03    -226.016E-03     78.8766E-03    -226.618E-03     452.133E-03    -225.758E-03     72.9318E-03
            1917     6.46214E-03     42.5858E-03    -77.2046E+06    -88.7052E+06    -222.161E+03     315.565E+03    -226.045E-03     452.173E-03    -226.128E-03     73.4558E-03    -226.683E-03     452.222E-03    -225.888E-03     68.0919E-03
            1918     5.74347E-03     42.4872E-03    -85.6163E+06    -113.679E+06    -15.2340E+06     138.191E+03    -226.162E-03     452.384E-03    -226.222E-03     67.5376E-03    -226.715E-03     452.274E-03    -226.009E-03     62.7285E-03
            1919     5.02502E-03     42.3964E-03    -94.8338E+06    -137.015E+06    -31.8800E+06     139.103E+03    -226.192E-03     452.492E-03    -226.300E-03     61.0236E-03    -226.671E-03     452.241E-03    -226.123E-03     56.7624E-03
            1920     4.30660E-03     42.3161E-03    -103.832E+06    -160.385E+06    -50.1710E+06     350.164E+03    -226.220E-03     452.587E-03    -226.367E-03     53.8293E-03    -226.626E-03     452.200E-03    -226.234E-03     50.1275E-03
            1921     3.58847E-03     42.2454E-03    -112.111E+06    -182.746E+06    -69.3168E+06     85.7323E+03    -226.328E-03     452.743E-03    -226.414E-03     46.1112E-03    -226.663E-03     452.231E-03    -226.333E-03     42.9721E-03
            1922     2.87065E-03     42.1862E-03    -120.364E+06    -205.967E+06    -88.8544E+06     68.3852E+03    -226.426E-03     452.862E-03    -226.436E-03     37.9058E-03    -226.695E-03     452.230E-03    -226.407E-03     35.3462E-03
            1923     2.15280E-03     42.1390E-03    -127.886E+06    -226.303E+06    -108.081E+06     335.657E+03    -226.465E-03     452.890E-03    -226.425E-03     29.1600E-03    -226.676E-03     452.157E-03    -226.452E-03     27.1987E-03
            1924     1.43544E-03     42.1053E-03    -133.711E+06    -241.370E+06    -124.377E+06     63.1007E+03    -226.467E-03     452.851E-03    -226.384E-03     20.0299E-03    -226.632E-03     452.045E-03    -226.462E-03     18.6766E-03
            1925     717.759E-06     42.0843E-03    -137.713E+06    -253.108E+06    -134.591E+06     -67.401E+03    -226.184E-03     452.723E-03    -226.539E-03     10.9093E-03    -226.319E-03     451.862E-03    -226.645E-03     10.1575E-03
            1926     13.6592E-03     42.2834E-03    -5.71197E+06     92.3863E+06     97.3237E+06     120.568E+03    -223.035E-03     448.058E-03    -225.023E-03     64.6114E-03    -224.131E-03     449.180E-03    -224.663E-03     54.8973E-03
            1927     12.9392E-03     42.1815E-03    -11.4942E+06     89.1598E+06     98.2019E+06     284.917E+03    -223.776E-03     448.912E-03    -225.137E-03     81.8132E-03    -225.146E-03     450.274E-03    -224.758E-03     70.8452E-03
            1928     12.2192E-03     42.0703E-03    -17.1495E+06     83.0498E+06     93.6686E+06     713.164E+03    -224.286E-03     449.513E-03    -225.227E-03     86.8118E-03    -225.612E-03     450.801E-03    -224.854E-03     76.5890E-03
            1929     11.4994E-03     41.9471E-03    -23.6099E+06     75.3292E+06     82.1929E+06     423.515E+03    -224.414E-03     449.717E-03    -225.303E-03     92.0520E-03    -225.744E-03     450.992E-03    -224.967E-03     82.1485E-03
            1930     10.7787E-03     41.8210E-03    -30.0428E+06     68.1257E+06     69.8269E+06     486.668E+03    -224.624E-03     450.020E-03    -225.396E-03     93.8716E-03    -225.893E-03     451.221E-03    -225.102E-03     84.5837E-03
            1931     10.0588E-03     41.6917E-03    -36.7000E+06     54.7799E+06     60.1876E+06     913.286E+03    -225.007E-03     450.529E-03    -225.522E-03     93.5683E-03    -226.188E-03     451.599E-03    -225.247E-03     84.9606E-03
            1932     9.33886E-03     41.5638E-03    -44.1122E+06     37.8359E+06     52.5243E+06     1.08367E+06    -225.261E-03     450.927E-03    -225.667E-03     91.4178E-03    -226.346E-03     451.838E-03    -225.395E-03     83.5010E-03
            1933     8.61943E-03     41.4393E-03    -52.0061E+06     9.01959E+06     42.0719E+06     988.132E+03    -225.468E-03     451.285E-03    -225.818E-03     88.0812E-03    -226.438E-03     451.981E-03    -225.545E-03     80.8467E-03
            1934     7.89950E-03     41.3200E-03    -60.0885E+06    -29.5621E+06     28.0720E+06     663.620E+03    -225.747E-03     451.710E-03    -225.963E-03     84.0356E-03    -226.591E-03     452.154E-03    -225.693E-03     77.4425E-03
            1935     7.18075E-03     41.2054E-03    -67.9623E+06    -59.9195E+06     14.5121E+06     462.248E+03    -225.959E-03     452.050E-03    -226.091E-03     79.3341E-03    -226.695E-03     452.290E-03    -225.833E-03     73.3520E-03
            1936     6.46188E-03     41.0986E-03    -76.4247E+06    -88.3327E+06     219.881E+03     286.900E+03    -226.077E-03     452.285E-03    -226.209E-03     74.0325E-03    -226.717E-03     452.340E-03    -225.969E-03     68.6341E-03
            1937     5.74303E-03     40.9985E-03    -85.6061E+06    -113.724E+06    -15.1125E+06     453.470E+03    -226.163E-03     452.477E-03    -226.314E-03     67.9932E-03    -226.721E-03     452.371E-03    -226.100E-03     63.1618E-03
            1938     5.02440E-03     40.9081E-03    -94.3280E+06    -136.673E+06    -31.8244E+06     555.117E+03    -226.259E-03     452.660E-03    -226.401E-03     61.2829E-03    -226.738E-03     452.411E-03    -226.225E-03     57.0066E-03
            1939     4.30618E-03     40.8266E-03    -102.938E+06     -159.76E+06    -49.7305E+06     92.0270E+03    -226.353E-03     452.823E-03    -226.470E-03     54.0804E-03    -226.758E-03     452.440E-03    -226.338E-03     50.3505E-03
            1940     3.58820E-03     40.7560E-03    -112.053E+06    -182.419E+06    -68.8962E+06     146.388E+03    -226.386E-03     452.909E-03    -226.524E-03     46.4006E-03    -226.723E-03     452.401E-03    -226.441E-03     43.2425E-03
            1941     2.87015E-03     40.6963E-03    -120.666E+06    -206.069E+06    -88.8967E+06     210.456E+03    -226.406E-03     452.975E-03    -226.569E-03     38.0442E-03    -226.677E-03     452.344E-03    -226.540E-03     35.4707E-03
            1942     2.15235E-03     40.6492E-03    -127.999E+06    -226.228E+06    -107.835E+06     107.053E+03    -226.450E-03     453.061E-03    -226.611E-03     29.0341E-03    -226.662E-03     452.328E-03    -226.637E-03     27.0559E-03
            1943     1.43440E-03     40.6146E-03    -133.237E+06    -240.738E+06    -123.393E+06     354.240E+03    -226.570E-03     453.212E-03    -226.642E-03     19.8330E-03    -226.736E-03     452.408E-03    -226.717E-03     18.4756E-03
            1944     717.307E-06     40.5936E-03    -136.538E+06    -252.233E+06    -134.468E+06     304.260E+03    -226.824E-03     453.308E-03    -226.484E-03     10.7651E-03    -226.955E-03     452.449E-03    -226.592E-03     10.0063E-03
            1945     13.6588E-03     40.8016E-03    -4.98570E+06     92.3839E+06     97.7635E+06     510.200E+03    -222.897E-03     447.921E-03    -225.024E-03     64.3081E-03    -223.985E-03     449.036E-03    -224.662E-03     54.6395E-03
            1946     12.9382E-03     40.6951E-03    -11.1422E+06     88.7610E+06     97.9732E+06     156.824E+03    -223.705E-03     448.845E-03    -225.141E-03     81.6236E-03    -225.069E-03     450.201E-03    -224.763E-03     70.6720E-03
            1947     12.2194E-03     40.5849E-03    -17.5253E+06     82.7581E+06     92.9957E+06    -42.8746E+03    -224.026E-03     449.266E-03    -225.240E-03     87.0555E-03    -225.358E-03     450.561E-03    -224.870E-03     76.7981E-03
            1948     11.4986E-03     40.4641E-03    -23.7487E+06     75.2850E+06     81.9689E+06     282.368E+03    -224.208E-03     449.542E-03    -225.334E-03     92.7685E-03    -225.548E-03     450.827E-03    -224.999E-03     82.8418E-03
            1949     10.7785E-03     40.3358E-03    -30.3694E+06     67.9426E+06     69.5216E+06     593.960E+03    -224.695E-03     450.131E-03    -225.436E-03     94.4418E-03    -225.970E-03     451.338E-03    -225.143E-03     85.1400E-03
            1950     10.0584E-03     40.2068E-03    -37.3056E+06     54.0397E+06     59.6597E+06     725.773E+03    -225.015E-03     450.579E-03    -225.564E-03     93.8128E-03    -226.203E-03     451.653E-03    -225.290E-03     85.1748E-03
            1951     9.33854E-03     40.0779E-03    -44.2969E+06     37.7918E+06     52.4270E+06     1.17024E+06    -225.099E-03     450.818E-03    -225.719E-03     91.7336E-03    -226.190E-03     451.734E-03    -225.448E-03     83.7965E-03
            1952     8.61843E-03     39.9534E-03    -51.6485E+06     10.0747E+06     42.4315E+06     1.18476E+06    -225.411E-03     451.297E-03    -225.885E-03     88.6103E-03    -226.389E-03     452.003E-03    -225.613E-03     81.3496E-03
            1953     7.89953E-03     39.8326E-03    -59.6969E+06    -28.4508E+06     28.4808E+06     805.736E+03    -225.750E-03     451.792E-03    -226.042E-03     84.5411E-03    -226.600E-03     452.247E-03    -225.772E-03     77.9224E-03
            1954     7.17994E-03     39.7184E-03     -68.517E+06    -59.6569E+06     14.4077E+06     519.168E+03    -225.941E-03     452.122E-03    -226.181E-03     79.8943E-03    -226.686E-03     452.370E-03    -225.923E-03     73.8808E-03
            1955     6.46086E-03     39.6102E-03    -77.0639E+06    -88.0811E+06    -121.453E+03     593.393E+03    -226.138E-03     452.446E-03    -226.307E-03     74.4910E-03    -226.787E-03     452.509E-03    -226.068E-03     69.0586E-03
            1956     5.74232E-03     39.5104E-03    -85.2788E+06    -113.296E+06    -15.2273E+06     357.868E+03    -226.276E-03     452.692E-03    -226.415E-03     68.3827E-03    -226.837E-03     452.592E-03    -226.204E-03     63.5159E-03
            1957     5.02399E-03     39.4189E-03    -93.9735E+06    -136.258E+06    -31.2766E+06     64.2343E+03    -226.373E-03     452.880E-03    -226.506E-03     61.6764E-03    -226.856E-03     452.636E-03    -226.329E-03     57.3636E-03
            1958     4.30579E-03     39.3373E-03    -103.158E+06    -159.450E+06    -49.1443E+06     378.038E+03    -226.442E-03     453.021E-03    -226.579E-03     54.4156E-03    -226.852E-03     452.642E-03    -226.444E-03     50.6607E-03
            1959     3.58765E-03     39.2662E-03    -111.927E+06    -182.268E+06    -68.7227E+06     405.896E+03    -226.517E-03     453.147E-03    -226.630E-03     46.5901E-03    -226.856E-03     452.641E-03    -226.547E-03     43.4087E-03
            1960     2.86990E-03     39.2062E-03    -120.247E+06    -205.623E+06    -88.6960E+06     221.417E+03    -226.577E-03     453.241E-03    -226.664E-03     38.0360E-03    -226.847E-03     452.611E-03    -226.635E-03     35.4444E-03
            1961     2.15230E-03     39.1586E-03    -127.289E+06    -225.839E+06    -107.576E+06     22.4461E+03    -226.608E-03     453.289E-03    -226.681E-03     28.9324E-03    -226.818E-03     452.557E-03    -226.707E-03     26.9507E-03
            1962     1.43505E-03     39.1242E-03    -132.754E+06    -240.775E+06    -123.403E+06    -199.013E+03    -226.631E-03     453.327E-03    -226.696E-03     19.6541E-03    -226.794E-03     452.522E-03    -226.771E-03     18.2991E-03
            1963     717.235E-06     39.1022E-03    -136.177E+06    -251.410E+06    -133.242E+06    -29.9997E+03    -226.660E-03     453.416E-03    -226.756E-03     10.7060E-03    -226.792E-03     452.559E-03    -226.860E-03     9.94493E-03
            1964     13.6599E-03     39.3178E-03    -4.83501E+06     92.5451E+06     98.1006E+06     13.5960E+03    -223.035E-03     448.039E-03    -225.004E-03     64.0169E-03    -224.121E-03     449.152E-03    -224.641E-03     54.3185E-03
            1965     12.9402E-03     39.2108E-03    -10.1775E+06     88.9251E+06     98.5714E+06     844.922E+03    -222.937E-03     448.076E-03    -225.139E-03     82.1325E-03    -224.297E-03     449.430E-03    -224.760E-03     71.2630E-03
            1966     12.2180E-03     39.1021E-03    -16.7373E+06     82.8604E+06     92.9716E+06     827.201E+03    -223.538E-03     448.811E-03    -225.274E-03     87.4297E-03    -224.872E-03     450.111E-03    -224.905E-03     77.1828E-03
            1967     11.4980E-03     38.9786E-03    -23.7019E+06      75.419E+06     81.6629E+06     279.468E+03    -224.344E-03     449.725E-03    -225.381E-03     92.8155E-03    -225.688E-03     451.015E-03    -225.047E-03     82.8610E-03
            1968     10.7778E-03     38.8517E-03    -30.0635E+06     67.5702E+06     69.2995E+06     164.820E+03    -224.687E-03     450.170E-03    -225.483E-03     94.7853E-03    -225.968E-03     451.383E-03    -225.191E-03     85.4432E-03
            1969     10.0580E-03     38.7202E-03    -36.3742E+06     53.0756E+06     59.4934E+06     865.678E+03    -224.892E-03     450.514E-03    -225.621E-03     94.4436E-03    -226.083E-03     451.591E-03    -225.348E-03     85.7787E-03
            1970     9.33791E-03     38.5939E-03    -43.8247E+06     37.5693E+06     52.3261E+06     1.35456E+06    -225.154E-03     450.940E-03    -225.787E-03     92.4466E-03    -226.252E-03     451.864E-03    -225.516E-03     84.4718E-03
            1971     8.61817E-03     38.4662E-03    -51.8975E+06     10.9622E+06     42.3934E+06     1.29355E+06    -225.386E-03     451.346E-03    -225.960E-03     89.2239E-03    -226.373E-03     452.065E-03    -225.688E-03     81.9297E-03
            1972     7.89821E-03     38.3463E-03    -59.8960E+06    -27.3315E+06     28.4433E+06     942.457E+03    -225.697E-03     451.825E-03    -226.129E-03     85.0888E-03    -226.556E-03     452.293E-03    -225.860E-03     78.4345E-03
            1973     7.17923E-03     38.2305E-03    -67.7742E+06    -59.1952E+06     14.6970E+06     716.189E+03    -226.034E-03     452.312E-03    -226.278E-03     80.3210E-03    -226.783E-03     452.567E-03    -226.021E-03     74.2677E-03
            1974     6.46053E-03     38.1223E-03    -75.8936E+06    -87.7750E+06     628.662E+03     589.364E+03    -226.229E-03     452.638E-03    -226.409E-03     74.8049E-03    -226.879E-03     452.705E-03    -226.168E-03     69.3333E-03
            1975     5.74179E-03     38.0213E-03    -84.4308E+06    -112.050E+06    -14.2199E+06     439.608E+03    -226.341E-03     452.863E-03    -226.522E-03     68.7197E-03    -226.905E-03     452.771E-03    -226.308E-03     63.8200E-03
            1976     5.02337E-03     37.9297E-03    -93.9872E+06    -136.316E+06    -31.1259E+06     324.202E+03    -226.452E-03     453.070E-03    -226.619E-03     62.0816E-03    -226.938E-03     452.830E-03    -226.440E-03     57.7367E-03
            1977     4.30517E-03     37.8475E-03    -103.164E+06    -159.603E+06    -49.2619E+06     322.970E+03    -226.620E-03     453.309E-03    -226.689E-03     54.7433E-03    -227.032E-03     452.931E-03    -226.554E-03     50.9643E-03
            1978     3.58742E-03     37.7759E-03    -111.556E+06    -181.808E+06    -68.4541E+06     310.989E+03    -226.724E-03     453.449E-03    -226.725E-03     46.7582E-03    -227.064E-03     452.946E-03    -226.642E-03     43.5533E-03
            1979     2.86982E-03     37.7155E-03    -119.455E+06    -204.934E+06    -88.2322E+06     243.405E+03    -226.689E-03     453.434E-03    -226.745E-03     38.2364E-03    -226.959E-03     452.807E-03    -226.715E-03     35.6249E-03
            1980     2.15223E-03     37.6682E-03    -126.466E+06    -225.109E+06    -107.000E+06     95.1821E+03    -226.696E-03     453.456E-03    -226.760E-03     29.4071E-03    -226.904E-03     452.726E-03    -226.785E-03     27.4141E-03
            1981     1.43461E-03     37.6329E-03    -132.485E+06    -240.639E+06    -123.436E+06    -203.918E+03    -226.743E-03     453.508E-03    -226.764E-03     20.1555E-03    -226.906E-03     452.703E-03    -226.840E-03     18.7821E-03
            1982     717.553E-06     37.6122E-03    -136.666E+06    -252.061E+06    -134.567E+06    -438.144E+03    -226.654E-03     453.535E-03    -226.881E-03     10.9702E-03    -226.785E-03     452.677E-03    -226.990E-03     10.2191E-03
            1983     13.6603E-03     37.8324E-03    -5.59305E+06     91.9308E+06     96.6581E+06    -333.447E+03    -222.803E-03     447.821E-03    -225.019E-03     65.0019E-03    -223.898E-03     448.942E-03    -224.660E-03     55.2837E-03
            1984     12.9378E-03     37.7311E-03    -11.2101E+06     88.1533E+06     97.6639E+06     97.6430E+03    -223.048E-03     448.210E-03    -225.162E-03     82.5886E-03    -224.416E-03     449.568E-03    -224.785E-03     71.6986E-03
            1985     12.2181E-03     37.6161E-03    -16.4506E+06     83.2852E+06     93.6031E+06     637.552E+03    -223.534E-03     448.834E-03    -225.300E-03     87.6413E-03    -224.868E-03     450.135E-03    -224.929E-03     77.4099E-03
            1986     11.4978E-03     37.4955E-03    -22.7607E+06     76.4394E+06     82.1492E+06     685.072E+03    -224.179E-03     449.591E-03    -225.412E-03     92.7830E-03    -225.520E-03     450.884E-03    -225.079E-03     82.8390E-03
            1987     10.7777E-03     37.3652E-03    -29.8990E+06     66.9774E+06     68.8912E+06     718.771E+03    -224.440E-03     449.970E-03    -225.529E-03     94.8881E-03    -225.725E-03     451.186E-03    -225.239E-03     85.5283E-03
            1988     10.0567E-03     37.2376E-03    -37.5205E+06     51.8615E+06     58.5492E+06     1.22857E+06    -224.759E-03     450.444E-03    -225.685E-03     94.6818E-03    -225.958E-03     451.524E-03    -225.413E-03     85.9979E-03
            1989     9.33682E-03     37.1055E-03    -44.9290E+06     38.1343E+06     51.8327E+06     1.25118E+06    -225.153E-03     451.013E-03    -225.860E-03     92.7340E-03    -226.264E-03     451.950E-03    -225.591E-03     84.7185E-03
            1990     8.61733E-03     36.9818E-03    -52.2495E+06     11.9687E+06     42.3851E+06     783.652E+03    -225.426E-03     451.466E-03    -226.039E-03     89.5755E-03    -226.425E-03     452.199E-03    -225.769E-03     82.2236E-03
            1991     7.89784E-03     36.8583E-03    -59.8130E+06    -26.7728E+06     28.5340E+06     557.551E+03    -225.737E-03     451.951E-03    -226.214E-03     85.5705E-03    -226.605E-03     452.429E-03    -225.946E-03     78.8649E-03
            1992     7.17866E-03     36.7431E-03    -67.3697E+06    -58.5509E+06     14.9669E+06     427.126E+03    -226.052E-03     452.423E-03    -226.371E-03     80.7764E-03    -226.806E-03     452.687E-03    -226.114E-03     74.6794E-03
            1993     6.45964E-03     36.6333E-03    -75.9186E+06    -87.5078E+06     838.251E+03     325.965E+03    -226.284E-03     452.795E-03    -226.512E-03     75.3498E-03    -226.941E-03     452.869E-03    -226.270E-03     69.8349E-03
            1994     5.74118E-03     36.5327E-03    -85.0912E+06    -112.241E+06    -14.2424E+06     706.951E+03    -226.441E-03     453.071E-03    -226.630E-03     69.1565E-03    -227.012E-03     452.984E-03    -226.415E-03     64.2212E-03
            1995     5.02275E-03     36.4400E-03    -93.3129E+06    -135.343E+06    -30.8911E+06     762.109E+03    -226.605E-03     453.328E-03    -226.723E-03     62.3705E-03    -227.093E-03     453.095E-03    -226.546E-03     58.0018E-03
            1996     4.30479E-03     36.3573E-03    -101.988E+06    -158.926E+06    -49.1257E+06     225.559E+03    -226.766E-03     453.553E-03    -226.788E-03     55.0246E-03    -227.176E-03     453.180E-03    -226.655E-03     51.2194E-03
            1997     3.58711E-03     36.2849E-03    -111.092E+06    -181.772E+06    -68.2130E+06     3.44937E+03    -226.787E-03     453.616E-03    -226.828E-03     47.0064E-03    -227.127E-03     453.113E-03    -226.745E-03     43.7767E-03
            1998     2.86939E-03     36.2253E-03    -119.437E+06    -204.690E+06    -87.7321E+06     51.9362E+03    -226.747E-03     453.609E-03    -226.862E-03     38.5098E-03    -227.019E-03     452.985E-03    -226.831E-03     35.8781E-03
            1999     2.15172E-03     36.1769E-03    -127.000E+06    -224.852E+06    -106.630E+06     324.375E+03    -226.751E-03     453.650E-03    -226.899E-03     29.5885E-03    -226.964E-03     452.923E-03    -226.921E-03     27.5781E-03
            2000     1.43443E-03     36.1421E-03    -132.950E+06    -240.108E+06    -122.782E+06     583.657E+03    -226.793E-03     453.743E-03    -226.950E-03     20.2346E-03    -226.959E-03     452.941E-03    -227.023E-03     18.8732E-03
            2001     716.877E-06     36.1201E-03    -136.408E+06    -251.710E+06    -134.207E+06     617.170E+03    -227.183E-03     453.969E-03    -226.786E-03     11.1988E-03    -227.315E-03     453.112E-03    -226.894E-03     10.4447E-03
            2002     13.6569E-03     36.3490E-03    -5.31544E+06     92.4457E+06     96.8331E+06     80.3507E+03    -222.634E-03     447.689E-03    -225.055E-03     64.5301E-03    -223.731E-03     448.814E-03    -224.697E-03     54.7971E-03
            2003     12.9394E-03     36.2449E-03    -10.7604E+06     88.6924E+06     97.6748E+06    -562.077E+03    -223.466E-03     448.655E-03    -225.189E-03     82.0691E-03    -224.840E-03     450.022E-03    -224.814E-03     71.0650E-03
            2004     12.2182E-03     36.1349E-03    -17.6416E+06     82.0957E+06     92.2345E+06    -549.481E+03    -223.634E-03     448.946E-03    -225.312E-03     87.9540E-03    -224.977E-03     450.250E-03    -224.944E-03     77.6776E-03
            2005     11.4975E-03     36.0092E-03    -24.0428E+06     75.2845E+06     81.3616E+06     563.854E+03    -223.797E-03     449.234E-03    -225.437E-03     93.1557E-03    -225.150E-03     450.533E-03    -225.104E-03     83.1973E-03
            2006     10.7765E-03     35.8832E-03    -30.4433E+06     66.4754E+06     68.7142E+06     1.75779E+06    -224.317E-03     449.892E-03    -225.575E-03     95.1891E-03    -225.610E-03     451.113E-03    -225.283E-03     85.8240E-03
            2007     10.0569E-03     35.7503E-03    -37.1718E+06     52.4815E+06     58.9792E+06     1.56042E+06    -224.783E-03     450.521E-03    -225.738E-03     95.0405E-03    -225.990E-03     451.611E-03    -225.465E-03     86.3220E-03
            2008     9.33680E-03     35.6221E-03    -43.9551E+06     39.5106E+06     52.7534E+06     881.735E+03    -225.032E-03     450.955E-03    -225.923E-03     93.0950E-03    -226.148E-03     451.902E-03    -225.653E-03     85.0492E-03
            2009     8.61645E-03     35.4934E-03    -51.4741E+06     12.9589E+06     42.8713E+06     466.902E+03    -225.419E-03     451.532E-03    -226.113E-03     89.9639E-03    -226.424E-03     452.275E-03    -225.842E-03     82.5734E-03
            2010     7.89726E-03     35.3723E-03    -59.5329E+06    -26.5244E+06     28.7578E+06     366.562E+03    -225.805E-03     452.098E-03    -226.293E-03     86.0458E-03    -226.680E-03     452.585E-03    -226.025E-03     79.2927E-03
            2011     7.17782E-03     35.2545E-03    -68.3325E+06    -58.4449E+06     14.7494E+06     433.696E+03    -226.047E-03     452.504E-03    -226.457E-03     81.2151E-03    -226.813E-03     452.777E-03    -226.200E-03     75.0769E-03
            2012     6.45911E-03     35.1453E-03    -76.8643E+06    -87.2803E+06     178.637E+03     505.897E+03    -226.297E-03     452.902E-03    -226.605E-03     75.6082E-03    -226.963E-03     452.984E-03    -226.366E-03     70.0604E-03
            2013     5.74041E-03     35.0428E-03    -84.9456E+06    -112.193E+06    -15.0064E+06     75.9579E+03    -226.553E-03     453.280E-03    -226.727E-03     69.4931E-03    -227.128E-03     453.199E-03    -226.516E-03     64.5120E-03
            2014     5.02245E-03     34.9502E-03    -93.5359E+06    -135.101E+06    -31.0202E+06    -24.9541E+03    -226.752E-03     453.573E-03    -226.821E-03     62.7822E-03    -227.246E-03     453.345E-03    -226.644E-03     58.3721E-03
            2015     4.30447E-03     34.8666E-03    -102.320E+06    -158.388E+06    -48.7282E+06     322.884E+03    -226.782E-03     453.675E-03    -226.893E-03     55.4045E-03    -227.198E-03     453.307E-03    -226.759E-03     51.5678E-03
            2016     3.58656E-03     34.7945E-03    -111.485E+06    -181.492E+06    -68.2499E+06     371.001E+03    -226.804E-03     453.755E-03    -226.951E-03     47.2943E-03    -227.149E-03     453.258E-03    -226.867E-03     44.0424E-03
            2017     2.86894E-03     34.7340E-03    -120.071E+06    -204.681E+06    -88.2221E+06     451.681E+03    -226.917E-03     453.906E-03    -226.989E-03     38.6591E-03    -227.192E-03     453.284E-03    -226.960E-03     36.0160E-03
            2018     2.15173E-03     34.6857E-03    -127.068E+06    -224.555E+06    -107.298E+06     223.451E+03    -226.926E-03     453.935E-03    -227.009E-03     29.5725E-03    -227.139E-03     453.211E-03    -227.035E-03     27.5523E-03
            2019     1.43417E-03     34.6506E-03    -132.493E+06    -239.684E+06    -122.742E+06     84.9997E+03    -226.963E-03     453.994E-03    -227.031E-03     20.2527E-03    -227.128E-03     453.194E-03    -227.105E-03     18.8793E-03
            2020     717.124E-06     34.6282E-03    -136.039E+06    -250.525E+06    -132.992E+06     225.099E+03    -227.372E-03     454.090E-03    -226.719E-03     11.0686E-03    -227.505E-03     453.237E-03    -226.823E-03     10.3128E-03
            2021     13.6606E-03     34.8653E-03    -5.00765E+06     92.7332E+06     96.8882E+06    -90.8170E+03    -222.341E-03     447.390E-03    -225.049E-03     64.3320E-03    -223.431E-03     448.511E-03    -224.692E-03     54.6554E-03
            2022     12.9370E-03     34.7616E-03    -10.9701E+06     88.4754E+06     97.0846E+06    -55.2848E+03    -222.917E-03     448.124E-03    -225.207E-03     82.5688E-03    -224.295E-03     449.495E-03    -224.834E-03     71.5999E-03
            2023     12.2179E-03     34.6489E-03    -17.2945E+06     81.7310E+06     91.7473E+06     390.488E+03    -223.542E-03     448.892E-03    -225.350E-03     88.4473E-03    -224.894E-03     450.207E-03    -224.985E-03     78.1399E-03
            2024     11.4971E-03     34.5282E-03    -24.0355E+06     73.6716E+06     80.5444E+06     479.522E+03    -223.899E-03     449.379E-03    -225.480E-03     93.8355E-03    -225.259E-03     450.682E-03    -225.149E-03     83.8332E-03
            2025     10.7766E-03     34.3967E-03    -30.4412E+06     65.7192E+06     68.6075E+06     631.440E+03    -224.335E-03     449.956E-03    -225.621E-03     95.8356E-03    -225.636E-03     451.184E-03    -225.329E-03     86.4231E-03
            2026     10.0559E-03     34.2666E-03    -36.2959E+06     53.5403E+06     59.7802E+06     863.669E+03    -224.727E-03     450.520E-03    -225.792E-03     95.5484E-03    -225.942E-03     451.622E-03    -225.518E-03     86.7836E-03
            2027     9.33568E-03     34.1351E-03    -43.0956E+06     40.4447E+06     53.3060E+06     980.718E+03    -225.055E-03     451.038E-03    -225.984E-03     93.7225E-03    -226.178E-03     451.998E-03    -225.714E-03     85.6373E-03
            2028     8.61632E-03     34.0082E-03    -51.1681E+06     13.5554E+06     43.1808E+06     946.106E+03    -225.415E-03     451.596E-03    -226.181E-03     90.5757E-03    -226.428E-03     452.350E-03    -225.910E-03     83.1532E-03
            2029     7.89638E-03     33.8841E-03    -59.3738E+06    -26.2492E+06     28.8543E+06     839.728E+03    -225.810E-03     452.180E-03    -226.369E-03     86.5223E-03    -226.693E-03     452.675E-03    -226.101E-03     79.7311E-03
            2030     7.17763E-03     33.7671E-03    -67.2993E+06    -58.0726E+06     14.9466E+06     625.795E+03    -226.120E-03     452.658E-03    -226.539E-03     81.7550E-03    -226.890E-03     452.940E-03    -226.282E-03     75.5711E-03
            2031     6.45855E-03     33.6561E-03    -75.6806E+06    -86.7313E+06     590.268E+03     225.762E+03    -226.354E-03     453.046E-03    -226.692E-03     76.2291E-03    -227.022E-03     453.136E-03    -226.454E-03     70.6339E-03
            2032     5.74017E-03     33.5537E-03    -84.4876E+06    -111.567E+06    -14.4576E+06     215.965E+03    -226.593E-03     453.418E-03    -226.824E-03     70.1047E-03    -227.173E-03     453.343E-03    -226.612E-03     65.0937E-03
            2033     5.02173E-03     33.4596E-03    -93.9333E+06    -135.205E+06    -31.0423E+06     287.053E+03    -226.766E-03     453.698E-03    -226.931E-03     63.2894E-03    -227.266E-03     453.474E-03    -226.754E-03     58.8483E-03
            2034     4.30387E-03     33.3761E-03    -103.417E+06    -158.776E+06    -49.1708E+06     350.840E+03    -226.852E-03     453.868E-03    -227.015E-03     55.7445E-03    -227.277E-03     453.504E-03    -226.881E-03     51.8720E-03
            2035     3.58607E-03     33.3035E-03    -111.764E+06    -181.033E+06    -68.5612E+06     545.526E+03    -226.953E-03     454.028E-03    -227.075E-03     47.6048E-03    -227.302E-03     453.536E-03    -226.993E-03     44.3287E-03
            2036     2.86871E-03     33.2421E-03    -119.285E+06    -203.730E+06    -88.1897E+06     319.521E+03    -227.063E-03     454.172E-03    -227.109E-03     38.8684E-03    -227.338E-03     453.555E-03    -227.081E-03     36.2045E-03
            2037     2.15128E-03     33.1942E-03    -126.504E+06    -223.918E+06    -107.120E+06    -17.3991E+03    -227.151E-03     454.258E-03    -227.107E-03     29.7220E-03    -227.363E-03     453.537E-03    -227.134E-03     27.6867E-03
            2038     1.43432E-03     33.1586E-03    -132.436E+06    -239.553E+06    -123.167E+06    -257.219E+03    -227.173E-03     454.237E-03    -227.065E-03     20.4462E-03    -227.338E-03     453.439E-03    -227.141E-03     19.0547E-03
            2039     717.339E-06     33.1359E-03    -135.921E+06    -250.461E+06    -133.748E+06    -283.441E+03    -227.194E-03     454.076E-03    -226.882E-03     11.2966E-03    -227.326E-03     453.224E-03    -226.990E-03     10.5407E-03
            2040     13.6576E-03     33.3845E-03    -4.91942E+06     92.6367E+06     96.3693E+06     303.427E+03    -222.166E-03     447.213E-03    -225.047E-03     64.7674E-03    -223.258E-03     448.337E-03    -224.692E-03     55.0925E-03
            2041     12.9388E-03     33.2780E-03    -11.0229E+06     88.3528E+06     96.6522E+06     165.887E+03    -222.454E-03     447.677E-03    -225.224E-03     82.7624E-03    -223.832E-03     449.050E-03    -224.852E-03     71.8251E-03
            2042     12.2162E-03     33.1664E-03    -17.0024E+06     81.2540E+06     91.6669E+06     216.109E+03    -223.195E-03     448.588E-03    -225.394E-03     88.4016E-03    -224.548E-03     449.904E-03    -225.028E-03     78.0787E-03
            2043     11.4960E-03     33.0421E-03    -23.3182E+06     73.5886E+06     80.8099E+06     375.712E+03    -223.993E-03     449.527E-03    -225.534E-03     93.8432E-03    -225.356E-03     450.834E-03    -225.203E-03     83.8053E-03
            2044     10.7758E-03     32.9136E-03    -29.9890E+06     66.2206E+06     69.0734E+06     270.587E+03    -224.342E-03     450.019E-03    -225.677E-03     96.3169E-03    -225.654E-03     451.259E-03    -225.384E-03     86.8499E-03
            2045     10.0556E-03     32.7807E-03    -37.0978E+06     52.9388E+06     59.2197E+06     195.911E+03    -224.708E-03     450.560E-03    -225.852E-03     96.1257E-03    -225.936E-03     451.672E-03    -225.579E-03     87.3101E-03
            2046     9.33562E-03     32.6501E-03    -44.1937E+06     39.9140E+06     52.5323E+06     621.258E+03    -225.061E-03     451.111E-03    -226.050E-03     94.2684E-03    -226.200E-03     452.083E-03    -225.781E-03     86.1234E-03
            2047     8.61522E-03     32.5207E-03    -51.4655E+06     13.8870E+06     43.0511E+06     1.00641E+06    -225.396E-03     451.651E-03    -226.256E-03     91.3040E-03    -226.423E-03     452.420E-03    -225.986E-03     83.8221E-03
            2048     7.89618E-03     32.3973E-03    -59.4269E+06    -25.6244E+06     28.9279E+06     792.206E+03    -225.799E-03     452.255E-03    -226.456E-03     87.3873E-03    -226.695E-03     452.766E-03    -226.188E-03     80.5386E-03
            2049     7.17652E-03     32.2783E-03    -67.6494E+06    -57.3278E+06     14.9649E+06     502.923E+03    -226.162E-03     452.798E-03    -226.636E-03     82.5604E-03    -226.945E-03     453.094E-03    -226.380E-03     76.3232E-03
            2050     6.45793E-03     32.1675E-03    -76.2365E+06    -86.2283E+06     538.824E+03     509.761E+03    -226.474E-03     453.269E-03    -226.795E-03     76.9164E-03    -227.154E-03     453.371E-03    -226.557E-03     71.2739E-03
            2051     5.73924E-03     32.0636E-03    -85.3069E+06    -111.569E+06    -14.4431E+06     690.669E+03    -226.665E-03     453.598E-03    -226.933E-03     70.6491E-03    -227.255E-03     453.531E-03    -226.719E-03     65.5970E-03
            2052     5.02128E-03     31.9694E-03    -93.9868E+06    -134.675E+06    -30.9538E+06     675.039E+03    -226.780E-03     453.830E-03    -227.049E-03     63.6834E-03    -227.286E-03     453.614E-03    -226.873E-03     59.2069E-03
            2053     4.30320E-03     31.8851E-03    -102.493E+06    -158.223E+06    -49.2424E+06     279.553E+03    -226.976E-03     454.117E-03    -227.142E-03     56.1413E-03    -227.400E-03     453.758E-03    -227.010E-03     52.2380E-03
            2054     3.58579E-03     31.8118E-03    -110.951E+06    -180.627E+06    -68.4947E+06    -212.450E+03    -227.130E-03     454.330E-03    -227.200E-03     47.9356E-03    -227.478E-03     453.841E-03    -227.120E-03     44.6231E-03
            2055     2.86824E-03     31.7505E-03    -119.658E+06    -203.648E+06    -88.1871E+06    -194.306E+03    -227.214E-03     454.443E-03    -227.229E-03     39.1312E-03    -227.491E-03     453.828E-03    -227.201E-03     36.4430E-03
            2056     2.15115E-03     31.7018E-03    -126.849E+06    -223.529E+06    -106.542E+06     254.979E+03    -227.333E-03     454.546E-03    -227.213E-03     29.8559E-03    -227.549E-03     453.827E-03    -227.238E-03     27.8113E-03
            2057     1.43416E-03     31.6661E-03    -132.277E+06    -238.927E+06    -122.883E+06     346.934E+03    -227.255E-03     454.412E-03    -227.157E-03     20.3540E-03    -227.421E-03     453.616E-03    -227.233E-03     18.9452E-03
            2058     716.829E-06     31.6447E-03    -136.311E+06    -250.688E+06    -133.765E+06    -41.3914E+03    -226.977E-03     454.262E-03    -227.286E-03     11.2739E-03    -227.111E-03     453.410E-03    -227.393E-03     10.5054E-03
            2059     13.6599E-03     31.8988E-03    -4.89032E+06     92.7133E+06     96.7855E+06     232.927E+03    -222.090E-03     447.162E-03    -225.072E-03     65.0528E-03    -223.189E-03     448.293E-03    -224.716E-03     55.3564E-03
            2060     12.9371E-03     31.7977E-03    -10.0439E+06     89.4113E+06     97.9348E+06     459.589E+03    -222.747E-03     447.994E-03    -225.246E-03     83.1000E-03    -224.132E-03     449.376E-03    -224.872E-03     72.1258E-03
            2061     12.2171E-03     31.6821E-03    -17.0344E+06     81.2546E+06     91.8247E+06     142.928E+03    -223.053E-03     448.464E-03    -225.411E-03     88.5634E-03    -224.410E-03     449.783E-03    -225.045E-03     78.2407E-03
            2062     11.4961E-03     31.5589E-03    -23.6074E+06      73.392E+06     80.7950E+06     82.5342E+03    -223.532E-03     449.105E-03    -225.572E-03     94.1113E-03    -224.904E-03     450.419E-03    -225.241E-03     84.0561E-03
            2063     10.7752E-03     31.4285E-03    -30.0952E+06     66.2790E+06     69.3248E+06     599.599E+03    -224.256E-03     449.993E-03    -225.737E-03     96.7487E-03    -225.579E-03     451.244E-03    -225.443E-03     87.2492E-03
            2064     10.0547E-03     31.2960E-03    -36.9082E+06     53.3388E+06     59.5989E+06     578.344E+03    -224.735E-03     450.655E-03    -225.920E-03     96.7231E-03    -225.975E-03     451.780E-03    -225.646E-03     87.8617E-03
            2065     9.33443E-03     31.1637E-03    -44.4403E+06     39.4499E+06     52.2064E+06     315.252E+03    -225.021E-03     451.145E-03    -226.124E-03     94.9070E-03    -226.172E-03     452.127E-03    -225.856E-03     86.7061E-03
            2066     8.61494E-03     31.0349E-03    -52.1278E+06     13.4659E+06     42.6294E+06     440.573E+03    -225.352E-03     451.695E-03    -226.342E-03     92.0206E-03    -226.395E-03     452.476E-03    -226.073E-03     84.4703E-03
            2067     7.89473E-03     30.9093E-03    -59.6819E+06    -24.6819E+06     29.0275E+06     597.361E+03    -225.810E-03     452.365E-03    -226.555E-03     88.0542E-03    -226.721E-03     452.893E-03    -226.287E-03     81.1413E-03
            2068     7.17601E-03     30.7904E-03    -67.9896E+06    -57.3533E+06     15.0966E+06     682.167E+03    -226.230E-03     452.975E-03    -226.745E-03     83.1277E-03    -227.025E-03     453.281E-03    -226.488E-03     76.8335E-03
            2069     6.45704E-03     30.6776E-03    -76.3331E+06    -85.8666E+06     694.122E+03     821.362E+03    -226.551E-03     453.460E-03    -226.909E-03     77.4980E-03    -227.241E-03     453.573E-03    -226.671E-03     71.8030E-03
            2070     5.73896E-03     30.5739E-03    -84.8409E+06    -110.813E+06    -14.6273E+06     308.891E+03    -226.759E-03     453.809E-03    -227.050E-03     71.2058E-03    -227.356E-03     453.753E-03    -226.839E-03     66.0893E-03
            2071     5.02052E-03     30.4787E-03    -93.5766E+06    -134.544E+06    -31.1933E+06    -99.2540E+03    -226.942E-03     454.110E-03    -227.169E-03     64.2233E-03    -227.452E-03     453.901E-03    -226.994E-03     59.6857E-03
            2072     4.30278E-03     30.3939E-03    -102.177E+06    -157.498E+06    -48.9208E+06    -15.0519E+03    -227.121E-03     454.381E-03    -227.260E-03     56.5043E-03    -227.549E-03     454.029E-03    -227.128E-03     52.5628E-03
            2073     3.58509E-03     30.3195E-03    -111.312E+06    -180.598E+06    -68.3173E+06     225.819E+03    -227.246E-03     454.565E-03    -227.319E-03     48.0965E-03    -227.598E-03     454.079E-03    -227.237E-03     44.7615E-03
            2074     2.86798E-03     30.2586E-03    -119.408E+06    -203.398E+06    -88.2480E+06     222.719E+03    -227.366E-03     454.707E-03    -227.341E-03     39.3377E-03    -227.645E-03     454.096E-03    -227.314E-03     36.6247E-03
            2075     2.15095E-03     30.2085E-03    -126.757E+06    -223.635E+06    -107.342E+06    -110.733E+03    -227.399E-03     454.727E-03    -227.327E-03     30.0487E-03    -227.615E-03     454.010E-03    -227.356E-03     27.9763E-03
            2076     1.43395E-03     30.1743E-03    -132.523E+06    -238.696E+06    -122.570E+06     99.3877E+03    -227.386E-03     454.670E-03    -227.284E-03     20.3210E-03    -227.554E-03     453.876E-03    -227.359E-03     18.8995E-03
            2077     717.209E-06     30.1516E-03    -135.863E+06    -249.773E+06    -133.217E+06     430.659E+03    -227.121E-03     454.509E-03    -227.388E-03     11.0178E-03    -227.255E-03     453.660E-03    -227.495E-03     10.2498E-03
            2078     13.6566E-03     30.4197E-03    -5.32568E+06     92.1759E+06     96.5822E+06     80.0138E+03    -221.932E-03     447.012E-03    -225.079E-03     64.6718E-03    -223.033E-03     448.141E-03    -224.722E-03     54.9665E-03
            2079     12.9375E-03     30.3107E-03    -11.1664E+06     88.3308E+06     97.3312E+06    -279.522E+03    -222.562E-03     447.824E-03    -225.262E-03     82.9690E-03    -223.955E-03     449.209E-03    -224.887E-03     71.9498E-03
            2080     12.2169E-03     30.2008E-03    -17.0015E+06     81.9919E+06     92.5359E+06     587.711E+03    -222.861E-03     448.302E-03    -225.441E-03     88.9873E-03    -224.228E-03     449.631E-03    -225.073E-03     78.6537E-03
            2081     11.4951E-03     30.0756E-03    -23.7511E+06     73.8545E+06     80.9497E+06     593.468E+03    -223.355E-03     448.971E-03    -225.616E-03     95.2124E-03    -224.742E-03     450.301E-03    -225.284E-03     85.1430E-03
            2082     10.7744E-03     29.9439E-03    -30.6414E+06     65.7856E+06     68.9316E+06     152.240E+03    -224.124E-03     449.920E-03    -225.796E-03     97.4161E-03    -225.460E-03     451.181E-03    -225.502E-03     87.8798E-03
            2083     10.0542E-03     29.8107E-03    -37.1426E+06     53.3488E+06     59.5279E+06     424.454E+03    -224.611E-03     450.606E-03    -225.994E-03     97.2594E-03    -225.865E-03     451.744E-03    -225.720E-03     88.3492E-03
            2084     9.33407E-03     29.6780E-03    -44.0599E+06     40.1838E+06     52.4836E+06     522.085E+03    -224.964E-03     451.177E-03    -226.213E-03     95.6756E-03    -226.130E-03     452.177E-03    -225.945E-03     87.4126E-03
            2085     8.61362E-03     29.5481E-03    -51.8146E+06     13.5776E+06     42.7761E+06     139.529E+03    -225.459E-03     451.899E-03    -226.440E-03     92.8207E-03    -226.515E-03     452.695E-03    -226.171E-03     85.1940E-03
            2086     7.89461E-03     29.4218E-03    -60.0126E+06    -25.0944E+06     28.8332E+06     220.778E+03    -225.937E-03     452.591E-03    -226.654E-03     88.7621E-03    -226.862E-03     453.130E-03    -226.386E-03     81.7743E-03
            2087     7.17506E-03     29.3014E-03     -67.838E+06    -57.3981E+06     14.9183E+06     482.338E+03    -226.274E-03     453.121E-03    -226.847E-03     83.7519E-03    -227.079E-03     453.438E-03    -226.591E-03     77.3906E-03
            2088     6.45648E-03     29.1884E-03    -75.8898E+06    -85.4654E+06     763.138E+03     267.296E+03    -226.557E-03     453.581E-03    -227.023E-03     78.1324E-03    -227.256E-03     453.704E-03    -226.786E-03     72.3687E-03
            2089     5.73771E-03     29.0832E-03    -84.3369E+06    -109.863E+06    -14.4266E+06     179.882E+03    -226.899E-03     454.070E-03    -227.171E-03     71.7306E-03    -227.503E-03     454.027E-03    -226.962E-03     66.5544E-03
            2090     5.01995E-03     28.9878E-03    -93.4774E+06    -134.217E+06    -31.3343E+06     103.751E+03    -227.203E-03     454.483E-03    -227.280E-03     64.5648E-03    -227.719E-03     454.282E-03    -227.107E-03     59.9763E-03
            2091     4.30235E-03     28.9016E-03    -102.914E+06    -157.851E+06    -49.4022E+06     222.253E+03    -227.290E-03     454.646E-03    -227.356E-03     56.6805E-03    -227.724E-03     454.298E-03    -227.225E-03     52.6985E-03
            2092     3.58502E-03     28.8281E-03    -111.223E+06    -180.369E+06    -68.4046E+06     240.423E+03    -227.336E-03     454.746E-03    -227.409E-03     48.3335E-03    -227.691E-03     454.263E-03    -227.329E-03     44.9684E-03
            2093     2.86769E-03     28.7649E-03    -119.268E+06    -203.010E+06    -88.0419E+06     233.493E+03    -227.403E-03     454.845E-03    -227.442E-03     39.4946E-03    -227.684E-03     454.237E-03    -227.415E-03     36.7569E-03
            2094     2.15057E-03     28.7168E-03    -126.558E+06    -223.075E+06    -107.085E+06     243.803E+03    -227.405E-03     454.862E-03    -227.457E-03     30.1118E-03    -227.622E-03     454.148E-03    -227.485E-03     28.0247E-03
            2095     1.43362E-03     28.6801E-03    -132.233E+06    -238.791E+06    -123.084E+06    -298.751E+03    -227.442E-03     454.906E-03    -227.464E-03     20.4983E-03    -227.609E-03     454.113E-03    -227.541E-03     19.0645E-03
            2096     716.817E-06     28.6597E-03    -136.411E+06    -249.581E+06    -133.087E+06    -228.906E+03    -227.353E-03     454.938E-03    -227.584E-03     11.2325E-03    -227.490E-03     454.091E-03    -227.690E-03     10.4350E-03
            2097     13.6606E-03     28.9355E-03    -4.67357E+06     92.8120E+06     97.1477E+06     192.649E+03    -221.608E-03     446.685E-03    -225.077E-03     65.0947E-03    -222.712E-03     447.820E-03    -224.719E-03     55.3950E-03
            2098     12.9376E-03     28.8304E-03    -10.4612E+06     88.0898E+06     97.2095E+06     479.483E+03    -221.900E-03     447.188E-03    -225.288E-03     84.0584E-03    -223.299E-03     448.581E-03    -224.914E-03     73.0814E-03
            2099     12.2152E-03     28.7172E-03    -17.2273E+06     80.9248E+06     91.7818E+06     317.743E+03    -222.762E-03     448.255E-03    -225.493E-03     89.6350E-03    -224.139E-03     449.592E-03    -225.126E-03     79.2643E-03
            2100     11.4950E-03     28.5925E-03    -23.3246E+06     74.4066E+06     81.3794E+06     645.306E+03    -223.555E-03     449.226E-03    -225.671E-03     95.5922E-03    -224.953E-03     450.569E-03    -225.338E-03     85.4712E-03
            2101     10.7740E-03     28.4597E-03    -29.9298E+06     66.5238E+06     69.3236E+06     578.481E+03    -223.883E-03     449.741E-03    -225.857E-03     98.0278E-03    -225.232E-03     451.018E-03    -225.564E-03     88.4532E-03
            2102     10.0531E-03     28.3255E-03    -37.0866E+06     53.1463E+06     59.2658E+06     185.893E+03    -224.365E-03     450.444E-03    -226.079E-03     98.1214E-03    -225.634E-03     451.599E-03    -225.806E-03     89.1556E-03
            2103     9.33253E-03     28.1925E-03    -44.3273E+06     40.1924E+06     52.3027E+06     226.384E+03    -225.032E-03     451.347E-03    -226.315E-03     96.5812E-03    -226.216E-03     452.365E-03    -226.048E-03     88.2451E-03
            2104     8.61305E-03     28.0606E-03    -51.8492E+06     14.2035E+06     42.8038E+06     340.531E+03    -225.621E-03     452.164E-03    -226.544E-03     93.5535E-03    -226.693E-03     452.979E-03    -226.275E-03     85.8541E-03
            2105     7.89326E-03     27.9339E-03    -59.7907E+06    -25.2931E+06     28.5857E+06     149.304E+03    -226.069E-03     452.825E-03    -226.756E-03     89.4467E-03    -227.006E-03     453.377E-03    -226.490E-03     82.3844E-03
            2106     7.17454E-03     27.8125E-03    -68.0127E+06    -57.1049E+06     14.6418E+06    -113.365E+03    -226.426E-03     453.374E-03    -226.948E-03     84.3844E-03    -227.244E-03     453.705E-03    -226.693E-03     77.9404E-03
            2107     6.45555E-03     27.6988E-03    -76.5008E+06    -85.2633E+06     240.478E+03    -16.9077E+03    -226.779E-03     453.894E-03    -227.115E-03     78.4139E-03    -227.489E-03     454.029E-03    -226.879E-03     72.5825E-03
            2108     5.73746E-03     27.5926E-03    -85.2276E+06    -109.999E+06    -14.8934E+06     193.974E+03    -227.079E-03     454.329E-03    -227.251E-03     71.8483E-03    -227.692E-03     454.293E-03    -227.042E-03     66.6240E-03
            2109     5.01960E-03     27.4956E-03    -93.7454E+06    -133.793E+06    -31.3406E+06     318.877E+03    -227.273E-03     454.627E-03    -227.354E-03     64.6560E-03    -227.796E-03     454.433E-03    -227.180E-03     60.0276E-03
            2110     4.30204E-03     27.4101E-03    -102.276E+06    -157.642E+06    -49.2054E+06     99.0540E+03    -227.387E-03     454.815E-03    -227.428E-03     56.8631E-03    -227.823E-03     454.471E-03    -227.297E-03     52.8402E-03
            2111     3.58459E-03     27.3350E-03    -111.319E+06    -180.364E+06    -68.4425E+06     112.812E+03    -227.448E-03     454.924E-03    -227.475E-03     48.4832E-03    -227.806E-03     454.444E-03    -227.395E-03     45.0903E-03
            2112     2.86743E-03     27.2729E-03    -119.741E+06    -202.992E+06    -88.2484E+06     108.560E+03    -227.425E-03     454.933E-03    -227.508E-03     39.4699E-03    -227.709E-03     454.327E-03    -227.481E-03     36.7156E-03
            2113     2.15044E-03     27.2229E-03    -126.586E+06    -222.536E+06    -106.639E+06    -37.8766E+03    -227.387E-03     454.934E-03    -227.547E-03     30.0635E-03    -227.606E-03     454.223E-03    -227.574E-03     27.9615E-03
            2114     1.43343E-03     27.1880E-03    -132.126E+06    -238.437E+06    -122.794E+06     186.569E+03    -227.428E-03     455.039E-03    -227.611E-03     20.4849E-03    -227.595E-03     454.246E-03    -227.687E-03     19.0568E-03
            2115     716.436E-06     27.1649E-03    -135.432E+06    -249.952E+06    -133.899E+06    -114.189E+03    -227.374E-03     455.312E-03    -227.938E-03     11.1113E-03    -227.504E-03     454.462E-03    -228.049E-03     10.3128E-03
            2116     13.6567E-03     27.4554E-03    -5.41749E+06     92.0537E+06     95.8498E+06    -92.9694E+03    -221.252E-03     446.352E-03    -225.100E-03     65.4516E-03    -222.361E-03     447.490E-03    -224.746E-03     55.7412E-03
            2117     12.9356E-03     27.3484E-03    -10.7592E+06     87.8533E+06     96.6841E+06     354.615E+03    -221.803E-03     447.130E-03    -225.327E-03     84.1692E-03    -223.210E-03     448.530E-03    -224.955E-03     73.1570E-03
            2118     12.2154E-03     27.2343E-03    -16.3180E+06     81.2759E+06     91.9926E+06     438.477E+03    -222.611E-03     448.154E-03    -225.543E-03     90.1796E-03    -223.999E-03     449.506E-03    -225.177E-03     79.7549E-03
            2119     11.4940E-03     27.1080E-03    -23.2814E+06     73.8908E+06     80.8773E+06     374.318E+03    -223.384E-03     449.119E-03    -225.735E-03     96.3530E-03    -224.799E-03     450.479E-03    -225.404E-03     86.1627E-03
            2120     10.7733E-03     26.9763E-03    -29.6151E+06     66.9207E+06     69.5472E+06     655.509E+03    -223.893E-03     449.828E-03    -225.935E-03     98.8320E-03    -225.260E-03     451.126E-03    -225.642E-03     89.1862E-03
            2121     10.0521E-03     26.8413E-03    -36.1936E+06     53.9254E+06     59.8208E+06     715.870E+03    -224.492E-03     450.652E-03    -226.160E-03     98.6377E-03    -225.773E-03     451.823E-03    -225.887E-03     89.6160E-03
            2122     9.33197E-03     26.7055E-03    -43.6314E+06     40.4099E+06     52.4585E+06     401.244E+03    -225.126E-03     451.520E-03    -226.394E-03     96.7524E-03    -226.318E-03     452.548E-03    -226.127E-03     88.3625E-03
            2123     8.61193E-03     26.5735E-03    -51.3275E+06     14.2635E+06     42.7391E+06     261.167E+03    -225.668E-03     452.291E-03    -226.623E-03     93.7477E-03    -226.749E-03     453.117E-03    -226.355E-03     85.9895E-03
            2124     7.89285E-03     26.4453E-03    -59.2008E+06    -24.5850E+06     28.7433E+06     171.378E+03    -226.207E-03     453.041E-03    -226.834E-03     89.5860E-03    -227.153E-03     453.606E-03    -226.568E-03     82.4608E-03
            2125     7.17355E-03     26.3235E-03    -67.3953E+06    -57.0301E+06     14.8592E+06     163.494E+03    -226.706E-03     453.718E-03    -227.013E-03     84.4368E-03    -227.529E-03     454.057E-03    -226.758E-03     77.9405E-03
            2126     6.45548E-03     26.2080E-03    -75.8489E+06    -85.2585E+06     504.684E+03     194.430E+03    -227.106E-03     454.259E-03    -227.153E-03     78.4634E-03    -227.820E-03     454.399E-03    -226.917E-03     72.5891E-03
            2127     5.73748E-03     26.1017E-03    -84.5098E+06    -109.744E+06    -14.5364E+06     36.5378E+03    -227.267E-03     454.529E-03    -227.261E-03     71.8088E-03    -227.883E-03     454.496E-03    -227.052E-03     66.5495E-03
            2128     5.01943E-03     26.0042E-03    -93.3765E+06    -133.812E+06    -30.9194E+06    -121.208E+03    -227.297E-03     454.648E-03    -227.351E-03     64.4282E-03    -227.820E-03     454.455E-03    -227.176E-03     59.7780E-03
            2129     4.30178E-03     25.9176E-03    -102.391E+06    -157.488E+06    -49.0032E+06     60.8362E+03    -227.399E-03     454.817E-03    -227.418E-03     56.4882E-03    -227.836E-03     454.474E-03    -227.287E-03     52.4546E-03
            2130     3.58461E-03     25.8425E-03    -111.091E+06    -180.389E+06    -68.3131E+06     126.320E+03    -227.477E-03     454.933E-03    -227.455E-03     48.0607E-03    -227.834E-03     454.453E-03    -227.374E-03     44.6549E-03
            2131     2.86756E-03     25.7797E-03    -119.108E+06    -202.576E+06    -87.8316E+06     121.669E+03    -227.428E-03     454.904E-03    -227.476E-03     39.0467E-03    -227.710E-03     454.298E-03    -227.449E-03     36.2851E-03
            2132     2.15031E-03     25.7305E-03    -126.450E+06    -222.604E+06    -106.992E+06     196.744E+03    -227.407E-03     454.901E-03    -227.494E-03     29.7076E-03    -227.625E-03     454.189E-03    -227.522E-03     27.6083E-03
            2133     1.43337E-03     25.6940E-03    -132.225E+06    -238.336E+06    -122.569E+06     224.154E+03    -227.468E-03     454.978E-03    -227.509E-03     20.0854E-03    -227.636E-03     454.185E-03    -227.585E-03     18.6665E-03
            2134     716.752E-06     25.6718E-03    -135.493E+06    -249.097E+06    -132.810E+06     510.214E+03    -227.467E-03     455.031E-03    -227.564E-03     10.7445E-03    -227.600E-03     454.184E-03    -227.670E-03     9.98782E-03
            2135     13.6587E-03     25.9726E-03    -5.04922E+06     92.4317E+06     96.3141E+06    -186.760E+03    -221.112E-03     446.237E-03    -225.125E-03     64.8887E-03    -222.222E-03     447.378E-03    -224.770E-03     55.1479E-03
            2136     12.9373E-03     25.8673E-03    -10.8080E+06     87.8739E+06     96.5750E+06     161.091E+03    -221.615E-03     446.976E-03    -225.361E-03     84.6903E-03    -223.034E-03     448.388E-03    -224.990E-03     73.6409E-03
            2137     12.2144E-03     25.7519E-03    -17.1177E+06     80.5705E+06     91.1579E+06     221.517E+03    -222.307E-03     447.902E-03    -225.594E-03     91.2893E-03    -223.716E-03     449.271E-03    -225.230E-03     80.8211E-03
            2138     11.4930E-03     25.6250E-03    -23.1521E+06     74.0704E+06     80.7361E+06     513.490E+03    -223.226E-03     449.033E-03    -225.807E-03     96.8887E-03    -224.656E-03     450.410E-03    -225.477E-03     86.6482E-03
            2139     10.7716E-03     25.4917E-03    -29.9399E+06     66.6600E+06     68.9219E+06     375.007E+03    -224.211E-03     450.217E-03    -226.005E-03     99.0222E-03    -225.593E-03     451.529E-03    -225.714E-03     89.2973E-03
            2140     10.0520E-03     25.3554E-03    -36.7229E+06     54.0057E+06     59.4186E+06     546.480E+03    -224.937E-03     451.146E-03    -226.209E-03     98.8916E-03    -226.235E-03     452.333E-03    -225.937E-03     89.7872E-03
            2141     9.33175E-03     25.2197E-03    -43.4760E+06     41.2400E+06     52.7092E+06     568.945E+03    -225.361E-03     451.782E-03    -226.421E-03     96.9067E-03    -226.566E-03     452.827E-03    -226.154E-03     88.4555E-03
            2142     8.61198E-03     25.0860E-03    -51.0754E+06     14.7712E+06     42.9340E+06     187.531E+03    -225.872E-03     452.505E-03    -226.633E-03     93.5487E-03    -226.960E-03     453.340E-03    -226.366E-03     85.7507E-03
            2143     7.89240E-03     24.9569E-03    -59.1267E+06    -24.5193E+06     28.7391E+06     95.6298E+03    -226.514E-03     453.332E-03    -226.818E-03     89.0632E-03    -227.462E-03     453.900E-03    -226.553E-03     81.9150E-03
            2144     7.17410E-03     24.8336E-03    -67.2755E+06    -56.9360E+06     14.7952E+06     199.445E+03    -226.998E-03     453.959E-03    -226.961E-03     83.6248E-03    -227.820E-03     454.297E-03    -226.707E-03     77.1241E-03
            2145     6.45557E-03     24.7175E-03    -75.5747E+06    -84.9176E+06     687.073E+03     130.998E+03    -227.273E-03     454.339E-03    -227.065E-03     77.4955E-03    -227.983E-03     454.477E-03    -226.829E-03     71.6312E-03
            2146     5.73762E-03     24.6102E-03    -84.2898E+06    -109.570E+06    -14.3420E+06     155.547E+03    -227.433E-03     454.567E-03    -227.134E-03     70.6142E-03    -228.043E-03     454.531E-03    -226.925E-03     65.3747E-03
            2147     5.02025E-03     24.5127E-03    -93.3113E+06    -133.721E+06    -30.8779E+06     333.290E+03    -227.460E-03     454.632E-03    -227.173E-03     63.1226E-03    -227.977E-03     454.434E-03    -226.998E-03     58.5098E-03
            2148     4.30274E-03     24.4256E-03    -102.293E+06    -157.101E+06    -48.9307E+06     127.218E+03    -227.396E-03     454.584E-03    -227.188E-03     55.1503E-03    -227.828E-03     454.237E-03    -227.057E-03     51.1609E-03
            2149     3.58529E-03     24.3499E-03    -111.140E+06    -180.311E+06    -68.4637E+06    -104.175E+03    -227.289E-03     454.478E-03    -227.189E-03     46.6461E-03    -227.641E-03     453.993E-03    -227.109E-03     43.2835E-03
            2150     2.86796E-03     24.2872E-03    -119.479E+06    -203.016E+06    -88.2952E+06     181.342E+03    -227.249E-03     454.427E-03    -227.177E-03     37.8027E-03    -227.528E-03     453.816E-03    -227.151E-03     35.0860E-03
            2151     2.15108E-03     24.2374E-03    -126.387E+06    -222.054E+06    -106.826E+06     461.468E+03    -227.274E-03     454.410E-03    -227.136E-03     28.7323E-03    -227.489E-03     453.698E-03    -227.165E-03     26.6789E-03
            2152     1.43423E-03     24.2010E-03    -131.613E+06    -237.709E+06    -122.297E+06     164.268E+03    -227.213E-03     454.274E-03    -227.061E-03     19.4242E-03    -227.377E-03     453.482E-03    -227.137E-03     18.0366E-03
            2153     717.152E-06     24.1788E-03    -135.287E+06    -248.727E+06    -132.681E+06    -271.499E+03    -227.225E-03     454.032E-03    -226.807E-03     10.5836E-03    -227.357E-03     453.186E-03    -226.914E-03     9.82175E-03
            2154     13.6572E-03     24.4929E-03    -5.06065E+06      92.182E+06     95.8528E+06    -240.898E+03    -220.700E-03     445.848E-03    -225.148E-03     65.7791E-03    -221.814E-03     446.993E-03    -224.795E-03     56.0758E-03
            2155     12.9342E-03     24.3856E-03    -11.2351E+06     87.4617E+06     95.9738E+06     128.719E+03    -221.561E-03     446.960E-03    -225.399E-03     85.1308E-03    -222.988E-03     448.379E-03    -225.030E-03     74.0754E-03
            2156     12.2137E-03     24.2699E-03    -17.0654E+06     80.6893E+06     91.2132E+06     91.3014E+03    -222.365E-03     448.001E-03    -225.636E-03     91.2486E-03    -223.785E-03     449.382E-03    -225.273E-03     80.7205E-03
            2157     11.4923E-03     24.1416E-03    -23.6781E+06     73.6225E+06     80.4675E+06     11.2188E+03    -223.437E-03     449.279E-03    -225.843E-03     97.0053E-03    -224.881E-03     450.668E-03    -225.513E-03     86.6946E-03
            2158     10.7722E-03     24.0067E-03    -29.9883E+06     66.6230E+06     68.9024E+06     363.386E+03    -224.483E-03     450.510E-03    -226.026E-03     99.0480E-03    -225.876E-03     451.832E-03    -225.735E-03     89.2692E-03
            2159     10.0514E-03     23.8694E-03    -36.5877E+06     54.2184E+06     59.4114E+06     264.477E+03    -225.278E-03     451.485E-03    -226.207E-03     98.7118E-03    -226.586E-03     452.683E-03    -225.936E-03     89.5457E-03
            2160     9.33182E-03     23.7327E-03    -43.6737E+06     41.3444E+06     52.6763E+06     150.924E+03    -225.954E-03     452.335E-03    -226.381E-03     96.5302E-03    -227.166E-03     453.387E-03    -226.114E-03     88.0281E-03
            2161     8.61256E-03     23.5983E-03    -51.2963E+06     15.2897E+06     43.0559E+06     369.592E+03    -226.609E-03     453.139E-03    -226.530E-03     92.7545E-03    -227.698E-03     453.975E-03    -226.262E-03     84.9468E-03
            2162     7.89407E-03     23.4680E-03    -59.4507E+06    -24.1591E+06      28.736E+06     257.531E+03    -227.142E-03     453.779E-03    -226.637E-03     87.6763E-03    -228.084E-03     454.341E-03    -226.372E-03     80.5563E-03
            2163     7.17551E-03     23.3434E-03    -67.6226E+06    -56.5488E+06     14.6863E+06    -37.4313E+03    -227.444E-03     454.141E-03    -226.697E-03     81.6909E-03    -228.256E-03     454.470E-03    -226.443E-03     75.2376E-03
            2164     6.45779E-03     23.2274E-03    -75.9738E+06    -84.8696E+06     421.038E+03    -12.6693E+03    -227.557E-03     454.275E-03    -226.717E-03     75.0998E-03    -228.254E-03     454.399E-03    -226.482E-03     69.3070E-03
            2165     5.74012E-03     23.1189E-03    -84.4832E+06    -109.804E+06    -14.6110E+06     162.146E+03    -227.542E-03     454.244E-03    -226.702E-03     67.9990E-03    -228.136E-03     454.191E-03    -226.494E-03     62.8531E-03
            2166     5.02242E-03     23.0215E-03    -92.9327E+06    -133.383E+06    -30.9039E+06     143.353E+03    -227.499E-03     454.149E-03    -226.651E-03     60.4669E-03    -228.000E-03     453.937E-03    -226.477E-03     55.9533E-03
            2167     4.30515E-03     22.9339E-03    -101.526E+06    -156.358E+06    -48.5454E+06     66.9375E+03    -227.291E-03     453.858E-03    -226.567E-03     52.4845E-03    -227.707E-03     453.499E-03    -226.436E-03     48.6032E-03
            2168     3.58781E-03     22.8589E-03    -110.090E+06    -180.494E+06    -67.3935E+06     236.602E+03    -226.962E-03     453.435E-03    -226.473E-03     44.0572E-03    -227.298E-03     452.935E-03    -226.389E-03     40.8152E-03
            2169     2.87030E-03     22.7958E-03    -117.961E+06    -203.025E+06    -86.8870E+06     231.072E+03    -226.700E-03     453.076E-03    -226.377E-03     35.5422E-03    -226.964E-03     452.453E-03    -226.346E-03     32.9386E-03
            2170     2.15276E-03     22.7458E-03    -125.051E+06    -221.347E+06    -105.445E+06    -103.826E+03    -226.470E-03     452.751E-03    -226.281E-03     27.0054E-03    -226.677E-03     452.034E-03    -226.306E-03     25.0322E-03
            2171     1.43520E-03     22.7099E-03    -130.850E+06    -237.310E+06    -121.404E+06    -79.8154E+03    -226.299E-03     452.497E-03    -226.199E-03     18.4001E-03    -226.459E-03     451.703E-03    -226.272E-03     17.0568E-03
            2172     717.698E-06     22.6878E-03    -134.435E+06    -248.919E+06    -132.228E+06     15.0019E+03    -226.255E-03     452.320E-03    -226.065E-03     9.95102E-03    -226.383E-03     451.471E-03    -226.171E-03     9.21746E-03
            2173     13.6565E-03     23.0113E-03    -4.67735E+06     92.5857E+06     96.2780E+06     370.881E+03    -220.796E-03     445.940E-03    -225.144E-03     64.5115E-03    -221.903E-03     447.080E-03    -224.790E-03     54.8099E-03
            2174     12.9365E-03     22.9038E-03    -10.7270E+06     87.9718E+06     96.4175E+06    -579.345E+03    -221.436E-03     446.828E-03    -225.392E-03     84.1511E-03    -222.864E-03     448.251E-03    -225.022E-03     73.0254E-03
            2175     12.2140E-03     22.7880E-03    -17.2993E+06     80.4879E+06     90.9239E+06    -234.897E+03    -222.509E-03     448.134E-03    -225.625E-03     91.2280E-03    -223.938E-03     449.524E-03    -225.262E-03     80.6485E-03
            2176     11.4928E-03     22.6577E-03    -23.6267E+06     73.6882E+06     80.4521E+06     68.2137E+03    -223.798E-03     449.612E-03    -225.814E-03     97.1316E-03    -225.252E-03     451.011E-03    -225.485E-03     86.7744E-03
            2177     10.7719E-03     22.5215E-03    -30.1180E+06     66.5084E+06     69.5119E+06    -354.014E+03    -224.986E-03     450.955E-03    -225.969E-03     98.6791E-03    -226.383E-03     452.280E-03    -225.675E-03     88.8656E-03
            2178     10.0525E-03     22.3831E-03    -36.4913E+06     54.0401E+06     60.1550E+06    -251.978E+03    -226.044E-03     452.141E-03    -226.096E-03     97.5007E-03    -227.346E-03     453.330E-03    -225.821E-03     88.3263E-03
            2179     9.33316E-03     22.2450E-03    -43.5870E+06     41.0785E+06     52.6467E+06     121.577E+03    -227.002E-03     453.180E-03    -226.179E-03     94.5347E-03    -228.198E-03     454.215E-03    -225.912E-03     86.0600E-03
            2180     8.61482E-03     22.1092E-03    -51.2827E+06     15.4391E+06     43.1052E+06     324.014E+03    -227.734E-03     453.941E-03    -226.207E-03     89.9497E-03    -228.800E-03     454.754E-03    -225.939E-03     82.2070E-03
            2181     7.89700E-03     21.9781E-03    -59.0080E+06    -23.1069E+06     29.2658E+06     160.400E+03    -228.035E-03     454.211E-03    -226.176E-03     84.2942E-03    -228.950E-03     454.750E-03    -225.910E-03     77.2716E-03
            2182     7.17971E-03     21.8539E-03    -66.9044E+06    -56.2576E+06     15.3238E+06     25.8010E+03    -228.058E-03     454.153E-03    -226.095E-03     78.0447E-03    -228.839E-03     454.452E-03    -225.840E-03     71.7282E-03
            2183     6.46229E-03     21.7366E-03    -75.1195E+06    -84.9397E+06     1.00878E+06     92.5395E+03    -227.971E-03     453.940E-03    -225.969E-03     71.2360E-03    -228.636E-03     454.034E-03    -225.732E-03     65.5966E-03
            2184     5.74493E-03     21.6296E-03    -83.4604E+06    -109.084E+06    -13.8918E+06    -102.307E+03    -227.697E-03     453.496E-03    -225.799E-03     63.9101E-03    -228.261E-03     453.417E-03    -225.589E-03     58.9332E-03
            2185     5.02767E-03     21.5309E-03    -92.2939E+06    -133.112E+06    -30.4427E+06    -323.892E+03    -227.247E-03     452.845E-03    -225.598E-03     56.3362E-03    -227.721E-03     452.607E-03    -225.423E-03     52.0033E-03
            2186     4.31022E-03     21.4446E-03    -101.158E+06    -156.611E+06    -48.4310E+06    -168.500E+03    -226.733E-03     452.112E-03    -225.379E-03     48.6068E-03    -227.126E-03     451.731E-03    -225.247E-03     44.8983E-03
            2187     3.59246E-03     21.3696E-03    -109.170E+06    -180.325E+06    -66.8122E+06    -123.211E+03    -226.226E-03     451.379E-03    -225.152E-03     40.8062E-03    -226.544E-03     450.862E-03    -225.067E-03     37.7163E-03
            2188     2.87464E-03     21.3074E-03    -117.173E+06    -202.425E+06    -85.8094E+06    -141.514E+03    -225.643E-03     450.573E-03    -224.930E-03     32.7936E-03    -225.895E-03     449.940E-03    -224.896E-03     30.3191E-03
            2189     2.15617E-03     21.2581E-03    -124.629E+06    -221.292E+06    -104.969E+06    -79.6976E+03    -225.048E-03     449.797E-03    -224.748E-03     24.7275E-03    -225.247E-03     449.072E-03    -224.772E-03     22.8595E-03
            2190     1.43740E-03     21.2221E-03    -130.193E+06    -237.536E+06    -120.960E+06    -51.5069E+03    -224.683E-03     449.333E-03    -224.651E-03     16.7211E-03    -224.837E-03     448.533E-03    -224.722E-03     15.4513E-03
            2191     718.573E-06     21.2001E-03    -134.032E+06    -248.746E+06    -131.200E+06     122.454E+03    -224.702E-03     449.238E-03    -224.536E-03     8.94233E-03    -224.829E-03     448.386E-03    -224.637E-03     8.26481E-03
            2192     13.6601E-03     21.5309E-03    -5.22165E+06     92.3668E+06     96.3345E+06    -155.835E+03    -221.035E-03     446.168E-03    -225.133E-03     65.7880E-03    -222.159E-03     447.322E-03    -224.777E-03     56.0454E-03
            2193     12.9354E-03     21.4244E-03    -10.2456E+06     88.4935E+06     97.2194E+06     563.634E+03    -221.872E-03     447.238E-03    -225.366E-03     85.7641E-03    -223.319E-03     448.681E-03    -224.994E-03     74.6251E-03
            2194     12.2143E-03     21.3045E-03    -16.8660E+06     80.9166E+06     91.4950E+06     244.822E+03    -223.353E-03     448.914E-03    -225.560E-03     91.5384E-03    -224.789E-03     450.311E-03    -225.196E-03     80.9273E-03
            2195     11.4937E-03     21.1743E-03    -23.1860E+06     74.1361E+06     80.8694E+06    -325.691E+03    -224.834E-03     450.518E-03    -225.684E-03     96.0469E-03    -226.279E-03     451.910E-03    -225.353E-03     85.6756E-03
            2196     10.7742E-03     21.0351E-03    -29.7102E+06     66.8852E+06     69.5400E+06    -380.522E+03    -226.188E-03     451.935E-03    -225.747E-03     96.6705E-03    -227.565E-03     453.242E-03    -225.453E-03     86.8735E-03
            2197     10.0552E-03     20.8958E-03    -36.8805E+06     53.5263E+06     59.5188E+06    -511.215E+03    -227.608E-03     453.353E-03    -225.746E-03     94.5243E-03    -228.879E-03     454.511E-03    -225.472E-03     85.4093E-03
            2198     9.33765E-03     20.7557E-03    -43.8370E+06     40.6813E+06     52.4140E+06    -366.298E+03    -228.589E-03     454.252E-03    -225.664E-03     90.4680E-03    -229.744E-03     455.245E-03    -225.397E-03     82.1016E-03
            2199     8.62082E-03     20.6192E-03    -50.8863E+06     15.7535E+06     43.3757E+06    -380.491E+03    -228.934E-03     454.444E-03    -225.510E-03     85.2024E-03    -229.955E-03     455.215E-03    -225.242E-03     77.6005E-03
            2200     7.90418E-03     20.4884E-03    -58.2948E+06    -22.4332E+06     29.8745E+06    -369.235E+03    -228.982E-03     454.274E-03    -225.292E-03     79.2422E-03    -229.852E-03     454.771E-03    -225.025E-03     72.3930E-03
            2201     7.18731E-03     20.3642E-03    -66.2530E+06    -56.2023E+06     15.9096E+06    -159.888E+03    -228.764E-03     453.775E-03    -225.010E-03     72.7389E-03    -229.502E-03     454.032E-03    -224.753E-03     66.6193E-03
            2202     6.47048E-03     20.2480E-03    -74.5059E+06    -84.5992E+06     1.62433E+06    -75.2929E+03    -228.257E-03     452.932E-03    -224.676E-03     65.7581E-03    -228.882E-03     452.988E-03    -224.437E-03     60.3387E-03
            2203     5.75374E-03     20.1404E-03    -83.1316E+06    -108.416E+06    -13.4069E+06    -193.407E+03    -227.534E-03     451.835E-03    -224.301E-03     58.6648E-03    -228.065E-03     451.726E-03    -224.091E-03     53.9075E-03
            2204     5.03643E-03     20.0443E-03    -91.7770E+06    -132.812E+06    -29.9426E+06    -172.851E+03    -226.645E-03     450.554E-03    -223.909E-03     51.4780E-03    -227.092E-03     450.290E-03    -223.733E-03     47.3573E-03
            2205     4.31820E-03     19.9583E-03    -100.403E+06    -156.560E+06    -47.7390E+06    -201.934E+03    -225.701E-03     449.215E-03    -223.514E-03     44.0921E-03    -226.071E-03     448.811E-03    -223.380E-03     40.5896E-03
            2206     3.59973E-03     19.8847E-03    -109.290E+06    -179.971E+06    -66.9586E+06    -216.571E+03    -224.790E-03     447.918E-03    -223.127E-03     36.6691E-03    -225.093E-03     447.387E-03    -223.043E-03     33.7650E-03
            2207     2.88052E-03     19.8234E-03    -117.493E+06    -202.233E+06    -86.6004E+06    -291.254E+03    -223.918E-03     446.680E-03    -222.763E-03     29.2561E-03    -224.160E-03     446.039E-03    -222.732E-03     26.9293E-03
            2208     2.16110E-03     19.7757E-03    -124.569E+06    -221.584E+06    -105.269E+06    -285.280E+03    -223.133E-03     445.575E-03    -222.442E-03     21.9456E-03    -223.324E-03     444.843E-03    -222.467E-03     20.1934E-03
            2209     1.44102E-03     19.7405E-03    -130.139E+06    -237.626E+06    -120.722E+06    -101.491E+03    -222.490E-03     444.691E-03    -222.201E-03     14.7456E-03    -222.641E-03     443.886E-03    -222.271E-03     13.5721E-03
            2210     720.543E-06     19.7187E-03    -133.448E+06    -248.624E+06    -131.122E+06    -93.5074E+03    -222.099E-03     444.185E-03    -222.086E-03     8.04665E-03    -222.222E-03     443.331E-03    -222.188E-03     7.41044E-03
            2211     13.6545E-03     20.0503E-03    -5.49923E+06     92.1097E+06     95.5803E+06    -77.9997E+03    -221.484E-03     446.603E-03    -225.119E-03     65.2604E-03    -222.607E-03     447.757E-03    -224.767E-03     55.4641E-03
            2212     12.9364E-03     19.9403E-03    -11.2232E+06     87.6277E+06     96.2388E+06    -439.791E+03    -223.350E-03     448.645E-03    -225.295E-03     84.5982E-03    -224.797E-03     450.084E-03    -224.925E-03     73.3440E-03
            2213     12.2162E-03     19.8215E-03    -16.2228E+06     81.6301E+06     92.3072E+06    -137.698E+03    -225.042E-03     450.433E-03    -225.391E-03     90.2560E-03    -226.473E-03     451.829E-03    -225.024E-03     79.5490E-03
            2214     11.4973E-03     19.6867E-03    -22.7982E+06     74.5969E+06     81.4197E+06    -77.7588E+03    -226.840E-03     452.220E-03    -225.380E-03     94.0771E-03    -228.267E-03     453.595E-03    -225.048E-03     83.6740E-03
            2215     10.7791E-03     19.5492E-03    -29.6630E+06     67.0438E+06     69.7492E+06    -168.899E+03    -228.544E-03     453.809E-03    -225.264E-03     93.5612E-03    -229.887E-03     455.082E-03    -224.970E-03     83.8041E-03
            2216     10.0622E-03     19.4052E-03    -36.1227E+06     54.4061E+06     60.2533E+06    -394.159E+03    -229.766E-03     454.817E-03    -225.051E-03     90.2684E-03    -230.991E-03     455.932E-03    -224.776E-03     81.2511E-03
            2217     9.34668E-03     19.2655E-03    -43.1006E+06     41.1866E+06     52.9412E+06    -1.14169E+06    -230.251E-03     454.996E-03    -224.745E-03     85.4530E-03    -231.358E-03     455.943E-03    -224.478E-03     77.2099E-03
            2218     8.63070E-03     19.1291E-03    -50.5282E+06     15.7676E+06     43.6145E+06    -1.16511E+06    -230.231E-03     454.596E-03    -224.365E-03     79.8534E-03    -231.205E-03     455.320E-03    -224.096E-03     72.4151E-03
            2219     7.91483E-03     18.9990E-03    -58.3753E+06    -22.5660E+06     29.7709E+06     -720.23E+03    -229.984E-03     453.890E-03    -223.906E-03     73.5211E-03    -230.810E-03     454.342E-03    -223.639E-03     66.8666E-03
            2220     7.19923E-03     18.8755E-03    -66.1988E+06    -56.1547E+06     15.7636E+06    -500.269E+03    -229.380E-03     452.750E-03    -223.370E-03     66.7713E-03    -230.078E-03     452.968E-03    -223.114E-03     60.8537E-03
            2221     6.48333E-03     18.7610E-03    -74.2035E+06    -84.2947E+06     1.65625E+06    -382.400E+03    -228.341E-03     451.120E-03    -222.779E-03     59.8200E-03    -228.931E-03     451.142E-03    -222.540E-03     54.6043E-03
            2222     5.76595E-03     18.6559E-03    -82.5937E+06    -108.078E+06    -13.2160E+06    -244.310E+03    -227.051E-03     449.207E-03    -222.156E-03     52.6978E-03    -227.551E-03     449.068E-03    -221.945E-03     48.1529E-03
            2223     5.04793E-03     18.5609E-03    -90.9840E+06    -132.448E+06    -29.4595E+06    -218.542E+03    -225.686E-03     447.207E-03    -221.522E-03     45.4679E-03    -226.104E-03     446.917E-03    -221.345E-03     41.5565E-03
            2224     4.32959E-03     18.4777E-03    -99.7044E+06    -156.389E+06    -47.1130E+06    -96.7853E+03    -224.212E-03     445.107E-03    -220.895E-03     38.4315E-03    -224.558E-03     444.681E-03    -220.759E-03     35.1314E-03
            2225     3.60990E-03     18.4058E-03    -108.440E+06    -179.537E+06    -66.3421E+06     4.19275E+03    -222.718E-03     443.022E-03    -220.304E-03     31.6288E-03    -223.003E-03     442.476E-03    -220.218E-03     28.9089E-03
            2226     2.88939E-03     18.3469E-03    -116.335E+06    -201.755E+06    -85.8032E+06    -125.048E+03    -221.444E-03     441.214E-03    -219.770E-03     24.9975E-03    -221.672E-03     440.561E-03    -219.738E-03     22.8329E-03
            2227     2.16782E-03     18.3001E-03    -123.557E+06    -221.738E+06    -104.265E+06    -153.218E+03    -220.414E-03     439.703E-03    -219.289E-03     18.5125E-03    -220.596E-03     438.960E-03    -219.309E-03     16.8919E-03
            2228     1.44585E-03     18.2670E-03    -129.480E+06    -237.633E+06    -120.123E+06    -78.9660E+03    -219.506E-03     438.371E-03    -218.865E-03     12.3383E-03    -219.652E-03     437.561E-03    -218.933E-03     11.2517E-03
            2229     723.256E-06     18.2458E-03    -133.236E+06    -248.737E+06    -130.697E+06    -69.3790E+03    -218.527E-03     437.308E-03    -218.782E-03     6.68079E-03    -218.649E-03     436.452E-03    -218.881E-03     6.09362E-03
            2230     13.6613E-03     18.5668E-03    -4.81298E+06     93.0000E+06     96.5724E+06     66.2982E+03    -223.189E-03     448.208E-03    -225.019E-03     64.4034E-03    -224.307E-03     449.359E-03    -224.664E-03     54.5605E-03
            2231     12.9388E-03     18.4569E-03    -10.4857E+06     88.4554E+06     96.7746E+06    -358.359E+03    -224.963E-03     450.056E-03    -225.093E-03     83.8148E-03    -226.410E-03     451.498E-03    -224.722E-03     72.4666E-03
            2232     12.2204E-03     18.3335E-03    -17.3579E+06     80.6249E+06     91.0201E+06    -921.562E+03    -227.471E-03     452.519E-03    -225.049E-03     89.0516E-03    -228.898E-03     453.908E-03    -224.685E-03     78.2437E-03
            2233     11.5027E-03     18.1998E-03    -23.2650E+06     74.3469E+06     81.1478E+06    -674.919E+03    -229.887E-03     454.726E-03    -224.839E-03     91.4034E-03    -231.293E-03     456.079E-03    -224.508E-03     80.9332E-03
            2234     10.7875E-03     18.0562E-03    -29.1661E+06     67.7584E+06     70.6533E+06    -659.071E+03    -231.504E-03     455.980E-03    -224.476E-03     89.7253E-03    -232.813E-03     457.221E-03    -224.178E-03     79.9632E-03
            2235     10.0737E-03     17.9149E-03    -35.5803E+06     55.0603E+06     60.9199E+06    -1.03471E+06    -232.087E-03     456.084E-03    -223.997E-03     85.7886E-03    -233.272E-03     457.162E-03    -223.720E-03     76.8325E-03
            2236     9.35861E-03     17.7740E-03    -42.3352E+06     41.9282E+06     53.4040E+06    -996.794E+03    -232.059E-03     455.486E-03    -223.427E-03     80.4168E-03    -233.123E-03     456.394E-03    -223.159E-03     72.2954E-03
            2237     8.64454E-03     17.6397E-03    -50.0056E+06     16.0448E+06     43.5889E+06    -991.063E+03    -231.828E-03     454.592E-03    -222.764E-03     74.0210E-03    -232.759E-03     455.277E-03    -222.497E-03     66.7242E-03
            2238     7.93022E-03     17.5102E-03    -57.7773E+06    -22.5187E+06     29.5232E+06    -987.668E+03    -231.123E-03     453.125E-03    -222.001E-03     67.0827E-03    -231.908E-03     453.539E-03    -221.737E-03     60.5783E-03
            2239     7.21515E-03     17.3895E-03     -65.575E+06    -55.9760E+06     15.6355E+06    -837.360E+03    -229.877E-03     451.033E-03    -221.156E-03     59.8399E-03    -230.535E-03     451.215E-03    -220.902E-03     54.0852E-03
            2240     6.49884E-03     17.2774E-03    -73.5159E+06    -83.9798E+06     1.69571E+06    -637.234E+03    -228.312E-03     448.564E-03    -220.252E-03     52.5256E-03    -228.866E-03     448.554E-03    -220.015E-03     47.4786E-03
            2241     5.78241E-03     17.1753E-03    -81.8558E+06    -107.778E+06    -13.0634E+06    -482.975E+03    -226.449E-03     445.757E-03    -219.308E-03     45.2838E-03    -226.917E-03     445.590E-03    -219.098E-03     40.9174E-03
            2242     5.06448E-03     17.0839E-03    -90.7398E+06    -132.415E+06    -29.3660E+06    -229.774E+03    -224.322E-03     442.685E-03    -218.364E-03     38.3508E-03    -224.714E-03     442.371E-03    -218.187E-03     34.6250E-03
            2243     4.34454E-03     17.0037E-03    -99.5154E+06    -156.206E+06    -47.0832E+06    -40.6746E+03    -222.127E-03     439.582E-03    -217.455E-03     31.7892E-03    -222.455E-03     439.137E-03    -217.319E-03     28.6609E-03
            2244     3.62330E-03     16.9358E-03    -107.934E+06    -178.945E+06    -66.1651E+06    -120.685E+03    -220.042E-03     436.653E-03    -216.611E-03     25.6870E-03    -220.311E-03     436.095E-03    -216.526E-03     23.1236E-03
            2245     2.90048E-03     16.8791E-03    -115.996E+06    -201.565E+06    -85.5627E+06     19.5237E+03    -218.187E-03     434.048E-03    -215.861E-03     19.9884E-03    -218.405E-03     433.385E-03    -215.828E-03     17.9666E-03
            2246     2.17684E-03     16.8352E-03    -123.072E+06    -221.651E+06    -103.826E+06     271.582E+03    -216.638E-03     431.861E-03    -215.223E-03     14.6522E-03    -216.813E-03     431.111E-03    -215.242E-03     13.1440E-03
            2247     1.45198E-03     16.8035E-03    -128.681E+06    -237.302E+06    -119.447E+06     315.971E+03    -215.409E-03     430.128E-03    -214.718E-03     9.69044E-03    -215.550E-03     429.314E-03    -214.785E-03     8.67922E-03
            2248     726.208E-06     16.7852E-03    -132.436E+06    -248.440E+06    -130.170E+06     184.369E+03    -214.476E-03     428.963E-03    -214.487E-03     5.26003E-03    -214.595E-03     428.106E-03    -214.586E-03     4.70697E-03
            2249     13.6593E-03     17.0822E-03    -5.06850E+06     93.0947E+06     96.4580E+06    -289.430E+03    -225.591E-03     450.481E-03    -224.890E-03     66.3546E-03    -226.741E-03     451.664E-03    -224.535E-03     56.2915E-03
            2250     12.9430E-03     16.9707E-03    -10.6158E+06     88.7568E+06     96.7819E+06    -335.563E+03    -228.345E-03     453.141E-03    -224.796E-03     84.6945E-03    -229.819E-03     454.612E-03    -224.426E-03     73.1042E-03
            2251     12.2258E-03     16.8436E-03    -16.5471E+06     81.8436E+06     91.7476E+06    -551.275E+03    -231.250E-03     455.772E-03    -224.522E-03     87.5630E-03    -232.675E-03     457.163E-03    -224.158E-03     76.5878E-03
            2252     11.5128E-03     16.7054E-03    -23.1754E+06     74.7445E+06     81.1054E+06    -1.44529E+06    -233.469E-03     457.508E-03    -224.039E-03     88.4496E-03    -234.856E-03     458.843E-03    -223.708E-03     77.8795E-03
            2253     10.8000E-03     16.5635E-03    -29.3422E+06     67.7660E+06     69.8313E+06    -1.72807E+06    -234.504E-03     457.890E-03    -223.385E-03     85.8214E-03    -235.786E-03     459.105E-03    -223.092E-03     76.0155E-03
            2254     10.0867E-03     16.4212E-03    -35.7118E+06     55.1451E+06     59.9555E+06    -1.46851E+06    -234.734E-03     457.340E-03    -222.606E-03     80.7736E-03    -235.885E-03     458.387E-03    -222.335E-03     71.8366E-03
            2255     9.37497E-03     16.2834E-03    -42.6537E+06     41.8805E+06     52.5452E+06    -1.41818E+06    -234.478E-03     456.187E-03    -221.709E-03     74.3938E-03    -235.506E-03     457.060E-03    -221.445E-03     66.3255E-03
            2256     8.66218E-03     16.1491E-03    -49.6231E+06     16.6053E+06     43.2667E+06    -1.35961E+06    -233.698E-03     454.392E-03    -220.693E-03     67.1766E-03    -234.593E-03     455.044E-03    -220.429E-03     59.9410E-03
            2257     7.94934E-03     16.0235E-03    -57.0863E+06    -21.8981E+06     29.4729E+06    -1.16635E+06    -232.421E-03     451.982E-03    -219.561E-03     59.4658E-03    -233.170E-03     452.366E-03    -219.299E-03     53.0285E-03
            2258     7.23538E-03     15.9060E-03    -64.9119E+06    -55.6952E+06     15.4946E+06    -968.373E+03    -230.567E-03     448.897E-03    -218.330E-03     51.5916E-03    -231.192E-03     449.050E-03    -218.078E-03     45.9146E-03
            2259     6.52068E-03     15.7981E-03    -73.1956E+06    -83.9992E+06     1.38779E+06    -580.836E+03    -228.190E-03     445.224E-03    -217.034E-03     43.9577E-03    -228.714E-03     445.187E-03    -216.799E-03     39.0131E-03
            2260     5.80335E-03     15.7005E-03    -81.7446E+06    -107.695E+06    -13.3876E+06    -195.256E+03    -225.427E-03     441.140E-03    -215.712E-03     36.8432E-03    -225.871E-03     440.950E-03    -215.505E-03     32.5853E-03
            2261     5.08420E-03     15.6142E-03    -90.3945E+06    -132.193E+06    -29.8209E+06    -16.7282E+03    -222.458E-03     436.872E-03    -214.413E-03     30.2677E-03    -222.830E-03     436.540E-03    -214.240E-03     26.6446E-03
            2262     4.36324E-03     15.5393E-03    -98.8668E+06    -155.629E+06    -47.2848E+06     87.2720E+03    -219.489E-03     432.666E-03    -213.178E-03     24.3486E-03    -219.799E-03     432.209E-03    -213.045E-03     21.3231E-03
            2263     3.64006E-03     15.4755E-03    -107.348E+06    -178.228E+06    -66.0471E+06     204.785E+03    -216.689E-03     428.728E-03    -212.039E-03     19.0572E-03    -216.946E-03     428.162E-03    -211.956E-03     16.5909E-03
            2264     2.91505E-03     15.4236E-03    -115.505E+06    -201.582E+06    -85.5510E+06     321.680E+03    -214.081E-03     425.129E-03    -211.048E-03     14.4407E-03    -214.290E-03     424.458E-03    -211.016E-03     12.5016E-03
            2265     2.18771E-03     15.3829E-03    -122.561E+06    -221.492E+06    -103.760E+06     487.045E+03    -211.883E-03     422.144E-03    -210.261E-03     10.4036E-03    -212.052E-03     421.390E-03    -210.281E-03     8.96305E-03
            2266     1.45907E-03     15.3544E-03    -128.133E+06    -236.463E+06    -118.729E+06     443.436E+03    -210.372E-03     420.083E-03    -209.711E-03     6.73241E-03    -210.511E-03     419.270E-03    -209.776E-03     5.76324E-03
            2267     729.672E-06     15.3368E-03    -131.851E+06    -247.489E+06    -129.086E+06     437.608E+03    -209.505E-03     418.934E-03    -209.429E-03     3.63723E-03    -209.624E-03     418.078E-03    -209.524E-03     3.11316E-03
            2268     13.6627E-03     15.5939E-03    -5.00121E+06     93.5742E+06     96.6543E+06    -290.468E+03    -229.101E-03     453.805E-03    -224.705E-03     65.5065E-03    -230.258E-03     454.997E-03    -224.350E-03     55.2188E-03
            2269     12.9467E-03     15.4757E-03    -10.5660E+06     89.4126E+06     97.2446E+06    -711.979E+03    -232.737E-03     457.115E-03    -224.378E-03     83.5226E-03    -234.224E-03     458.600E-03    -224.006E-03     71.6490E-03
            2270     12.2362E-03     15.3483E-03    -16.4335E+06     82.5375E+06     92.0758E+06    -1.10112E+06    -235.576E-03     459.392E-03    -223.817E-03     86.2400E-03    -237.013E-03     460.798E-03    -223.452E-03     74.9962E-03
            2271     11.5241E-03     15.2083E-03    -22.4580E+06     75.8742E+06     81.2325E+06    -1.11733E+06    -237.333E-03     460.357E-03    -223.024E-03     86.1026E-03    -238.717E-03     461.695E-03    -222.695E-03     75.3652E-03
            2272     10.8138E-03     15.0669E-03    -29.2294E+06     68.1943E+06     69.0118E+06    -1.65884E+06    -238.207E-03     460.242E-03    -222.035E-03     81.5814E-03    -239.470E-03     461.444E-03    -221.746E-03     71.6690E-03
            2273     10.1048E-03     14.9267E-03    -35.7967E+06     55.2689E+06     59.1405E+06    -2.01425E+06    -238.231E-03     459.113E-03    -220.882E-03     75.0384E-03    -239.360E-03     460.140E-03    -220.615E-03     66.0008E-03
            2274     9.39463E-03     14.7899E-03    -42.3826E+06     42.1966E+06     51.9448E+06    -2.09031E+06    -237.489E-03     457.063E-03    -219.574E-03     67.4328E-03    -238.490E-03     457.914E-03    -219.314E-03     59.2817E-03
            2275     8.68480E-03     14.6604E-03    -49.5782E+06     16.6407E+06     42.4300E+06    -1.98857E+06    -236.007E-03     454.130E-03    -218.124E-03     59.0740E-03    -236.874E-03     454.758E-03    -217.864E-03     51.7755E-03
            2276     7.97327E-03     14.5381E-03    -57.0659E+06    -21.7724E+06     28.7424E+06    -1.40258E+06    -233.892E-03     450.438E-03    -216.546E-03     50.5169E-03    -234.615E-03     450.799E-03    -216.288E-03     44.0348E-03
            2277     7.26085E-03     14.4259E-03    -65.0554E+06    -55.6896E+06     14.5830E+06    -687.883E+03    -231.168E-03     446.033E-03    -214.865E-03     42.2251E-03    -231.769E-03     446.164E-03    -214.617E-03     36.5207E-03
            2278     6.54569E-03     14.3242E-03    -73.3099E+06    -84.0281E+06     376.166E+03    -179.245E+03    -227.792E-03     440.919E-03    -213.127E-03     34.5316E-03    -228.296E-03     440.864E-03    -212.897E-03     29.5611E-03
            2279     5.82870E-03     14.2336E-03    -81.3529E+06    -107.422E+06    -14.2249E+06     31.3858E+03    -223.982E-03     435.370E-03    -211.388E-03     27.5795E-03    -224.407E-03     435.166E-03    -211.186E-03     23.2961E-03
            2280     5.10878E-03     14.1538E-03    -89.3960E+06    -131.321E+06    -30.1878E+06     185.557E+03    -220.047E-03     429.753E-03    -209.706E-03     21.4859E-03    -220.402E-03     429.412E-03    -209.537E-03     17.8385E-03
            2281     4.38569E-03     14.0858E-03    -98.1227E+06    -155.143E+06    -47.8438E+06     358.464E+03    -216.187E-03     424.312E-03    -208.125E-03     16.4659E-03    -216.485E-03     423.848E-03    -207.997E-03     13.4134E-03
            2282     3.65991E-03     14.0280E-03    -106.655E+06    -177.675E+06    -66.4029E+06     582.798E+03    -212.502E-03     419.197E-03    -206.695E-03     12.2763E-03    -212.750E-03     418.627E-03    -206.615E-03     9.78440E-03
            2283     2.93129E-03     13.9821E-03    -114.717E+06    -201.129E+06    -84.9406E+06     748.401E+03    -209.236E-03     414.713E-03    -205.477E-03     8.87702E-03    -209.439E-03     414.039E-03    -205.444E-03     6.91662E-03
            2284     2.20061E-03     13.9463E-03    -121.729E+06    -220.743E+06    -102.748E+06     748.875E+03    -206.599E-03     411.099E-03    -204.501E-03     6.05328E-03    -206.764E-03     410.344E-03    -204.518E-03     4.60130E-03
            2285     1.46799E-03     13.9206E-03    -127.075E+06    -235.365E+06    -117.923E+06     562.341E+03    -204.708E-03     408.497E-03    -203.789E-03     3.64820E-03    -204.844E-03     407.685E-03    -203.853E-03     2.68232E-03
            2286     734.337E-06     13.9046E-03    -130.562E+06    -246.318E+06    -128.073E+06     342.219E+03    -203.567E-03     406.939E-03    -203.372E-03     1.78418E-03    -203.682E-03     406.084E-03    -203.466E-03     1.26378E-03
            2287     13.6669E-03     14.0985E-03    -4.97766E+06     94.3148E+06     97.4257E+06    -683.730E+03    -233.974E-03     458.405E-03    -224.431E-03     67.1772E-03    -235.173E-03     459.638E-03    -224.073E-03     56.5186E-03
            2288     12.9564E-03     13.9783E-03    -10.4564E+06     90.0592E+06     97.8164E+06    -1.04868E+06    -237.163E-03     460.995E-03    -223.832E-03     84.4030E-03    -238.693E-03     462.524E-03    -223.458E-03     72.1661E-03
            2289     12.2447E-03     13.8462E-03    -16.4295E+06     83.0904E+06     92.2470E+06    -1.19823E+06    -240.117E-03     463.090E-03    -222.973E-03     85.1484E-03    -241.577E-03     464.519E-03    -222.608E-03     73.6146E-03
            2290     11.5380E-03     13.7077E-03    -22.8055E+06     76.1487E+06     81.1312E+06    -1.55905E+06    -242.082E-03     463.911E-03    -221.829E-03     82.9882E-03    -243.476E-03     465.260E-03    -221.501E-03     71.9512E-03
            2291     10.8315E-03     13.5657E-03    -28.7623E+06     69.1824E+06     69.5485E+06    -1.84410E+06    -242.858E-03     463.291E-03    -220.433E-03     76.7653E-03    -244.121E-03     464.497E-03    -220.144E-03     66.5700E-03
            2292     10.1251E-03     13.4285E-03    -35.0445E+06     55.9694E+06     59.1418E+06    -2.15454E+06    -242.507E-03     461.330E-03    -218.824E-03     68.5596E-03    -243.624E-03     462.352E-03    -218.558E-03     59.2681E-03
            2293     9.41898E-03     13.2958E-03    -41.8920E+06     42.3649E+06     51.1820E+06    -2.30058E+06    -241.032E-03     458.059E-03    -217.027E-03     59.7593E-03    -242.021E-03     458.903E-03    -216.772E-03     51.3569E-03
            2294     8.71123E-03     13.1706E-03    -49.2133E+06     16.3336E+06     41.1204E+06    -1.75151E+06    -238.760E-03     453.829E-03    -215.068E-03     50.3767E-03    -239.611E-03     454.446E-03    -214.815E-03     42.8474E-03
            2295     8.00244E-03     13.0556E-03    -57.0748E+06    -22.2170E+06     27.0772E+06    -811.770E+03    -235.573E-03     448.548E-03    -212.975E-03     40.9679E-03    -236.279E-03     448.896E-03    -212.725E-03     34.2894E-03
            2296     7.29046E-03     12.9503E-03    -64.9294E+06    -55.1382E+06     13.3594E+06    -227.577E+03    -231.492E-03     442.293E-03    -210.801E-03     32.2373E-03    -232.078E-03     442.416E-03    -210.561E-03     26.3481E-03
            2297     6.57630E-03     12.8573E-03    -72.7392E+06    -83.4626E+06    -779.495E+03    -139.503E+03    -226.896E-03     435.503E-03    -208.607E-03     24.6029E-03    -227.386E-03     435.442E-03    -208.385E-03     19.4377E-03
            2298     5.85810E-03     12.7750E-03    -80.7098E+06    -106.993E+06    -15.3415E+06     109.877E+03    -221.930E-03     428.386E-03    -206.456E-03     18.3144E-03    -222.343E-03     428.178E-03    -206.261E-03     13.8353E-03
            2299     5.13621E-03     12.7050E-03    -89.2913E+06    -130.965E+06    -31.3504E+06     677.668E+03    -216.950E-03     421.362E-03    -204.411E-03     13.3039E-03    -217.300E-03     421.020E-03    -204.249E-03     9.47492E-03
            2300     4.41095E-03     12.6446E-03    -98.0330E+06    -154.482E+06    -48.9017E+06     1.14207E+06    -212.125E-03     414.650E-03    -202.524E-03     9.27845E-03    -212.420E-03     414.188E-03    -202.403E-03     6.05879E-03
            2301     3.68192E-03     12.5960E-03    -106.718E+06    -177.116E+06    -67.4682E+06     1.39681E+06    -207.654E-03     408.507E-03    -200.853E-03     6.27659E-03    -207.900E-03     407.940E-03    -200.779E-03     3.63546E-03
            2302     2.94963E-03     12.5561E-03    -114.616E+06    -199.614E+06    -85.5699E+06     1.29929E+06    -203.902E-03     403.338E-03    -199.437E-03     4.09933E-03    -204.105E-03     402.672E-03    -199.409E-03     2.00968E-03
            2303     2.21474E-03     12.5260E-03    -121.415E+06    -219.341E+06    -102.906E+06     763.738E+03    -200.879E-03     399.164E-03    -198.285E-03     2.54872E-03    -201.044E-03     398.415E-03    -198.305E-03     990.228E-06
            2304     1.47791E-03     12.5043E-03    -126.841E+06    -234.596E+06    -118.072E+06     537.057E+03    -198.620E-03     396.038E-03    -197.418E-03     1.59075E-03    -198.755E-03     395.229E-03    -197.484E-03     544.002E-06
            2305     739.356E-06     12.4914E-03    -130.168E+06    -244.821E+06    -127.893E+06     331.828E+03    -197.114E-03     394.056E-03    -196.942E-03     879.092E-06    -197.230E-03     393.208E-03    -197.038E-03     308.038E-06
            2306     13.6705E-03     12.5960E-03    -4.78865E+06     95.4143E+06     98.1282E+06    -671.630E+03    -239.134E-03     463.302E-03    -224.167E-03     69.9232E-03    -240.397E-03     464.602E-03    -223.808E-03     58.7645E-03
            2307     12.9616E-03     12.4733E-03    -10.9705E+06     90.5315E+06     97.7598E+06    -964.755E+03    -243.165E-03     466.413E-03    -223.248E-03     85.7981E-03    -244.768E-03     468.015E-03    -222.874E-03     72.9905E-03
            2308     12.2580E-03     12.3397E-03    -17.3465E+06     83.8758E+06     92.1955E+06    -1.71953E+06    -246.085E-03     468.088E-03    -222.003E-03     83.6983E-03    -247.592E-03     469.564E-03    -221.638E-03     71.6519E-03
            2309     11.5537E-03     12.1994E-03    -23.0144E+06     77.4975E+06     81.7627E+06    -2.30460E+06    -247.760E-03     468.189E-03    -220.429E-03     78.9687E-03    -249.179E-03     469.565E-03    -220.099E-03     67.4696E-03
            2310     10.8514E-03     12.0604E-03    -29.1672E+06     69.3093E+06     69.3868E+06    -2.65396E+06    -248.006E-03     466.569E-03    -218.563E-03     71.0514E-03    -249.282E-03     467.788E-03    -218.274E-03     60.4226E-03
            2311     10.1496E-03     11.9257E-03    -35.5492E+06     55.9023E+06     58.2298E+06    -2.40281E+06    -247.107E-03     463.555E-03    -216.449E-03     61.7616E-03    -248.235E-03     464.588E-03    -216.187E-03     52.0357E-03
            2312     9.44654E-03     11.7997E-03    -42.3479E+06     41.8577E+06     49.3142E+06    -1.82672E+06    -245.100E-03     459.210E-03    -214.109E-03     51.6259E-03    -246.092E-03     460.059E-03    -213.862E-03     42.7980E-03
            2313     8.74197E-03     11.6816E-03    -50.0199E+06     16.0766E+06     38.7693E+06    -1.01164E+06    -241.553E-03     453.149E-03    -211.596E-03     41.1021E-03    -242.405E-03     453.770E-03    -211.352E-03     33.1742E-03
            2314     8.03471E-03     11.5747E-03    -57.4158E+06    -22.0160E+06     24.9177E+06    -319.767E+03    -236.813E-03     445.793E-03    -208.980E-03     31.4924E-03    -237.520E-03     446.148E-03    -208.740E-03     24.4163E-03
            2315     7.32445E-03     11.4811E-03    -64.7129E+06    -54.4215E+06     11.3384E+06     41.7584E+03    -231.257E-03     437.593E-03    -206.336E-03     23.3896E-03    -231.845E-03     437.727E-03    -206.107E-03     17.1142E-03
            2316     6.60910E-03     11.3978E-03    -72.6077E+06    -82.6129E+06    -2.39081E+06     524.726E+03    -225.199E-03     428.943E-03    -203.744E-03     16.6728E-03    -225.693E-03     428.893E-03    -203.530E-03     11.1584E-03
            2317     5.88970E-03     11.3283E-03    -81.2689E+06    -107.023E+06    -17.2674E+06     1.18086E+06    -219.053E-03     420.319E-03    -201.266E-03     11.3871E-03    -219.472E-03     420.121E-03    -201.079E-03     6.59329E-03
            2318     5.16564E-03     11.2678E-03    -89.9837E+06    -130.639E+06    -33.4245E+06     1.84189E+06    -212.990E-03     411.960E-03    -198.970E-03     7.63396E-03    -213.347E-03     411.630E-03    -198.817E-03     3.52170E-03
            2319     4.43697E-03     11.2189E-03    -98.7418E+06    -153.858E+06    -50.5482E+06     2.15853E+06    -207.382E-03     404.294E-03    -196.912E-03     5.06828E-03    -207.685E-03     403.845E-03    -196.798E-03     1.59460E-03
            2320     3.70406E-03     11.1787E-03    -106.966E+06    -175.898E+06    -68.2587E+06     2.35977E+06    -202.572E-03     397.687E-03    -195.115E-03     3.32080E-03    -202.826E-03     397.133E-03    -195.046E-03     459.195E-06
            2321     2.96786E-03     11.1470E-03    -114.400E+06    -196.755E+06    -86.3137E+06     1.87606E+06    -198.459E-03     392.051E-03    -193.592E-03     2.05829E-03    -198.668E-03     391.404E-03    -193.573E-03    -213.419E-06
            2322     2.22862E-03     11.1228E-03    -121.264E+06    -217.593E+06    -103.326E+06     1.08543E+06    -195.142E-03     387.520E-03    -192.378E-03     1.26077E-03    -195.311E-03     386.783E-03    -192.403E-03    -439.362E-06
            2323     1.48684E-03     11.1063E-03    -126.846E+06    -234.018E+06    -117.724E+06     851.660E+03    -192.759E-03     384.239E-03    -191.480E-03     812.664E-06    -192.897E-03     383.435E-03    -191.545E-03    -330.694E-06
            2324     743.896E-06     11.0952E-03    -130.476E+06    -242.833E+06    -128.289E+06     667.879E+03    -191.043E-03     382.145E-03    -191.102E-03     335.398E-06    -191.162E-03     381.309E-03    -191.202E-03    -289.862E-06
            2325     13.6724E-03     11.0863E-03    -5.11872E+06     96.0380E+06     97.8794E+06    -584.016E+03    -245.234E-03     469.086E-03    -223.851E-03     69.8143E-03    -246.533E-03     470.423E-03    -223.494E-03     58.2141E-03
            2326     12.9711E-03     10.9575E-03    -10.7885E+06     91.8550E+06     98.3811E+06    -1.33896E+06    -249.649E-03     472.216E-03    -222.567E-03     84.5610E-03    -251.308E-03     473.877E-03    -222.193E-03     71.1134E-03
            2327     12.2703E-03     10.8239E-03    -16.3397E+06     86.0408E+06     93.2410E+06    -1.94554E+06    -252.925E-03     473.812E-03    -220.887E-03     81.1446E-03    -254.477E-03     475.342E-03    -220.522E-03     68.4589E-03
            2328     11.5729E-03     10.6848E-03    -23.0642E+06     78.2404E+06     80.9391E+06    -2.46368E+06    -254.065E-03     472.887E-03    -218.822E-03     74.6715E-03    -255.523E-03     474.307E-03    -218.497E-03     62.5420E-03
            2329     10.8753E-03     10.5491E-03    -29.7556E+06     69.1658E+06     67.2450E+06    -2.35545E+06    -253.779E-03     470.211E-03    -216.432E-03     65.1392E-03    -255.084E-03     471.463E-03    -216.153E-03     53.8973E-03
            2330     10.1762E-03     10.4210E-03    -36.5888E+06     54.9652E+06     55.1846E+06    -2.03084E+06    -252.232E-03     465.991E-03    -213.760E-03     53.7553E-03    -253.373E-03     467.040E-03    -213.510E-03     43.4410E-03
            2331     9.47704E-03     10.2996E-03    -43.3141E+06     40.6900E+06     46.3405E+06    -1.52640E+06    -248.602E-03     459.469E-03    -210.866E-03     42.1947E-03    -249.602E-03     460.327E-03    -210.631E-03     32.7949E-03
            2332     8.77582E-03     10.1932E-03    -49.8504E+06     15.8495E+06     36.4582E+06    -649.021E+03    -243.161E-03     451.017E-03    -207.856E-03     32.1800E-03    -244.023E-03     451.655E-03    -207.624E-03     23.6805E-03
            2333     8.06953E-03     10.0994E-03    -57.3544E+06    -22.0028E+06     22.5993E+06     604.422E+03    -236.605E-03     441.437E-03    -204.832E-03     23.9171E-03    -237.327E-03     441.813E-03    -204.604E-03     16.3236E-03
            2334     7.35796E-03     10.0176E-03    -65.7035E+06    -53.8598E+06     8.84640E+06     1.73900E+06    -229.416E-03     431.298E-03    -201.881E-03     17.3849E-03    -230.026E-03     431.459E-03    -201.664E-03     10.6770E-03
            2335     6.64165E-03     9.94997E-03    -74.1681E+06    -81.7744E+06    -4.87502E+06     2.12957E+06    -222.070E-03     421.157E-03    -199.087E-03     12.7082E-03    -222.590E-03     421.138E-03    -198.885E-03     6.81954E-03
            2336     5.91941E-03     9.89155E-03    -82.5743E+06    -106.725E+06    -19.1215E+06     2.32237E+06    -214.917E-03     411.427E-03    -196.510E-03     9.53757E-03    -215.363E-03     411.257E-03    -196.331E-03     4.41976E-03
            2337     5.19197E-03     9.84569E-03    -91.2221E+06    -130.113E+06    -34.5891E+06     2.73922E+06    -208.317E-03     402.516E-03    -194.199E-03     7.48602E-03    -208.700E-03     402.213E-03    -194.051E-03     3.10463E-03
            2338     4.45905E-03     9.80717E-03    -99.4553E+06    -152.488E+06    -50.6920E+06     2.95090E+06    -202.546E-03     394.722E-03    -192.176E-03     6.01062E-03    -202.871E-03     394.299E-03    -192.064E-03     2.33649E-03
            2339     3.72253E-03     9.77650E-03    -107.295E+06    -173.902E+06    -67.6627E+06     2.47984E+06    -197.622E-03     388.069E-03    -190.447E-03     4.89010E-03    -197.894E-03     387.538E-03    -190.378E-03     1.87955E-03
            2340     2.98238E-03     9.75265E-03    -114.841E+06    -193.809E+06    -85.4875E+06     1.78215E+06    -193.584E-03     382.602E-03    -189.018E-03     4.03547E-03    -193.809E-03     381.978E-03    -188.998E-03     1.65423E-03
            2341     2.23920E-03     9.73553E-03    -121.309E+06    -215.551E+06    -101.948E+06     1.08121E+06    -190.513E-03     378.404E-03    -187.891E-03     3.20616E-03    -190.692E-03     377.681E-03    -187.912E-03     1.42712E-03
            2342     1.49433E-03     9.72243E-03    -126.611E+06    -233.215E+06    -116.152E+06     785.420E+03    -188.296E-03     375.336E-03    -187.040E-03     2.17892E-03    -188.438E-03     374.536E-03    -187.099E-03     988.966E-06
            2343     747.491E-06     9.71592E-03    -130.254E+06    -240.806E+06    -127.120E+06     576.084E+03    -186.809E-03     373.286E-03    -186.477E-03     869.797E-06    -186.932E-03     372.460E-03    -186.575E-03     232.711E-06
            2344     13.6818E-03     9.56687E-03    -4.56674E+06     98.0406E+06     99.4160E+06    -818.593E+03    -252.904E-03     476.411E-03    -223.507E-03     73.2840E-03    -254.299E-03     477.850E-03    -223.146E-03     60.9050E-03
            2345     12.9814E-03     9.43662E-03    -9.27698E+06     94.6773E+06     100.059E+06    -1.25225E+06    -257.234E-03     479.024E-03    -221.791E-03     85.8815E-03    -258.990E-03     480.794E-03    -221.414E-03     71.6163E-03
            2346     12.2869E-03     9.29736E-03    -16.6546E+06     85.9263E+06     91.9588E+06    -1.55140E+06    -260.147E-03     479.777E-03    -219.630E-03     79.1164E-03    -261.763E-03     481.373E-03    -219.271E-03     65.6950E-03
            2347     11.5932E-03     9.16300E-03    -23.2339E+06     78.0451E+06     79.3820E+06    -1.23266E+06    -261.374E-03     478.405E-03    -217.031E-03     69.5389E-03    -262.871E-03     479.868E-03    -216.713E-03     56.6428E-03
            2348     10.8995E-03     9.03228E-03    -29.7515E+06     69.5889E+06     65.4690E+06    -1.36324E+06    -260.482E-03     474.529E-03    -214.047E-03     57.3606E-03    -261.808E-03     475.810E-03    -213.777E-03     45.3342E-03
            2349     10.2078E-03     8.90821E-03    -36.0331E+06     55.1657E+06     53.2757E+06    -1.42771E+06    -256.546E-03     467.348E-03    -210.802E-03     44.3770E-03    -257.699E-03     468.418E-03    -210.564E-03     33.3170E-03
            2350     9.51189E-03     8.80243E-03    -42.6405E+06     39.1511E+06     44.0210E+06    -690.363E+03    -249.881E-03     457.343E-03    -207.462E-03     33.7849E-03    -250.892E-03     458.217E-03    -207.237E-03     23.7343E-03
            2351     8.80906E-03     8.70846E-03    -50.5603E+06     13.5691E+06     33.6559E+06     1.29756E+06    -242.049E-03     446.216E-03    -204.167E-03     25.8868E-03    -242.932E-03     446.872E-03    -203.945E-03     16.8785E-03
            2352     8.10200E-03     8.63025E-03    -59.1675E+06    -21.9259E+06     20.6180E+06     3.15220E+06    -233.653E-03     434.663E-03    -201.010E-03     20.1691E-03    -234.408E-03     435.072E-03    -200.789E-03     12.2066E-03
            2353     7.38830E-03     8.56563E-03    -67.5417E+06    -52.7883E+06     7.71563E+06     3.46918E+06    -225.051E-03     423.124E-03    -198.073E-03     16.7822E-03    -225.702E-03     423.326E-03    -197.860E-03     9.79603E-03
            2354     6.66762E-03     8.51183E-03    -75.7544E+06    -80.3734E+06    -5.24390E+06     3.49494E+06    -216.910E-03     412.332E-03    -195.422E-03     14.9091E-03    -217.473E-03     412.357E-03    -195.222E-03     8.83582E-03
            2355     5.94110E-03     8.46974E-03    -84.2233E+06    -105.178E+06    -18.5800E+06     3.19709E+06    -209.645E-03     402.728E-03    -193.083E-03     13.7667E-03    -210.133E-03     402.598E-03    -192.901E-03     8.54937E-03
            2356     5.20871E-03     8.43496E-03    -92.3735E+06    -128.750E+06    -32.4121E+06     2.58579E+06    -203.471E-03     394.521E-03    -191.051E-03     12.8178E-03    -203.890E-03     394.250E-03    -190.892E-03     8.39715E-03
            2357     4.47313E-03     8.40752E-03    -100.155E+06    -150.467E+06    -47.1633E+06     1.94233E+06    -198.186E-03     387.496E-03    -189.310E-03     11.8721E-03    -198.543E-03     387.100E-03    -189.182E-03     8.19764E-03
            2358     3.73285E-03     8.38620E-03    -107.955E+06    -171.360E+06    -63.7601E+06     1.14822E+06    -193.738E-03     381.600E-03    -187.862E-03     10.6968E-03    -194.037E-03     381.093E-03    -187.776E-03     7.72365E-03
            2359     2.98934E-03     8.36976E-03    -115.179E+06    -191.604E+06    -81.9148E+06     139.652E+03    -190.338E-03     377.034E-03    -186.696E-03     9.19164E-03    -190.583E-03     376.427E-03    -186.661E-03     6.86323E-03
            2360     2.24412E-03     8.35713E-03    -121.461E+06    -214.545E+06    -99.4843E+06    -468.146E+03    -187.827E-03     373.620E-03    -185.793E-03     7.31336E-03    -188.017E-03     372.906E-03    -185.804E-03     5.58408E-03
            2361     1.49682E-03     8.34920E-03    -126.802E+06    -232.828E+06    -115.012E+06    -730.503E+03    -185.974E-03     371.129E-03    -185.155E-03     5.28834E-03    -186.122E-03     370.333E-03    -185.208E-03     4.12695E-03
            2362     748.988E-06     8.34380E-03    -130.777E+06    -241.074E+06    -126.806E+06    -756.027E+03    -184.991E-03     369.742E-03    -184.751E-03     3.22178E-03    -185.117E-03     368.916E-03    -184.846E-03     2.58494E-03
            2363     13.6795E-03     8.03266E-03    -5.09507E+06     98.8120E+06     98.2357E+06    -1.36618E+06    -260.583E-03     483.748E-03    -223.165E-03     75.6615E-03    -262.062E-03     485.274E-03    -222.810E-03     62.5363E-03
            2364     12.9918E-03     7.90020E-03    -11.9394E+06     93.4683E+06     97.2559E+06    -1.29590E+06    -266.645E-03     487.610E-03    -220.965E-03     85.8773E-03    -268.509E-03     489.482E-03    -220.597E-03     70.5989E-03
            2365     12.3025E-03     7.76404E-03    -17.5130E+06     86.2658E+06     91.0957E+06    -503.135E+03    -269.676E-03     487.890E-03    -218.214E-03     74.5541E-03    -271.343E-03     489.539E-03    -217.858E-03     60.1800E-03
            2366     11.6154E-03     7.63028E-03    -23.5547E+06     78.3665E+06     78.9552E+06    -872.746E+03    -269.448E-03     484.427E-03    -214.979E-03     60.6474E-03    -270.951E-03     485.899E-03    -214.664E-03     46.8671E-03
            2367     10.9312E-03     7.50478E-03    -29.2416E+06     69.9566E+06     65.0438E+06    -971.926E+03    -265.069E-03     476.499E-03    -211.431E-03     47.5890E-03    -266.404E-03     477.794E-03    -211.164E-03     34.7079E-03
            2368     10.2402E-03     7.39780E-03    -35.7981E+06     54.1690E+06     52.0257E+06     317.232E+03    -257.073E-03     464.889E-03    -207.816E-03     36.8470E-03    -258.240E-03     465.973E-03    -207.582E-03     25.1589E-03
            2369     9.54244E-03     7.30778E-03    -44.1431E+06     35.9174E+06     41.6308E+06     2.86548E+06    -247.523E-03     451.852E-03    -204.329E-03     29.3625E-03    -248.551E-03     452.732E-03    -204.109E-03     18.9781E-03
            2370     8.83952E-03     7.23311E-03    -52.8311E+06     12.4492E+06     32.9319E+06     4.73481E+06    -237.200E-03     438.302E-03    -201.102E-03     24.9565E-03    -238.108E-03     438.974E-03    -200.879E-03     15.8762E-03
            2371     8.12685E-03     7.17303E-03    -60.8090E+06    -19.9821E+06     22.5135E+06     4.50027E+06    -227.177E-03     425.396E-03    -198.219E-03     23.1470E-03    -227.970E-03     425.838E-03    -197.989E-03     15.2626E-03
            2372     7.40717E-03     7.12528E-03    -68.3948E+06    -50.9202E+06     11.0341E+06     3.77274E+06    -218.345E-03     414.044E-03    -195.699E-03     22.7966E-03    -219.035E-03     414.280E-03    -195.471E-03     15.9872E-03
            2373     6.68107E-03     7.08806E-03    -75.9660E+06    -78.3556E+06    -307.597E+03     3.05496E+06    -210.736E-03     404.273E-03    -193.537E-03     22.5649E-03    -211.333E-03     404.324E-03    -193.315E-03     16.7499E-03
            2374     5.94929E-03     7.05772E-03    -83.0760E+06    -102.123E+06    -11.7094E+06     1.84352E+06    -204.470E-03     396.172E-03    -191.703E-03     22.1479E-03    -204.984E-03     396.064E-03    -191.493E-03     17.2282E-03
            2375     5.21426E-03     7.03412E-03    -90.1496E+06    -126.321E+06    -24.3818E+06     294.438E+03    -199.318E-03     389.481E-03    -190.163E-03     21.2605E-03    -199.754E-03     389.220E-03    -189.971E-03     17.1377E-03
            2376     4.47421E-03     7.01566E-03    -97.5221E+06    -148.478E+06    -39.7539E+06    -1.08075E+06    -195.104E-03     383.991E-03    -188.887E-03     19.7988E-03    -195.470E-03     383.599E-03    -188.729E-03     16.3909E-03
            2377     3.73223E-03     7.00168E-03    -104.552E+06    -169.543E+06    -57.6507E+06    -2.37522E+06    -191.885E-03     379.731E-03    -187.847E-03     17.8126E-03    -192.184E-03     379.225E-03    -187.737E-03     15.0608E-03
            2378     2.98842E-03     6.99050E-03    -111.096E+06    -192.162E+06    -77.3818E+06    -2.74347E+06    -189.436E-03     376.455E-03    -187.020E-03     15.2417E-03    -189.669E-03     375.837E-03    -186.967E-03     13.0942E-03
            2379     2.24240E-03     6.98250E-03    -117.825E+06    -215.799E+06    -96.9204E+06    -2.08198E+06    -187.622E-03     374.028E-03    -186.406E-03     11.9360E-03    -187.797E-03     373.300E-03    -186.407E-03     10.3595E-03
            2380     1.49557E-03     6.97710E-03    -123.687E+06    -234.135E+06    -113.290E+06    -1.63575E+06    -186.425E-03     372.433E-03    -186.008E-03     8.21038E-03    -186.559E-03     371.624E-03    -186.055E-03     7.16590E-03
            2381     747.095E-06     6.97417E-03    -127.537E+06    -244.054E+06    -124.746E+06    -1.17363E+06    -185.878E-03     371.674E-03    -185.796E-03     4.67081E-03    -185.987E-03     370.826E-03    -185.881E-03     4.10383E-03
            2382     13.6910E-03     6.49183E-03    -5.73872E+06     100.002E+06     97.2079E+06     9.80969E+03    -271.538E-03     494.225E-03    -222.687E-03     75.0450E-03    -273.056E-03     495.795E-03    -222.338E-03     61.1858E-03
            2383     13.0020E-03     6.34958E-03    -12.4403E+06     93.6143E+06     96.1084E+06    -1.05561E+06    -277.263E-03     497.137E-03    -219.875E-03     78.8586E-03    -279.092E-03     498.977E-03    -219.512E-03     62.9440E-03
            2384     12.3240E-03     6.21266E-03    -17.3773E+06     86.5824E+06     91.6727E+06    -1.28846E+06    -278.757E-03     495.245E-03    -216.488E-03     64.4843E-03    -280.402E-03     496.872E-03    -216.130E-03     49.2398E-03
            2385     11.6469E-03     6.08677E-03    -22.8646E+06     78.7564E+06     79.5818E+06    -951.095E+03    -274.150E-03     486.864E-03    -212.714E-03     51.8824E-03    -275.663E-03     488.349E-03    -212.397E-03     37.2150E-03
            2386     10.9608E-03     5.97948E-03    -29.7637E+06     66.9945E+06     63.4371E+06     668.676E+03    -264.252E-03     473.141E-03    -208.889E-03     40.4029E-03    -265.564E-03     474.405E-03    -208.626E-03     27.1750E-03
            2387     10.2681E-03     5.89342E-03    -37.2331E+06     49.5462E+06     51.4965E+06     4.09443E+06    -252.027E-03     457.353E-03    -205.326E-03     34.0935E-03    -253.167E-03     458.391E-03    -205.087E-03     22.5937E-03
            2388     9.56750E-03     5.82337E-03    -44.7304E+06     34.2800E+06     44.8773E+06     5.81548E+06    -239.895E-03     442.065E-03    -202.170E-03     31.8624E-03    -240.909E-03     442.914E-03    -201.930E-03     22.0211E-03
            2389     8.85557E-03     5.77135E-03    -51.6625E+06     14.9933E+06     39.6828E+06     5.16138E+06    -228.710E-03     428.178E-03    -199.468E-03     31.9327E-03    -229.614E-03     428.839E-03    -199.216E-03     23.5742E-03
            2390     8.13631E-03     5.73053E-03    -58.6125E+06    -16.6699E+06     30.9525E+06     3.93824E+06    -219.284E-03     416.492E-03    -197.208E-03     32.5839E-03    -220.071E-03     416.924E-03    -196.944E-03     25.5097E-03
            2391     7.40988E-03     5.69810E-03    -65.4243E+06    -47.5426E+06     20.7301E+06     2.15596E+06    -211.675E-03     407.010E-03    -195.336E-03     32.4285E-03    -212.349E-03     407.225E-03    -195.068E-03     26.4544E-03
            2392     6.67877E-03     5.67277E-03    -71.7807E+06    -73.9745E+06     10.2946E+06    -654.400E+03    -205.691E-03     399.484E-03    -193.793E-03     31.7956E-03    -206.268E-03     399.515E-03    -193.530E-03     26.7367E-03
            2393     5.94415E-03     5.65309E-03    -77.6223E+06    -98.8555E+06    -2.45128E+06    -3.54394E+06    -200.932E-03     393.454E-03    -192.522E-03     30.5429E-03    -201.418E-03     393.321E-03    -192.278E-03     26.2651E-03
            2394     5.20525E-03     5.63708E-03    -83.0356E+06    -124.940E+06    -18.6713E+06    -5.32480E+06    -197.218E-03     388.702E-03    -191.484E-03     28.3637E-03    -197.612E-03     388.412E-03    -191.276E-03     24.7756E-03
            2395     4.46544E-03     5.62569E-03    -88.2118E+06    -148.479E+06    -36.6724E+06    -6.18510E+06    -194.457E-03     385.100E-03    -190.642E-03     25.4719E-03    -194.767E-03     384.675E-03    -190.483E-03     22.5015E-03
            2396     3.72309E-03     5.61566E-03    -93.9279E+06    -171.770E+06    -55.9384E+06    -5.56518E+06    -192.374E-03     382.343E-03    -189.968E-03     22.0995E-03    -192.609E-03     381.796E-03    -189.863E-03     19.6982E-03
            2397     2.97935E-03     5.60886E-03    -100.539E+06    -196.920E+06    -75.6177E+06    -3.52524E+06    -190.840E-03     380.288E-03    -189.448E-03     18.2613E-03    -191.009E-03     379.620E-03    -189.395E-03     16.3982E-03
            2398     2.23519E-03     5.60302E-03    -106.665E+06    -219.159E+06    -92.6103E+06    -1.48128E+06    -189.819E-03     378.880E-03    -189.061E-03     13.9424E-03    -189.936E-03     378.108E-03    -189.051E-03     12.5757E-03
            2399     1.49020E-03     5.59978E-03    -111.568E+06    -235.943E+06    -105.547E+06    -513.600E+03    -189.253E-03     377.996E-03    -188.743E-03     9.36299E-03    -189.333E-03     377.147E-03    -188.766E-03     8.45481E-03
            2400     746.229E-06     5.59657E-03    -114.757E+06    -246.265E+06    -113.385E+06    -152.839E+03    -188.594E-03     377.153E-03    -188.559E-03     5.22485E-03    -188.652E-03     376.257E-03    -188.602E-03     4.74213E-03
            2401     13.6961E-03     4.93212E-03    -7.78412E+06     100.699E+06     96.4009E+06     161.877E+03    -287.572E-03     509.754E-03    -222.182E-03     79.1534E-03    -289.140E-03     511.373E-03    -221.835E-03     64.7123E-03
            2402     13.0269E-03     4.78040E-03    -10.1025E+06     97.2320E+06     98.9257E+06     1.27284E+06    -290.016E-03     508.619E-03    -218.604E-03     77.6736E-03    -291.913E-03     510.542E-03    -218.235E-03     60.7367E-03
            2403     12.3522E-03     4.65543E-03    -16.3421E+06     86.5761E+06     92.4583E+06    -100.569E+03    -283.887E-03     498.536E-03    -214.649E-03     58.6542E-03    -285.554E-03     500.189E-03    -214.289E-03     42.6073E-03
            2404     11.6711E-03     4.54186E-03    -24.2069E+06     75.9387E+06     80.4006E+06     877.499E+03    -271.277E-03     481.994E-03    -210.717E-03     46.5493E-03    -272.715E-03     483.389E-03    -210.390E-03     32.2198E-03
            2405     10.9849E-03     4.46355E-03    -31.6482E+06     63.4814E+06     65.4794E+06     3.32260E+06    -256.241E-03     463.387E-03    -207.146E-03     40.2481E-03    -257.441E-03     464.515E-03    -206.865E-03     28.2955E-03
            2406     10.2848E-03     4.40308E-03    -37.6612E+06     46.7069E+06     55.2180E+06     3.67218E+06    -241.899E-03     446.029E-03    -204.130E-03     40.0270E-03    -242.937E-03     446.942E-03    -203.867E-03     30.1400E-03
            2407     9.57186E-03     4.35819E-03    -42.1975E+06     34.8922E+06     51.9946E+06     3.96667E+06    -229.702E-03     431.387E-03    -201.685E-03     40.7305E-03    -230.614E-03     432.125E-03    -201.415E-03     32.6265E-03
            2408     8.85205E-03     4.32468E-03    -47.9337E+06     18.3571E+06     48.1461E+06     3.37118E+06    -220.404E-03     420.126E-03    -199.722E-03     40.6895E-03    -221.204E-03     420.684E-03    -199.438E-03     34.0183E-03
            2409     8.12625E-03     4.29774E-03    -54.1584E+06    -11.3517E+06     38.7563E+06     582.300E+03    -213.334E-03     411.461E-03    -198.127E-03     40.0867E-03    -214.021E-03     411.804E-03    -197.838E-03     34.5051E-03
            2410     7.39682E-03     4.27775E-03    -59.1811E+06    -41.5193E+06     25.4792E+06    -3.72738E+06    -207.797E-03     404.614E-03    -196.817E-03     38.4985E-03    -208.369E-03     404.756E-03    -196.544E-03     33.7783E-03
            2411     6.66330E-03     4.26116E-03    -62.8428E+06    -68.7431E+06     10.5185E+06    -7.85914E+06    -203.514E-03     399.262E-03    -195.748E-03     36.2094E-03    -203.981E-03     399.232E-03    -195.505E-03     32.1794E-03
            2412     5.92701E-03     4.24824E-03    -66.5260E+06    -98.2423E+06    -6.41063E+06    -10.1938E+06    -200.306E-03     395.189E-03    -194.883E-03     33.1504E-03    -200.670E-03     394.987E-03    -194.676E-03     29.7083E-03
            2413     5.18975E-03     4.23840E-03    -70.8421E+06    -127.183E+06    -24.7985E+06    -10.4001E+06    -197.901E-03     392.080E-03    -194.179E-03     29.5751E-03    -198.173E-03     391.721E-03    -194.016E-03     26.6571E-03
            2414     4.44989E-03     4.22969E-03    -76.1580E+06    -153.697E+06    -43.3711E+06    -8.69254E+06    -196.155E-03     389.758E-03    -193.603E-03     25.6819E-03    -196.351E-03     389.264E-03    -193.487E-03     23.2524E-03
            2415     3.70987E-03     4.22405E-03    -82.0005E+06    -179.842E+06    -59.7610E+06    -5.28902E+06    -194.879E-03     388.017E-03    -193.138E-03     21.4641E-03    -195.011E-03     387.393E-03    -193.057E-03     19.5025E-03
            2416     2.96901E-03     4.21852E-03    -87.1362E+06    -203.488E+06    -73.1979E+06    -1.66848E+06    -193.834E-03     386.604E-03    -192.770E-03     17.0534E-03    -193.913E-03     385.863E-03    -192.715E-03     15.5394E-03
            2417     2.22724E-03     4.21514E-03    -91.2984E+06    -222.682E+06     -83.575E+06     712.314E+03    -193.088E-03     385.580E-03    -192.492E-03     12.9353E-03    -193.126E-03     384.746E-03    -192.455E-03     11.8313E-03
            2418     1.48557E-03     4.21164E-03    -94.4848E+06    -235.673E+06     -91.256E+06     1.67644E+06    -192.603E-03     384.880E-03    -192.277E-03     8.86287E-03    -192.614E-03     383.982E-03    -192.254E-03     8.13124E-03
            2419     742.346E-06     4.21107E-03    -96.8022E+06    -244.850E+06    -96.0470E+06     1.28140E+06    -192.082E-03     384.349E-03    -192.267E-03     4.65592E-03    -192.076E-03     383.408E-03    -192.252E-03     4.25639E-03
            2420     13.7013E-03     3.32955E-03    -7.63701E+06     100.896E+06     96.0861E+06    -705.462E+03    -307.565E-03     529.667E-03    -222.101E-03     91.0373E-03    -309.385E-03     531.539E-03    -221.756E-03     74.8775E-03
            2421     13.0371E-03     3.19574E-03    -9.06704E+06     93.8885E+06     96.9704E+06    -1.07116E+06    -301.091E-03     518.829E-03    -217.738E-03     77.3262E-03    -303.059E-03     520.824E-03    -217.376E-03     59.3866E-03
            2422     12.3708E-03     3.08617E-03    -14.5426E+06     84.4658E+06      91.496E+06     3.46069E+06    -282.564E-03     496.067E-03    -213.503E-03     57.5504E-03    -284.028E-03     497.522E-03    -213.147E-03     43.0795E-03
            2423     11.6903E-03     3.01841E-03    -22.2838E+06     74.6911E+06     82.8267E+06     5.44548E+06    -262.154E-03     472.026E-03    -209.872E-03     49.3267E-03    -263.303E-03     473.127E-03    -209.534E-03     38.0793E-03
            2424     10.9867E-03     2.96510E-03    -29.3788E+06     64.1072E+06     70.2080E+06     4.18566E+06    -245.066E-03     452.008E-03    -206.942E-03     46.3332E-03    -246.007E-03     452.873E-03    -206.642E-03     37.6514E-03
            2425     10.2752E-03     2.93281E-03    -36.3256E+06     49.9365E+06     55.5735E+06     2.39993E+06    -232.576E-03     437.197E-03    -204.622E-03     45.0397E-03    -233.374E-03     437.886E-03    -204.364E-03     38.1727E-03
            2426     9.55732E-03     2.90541E-03    -42.6881E+06     35.9396E+06     44.3070E+06     275.589E+03    -223.405E-03     426.186E-03    -202.781E-03     43.2245E-03    -224.094E-03     426.724E-03    -202.550E-03     37.6933E-03
            2427     8.83387E-03     2.88494E-03    -46.7899E+06     21.9617E+06     33.5954E+06    -1.56214E+06    -216.535E-03     417.827E-03    -201.292E-03     40.2530E-03    -217.126E-03     418.234E-03    -201.088E-03     35.7220E-03
            2428     8.10658E-03     2.86897E-03    -49.4198E+06    -2.68614E+06     20.5713E+06    -5.84158E+06    -211.276E-03     411.360E-03    -200.083E-03     37.1884E-03    -211.765E-03     411.604E-03    -199.905E-03     33.3573E-03
            2429     7.37560E-03     2.85616E-03    -51.5662E+06    -34.9292E+06     5.20074E+06    -11.3012E+06    -207.323E-03     406.418E-03    -199.095E-03     34.1185E-03    -207.707E-03     406.480E-03    -198.944E-03     30.7951E-03
            2430     6.64309E-03     2.84647E-03    -54.1465E+06    -68.3714E+06    -11.0749E+06    -13.7973E+06    -204.321E-03     402.601E-03    -198.279E-03     30.7814E-03    -204.609E-03     402.486E-03    -198.157E-03     27.8989E-03
            2431     5.90868E-03     2.83823E-03    -57.8595E+06    -103.288E+06    -25.7146E+06    -12.7487E+06    -201.950E-03     399.570E-03    -197.620E-03     27.2971E-03    -202.154E-03     399.276E-03    -197.515E-03     24.8218E-03
            2432     5.17228E-03     2.83155E-03    -63.0048E+06    -134.867E+06    -38.4778E+06    -9.60882E+06    -200.190E-03     397.275E-03    -197.085E-03     23.8128E-03    -200.331E-03     396.824E-03    -196.990E-03     21.7185E-03
            2433     4.43567E-03     2.82686E-03    -68.7068E+06    -162.947E+06    -50.3536E+06    -5.62802E+06    -198.859E-03     395.497E-03    -196.638E-03     20.3134E-03    -198.949E-03     394.911E-03    -196.554E-03     18.5848E-03
            2434     3.69759E-03     2.82178E-03    -73.5517E+06    -188.214E+06    -60.6399E+06    -2.23082E+06    -197.817E-03     394.081E-03    -196.264E-03     16.8169E-03    -197.863E-03     393.373E-03    -196.188E-03     15.4208E-03
            2435     2.95909E-03     2.81954E-03    -77.2807E+06    -209.313E+06    -68.2499E+06     364.585E+03    -196.987E-03     392.942E-03    -195.955E-03     13.4431E-03    -196.996E-03     392.131E-03    -195.881E-03     12.3511E-03
            2436     2.21985E-03     2.81694E-03    -80.0780E+06    -224.275E+06    -74.4660E+06     2.26543E+06    -196.212E-03     391.931E-03    -195.719E-03     10.1931E-03    -196.194E-03     391.048E-03    -195.650E-03     9.40575E-03
            2437     1.47956E-03     2.81524E-03    -81.9430E+06    -233.345E+06    -79.3692E+06     2.70991E+06    -195.617E-03     391.229E-03    -195.613E-03     6.88782E-03    -195.580E-03     390.303E-03    -195.552E-03     6.37589E-03
            2438     740.034E-06     2.81446E-03    -82.9133E+06    -239.668E+06    -82.2564E+06     2.16743E+06    -195.604E-03     391.196E-03    -195.592E-03     3.67044E-03    -195.554E-03     390.240E-03    -195.536E-03     3.40384E-03
            2439     13.6914E-03     1.68898E-03    -2.43166E+06     103.584E+06     100.892E+06    -100.277E+03    -337.408E-03     560.381E-03    -222.973E-03     89.0334E-03    -338.884E-03     561.936E-03    -222.616E-03     75.4525E-03
            2440     13.0456E-03     1.58925E-03    -8.95051E+06     89.1370E+06      94.569E+06     889.520E+03    -305.422E-03     523.229E-03    -217.807E-03     61.7111E-03    -306.654E-03     524.487E-03    -217.450E-03     50.0380E-03
            2441     12.3696E-03     1.54064E-03    -15.1814E+06     79.2480E+06     88.5364E+06     2.36365E+06    -276.119E-03     489.783E-03    -213.664E-03     48.2304E-03    -276.965E-03     490.608E-03    -213.314E-03     40.0672E-03
            2442     11.6711E-03     1.50453E-03    -19.1247E+06     73.8796E+06     80.6593E+06     4.18231E+06    -254.858E-03     465.326E-03    -210.468E-03     42.0165E-03    -255.541E-03     465.974E-03    -210.144E-03     36.0975E-03
            2443     10.9690E-03     1.48649E-03    -23.7383E+06     66.5980E+06     65.0563E+06     5.24004E+06    -240.155E-03     448.116E-03    -207.961E-03     36.6562E-03    -240.710E-03     448.637E-03    -207.698E-03     32.3167E-03
            2444     10.2553E-03     1.46665E-03    -29.1869E+06     56.5180E+06     43.7172E+06     3.33221E+06    -229.932E-03     435.872E-03    -205.941E-03     31.9967E-03    -230.394E-03     436.307E-03    -205.762E-03     28.6314E-03
            2445     9.53701E-03     1.45495E-03    -34.0029E+06     41.6747E+06     23.6817E+06    -772.311E+03    -222.441E-03     426.741E-03    -204.300E-03     28.1476E-03    -222.832E-03     427.092E-03    -204.193E-03     25.3983E-03
            2446     8.81425E-03     1.44359E-03    -38.0969E+06     26.5076E+06     4.40967E+06    -4.87478E+06    -216.588E-03     419.537E-03    -202.949E-03     25.1226E-03    -216.919E-03     419.815E-03    -202.910E-03     22.7882E-03
            2447     8.08805E-03     1.43681E-03    -41.6490E+06     5.49975E+06    -13.5461E+06    -8.61095E+06    -212.132E-03     413.975E-03    -201.843E-03     22.2354E-03    -212.401E-03     414.155E-03    -201.858E-03     20.2278E-03
            2448     7.35927E-03     1.43028E-03    -46.0669E+06    -32.0683E+06    -26.3247E+06    -11.4936E+06    -208.714E-03     409.685E-03    -200.971E-03     19.8471E-03    -208.916E-03     409.686E-03    -200.990E-03     18.0734E-03
            2449     6.62787E-03     1.42509E-03    -51.8202E+06    -74.3685E+06    -35.4630E+06    -10.7917E+06    -206.080E-03     406.353E-03    -200.272E-03     17.3382E-03    -206.224E-03     406.151E-03    -200.267E-03     15.8039E-03
            2450     5.89487E-03     1.42145E-03    -58.1252E+06    -111.547E+06    -43.2905E+06    -7.85088E+06    -203.954E-03     403.647E-03    -199.693E-03     15.1100E-03    -204.054E-03     403.270E-03    -199.664E-03     13.8067E-03
            2451     5.16070E-03     1.41817E-03    -63.4979E+06    -143.673E+06    -49.5278E+06    -4.99297E+06    -202.270E-03     401.487E-03    -199.217E-03     13.0690E-03    -202.333E-03     400.958E-03    -199.164E-03     11.9777E-03
            2452     4.42501E-03     1.41493E-03    -67.2849E+06    -170.845E+06    -54.3795E+06    -2.36278E+06    -200.929E-03     399.758E-03    -198.828E-03     11.1224E-03    -200.958E-03     399.098E-03    -198.755E-03     10.2211E-03
            2453     3.68885E-03     1.41355E-03    -70.2442E+06    -193.345E+06    -59.3573E+06    -78.5851E+03    -199.837E-03     398.354E-03    -198.517E-03     9.30265E-03    -199.835E-03     397.588E-03    -198.431E-03     8.57407E-03
            2454     2.95158E-03     1.41151E-03    -72.7127E+06    -212.318E+06    -64.1072E+06     1.46531E+06    -199.095E-03     397.367E-03    -198.272E-03     7.51351E-03    -199.066E-03     396.512E-03    -198.180E-03     6.94882E-03
            2455     2.21438E-03     1.41099E-03    -74.4632E+06    -223.985E+06    -68.7759E+06     1.97352E+06    -198.543E-03     396.615E-03    -198.072E-03     5.66349E-03    -198.496E-03     395.708E-03    -197.983E-03     5.24633E-03
            2456     1.47674E-03     1.41063E-03    -75.2727E+06    -230.619E+06    -72.5482E+06     1.86549E+06    -198.117E-03     396.042E-03    -197.925E-03     3.86624E-03    -198.056E-03     395.105E-03    -197.844E-03     3.59425E-03
            2457     737.934E-06     1.40914E-03    -75.7513E+06    -234.148E+06    -74.6597E+06     1.29693E+06    -197.923E-03     395.726E-03    -197.803E-03     2.10971E-03    -197.854E-03     394.774E-03    -197.727E-03     1.97007E-03


